,case,Temp,Pressure,e11,e22,e33,e12,e23,e13,s11,s22,s33,s12,s23,s13
0,2.0,300.0,11.124198,0.0,0.0,0.0,0.0,0.0,0.0,-0.031344668928477974,-0.006680753380814024,0.03464394398984107,-0.005197772085505165,-0.0007498391496008622,-0.0021571396499681077
1,2.0,300.42593,46.935546,0.0,0.0,-1.0004420374132295e-05,0.0,0.0,0.0,-0.007041971873888513,-0.017415761970551884,0.01019049943572399,0.006854501758936654,-0.001064539502836869,-0.0008143408169841812
2,2.0,300.33083999999997,38.111075,0.0,0.0,-2.000884074826459e-05,0.0,0.0,0.0,-0.012676639265336888,-0.014084580676789886,0.015176405282294586,0.0014155613561800285,0.008002139726324702,-0.0038692940025445866
3,2.0,300.10708,120.70622,0.0,0.0,-3.0013261122507906e-05,0.0,0.0,0.0,0.011936017276993187,-0.021774807470506183,-0.026852886652173575,0.005630865778398184,0.009924926989814032,-0.005246029033442755
4,2.0,298.57164,182.44789,0.0,0.0,-3.9984772219114895e-05,0.0,0.0,0.0,0.007431192850701633,-0.03333821012922517,-0.029552585152363073,0.0036871657421199268,0.008101181174574331,-0.013303016291655487
5,2.0,298.78238999999996,178.34903,0.0,0.0,-4.998919259335821e-05,0.0,0.0,0.0,-0.006949329403995413,-0.019131821591663784,-0.028132498925211472,0.012899443843075988,0.0018735544543804282,0.01130628537959349
6,2.0,299.63561,375.13275,0.0,0.0,-5.9993612967490506e-05,0.0,0.0,0.0,-0.06067790975219344,-0.03170991316552477,-0.021643167030764278,-0.0030516327852477074,-0.0029970276227835966,-0.0009291842855783493
7,2.0,300.07066000000003,584.3505700000001,0.0,0.0,-6.99980333416228e-05,0.0,0.0,0.0,-0.07291249839640333,-0.05125609629283285,-0.05345938634378065,0.004830064738790276,-0.00936793429059313,0.01024456240805959
8,2.0,299.91083,409.6132,0.0,0.0,-8.000245371564407e-05,0.0,0.0,0.0,-0.05269594292343466,-0.026543302269619973,-0.04527293956534126,-0.006930297122067072,-0.002814763586845537,0.01020221868638059
9,2.0,300.29437,249.44772999999998,0.0,0.0,-9.000687408988739e-05,0.0,0.0,0.0,-0.0025235069734257476,-0.04058223298965456,-0.03272014175372657,-0.0075292768789317725,0.008552416603882802,0.014555830126048587
10,2.0,299.48748,317.13629,0.0,0.0,-0.0001000112944641307,0.0,0.0,0.0,-0.028887523250476575,-0.03020867168486377,-0.03730531630499807,-0.016489447715881785,0.005009612251210235,0.004421074847226116
11,2.0,299.70589,370.1395,0.0,0.0,-0.000110015714838263,0.0,0.0,0.0,-0.047045614535790654,-0.031849869348837365,-0.03361768173205687,0.0014290077929570886,0.003009358977825607,0.016644538815938085
12,2.0,299.47296,255.35007000000002,0.0,0.0,-0.00011998722593475897,0.0,0.0,0.0,-0.051862782829958154,-0.031065701924196068,0.005308440882627325,-0.003191917768217757,-0.001185706888220159,-0.0014596589124571185
13,2.0,299.30319,310.06233,0.0,0.0,-0.0001299916463091133,0.0,0.0,0.0,-0.02017613489997948,-0.03873635272598037,-0.03533871843765996,0.020493278128279082,-0.02077321886590708,-0.00045733611696806054
14,2.0,299.38313999999997,480.51135999999997,0.0,0.0,-0.0001399960666832456,0.0,0.0,0.0,-0.05644974880740644,-0.06124150782881624,-0.02837219843511797,0.005429474822972445,-0.014706204546889385,-0.005133115988674105
15,2.0,300.30566,504.33378,0.0,0.0,-0.00015000048705726687,0.0,0.0,0.0,-0.024157127668372875,-0.06014415087776554,-0.06900359634612473,0.029106723697609967,-0.003350918392459897,-0.0011990311270351588
16,2.0,300.4478,471.16302,0.0,0.0,-0.00016000490743139917,0.0,0.0,0.0,-0.04938255024842825,-0.048453766703264456,-0.045385476187697754,0.01064941155176509,0.01068098645138129,-0.004585463834175046
17,2.0,300.23693,275.20271,0.0,0.0,-0.00017000932780553146,0.0,0.0,0.0,-0.013359105764191087,-0.03324200912498087,-0.037053636125909166,-0.0005634026308110105,0.003050780844563627,0.0036125377444297165
18,2.0,300.54281000000003,168.4307,0.0,0.0,-0.0001800137481798858,0.0,0.0,0.0,-0.034473995603568466,-0.007402136688184013,-0.009322595300293522,-0.018458813782493085,0.013054292776358386,0.009015163567577372
19,2.0,299.82635,317.2939,0.0,0.0,-0.00018998525927638177,0.0,0.0,0.0,-0.017233451933059283,-0.04726661755485196,-0.031949353283405674,-0.01232555722493779,0.0015798392909179984,-0.0016800784007858283
20,2.0,299.40905,398.53642,0.0,0.0,-0.00019998967965051406,0.0,0.0,0.0,-0.05638466775348344,-0.03273059545500827,-0.03202985803035087,-0.013685895133442686,0.005336898822285906,0.009496225938754531
21,2.0,299.3197,371.13383,0.0,0.0,-0.00020999410002464636,0.0,0.0,0.0,-0.0026382228940973274,-0.044801936335856864,-0.06537525818228564,-0.010436989747800688,-0.004530828375532946,0.013194875148232789
22,2.0,299.89248,358.70128,0.0,0.0,-0.00021999852039888967,0.0,0.0,0.0,-0.037133558254046864,-0.04715652185198636,-0.024746153256255177,-0.0023103249279113175,-0.00029685417174222573,0.0013099081470528688
23,2.0,299.80839,491.08935999999994,0.0,0.0,-0.00023000294077302197,0.0,0.0,0.0,-0.06632294998756554,-0.036262626223342566,-0.046693325714522456,-0.0025391687802214474,-0.007038149185236243,0.018864726838803584
24,2.0,300.91522000000003,474.11133,0.0,0.0,-0.00024000736114715426,0.0,0.0,0.0,-0.07861424922662233,-0.030243763575577072,-0.03525999397114047,0.02313997858198808,0.01082773748986449,0.004327858675126396
25,2.0,300.60765,279.88412999999997,0.0,0.0,-0.00025001178152128656,0.0,0.0,0.0,-0.021579836873014083,-0.026880431856142077,-0.036617518084117666,0.023510878781093078,-0.0007645631326340062,0.017093309311728283
26,2.0,300.30429,290.76687999999996,0.0,0.0,-0.00026001620189541885,0.0,0.0,0.0,-0.04072250834674866,-0.0049498753822896655,-0.04271348602474286,0.017190421227812485,0.0070791732499850026,0.0007346824378475112
27,2.0,300.10425,340.88300000000004,0.0,0.0,-0.00026998771299213686,0.0,0.0,0.0,-0.017313792533488283,-0.029428517743868576,-0.056877610887383155,-0.004308521202267936,-0.003876712006526686,0.00984667530579119
28,2.0,300.32104,266.54861,0.0,0.0,-0.00027999213336626916,0.0,0.0,0.0,-0.057343763688638846,0.007252929531458414,-0.030933286348127673,-0.005027486692249305,0.0038514099356295665,0.0064476438469079035
29,2.0,299.96876000000003,254.41651000000002,0.0,0.0,-0.0002899965537405125,0.0,0.0,0.0,-0.03742067482888307,-0.002794104025256597,-0.03712148639235546,-0.02179785181753048,-0.0036848816737445065,0.0002983548052728267
30,2.0,299.62743,372.48256000000003,0.0,0.0,-0.00030000097411464477,0.0,0.0,0.0,-0.045443054124630254,-0.03637401685983597,-0.031408326366010465,-0.016475319969737483,0.00892501683400558,0.013512625313342286
31,2.0,300.16931,333.0002,0.0,0.0,-0.00031000539448877706,0.0,0.0,0.0,-0.02118047751835038,-0.027567430622693574,-0.05247583865721205,-0.009312415885813892,0.004206850572658826,-0.010625740002928888
32,2.0,300.66572,333.19577000000004,0.0,0.0,-0.00032000981486290936,0.0,0.0,0.0,-0.03022343575207087,-0.04304085294655146,-0.028018905483000678,0.0077242030960694924,0.01100801697415669,-0.0038794801044748765
33,2.0,300.06032999999996,288.54932,0.0,0.0,-0.00033001423523704165,0.0,0.0,0.0,-0.017404104528151384,-0.035615370165463366,-0.03469231350986477,0.016162916725405683,-0.004273615546923016,-0.018755248205248883
34,2.0,299.97539,272.99099,0.0,0.0,-0.00033998574633364864,0.0,0.0,0.0,-0.05152803235467086,-0.014986020654755086,-0.016468390352303585,0.016413309063617484,-0.007038907906911124,0.013769035343897987
35,2.0,299.69262000000003,338.2045,0.0,0.0,-0.00034999016670789196,0.0,0.0,0.0,-0.03147053586915007,-0.037700445340494264,-0.03363474385049076,-0.0028864141491168976,-0.014392145651894186,-0.01731846969594988
36,2.0,299.42339,355.32516,0.0,0.0,-0.0003599945870821353,0.0,0.0,0.0,-0.05335753647022885,-0.008563822050983431,-0.04608861906809255,-0.011484999392481189,-0.0005727392441224624,0.017398786991626582
37,2.0,300.22923,316.18062000000003,0.0,0.0,-0.00036999900745626757,0.0,0.0,0.0,-0.023769134953330977,-0.022507155258533276,-0.04983472526455445,0.00019363185092997583,0.0015795941857188085,-0.001062471459382769
38,2.0,300.79966,352.04202999999995,0.0,0.0,-0.00038000342783039986,0.0,0.0,0.0,-0.03216725981016137,-0.03688816833157876,-0.03795655747552056,0.007509180887048452,0.014075142252108385,-0.006350370013457724
39,2.0,299.69511,464.69912,0.0,0.0,-0.00039000784820442114,0.0,0.0,0.0,-0.038906217012494665,-0.03136631600361437,-0.07098439694011453,-0.005016915149980975,-0.0006349150060337324,-0.007245276149478083
40,2.0,299.5946,497.0079,0.0,0.0,-0.00040001226857866445,0.0,0.0,0.0,-0.08120204641226801,-0.040470507980628165,-0.02940543793309077,-0.016980396773584684,-0.0005433896139783794,0.00019070099461822283
41,2.0,300.10672,307.00725,0.0,0.0,-0.00040998377967527144,0.0,0.0,0.0,-0.02075622868823028,-0.021475752782991776,-0.05109055858424554,-0.009453985467260721,-0.014979744583635686,0.00046907227876882954
42,2.0,300.03188,217.24482999999998,0.0,0.0,-0.00041998820004940374,0.0,0.0,0.0,-0.02252245736154348,-0.022434226582585776,-0.02108031875921548,-0.0032473313016116467,0.0007544837462042484,0.016358758717983785
43,2.0,300.14974,312.19755,0.0,0.0,-0.00042999262042353603,0.0,0.0,0.0,-0.017442135857404784,-0.026999183754611977,-0.05045893900190955,0.0018242062360851385,-0.0031094204649509067,0.015139329447885484
44,2.0,299.58835,422.31140999999997,0.0,0.0,-0.00043999704079789037,0.0,0.0,0.0,-0.045666926667974755,-0.033006895585026966,-0.04969830329759065,-0.01014673817715509,0.0033447863041797072,0.0010187840667461592
45,2.0,299.45072999999996,383.63992,0.0,0.0,-0.00045000146117202267,0.0,0.0,0.0,-0.04651829891874866,-0.024050411154590775,-0.04604824611785806,0.007969440119097504,0.002011730255942318,0.002706455459806357
46,2.0,299.72061,410.14625,0.0,0.0,-0.00046000588154604394,0.0,0.0,0.0,-0.07253112017801423,-0.024671802990417376,-0.027471296492955873,-0.001163658262069129,-0.007933467410072273,-0.0018900816780865381
47,2.0,300.05047,427.69453,0.0,0.0,-0.00047001030192017623,0.0,0.0,0.0,-0.02067519603798298,-0.043880227302891255,-0.06545303525996164,0.017535685186137382,-0.013999082633351886,0.002890503322545467
48,2.0,299.99444,372.72664,0.0,0.0,-0.0004800147222943085,0.0,0.0,0.0,-0.04768518306516116,-0.036562826896720066,-0.02905158060066777,-0.001077705775961279,-0.01112679217737889,-0.012731445963245887
49,2.0,299.98821,363.26959,0.0,0.0,-0.0004899862333910265,0.0,0.0,0.0,-0.010927786817988592,-0.02968713159339177,-0.06980996509370714,0.006194579770832424,0.002250245580456948,0.006334211714113024
50,2.0,300.66737,170.70617,0.0,0.0,-0.0004999906537651588,0.0,0.0,0.0,-0.012651072938813688,-0.027247068298826272,-0.01199227393579529,-0.002300585162650078,-0.00024268063355571375,-0.018847308056334482
51,2.0,300.37627000000003,138.25335,0.0,0.0,-0.0005099950741392911,0.0,0.0,0.0,0.01047132676718949,-0.02120679364994758,-0.03129010034434247,0.002964752567348297,0.0012475969136032288,-0.010444031835995689
52,2.0,300.66812000000004,378.69465,0.0,0.0,-0.0005199994945134234,0.0,0.0,0.0,-0.06742933601025734,-0.03231261053700637,-0.015371770034075586,-0.014752760349234086,-0.0032101498865421273,-0.018891843437979783
53,2.0,299.96608,590.26972,0.0,0.0,-0.0005300039148876667,0.0,0.0,0.0,-0.04624535669956136,-0.06527806824594373,-0.06790382988633624,-0.015227235986811184,-0.0072694131854102225,0.003627097236441627
54,2.0,301.11511,468.66443,0.0,0.0,-0.000540008335261799,0.0,0.0,0.0,-0.06859811392110673,-0.03659222736162167,-0.037271943899704466,-0.00952857992637262,0.003912756656309016,-0.0026012124143196774
55,2.0,300.41345,438.21983,0.0,0.0,-0.0005500127556359313,0.0,0.0,0.0,-0.011982923663872488,-0.05135815894890565,-0.06986680437131673,-0.0015114481515683187,0.006077146718692684,0.026046776283366675
56,2.0,300.33887999999996,516.649,0.0,0.0,-0.0005599842667324273,0.0,0.0,0.0,-0.05804116042771654,-0.04655938823680386,-0.052447847623199546,0.014263407160438685,0.010165333342990291,0.0016252797075526184
57,2.0,300.09013999999996,538.45988,0.0,0.0,-0.0005699886871067816,0.0,0.0,0.0,-0.06520973465919974,-0.03486138239505057,-0.06360724112254594,0.0008791442201147792,0.0006934933045249603,0.011907467942175589
58,2.0,300.00017,427.84752000000003,0.0,0.0,-0.0005799931074809139,0.0,0.0,0.0,-0.07144007678833664,-0.02720681997835408,-0.031408064947484673,0.006779781859462373,-0.0025686276083288074,-0.006527763761465124
59,2.0,299.79465,335.5852,0.0,0.0,-0.0005899975278550462,0.0,0.0,0.0,-0.03858838274762687,-0.022063707365518378,-0.04135743213766076,-0.006243592096719564,-0.006806542402553433,0.004311231240985396
60,2.0,300.28474,260.20392999999996,0.0,0.0,-0.0006000019482292895,0.0,0.0,0.0,-0.03428304558247317,-0.02352605118809048,-0.021286400657304184,0.016690704516994285,-0.006465851444579854,0.005435365656403825
61,2.0,300.02513999999996,299.52621,0.0,0.0,-0.0006100063686034218,0.0,0.0,0.0,-0.008462928786851042,-0.03642484756435256,-0.046160711812707554,0.0009030660214606773,-0.003344213716548197,0.0009688123450018343
62,2.0,300.04141,534.26801,0.0,0.0,-0.0006200107889775541,0.0,0.0,0.0,-0.05482268699557795,-0.04862123769304255,-0.058960209679169644,0.00977381269375021,-0.002097106608043308,0.003230681677293457
63,2.0,299.4615,359.28906,0.0,0.0,-0.0006300152093516864,0.0,0.0,0.0,-0.036158638392079764,-0.029383547677930374,-0.04367271773541166,-0.019701430267879783,0.007414743748578233,-0.010714302114669292
64,2.0,299.59857999999997,278.87359,0.0,0.0,-0.0006399867204481824,0.0,0.0,0.0,-0.03797258911860276,-0.041966091472730754,-0.004831927092474076,-0.008803652472802851,0.018595788984011482,-0.024216007631683873
65,2.0,299.7787,453.63022,0.0,0.0,-0.0006499911408224257,0.0,0.0,0.0,-0.03907643998954436,-0.04726837351727525,-0.05154744622658685,-0.00998379003184836,0.013212201724942788,-0.003581828768348976
66,2.0,299.59018,468.67655999999994,0.0,0.0,-0.000659995561196669,0.0,0.0,0.0,-0.048090068685870256,-0.043699818122586255,-0.050676084577840154,0.0017430262592732983,0.0025920178789372475,0.00891789976530318
67,2.0,299.80884,368.13933,0.0,0.0,-0.0006699999815709123,0.0,0.0,0.0,-0.008209546043619112,-0.031416795110346264,-0.07227882394286453,-0.0024147565627179175,0.0006800167235574253,0.01042908335727039
68,2.0,300.42957,324.66651,0.0,0.0,-0.0006800044019450446,0.0,0.0,0.0,-0.03674300505600226,-0.011800814249899687,-0.05014669382459336,0.01038617120228529,-0.014176076147569787,0.017442803589220682
69,2.0,300.25372999999996,363.6832,0.0,0.0,-0.0006900088223189549,0.0,0.0,0.0,-0.032634684240292575,-0.03177602469479947,-0.04613990370865396,0.004538642560304146,-0.01026991797856199,-0.005891166486687864
70,2.0,301.08988,508.42207,0.0,0.0,-0.0007000132426931982,0.0,0.0,0.0,-0.06973161147672423,-0.03243805495238677,-0.05237794856505105,0.008292206986777111,0.0018866499013228482,0.006021731564098635
71,2.0,300.12236,586.89141,0.0,0.0,-0.0007099847537898052,0.0,0.0,0.0,-0.07688118625558232,-0.04026233473433306,-0.06125681499807694,-0.0012896400039775586,0.007717229503581253,-0.020920576841200182
72,2.0,299.87036,488.60965999999996,0.0,0.0,-0.0007199891741640485,0.0,0.0,0.0,-0.06421953802547493,-0.035640449118688466,-0.04866514992587635,-0.015127834125500984,0.0032594893908865566,0.014185764845025987
73,2.0,300.10763,239.56838,0.0,0.0,-0.0007299935945381808,0.0,0.0,0.0,0.0014471162947692587,-0.02926866639484247,-0.04500125580277816,-0.008960409659998581,-0.004655752892287036,-0.004876786207526325
74,2.0,299.91597,255.16163999999998,0.0,0.0,-0.0007399980149123131,0.0,0.0,0.0,-0.030476809072076873,-0.02312589035259768,-0.02396006977567478,0.001111626552208999,-0.008949785530050061,0.008981374817817682
75,2.0,299.79295,526.6302400000001,0.0,0.0,-0.0007500024352866674,0.0,0.0,0.0,-0.05764245765911765,-0.04108027581130756,-0.06135970953248185,-0.003579288651673287,0.0006349625882584284,0.0008063930655847993
76,2.0,299.9878,548.82711,0.0,0.0,-0.0007600068556607997,0.0,0.0,0.0,-0.06577863304709564,-0.04588535299203176,-0.05516575017468565,0.0010764907877663689,-0.01119286317664959,0.006270469974172204
77,2.0,299.57687999999996,321.31633999999997,0.0,0.0,-0.000770011276034821,0.0,0.0,0.0,-0.024752066583838776,-0.028396251979241872,-0.04452382451465936,0.0004563375691270116,0.010202739496931991,-0.002183642523558738
78,2.0,300.34745,428.25557000000003,0.0,0.0,-0.0007800156964089533,0.0,0.0,0.0,-0.031186475256615467,-0.03466162925708646,-0.06433089421146493,0.01110522008274989,0.0022137064646258176,0.00039806152314061363
79,2.0,300.3382,528.62525,0.0,0.0,-0.0007899872075056713,0.0,0.0,0.0,-0.030473690288269073,-0.038721577513022166,-0.09149360943946623,0.024567472680620775,0.008010607964035452,0.010226264124503691
80,2.0,300.45245,553.4124099999999,0.0,0.0,-0.0007999916278798036,0.0,0.0,0.0,-0.06924072321402734,-0.04610783839598936,-0.05287499232210545,0.004116157291983095,-0.01046307080537469,-0.013831362384049186
81,2.0,300.85949,442.80467999999996,0.0,0.0,-0.0008099960482539359,0.0,0.0,0.0,-0.028629900359551177,-0.04964736417531336,-0.056324301352275744,-0.0005347129608545604,0.0010465593798123691,-0.003559540508549297
82,2.0,300.4565,196.75332,0.0,0.0,-0.0008200004686280682,0.0,0.0,0.0,-0.030201424920148573,-0.029954226346251972,0.00034755422779093165,-0.01173257084241459,-0.0038968731503914366,-0.02704185475607327
83,2.0,300.17753999999996,239.85345,0.0,0.0,-0.0008300048890022005,0.0,0.0,0.0,-0.011900649782252687,-0.03279794922890557,-0.028210860648195175,-0.004352728392205845,0.01030883995465329,0.003389023891620617
84,2.0,300.15595,453.13883,0.0,0.0,-0.0008400093093764438,0.0,0.0,0.0,-0.05343850021946936,-0.032945185614186676,-0.05135920360975875,-0.005534449357182625,-0.004050982005800796,0.0058373249094991145
85,2.0,300.03469,490.56647999999996,0.0,0.0,-0.0008500137297505761,0.0,0.0,0.0,-0.03714945513486576,-0.044983125718738866,-0.06698738063463973,-0.006318359213648504,0.004218422902050926,0.025338822491497076
86,2.0,299.61036,286.44743,0.0,0.0,-0.0008599852408472941,0.0,0.0,0.0,-0.055366051480953846,-0.003246970280601017,-0.02845984456876797,0.0059751522543516145,-0.0047121855526315055,0.014176192671331286
87,2.0,299.73148,525.55764,0.0,0.0,-0.0008699896612212044,0.0,0.0,0.0,-0.04031464782374596,-0.06252369679685843,-0.05691805577837475,0.01032338718633899,-0.0007166349640888644,0.0045471725049459856
88,2.0,299.57852,779.296,0.0,0.0,-0.0008799940815955587,0.0,0.0,0.0,-0.1091761277373449,-0.05165085751854275,-0.07605954478924262,0.005258217722870685,-0.008277422046617952,0.012743149001900886
89,2.0,299.3839,670.074,0.0,0.0,-0.000889998501969691,0.0,0.0,0.0,-0.06406282876500893,-0.05657579610659635,-0.08304713836736442,-0.005802124094400064,0.014763359958530188,-0.00024654829024742177
90,2.0,300.1064,340.95283,0.0,0.0,-0.0009000029223438233,0.0,0.0,0.0,-0.025179903332562977,-0.03718810859968057,-0.04127313580884136,-0.0016263823263114386,0.014632374078352887,-0.0028463569276135576
91,2.0,300.6121,220.1395,0.0,0.0,-0.0009100073427180666,0.0,0.0,0.0,4.206877322461466e-05,-0.017517912779383384,-0.04944106848145355,-0.0013342022367505088,0.012813852580628787,0.008092255758418461
92,2.0,300.20989,315.98883,0.0,0.0,-0.0009200117630921989,0.0,0.0,0.0,-0.05135719332156036,-0.03560012075145837,-0.00909539990457108,0.009325379103618262,-0.00958417209575914,-0.0025858457672781076
93,2.0,300.4925,504.12215,0.0,0.0,-0.0009300161834663312,0.0,0.0,0.0,-0.04775501524880305,-0.05584627528634824,-0.04963925513476305,-0.007111729786298083,-0.007201889185496123,-0.019525984999814682
94,2.0,300.16028,440.23585999999995,0.0,0.0,-0.0009399876945628272,0.0,0.0,0.0,-0.05232710367503305,-0.057423628061520855,-0.024069977014021776,0.0035061457746546473,-0.014810958395227787,-0.02937702842678697
95,2.0,300.30721,321.89797000000004,0.0,0.0,-0.0009499921149369595,0.0,0.0,0.0,-0.00883506302325283,-0.05119443090499695,-0.03781944953823907,-0.01213903105377909,0.01025909849399419,-0.0026509188165253178
96,2.0,300.03074,388.54708999999997,0.0,0.0,-0.0009599965353112028,0.0,0.0,0.0,-0.026790947686810673,-0.04180516709184876,-0.049512499573753255,0.008934572491723651,0.009450974290613543,-0.005475850469449365
97,2.0,299.99727,645.06019,0.0,0.0,-0.0009700009556854461,0.0,0.0,0.0,-0.062327120197957844,-0.05745152891627444,-0.07630354047957313,0.002956134267297737,0.017221529019132587,0.014551023267574185
98,2.0,300.4759,677.3471599999999,0.0,0.0,-0.0009800053760596894,0.0,0.0,0.0,-0.07076975814493135,-0.06495626001418373,-0.07017060410904943,0.007600268423338092,0.022600883932533577,0.005095501915811885
99,2.0,300.40137000000004,317.46392000000003,0.0,0.0,-0.0009900097964338217,0.0,0.0,0.0,-0.023574194753341878,-0.03030002226087937,-0.04262688759169626,-0.0020426945710482584,0.0011935113457903989,-0.0035305441277875766
100,2.0,299.70151,348.52103999999997,0.0,0.0,-0.001000014216807732,0.0,0.0,0.0,-0.03252035720500937,-0.038730360364888965,-0.03469097601973276,0.0005369412802094785,-0.017295939066726284,-0.006959989808297513
101,2.0,299.834,557.79447,0.0,0.0,-0.001009985727904672,0.0,0.0,0.0,-0.06454000978035303,-0.03642048653592217,-0.06859509342255864,-0.004823979158689675,-0.008568273461322752,-0.005504399601616945
102,2.0,299.61317,577.43936,0.0,0.0,-0.0010199901482785823,0.0,0.0,0.0,-0.06257271175719585,-0.048300562274894356,-0.06465387173384035,0.01883676924204438,-0.014465432005126986,0.01069087577235729
103,2.0,299.79432,391.49591000000004,0.0,0.0,-0.0010299945686528256,0.0,0.0,0.0,-0.044866247319703866,-0.04189586006854946,-0.032242875625374076,-0.004137935481682437,0.0003457029793282276,-0.004134895326082397
104,2.0,299.83698,313.3386,0.0,0.0,-0.0010399989890269579,0.0,0.0,0.0,-0.04519795601819095,-0.01305771958819659,-0.03699143574202046,0.0005154135456698566,-0.0022209644764171277,0.03147380258747247
105,2.0,299.82287,513.32848,0.0,0.0,-0.0010500034094010902,0.0,0.0,0.0,-0.04591978728343016,-0.06201052209821204,-0.04810873072621205,0.00010713845138874189,0.002072899556529258,-0.017631240750067983
106,2.0,300.25481,685.21869,0.0,0.0,-0.0010600078297754445,0.0,0.0,0.0,-0.07033601212162394,-0.06316241419614495,-0.07479094451829152,-0.00968386151744772,0.0029002260652050277,0.020038147461611183
107,2.0,300.13558,635.6942,0.0,0.0,-0.0010700122501495768,0.0,0.0,0.0,-0.04154568792674016,-0.06088061043469844,-0.09080886515438721,-0.007304775309925193,-0.004415498425300766,-0.0011456591912677588
108,2.0,299.74881,444.36193,0.0,0.0,-0.0010799837612460728,0.0,0.0,0.0,-0.03200050822795427,-0.04563708949228005,-0.057437333282373444,-0.004008059718314696,-0.006176539967377035,0.023880438450315775
109,2.0,300.2794,387.39371,0.0,0.0,-0.001089988181620205,0.0,0.0,0.0,-0.03535820323708297,-0.029590580004612874,-0.05280923137736535,0.008220361069886472,-0.006203589084096574,-0.001113923488860689
110,2.0,300.28033999999997,515.29275,0.0,0.0,-0.0010999926019944484,0.0,0.0,0.0,-0.05670072883067624,-0.054458840030419044,-0.04547655926568695,0.021678373418738878,-0.007400222658745114,0.002222390625932878
111,2.0,299.88035,535.39491,0.0,0.0,-0.0011099970223685807,0.0,0.0,0.0,-0.060686826353073445,-0.045673066963580755,-0.056386791525693036,0.0056989439247919745,-0.005138534647558885,-0.008543013237654763
112,2.0,299.41701,305.71237,0.0,0.0,-0.001120001442742713,0.0,0.0,0.0,-0.024244957200290976,-0.038520262956653964,-0.030163707698426176,-0.0025975348230817276,-0.004112754595497276,-0.008057581630721393
113,2.0,299.8764,271.90702999999996,0.0,0.0,-0.0011300058631168453,0.0,0.0,0.0,-0.002011282298073108,-0.05417763678316645,-0.026464028621546273,-0.015303059518294386,-9.017307604788971e-06,-0.018017892935227584
114,2.0,300.98367,581.71253,0.0,0.0,-0.0011400102834909775,0.0,0.0,0.0,-0.05116538001137986,-0.05241922128137435,-0.07324148043887134,0.0044936045052842355,-0.008533810697596542,0.006055941319274874
115,2.0,301.20675,699.84813,0.0,0.0,-0.0011500147038652209,0.0,0.0,0.0,-0.08144036587553834,-0.06947757954415323,-0.06181841291900234,0.015010341696905384,-0.004022895624953886,0.004483759665987626
116,2.0,300.15771,617.2644799999999,0.0,0.0,-0.0011599862149618279,0.0,0.0,0.0,-0.06975239526277544,-0.05568966228464175,-0.06219093127851704,0.00028093425974855274,0.0017121341888994882,0.004622891469018865
117,2.0,300.90509,552.01364,0.0,0.0,-0.0011699906353360712,0.0,0.0,0.0,-0.06410970576763535,-0.035235306132453965,-0.06845335087931972,0.013694698250311487,0.01020949990159919,0.017044123112123985
118,2.0,301.06667000000004,534.63685,0.0,0.0,-0.0011799950557099814,0.0,0.0,0.0,-0.048684288193765156,-0.06008967449938914,-0.053742287798200845,-0.004652667140432496,0.006037144617994785,-0.0037767302621842564
119,2.0,299.82687000000004,553.73451,0.0,0.0,-0.0011899994760843358,0.0,0.0,0.0,-0.03220737843462077,-0.03772255243117607,-0.09839153241023821,0.007064382534300273,0.008920135501648831,0.017284254266573085
120,2.0,299.86297,721.9528700000001,0.0,0.0,-0.001200003896458468,0.0,0.0,0.0,-0.08218944951546713,-0.05519068018014605,-0.08207551562122273,0.0032843478608898975,0.005255601207137455,0.014524984766504385
121,2.0,299.48512999999997,515.99241,0.0,0.0,-0.0012100083168326004,0.0,0.0,0.0,-0.06094755181580504,-0.04119872880099796,-0.05470252870596925,0.009289876238664401,0.017569345354459382,0.008641316837181572
122,2.0,299.64007999999995,266.17323999999996,0.0,0.0,-0.0012200127372068437,0.0,0.0,0.0,-0.05815993867068903,-0.01021174931682119,-0.012538330626686887,-0.003101764448520317,-0.01066938676423649,-0.001966970236749848
123,2.0,300.45772999999997,558.1018799999999,0.0,0.0,-0.0012299842483034507,0.0,0.0,0.0,-0.05399744545163295,-0.05808911755494954,-0.05756247169622365,0.007047450618504223,-0.01144055115034449,-0.006961014406798634
124,2.0,300.32182,704.60906,0.0,0.0,-0.001239988668677694,0.0,0.0,0.0,-0.07300504055453652,-0.058427582605103445,-0.08275093699213162,-0.016993125221340884,0.0023428718383484482,0.0013430397027976988
125,2.0,300.20901000000003,636.17659,0.0,0.0,-0.0012499930890516042,0.0,0.0,0.0,-0.02025628399613958,-0.08785440720805492,-0.08527110885285322,0.015654180062197286,-0.0036431820751540766,-0.015747572337164385
126,2.0,300.76903,399.54865,0.0,0.0,-0.0012599975094257365,0.0,0.0,0.0,-0.03892503610660196,-0.037123052877010065,-0.04540472287334725,-0.002107864790980058,0.0012605695546335288,0.006805603727660794
127,2.0,299.77794,339.02319,0.0,0.0,-0.0012700019297999798,0.0,0.0,0.0,-0.04160325775767186,-0.02310552909183818,-0.03834579750143556,0.006267321096836434,-0.006793655381156584,-0.005859278391465755
128,2.0,299.06289,484.00965999999994,0.0,0.0,-0.0012800063501742232,0.0,0.0,0.0,-0.06727309284483735,-0.041651866404719164,-0.03820189065598307,0.005549295902947864,-0.0013914410388745388,-0.006302840072466884
129,2.0,299.74499,556.2821,0.0,0.0,-0.0012900107705484665,0.0,0.0,0.0,-0.06100445391492084,-0.05305486447985745,-0.055036548627934445,-0.004531713753470326,0.009293263533748701,-0.014717572199761287
130,2.0,299.58243999999996,418.7894,0.0,0.0,-0.0013000151909225988,0.0,0.0,0.0,-0.027290207421833773,-0.03690431953817276,-0.06310699245542524,-0.014799971724393485,0.0037250343434072665,-0.009188421633976611
131,2.0,299.82411,293.80737999999997,0.0,0.0,-0.0013099867020190947,0.0,0.0,0.0,0.003605127137173346,-0.037265735716341765,-0.055649500090428045,-0.018576391324097084,0.0006230360468963703,-0.01164169345419569
132,2.0,299.52472,459.84175,0.0,0.0,-0.001319991122393449,0.0,0.0,0.0,-0.04355551813609496,-0.02966267376247797,-0.06656221785292944,-0.0064906969449819146,0.005595019320335415,0.00964336363347589
133,2.0,300.21252999999996,750.99123,0.0,0.0,-0.0013299955427673593,0.0,0.0,0.0,-0.08839795306519872,-0.06608172654950864,-0.07380290104102923,0.01028645016719359,-0.006571207062152644,-0.002720071008025107
134,2.0,300.52657,692.80224,0.0,0.0,-0.0013399999631416026,0.0,0.0,0.0,-0.09165208682135673,-0.06669915860394443,-0.05224333727601595,0.014743177029788286,0.0013074636811866186,0.0007271021010668903
135,2.0,300.06394,411.47094,0.0,0.0,-0.001350004383515735,0.0,0.0,0.0,-0.05294519130228354,-0.018795341498455784,-0.05333635954313885,0.003977390968262926,-0.016501413186312684,0.0017064795440664183
136,2.0,299.66348,555.67992,0.0,0.0,-0.0013600088038898672,0.0,0.0,0.0,-0.03583473577236307,-0.06628499971832014,-0.06679308587496434,0.014143117148316987,0.0045201828660073155,0.004962398950875645
137,2.0,300.19158999999996,698.07143,0.0,0.0,-0.0013700132242642216,0.0,0.0,0.0,-0.052304736179075544,-0.04841510614569895,-0.11147643851186789,-0.0007249764138146013,0.004167363101686716,0.0015196111983489487
138,2.0,300.53177,611.22818,0.0,0.0,-0.0013799847353607175,0.0,0.0,0.0,-0.05666493070464325,-0.047982231517477554,-0.08115094314347451,0.016770235530593383,0.005438330527521434,0.016381382566216584
139,2.0,300.34955,431.934,0.0,0.0,-0.0013899891557348498,0.0,0.0,0.0,-0.050316737456375354,-0.032839140885220865,-0.04814127125317355,-0.012609962342506387,-0.00931589467738222,-0.0007057361217732322
140,2.0,300.08435,449.63239000000004,0.0,0.0,-0.0013999935761089821,0.0,0.0,0.0,-0.05740837155476515,-0.026409539070918576,-0.052859108613537854,-0.006868331710876563,0.006473266104836624,0.007247533569375872
141,2.0,300.61069,642.51911,0.0,0.0,-0.0014099979964832254,0.0,0.0,0.0,-0.06443065375006043,-0.07721348770537792,-0.05366562428238474,-0.021017631002028678,0.0014841203910712787,-0.032699547445444066
142,2.0,300.24915,766.50147,0.0,0.0,-0.0014200024168573577,0.0,0.0,0.0,-0.06080202073044224,-0.06463010797924504,-0.10756518166835691,-0.007338477122826304,0.008216693915124551,-0.0016921416498513783
143,2.0,299.6981,593.8349,0.0,0.0,-0.00143000683723149,0.0,0.0,0.0,-0.035773860719605165,-0.07100109023551203,-0.07373602957417952,0.0014954070852601885,-0.006338278900014424,-0.009023699997019852
144,2.0,300.06695,341.83108,0.0,0.0,-0.0014400112576056223,0.0,0.0,0.0,-0.024113724087089276,-0.03402454015071067,-0.04576984856013236,0.0001013234333828443,-0.006195592311657354,0.003822369275838476
145,2.0,299.53727000000003,406.14404,0.0,0.0,-0.0014500156779797546,0.0,0.0,0.0,-0.052288941636516754,-0.029710351232683372,-0.04145835286087086,0.011220990999425591,-0.01054767414897439,-0.01104849530240159
146,2.0,299.74565,564.75603,0.0,0.0,-0.0014599871890764726,0.0,0.0,0.0,-0.06216456448441485,-0.06767429124843254,-0.04183287644233346,0.008760650949158932,-0.007867444742831343,-0.006199630214630864
147,2.0,299.69851,500.61974000000004,0.0,0.0,-0.001469991609450494,0.0,0.0,0.0,-0.05038929426953615,-0.042026636205956064,-0.059759970009599844,0.004366952498434655,-0.005181327846982245,-0.007251628822305043
148,2.0,299.59148999999996,473.65538,0.0,0.0,-0.0014799960298248482,0.0,0.0,0.0,-0.025045876688835577,-0.04832190030875025,-0.07061162932107523,-0.005732537117282365,0.005740889337856665,-0.008176826981989993
149,2.0,300.24463,486.07317,0.0,0.0,-0.0014900004501987585,0.0,0.0,0.0,-0.028853206496089773,-0.04729200960235795,-0.07160889236099743,-0.013623284383263486,0.013396133975845489,-0.005815432019888454
150,2.0,300.02272999999997,538.12044,0.0,0.0,-0.0015000048705731128,0.0,0.0,0.0,-0.04834626390740475,-0.033136055588524074,-0.08209285942318442,-0.015876176066356586,0.006675155477986554,-0.010845909117157888
151,2.0,299.21357,714.08969,0.0,0.0,-0.0015100092909472451,0.0,0.0,0.0,-0.08466586214412002,-0.05875745833415965,-0.07364211243566063,0.003994918067167716,-0.01758299991280698,0.018624116417057184
152,2.0,299.59175,691.26983,0.0,0.0,-0.0015200137113213774,0.0,0.0,0.0,-0.09343753988881721,-0.05157022104908455,-0.06512100536119284,0.004917666796060925,0.0025941751897251577,-0.004078773226893577
153,2.0,299.29875,445.51802000000004,0.0,0.0,-0.0015299852224179844,0.0,0.0,0.0,-0.04991527864750445,-0.02987507631469047,-0.05563599751959545,0.007970700804871922,0.0009119159606165982,0.006301247040659664
154,2.0,299.83864,385.32115,0.0,0.0,-0.0015399896427922277,0.0,0.0,0.0,-0.008249138689951602,-0.05138341420764815,-0.057495455334609646,0.0009807279635278142,-0.0017418615282833484,-0.015159562025882287
155,2.0,300.07613,611.71451,0.0,0.0,-0.001549994063166471,0.0,0.0,0.0,-0.04717191210775525,-0.03856876014619026,-0.10020526528798972,-0.0017274112646322184,-0.005007117933439065,0.02145744031393448
156,2.0,299.87654,612.8561900000001,0.0,0.0,-0.0015599984835403813,0.0,0.0,0.0,-0.05097441276503285,-0.049183767804059954,-0.08613479918509281,0.008767536591538493,0.0012662964441987287,0.00043001860042953156
157,2.0,300.80435,517.5167700000001,0.0,0.0,-0.0015700029039145136,0.0,0.0,0.0,-0.06276071828675064,-0.05065517312227636,-0.04389628326397586,0.00948336526186028,-0.005259384784335865,0.0029294690710410876
158,2.0,299.98823,553.57638,0.0,0.0,-0.001580007324288757,0.0,0.0,0.0,-0.06546771826716073,-0.03922663506511746,-0.06357904541201323,-0.006874287290989332,-0.0013071462299302887,-0.001928976093775118
159,2.0,299.42262,743.27775,0.0,0.0,-0.0015900117446630002,0.0,0.0,0.0,-0.06312252760595845,-0.07565191224751243,-0.08716343650111141,-0.002154039003337098,-0.01187583630055379,-0.002933901026978487
160,2.0,299.8985,751.73578,0.0,0.0,-0.0016000161650372435,0.0,0.0,0.0,-0.05622563207078785,-0.05653009650058615,-0.1157531746664489,-0.005480317787815255,0.0058085536729096145,-0.013772863402775788
161,2.0,299.72278,658.8779900000001,0.0,0.0,-0.0016099876761337395,0.0,0.0,0.0,-0.05089168393411815,-0.057245788483469444,-0.09214498537225202,0.009050512418516033,0.005886297515982334,-0.0037079526692464365
162,2.0,298.7828,380.88793,0.0,0.0,-0.0016199920965078718,0.0,0.0,0.0,-0.03373957166608647,-0.03750633904533746,-0.044534509236963865,-0.006031751087712484,-0.0006148053251415615,-0.011718280976254289
163,2.0,299.38072,279.79651,0.0,0.0,-0.0016299965168822261,0.0,0.0,0.0,-0.04246513538548256,-0.013619331694623387,-0.028966686454289372,0.0016533451141224585,-0.008771766201430923,0.015318317038300184
164,2.0,299.49477,569.90655,0.0,0.0,-0.0016400009372561364,0.0,0.0,0.0,-0.06486881146430323,-0.06901655378840353,-0.039351994367489464,0.006176475220695644,0.008688070628595812,0.004585150131944086
165,2.0,300.14399,832.4603,0.0,0.0,-0.0016500053576303797,0.0,0.0,0.0,-0.07919851861853522,-0.07482097826450562,-0.09902764677001781,0.0008524432865271022,-0.00014365692731533485,0.006963207687965093
166,2.0,300.13347000000005,599.80356,0.0,0.0,-0.001660009778004512,0.0,0.0,0.0,-0.03468698786733917,-0.05431664760413575,-0.09332166866038161,-0.015502248275952786,0.0070050048625401535,-0.01645335169431938
167,2.0,299.78017,461.23679000000004,0.0,0.0,-0.0016700141983786443,0.0,0.0,0.0,-0.028413939272987472,-0.046283390055314955,-0.06550713876230124,-0.013454328982088886,-0.0033834857705490463,0.0003327465806970307
168,2.0,299.91226,722.05737,0.0,0.0,-0.0016799857094753623,0.0,0.0,0.0,-0.06431206599810674,-0.05203825444252585,-0.1031370862138379,0.005326749298684225,0.00948541364826244,-0.007427379281300263
169,2.0,300.74608,808.1754599999999,0.0,0.0,-0.0016899901298494946,0.0,0.0,0.0,-0.11313914139596389,-0.05821429953855404,-0.07431171775099553,0.0012761739101485588,-0.0004026926536501706,0.009936991758754732
170,2.0,300.11642,596.76846,0.0,0.0,-0.0016999945502236269,0.0,0.0,0.0,-0.06503018775472984,-0.05932754323792265,-0.05704497953890115,0.003675808931024096,-0.008415894527809123,-0.010740541239258888
171,2.0,300.01268999999996,452.50644000000005,0.0,0.0,-0.0017099989705977592,0.0,0.0,0.0,-0.05118967470902755,-0.02195853605813878,-0.06440244790702673,-0.007431443326126353,-0.01970802753928088,0.00963673251952145
172,2.0,299.90111,451.02037,0.0,0.0,-0.0017200033909720025,0.0,0.0,0.0,-0.014245207162142486,-0.05533813644069885,-0.06751558791176973,0.003743571855311777,0.001870547634708678,-0.016523710768013285
173,2.0,299.81212,620.0162,0.0,0.0,-0.0017300078113461348,0.0,0.0,0.0,-0.04851372071168145,-0.058888101735803146,-0.08106762156125133,0.003569471474104406,-0.0012810901996337589,-0.00017284373830084884
174,2.0,299.70738,859.87555,0.0,0.0,-0.001740012231720267,0.0,0.0,0.0,-0.06779726434681903,-0.08423255587135602,-0.1093508728495909,0.008813321817182142,-0.004526038843635256,0.0013910831589392188
175,2.0,299.84942,698.13859,0.0,0.0,-0.001749983742816763,0.0,0.0,0.0,-0.08373337922284113,-0.07198123948124524,-0.056502079122071044,-0.015062508878303883,-0.007822926789087763,0.0098505054924942
176,2.0,299.23226,497.62093,0.0,0.0,-0.0017599881631911174,0.0,0.0,0.0,-0.03937906739691136,-0.05475541732143895,-0.057129854433527645,-0.009171338946565681,0.007025156380528952,-0.0005283096660526046
177,2.0,299.58799999999997,572.98572,0.0,0.0,-0.0017699925835652497,0.0,0.0,0.0,-0.05020025321162925,-0.053140435477302655,-0.07083266273763952,-0.011297172208194092,-0.0040673828772194364,-0.02054036993992668
178,2.0,299.94965,673.64065,0.0,0.0,-0.001779997003939382,0.0,0.0,0.0,-0.05107668415062625,-0.06673208923219444,-0.08696116239689851,-0.005542613011913314,-0.0014839984970842486,-0.018678765047950584
179,2.0,300.17116,571.64032,0.0,0.0,-0.0017900014243136253,0.0,0.0,0.0,-0.049715703841557955,-0.03976816860756266,-0.08428051097208883,0.005250128238047315,-0.003934289842134176,-0.014847756599109488
180,2.0,300.1532,462.53480999999994,0.0,0.0,-0.0018000058446875356,0.0,0.0,0.0,-0.03913881059944986,-0.05436220738163215,-0.04709801375146205,0.006005533038724964,0.0038664910487929568,-0.02209847906920008
181,2.0,300.32379,595.70751,0.0,0.0,-0.0018100102650618899,0.0,0.0,0.0,-0.09244739290434732,-0.02860275640262227,-0.06003005790325545,-0.005402480016458266,0.019693891687135784,0.009817847225871082
182,2.0,299.54146000000003,719.25691,0.0,0.0,-0.0018200146854360222,0.0,0.0,0.0,-0.07139571061945803,-0.059333155630226536,-0.08790727353202242,0.004239979797928426,0.004431913684870826,0.0002859594026919957
183,2.0,300.12191,830.43151,0.0,0.0,-0.0018299861965325182,0.0,0.0,0.0,-0.07767480122415603,-0.08354845500009052,-0.09120718694094851,-0.007170530817426295,0.01174570762996109,0.01973652317184318
184,2.0,300.31085,768.40595,0.0,0.0,-0.0018399906169067615,0.0,0.0,0.0,-0.04755261550157775,-0.06616262241099244,-0.11986098176435789,-0.007885252815988862,0.0035252908313191163,-7.535851858830673e-06
185,2.0,299.69558,572.23023,0.0,0.0,-0.0018499950372810048,0.0,0.0,0.0,-0.03672234589971336,-0.061131237846933445,-0.07609011657125983,0.006429692094886204,-0.0039894496577030265,0.004949057588133956
186,2.0,299.47015,535.63676,0.0,0.0,-0.001859999457655248,0.0,0.0,0.0,-0.04407159478302775,-0.05694297869108444,-0.06180562671599044,0.0026355870252871877,-0.00987236372895144,0.0003256825049748607
187,2.0,299.84532,669.00866,0.0,0.0,-0.0018700038780291584,0.0,0.0,0.0,-0.08092827636774902,-0.042396939600752165,-0.08003671253850853,0.004406938792430996,-0.0017196198779882682,0.025491020762517875
188,2.0,299.10927999999996,615.78015,0.0,0.0,-0.0018800082984032906,0.0,0.0,0.0,-0.05600149810891754,-0.06561563049025854,-0.06556466097047824,0.008738509610623753,0.002289373246318548,-0.010878328054107388
189,2.0,299.52932999999996,499.58173,0.0,0.0,-0.001890012718777534,0.0,0.0,0.0,-0.040020061569172566,-0.03539369029533526,-0.07644662051294401,-0.008029578336382681,0.013954035560406086,-0.0016751003030445286
190,2.0,299.92229,513.43742,0.0,0.0,-0.001899984229874141,0.0,0.0,0.0,-0.03744725440550627,-0.051295469165218655,-0.06732943056364743,-0.01066305901736199,0.005964170852417835,-0.028303389634077074
191,2.0,299.62386000000004,631.4644900000001,0.0,0.0,-0.0019099886502483843,0.0,0.0,0.0,-0.05132126853926486,-0.058480565452832436,-0.08214760431283732,-0.0008650247623562973,-0.0016091973006404085,-0.013812581793445687
192,2.0,300.44239,704.14998,0.0,0.0,-0.0019199930706225166,0.0,0.0,0.0,-0.07635477344437942,-0.06521030309250585,-0.07247893577136402,0.003081361948481747,-0.003572407163619137,-0.02060593938039788
193,2.0,300.24631,659.64318,0.0,0.0,-0.0019299974909966489,0.0,0.0,0.0,-0.06508497621413703,-0.07560211607134794,-0.059827964157560344,0.0034406426007399867,0.001069248785326639,-0.001295466597352599
194,2.0,299.81174,592.10159,0.0,0.0,-0.0019400019113710032,0.0,0.0,0.0,-0.06019438984422374,-0.05030231789420225,-0.06948738983162144,0.005011438837165505,-0.009772684237113841,0.004874387033939545
195,2.0,300.41315,560.34807,0.0,0.0,-0.0019500063317449134,0.0,0.0,0.0,-0.03884564897451706,-0.06357136700275544,-0.06791480439816934,0.007168690147294633,-0.0011979644786548889,0.004988432892319995
196,2.0,299.75017,662.6119,0.0,0.0,-0.0019600107521191568,0.0,0.0,0.0,-0.03737055542593666,-0.07571779883526493,-0.08832911893290532,-0.0015066484871696286,-0.004636320781869235,-0.007160568137143054
197,2.0,299.83587,844.1629,0.0,0.0,-0.001970015172493289,0.0,0.0,0.0,-0.07067666781849404,-0.07079969968538634,-0.11512807028225588,0.007388252020738703,-0.0011840383692804889,-0.006051325458444324
198,2.0,300.00558,584.18453,0.0,0.0,-0.001979986683590007,0.0,0.0,0.0,-0.07614006372168923,-0.05559789323633484,-0.04583955307426166,-0.018969323633376483,-0.00969995740058626,-0.007651887943057544
199,2.0,299.72964,409.39811000000003,0.0,0.0,-0.0019899911039641394,0.0,0.0,0.0,-0.05035669294756866,-0.03115063761382857,-0.04293947220779596,-0.006642781428016485,0.0075438346484185135,-0.005294898491065795
200,2.0,299.87135,593.14185,0.0,0.0,-0.0019999955243382717,0.0,0.0,0.0,-0.06780667440049774,-0.039846502972793664,-0.07264713326146384,-0.0063526407069318235,0.00976048825228519,-0.010875034991282388
201,2.0,299.89351,746.78147,0.0,0.0,-0.002009999944712404,0.0,0.0,0.0,-0.06733860047705244,-0.07874256519278613,-0.08092175610335552,0.006187772554010603,0.026624368357120575,-0.0003807130399634517
202,2.0,299.72417,715.89423,0.0,0.0,-0.0020200043650865362,0.0,0.0,0.0,-0.05487296345228985,-0.057638356022712854,-0.1051026495528239,0.01063772472511169,-0.004508188720598586,-0.01852564471933878
203,2.0,300.3217,693.08286,0.0,0.0,-0.0020300087854607796,0.0,0.0,0.0,-0.06142833392200454,-0.06883134686887503,-0.08042020439660622,0.0017221525979382285,-0.013159950443785987,-0.0007951732053724851
204,2.0,300.45092,715.42172,0.0,0.0,-0.002040013205834912,0.0,0.0,0.0,-0.07489218542853322,-0.07627134952389614,-0.06630680283397193,0.006837503475259054,-0.016897492650402683,0.0017352563535314683
205,2.0,300.76196,792.6668,0.0,0.0,-0.002049984716931408,0.0,0.0,0.0,-0.10787178101611589,-0.060366856156994844,-0.07271227713689303,0.004069410390669536,-0.015362559590666585,0.019947794936944083
206,2.0,300.05151,855.55011,0.0,0.0,-0.00205998913730554,0.0,0.0,0.0,-0.07577877723953302,-0.08787621235020691,-0.09641087975076301,0.016359362615043383,-0.010202162957625091,0.017966793719434482
207,2.0,299.8454,710.76776,0.0,0.0,-0.0020699935576798945,0.0,0.0,0.0,-0.06247450249125334,-0.05827618581491174,-0.0953049628628675,-0.008230180679255593,-0.001031139334490529,0.023034649207592878
208,2.0,299.61439,484.96844000000004,0.0,0.0,-0.0020799979780540268,0.0,0.0,0.0,0.003045201484212987,-0.059402296777300245,-0.09106120191954092,0.003955600923537416,0.004146669292244397,-0.011518912873328188
209,2.0,299.57381000000004,600.88475,0.0,0.0,-0.002090002398428159,0.0,0.0,0.0,-0.049469295602739355,-0.07480767429069263,-0.058376987987860146,-0.003175265813424337,0.01762486943343918,-0.023552263968177476
210,2.0,299.53082,840.54876,0.0,0.0,-0.0021000068188024024,0.0,0.0,0.0,-0.0970993771142124,-0.06367131297936934,-0.09473514343063072,-0.007231703867038602,0.016956961312021783,0.0006491029797639764
211,2.0,300.24055,746.38578,0.0,0.0,-0.0021100112391763126,0.0,0.0,0.0,-0.09912843577071491,-0.06930450021507163,-0.05844970388128664,0.0032354663455906665,0.0065944396710455235,-0.018755950387568183
212,2.0,299.93657,551.13535,0.0,0.0,-0.002120015659550667,0.0,0.0,0.0,-0.05688536833014874,-0.040517148895981264,-0.07012886732418033,-0.007383234608893524,0.0024563041737933476,0.0047535293991118254
213,2.0,300.57896,711.68615,0.0,0.0,-0.002129987170647163,0.0,0.0,0.0,-0.057534687365231534,-0.07195055320196674,-0.08684957721638592,-0.0062794057254790935,0.008972190921561301,-0.009267579264913861
214,2.0,300.72064,934.9133800000001,0.0,0.0,-0.002139991591021295,0.0,0.0,0.0,-0.06655398519586693,-0.09592786342809301,-0.12170847106919089,-0.0014704209457442486,-0.007652420000685054,0.007935168454340153
215,2.0,301.27476,851.7634,0.0,0.0,-0.0021499960113955385,0.0,0.0,0.0,-0.09013932468705872,-0.07494660506490403,-0.09382887430268891,-0.01072757062472879,-0.0003921237559646016,-0.0034318314791953967
216,2.0,300.73413,653.76305,0.0,0.0,-0.002160000431769782,0.0,0.0,0.0,-0.06815902806977234,-0.06477216361676484,-0.06579644902360395,-0.01002455034759609,-0.013685611423414686,0.009534295771511731
217,2.0,300.42852999999997,517.7221099999999,0.0,0.0,-0.002170004852144025,0.0,0.0,0.0,-0.05222076510353825,-0.05121519543929625,-0.053938632362828545,0.006838761425258203,0.004386269807616126,0.0020119329059623183
218,2.0,300.44441,558.88416,0.0,0.0,-0.0021800092725179354,0.0,0.0,0.0,-0.045912724930233156,-0.04101879888799026,-0.08295530548430122,0.0013625274406459888,0.006307594039286064,0.012924121549261489
219,2.0,300.21828,750.8607099999999,0.0,0.0,-0.0021900136928920677,0.0,0.0,0.0,-0.06276070815424964,-0.06323952658175534,-0.10224267008556591,0.013007670099507087,-0.007249678113212523,-0.008047848451585803
220,2.0,300.20087,780.87508,0.0,0.0,-0.0021999852039887857,0.0,0.0,0.0,-0.06505714122063994,-0.061357572588020944,-0.1109518080075909,0.006800185474076054,-0.0006207775124234704,-0.01051313549281569
221,2.0,300.027,609.0599,0.0,0.0,-0.002209989624362918,0.0,0.0,0.0,-0.07170770045774902,-0.050565511634177454,-0.06286579029562044,-0.0010017984790923122,0.0026039464670645075,-0.013522186341285887
222,2.0,299.10173,660.3498599999999,0.0,0.0,-0.0022199940447371613,0.0,0.0,0.0,-0.06789136488360603,-0.06696329061351224,-0.06587521300687733,0.0007246458409694762,-0.0059952548323605834,-0.016683662428799286
223,2.0,299.88961,866.26034,0.0,0.0,-0.0022299984651112936,0.0,0.0,0.0,-0.1029367160065629,-0.05683149888858225,-0.1035532989574149,-0.004010875135042556,-0.009064241045445941,0.012819852034470888
224,2.0,299.94866,830.9714,0.0,0.0,-0.002240002885485426,0.0,0.0,0.0,-0.06287838499436343,-0.08797274164748362,-0.1017434316287949,-0.0037715380646968265,0.00022897829033339777,0.006044455825416344
225,2.0,299.57205,570.14872,0.0,0.0,-0.0022500073058597803,0.0,0.0,0.0,-0.03376712396280567,-0.052894568314037445,-0.08664928198961831,0.005401142222351235,0.009957607243964321,0.008601864120687891
226,2.0,300.09537,566.56461,0.0,0.0,-0.0022600117262336905,0.0,0.0,0.0,-0.03231679931291977,-0.06664341768944324,-0.07326127833257523,-0.012327388167868488,0.002654200834924227,0.004570183516041996
227,2.0,300.41868,603.92705,0.0,0.0,-0.002270016146607934,0.0,0.0,0.0,-0.05045959153497395,-0.07894356564162333,-0.05417558596496404,-0.002169051924768758,0.002073873796500408,-0.01027076404239549
228,2.0,300.25376,752.4798900000001,0.0,0.0,-0.00227998765770443,0.0,0.0,0.0,-0.08359957144113532,-0.05772525032478865,-0.0874102763844726,0.001064461279929149,0.0023717917187276176,-0.01747540187143788
229,2.0,300.33771,896.85243,0.0,0.0,-0.002289992078078784,0.0,0.0,0.0,-0.08460883440199182,-0.08466987562776612,-0.10334203631156491,0.019956249495778483,0.007928892788520794,-0.007631797625374783
230,2.0,300.04909,616.77486,0.0,0.0,-0.0022999964984529164,0.0,0.0,0.0,-0.04502850209796716,-0.05724918996405515,-0.08520646450972333,-0.00019044475380043378,-0.010027568920969,-0.012025342366058888
231,2.0,300.08598,548.59821,0.0,0.0,-0.0023100009188270487,0.0,0.0,0.0,-0.040917442467237164,-0.035979153295865964,-0.08986355955309282,0.009220540344921481,-0.012090333240722988,-0.013469276447564087
232,2.0,299.81007999999997,841.2738199999999,0.0,0.0,-0.002320005339201181,0.0,0.0,0.0,-0.08958076246343291,-0.07827873172100934,-0.08786674150152222,0.0023189992606924077,-0.006073056228038985,-0.013161651690703886
233,2.0,300.23109,852.12899,0.0,0.0,-0.0023300097595753133,0.0,0.0,0.0,-0.09947944080410641,-0.05609106739125735,-0.1034554291302559,-0.002352006591974978,0.01034552872752419,0.004629850065405626
234,2.0,300.17933999999997,561.84556,0.0,0.0,-0.0023400141799495566,0.0,0.0,0.0,-0.05099224495354275,-0.04690909124381686,-0.07288568374575694,-0.005868964758446725,0.0003030025632165247,-0.002482015800380888
235,2.0,300.23531,568.46262,0.0,0.0,-0.0023499856910461636,0.0,0.0,0.0,-0.053443902869002545,-0.06611395600868944,-0.05324058309068645,-0.004365772771343226,-0.002937057199714977,0.004878967127041565
236,2.0,299.99352999999996,732.49167,0.0,0.0,-0.002359990111420185,0.0,0.0,0.0,-0.05740352619278694,-0.04872026465181575,-0.11653538347864689,0.005845285711559785,0.002921042072609407,0.008475014124768773
237,2.0,299.5948,894.82477,0.0,0.0,-0.002369994531794317,0.0,0.0,0.0,-0.07244312953933023,-0.09952404610000859,-0.10003721269265421,0.01260940708145159,0.0002364143706972818,0.0012290930416020388
238,2.0,299.51207,802.27257,0.0,0.0,-0.0023799989521686715,0.0,0.0,0.0,-0.06622174352782724,-0.07024135936353243,-0.1074077226028169,-0.004976740391466034,-0.008416150170809352,-0.014902949345306588
239,2.0,299.77799,554.2225,0.0,0.0,-0.002390003372542804,0.0,0.0,0.0,-0.058436369509970644,-0.051361354739721046,-0.05867207580123304,-0.003149906291246547,0.0021604720268969878,-0.006074815230212584
240,2.0,299.76673999999997,477.93063,0.0,0.0,-0.002400007792916936,0.0,0.0,0.0,-0.03628236433529057,-0.05494835027297995,-0.05404826501039845,-0.00035162891174307165,0.00100297139714307,-0.026186222801878975
241,2.0,300.12588999999997,628.34796,0.0,0.0,-0.0024100122132911794,0.0,0.0,0.0,-0.07897860180358113,-0.02031362685904888,-0.09170986132880861,0.007853594221914404,0.005109118071980695,0.005157342393265065
242,2.0,299.94878,812.9947400000001,0.0,0.0,-0.0024199837243877864,0.0,0.0,0.0,-0.06229257951529894,-0.06980316415903594,-0.11503435478050689,0.008804233875710232,0.001148285636851969,-0.006517705329047433
243,2.0,300.55976,698.9567099999999,0.0,0.0,-0.0024299881447618077,0.0,0.0,0.0,-0.061703156733377444,-0.06125475607387374,-0.08950747611020012,0.008905673585621552,-0.01011023878072788,-0.008526907525990252
244,2.0,299.97805,651.24053,0.0,0.0,-0.00243999256513594,0.0,0.0,0.0,-0.05045003152028045,-0.05475976517761804,-0.09275106294606722,-0.0037665124455258363,-0.0017090335422684784,-0.019592196840849282
245,2.0,299.64355,914.8937,0.0,0.0,-0.0024499969855100723,0.0,0.0,0.0,-0.09519537277180182,-0.0930018818625711,-0.08990758526993782,-0.008088695602867102,-0.006700651788927843,-0.012788464586123188
246,2.0,299.87165,1021.0010000000001,0.0,0.0,-0.0024600014058843156,0.0,0.0,0.0,-0.11457942575060888,-0.07444233683463664,-0.12133705411253488,-0.0038128490818739066,0.0008964396799142081,0.018708868708421585
247,2.0,300.00644,759.6393400000001,0.0,0.0,-0.002470005826258559,0.0,0.0,0.0,-0.07622581507765222,-0.06803131600066814,-0.08665426008735962,-0.014256214097978786,0.007238743219458332,-0.00984505329503111
248,2.0,299.64217,528.27555,0.0,0.0,-0.0024800102466328022,0.0,0.0,0.0,-0.03094424667445937,-0.05449588344082495,-0.07514244604423202,0.002281216279038518,0.01122298406237229,0.011967225380073188
249,2.0,300.11056,545.80512,0.0,0.0,-0.0024900146670067125,0.0,0.0,0.0,-0.05087678611789785,-0.026076757340575577,-0.08895758224117982,-0.0033812277427011967,0.0009219680500886622,0.005326673912876785
250,2.0,300.07666,769.39073,0.0,0.0,-0.0024999861781034305,0.0,0.0,0.0,-0.07679154503248543,-0.06855226030108134,-0.08853176388665482,0.018146274762647883,0.012636424382117987,-0.007492500459927223
251,2.0,300.19313999999997,893.14991,0.0,0.0,-0.002509990598477563,0.0,0.0,0.0,-0.09898061575337622,-0.06992604707816354,-0.1025886038022069,0.007901682666360363,-0.0007005304581919734,-0.018029648662887785
252,2.0,300.08078,729.22299,0.0,0.0,-0.002519995018851695,0.0,0.0,0.0,-0.07128825341985283,-0.04935908337611225,-0.1010182434659744,0.00857735299281883,0.007443050106021852,-0.009644456626358761
253,2.0,299.92092,635.64285,0.0,0.0,-0.0025299994392259384,0.0,0.0,0.0,-0.051276312658828045,-0.06940220589571444,-0.07254103483024273,-0.009315147304108462,0.01091138331211969,-0.014443556948718088
254,2.0,300.11961,818.07096,0.0,0.0,-0.0025400038596000707,0.0,0.0,0.0,-0.07557227281615263,-0.05217091319861825,-0.12092996061985788,-0.006287220112900314,-0.003793017548266686,-0.0017451361499565283
255,2.0,299.37343,960.99359,0.0,0.0,-0.002550008279974203,0.0,0.0,0.0,-0.09488061777398792,-0.0920298740813914,-0.1052075614681779,-0.010940268032720388,-0.005287537938364365,-0.013809089120350986
256,2.0,299.26538999999997,751.78944,0.0,0.0,-0.0025600127003483353,0.0,0.0,0.0,-0.06683823427292014,-0.08079933725277372,-0.08088764605198913,-0.013482660468134988,-0.012812655932260688,-0.014310088605795785
257,2.0,299.61235,489.3801,0.0,0.0,-0.0025699842114450533,0.0,0.0,0.0,-0.04389757009160286,-0.04368655873177766,-0.061175201755522345,-0.006091488057958064,-0.016229861146262587,-0.0013186419576148288
258,2.0,299.83252999999996,635.79508,0.0,0.0,-0.0025799886318191856,0.0,0.0,0.0,-0.051862696703699654,-0.06420732633526974,-0.07719580649113292,0.004914459555519396,-0.0015593523871460986,-0.0026109019223759574
259,2.0,300.36725,881.2161199999999,0.0,0.0,-0.002589993052193207,0.0,0.0,0.0,-0.07941762483340933,-0.06475338809241184,-0.12369668054791187,0.013642043695614885,0.014298840516435688,0.005314003220376285
260,2.0,300.0152,901.0786099999999,0.0,0.0,-0.002599997472567561,0.0,0.0,0.0,-0.07249908120985223,-0.08133297656368982,-0.12007333872031589,0.013513416661670387,0.015421186241452587,-0.0015936799833089685
261,2.0,299.88873,673.8376599999999,0.0,0.0,-0.0026100018929416935,0.0,0.0,0.0,-0.05974355333147965,-0.060777539594776143,-0.08430872998737382,-0.004112254759222946,0.01796937244093898,-0.007570792167329012
262,2.0,300.1782,683.30606,0.0,0.0,-0.002620006313315826,0.0,0.0,0.0,-0.07766769023495423,-0.03887878022628686,-0.0911615096264405,-0.010981225628262592,0.01038404540357549,0.0057006206510574545
263,2.0,300.44392999999997,979.3443,0.0,0.0,-0.002630010733689958,0.0,0.0,0.0,-0.1127797719829969,-0.09130793946464201,-0.0936084984854395,-0.00017681440199772286,-0.008038840759521812,-0.005276049708730565
264,2.0,299.98812000000004,1023.6556,0.0,0.0,-0.0026400151540640904,0.0,0.0,0.0,-0.1025421868151259,-0.07755710715879052,-0.1310664436927509,-0.0064907811460652234,-0.00035652800637407466,0.009321110787572012
265,2.0,299.8411,819.7367,0.0,0.0,-0.0026499866651608084,0.0,0.0,0.0,-0.059927912160674446,-0.07258913178598952,-0.11666244504118689,0.008622591063408482,-0.012664867325675089,0.009942714899294559
266,2.0,300.18442000000005,572.1824,0.0,0.0,-0.0026599910855349407,0.0,0.0,0.0,-0.03085384146078707,-0.06296703424561244,-0.08010828548582222,-0.01155551045369009,-0.013960748342318589,0.014291451896706485
267,2.0,300.27152,821.3095099999999,0.0,0.0,-0.002669995505908962,0.0,0.0,0.0,-0.07219862621069964,-0.07674240240263543,-0.10071655432820001,0.003170179095272317,0.0005815324210077814,-0.0029779130649471375
268,2.0,300.11253,1045.776,0.0,0.0,-0.0026799999262830942,0.0,0.0,0.0,-0.1043982482158049,-0.11011561323006488,-0.10337591939490891,0.005087770716223875,0.004125800798484836,-0.014204238420849186
269,2.0,300.09561,884.1510599999999,0.0,0.0,-0.0026900043466574486,0.0,0.0,0.0,-0.08252591542317371,-0.09542726721618801,-0.09080666133541972,0.00956882328191933,0.01147423968966929,-0.026101323589250075
270,2.0,300.16558,632.4359400000001,0.0,0.0,-0.002700008767031581,0.0,0.0,0.0,-0.04645633563538336,-0.05986922370163234,-0.08591917348431223,-0.008172712679958942,-0.003311463649466017,-0.016570617154892584
271,2.0,299.67077,635.02086,0.0,0.0,-0.002710013187405713,0.0,0.0,0.0,-0.042564554472044464,-0.06281166044877824,-0.08765427207480311,0.012209663704999988,-0.005482444498450144,-0.01117961493159209
272,2.0,300.66871000000003,836.1171400000001,0.0,0.0,-0.00271998469850232,0.0,0.0,0.0,-0.06319493851110485,-0.07004820248371933,-0.1209155927334399,-0.0018275151056116985,-0.004203578180135866,-2.6624908419423873e-05
273,2.0,300.79132999999996,909.3639400000001,0.0,0.0,-0.0027299891188765635,0.0,0.0,0.0,-0.09366292825431131,-0.07341385251938314,-0.10934715422172389,-0.005019629849648895,-0.005295149777090595,0.0014072437887591488
274,2.0,300.75108,806.0698,0.0,0.0,-0.0027399935392505848,0.0,0.0,0.0,-0.08561403119019702,-0.05961515123905735,-0.0997959092078394,-0.017204539854705884,-0.007275145951826003,0.0058734664259910046
275,2.0,300.04393,695.8698400000001,0.0,0.0,-0.002749997959624717,0.0,0.0,0.0,-0.0964441660297981,-0.05026923021218675,-0.06481366127461034,-0.01875199364592768,0.005432808213151425,0.0026445819503999176
276,2.0,299.89341,853.1835,0.0,0.0,-0.0027600023799988493,0.0,0.0,0.0,-0.06869596247001364,-0.08805346829620073,-0.10259705430804089,0.01172425408559379,0.0030409232383157574,-0.00011031280183202592
277,2.0,300.19023,1102.4578,0.0,0.0,-0.0027700068003730927,0.0,0.0,0.0,-0.10151603804135291,-0.10417674161144388,-0.12942687330843788,0.0016228924903170182,-0.008087622773661223,0.005896330313172495
278,2.0,299.90513,1004.3333,0.0,0.0,-0.002780011220747336,0.0,0.0,0.0,-0.07494129360787984,-0.09840262141933259,-0.13194832591728586,0.0049469333092993055,-0.017173612421903586,0.0092406393765551
279,2.0,300.08754,604.57445,0.0,0.0,-0.0027900156411215793,0.0,0.0,0.0,-0.05996389773797594,-0.06227156065522454,-0.06154007818278284,-0.006333801550472544,-0.009266807674962711,-0.013234155814859488
280,2.0,299.89659,586.7781200000001,0.0,0.0,-0.0027999871522180753,0.0,0.0,0.0,-0.057007857094987444,-0.05671291721612915,-0.06464512231922684,-0.006196462997468285,0.010956364523808989,-0.00969353876517779
281,2.0,300.35047000000003,830.70601,0.0,0.0,-0.0028099915725922076,0.0,0.0,0.0,-0.09050703922784932,-0.07510736732577002,-0.08689947775731073,0.0032098267610852368,0.007909759586882493,-0.022717695457061978
282,2.0,300.23946,895.2539800000001,0.0,0.0,-0.00281999599296634,0.0,0.0,0.0,-0.07614783737645643,-0.07542063993868764,-0.12056637608647489,-0.004150695846816786,0.0069248050025500435,-0.010763966568320791
283,2.0,300.08844,716.36452,0.0,0.0,-0.002830000413340472,0.0,0.0,0.0,-0.05934126568402694,-0.05464824281861165,-0.10376741896854691,0.006401517865255624,0.006490757638662904,-0.022620690945488377
284,2.0,300.24455,626.19008,0.0,0.0,-0.0028400048337147155,0.0,0.0,0.0,-0.03764494355301667,-0.06381831733037754,-0.08888288747030801,0.006564569058097524,0.0013030847182294487,0.0009458244664056071
285,2.0,300.87009,799.90159,0.0,0.0,-0.0028500092540888478,0.0,0.0,0.0,-0.06899244958177464,-0.07381878170984651,-0.1003388775124262,0.005179673817519006,0.0028659831767505173,-0.008254782898308643
286,2.0,300.45122000000003,1033.154,0.0,0.0,-0.00286001367446298,0.0,0.0,0.0,-0.10810602417423389,-0.09120707852318782,-0.1147399043014469,-0.0014289347376248787,-0.01942220285832218,0.012532284563340186
287,2.0,299.74483,1016.6524,0.0,0.0,-0.002869985185559698,0.0,0.0,0.0,-0.09875426176053681,-0.10118922739384921,-0.10909345666168589,-0.007513563599030992,0.007706924648739242,-0.020373015473910083
288,2.0,300.22578,728.87864,0.0,0.0,-0.0028799896059338304,0.0,0.0,0.0,-0.05601853590934905,-0.06899153866993472,-0.0965508308678251,-0.004928597839464735,0.005286186668031005,-0.006756242539764224
289,2.0,299.98605,520.55728,0.0,0.0,-0.0028899940263079626,0.0,0.0,0.0,-0.03059193353518877,-0.05289665966224385,-0.07474782059403552,-0.0044543673070868255,0.007493529415403773,-0.018734945712995183
290,2.0,299.78907999999996,821.51015,0.0,0.0,-0.002899998446681984,0.0,0.0,0.0,-0.06724510789032544,-0.06938513465802963,-0.1130883269034489,-0.005246578214996955,0.0025597525507029075,0.007812660640399573
291,2.0,299.34722,1002.0604,0.0,0.0,-0.0029100028670563383,0.0,0.0,0.0,-0.1120058008941119,-0.07254012087865253,-0.12005540419354588,0.000977282761200299,0.0038609836291994167,-0.0016290951008041687
292,2.0,299.93435,756.43011,0.0,0.0,-0.0029200072874304706,0.0,0.0,0.0,-0.08600178984446583,-0.05457069270895804,-0.08936338383997931,-0.0009593948743324022,0.0038692236829876462,-0.008511523552371971
293,2.0,299.94247,672.12523,0.0,0.0,-0.002930011707804603,0.0,0.0,0.0,-0.06616916699338835,-0.05262331315626665,-0.08551680781660181,-0.005229906501826586,0.01115745211215479,-0.003036842272212997
294,2.0,300.39279,882.3846300000001,0.0,0.0,-0.002940016128178735,0.0,0.0,0.0,-0.07760750317901423,-0.07364362724456013,-0.11697177003171488,-0.0018843538765962481,-0.010622848187143489,-0.015759281455319987
295,2.0,300.38354,1089.3549,0.0,0.0,-0.002949987639275453,0.0,0.0,0.0,-0.1116092249374729,-0.0897564559777725,-0.12977101357240187,-0.005642616845107925,-0.008521844821865602,0.008693175990549673
296,2.0,300.34476,1053.5975,0.0,0.0,-0.0029599920596495854,0.0,0.0,0.0,-0.0935866335615316,-0.0963432078163343,-0.13033749130580888,-0.001811291958260598,-0.008752625805716912,-0.013248830716057789
297,2.0,300.63972,787.94757,0.0,0.0,-0.0029699964800237177,0.0,0.0,0.0,-0.07259987730330003,-0.08300192613465232,-0.08391458177797442,0.00041031935675536757,-0.01054557266826699,0.018105210775845183
298,2.0,300.27704,666.6988299999999,0.0,0.0,-0.002980000900397739,0.0,0.0,0.0,-0.05802964382707995,-0.06419727286777754,-0.08043288015535723,-0.01098883716301379,-0.006575511145927425,-0.005387644413794105
299,2.0,299.50305,829.6494,0.0,0.0,-0.0029900053207718713,0.0,0.0,0.0,-0.06724362753192935,-0.07980697530358521,-0.10514209537921691,-0.0028382396797374475,0.008204119177408523,-0.0013237971714736088
300,2.0,299.5293,823.67518,0.0,0.0,-0.0030000097411462257,0.0,0.0,0.0,-0.07167951690621753,-0.08321581715126172,-0.0954813524800258,0.008002369835422412,0.012832754761244288,-0.03573110865813586
301,2.0,300.0911,624.5928700000001,0.0,0.0,-0.003010014161520358,0.0,0.0,0.0,-0.040218424527999466,-0.05750188541974424,-0.09214032543504211,0.008569407896134711,0.01173915899456479,-0.020157970365436782
302,2.0,299.84855,513.09934,0.0,0.0,-0.003019985672616854,0.0,0.0,0.0,-0.032949203150833176,-0.059903698523034746,-0.06311648559561214,0.0018190278187990684,-0.003040354298384607,-0.025883289392981772
303,2.0,299.65225,824.47561,0.0,0.0,-0.0030299900929910972,0.0,0.0,0.0,-0.08355574736106022,-0.07611710752742364,-0.09094714339553421,0.011289660985202789,-0.003377919481124697,-0.009282655818451802
304,2.0,299.89925,1117.562,0.0,0.0,-0.0030399945133653405,0.0,0.0,0.0,-0.12196631282213788,-0.08630906401679142,-0.13143556057167988,0.0034010329318058165,0.001354755407078949,-0.0050103404740571055
305,2.0,300.28154,1063.6592,0.0,0.0,-0.003049998933739362,0.0,0.0,0.0,-0.0939936915904551,-0.1028804198310069,-0.12645172783481387,-0.004424684550707366,-0.00018776449450341281,-0.0044963196102521955
306,2.0,300.2733,832.06336,0.0,0.0,-0.003060003354113494,0.0,0.0,0.0,-0.07903029883693323,-0.06693621251783985,-0.1069599775161279,-0.005855673956885025,-0.008341957465362102,0.008261766116672831
307,2.0,300.10879,888.372,0.0,0.0,-0.0030700077744876264,0.0,0.0,0.0,-0.07391226720382284,-0.08182890371913401,-0.1143017344282029,0.0009559259822175491,0.010852294619288091,0.005019017846588495
308,2.0,300.36985,1030.8167,0.0,0.0,-0.0030800121948618697,0.0,0.0,0.0,-0.10818386204691591,-0.08442217752157022,-0.1207365109107659,0.0060669860493399045,-0.007561299635092173,0.012553971155230487
309,2.0,300.0464,984.8414,0.0,0.0,-0.0030899837059584767,0.0,0.0,0.0,-0.1108633107438569,-0.07183475290103813,-0.11666913249184689,0.008891371661785061,-0.015887586275732685,0.024907307644909876
310,2.0,299.99504,780.39092,0.0,0.0,-0.00309998812633272,0.0,0.0,0.0,-0.06179889670882623,-0.07743083390482833,-0.09798962270507282,-0.006432234238062094,-0.01057360321903339,0.013102116154578188
311,2.0,299.20627,672.24126,0.0,0.0,-0.0031099925467068523,0.0,0.0,0.0,-0.050643767979150746,-0.06222050399593564,-0.09148028520065121,-0.0037812538159306963,0.002150154911728768,0.009150979003031311
312,2.0,299.37414,958.6142699999999,0.0,0.0,-0.0031199969670809846,0.0,0.0,0.0,-0.07128476682625874,-0.09762543630113041,-0.12248460038078889,-0.0047331128148968655,0.00953541551419724,-0.02085403670713318
313,2.0,299.36489,1185.4738,0.0,0.0,-0.003130001387455117,0.0,0.0,0.0,-0.1184475181398599,-0.10282387034292591,-0.13908304543642788,-0.015252715173825785,0.007530524291129883,-0.010590684589219189
314,2.0,299.59282,1049.6668,0.0,0.0,-0.003140005807829249,0.0,0.0,0.0,-0.10208041834705289,-0.08499314800592063,-0.13199892762727988,0.0058428708325964545,0.006578989430870703,-0.0059163629769245635
315,2.0,299.57153999999997,763.34258,0.0,0.0,-0.0031500102282034925,0.0,0.0,0.0,-0.09272613192735672,-0.060792682617520646,-0.07851826911089982,-0.0031908546662128374,0.01003694036981889,-0.006020115835489175
316,2.0,299.90449,803.82024,0.0,0.0,-0.003160014648577625,0.0,0.0,0.0,-0.05746041815940175,-0.07903604193850002,-0.10784481843095489,0.002127635732231298,0.005080207006877395,-0.008563085215510712
317,2.0,300.16528999999997,897.0558300000001,0.0,0.0,-0.003169986159674343,0.0,0.0,0.0,-0.07654900740904884,-0.07513443427569133,-0.12099913520418488,0.005089113779231425,-0.02317779206246998,0.0023242142563070878
318,2.0,300.53744,919.45435,0.0,0.0,-0.003179990580048475,0.0,0.0,0.0,-0.047044312509412156,-0.1027681922499309,-0.1296786558257869,0.006409000311944084,-0.009706851148966621,-0.008269512109712301
319,2.0,299.8312,826.76017,0.0,0.0,-0.0031899950004226074,0.0,0.0,0.0,-0.057727856404045846,-0.08687404720630092,-0.1067125418417079,0.007499941059386553,-0.003382542232055927,-0.01213978491185349
320,2.0,300.04536,809.48054,0.0,0.0,-0.0031999994207967397,0.0,0.0,0.0,-0.06655261021548124,-0.09270062943558982,-0.08680863076659483,-0.00020317190459650584,0.008062820741688452,-0.008725547304744471
321,2.0,300.6442,893.06612,0.0,0.0,-0.003210003841170761,0.0,0.0,0.0,-0.09614159840418701,-0.0891705734917004,-0.08615762770984582,-0.005799708404836654,0.004895260391299586,-0.007432925812347664
322,2.0,300.48007,921.4650800000001,0.0,0.0,-0.0032200082615451153,0.0,0.0,0.0,-0.08799550127122982,-0.06640878240353654,-0.12569809267543589,0.006374715373610424,0.005731753874955064,0.006380046994311613
323,2.0,300.0142,947.4644,0.0,0.0,-0.0032300126819192476,0.0,0.0,0.0,-0.09160976944418033,-0.08142928193269443,-0.11496646702380689,0.008281239061069662,0.02637955396070927,-0.0005723739674614125
324,2.0,299.9929,885.81371,0.0,0.0,-0.0032399841930157436,0.0,0.0,0.0,-0.06910723865910344,-0.07131916869365393,-0.12883884374540389,0.0002783185140853987,0.013359851516264688,-0.003592882718989916
325,2.0,299.84567999999996,883.3236800000001,0.0,0.0,-0.003249988613389876,0.0,0.0,0.0,-0.0957050618901042,-0.05547159465112015,-0.11733168659973589,-0.008137591607642762,-0.0005230563999816476,0.00042046766445692763
326,2.0,299.44342,970.0726,0.0,0.0,-0.0032599930337642302,0.0,0.0,0.0,-0.10796823229313489,-0.07717670672674792,-0.10973290866729489,0.002192544837612328,-0.0075294427479731425,-0.007905942977730823
327,2.0,299.93176,1049.2233,0.0,0.0,-0.0032699974541383625,0.0,0.0,0.0,-0.12611176216126188,-0.07236977023209022,-0.12045615474059689,-0.007321983640348523,-0.003363712397497567,0.01010603946701344
328,2.0,300.28296,962.5287400000001,0.0,0.0,-0.003280001874512384,0.0,0.0,0.0,-0.07942126037476813,-0.09506967808364672,-0.11809376213244688,-0.004949037829757005,-0.014493412906638485,-0.02088685790437238
329,2.0,300.0952,826.96158,0.0,0.0,-0.003290006294886516,0.0,0.0,0.0,-0.06244079064717624,-0.08065063469459792,-0.1082842447343229,-0.017532899761612483,-0.018062703920900085,0.012816067545347386
330,2.0,300.16087000000005,829.46162,0.0,0.0,-0.0033000107152606484,0.0,0.0,0.0,-0.050222155625790854,-0.08884865988193001,-0.11306480936862791,0.0005479337569668514,-0.004522960792481476,-0.016582185431284285
331,2.0,300.28381,840.2529599999999,0.0,0.0,-0.0033100151356350027,0.0,0.0,0.0,-0.07456080198332823,-0.0919117595172344,-0.08894335722302592,0.013989813421437087,0.013921393708434588,-0.004216433182829556
332,2.0,300.12523,833.6838799999999,0.0,0.0,-0.0033199866467314987,0.0,0.0,0.0,-0.07405173702708744,-0.07842646054583903,-0.10094088486058972,0.024642337677509375,0.011900147210203089,-0.023376437718074777
333,2.0,300.3218,802.9979,0.0,0.0,-0.003329991067105631,0.0,0.0,0.0,-0.08174073677493263,-0.06418788915860144,-0.0981626837956526,-0.003465629348205987,0.001324694708412189,-0.00036824759140320764
334,2.0,300.24487,735.26937,0.0,0.0,-0.0033399954874798743,0.0,0.0,0.0,-0.06266014409507474,-0.06953726098829334,-0.09130612169396261,-0.013140961123661886,-0.005765456701106275,-0.029628713672126373
335,2.0,299.92613,918.55661,0.0,0.0,-0.0033499999078541176,0.0,0.0,0.0,-0.06749668269140394,-0.06946837923324523,-0.14225321115679887,-0.0002746730935381237,0.00029144235229562073,0.006975347944038243
336,2.0,300.19386000000003,1075.0384,0.0,0.0,-0.003360004328228139,0.0,0.0,0.0,-0.09386079168083891,-0.10345752655796289,-0.12946651165234987,-0.015751580754559985,-0.003524522078468247,-0.02046839169257298
337,2.0,299.77297999999996,969.4095599999999,0.0,0.0,-0.003370008748602271,0.0,0.0,0.0,-0.1065324163714309,-0.07466145216876163,-0.1134824305298439,-0.013517344019057987,-0.006910676749780693,-0.004079517763067056
338,2.0,299.46609,813.4859,0.0,0.0,-0.0033800131689764035,0.0,0.0,0.0,-0.0994674722939252,-0.06041694009618774,-0.08739498846696382,-0.008544440704395643,0.0018929131041659783,-0.014588635111286186
339,2.0,299.06321,957.0269199999999,0.0,0.0,-0.0033899846800731215,0.0,0.0,0.0,-0.1032233441948509,-0.08704286075246151,-0.10064607974399471,0.01580058254264609,0.02765760380209297,-0.0028178338359735474
340,2.0,300.01828,971.51396,0.0,0.0,-0.0033999891004472538,0.0,0.0,0.0,-0.08900371653148291,-0.08304418069032252,-0.12326808588811289,0.018654642602819883,-0.0032566246288788267,-0.01155182728957659
341,2.0,300.015,896.0763699999999,0.0,0.0,-0.003409993520821497,0.0,0.0,0.0,-0.05607990441490565,-0.09496364754018231,-0.12134128949795288,0.011455480377317888,-0.006072538153262854,0.004494322190330066
342,2.0,299.73639,815.9755200000001,0.0,0.0,-0.0034199979411956294,0.0,0.0,0.0,-0.04897778115148066,-0.07996765954419352,-0.11909073943584089,-0.005249976959807385,0.0015415466444638087,-0.003415999953007947
343,2.0,299.79682,869.79119,0.0,0.0,-0.0034300023615697617,0.0,0.0,0.0,-0.0925163121496491,-0.06015369265395724,-0.11172479624387889,0.0076034709016041535,0.00016170787652182485,0.014670683038133684
344,2.0,300.27961,951.16761,0.0,0.0,-0.003440006781943894,0.0,0.0,0.0,-0.0932213417017301,-0.07905244341786873,-0.11685741462542888,-0.003839549235259007,-0.0029803854965161475,-0.0072267791675775725
345,2.0,300.20402,1084.588,0.0,0.0,-0.0034500112023180263,0.0,0.0,0.0,-0.12536009270707787,-0.07649105659607952,-0.1278365266139829,-0.006837385735597433,-0.003893855792918647,0.013147415526798887
346,2.0,300.59709,1129.5392,0.0,0.0,-0.0034600156226922696,0.0,0.0,0.0,-0.09472683477981073,-0.09874802419292121,-0.14987686437919484,-0.005885224078826395,0.0007118816356172472,-0.012241173756609788
347,2.0,299.58471000000003,978.25141,0.0,0.0,-0.0034699871337887656,0.0,0.0,0.0,-0.08328996780682983,-0.08625167859737792,-0.12782235124508387,-0.0006398378917770835,0.006028442116860914,-0.012650453843002589
348,2.0,300.13785,1067.3963,0.0,0.0,-0.00347999155416312,0.0,0.0,0.0,-0.08429441377671092,-0.1057356674202979,-0.13443176138238186,-0.002978806954185357,-0.006437206560277823,-0.012373691670938288
349,2.0,299.65056,964.49385,0.0,0.0,-0.003489995974537252,0.0,0.0,0.0,-0.1060480929561319,-0.08947860050885031,-0.09765535555008321,0.0014103219412379387,-0.0048126313655197355,-0.01083332049791549
350,2.0,299.69648,696.5045,0.0,0.0,-0.0035000003949113845,0.0,0.0,0.0,-0.04919058089773236,-0.07180178883553484,-0.09072760654936761,-0.007098528657370233,0.018065929095968384,-0.003367682311389367
351,2.0,299.46469,661.6719,0.0,0.0,-0.0035100048152855168,0.0,0.0,0.0,-0.057693218449377345,-0.06565145192104384,-0.07778706528223563,0.003392449487558697,0.022558339587334778,-0.01073389533185299
352,2.0,299.80758,859.28079,0.0,0.0,-0.003520009235659538,0.0,0.0,0.0,-0.050324073387099356,-0.08789089434415592,-0.1229849331476679,-0.010903774817118789,0.0020357760993654577,0.004477661622910796
353,2.0,299.12528,940.7724300000001,0.0,0.0,-0.0035300136560338924,0.0,0.0,0.0,-0.07117692864461593,-0.07465552465567664,-0.14013887230562985,0.01123101609591499,-0.01015197566692199,-0.013750226382291687
354,2.0,300.52702,1048.5301,0.0,0.0,-0.0035399851671303884,0.0,0.0,0.0,-0.07316867436618593,-0.0919047245217901,-0.15365357174192687,0.008440113636999362,-0.004564086688865285,0.013544846666522288
355,2.0,299.66911,1016.5862,0.0,0.0,-0.0035499895875045206,0.0,0.0,0.0,-0.11126976588897089,-0.07441290698548213,-0.12333414979463288,0.01120666870926209,0.0025182503332319577,-0.010553555052554791
356,2.0,300.05458,1031.1211,0.0,0.0,-0.003559994007878653,0.0,0.0,0.0,-0.1007331159010845,-0.07681401790645334,-0.13588792336609387,0.0034929794002052264,-0.003882330680981206,0.0023064990981837377
357,2.0,300.58599,1038.3571,0.0,0.0,-0.0035699984282530073,0.0,0.0,0.0,-0.12035977439108489,-0.08456826488123792,-0.1107065913508899,-0.003780324361613966,0.0014048883875766886,-0.013781480081626187
358,2.0,300.39745,1005.052,0.0,0.0,-0.0035800028486271396,0.0,0.0,0.0,-0.09808464327295059,-0.07452996472978483,-0.13289609979582387,-0.0016918659444991686,0.02257500653822968,-0.002142061981855058
359,2.0,299.98103,916.7696900000001,0.0,0.0,-0.003590007269001161,0.0,0.0,0.0,-0.08779672186661182,-0.08460752629611272,-0.1062708458581159,-0.011572169298584187,0.01113423753911369,-0.010635475309889689
360,2.0,300.1511,776.19003,0.0,0.0,-0.003600011689375293,0.0,0.0,0.0,-0.06540515209998594,-0.06623239278637824,-0.1043048468215869,-0.005603519171449285,-0.0024982933592623577,-0.0008457246581615252
361,2.0,300.03324,865.0235,0.0,0.0,-0.0036100161097494254,0.0,0.0,0.0,-0.08390265987729782,-0.07376321811411284,-0.10527966434529389,-0.001787381586375828,-0.018505021026803382,0.006760585025717795
362,2.0,300.56953,1084.8587,0.0,0.0,-0.0036199876208461435,0.0,0.0,0.0,-0.08512911502358951,-0.1074791567348669,-0.13716168006680388,0.01877760962170578,-0.0013877593946361887,0.0036475350989086863
363,2.0,300.09796,1070.9296,0.0,0.0,-0.0036299920412202757,0.0,0.0,0.0,-0.0985326609239165,-0.08433017542574033,-0.14267301080572986,0.013624024055836488,0.003038275717129467,0.014045312169164385
364,2.0,299.9297,1132.7517,0.0,0.0,-0.003639996461594408,0.0,0.0,0.0,-0.09205064469519132,-0.10927878010497588,-0.14299881124288386,0.0035099525552803467,0.014311483851183486,-0.005907175027667785
365,2.0,299.74757999999997,1130.7311,0.0,0.0,-0.0036500008819686514,0.0,0.0,0.0,-0.10752985976987091,-0.08964693681421382,-0.14653723257959886,-0.003161408605056737,0.0029018377408140876,-0.003042308655177487
366,2.0,299.59292,998.0228199999999,0.0,0.0,-0.0036600053023428947,0.0,0.0,0.0,-0.0982550749795209,-0.08583923818392322,-0.11927970044698986,0.0037797523819325164,0.0065986657345626035,-0.03377108070444617
367,2.0,299.82626,972.16039,0.0,0.0,-0.003670009722716916,0.0,0.0,0.0,-0.09455940432003661,-0.09054097601344861,-0.1104121003418259,-0.005798656752557864,-0.008639170773469772,-0.01952685436840048
368,2.0,300.00266,909.4070300000001,0.0,0.0,-0.0036800141430910482,0.0,0.0,0.0,-0.09343471900053882,-0.07501239843364733,-0.10798990571277389,0.004247382197858986,-0.014518828258896787,-0.024986816367006774
369,2.0,299.77841,799.79478,0.0,0.0,-0.0036899856541877663,0.0,0.0,0.0,-0.07278613192343193,-0.07706624726709643,-0.09326526204056472,-0.006050865949523974,-0.012914651713826886,-0.004125474937252676
370,2.0,300.22177999999997,808.2087700000001,0.0,0.0,-0.0036999900745618985,0.0,0.0,0.0,-0.06140505450095704,-0.08165440077366193,-0.10261582983239391,0.003090118962470997,0.006320992245358364,-0.0090722929386906
371,2.0,300.47847,1038.6592,0.0,0.0,-0.003709994494936031,0.0,0.0,0.0,-0.07739149244319563,-0.0988558106988089,-0.13947916543052188,0.003552610485815356,0.0055171193354222854,0.010876968272473189
372,2.0,300.1499,1086.1011,0.0,0.0,-0.003719998915310274,0.0,0.0,0.0,-0.0951073649078661,-0.09467019105947042,-0.14037004531594485,-0.0011738166009466788,0.004534532615248526,0.0022176355445385878
373,2.0,300.50865,1171.5643,0.0,0.0,-0.0037300033356844065,0.0,0.0,0.0,-0.1061047235042209,-0.1013763919125709,-0.14864517782263686,0.003753626842679127,0.0025741112165449972,0.01111958087641719
374,2.0,299.9964,1185.5324,0.0,0.0,-0.0037400077560585387,0.0,0.0,0.0,-0.1136955474233769,-0.10288929590188291,-0.14378741366321288,0.006415094707320554,0.00047615626485546453,0.0020237141675250384
375,2.0,299.43325,1097.3186,0.0,0.0,-0.003750012176432671,0.0,0.0,0.0,-0.1051840540658579,-0.09815643812203621,-0.13021696520641388,0.0033936697446541268,-0.004595468361687415,0.008954615794601772
376,2.0,299.42662,1003.8731,0.0,0.0,-0.003759983687529389,0.0,0.0,0.0,-0.08878209542986061,-0.07838518681626563,-0.13798507749556688,-0.01005972532481759,-0.005843197200453665,-0.006749491760972973
377,2.0,299.87512000000004,999.5702699999999,0.0,0.0,-0.0037699881079032993,0.0,0.0,0.0,-0.1028224213952829,-0.08073913195833193,-0.12028284844349289,0.007782520097624932,0.003991749431454996,-0.0030770760018837572
378,2.0,299.9399,919.76664,0.0,0.0,-0.0037799925282775426,0.0,0.0,0.0,-0.091702843558616,-0.07354774034784684,-0.1143355060540359,-0.008143041069330581,0.006945994595266293,-0.027550154708488574
379,2.0,300.29791,844.63599,0.0,0.0,-0.003789996948651897,0.0,0.0,0.0,-0.08527639497862491,-0.07406352011250034,-0.0974083363214543,-0.0005780369209453025,0.007243998947727034,-0.01029682179521719
380,2.0,299.94744,929.12632,0.0,0.0,-0.0038000013690260293,0.0,0.0,0.0,-0.07848389054825693,-0.09590529733511591,-0.10804201716541689,-0.014167416912215186,-0.016851119233075983,-0.013656117739503886
381,2.0,300.23626,1078.9987,0.0,0.0,-0.0038100057894001615,0.0,0.0,0.0,-0.1029280729832099,-0.08888180937220161,-0.13617877680729887,0.006333165026759724,-0.0033459331006428865,0.02005048479482878
382,2.0,299.98515,1114.3987,0.0,0.0,-0.003820010209774294,0.0,0.0,0.0,-0.07069959158875642,-0.12523412545464588,-0.14281565615480787,-0.004370157509825966,0.00994688523405614,-0.01006611275212298
383,2.0,299.69721,965.7520599999999,0.0,0.0,-0.003830014630148315,0.0,0.0,0.0,-0.07141823820893134,-0.0991375752866169,-0.12300869386251287,-0.007732327031396263,0.005722679815009525,-0.005619338437310525
384,2.0,300.60606,1057.3418,0.0,0.0,-0.003839986141244922,0.0,0.0,0.0,-0.07399057117155083,-0.10611934470316389,-0.14129557835478787,-0.010018544408953351,0.003889872706775546,-0.021083889452567877
385,2.0,300.53902,1083.5132,0.0,0.0,-0.0038499905616191654,0.0,0.0,0.0,-0.10713075068798189,-0.09802004047307482,-0.12421016530108887,0.013122945536883887,0.009122678623763281,-0.018619323744084183
386,2.0,300.19376,994.25727,0.0,0.0,-0.0038599949819932977,0.0,0.0,0.0,-0.08701679388038892,-0.08490731761644982,-0.13030526995262887,0.024228905292206775,0.006438980153252864,-0.005068680983014865
387,2.0,299.85258999999996,886.09844,0.0,0.0,-0.00386999940236743,0.0,0.0,0.0,-0.07513625913912143,-0.08123698124921583,-0.1129785615201159,0.01765784059169318,-0.01205095428883659,-0.006288089481486113
388,2.0,299.54962,885.3008,0.0,0.0,-0.0038800038227417843,0.0,0.0,0.0,-0.08078926959978013,-0.07194336317925713,-0.1163767085129869,-0.0022674621182060877,-0.012829223584645787,0.01217678677900529
389,2.0,299.17417,949.69715,0.0,0.0,-0.0038900082431159166,0.0,0.0,0.0,-0.10859281991977689,-0.06559563197303485,-0.11449577182235289,-0.00959365084779462,0.0025890445978438074,-0.008821992704912893
390,2.0,300.1022,1151.7041,0.0,0.0,-0.003900012663489938,0.0,0.0,0.0,-0.11143047748733188,-0.1020713497586579,-0.13658747123513387,-0.01107731416174579,0.02398241599338018,0.0018673815321212084
391,2.0,299.79839,1098.6903,0.0,0.0,-0.003909984174586656,0.0,0.0,0.0,-0.11281896449686489,-0.09248867271342132,-0.1286667938784239,-0.013634771599647186,0.012870387883208387,-0.015826304909684685
392,2.0,299.74345,1076.5498,0.0,0.0,-0.003919988594960788,0.0,0.0,0.0,-0.09529233067387081,-0.09916836086440521,-0.13278355810721687,-0.0061094593657066935,-0.004642835372062176,0.01066470453552439
393,2.0,300.00276,1141.5246,0.0,0.0,-0.0039299930153349205,0.0,0.0,0.0,-0.09464065988530591,-0.1042160861128269,-0.14813822853260486,0.004491867794612836,-0.003386539098400387,-0.0032076088579413467
394,2.0,300.8157,1186.9744,0.0,0.0,-0.003939997435709053,0.0,0.0,0.0,-0.1062454132806059,-0.0998281761572739,-0.15473698941135183,0.019222281520841482,-0.0032664533574988464,0.013876710392274687
395,2.0,299.98323999999997,1004.4301,0.0,0.0,-0.003950001856083185,0.0,0.0,0.0,-0.08213355154720042,-0.09595536506230722,-0.12723276127689587,0.0066785147060430825,-0.004489933094871896,-0.003669456967472207
396,2.0,300.19563,856.79345,0.0,0.0,-0.003960006276457428,0.0,0.0,0.0,-0.06896315956113393,-0.08143793407529833,-0.1100427200178709,9.029884267680191e-05,0.0008540794017285741,-0.003998959212541546
397,2.0,300.14366,935.6727699999999,0.0,0.0,-0.003970010696831672,0.0,0.0,0.0,-0.1016132897859509,-0.07719589363064153,-0.1056119799805909,-0.008276718445748513,0.00908134713893418,-0.008923483887929292
398,2.0,299.55001,976.2782699999999,0.0,0.0,-0.003980015117205693,0.0,0.0,0.0,-0.09558950578244971,-0.09187273824263331,-0.1093019733997649,0.010291427251684792,0.012578599212161088,-0.03158504427620117
399,2.0,299.54758,973.6504,0.0,0.0,-0.003989986628302411,0.0,0.0,0.0,-0.08151125183928422,-0.09020555476659511,-0.12424859787738188,-0.01959451211732778,-0.018038912808552084,-0.02534531235838758
400,2.0,300.43026000000003,1012.0431,0.0,0.0,-0.003999991048676543,0.0,0.0,0.0,-0.08555612799998241,-0.1002036684058321,-0.12187604237072887,0.002761215244235727,-0.030484383116574372,-0.01934183490014048
401,2.0,299.9806,1030.9022,0.0,0.0,-0.004009995469050676,0.0,0.0,0.0,-0.08162129586639473,-0.10215799277470891,-0.1295892466369629,-0.013517770597350088,-0.012961402060190788,-0.008556304444516502
402,2.0,299.94678,1119.6857,0.0,0.0,-0.004019999889424808,0.0,0.0,0.0,-0.09406298371179372,-0.1087396499917679,-0.1375538686505099,0.015069195315713787,0.006416911971374905,-0.0033200070703341866
403,2.0,300.09635,1199.9128,0.0,0.0,-0.004030004309799051,0.0,0.0,0.0,-0.1107512554152979,-0.11357782802675889,-0.14041443580282587,0.0013598410106558584,0.004695764010910826,0.007062124101152383
404,2.0,299.85461000000004,1087.0479,0.0,0.0,-0.0040400087301731835,0.0,0.0,0.0,-0.09112139201523123,-0.09905611909782781,-0.14025789879487685,0.00938729496687888,0.008572515534191413,0.005590130895227964
405,2.0,299.9017,1030.0536,0.0,0.0,-0.004050013150547316,0.0,0.0,0.0,-0.07634058895622953,-0.1044085529693219,-0.13236142798305586,0.0005741399103981974,0.008649123422577022,0.008131424764884142
406,2.0,299.98935,1003.2146,0.0,0.0,-0.004059984661644034,0.0,0.0,0.0,-0.1080253289362699,-0.07751297302418483,-0.11941387502523189,-0.007862414057409853,0.012556573181487288,0.0007402110343681413
407,2.0,299.7929,1049.1224,0.0,0.0,-0.004069989082018166,0.0,0.0,0.0,-0.0994354485245147,-0.08010053412255722,-0.13937102124734885,-0.0001129750556747699,-0.011229082814724189,-0.004441034759621006
408,2.0,299.95497,992.2974,0.0,0.0,-0.004079993502392076,0.0,0.0,0.0,-0.1028755663630279,-0.07213310135323284,-0.12662496320441088,-0.0013870115147373786,-0.023210741942471875,-0.008988162276262552
409,2.0,300.06885,1069.1277,0.0,0.0,-0.00408999792276632,0.0,0.0,0.0,-0.10828598752449489,-0.0886721973107645,-0.12802993579307087,0.015678894245386387,-0.0031345276878537967,-0.01008215260253099
410,2.0,300.28006,1070.5049,0.0,0.0,-0.004100002343140674,0.0,0.0,0.0,-0.09777528484516931,-0.08587927169537422,-0.14175221977735486,0.007938730737716723,0.014132483088517488,-0.01980201155230638
411,2.0,299.83351,1040.2986,0.0,0.0,-0.004110006763514806,0.0,0.0,0.0,-0.08960105279668541,-0.0981045941674196,-0.12851914307385187,-0.0016650049883231985,0.016314580000373686,-0.011139954296177888
412,2.0,299.5169,1123.025,0.0,0.0,-0.004120011183888939,0.0,0.0,0.0,-0.0998138629863613,-0.0936499718252826,-0.14790772426735585,-0.017856141742263985,0.005300650813208505,0.007274862849748062
413,2.0,299.07738,1088.1053,0.0,0.0,-0.004130015604263071,0.0,0.0,0.0,-0.08759356218181151,-0.09953868148445301,-0.14362459450464388,-0.008431839234032741,0.014206484796320886,0.012916030747212988
414,2.0,299.32406000000003,1001.8075,0.0,0.0,-0.004139987115359789,0.0,0.0,0.0,-0.08873652146686282,-0.09385981186799222,-0.12192812342586888,-0.007142120500522414,0.006782939653399023,0.0019309988449497481
415,2.0,299.99946,987.0884199999999,0.0,0.0,-0.00414999153573381,0.0,0.0,0.0,-0.08061705457303384,-0.0979672511561149,-0.12146592939275389,-0.0008301111935280962,-0.01034224985020059,-0.012113825444291489
416,2.0,300.2145,1046.921,0.0,0.0,-0.0041599959561079425,0.0,0.0,0.0,-0.08272918656548502,-0.10829271550515891,-0.12721592106023388,-0.005482306189811495,-0.013867523253617986,-0.013793864024348387
417,2.0,300.13563999999997,1106.6707,0.0,0.0,-0.004170000376482075,0.0,0.0,0.0,-0.08941933551050131,-0.10740870545541391,-0.13957221218720486,0.006948032139892384,0.005803034499614915,-0.02008052664704368
418,2.0,300.12852000000004,1075.0911,0.0,0.0,-0.004180004796856207,0.0,0.0,0.0,-0.1096551315896189,-0.086527040457804,-0.13061867834105986,0.0002454331375848648,0.011009747605327488,-0.013521906684258287
419,2.0,299.93779,960.9346300000001,0.0,0.0,-0.004190009217230561,0.0,0.0,0.0,-0.08693941298350202,-0.08492217692916633,-0.12023853901661989,0.0014787236183886586,0.008199864742888642,-0.026633219096744078
420,2.0,300.48888,989.19975,0.0,0.0,-0.004200013637604694,0.0,0.0,0.0,-0.10557540165198091,-0.06639279736995894,-0.12872382972655286,-0.012895690764705588,-0.005919444270478665,0.0013904450140262386
421,2.0,300.16019,1076.7012,0.0,0.0,-0.00420998514870119,0.0,0.0,0.0,-0.08066216852048622,-0.0997019829500696,-0.14692611796797886,0.006294936012411813,-0.012508649491507588,-0.014541329503867486
422,2.0,299.80522,1256.5118,0.0,0.0,-0.004219989569075433,0.0,0.0,0.0,-0.1004213986270704,-0.10630698848918291,-0.17521980978534885,0.0008585692953066923,0.013919994410046486,0.010587847488939189
423,2.0,300.27528,1247.9605,0.0,0.0,-0.004229993989449565,0.0,0.0,0.0,-0.1072629291635269,-0.10478769089173989,-0.16729820023854686,-0.0013045778435768088,-0.0008664808027499972,0.008445531991909111
424,2.0,300.4857,1075.5449,0.0,0.0,-0.004239998409823698,0.0,0.0,0.0,-0.0985672613883313,-0.0953399108720666,-0.13303163212919988,-0.013134825894306387,0.004428691650877836,0.03636191156089127
425,2.0,300.58949,1073.5057,0.0,0.0,-0.00425000283019783,0.0,0.0,0.0,-0.10760239834452989,-0.08214862972193851,-0.13656788511070087,-0.007299241951129093,0.005363156793327365,0.005447036879005684
426,2.0,300.91445,1252.1844,0.0,0.0,-0.004260007250571962,0.0,0.0,0.0,-0.13641031458764988,-0.09682609342974141,-0.14739636733938888,0.026827169351385474,0.010152718379245291,0.007467699035904512
427,2.0,300.37746,1098.0067,0.0,0.0,-0.0042700116709462055,0.0,0.0,0.0,-0.098492764201229,-0.09710226791674771,-0.13817157630897287,0.010629510306550991,-0.02183876179031798,-0.027627441373116176
428,2.0,300.25772,978.9091300000001,0.0,0.0,-0.004280016091320449,0.0,0.0,0.0,-0.08200108530862701,-0.07984320102116042,-0.13571964278948587,0.02101205508672838,-0.024727814442695274,-0.00916863549397387
429,2.0,299.82054,1015.9117,0.0,0.0,-0.004289987602417056,0.0,0.0,0.0,-0.09245816172641011,-0.08436233294416402,-0.13199129785402688,-0.004216890665249706,-0.0037392367660839363,-0.014601071743013587
430,2.0,300.30846,1070.6614,0.0,0.0,-0.004299992022791188,0.0,0.0,0.0,-0.10311470351912891,-0.09239182018936272,-0.12994781558235088,0.0025785303042061276,0.03445934299387237,-0.015699191671389588
431,2.0,300.03922,1088.526,0.0,0.0,-0.004309996443165098,0.0,0.0,0.0,-0.10194074182076791,-0.09738851714949831,-0.13155547872101486,-0.03206996246930886,0.01671257248065248,-0.021584731884247182
432,2.0,300.01034,1114.2896,0.0,0.0,-0.004320000863539453,0.0,0.0,0.0,-0.1072816033628699,-0.09814983679763471,-0.13328476226918187,-0.013921576093452587,-0.004605818508808896,-0.014894129003186088
433,2.0,299.71078,1052.5119,0.0,0.0,-0.004330005283913585,0.0,0.0,0.0,-0.07151239244797364,-0.095537752007092,-0.15288718989629085,-0.015861469754405184,-0.008948177096841321,-0.0015215650485167786
434,2.0,300.63192999999995,1047.7304,0.0,0.0,-0.004340009704287828,0.0,0.0,0.0,-0.07583069516140693,-0.11135866845274489,-0.13129452629026087,0.012668770365060289,-0.007719339090289452,-0.01036073153202459
435,2.0,300.14468,1099.171,0.0,0.0,-0.004350014124661961,0.0,0.0,0.0,-0.08280599193631513,-0.1088593046960769,-0.14245525322673885,0.003322027491033587,-0.01781341298554698,-0.0004577075035272136
436,2.0,300.79089,1064.6494,0.0,0.0,-0.004359985635758679,0.0,0.0,0.0,-0.09404529641804811,-0.08673223373555501,-0.14284931632312986,-0.0002004874403115698,-0.009022511454652552,-0.0026614037259100973
437,2.0,300.28544,980.0605699999999,0.0,0.0,-0.004369990056132811,0.0,0.0,0.0,-0.09058155870645382,-0.09527624026228282,-0.1120561391590799,0.003521670286061797,0.009423358057813032,-0.008889259643276621
438,2.0,300.34013,1066.0045,0.0,0.0,-0.004379994476506943,0.0,0.0,0.0,-0.1096906257406219,-0.09132731483305422,-0.12302080220120787,0.004042618538150387,0.027889456703225075,-0.026266899801341177
439,2.0,300.96935,1219.3518,0.0,0.0,-0.004389998896880853,0.0,0.0,0.0,-0.1001293211797446,-0.11518683878805588,-0.15533634711050387,0.003336986406234917,-0.004055520049023666,-0.02351774861677108
440,2.0,300.70575,1136.2177,0.0,0.0,-0.004400003317255097,0.0,0.0,0.0,-0.10794137103298389,-0.0951568723077521,-0.14228356812979487,0.014888845917164684,-0.023818347497437876,-0.013728564108403788
441,2.0,299.88862,1090.4071,0.0,0.0,-0.004410007737629451,0.0,0.0,0.0,-0.1034510822873269,-0.07764630660484383,-0.15035915116179285,0.01156073882420609,-0.01909372136140358,0.0013133453953670987
442,2.0,299.89416,1117.8652,0.0,0.0,-0.004420012158003583,0.0,0.0,0.0,-0.1093970365241469,-0.09305623665093551,-0.13734985074287487,0.013593999428873287,0.003879292653206376,0.0025478665190798474
443,2.0,300.08029,1098.0229,0.0,0.0,-0.004429983669100079,0.0,0.0,0.0,-0.10105309724291421,-0.0909332811209161,-0.14178516053810586,-0.026092192179348873,0.002106600964130328,0.004866005125137316
444,2.0,299.79184,1125.0192,0.0,0.0,-0.004439988089474212,0.0,0.0,0.0,-0.1108276139428339,-0.09305859955016872,-0.13809152955107284,-0.01092752539946279,0.016870963736284484,0.0027375959791046873
445,2.0,299.86607000000004,1162.0821,0.0,0.0,-0.004449992509848566,0.0,0.0,0.0,-0.08107357643208903,-0.1165227989124049,-0.15564756687871886,-0.012159470334796288,0.012470886673530688,-0.007304588263956732
446,2.0,299.65139,1063.292,0.0,0.0,-0.004459996930222587,0.0,0.0,0.0,-0.10136598583404391,-0.09330477474146431,-0.1285434509437509,0.005414852813429365,0.022548775519640876,-0.01182919133220029
447,2.0,299.94153,1010.0437,0.0,0.0,-0.0044700013505967195,0.0,0.0,0.0,-0.07354685172750913,-0.1030703130322479,-0.13041089114305288,-0.0038643119531278965,-0.016158897162258982,-0.020197167945555282
448,2.0,299.77418,1014.7669,0.0,0.0,-0.004480005770970852,0.0,0.0,0.0,-0.09524418204236891,-0.09748069251109531,-0.1157389385025439,-0.0049473570504911255,-0.019354881508428082,-0.014500488432086785
449,2.0,300.41213,1072.864,0.0,0.0,-0.004490010191344984,0.0,0.0,0.0,-0.0974363131699654,-0.08028899256165663,-0.14839857301329884,0.01943131298997128,-0.007960766394266473,-0.01982484818306018
450,2.0,300.52709,1144.0001,0.0,0.0,-0.0045000146117193385,0.0,0.0,0.0,-0.1052636752587159,-0.11565425105918589,-0.12682953839960087,0.015845397581318987,0.008571565409572641,-0.03515564643609217
451,2.0,300.25456,1080.2021,0.0,0.0,-0.0045099861228158344,0.0,0.0,0.0,-0.08823916866852792,-0.1006918117740081,-0.13942347720502588,-0.002140505528376448,-0.006354491104264444,-0.029657592313226473
452,2.0,300.13094,1125.3612,0.0,0.0,-0.004519990543189967,0.0,0.0,0.0,-0.11002511986363389,-0.07996890989481693,-0.15208767477238486,-0.026649410833342074,-0.00994935239672463,0.003993797817857156
453,2.0,300.11974,1176.6421,0.0,0.0,-0.00452999496356421,0.0,0.0,0.0,-0.09657663429487172,-0.1024356638321129,-0.15865752762577884,0.0015694732357699488,0.0013176570785176287,0.0012642090476677188
454,2.0,299.45044,1250.4001,0.0,0.0,-0.004539999383938342,0.0,0.0,0.0,-0.11988502618923089,-0.09556436704746872,-0.16464103291130483,-0.002714515155076787,0.013966259409612488,0.02984019821974827
455,2.0,299.96078,1210.018,0.0,0.0,-0.004550003804312475,0.0,0.0,0.0,-0.09822572923012471,-0.10919884480458689,-0.16039069192182884,-8.894084942902842e-05,-0.0013778504166082487,0.009308978434849641
456,2.0,300.06162,1116.6567,0.0,0.0,-0.004560008224686607,0.0,0.0,0.0,-0.09047401335408992,-0.1098290154392799,-0.13913272508883087,-0.014831749274029686,-0.0014051173820992888,0.006793452325836544
457,2.0,299.69698999999997,1153.2011,0.0,0.0,-0.004570012645060739,0.0,0.0,0.0,-0.10126432239851049,-0.0971170958187111,-0.15216290859230985,0.008647642557555872,0.006529448593731404,-0.008304444008234812
458,2.0,299.98305,1234.5449,0.0,0.0,-0.004579984156157457,0.0,0.0,0.0,-0.12853110955753289,-0.11031391640713589,-0.13642580718167885,0.02093935135230308,0.019050974366184782,-0.021824919780701876
459,2.0,300.18523,1130.715,0.0,0.0,-0.0045899885765315895,0.0,0.0,0.0,-0.09777461407360309,-0.09904422050190351,-0.14689028944444288,0.005939436201576714,-0.012953380159149088,-0.02091015657717178
460,2.0,299.74397,1003.5825,0.0,0.0,-0.004599992996905833,0.0,0.0,0.0,-0.0951422967050636,-0.0886385381556926,-0.12128316947221689,0.006703467914930774,-0.012863875724815687,-0.007261200894674733
461,2.0,299.77287,1180.7687,0.0,0.0,-0.004609997417279965,0.0,0.0,0.0,-0.1041135857327109,-0.10504162149930091,-0.14976900390604986,0.002813373002408297,-0.009599767230698261,-0.007174849289352493
462,2.0,299.91797,1319.1048,0.0,0.0,-0.004620001837653875,0.0,0.0,0.0,-0.12548165232157488,-0.1007376329700303,-0.17475562978203785,0.016272576730728287,0.004324367825881876,-0.007078628526731243
463,2.0,300.09334,1273.66,0.0,0.0,-0.00463000625802823,0.0,0.0,0.0,-0.11916186959286089,-0.12200759263121189,-0.14599136435322585,-0.003420519656404007,-0.013812683118455687,-0.00935230733960087
464,2.0,300.4265,1135.8795,0.0,0.0,-0.004640010678402362,0.0,0.0,0.0,-0.09408751044371431,-0.1007704724057713,-0.15042101008039785,-0.004258600700316166,0.002137264546606588,0.0019744647411144983
465,2.0,300.16598999999997,1021.2395,0.0,0.0,-0.004650015098776605,0.0,0.0,0.0,-0.07440021805447983,-0.09464615980684872,-0.14138492674860587,-0.012278094563753589,0.011132413688933689,0.002368878422040098
466,2.0,300.00425,1109.402,0.0,0.0,-0.004659986609873101,0.0,0.0,0.0,-0.08501926148749782,-0.1141928100424529,-0.13801844382135986,0.0014547595442485886,0.016157289134350286,-0.005436934167558625
467,2.0,299.64921,1208.9164,0.0,0.0,-0.004669991030247456,0.0,0.0,0.0,-0.1029836294861929,-0.10578501270016791,-0.15871176690363184,-0.007217133634575633,-0.013927453957282687,-0.016056698730672787
468,2.0,299.6132,1079.4721,0.0,0.0,-0.004679995450621588,0.0,0.0,0.0,-0.0917798363807146,-0.1138839612794719,-0.12246875314922487,-0.0046047131542748055,0.004864322522021255,-0.02012062298000088
469,2.0,299.48037999999997,973.51399,0.0,0.0,-0.00468999987099572,0.0,0.0,0.0,-0.08795030423726923,-0.09562315176527031,-0.11235048831312991,-0.004285388905134957,-0.007821543905351284,-0.02091373537652498
470,2.0,299.63048,1193.4828,0.0,0.0,-0.0047000042913697415,0.0,0.0,0.0,-0.13382326416732787,-0.09125445505811351,-0.13771126692104385,0.008202628281211382,0.011898995144839388,-0.01705428803712718
471,2.0,299.78598,1413.5181,0.0,0.0,-0.004710008711743874,0.0,0.0,0.0,-0.1386144071326769,-0.12258872196106489,-0.16847106762679984,0.00038178748023699066,-0.01159197732478909,-0.013939960503266985
472,2.0,300.1374,1231.4899,0.0,0.0,-0.004720013132118228,0.0,0.0,0.0,-0.12468183322263887,-0.09518234237551582,-0.15447801281829288,0.01773801400585568,-0.007506067169491153,0.013025804236546786
473,2.0,299.98426,1103.2892,0.0,0.0,-0.004729984643214724,0.0,0.0,0.0,-0.07337144090994742,-0.0941769652287928,-0.16782396558293583,0.0007559370508226782,-0.011130804647774889,0.005999182392398204
474,2.0,299.80653,1223.5621,0.0,0.0,-0.004739989063588856,0.0,0.0,0.0,-0.10639554654792291,-0.10191092187032491,-0.16362586776861585,0.004014205485471236,-0.012703145887952887,0.01065452339851959
475,2.0,299.59717,1310.2114,0.0,0.0,-0.004749993483962989,0.0,0.0,0.0,-0.11522245452907089,-0.1119043036315949,-0.17114479146067585,-0.002209706862506088,-0.023802393874613376,0.001062256042411509
476,2.0,299.57465,1162.027,0.0,0.0,-0.004759997904337343,0.0,0.0,0.0,-0.1060580937346189,-0.1116770316341649,-0.13549206681702589,-0.004608917432914736,0.003395977016456837,-0.0027982386936146572
477,2.0,299.61688,1063.1114,0.0,0.0,-0.004770002324711364,0.0,0.0,0.0,-0.08521591509340601,-0.1010725739363364,-0.13687081649309787,0.0035122211209292365,0.02267589382418648,-0.012790589371582888
478,2.0,300.03174,1104.1778,0.0,0.0,-0.004780006745085497,0.0,0.0,0.0,-0.09640865769329372,-0.10897186664968589,-0.13026196364335488,-0.011716498669328388,0.03392946284082727,-0.010807648793381888
479,2.0,300.34902999999997,1140.5625,0.0,0.0,-0.004790011165459629,0.0,0.0,0.0,-0.09725139300021521,-0.1099036413091449,-0.13954748888476487,-0.01830429111574288,0.013205451452776589,-0.024420360925101976
480,2.0,300.12717999999995,1153.9717,0.0,0.0,-0.004800015585833761,0.0,0.0,0.0,-0.11324890677929689,-0.09611363574117732,-0.14141603352667587,-0.006432765586414534,-0.0026159315945473477,-0.015204230143290686
481,2.0,300.40876000000003,1099.6694,0.0,0.0,-0.004809987096930479,0.0,0.0,0.0,-0.1060706377708569,-0.1006259859812616,-0.12757541206321288,0.016208831140437086,0.0006624619730574064,-0.01056036611972699
482,2.0,300.37512000000004,1159.9164,0.0,0.0,-0.0048199915173046115,0.0,0.0,0.0,-0.10944389934127188,-0.1035560651301879,-0.13958564788353087,0.006990286594237572,-0.002322442588507238,-0.012348831579734789
483,2.0,299.69534,1302.7929,0.0,0.0,-0.004829995937678744,0.0,0.0,0.0,-0.1314618138817709,-0.09407947942342172,-0.17047521552959383,0.0020680482163754677,-0.025913379881201473,-0.007095456989692083
484,2.0,300.03938999999997,1343.7717,0.0,0.0,-0.004840000358052987,0.0,0.0,0.0,-0.1177273303662829,-0.12149330741045587,-0.16925242530891382,-0.0013919956919792786,-0.0015365469644953785,-0.0038150855274946267
485,2.0,299.70344,1195.3749,0.0,0.0,-0.004850004778427119,0.0,0.0,0.0,-0.08198287619107993,-0.1097120255827339,-0.17166921931493284,0.0051580810525879645,0.004319014217653516,-0.0077275138907712424
486,2.0,299.68029,1142.5485,0.0,0.0,-0.004860009198801252,0.0,0.0,0.0,-0.0926068095690805,-0.1003830187397826,-0.15431636902983983,-0.002241543383298108,0.010739344590890789,-0.005583372618385975
487,2.0,299.98748,1172.0302,0.0,0.0,-0.004870013619175384,0.0,0.0,0.0,-0.09974641092720431,-0.1079076905996599,-0.14861382786454286,-0.022063984996045775,-0.014101903200499486,-0.013105962451957786
488,2.0,299.52917,1195.8046,0.0,0.0,-0.00487998513027188,0.0,0.0,0.0,-0.11964645645318589,-0.09694699949792392,-0.14690128320802787,-0.01104704230175819,-5.872972365242244e-05,-0.00088475915567643
489,2.0,299.70452,1160.6065,0.0,0.0,-0.004889989550646234,0.0,0.0,0.0,-0.1080318846644169,-0.1085799313785049,-0.13618357961277286,0.0006745190412973465,0.026502065017050176,-0.012748304418409687
490,2.0,300.23591,1141.145,0.0,0.0,-0.004899993971020367,0.0,0.0,0.0,-0.10649127841737091,-0.0987102927856974,-0.14167800934003086,0.001824897475303358,0.026248483980773674,-0.0008011869055109912
491,2.0,300.25575,1210.2145,0.0,0.0,-0.00490999839139461,0.0,0.0,0.0,-0.1117291937493129,-0.10111264595129121,-0.15503314215057984,0.0015416669172506783,-0.003174290965503127,-0.0093755181636166
492,2.0,300.24003999999996,1275.1761,0.0,0.0,-0.004920002811768742,0.0,0.0,0.0,-0.12847520854951588,-0.09833375182328571,-0.16081273085348083,-0.0084589371894071,-0.009361303784588751,-0.00033610761233873873
493,2.0,300.62484,1317.5716,0.0,0.0,-0.0049300072321426525,0.0,0.0,0.0,-0.1124907829219759,-0.1084049836162389,-0.17961308996643183,0.028193364858718473,-0.002112023574690498,0.003564863820599666
494,2.0,300.0911,1228.5008,0.0,0.0,-0.004940011652517007,0.0,0.0,0.0,-0.1061247047961929,-0.1067643087893169,-0.16054456408201484,0.008453030245299132,-0.0010702917236545691,3.174128237537067e-05
495,2.0,300.0418,1213.7107,0.0,0.0,-0.004950016072891139,0.0,0.0,0.0,-0.1011023199195221,-0.1092570053603269,-0.15857842319047186,0.008851836061433202,-0.01247718300965209,-0.00967153016240571
496,2.0,299.71407,1176.4273,0.0,0.0,-0.004959987583987635,0.0,0.0,0.0,-0.08833362384284991,-0.1073565838702699,-0.16191432622969984,-0.01114262319694129,-0.007795490813480043,-0.011648883476905288
497,2.0,299.70946000000004,1090.0541,0.0,0.0,-0.004969992004361878,0.0,0.0,0.0,-0.09076706858776222,-0.09850114681930631,-0.14208099916980285,0.006054775271059795,0.013036714913623588,-0.017659462805103283
498,2.0,299.54037999999997,1053.7565,0.0,0.0,-0.004979996424736233,0.0,0.0,0.0,-0.09041330751409872,-0.1020837722048839,-0.12781859208721288,-0.0036854080571714566,-0.0024814701652020378,-0.02494263764939668
499,2.0,299.98118999999997,1132.0013,0.0,0.0,-0.004990000845110365,0.0,0.0,0.0,-0.093589231534788,-0.11047446588548089,-0.14003643272051988,-0.0037904391307372162,-0.03114092155861967,-0.023737571199465877
500,2.0,300.54357999999996,1262.1575,0.0,0.0,-0.005000005265484497,0.0,0.0,0.0,-0.11933415250736389,-0.11973348450427489,-0.14459672691558587,-0.002707403861899958,-0.007410100631319994,-0.01232343243947809
501,2.0,300.07831,1325.9883,0.0,0.0,-0.005010009685858519,0.0,0.0,0.0,-0.11331533545585289,-0.1071782721176719,-0.18257372569862382,0.0016116021484277483,0.01189029031323029,-0.005202432124040075
502,2.0,300.20235,1319.3765,0.0,0.0,-0.005020014106232651,0.0,0.0,0.0,-0.12100354284211988,-0.11859235210915389,-0.16146162635002184,0.002618605764211267,0.027099104399973373,-0.0034135234684385366
503,2.0,300.14965,1342.2466,0.0,0.0,-0.005029985617329258,0.0,0.0,0.0,-0.12752761705599588,-0.11102194517951289,-0.16945988826688885,-0.012247483264982489,-0.003906052790997396,0.005469229791970954
504,2.0,300.01069,1374.1433,0.0,0.0,-0.005039990037703501,0.0,0.0,0.0,-0.14365535677767985,-0.1062976361907599,-0.16775226800585985,-3.151826400186047e-05,-0.008176949078627043,0.005128756277468836
505,2.0,299.59542000000005,1349.2512,0.0,0.0,-0.0050499944580776335,0.0,0.0,0.0,-0.11488707887847188,-0.12584841846027187,-0.16940316652629084,0.009819079034017651,-0.0012547066869049088,-0.0013672308462851787
506,2.0,299.73368999999997,1357.9582,0.0,0.0,-0.005059998878451766,0.0,0.0,0.0,-0.12456904835400787,-0.11304516244918889,-0.17517115351554682,0.023532656565492378,-0.017409982391981483,-0.007545894484546804
507,2.0,299.54053999999996,1232.8383,0.0,0.0,-0.00507000329882612,0.0,0.0,0.0,-0.09295509605245372,-0.12207920914827988,-0.15971776213291586,0.005931708447039045,-0.018532859060050783,-0.015428711649945286
508,2.0,299.85483999999997,1124.067,0.0,0.0,-0.005080007719200141,0.0,0.0,0.0,-0.1009565264023834,-0.1144339027712469,-0.12629786580712887,0.0008094527769117692,-0.0031609201171835274,-0.015086852211956384
509,2.0,299.94206,1167.7509,0.0,0.0,-0.005090012139574274,0.0,0.0,0.0,-0.11698948164346289,-0.08786595420619452,-0.15011168508986986,-0.0003002039968378277,0.022885223188845682,-0.0035024351514634368
510,2.0,299.81453,1166.3413,0.0,0.0,-0.005099983650670881,0.0,0.0,0.0,-0.12104306972852089,-0.1051079387183459,-0.12838760294586987,-0.014229752058367188,0.0061462895882915545,-0.02246853219122148
511,2.0,300.42569,1219.1686,0.0,0.0,-0.005109988071045124,0.0,0.0,0.0,-0.0984735083963286,-0.10933330309285688,-0.16279000736362284,-0.012541292356729189,-0.002296632170034948,-0.005717788350151775
512,2.0,300.21392000000003,1171.9351,0.0,0.0,-0.005119992491419256,0.0,0.0,0.0,-0.11121635747619989,-0.0978587188981536,-0.14716392776644885,-0.008055542262245122,0.000926902507148155,-0.009518948173572041
513,2.0,299.99492000000004,1236.8127,0.0,0.0,-0.005129996911793389,0.0,0.0,0.0,-0.08935852429249971,-0.12030981102865387,-0.16629185037172783,0.011905769735007989,0.020510999872528083,-0.0059162597267393745
514,2.0,299.78004,1313.7806,0.0,0.0,-0.005140001332167521,0.0,0.0,0.0,-0.12304631583872587,-0.10992850646659891,-0.16638166486059183,0.00937157368230231,0.00921114336216907,-0.004575370343303896
515,2.0,299.40088,1272.1576,0.0,0.0,-0.005150005752541764,0.0,0.0,0.0,-0.11193799419741988,-0.12340714433183689,-0.15135900609547084,-0.013718446806155289,-0.013734116718951788,-0.016940565912153684
516,2.0,299.63756,1243.8385,0.0,0.0,-0.0051600101729158965,0.0,0.0,0.0,-0.11917131308379289,-0.1195342997996169,-0.1393902223367439,-0.0034099045443813764,-0.008682869615832511,-0.008248978900410833
517,2.0,299.61961,1218.0975,0.0,0.0,-0.005170014593290029,0.0,0.0,0.0,-0.1094327231926689,-0.1014897442012579,-0.15934876684399885,-0.007974018590999362,0.0035856404125751565,-0.005236470031999355
518,2.0,299.09076,1190.1889999999999,0.0,0.0,-0.005179986104386525,0.0,0.0,0.0,-0.09948594384324821,-0.11077204730734988,-0.15152972860481986,-0.0018995229398683182,-0.006906553024523712,-0.009857221618132031
519,2.0,299.86486,1326.7343,0.0,0.0,-0.005189990524760657,0.0,0.0,0.0,-0.1049917290643769,-0.11228281333895089,-0.1860195461086998,-0.013559111201430088,-0.012021848679714089,-0.003916658175819066
520,2.0,300.26872000000003,1379.1916,0.0,0.0,-0.005199994945135011,0.0,0.0,0.0,-0.1342573506426689,-0.11717011373878988,-0.16781234360428884,-0.0026617370851929976,-0.0017428726505581385,-0.005020193115379485
521,2.0,299.40484,1334.6578,0.0,0.0,-0.005209999365509144,0.0,0.0,0.0,-0.13272378648381788,-0.11976653672253688,-0.15321231145587785,0.0068695663561234134,0.019410481581165383,0.0036180253043212964
522,2.0,300.03314,1402.612,0.0,0.0,-0.005220003785883387,0.0,0.0,0.0,-0.13689919762839886,-0.10579658401630991,-0.18366324313365082,-0.007480537218646543,0.0017235037669465782,-0.005242382143682835
523,2.0,300.32272,1470.7671,0.0,0.0,-0.005230008206257519,0.0,0.0,0.0,-0.13638573314022387,-0.13757608922520287,-0.17311465098008583,-0.005881171585051444,-0.005188766622591395,-0.0020443613674627583
524,2.0,300.43489,1361.6281,0.0,0.0,-0.0052400126266314295,0.0,0.0,0.0,-0.10493566593634389,-0.11693990331606989,-0.1920253834264298,-0.0043865313274669354,-0.00958421688141356,-0.01212845981548579
525,2.0,300.38696,1216.1697,0.0,0.0,-0.00524998413772837,0.0,0.0,0.0,-0.09022303029106982,-0.11012110504560689,-0.16934107456016284,0.014870606402114586,0.021646834996126275,-0.006371174368485953
526,2.0,300.45038999999997,1195.9374,0.0,0.0,-0.00525998855810228,0.0,0.0,0.0,-0.1126866948288109,-0.10763754799049889,-0.14321086422381188,0.006981381037783664,-0.003171965049898577,-0.009188402483549721
527,2.0,299.39479,1170.857,0.0,0.0,-0.005269992978476412,0.0,0.0,0.0,-0.11442366894523688,-0.09250700646073072,-0.14898061426824186,0.005762244799614285,-0.0027164141884142077,-0.012853501057041788
528,2.0,299.58766,1158.7792,0.0,0.0,-0.0052799973988506554,0.0,0.0,0.0,-0.10373972684331391,-0.11078298027592891,-0.13771723496413285,-0.011969206284018688,0.0033581396232725768,-0.015140394373740585
529,2.0,299.76144,1227.6385,0.0,0.0,-0.00529000181922501,0.0,0.0,0.0,-0.1073219307168499,-0.1083243086432769,-0.15752522063902885,0.017970682573318283,0.022284407422799777,-0.02414266453644548
530,2.0,299.45703,1177.1249,0.0,0.0,-0.005300006239599142,0.0,0.0,0.0,-0.09176053700605992,-0.098609926310292,-0.16744612462064584,-0.005212333907992305,0.004231667398083056,-0.0045998974805245355
531,2.0,299.62487000000004,1169.208,0.0,0.0,-0.005310010659973274,0.0,0.0,0.0,-0.08779435795412852,-0.11403095347147889,-0.15358473153013286,0.005369967961824575,-0.013910318884841589,-0.026725944653145376
532,2.0,300.12207,1293.1089,0.0,0.0,-0.005320015080347296,0.0,0.0,0.0,-0.13701487025981487,-0.1035027276449239,-0.15255520863352684,0.0014023101726972386,-0.014821281387246588,0.0056823854929827855
533,2.0,300.05345,1331.1598,0.0,0.0,-0.005329986591443903,0.0,0.0,0.0,-0.12617078397958686,-0.1067650991243949,-0.17170344690331085,-0.004771263606337056,0.005710207111578564,-0.01009141836939545
534,2.0,300.4277,1401.7672,0.0,0.0,-0.005339991011818035,0.0,0.0,0.0,-0.13471429604026586,-0.12750797013655688,-0.16387997062869386,0.004102107262121466,-0.004995633554155646,-0.0006748382961388543
535,2.0,300.43664,1436.8739,0.0,0.0,-0.005349995432192278,0.0,0.0,0.0,-0.13370826028097788,-0.1078415861631359,-0.1952239302821018,-0.005520641494094895,-0.005990164871808244,-0.010202990782956792
536,2.0,300.5271,1358.4608,0.0,0.0,-0.0053599998525664105,0.0,0.0,0.0,-0.11185732935695888,-0.1240406789568619,-0.17704015412000282,0.01136230493787219,0.0013811411489580187,-0.006958488880924383
537,2.0,300.42356,1242.1333,0.0,0.0,-0.005370004272940543,0.0,0.0,0.0,-0.1053255848398259,-0.1149053680427769,-0.15734654411639484,0.012839539483913887,0.01266115376405859,-0.006903705183792653
538,2.0,299.98668,1184.1278,0.0,0.0,-0.005380008693314897,0.0,0.0,0.0,-0.12040343533789387,-0.08051387835510113,-0.15902797186233886,0.017470575761211585,-0.01211101468851409,0.00027478428760409774
539,2.0,299.80998999999997,1277.7718,0.0,0.0,-0.0053900131136889184,0.0,0.0,0.0,-0.1152519299744799,-0.11563031809182388,-0.15752845290684786,-0.006019423684345864,-0.02124979902394188,-0.006121159060636364
540,2.0,300.20829,1274.8819,0.0,0.0,-0.005399984624785525,0.0,0.0,0.0,-0.12081991152649688,-0.0959165261727241,-0.17079581799373483,0.013449417758854188,-0.0012033959044909289,-0.010245858354937491
541,2.0,299.54148,1256.0813,0.0,0.0,-0.005409989045159769,0.0,0.0,0.0,-0.09392313391974161,-0.11105977993824688,-0.17683443395219983,-0.003103418477983557,0.015368577283010486,-0.01133170579810229
542,2.0,299.31914,1356.2262,0.0,0.0,-0.005419993465533901,0.0,0.0,0.0,-0.10407724045162389,-0.12772149233012986,-0.18046016705003184,0.00026031828817891476,0.01925894800221018,-0.01941185250855068
543,2.0,299.68719,1381.1944,0.0,0.0,-0.005429997885908033,0.0,0.0,0.0,-0.12501558767307788,-0.10409680631105489,-0.19073621519169884,-0.024171864377827278,0.005442548789012745,0.005133599106321785
544,2.0,299.6044,1296.6651,0.0,0.0,-0.005440002306282166,0.0,0.0,0.0,-0.13028764953338987,-0.12091464027834588,-0.14295152286071686,0.0062339344047164244,-0.0009807008084251338,-0.007853466957701841
545,2.0,300.474,1343.0764,0.0,0.0,-0.005450006726656298,0.0,0.0,0.0,-0.12036877205197288,-0.11383932761256688,-0.17405358931775183,-0.005993275853590274,-0.002100241705177718,-0.004811384966571726
546,2.0,300.70198999999997,1324.2901,0.0,0.0,-0.005460011147030541,0.0,0.0,0.0,-0.1240942798871519,-0.11614794703790991,-0.16230887568613886,0.006348536638726784,-0.01161087139940379,-0.01124612162840579
547,2.0,300.11168,1278.8152,0.0,0.0,-0.0054700155674046735,0.0,0.0,0.0,-0.099637088334165,-0.12292202044895888,-0.16616877088208085,-0.0017303541482226585,-0.020991272313927282,-0.035653875695763566
548,2.0,300.38697,1352.4878,0.0,0.0,-0.0054799870785013916,0.0,0.0,0.0,-0.1161526586508749,-0.10804619175582891,-0.18692366917292982,0.01876696137640488,0.0038859815224165165,-0.014776316387558884
549,2.0,300.43057999999996,1239.1228,0.0,0.0,-0.005489991498875302,0.0,0.0,0.0,-0.10524121150399889,-0.1189529779522449,-0.15246821097994084,0.012259508517169289,0.01026152421473359,-0.014931401408114588
550,2.0,299.97298,1143.6381,0.0,0.0,-0.005499995919249434,0.0,0.0,0.0,-0.10020810948102041,-0.10410045401141489,-0.14332885719795685,0.00803180394022733,-0.007126764593931903,-0.0036974735353872265
551,2.0,300.20576,1354.4208,0.0,0.0,-0.0055100003396237884,0.0,0.0,0.0,-0.1279106661237999,-0.1086372104066579,-0.17516222678216584,-0.018299129619733484,-0.012649399049648487,0.011363186465459188
552,2.0,299.71495,1473.4385,0.0,0.0,-0.005520004759997921,0.0,0.0,0.0,-0.15039962037078686,-0.12310338208435788,-0.17438549965300884,0.002333170576591008,0.0029995651050090276,0.005842480022032885
553,2.0,299.28623,1397.9703,0.0,0.0,-0.005530009180372164,0.0,0.0,0.0,-0.12291802824356489,-0.11200945872697289,-0.19002056677856985,-0.005403391434923214,0.012835549305020089,-0.006650690452997044
554,2.0,300.31527,1328.7631,0.0,0.0,-0.005540013600746296,0.0,0.0,0.0,-0.1169115829757749,-0.1161332245139569,-0.17086598556315985,0.0002173517520609478,0.013974932830468488,-0.005207070985647895
555,2.0,299.73781,1368.5452,0.0,0.0,-0.005549985111843014,0.0,0.0,0.0,-0.13353506544138488,-0.1133831320200439,-0.16908536063242585,-0.003403846119383457,0.003923580295202226,-0.005565695659791395
556,2.0,300.0581,1375.9071,0.0,0.0,-0.005559989532217147,0.0,0.0,0.0,-0.13986008667311586,-0.09198436192664973,-0.18639695137344683,-0.0019317949555533182,0.017555672557609984,0.0011278514220852689
557,2.0,300.12145,1245.178,0.0,0.0,-0.005569993952591057,0.0,0.0,0.0,-0.1040247236989409,-0.1265608042080789,-0.14791749199831988,-0.005041679894350066,0.004085177778125656,-0.013823661683289187
558,2.0,299.69652,1120.2864,0.0,0.0,-0.005579998372965189,0.0,0.0,0.0,-0.08345887862500001,-0.10088019320609991,-0.15620002123074186,-2.3093204930871877e-05,-0.01932315056829648,-0.00969720733848985
559,2.0,300.38514,1190.49,0.0,0.0,-0.0055900027933394325,0.0,0.0,0.0,-0.08857981727264731,-0.1026666848549129,-0.17063273539013982,0.0012458957680103386,-0.017481289867768986,-0.01032238001573959
560,2.0,300.86012,1343.3116,0.0,0.0,-0.005600007213713787,0.0,0.0,0.0,-0.12057624514244887,-0.12454137649377688,-0.16321555214062086,0.008798403128009781,0.002517116101070017,-0.01004924710288347
561,2.0,299.93492000000003,1442.945,0.0,0.0,-0.005610011634087919,0.0,0.0,0.0,-0.15385829892463185,-0.10967706845428389,-0.17508387215193283,0.01065120703094229,0.014483926859202287,0.008530046473475042
562,2.0,299.94954,1470.3424,0.0,0.0,-0.005620016054461829,0.0,0.0,0.0,-0.1273043879264649,-0.14357501617725088,-0.17606797104655583,-0.012853684455309888,0.0003216774920995967,-0.003918878510763196
563,2.0,300.21062,1339.1927,0.0,0.0,-0.005629987565558547,0.0,0.0,0.0,-0.11636163135149888,-0.1164298433482309,-0.17428965632604984,-0.006243830413143084,-0.0013030195662480188,-0.003868462124212486
564,2.0,299.43071000000003,1342.8956,0.0,0.0,-0.00563999198593268,0.0,0.0,0.0,-0.11831685953946489,-0.1081017077288079,-0.18178818329359683,-0.013922630886806685,0.013282053160336588,-0.004148629323237836
565,2.0,299.86062000000004,1403.904,0.0,0.0,-0.005649996406306812,0.0,0.0,0.0,-0.12090122484702188,-0.1354946506047809,-0.17035587493281584,-0.005071431045111275,0.007030118975543723,-0.02921295587784427
566,2.0,299.61233,1235.3263,0.0,0.0,-0.005660000826681055,0.0,0.0,0.0,-0.10799963291373389,-0.10629867983836289,-0.16121002621769084,-0.014064343032542587,0.005559461638551145,-0.01139298209789979
567,2.0,299.74255,1198.8203,0.0,0.0,-0.005670005247055188,0.0,0.0,0.0,-0.11315382338991288,-0.1099671720904149,-0.14129044117678088,-0.0018142204536996183,-0.0034256002950554267,-0.019191139279017982
568,2.0,300.06887,1368.9527,0.0,0.0,-0.00568000966742932,0.0,0.0,0.0,-0.11901810966867288,-0.12274321220381189,-0.17436611617859582,0.014194699684407786,-0.0007057853657280923,-0.002112356731323378
569,2.0,299.75158,1328.4862,0.0,0.0,-0.005690014087803674,0.0,0.0,0.0,-0.1161401754096429,-0.11036839886501289,-0.17731804809242882,0.004925667013550485,-0.013714826463547988,1.6871948615381682e-05
570,2.0,300.11582000000004,1323.6629999999998,0.0,0.0,-0.00569998559890017,0.0,0.0,0.0,-0.1023940597830069,-0.13265093380162787,-0.16731550655025484,0.01165871200287529,-0.022468602105478377,-0.00925536605483351
571,2.0,300.58912000000004,1413.4036,0.0,0.0,-0.0057099900192743025,0.0,0.0,0.0,-0.10997953374163491,-0.1213332645571609,-0.19832659328081081,0.004904085394370546,-0.016512096895367086,0.004743218160794186
572,2.0,301.34493,1401.4569,0.0,0.0,-0.005719994439648546,0.0,0.0,0.0,-0.14830255743382287,-0.11260021393277589,-0.16510512172210684,0.0077431412470635435,0.005442450301103025,-0.005387653026419954
573,2.0,300.46117999999996,1399.1582,0.0,0.0,-0.005729998860022678,0.0,0.0,0.0,-0.13310527514646786,-0.1272608181721649,-0.16494307263361385,-0.0001052898069787949,0.004909216391551936,-0.016086836841647183
574,2.0,300.0124,1399.1044,0.0,0.0,-0.00574000328039681,0.0,0.0,0.0,-0.14064588239066786,-0.10215385871430091,-0.18249305072566183,-0.022470004443616777,0.013973129245290488,-0.015462866284316087
575,2.0,299.63018999999997,1326.6856,0.0,0.0,-0.005750007700770943,0.0,0.0,0.0,-0.1123358265841829,-0.12337929008658788,-0.16756417838979684,-0.008253406702022821,0.02020634799146128,-0.01049272964905179
576,2.0,299.31498,1269.8209,0.0,0.0,-0.005760012121145075,0.0,0.0,0.0,-0.09558260352276851,-0.1121390534147629,-0.17827220544659683,0.004215693712906576,0.02064369206587378,-0.030103079878692672
577,2.0,299.04283,1294.7433,0.0,0.0,-0.005769983632241793,0.0,0.0,0.0,-0.1074815885351069,-0.10823321745928689,-0.17785482746540485,-0.0005822454451031515,-0.0005635138552744875,-0.007597084994173914
578,2.0,299.12724,1221.6931,0.0,0.0,-0.005779988052615925,0.0,0.0,0.0,-0.11246673849710288,-0.11347422320403389,-0.14542324515465685,0.003748111013109757,-0.01986663968343468,-0.02405105355515418
579,2.0,299.73273,1214.1553,0.0,0.0,-0.005789992472990169,0.0,0.0,0.0,-0.1020726568512869,-0.1080261192713479,-0.15897410748702284,-0.00017454221904597585,-0.01213304781193859,-0.002467139059762668
580,2.0,300.40497999999997,1371.0118,0.0,0.0,-0.005799996893364079,0.0,0.0,0.0,-0.1125535436331699,-0.13407464138463687,-0.17012516801754685,0.014981528917061785,0.0013879253650025689,-0.007377816659283812
581,2.0,300.34001,1446.6314,0.0,0.0,-0.005810001313738211,0.0,0.0,0.0,-0.12036882271447788,-0.12881437375548888,-0.19055661661147383,-0.004345830286850056,-0.008364039224791403,0.008376223962543942
582,2.0,299.87778,1359.1804,0.0,0.0,-0.0058200057341125655,0.0,0.0,0.0,-0.1025109584470439,-0.11573161270432089,-0.19491433171404682,-0.0018956087547320182,-0.003366766738599007,-0.011441495499437689
583,2.0,300.51967,1443.7044,0.0,0.0,-0.005830010154486698,0.0,0.0,0.0,-0.1183067270384649,-0.13703632076443187,-0.18350704049823482,0.0007094470388069714,-0.006035454516827984,-0.001021245859189119
584,2.0,299.84159,1541.5632,0.0,0.0,-0.005840014574860941,0.0,0.0,0.0,-0.15795253860370187,-0.12628642621349986,-0.18435775514969382,0.0037239827924534863,0.011260618197586489,-0.016018265141129685
585,2.0,299.41856,1558.4845,0.0,0.0,-0.005849986085957437,0.0,0.0,0.0,-0.15362956784705784,-0.13866558639522786,-0.1814452183997488,-0.0027471092829685776,-0.002070099034577868,-0.011424126366223489
586,2.0,299.54508,1285.7026,0.0,0.0,-0.005859990506331791,0.0,0.0,0.0,-0.13321830319512287,-0.1051421257767199,-0.15246105743423485,-0.00042465544738522963,-0.00019698254742066382,-0.02999152205593277
587,2.0,299.59938999999997,1123.8777,0.0,0.0,-0.005869994926705702,0.0,0.0,0.0,-0.09588929304978641,-0.08487351863286412,-0.16086794285142983,-0.003757803054291286,0.013743992867676488,0.012598816591406388
588,2.0,299.58446000000004,1131.7266,0.0,0.0,-0.005879999347079834,0.0,0.0,0.0,-0.07105483910031662,-0.11500748338785488,-0.15795431179137684,0.0016025104579304684,0.015284013456164685,-0.01004644789815721
589,2.0,300.17249,1375.969,0.0,0.0,-0.005890003767453966,0.0,0.0,0.0,-0.1085361387091829,-0.12410399695561088,-0.18562007225677482,0.01113174798361799,-0.0014563591621814585,0.004403193110786326
590,2.0,300.46022999999997,1548.7045,0.0,0.0,-0.00590000818782821,0.0,0.0,0.0,-0.14320340670307588,-0.13814849447169486,-0.18941559567386382,-0.007347424121209304,-0.015509660200434285,-0.014806716930309187
591,2.0,299.77391,1440.2841,0.0,0.0,-0.005910012608202564,0.0,0.0,0.0,-0.12602645663534287,-0.13418107317514089,-0.1776028625630378,0.013018968851372189,-0.0018508696084916082,-0.007948566457762431
592,2.0,300.02558,1383.7313,0.0,0.0,-0.00591998411929906,0.0,0.0,0.0,-0.13150123944316186,-0.1169507754896429,-0.17216774849663383,0.0033628197241594663,0.016851665374879882,-0.024542967226952275
593,2.0,299.80552,1530.4533,0.0,0.0,-0.005929988539673192,0.0,0.0,0.0,-0.13015408290520789,-0.14410939414748986,-0.19095610059589982,0.0025708439915975473,0.009793051273398912,-0.014205206074694686
594,2.0,300.41334,1505.3794,0.0,0.0,-0.0059399929600473245,0.0,0.0,0.0,-0.12709481740828188,-0.14157179033204786,-0.1889311304035508,-0.004808519596613936,-0.008761680512585543,-0.02041022607058248
595,2.0,300.21653,1151.2345,0.0,0.0,-0.005949997380421457,0.0,0.0,0.0,-0.09454068756418942,-0.08589678167035232,-0.16950908155924385,0.004859757728995745,-0.008044111179916961,-0.0003951614898969026
596,2.0,299.85361,1168.7791,0.0,0.0,-0.0059600018007957,0.0,0.0,0.0,-0.097005546101952,-0.12152345160093089,-0.13675067542874086,0.0030995791720296473,-0.0017220323251513582,-0.02668488167959277
597,2.0,299.14142000000004,1382.8574,0.0,0.0,-0.005970006221169832,0.0,0.0,0.0,-0.11765581517422488,-0.11620015981556289,-0.18649813452843284,0.0002867299692605447,-0.013903321379650987,-0.024587611026358275
598,2.0,299.20869,1483.7022,0.0,0.0,-0.005980010641543965,0.0,0.0,0.0,-0.14574063561598086,-0.13103012880916687,-0.17423764619841683,-0.015580046631880883,-0.005114240557861245,-0.018056578824045585
599,2.0,299.97174,1521.0799,0.0,0.0,-0.005990015061918097,0.0,0.0,0.0,-0.11897980881489288,-0.14379006837847488,-0.1996004310415288,-0.004426393599651035,0.01036121586557239,-0.003582969080011517
600,2.0,299.20063,1466.2484,0.0,0.0,-0.005999986573014815,0.0,0.0,0.0,-0.1174943841682929,-0.12046053198102889,-0.20774798522812982,-0.01032340643809089,0.03097662710790507,0.00965295536289752
601,2.0,299.75509,1415.0149,0.0,0.0,-0.006009990993388947,0.0,0.0,0.0,-0.1078817817946029,-0.1332982790255159,-0.18894913585782783,0.004874927197567855,0.001119249536686329,0.006837110334220253
602,2.0,300.33347000000003,1512.9682,0.0,0.0,-0.0060199954137630796,0.0,0.0,0.0,-0.13249672726890888,-0.13111381313492587,-0.1962940237127118,0.0005193612896494686,-0.017329447247533283,0.0007470902122120633
603,2.0,300.61024,1529.8842,0.0,0.0,-0.006029999834137323,0.0,0.0,0.0,-0.15254571448008986,-0.11580294551136089,-0.1966979457325758,0.015226886415526686,-0.005925833825609264,0.014768927767829686
604,2.0,300.246,1316.9139,0.0,0.0,-0.006040004254511455,0.0,0.0,0.0,-0.13759836046240087,-0.1209951429987909,-0.14171542866622386,0.016377483579831785,-0.012180441572115988,-0.012555251903356887
605,2.0,300.06493,1243.1531,0.0,0.0,-0.0060500086748855875,0.0,0.0,0.0,-0.1070347857710109,-0.10624632520569591,-0.16460640002288685,0.01027643115020479,-0.007326164310261123,-0.017352315289040184
606,2.0,299.28391,1363.6609,0.0,0.0,-0.00606001309525972,0.0,0.0,0.0,-0.12119602996361688,-0.12490467731713187,-0.16841815570657784,-0.018822952563680783,-0.004675358065821916,-0.023828215540161773
607,2.0,299.37657,1573.575,0.0,0.0,-0.006069984606356216,0.0,0.0,0.0,-0.14152158378959287,-0.13049038061339788,-0.20631555356175982,0.013120873440429387,0.015719210453615285,-0.01101291299863989
608,2.0,299.7194,1500.9063,0.0,0.0,-0.00607998902673057,0.0,0.0,0.0,-0.12399385666974087,-0.13208187228046586,-0.2001623086194818,-0.010174143552609791,0.02156406563520758,-0.022310645534139275
609,2.0,299.31245,1303.2087,0.0,0.0,-0.006089993447104702,0.0,0.0,0.0,-0.100934646279724,-0.13806613750356686,-0.15714212090871985,0.003271359615808057,-0.006337273857240234,-0.02264803349943688
610,2.0,300.43063,1316.5970000000002,0.0,0.0,-0.006099997867478946,0.0,0.0,0.0,-0.1163831122536189,-0.11487638908991689,-0.16895310109687284,-0.011126149776815489,-0.015289916651247286,-0.0056631222913566545
611,2.0,299.96243,1308.8447,0.0,0.0,-0.006110002287852856,0.0,0.0,0.0,-0.0954688722785441,-0.12426700863169889,-0.17812022806409783,-0.0038382566321064366,0.004210524921496457,-0.004465465638082145
612,2.0,300.10483999999997,1379.4734,0.0,0.0,-0.006120006708226988,0.0,0.0,0.0,-0.12155746640678787,-0.12782526940537187,-0.16994272220454082,-0.005331134239816985,0.005447611189162364,-0.004169603701632846
613,2.0,300.35697999999996,1409.7675,0.0,0.0,-0.0061300111286013426,0.0,0.0,0.0,-0.1131238717169569,-0.12184875554553588,-0.1935614908430318,-0.008902276158036251,4.986595363263645e-05,-0.009566911886930691
614,2.0,299.92842,1326.2216,0.0,0.0,-0.006140015548975475,0.0,0.0,0.0,-0.10485189041807591,-0.14041500322288186,-0.15787137727069184,0.0005940054486787735,-0.005556388754972875,-0.01871945109246598
615,2.0,299.4946,1458.4424,0.0,0.0,-0.006149987060071971,0.0,0.0,0.0,-0.13429297651618488,-0.12246798307914888,-0.18656911269793783,0.018811077272508782,-0.004564467569577875,-0.014948090650511687
616,2.0,299.59018,1739.3959,0.0,0.0,-0.006159991480446214,0.0,0.0,0.0,-0.18034512263367783,-0.13744874395263487,-0.2109390340330618,0.012457501639709687,-0.003015278790209847,-0.008190845702423533
617,2.0,299.75611000000004,1592.5847,0.0,0.0,-0.0061699959008205685,0.0,0.0,0.0,-0.14072491589846786,-0.15278535826124084,-0.19059570780033183,0.0028960596821188374,-0.010990730927450688,-0.017124999721855882
618,2.0,299.78829,1262.4689,0.0,0.0,-0.006180000321194479,0.0,0.0,0.0,-0.1290983168310119,-0.08326140833951122,-0.17139929962079384,-0.01028597292639649,-0.0017435588235258583,-0.005920505548633405
619,2.0,299.76148,1396.3017,0.0,0.0,-0.006190004741568611,0.0,0.0,0.0,-0.1132492208868279,-0.12182369787056288,-0.18936792225665883,-0.021625830321553276,0.019446086176429282,0.0025757131649530975
620,2.0,299.66267,1545.1192,0.0,0.0,-0.006200009161942743,0.0,0.0,0.0,-0.14636949915804487,-0.12389637187761987,-0.19941177400540983,-0.007366620144353803,0.017582640209021484,-0.0008512615228029712
621,2.0,299.81011,1481.7238,0.0,0.0,-0.006210013582316987,0.0,0.0,0.0,-0.13252695251939187,-0.13009289273166888,-0.18778719130565283,-0.019490576975070183,0.004498221885989935,-0.005136456978228835
622,2.0,299.87757,1453.0135,0.0,0.0,-0.006219985093413594,0.0,0.0,0.0,-0.12425982468848988,-0.14577038463891684,-0.17164960279299685,0.01123676932998279,-0.006573882853016723,-0.0025466303539578477
623,2.0,300.01087,1411.8828,0.0,0.0,-0.006229989513787837,0.0,0.0,0.0,-0.10902079649701489,-0.13454336074839587,-0.18561297950607483,0.014822180140085288,-0.0015313216337296783,-0.01038822506023799
624,2.0,300.03153,1449.0489,0.0,0.0,-0.006239993934161969,0.0,0.0,0.0,-0.12625033424493787,-0.13714301599996187,-0.17708132247156583,0.021821738175387878,0.00988081109371013,-0.00950125915730127
625,2.0,300.75002,1612.7262,0.0,0.0,-0.0062499983545361015,0.0,0.0,0.0,-0.12933860909222689,-0.16133897242541684,-0.1995509236416428,0.0018706410563678983,-0.007603290340436333,-0.040171307385099365
626,2.0,300.49031,1490.2414,0.0,0.0,-0.006260002774910234,0.0,0.0,0.0,-0.14378274258025187,-0.1190734533891349,-0.19013998843535582,0.0009503442812591782,-0.0037317894791739463,-0.012359826356569887
627,2.0,299.98263,1120.0736,0.0,0.0,-0.006270007195284477,0.0,0.0,0.0,-0.09588419538853331,-0.09987978098486691,-0.14471042370930684,-0.003637841639177017,-0.012407598059034589,-0.03970691561251746
628,2.0,299.9168,1230.1134,0.0,0.0,-0.0062800116156586094,0.0,0.0,0.0,-0.1108559038856259,-0.09220114171929422,-0.17086670497073084,-0.0024908704916797777,-0.009374605022626482,-0.016305991692526087
629,2.0,299.84236,1499.3165,0.0,0.0,-0.006290016036032742,0.0,0.0,0.0,-0.13776407751625588,-0.1160131442446059,-0.2019775664386338,-0.016115885708764086,-0.00973947101341095,-0.014009127994843287
630,2.0,299.78282,1526.4433,0.0,0.0,-0.00629998754712946,0.0,0.0,0.0,-0.14139073267167887,-0.13302414421096087,-0.18958578116065983,-0.008632119464698862,-0.0003274684899986237,-0.0010318805269386789
631,2.0,299.90129,1478.0257,0.0,0.0,-0.006309991967503592,0.0,0.0,0.0,-0.11265745243092488,-0.13422655797212987,-0.2023988960952158,0.0056452844286461945,0.019826780451000878,-0.002996360498917757
632,2.0,299.54526,1526.0081,0.0,0.0,-0.006319996387877724,0.0,0.0,0.0,-0.13700636909147587,-0.14320279875301586,-0.18365919013325083,0.00022633688917771184,0.010113394142864291,0.005295544336679535
633,2.0,300.43298,1667.7214,0.0,0.0,-0.006330000808251857,0.0,0.0,0.0,-0.15364257797834185,-0.15528243207268286,-0.1980206626781178,0.012336003833468789,-0.004878545311024936,-0.0051793030693074145
634,2.0,300.05088,1549.8947,0.0,0.0,-0.006340005228625878,0.0,0.0,0.0,-0.13261247082783187,-0.12686206372781086,-0.2116547635061988,0.0006885174359338803,-0.018173615290096184,-0.0013786071117829286
635,2.0,299.91312999999997,1368.8001,0.0,0.0,-0.006350009649000232,0.0,0.0,0.0,-0.12319841481123689,-0.12416251214888588,-0.16872012450137983,0.013288639285986588,-0.004820851154305966,-0.007411899048922483
636,2.0,299.60684,1315.6731,0.0,0.0,-0.0063600140693743645,0.0,0.0,0.0,-0.11820937396885689,-0.0933399872089395,-0.1883824149443968,0.004202899201243856,-0.0045495678281823855,-0.008606690838864253
637,2.0,299.81672000000003,1344.8870000000002,0.0,0.0,-0.0063699855804708605,0.0,0.0,0.0,-0.12323568214991489,-0.10753071089995489,-0.17804566298923882,-0.0017450693767749384,-0.002340678962482028,-0.036813510037710565
638,2.0,299.79573,1514.5482,0.0,0.0,-0.006379990000844993,0.0,0.0,0.0,-0.14839181463513187,-0.11807224070032289,-0.19392078932849183,0.002219220470345008,-0.0046197745090612455,-0.006731550040127264
639,2.0,300.36332999999996,1579.0085,0.0,0.0,-0.006389994421219347,0.0,0.0,0.0,-0.15684795413968786,-0.12191396832197189,-0.20121723369609482,0.006710961811345364,0.01974154585258888,-0.024839513107219078
640,2.0,300.36922000000004,1445.8771,0.0,0.0,-0.006399998841593479,0.0,0.0,0.0,-0.11451078818883488,-0.13869379527801187,-0.1863059412494648,0.005233973383752955,0.003512436132600457,-0.004299439542946646
641,2.0,300.87405,1509.4569,0.0,0.0,-0.006410003261967723,0.0,0.0,0.0,-0.12488906313309088,-0.13984839376696187,-0.19409975969365484,0.014696469239928588,-0.011549824094128889,-0.012111604400072288
642,2.0,300.39359,1665.8319,0.0,0.0,-0.006420007682341633,0.0,0.0,0.0,-0.1287893160805159,-0.15852666637536383,-0.2190553294540778,-0.015762703200907682,-0.008945720167998841,0.005429429632017985
643,2.0,299.89301,1492.4844,0.0,0.0,-0.006430012102715765,0.0,0.0,0.0,-0.1115029046044799,-0.15575321846664586,-0.18642187732590682,0.0036049356329044464,-3.129140338397107e-06,-0.02391806447952918
644,2.0,299.73508,1353.7178,0.0,0.0,-0.006439983613812483,0.0,0.0,0.0,-0.1177271378487639,-0.11993871831202989,-0.17383055270573983,-0.02169173312130738,-0.005717924429640205,-0.02078362595768418
645,2.0,300.08112,1385.3894,0.0,0.0,-0.006449988034186616,0.0,0.0,0.0,-0.11987573468581389,-0.12345648961170687,-0.17779154999665986,-0.006301017134211974,0.005268700808405285,-0.022959505566926774
646,2.0,299.84361,1380.1295,0.0,0.0,-0.006459992454560748,0.0,0.0,0.0,-0.11219673774295588,-0.1115838632874699,-0.1957443051359588,-0.002632360532993758,0.0012458473346555587,-0.01967187578896298
647,2.0,299.90474,1501.9983,0.0,0.0,-0.006469996874934991,0.0,0.0,0.0,-0.13736710639207786,-0.11844603879471388,-0.2007568331156568,8.0761698051309e-06,0.026572790887280272,-0.016373099246649085
648,2.0,299.75267,1578.0639,0.0,0.0,-0.0064800012953093455,0.0,0.0,0.0,-0.13736438074930887,-0.13333148323129287,-0.2089961674963158,0.001294165786874219,0.007451986059978763,-0.02168933982457118
649,2.0,300.34735,1530.4021,0.0,0.0,-0.006490005715683256,0.0,0.0,0.0,-0.15429586084781585,-0.12076810404888388,-0.19014004923036182,-0.0019282678319552183,0.008021973489082143,-0.01911988651873588
650,2.0,300.51578,1512.7124,0.0,0.0,-0.006500010136057388,0.0,0.0,0.0,-0.15204072076275085,-0.13106889575799285,-0.17671716038562582,0.0007743500241573973,-0.003204450354729627,-0.018333274121603283
651,2.0,300.70027999999996,1650.6717,0.0,0.0,-0.006510014556431631,0.0,0.0,0.0,-0.15140625394763385,-0.15046410360715085,-0.1998926219728658,-0.01029321259836099,0.00030170213777318267,0.0014970532113726485
652,2.0,300.28886,1610.8403,0.0,0.0,-0.006519986067528238,0.0,0.0,0.0,-0.12936355530968888,-0.13859139622290587,-0.22170027698511377,-0.003605821112166837,-0.004115556535998806,-0.0004449805351161596
653,2.0,300.49991,1417.2033,0.0,0.0,-0.006529990487902371,0.0,0.0,0.0,-0.1064114343094909,-0.13726162705666786,-0.18712137453244182,-0.018332676304044282,-0.004561086353994176,-0.0009337449749409541
654,2.0,299.90907999999996,1467.4729,0.0,0.0,-0.006539994908276614,0.0,0.0,0.0,-0.1093545509474539,-0.12696354072532587,-0.2097570271289068,0.026975527404527275,0.0028843020292834472,0.0017497881838156482
655,2.0,299.8376,1552.777,0.0,0.0,-0.006549999328650746,0.0,0.0,0.0,-0.14509674557493388,-0.13528635678172388,-0.1916223328016518,-0.004224524086203066,0.014118312785868989,-0.014998294153216385
656,2.0,299.80262999999997,1446.8149,0.0,0.0,-0.006560003749024879,0.0,0.0,0.0,-0.13016590753387489,-0.13919719819269386,-0.17043249690537784,0.02340538323368148,-0.007482418722757234,-0.015933813785044985
657,2.0,300.04079,1447.8659,0.0,0.0,-0.006570008169399011,0.0,0.0,0.0,-0.12113981484806889,-0.12603944650162488,-0.19293581903878282,-0.017186387479164383,0.00046748491102966853,-0.02519549319860158
658,2.0,299.84361,1524.3593,0.0,0.0,-0.006580012589773254,0.0,0.0,0.0,-0.13905997373165085,-0.13501661947260285,-0.1892905808765258,0.013908156609128187,0.007905149197602481,-0.013258067503969385
659,2.0,300.42632000000003,1453.493,0.0,0.0,-0.006589984100869861,0.0,0.0,0.0,-0.12521430628268987,-0.12998497146351787,-0.1866263005335818,-0.006950798920615443,0.01104840816289299,-0.021420108127250082
660,2.0,300.50834,1476.9415,0.0,0.0,-0.0065999885212438825,0.0,0.0,0.0,-0.1101670458051409,-0.1396260968275229,-0.1991601941380808,0.0012967653813307789,-0.006930220925659555,-0.02306674187801018
661,2.0,300.22632000000004,1635.5104,0.0,0.0,-0.006609992941618237,0.0,0.0,0.0,-0.15938372397244885,-0.14962842558717585,-0.18814217334568684,-0.007626837259510233,-0.017022309863971182,-0.018075147645378185
662,2.0,300.00605,1643.195,0.0,0.0,-0.006619997361992369,0.0,0.0,0.0,-0.15495985377084687,-0.14001177021308586,-0.2045186051719148,0.005146071404452705,-0.010791943416831888,-0.009464905060938401
663,2.0,299.63726,1561.0531,0.0,0.0,-0.006630001782366501,0.0,0.0,0.0,-0.13495687824670685,-0.14780013737173786,-0.1917641371531468,0.002054177633106548,0.01867454688778428,-0.004356692226597046
664,2.0,299.87802,1594.8095,0.0,0.0,-0.006640006202740634,0.0,0.0,0.0,-0.13483355557703589,-0.13793257087538488,-0.2120161391543638,0.009889983742890402,-0.006174662313616724,0.007086871316294743
665,2.0,300.55522,1626.7428,0.0,0.0,-0.006650010623114655,0.0,0.0,0.0,-0.13588311042811888,-0.13421761097374688,-0.22438847003041779,-0.01069083422910319,0.004438050434101476,0.025013598593649978
666,2.0,300.33909,1438.1473,0.0,0.0,-0.006660015043489009,0.0,0.0,0.0,-0.1126659434667629,-0.12935304790615187,-0.1951418772890038,-0.003016119179842787,-0.00971207333865701,-0.012055684140303388
667,2.0,300.45547999999997,1428.2281,0.0,0.0,-0.006669986554585505,0.0,0.0,0.0,-0.15443938772448085,-0.1013281916053139,-0.17837810021454784,-0.004523864712895686,0.003365957455744137,0.00098042597446801
668,2.0,300.05207,1499.6828,0.0,0.0,-0.0066799909749596376,0.0,0.0,0.0,-0.13993012252002787,-0.12598566318631688,-0.1899503485466398,-0.01099059211218699,-0.017440256278469284,-0.027747211587936575
669,2.0,299.80831,1572.4249,0.0,0.0,-0.00668999539533377,0.0,0.0,0.0,-0.15670569382564786,-0.13817780779708788,-0.18309439439500982,0.007835752306203543,-0.006481312323880724,-0.01847567730390738
670,2.0,299.98521,1776.1215,0.0,0.0,-0.006699999815708124,0.0,0.0,0.0,-0.16847825157000884,-0.14746876405903386,-0.2239495503520998,0.01017237948418569,0.003614185998367387,-0.009072269431288282
671,2.0,299.48751,1709.7121,0.0,0.0,-0.0067100042360822565,0.0,0.0,0.0,-0.15263588360648886,-0.16042115021983486,-0.2066527733275408,0.019333521183069982,0.029158314339701577,-0.011377250376847189
672,2.0,299.65474,1400.6655,0.0,0.0,-0.0067200086564565,0.0,0.0,0.0,-0.1018533388671419,-0.13124828155569687,-0.19266572709212682,0.003666633647393567,-0.002717109480632828,-0.017510446139396483
673,2.0,299.90907000000004,1355.9724,0.0,0.0,-0.00673001307683041,0.0,0.0,0.0,-0.12294744289396788,-0.1103510925533049,-0.17888322565439985,0.0018593767550061984,0.0017619960236704684,-0.016406055206151585
674,2.0,300.5573,1601.2076,0.0,0.0,-0.006739984587927128,0.0,0.0,0.0,-0.13121062918198087,-0.15333066920005886,-0.2021858399966888,-0.013271600472304988,-0.008283297275997793,-0.015400882735948784
675,2.0,300.09422,1526.4447,0.0,0.0,-0.00674998900830126,0.0,0.0,0.0,-0.13223017156510186,-0.12534178327777087,-0.2064291186329678,0.0010348517815319189,0.007134634304808583,-0.0098274054167144
676,2.0,300.20329,1275.7868,0.0,0.0,-0.006759993428675393,0.0,0.0,0.0,-0.091802456175947,-0.12217138450987687,-0.17383350126353084,-0.027474009976723675,-0.0029500400745712868,-0.014035050985401684
677,2.0,299.34646000000004,1411.8294,0.0,0.0,-0.006769997849049525,0.0,0.0,0.0,-0.1092053093402249,-0.13251660723587086,-0.18743896764378581,0.011475432285036988,0.002658010655300227,-0.016370047337347884
678,2.0,299.45962000000003,1637.3965,0.0,0.0,-0.006780002269423768,0.0,0.0,0.0,-0.14785725427987487,-0.13082525977144788,-0.2190451260255708,-0.005774386474237574,-0.007774735094456612,-0.009528920074431192
679,2.0,299.43326,1725.6811,0.0,0.0,-0.006790006689798123,0.0,0.0,0.0,-0.16201756628238886,-0.15508329803052984,-0.20746309983001382,0.006520242507297834,-0.007834241145004403,-0.020015464844872582
680,2.0,300.06729,1696.1705,0.0,0.0,-0.006800011110172033,0.0,0.0,0.0,-0.16476579439611783,-0.13084687239608087,-0.21998080169791479,0.00836963966074412,-0.02253114192815058,-0.017084515314110385
681,2.0,299.58816,1520.5149,0.0,0.0,-0.006810015530546165,0.0,0.0,0.0,-0.15587623716128685,-0.1125427930496089,-0.19377955239705283,0.006015614471919925,0.01033368586035539,0.0008629513790741701
682,2.0,300.53354,1415.0832,0.0,0.0,-0.006819987041642883,0.0,0.0,0.0,-0.1289842248697519,-0.12359803051817589,-0.17756770278456782,0.01136218132135999,0.008691106832520461,-0.009916379515945461
683,2.0,300.62641,1599.797,0.0,0.0,-0.0068299914620170155,0.0,0.0,0.0,-0.13943599084376085,-0.1209359489279489,-0.2259263911646988,-0.022524786823523376,0.01194373621625499,0.015525003846698587
684,2.0,300.20228,1718.3813,0.0,0.0,-0.006839995882391148,0.0,0.0,0.0,-0.14743171963537788,-0.16163698954482883,-0.21327628790623077,-0.01986925589519288,0.0038633225144052465,7.400735869920763e-07
685,2.0,299.56913,1523.2478,0.0,0.0,-0.006850000302765391,0.0,0.0,0.0,-0.11954817119348589,-0.13887182332058187,-0.20460931132086682,-0.015904430545395087,0.0017177806264067484,-0.0003401566813283507
686,2.0,299.51716,1418.132,0.0,0.0,-0.006860004723139523,0.0,0.0,0.0,-0.10788347392226988,-0.13239888783925288,-0.1907943554824368,0.01070012877227049,0.01009598873529651,-0.020331044628267878
687,2.0,299.20103,1495.2844,0.0,0.0,-0.006870009143513656,0.0,0.0,0.0,-0.13604163340626388,-0.14413590077010588,-0.17435158617216184,0.004506154013072776,0.006866515764047344,-0.014819258940046987
688,2.0,299.3726,1634.5538,0.0,0.0,-0.006880013563887788,0.0,0.0,0.0,-0.14273248858659987,-0.14505540497085387,-0.2090756367016588,0.013435001236431385,-0.0010219928271628389,-0.01135922060456779
689,2.0,299.60573999999997,1541.6732,0.0,0.0,-0.006889985074984506,0.0,0.0,0.0,-0.13461347765531587,-0.14077009672042687,-0.1932465828444528,-0.004933793482002505,0.002051801662947058,-0.02161247669848538
690,2.0,299.46306,1455.6779,0.0,0.0,-0.006899989495358527,0.0,0.0,0.0,-0.13133895730714587,-0.12737957108388487,-0.18377120493180582,0.01023670262703389,-0.004905174435578026,-0.017224951777970385
691,2.0,299.80521,1507.0536,0.0,0.0,-0.0069099939157326595,0.0,0.0,0.0,-0.12555233664855087,-0.12666300061316488,-0.2058913260098918,-0.0023873021459583778,-0.011644437335466488,-0.027802703242913174
692,2.0,300.55894,1643.4808,0.0,0.0,-0.006919998336107014,0.0,0.0,0.0,-0.13629134889340885,-0.15519950768449886,-0.20808626890651583,0.0027017360448155876,-0.004560167234828466,-0.021491659796311683
693,2.0,300.37872000000004,1777.3809,0.0,0.0,-0.006930002756481146,0.0,0.0,0.0,-0.16010949475407685,-0.15738212945990684,-0.22278778818494277,0.01104126981593849,0.005202854750656785,-0.011037786262094689
694,2.0,300.51027,1508.1686,0.0,0.0,-0.0069400071768552785,0.0,0.0,0.0,-0.12676274495300888,-0.12351219810220487,-0.2081706422423428,0.008334327996084133,0.019825727684146983,-0.0029383925620217674
695,2.0,299.97252000000003,1290.488,0.0,0.0,-0.006950011597229411,0.0,0.0,0.0,-0.08779721734591073,-0.14264019163499086,-0.16183871750723786,0.008833998604022782,0.0036129353437689567,-0.02101448891346858
696,2.0,299.64451,1565.2106,0.0,0.0,-0.006960016017603432,0.0,0.0,0.0,-0.1314282347734569,-0.13511168259698486,-0.2092450318533768,-0.015237354302309785,-0.007255081066720753,-0.0031870764592399573
697,2.0,299.95705,1893.8225,0.0,0.0,-0.006969987528700261,0.0,0.0,0.0,-0.16941213378967585,-0.17611868421406082,-0.2301439332484378,-0.01947762459904188,-0.006334080092925035,-0.006807573485855193
698,2.0,300.12009,1693.7058,0.0,0.0,-0.006979991949074282,0.0,0.0,0.0,-0.16433407892601085,-0.14318918067167188,-0.2073210117684908,-0.014864001024712685,-0.0049212272555873154,-0.005371905194690765
699,2.0,299.71469,1454.7474,0.0,0.0,-0.006989996369448415,0.0,0.0,0.0,-0.14448701219475785,-0.11667309429973789,-0.18104677806292582,-0.008381315544296442,-0.0027917687877511274,0.010947208795905388
700,2.0,300.19473,1644.9627,0.0,0.0,-0.007000000789822547,0.0,0.0,0.0,-0.15100296014283188,-0.14039681538358686,-0.2086278105549618,0.003074545207108987,-0.003783392888216806,-0.0004314005215784166
701,2.0,300.88856,1847.0776,0.0,0.0,-0.007010005210196901,0.0,0.0,0.0,-0.18891112884657682,-0.13466793984819087,-0.23788641031006078,0.01063854951069309,0.004364778165045066,0.003974057679408957
702,2.0,300.64519,1798.9471,0.0,0.0,-0.0070200096305710336,0.0,0.0,0.0,-0.17682575039884282,-0.14226781209073985,-0.22774145646633182,0.0024721953804116878,-0.0028456000297888574,-0.0022794579861399877
703,2.0,299.89892000000003,1552.1975,0.0,0.0,-0.007030014050945277,0.0,0.0,0.0,-0.12250685135298489,-0.14123974827427785,-0.20808269213366282,0.012211893868470089,0.0014473180328641686,-0.02598866233713127
704,2.0,299.33583,1410.614,0.0,0.0,-0.007039985562041773,0.0,0.0,0.0,-0.10647599860586289,-0.13417661487470087,-0.18813880935535482,-0.0047467182306146155,0.002213417283047278,-0.012369736955797989
705,2.0,299.72182000000004,1455.755,0.0,0.0,-0.007049989982415905,0.0,0.0,0.0,-0.10695140542028189,-0.15106553846900783,-0.18449624617336183,0.012984187015189486,0.004949887237315835,-0.027020053666921673
706,2.0,300.32029,1688.8909,0.0,0.0,-0.007059994402790037,0.0,0.0,0.0,-0.13563763032639187,-0.16105778539016585,-0.21668523614516777,-0.015850708025093085,0.004023402553978916,-0.008648155870056533
707,2.0,300.3704,1565.5068,0.0,0.0,-0.00706999882316417,0.0,0.0,0.0,-0.1268839397974699,-0.15306707218654383,-0.1959239442461878,-0.006895642347446914,0.004379136729562146,-0.023287363915033877
708,2.0,300.0299,1371.5078,0.0,0.0,-0.007080003243538302,0.0,0.0,0.0,-0.1036512397120809,-0.14085010294832287,-0.17240279212233084,-0.022461533672780778,0.0023942830338473378,-0.01786195070508728
709,2.0,299.24009,1609.8729999999998,0.0,0.0,-0.007090007663912545,0.0,0.0,0.0,-0.12985257007295087,-0.13910738370382986,-0.22040122956190777,0.008298018280075642,0.0030082420722403773,-0.028213699774975374
710,2.0,299.75718,1855.7839999999999,0.0,0.0,-0.0071000120842869,0.0,0.0,0.0,-0.18279509044797082,-0.15038761335710185,-0.23092930340094778,0.0001091823085629549,0.0010028595849945348,0.005959506152932463
711,2.0,299.2448,1797.3408,0.0,0.0,-0.007109983595383396,0.0,0.0,0.0,-0.16088973786108085,-0.15367653198919284,-0.2317804638824508,0.027499574276746677,0.00012843959280850088,-0.01732419455901488
712,2.0,299.02121,1570.4117,0.0,0.0,-0.007119988015757528,0.0,0.0,0.0,-0.13801402605092386,-0.12377533915317489,-0.21557659868075382,0.0010012216459428832,0.0002083008651451948,0.0014780729091744386
713,2.0,298.98332,1566.9821,0.0,0.0,-0.00712999243613166,0.0,0.0,0.0,-0.13825045782925788,-0.13636716026589085,-0.2017058228943148,0.008416760755319613,-0.01100808384866329,-0.0072750831303198035
714,2.0,299.9056,1688.4172,0.0,0.0,-0.0071399968565057925,0.0,0.0,0.0,-0.15226494287737985,-0.14023752233536585,-0.2207342139422708,-0.016413446865631086,-0.01068706493873119,-0.008048575053232513
715,2.0,300.1636,1695.2468,0.0,0.0,-0.007150001276879925,0.0,0.0,0.0,-0.14915885509333285,-0.14711543361666288,-0.21903841830990878,-0.01927701830449358,-0.02070588535701178,-0.01049727407575029
716,2.0,300.51859,1600.1362,0.0,0.0,-0.007160005697254168,0.0,0.0,0.0,-0.14360508944021885,-0.13627867313465786,-0.2065176766917078,-0.006967652106878723,-0.002783446559379787,-0.001977239425188338
717,2.0,300.02456,1401.5865,0.0,0.0,-0.0071700101176283,0.0,0.0,0.0,-0.11057443314034689,-0.11453135716586488,-0.2009415182113838,-0.00012055696299304589,0.003526055936469627,-0.0013368822832650086
718,2.0,300.27553,1556.8225,0.0,0.0,-0.007180014538002433,0.0,0.0,0.0,-0.11885552355762688,-0.14639572207063287,-0.2079839103814138,0.012704919075627888,0.012689606840116687,-0.0006883400361063723
719,2.0,300.45889,1888.8592,0.0,0.0,-0.007189986049099151,0.0,0.0,0.0,-0.17729893819554282,-0.14731566196892384,-0.24955142168880776,-0.0003436831564463867,-0.0002155750889381048,-0.0040372669564222256
720,2.0,300.37509,1892.3228,0.0,0.0,-0.007199990469473283,0.0,0.0,0.0,-0.17762315796254083,-0.15776286831748285,-0.23983286375216079,-0.01190817721724559,0.007440125967558262,-0.017061535815092486
721,2.0,300.18974,1582.0943,0.0,0.0,-0.007209994889847304,0.0,0.0,0.0,-0.14670407434106486,-0.14037707727163887,-0.19383600056012382,-0.0031538767117633973,-0.001940207261858548,-0.03130100190216837
722,2.0,299.52934,1547.1709,0.0,0.0,-0.007219999310221437,0.0,0.0,0.0,-0.14845042102091585,-0.12209082099442589,-0.1997600888597858,0.0002678782282350227,0.0003880944858819436,-0.01268464596762709
723,2.0,299.5692,1693.9316,0.0,0.0,-0.007230003730595791,0.0,0.0,0.0,-0.14032194633369785,-0.16002205127044683,-0.21456890119130181,0.00883842478443461,-0.006411544076320134,-0.020217891949850582
724,2.0,299.6159,1669.8302,0.0,0.0,-0.007240008150969923,0.0,0.0,0.0,-0.13333303350394587,-0.14943192599528285,-0.22482173577317777,0.008922112453918942,-0.005274411181993855,-0.008001148767726902
725,2.0,300.03212,1540.8784,0.0,0.0,-0.0072500125713440555,0.0,0.0,0.0,-0.12259921923210089,-0.14290240049586886,-0.2028869280058808,0.016952571912588584,0.0002749176617147608,-0.016459959098221483
726,2.0,300.37215,1422.2923,0.0,0.0,-0.0072599840824405515,0.0,0.0,0.0,-0.11513562912800188,-0.14410181503674185,-0.17310389026402384,0.004575628215454345,-0.0006276812717148184,-0.018392677935215984
727,2.0,300.38166,1474.6203,0.0,0.0,-0.007269988502814906,0.0,0.0,0.0,-0.13089528548585888,-0.1289966169184749,-0.1883558475267748,-0.005814826906928734,-0.001148069814580669,-0.009024186357067851
728,2.0,300.29889,1760.5239,0.0,0.0,-0.007279992923189038,0.0,0.0,0.0,-0.15293758895626486,-0.16567961426380484,-0.2165380919656458,-0.012459036713611187,0.010987211909853389,-0.030444474234885673
729,2.0,300.48591,1869.1655,0.0,0.0,-0.007289997343563059,0.0,0.0,0.0,-0.15923218228749283,-0.16253184137064383,-0.24641561527932776,0.003093137434518897,0.002916377575774057,0.00026366952169215574
730,2.0,300.16146000000003,1596.7261,0.0,0.0,-0.007300001763937192,0.0,0.0,0.0,-0.13993146001015988,-0.1274296560363279,-0.2180037683677968,-0.00865604209690984,0.007749546507570692,-0.01032485234598359
731,2.0,299.68445,1534.2364,0.0,0.0,-0.007310006184311324,0.0,0.0,0.0,-0.13770923028834287,-0.13873265341934687,-0.18992766187690083,-0.0006561783126947574,-0.017322212641819282,-0.0003311804405474647
732,2.0,298.87887,1808.8988,0.0,0.0,-0.007320010604685678,0.0,0.0,0.0,-0.18392225012421282,-0.13368111531079888,-0.23225671169445278,-0.005906961130571675,-0.01008652193961221,-0.01080006562963349
733,2.0,298.84873999999996,1833.5263,0.0,0.0,-0.007330015025059811,0.0,0.0,0.0,-0.19584133396553483,-0.14589930044913985,-0.2156055675011128,0.005559311576211334,-0.0070649052700268635,-0.012301862371349288
734,2.0,299.43314,1628.1839,0.0,0.0,-0.007339986536156307,0.0,0.0,0.0,-0.14327704972034386,-0.15294521872951786,-0.1987049712656538,0.017362230954518783,0.002438597526970838,-0.028481760155180873
735,2.0,299.87766,1465.8478,0.0,0.0,-0.00734999095653055,0.0,0.0,0.0,-0.1253182556104489,-0.11439496356990388,-0.2058679199325818,0.005773792912328994,-0.002682615002178487,-0.013026884361153387
736,2.0,299.7506,1537.9452,0.0,0.0,-0.007359995376904682,0.0,0.0,0.0,-0.1269907870205149,-0.15120352286762587,-0.18930262842021484,0.002137685450698128,-0.002091910661530508,-0.014523723270129886
737,2.0,300.28982,1759.0903,0.0,0.0,-0.0073699997972788145,0.0,0.0,0.0,-0.14212537952418286,-0.15747719258428886,-0.23511695460673676,0.0013561234973639687,-0.007914537061103993,-0.01005497358714863
738,2.0,299.3097,1791.3225,0.0,0.0,-0.007380004217652947,0.0,0.0,0.0,-0.16877491093428684,-0.14899795097745286,-0.2267444588979358,-0.007810600500296252,4.7471298128052356e-05,-0.006639547842972354
739,2.0,300.22792000000004,1630.0508,0.0,0.0,-0.007390008638027079,0.0,0.0,0.0,-0.13319903117822088,-0.16087447831457485,-0.2014212414712288,-0.006155848184434915,-0.0076569386908310125,-0.02499667326397958
740,2.0,300.10549,1467.2183,0.0,0.0,-0.007400013058401322,0.0,0.0,0.0,-0.1072999533221809,-0.12661726250365088,-0.2120804906682148,-0.0013719014226211289,0.0013637303711647086,-0.013667421557619488
741,2.0,300.44711,1662.168,0.0,0.0,-0.007409984569497929,0.0,0.0,0.0,-0.12095445087477488,-0.15232034739284783,-0.23198276939741677,0.014358116660535788,0.008237430686371111,-0.024356074259257374
742,2.0,299.32115,1872.7396,0.0,0.0,-0.007419988989872173,0.0,0.0,0.0,-0.17989205798396385,-0.15287136292972886,-0.23650264504599378,0.010013921860672141,6.316730211462734e-05,0.0015087547301524985
743,2.0,299.83172,1676.9452,0.0,0.0,-0.007429993410246305,0.0,0.0,0.0,-0.15121035217329984,-0.13244871947917086,-0.2260903856933838,-0.0016643716056856887,-0.001017723396541479,-0.005303731093512505
744,2.0,299.67355,1379.875,0.0,0.0,-0.007439997830620437,0.0,0.0,0.0,-0.13491257895233488,-0.12916776499286586,-0.15536719044354785,0.00013507336147820288,-0.0060997614476745845,-0.028882942346774475
745,2.0,300.59502000000003,1663.7437,0.0,0.0,-0.00745000225099457,0.0,0.0,0.0,-0.15813092128380685,-0.13091175079998388,-0.2166938589035188,0.006442505554325795,0.007170674192315442,-0.0019924094003854983
746,2.0,299.64172,1923.8747,0.0,0.0,-0.007460006671368702,0.0,0.0,0.0,-0.15927537713925585,-0.1742624505608648,-0.2512720216836178,-0.004221915575145626,0.008086252150250951,-0.020906307240041878
747,2.0,299.32236,1861.0547,0.0,0.0,-0.007470011091742945,0.0,0.0,0.0,-0.13989429399649186,-0.18084716779322582,-0.24497268634192176,-0.0027133398862857973,0.008302089822952472,-0.008038601936473242
748,2.0,300.10755,1723.1587,0.0,0.0,-0.0074800155121170775,0.0,0.0,0.0,-0.13951811476436587,-0.14386375192574685,-0.24041536096964877,-0.010893232963078389,-0.0007403645316257902,-0.003206498741131787
749,2.0,300.85917,1576.8497,0.0,0.0,-0.0074899870232137955,0.0,0.0,0.0,-0.13380281678030986,-0.14425431930929286,-0.2012657785083858,0.0006891238255887263,0.007407906438228443,0.006080016850925944
750,2.0,300.12358,1550.0028,0.0,0.0,-0.007499991443587928,0.0,0.0,0.0,-0.14024283176588986,-0.12883237920976587,-0.20208694678692882,-0.012022690690547188,-0.0059451151644121835,-0.00959996988071826
751,2.0,300.15457999999995,1799.8885,0.0,0.0,-0.00750999586396206,0.0,0.0,0.0,-0.18069732836843783,-0.13640758894488086,-0.2300162333383348,-0.0027671982834262076,-0.005693760745230434,0.002989262377992227
752,2.0,299.7317,1702.0505,0.0,0.0,-0.007520000284336081,0.0,0.0,0.0,-0.1307513026466489,-0.15962173642093885,-0.2270078025989258,-0.008649280071042481,-0.003575671855441337,-0.02287998367257858
753,2.0,299.82439,1354.3829,0.0,0.0,-0.007530004704710214,0.0,0.0,0.0,-0.1128413471915739,-0.1010341383202931,-0.1978230890411188,0.009511042897616851,0.0030599667673202073,-0.015979303648284485
754,2.0,299.42527,1531.8319,0.0,0.0,-0.007540009125084568,0.0,0.0,0.0,-0.13596442374864387,-0.12803600516116986,-0.20163820871514182,0.004334223608279566,-0.004535883480281846,-0.022212276174680978
755,2.0,299.54944,1956.8454,0.0,0.0,-0.0075500135454587,0.0,0.0,0.0,-0.18811848355834881,-0.17219690983451183,-0.23451675591000176,-0.002803635567622287,0.0013407723530489287,-0.02046893479462658
756,2.0,299.10555,1855.1892,0.0,0.0,-0.007559985056555196,0.0,0.0,0.0,-0.18124725972771183,-0.15714288084629485,-0.22554106228416979,0.00017022415241981588,0.007728308278849643,-0.012694306294080488
757,2.0,299.93498999999997,1576.7673,0.0,0.0,-0.0075699894769293286,0.0,0.0,0.0,-0.11835772391599789,-0.16198914461708386,-0.19895101878743682,0.0018120758085379584,0.029027100478251768,-0.025532065497568677
758,2.0,299.65435,1595.3605,0.0,0.0,-0.007579993897303683,0.0,0.0,0.0,-0.10678547558390589,-0.14311225472407985,-0.23505203567282976,-0.0047222411479489156,0.013101013738469384,-0.01103133084570759
759,2.0,299.94996000000003,1692.8989,0.0,0.0,-0.007589998317677815,0.0,0.0,0.0,-0.13283228530452587,-0.15112465147984186,-0.23064205713009878,-0.007916415120164342,-0.007777903020894263,-0.005083518004229165
760,2.0,299.59356,1756.3198,0.0,0.0,-0.0076000027380518365,0.0,0.0,0.0,-0.14722800570277286,-0.16807211053242585,-0.21857723752689381,-0.006891513049314384,-0.012808928185142789,-0.016506519966816683
761,2.0,299.9982,1807.7356,0.0,0.0,-0.007610007158425969,0.0,0.0,0.0,-0.17122109932570684,-0.15406032072956988,-0.22422507331929178,0.00034331157736971465,-0.009393155909432311,-0.004171731020217796
762,2.0,300.16586,1618.9892,0.0,0.0,-0.007620011578800101,0.0,0.0,0.0,-0.16012997253859784,-0.13791264024591787,-0.19408966772265882,0.00989326981428971,-0.015277458741267786,-0.011063007070333789
763,2.0,300.61427000000003,1653.8602,0.0,0.0,-0.007630015999174455,0.0,0.0,0.0,-0.13236887537129088,-0.15527635257208286,-0.2150869860999328,0.007002873592279812,-0.0022971828714642975,-0.02106354541706008
764,2.0,300.59721,2002.1874,0.0,0.0,-0.007639987510270951,0.0,0.0,0.0,-0.16611188702146684,-0.16806433890415884,-0.2744387591874967,0.014568778449076485,0.0034208193757835873,-0.013436151275294886
765,2.0,300.16487,2009.6738,0.0,0.0,-0.007649991930645084,0.0,0.0,0.0,-0.17433118944764883,-0.17720156486093283,-0.2593578993366317,0.008341043716421923,0.014489101527462986,-0.011998698954679388
766,2.0,299.55023,1637.5212,0.0,0.0,-0.007659996351019327,0.0,0.0,0.0,-0.14515282896796886,-0.13281402653772387,-0.2197986902574418,0.003513916085696517,-0.003173055408331187,-0.016196854524255087
767,2.0,299.80361,1506.0935,0.0,0.0,-0.007670000771393459,0.0,0.0,0.0,-0.15547405793159486,-0.1150949268714849,-0.18724582190972383,-0.006961389410660643,-0.008997617926195751,0.0038083644369313065
768,2.0,299.61555,1679.6462,0.0,0.0,-0.0076800051917675916,0.0,0.0,0.0,-0.15408923888742387,-0.15199227727546985,-0.2044889878714918,-0.002074177872855418,0.014236097030493385,-0.004942770371263455
769,2.0,299.6261,1741.2039,0.0,0.0,-0.007690009612141724,0.0,0.0,0.0,-0.13561972619712487,-0.14324823288749985,-0.25041455878649277,-0.014357407385465787,0.02057893829173308,0.001039557720296359
770,2.0,299.8469,1788.9099,0.0,0.0,-0.007700014032515856,0.0,0.0,0.0,-0.13483736539741187,-0.16768318461404183,-0.24126340064084378,-0.0027080774705664375,0.0013035807041533987,-0.01223817250981359
771,2.0,299.53901,1765.3831,0.0,0.0,-0.007709985543612574,0.0,0.0,0.0,-0.15802516837086988,-0.14900109205276285,-0.22960611022785876,-0.009590287364087671,-0.012357061197046989,-0.008638690898222412
772,2.0,299.34706,1665.6148,0.0,0.0,-0.0077199899639867064,0.0,0.0,0.0,-0.14944042716362185,-0.15211825466040285,-0.20474663710691982,0.026410782328791276,-0.01103707090752409,-0.025820500310784974
773,2.0,300.08572999999996,1754.5401,0.0,0.0,-0.00772999438436095,0.0,0.0,0.0,-0.17335205547851584,-0.16425681860588584,-0.1957274953167998,0.007185023536256613,0.0018534304967943484,-0.03485811871647847
774,2.0,300.20189,1853.6943,0.0,0.0,-0.007739998804735082,0.0,0.0,0.0,-0.18235340459687982,-0.15164449944364686,-0.22947888654530277,0.006008736327591104,-0.01409273936659509,-0.023653486639917374
775,2.0,300.43737999999996,1655.0616,0.0,0.0,-0.007750003225109214,0.0,0.0,0.0,-0.12818350397822686,-0.14805274062166784,-0.22686113464695076,0.004994693663362886,-2.985253555296587e-05,-0.02243166508633298
776,2.0,300.52112999999997,1436.1534,0.0,0.0,-0.007760007645483347,0.0,0.0,0.0,-0.1091714363893819,-0.12154590522314687,-0.20583743123707282,0.01023177417854749,0.014057890655905786,-0.01824048675694588
777,2.0,299.88479,1673.3916,0.0,0.0,-0.00777001206585759,0.0,0.0,0.0,-0.12851667074360787,-0.14025902350248787,-0.23989356756565178,0.005478329487144025,0.013096021455226687,-0.012975176182050185
778,2.0,300.06271,1884.1576,0.0,0.0,-0.007779983576954086,0.0,0.0,0.0,-0.17192338297001683,-0.16678265858766683,-0.23403081129454276,-0.017563470530379585,-0.012895946103730788,-0.006760609951670254
779,2.0,300.27834,1778.2794,0.0,0.0,-0.007789987997328218,0.0,0.0,0.0,-0.15881558450887784,-0.15867128756213686,-0.2230656618923668,-0.014560258028985588,-0.005010093950307775,-0.010023006053118679
780,2.0,299.49914,1666.2525,0.0,0.0,-0.007799992417702573,0.0,0.0,0.0,-0.14055210609391286,-0.15142901154487984,-0.2145180360362818,0.0038611176821876465,0.0064237818070529045,-0.006443849427933424
781,2.0,299.31927,1792.9158,0.0,0.0,-0.007809996838076705,0.0,0.0,0.0,-0.14330823755842187,-0.16175679623665284,-0.23993660029739877,0.007074619805360613,0.03925389554580786,-0.004830681808101175
782,2.0,299.74065,1833.6825,0.0,0.0,-0.007820001258450837,0.0,0.0,0.0,-0.15202926090411986,-0.15435574392872584,-0.2510086982476298,-0.013578350794328887,0.004984083009640696,-0.008630359347950152
783,2.0,299.34932000000003,1799.4151,0.0,0.0,-0.007830005678824858,0.0,0.0,0.0,-0.16911680178302882,-0.15098964603651788,-0.22687082131790678,-0.006506694846835784,-0.00901404453416693,-0.0034648630271553564
784,2.0,300.21461,1772.7506,0.0,0.0,-0.00784001009919899,0.0,0.0,0.0,-0.16724194459299485,-0.14684157237963485,-0.22478838971238677,0.004991481052595826,0.0033284371085161666,-0.017958775871393183
785,2.0,300.09368,1564.7905,0.0,0.0,-0.007850014519573345,0.0,0.0,0.0,-0.16062462097241587,-0.12524048866527387,-0.18979213967602582,0.026317366749071876,-0.005728853750518844,-0.017329165564005485
786,2.0,299.62133,1736.1176,0.0,0.0,-0.007859986030669841,0.0,0.0,0.0,-0.13812322401420088,-0.15836278330418985,-0.23125039222513677,0.014758728392323086,-0.022718038948845876,-0.03454078601041017
787,2.0,299.81301,2065.4245,0.0,0.0,-0.007869990451043973,0.0,0.0,0.0,-0.1877946184288858,-0.16941482903494184,-0.27062803701890775,-0.007874183565271413,-0.012908883281007588,-0.002334863514858088
788,2.0,300.50402,1871.8532,0.0,0.0,-0.007879994871418106,0.0,0.0,0.0,-0.15977316664838387,-0.16115260533452383,-0.24807087077518877,-0.01049685155045859,0.012829847746707385,-0.01313420477199509
789,2.0,300.25786,1530.3339999999998,0.0,0.0,-0.00788999929179246,0.0,0.0,0.0,-0.1070889642538579,-0.14566577669859287,-0.2124285927400698,-0.003839993545427856,0.01241274536954259,-0.012799394514951887
790,2.0,300.65993,1585.5037,0.0,0.0,-0.007900003712166592,0.0,0.0,0.0,-0.12847346575934387,-0.14823341324699887,-0.2052466557662678,-0.012186404548954487,-0.013930761205609089,-0.01194109771299459
791,2.0,299.86949,1764.8002,0.0,0.0,-0.007910008132540614,0.0,0.0,0.0,-0.14995475291438187,-0.16861111905562184,-0.2178893217690018,-0.001105346630739219,0.0037134230038863166,-0.017042630594726684
792,2.0,299.45522,1722.6837,0.0,0.0,-0.007920012552914746,0.0,0.0,0.0,-0.14986274980530184,-0.15309452113175287,-0.2206955381859538,-0.002410807319128158,0.020170294526403083,-0.02311760196677968
793,2.0,300.0098,1699.4619,0.0,0.0,-0.007929984064011464,0.0,0.0,0.0,-0.14581092477541785,-0.14533815241125886,-0.22544491498218078,0.014598236669233787,0.020538683891760282,-0.019478031925582083
794,2.0,299.89652,1650.8432,0.0,0.0,-0.007939988484385596,0.0,0.0,0.0,-0.14277805444359687,-0.13967705317505189,-0.2193599934941458,0.0019336390707353182,-0.015803561497940086,-0.0023570327177710178
795,2.0,299.48961,1733.9219,0.0,0.0,-0.007949992904759728,0.0,0.0,0.0,-0.14840761120419085,-0.13968669931600386,-0.23897465104996177,0.0067441212314679425,-0.015506432998865788,-0.023989455041824877
796,2.0,300.08832,2130.1809,0.0,0.0,-0.00795999732513386,0.0,0.0,0.0,-0.2048521671048348,-0.18342369054500882,-0.25924593520058176,0.010723855036612091,-0.0016161683600033983,0.003450799318417377
797,2.0,300.21223,2069.8259,0.0,0.0,-0.007970001745508104,0.0,0.0,0.0,-0.1986964498323128,-0.16902305588377683,-0.2614558944636878,-0.008972178154610043,-0.008017071993048403,-0.01085206359826529
798,2.0,300.28242,1637.7575,0.0,0.0,-0.007980006165882236,0.0,0.0,0.0,-0.13012054432689787,-0.14798447796243086,-0.21973235277339478,0.0013620637774002288,-0.015832264846772883,-0.006663785291989403
799,2.0,300.1195,1545.4619,0.0,0.0,-0.007990010586256369,0.0,0.0,0.0,-0.11917511277166788,-0.15094402951701585,-0.1996626851276728,-0.02354978758493308,-0.018459608170571483,-0.01077826454048189
800,2.0,299.65682999999996,1867.4796,0.0,0.0,-0.008000015006630501,0.0,0.0,0.0,-0.16184351018021084,-0.15754814035629086,-0.24827552703038677,0.014312181980502386,0.015512929958506984,0.0022812682587686475
801,2.0,299.34344,1857.0479999999998,0.0,0.0,-0.008009986517726997,0.0,0.0,0.0,-0.15353940885315986,-0.17401286679623282,-0.23694393572954578,-0.015981185253720182,-0.001163518433555329,-0.00914681028946989
802,2.0,299.75247,1684.0817,0.0,0.0,-0.008019990938101351,0.0,0.0,0.0,-0.15094929841753585,-0.15579428549319885,-0.2051752216342178,0.0064151635070023435,0.0024906013724532174,-0.02428657543489838
803,2.0,299.27465,1719.8205,0.0,0.0,-0.008029995358475484,0.0,0.0,0.0,-0.14178081369517687,-0.15408286554429484,-0.2269188291076448,-0.0065434592081641445,0.0070832886665911626,-0.02021395243346178
804,2.0,299.19045,1804.2505,0.0,0.0,-0.008039999778849727,0.0,0.0,0.0,-0.15849971392270387,-0.17386749580438582,-0.2160798901379248,0.01866063192416098,0.025454172909381272,-0.035009828600951066
805,2.0,299.84562999999997,1887.1657,0.0,0.0,-0.008050004199223859,0.0,0.0,0.0,-0.17416085197333783,-0.14615896605226686,-0.2533314221143647,0.001080527474839759,0.001093697598314549,-0.014616347501521186
806,2.0,300.83317,1884.0029,0.0,0.0,-0.008060008619597991,0.0,0.0,0.0,-0.16318024037463585,-0.15670940232101385,-0.25280020548443777,-0.024270195233781777,-0.016570739758154686,-0.02055421498929308
807,2.0,300.25205,1608.8258,0.0,0.0,-0.008070013039972124,0.0,0.0,0.0,-0.12663596710049688,-0.14127580984533686,-0.22113107360893777,-0.01000657478419704,-0.023712889440279977,-0.014834258081277285
808,2.0,299.82847999999996,1525.2795,0.0,0.0,-0.00807998455106862,0.0,0.0,0.0,-0.13299075762016588,-0.12006529351452189,-0.2105908407686978,0.0002752791690854387,0.002923817364633307,-0.0024858326121825775
809,2.0,299.69259,1838.3123,0.0,0.0,-0.008089988971442863,0.0,0.0,0.0,-0.17014656785965884,-0.16421447488420685,-0.22443999379800278,0.012474739050410886,0.003163639173826877,-0.006941055912953883
810,2.0,299.59069,1933.3367,0.0,0.0,-0.008099993391816995,0.0,0.0,0.0,-0.18749173770899383,-0.14812485363128486,-0.25206950017482277,0.0004339248822150516,-0.00964147564456456,0.008746261683163822
811,2.0,300.1361,1774.4521,0.0,0.0,-0.00810999781219135,0.0,0.0,0.0,-0.15189996005885886,-0.15896143172827185,-0.22852773854393177,0.015923720800798884,-0.0007161983140907702,-0.016500967356268683
812,2.0,299.72219,1731.8051,0.0,0.0,-0.008120002232565482,0.0,0.0,0.0,-0.13769714221464985,-0.16516055663507787,-0.2235678083769248,0.007193206949364254,0.008841371214400403,-0.015685285827017184
813,2.0,299.89909,1905.7578,0.0,0.0,-0.008130006652939614,0.0,0.0,0.0,-0.18696126075163982,-0.15561594334309786,-0.23672559046549677,0.008207908023507453,-0.0030655794635991375,-0.016779933347300484
814,2.0,300.85939,1908.3461,0.0,0.0,-0.008140011073313635,0.0,0.0,0.0,-0.18765894424049584,-0.16967057336018185,-0.2227600453972048,-0.011796001311924688,-0.005861516964911684,-0.013771311103622588
815,2.0,300.53465,1706.5929,0.0,0.0,-0.008150015493687768,0.0,0.0,0.0,-0.14013121213487387,-0.14929996030225884,-0.2293304555381538,-0.012243211402560888,0.0005497839111194474,-0.00965335103706157
816,2.0,299.83957000000004,1648.6335,0.0,0.0,-0.008159987004784486,0.0,0.0,0.0,-0.14355894603066485,-0.1293178374651769,-0.2282666239931618,-0.012730043625107488,0.026869599199322976,-0.0064363118604395236
817,2.0,299.65116,1752.5492,0.0,0.0,-0.008169991425158618,0.0,0.0,0.0,-0.13674942913111787,-0.15359036520068886,-0.24239141144716977,0.006214237329397474,0.008962099153215322,-0.016511134307772086
818,2.0,299.34553999999997,1849.9288,0.0,0.0,-0.00817999584553275,0.0,0.0,0.0,-0.15362578842418487,-0.15630225816583185,-0.25240412602034773,-0.009565830445098962,-0.016986296928916983,-0.03557800758127597
819,2.0,299.39906,1948.7872,0.0,0.0,-0.008190000265906883,0.0,0.0,0.0,-0.16490489336984585,-0.16972464038551782,-0.2577531138282518,0.01663358152935668,-0.013533342224886885,-0.01006712184789757
820,2.0,299.7619,1863.7931,0.0,0.0,-0.008200004686281237,0.0,0.0,0.0,-0.15528360744279884,-0.17486815120564284,-0.23639480483785077,0.01051729285797599,0.0029809213031690273,-0.018670096693345083
821,2.0,300.09629,1702.4516,0.0,0.0,-0.008210009106655258,0.0,0.0,0.0,-0.1304877056331339,-0.15180690316967485,-0.23520818764574075,0.023364960634192078,-0.002706161009327297,-0.005928275150400204
822,2.0,300.28097,1887.3822,0.0,0.0,-0.00822001352702939,0.0,0.0,0.0,-0.17255041252939984,-0.16433978352407386,-0.2368268546804908,-0.0005337875595382305,-0.0025492020840366574,-0.002879119457671967
823,2.0,300.35615,1994.3736,0.0,0.0,-0.008229985038126109,0.0,0.0,0.0,-0.16561388472981783,-0.17632254000167982,-0.26430332989470773,-0.006574235362726514,-0.0031569217309639166,-0.0003863943636716546
824,2.0,300.37973,1814.634,0.0,0.0,-0.008239989458500241,0.0,0.0,0.0,-0.16039916269266485,-0.15569656765355483,-0.2355076942427998,-0.02088823997750878,0.007462942434635073,-0.016924114783530085
825,2.0,300.05395,1818.1923,0.0,0.0,-0.008249993878874373,0.0,0.0,0.0,-0.16698384952752285,-0.16260373146523885,-0.22309748807800778,-0.010888835457644389,-0.007320111660788774,-0.029340481508930073
826,2.0,299.64354,1849.1615,0.0,0.0,-0.008259998299248505,0.0,0.0,0.0,-0.17865420073429683,-0.14998019562439285,-0.2334645362111558,0.003498862330285827,-0.0002018976716682488,-0.011620103121064889
827,2.0,299.26707000000005,1807.1918,0.0,0.0,-0.008270002719622638,0.0,0.0,0.0,-0.15583805789751884,-0.15911158526059085,-0.2343915485951448,0.0010337063022938689,-0.005446719934374405,-0.020048861568168583
828,2.0,299.79769,1810.3962,0.0,0.0,-0.008280007139996881,0.0,0.0,0.0,-0.15029979497093485,-0.15186223675763585,-0.24815319734581376,0.008189002397841613,0.02170676266004068,-0.008089779679149093
829,2.0,299.98052,1782.2008,0.0,0.0,-0.008290011560371013,0.0,0.0,0.0,-0.13306187764468486,-0.15729908348171084,-0.2513835805196277,-0.01115716536237649,-0.006023052740904024,-0.01724240501094288
830,2.0,300.50525,1719.1699,0.0,0.0,-0.008300015980745146,0.0,0.0,0.0,-0.13754392866702886,-0.16538067508680185,-0.21966010804126476,0.0008760956545389091,-0.01095816506923669,-0.015840062819542484
831,2.0,299.4394,1807.6308,0.0,0.0,-0.008309987491841864,0.0,0.0,0.0,-0.16577785899350087,-0.16238304559345884,-0.2213137322044648,0.0020323058190979677,-0.02046718389845378,-0.019246205368952583
832,2.0,299.76932999999997,2078.3119,0.0,0.0,-0.008319991912215774,0.0,0.0,0.0,-0.18751942983422684,-0.18368392356819183,-0.26055154848443574,0.006405240242147994,0.01173795525344599,-0.008487006142352293
833,2.0,300.057,1944.7592,0.0,0.0,-0.008329996332590128,0.0,0.0,0.0,-0.17042412745955185,-0.18265833208197382,-0.23807576648874876,0.00032720043468466867,0.010346290691599392,-0.01175029765291409
834,2.0,300.54283,1743.135,0.0,0.0,-0.00834000075296426,0.0,0.0,0.0,-0.14072901956137288,-0.15144903336685586,-0.23769146099082078,-0.00885924666868957,0.0014239417451071086,-0.0025848515662799873
835,2.0,300.31221,1835.5745,0.0,0.0,-0.008350005173338504,0.0,0.0,0.0,-0.15212148692822186,-0.16953127173643384,-0.23631606517257975,-0.001059823330246419,-0.010260547441637189,-0.018126255980422185
836,2.0,299.89979,1917.4771,0.0,0.0,-0.008360009593712636,0.0,0.0,0.0,-0.16875638872245882,-0.17115390057907484,-0.2429548494302768,-0.004429637215871155,0.006345799647556665,-0.013858001742428287
837,2.0,299.92784,1825.2595,0.0,0.0,-0.008370014014086768,0.0,0.0,0.0,-0.16757355095322185,-0.16418359102115884,-0.22307615916340276,0.0037885934956800663,-0.017652972938212785,-0.03078867022760517
838,2.0,300.62559,1863.2102,0.0,0.0,-0.008379985525183486,0.0,0.0,0.0,-0.15046618076985585,-0.17261600020837284,-0.24328719546307676,-0.0030740169998318572,-0.017645562026981382,-0.023632319845328376
839,2.0,300.12637,1794.8238,0.0,0.0,-0.008389989945557397,0.0,0.0,0.0,-0.16269009077126184,-0.14672533232816284,-0.23616619535028877,0.014343912920633986,-0.015305043461990183,-0.018643341824454582
840,2.0,299.35461000000004,1765.2354,0.0,0.0,-0.00839999436593164,0.0,0.0,0.0,-0.14130843649855687,-0.15605332288126386,-0.23922572429224076,0.00925812108185541,0.015906096328559487,-0.003385051647253587
841,2.0,299.80933,1983.2442,0.0,0.0,-0.008409998786305772,0.0,0.0,0.0,-0.17694135210275183,-0.16688658765042386,-0.25902877543914976,-0.01234733703583729,0.017583658525371984,-0.010741262673330091
842,2.0,299.84313,2052.5732,0.0,0.0,-0.008420003206680127,0.0,0.0,0.0,-0.19690600650810983,-0.17008908618148583,-0.25693592762260176,-0.016539760649597286,0.01109011961650959,0.0028235126974840074
843,2.0,299.89386,1821.6492,0.0,0.0,-0.008430007627054259,0.0,0.0,0.0,-0.16431749202187385,-0.16984986796537685,-0.2195685203647258,-0.01007866732616202,-0.004595717317236985,-0.02246455721107918
844,2.0,300.06038,1759.8451,0.0,0.0,-0.008440012047428391,0.0,0.0,0.0,-0.16090587893517383,-0.14158994777383987,-0.23245315049133977,-0.001014098392983719,0.010655357303351888,-0.0023053268691430474
845,2.0,299.54604,1851.1474,0.0,0.0,-0.008449983558524887,0.0,0.0,0.0,-0.16642554872242282,-0.15300562870047982,-0.24327140902651875,0.01057302161347599,-0.02054325567621148,-0.01965598600089478
846,2.0,299.89038999999997,1844.9809,0.0,0.0,-0.00845998797889902,0.0,0.0,0.0,-0.16087059756669186,-0.15556618263068686,-0.24439135436204878,-0.009896364482745132,-0.024585437604893776,-0.00958499738796559
847,2.0,300.01262,1796.7123,0.0,0.0,-0.008469992399273263,0.0,0.0,0.0,-0.14385713540259384,-0.15142664053964586,-0.2508718790866267,-0.0030403083981550773,-0.014961893143373884,-0.01889750953253898
848,2.0,300.13824,1833.3735,0.0,0.0,-0.008479996819647395,0.0,0.0,0.0,-0.16787577306054885,-0.15289483993454586,-0.23652915166860977,0.0025668141946248377,0.004445176216754736,-0.01221403689243159
849,2.0,300.12654,1911.9395,0.0,0.0,-0.008490001240021527,0.0,0.0,0.0,-0.15447944150093385,-0.16955426238120283,-0.25714816298854776,0.02091314262521648,0.014586712975846487,-0.026060543312475374
850,2.0,299.99491,1922.3921,0.0,0.0,-0.00850000566039566,0.0,0.0,0.0,-0.17499943802109982,-0.16425531899573784,-0.24510442911992378,0.0028724844933671473,0.004868629341571305,-0.03014496459807637
851,2.0,300.41902999999996,2003.3787,0.0,0.0,-0.008510010080770014,0.0,0.0,0.0,-0.16930398960650284,-0.18190700713282384,-0.25776612395953574,0.0031412085523881473,0.0030797422681968973,-0.012957384523544288
852,2.0,300.68321000000003,1922.7939,0.0,0.0,-0.008520014501144035,0.0,0.0,0.0,-0.16854674727676883,-0.16072990779030685,-0.25520467836924077,-0.019472707296306582,0.01077173617008759,-0.01218595466591009
853,2.0,300.58995,1736.3146,0.0,0.0,-0.008529986012240642,0.0,0.0,0.0,-0.14387762331961587,-0.15371000977249685,-0.23020863939982378,-0.006236725098141844,0.0004895082059281986,-0.014086036717183587
854,2.0,300.2218,1852.2736,0.0,0.0,-0.008539990432614886,0.0,0.0,0.0,-0.16062000055195985,-0.16487440467433684,-0.2375505280344118,-0.01036469232666549,0.0033175858078952265,-0.010455250541102891
855,2.0,300.1742,1904.5657,0.0,0.0,-0.008549994852989018,0.0,0.0,0.0,-0.16515150831168485,-0.16098056560004484,-0.25280833175023976,-0.0006286216691326284,0.0006965971631587873,-0.0066647210284567545
856,2.0,300.03322000000003,1773.7297,0.0,0.0,-0.00855999927336315,0.0,0.0,0.0,-0.14689550768245785,-0.14808927842027386,-0.24418474253415778,-0.0027195218264709073,-0.0019509627090200281,-0.014214809659142487
857,2.0,300.35917,1899.7417,0.0,0.0,-0.008570003693737283,0.0,0.0,0.0,-0.17181644455446285,-0.15839349491472085,-0.24726410078056676,0.011778656496712888,-0.007097104534354683,-0.015541149987042086
858,2.0,299.82232,1962.0739,0.0,0.0,-0.008580008114111415,0.0,0.0,0.0,-0.17097101906852583,-0.16398826679938186,-0.26146217661430776,0.01177612033171259,-0.004216044398766186,-0.015215630220165786
859,2.0,299.57932999999997,1886.4622,0.0,0.0,-0.008590012534485658,0.0,0.0,0.0,-0.16676005297793584,-0.15856305218645486,-0.24811428854197376,0.005066902931739385,-0.0063403739972461935,-0.007357318812410832
860,2.0,300.02992,2016.6905,0.0,0.0,-0.008599984045582265,0.0,0.0,0.0,-0.18458156183178184,-0.16365148273114383,-0.26479052080778975,-0.003294263019743447,0.005004624831568015,-9.616344002334261e-05
861,2.0,299.61126,2096.0893,0.0,0.0,-0.008609988465956508,0.0,0.0,0.0,-0.18712952106324582,-0.18217409985918384,-0.26785518692774873,-0.0006318679907305154,0.009453826994945081,-0.003538092841032577
862,2.0,300.16436,1900.8329999999999,0.0,0.0,-0.00861999288633064,0.0,0.0,0.0,-0.16404663000514186,-0.16730595160181183,-0.24645316632803374,0.0036678493448635465,0.0008354143520339772,-0.018320702727612583
863,2.0,300.18348,1732.703,0.0,0.0,-0.008629997306704551,0.0,0.0,0.0,-0.14105624868116787,-0.15920194690450884,-0.22644023055541077,0.005733831848260144,-0.00889913569067631,-0.006255613295905964
864,2.0,300.74402000000003,1829.0489,0.0,0.0,-0.008640001727078905,0.0,0.0,0.0,-0.15199069660531386,-0.16293517570544985,-0.24105932193820276,-0.001942347246069748,-0.0023687047509729576,-0.00969251102560136
865,2.0,300.20254,1883.935,0.0,0.0,-0.008650006147453038,0.0,0.0,0.0,-0.17564950888775682,-0.16269889591463083,-0.23432078320816077,-0.008457912590905982,-0.0018995740076733578,-0.006357906871676555
866,2.0,300.33804,1863.4092,0.0,0.0,-0.008660010567827281,0.0,0.0,0.0,-0.15728326664764986,-0.17793889682620184,-0.2312076837334218,0.010080300685323219,0.006631236861677123,-0.028897278822439372
867,2.0,300.28572,1883.1755,0.0,0.0,-0.008670014988201413,0.0,0.0,0.0,-0.15283663884880186,-0.17579360318447781,-0.2438080972069858,0.006810362659405464,0.00966883866616508,-0.02930865431003897
868,2.0,300.3423,1861.4072,0.0,0.0,-0.008679986499298131,0.0,0.0,0.0,-0.15187729365412186,-0.16087338400446685,-0.25307063180362677,0.017529817454808284,0.013212901880761886,-0.025501546404556676
869,2.0,300.15206,1902.5617,0.0,0.0,-0.008689990919672264,0.0,0.0,0.0,-0.15380275255414985,-0.1824254162814868,-0.24210308099871378,-0.005837712275012345,0.0073485198498674425,-0.03038727626674067
870,2.0,299.76985,2008.5763,0.0,0.0,-0.008699995340046174,0.0,0.0,0.0,-0.16567156905801084,-0.18243644044257482,-0.2624490315492028,-0.0039486581338522165,-0.016906315019023385,-0.02109049989622028
871,2.0,299.45092999999997,1842.9191,0.0,0.0,-0.008709999760420417,0.0,0.0,0.0,-0.17740284699329784,-0.15296337617130987,-0.2298351756779658,0.004073139961637617,-0.026233888113083175,-0.007394758099630803
872,2.0,299.83384,1743.0142,0.0,0.0,-0.00872000418079455,0.0,0.0,0.0,-0.14297746206327686,-0.15804925332574685,-0.2288060682139008,0.012705383144173688,-0.018869355365260382,-0.007992448799718282
873,2.0,300.20481,1981.8703,0.0,0.0,-0.008730008601168904,0.0,0.0,0.0,-0.17695295381639684,-0.16824827419481184,-0.2572378558873997,0.008357322288553492,0.0021535676393905777,-0.0003265832336512557
874,2.0,299.86896,2180.7097,0.0,0.0,-0.008740013021543036,0.0,0.0,0.0,-0.2018505352735968,-0.1908522931231548,-0.2701784579495377,-0.004098769210992026,0.005713211803425104,-0.01145330391610309
875,2.0,299.96988,2038.5997,0.0,0.0,-0.008749984532639532,0.0,0.0,0.0,-0.17663410427492882,-0.17604824306710884,-0.2670010576234527,-0.001170886180332469,0.012293610462534887,-0.008264236927041682
876,2.0,300.0354,1855.8623,0.0,0.0,-0.008759988953013664,0.0,0.0,0.0,-0.17268635016281583,-0.16204500509509684,-0.2294044531929568,0.004718145996344756,0.016542758856643185,-0.01969958209969738
877,2.0,300.56113,1914.2428,0.0,0.0,-0.008769993373387797,0.0,0.0,0.0,-0.18457203728084182,-0.16028286184618684,-0.23702712356275576,0.007919255969469713,0.008019644128427253,-0.011492705159491688
878,2.0,300.87031,2038.8285,0.0,0.0,-0.00877999779376204,0.0,0.0,0.0,-0.18255792912956484,-0.17965785535584983,-0.25753715983443876,-0.00025845067572709577,-0.0037597943947128166,-0.027089360987011774
879,2.0,300.82363,2003.6,0.0,0.0,-0.008790002214136172,0.0,0.0,0.0,-0.15668408120101485,-0.1828162369775578,-0.26954403166442475,-0.015669531814462383,-0.015254999039551183,-0.025133820718014975
880,2.0,300.25286,1894.1902,0.0,0.0,-0.008800006634510305,0.0,0.0,0.0,-0.14844938750581385,-0.16767795624352583,-0.25965916898886476,0.00982728058430208,-0.006590216241978703,-0.013397782533758187
881,2.0,300.22225,1819.0961,0.0,0.0,-0.008810011054884437,0.0,0.0,0.0,-0.13591380177364787,-0.16261084448094085,-0.25443512505079174,0.0011565126197139088,0.0056329687789807344,-0.013417304823434886
882,2.0,299.42961,1825.7108,0.0,0.0,-0.008820015475258791,0.0,0.0,0.0,-0.16359578437314684,-0.16657749570741884,-0.2247972151207578,0.01213673806880279,-0.003487509673515407,-0.019717373758203285
883,2.0,299.70825,2017.4558,0.0,0.0,-0.008829986986355287,0.0,0.0,0.0,-0.19130716135804682,-0.16400890670391885,-0.2579401091342068,0.0031937084851194866,-0.006636706993666984,-0.005390243906925655
884,2.0,299.69054,2041.5109,0.0,0.0,-0.00883999140672942,0.0,0.0,0.0,-0.1752067692565618,-0.18249389172324482,-0.26286766596051875,0.0026364742270747472,0.003484047397923707,-0.012964541109000588
885,2.0,299.90152,1898.1514,0.0,0.0,-0.008849995827103663,0.0,0.0,0.0,-0.16423218649595483,-0.16791044647897083,-0.24484799578461577,0.00993921867982451,0.01031349279911249,-0.015876726261160885
886,2.0,299.26802999999995,1921.7499,0.0,0.0,-0.008860000247477795,0.0,0.0,0.0,-0.16620527828318385,-0.15982818612881386,-0.2581305190929988,-0.008685159763708532,-0.0024003194713180876,-0.015296234265620786
887,2.0,300.28627,2051.864,0.0,0.0,-0.008870004667851927,0.0,0.0,0.0,-0.17939445085985384,-0.17457635544184483,-0.26974462478672173,-0.014899659322231883,0.014963188077001687,-0.015203697173738085
888,2.0,300.24835,1983.2393,0.0,0.0,-0.00888000908822606,0.0,0.0,0.0,-0.18580470668999682,-0.16734883234604384,-0.24970168667863776,-0.022048401209507778,0.005463218280452665,-0.015937781672436587
889,2.0,300.64867000000004,1879.3361,0.0,0.0,-0.008890013508600192,0.0,0.0,0.0,-0.17036784141649683,-0.15918360707769885,-0.24171978875088576,-0.00027005564190491676,0.013892611326093986,-0.015157480810176887
890,2.0,299.85764,1845.6886,0.0,0.0,-0.00889998501969691,0.0,0.0,0.0,-0.16489347404121885,-0.14849608820292287,-0.24765368531151577,-0.0020841325484628683,-0.009070146165703731,-0.024592293255070376
891,2.0,299.17922999999996,1865.4012,0.0,0.0,-0.008909989440071042,0.0,0.0,0.0,-0.16186675413750484,-0.15113691180605185,-0.2540317299209798,0.018054110546801984,0.013220516455263386,-0.012903416796718088
892,2.0,299.21584,1965.9793,0.0,0.0,-0.008919993860445286,0.0,0.0,0.0,-0.16153314154207984,-0.16738377934199283,-0.2686917059453067,-0.0028952412800130676,0.008500360272045242,-0.016833869663373583
893,2.0,300.06023999999996,2101.9572,0.0,0.0,-0.008929998280819196,0.0,0.0,0.0,-0.18294545676281082,-0.17803571287325684,-0.27796132316014677,0.003213108576834127,0.004036167174763686,-0.008394784677875742
894,2.0,299.81247,1904.8002,0.0,0.0,-0.008940002701193328,0.0,0.0,0.0,-0.17756857417965383,-0.15504129881388484,-0.24640181481296577,-0.01164310288508479,-0.00910776003591593,-0.00809497359916169
895,2.0,300.12276,1832.7101,0.0,0.0,-0.008950007121567682,0.0,0.0,0.0,-0.16196350938955384,-0.17494986982620783,-0.2201847385455418,-0.003798645139322087,-0.004430568494038066,-0.015276673472440288
896,2.0,300.17927000000003,2053.7461,0.0,0.0,-0.008960011541941815,0.0,0.0,0.0,-0.17515428290138185,-0.17172446171038486,-0.27740879788061673,-0.004657648784549146,-0.004247232034194166,-0.004967611717340105
897,2.0,300.17888999999997,2094.9393,0.0,0.0,-0.008970015962316058,0.0,0.0,0.0,-0.18475984318687683,-0.18494199515735382,-0.26710741848644975,-0.005505211113622035,-0.0023408262890465678,-0.02884452496923297
898,2.0,300.70797000000005,1904.9228,0.0,0.0,-0.008979987473412554,0.0,0.0,0.0,-0.15300034966745885,-0.16758175827903185,-0.2584668471986918,0.01995379135103588,-0.00972613593281988,-0.023685909629867274
899,2.0,300.44915,1765.1989,0.0,0.0,-0.008989991893786908,0.0,0.0,0.0,-0.14754878041943084,-0.15149237007363286,-0.23753523809040278,0.012335576241926589,-0.0013710340805355287,-0.03562950196460807
900,2.0,299.8262,1812.2592,0.0,0.0,-0.00899999631416104,0.0,0.0,0.0,-0.15439163324726785,-0.16379239542255086,-0.23269750588545576,0.009368814095654961,0.0015695149816740686,-0.014766432132833386
901,2.0,299.73938,1962.1578,0.0,0.0,-0.009010000734534951,0.0,0.0,0.0,-0.17104673924849884,-0.18109056059974682,-0.24430968640398878,-0.021359521850770682,-0.003665023390334647,-0.03028657643205237
902,2.0,299.41919,2116.1084,0.0,0.0,-0.009020005154909194,0.0,0.0,0.0,-0.1954345039178838,-0.17489657287094784,-0.27291304771692076,-0.008642441950092613,-0.005134664437476925,-0.004888643361521535
903,2.0,299.77583,2038.8122,0.0,0.0,-0.009030009575283326,0.0,0.0,0.0,-0.17666355945533582,-0.17805683913784184,-0.2650276010661878,-0.0025175131937842077,0.006136581436433433,-0.014333945579400287
904,2.0,300.34893999999997,1974.5174,0.0,0.0,-0.00904001399565768,0.0,0.0,0.0,-0.15671595804916083,-0.17410512321783783,-0.26938290463352277,0.0049570377432715355,-0.0034323939343259063,0.0017283227844221783
905,2.0,300.22627,2131.3669,0.0,0.0,-0.009049985506754177,0.0,0.0,0.0,-0.17801012830823185,-0.18752166911694781,-0.2823505300758277,-0.016136517507300285,-0.006384585341509514,-0.005107361805582365
906,2.0,300.12047,2283.6832,0.0,0.0,-0.009059989927128309,0.0,0.0,0.0,-0.22642865923926878,-0.18287641390099682,-0.2848775960902297,0.0041132047825167065,-0.014004572422393688,0.012191416083949089
907,2.0,300.25962000000004,2061.4753,0.0,0.0,-0.009069994347502441,0.0,0.0,0.0,-0.1926379944368898,-0.16721013867235585,-0.26678888305251275,0.013045225201213487,0.001013288806153819,-0.016514914743895184
908,2.0,300.85752,1825.5561,0.0,0.0,-0.009079998767876574,0.0,0.0,0.0,-0.16621777165691684,-0.15502905875267686,-0.23367663985458878,0.018765421236252883,-0.0015626292379694985,-0.007720287289733032
909,2.0,300.34911,1841.9147,0.0,0.0,-0.009090003188250817,0.0,0.0,0.0,-0.15751589873810884,-0.16021000916399683,-0.24217017842033578,-0.003072092533916927,0.0005871648655311604,-0.02954698593231047
910,2.0,300.56577999999996,1994.7751,0.0,0.0,-0.00910000760862495,0.0,0.0,0.0,-0.17531425482716984,-0.16790894686882285,-0.26313862930226073,-0.005499802485913244,-0.004477872378931595,-0.017301991209573583
911,2.0,300.14394,2002.1989,0.0,0.0,-0.009110012028999082,0.0,0.0,0.0,-0.17111961219569083,-0.18323997816937782,-0.2542588803283978,-0.0014002617862950786,-0.002523809631230618,-0.03020207947971317
912,2.0,300.83788,1935.0545,0.0,0.0,-0.009120016449373214,0.0,0.0,0.0,-0.17266925663362884,-0.16512222538379484,-0.2504167676717108,0.0025230458433052375,0.002318122698030898,-0.0038317074900850864
913,2.0,300.68477,1903.7172,0.0,0.0,-0.009129987960469932,0.0,0.0,0.0,-0.16709548942354085,-0.17357429162294885,-0.23801272206752677,-0.005596552773036755,0.012677594760181187,-0.026361247571152574
914,2.0,300.49465,2038.6996,0.0,0.0,-0.009139992380844064,0.0,0.0,0.0,-0.17858685000014984,-0.18292186830048282,-0.25820505377035474,0.007722482901374722,0.015786736480029585,-0.012738664356958288
915,2.0,299.74032,2150.3711,0.0,0.0,-0.009149996801218196,0.0,0.0,0.0,-0.1906535137185368,-0.18624341358579383,-0.2767622024618027,0.0037930176495916965,0.003538604025708027,-0.015700375147506385
916,2.0,300.08033,2105.1742,0.0,0.0,-0.00916000122159244,0.0,0.0,0.0,-0.17391703360177482,-0.19128865941122083,-0.2747147077197308,0.01101629320097349,-0.014589383903110088,-0.016197448288813684
917,2.0,300.08599,1864.7549,0.0,0.0,-0.009170005641966572,0.0,0.0,0.0,-0.15551162924530285,-0.16186324829215884,-0.2494640288676828,-0.005592985018109645,-0.024595048282092274,-0.02439307511315908
918,2.0,300.26232999999996,1891.9444,0.0,0.0,-0.009180010062340704,0.0,0.0,0.0,-0.16497101807137182,-0.16770628671632185,-0.2424265610931388,-0.011209351795526888,-0.0012377928069606389,-0.025925549014902474
919,2.0,300.50611000000004,2092.4463,0.0,0.0,-0.009190014482714837,0.0,0.0,0.0,-0.1966336550137308,-0.17789034188140984,-0.26152744005324874,-0.005069441123239885,0.004896360375608145,-0.00910841885113095
920,2.0,300.32342,2071.9634,0.0,0.0,-0.009199985993811333,0.0,0.0,0.0,-0.1868693285700668,-0.17969849681736083,-0.26325732141897473,-0.007345236818218433,0.004024050831392897,-0.015337176662411486
921,2.0,300.22335,1994.2685,0.0,0.0,-0.009209990414185687,0.0,0.0,0.0,-0.16955199270097884,-0.17586156186868485,-0.2607942826783917,0.01061902012826569,0.0023468037553614975,-0.01043332279568879
922,2.0,300.4576,2011.7753,0.0,0.0,-0.00921999483455982,0.0,0.0,0.0,-0.16459456526171884,-0.1813957515298668,-0.26553914037917276,0.011514637971156289,-0.016290457555242985,-0.02335758923971458
923,2.0,299.9653,2066.8223,0.0,0.0,-0.009229999254934063,0.0,0.0,0.0,-0.19252079179782283,-0.17851239638280184,-0.25722920273154576,0.016912766382410085,-0.006767247043800284,-0.012683851579548688
924,2.0,299.41367,2060.1723,0.0,0.0,-0.009240003675307973,0.0,0.0,0.0,-0.19563333398500682,-0.17170450068341483,-0.25890310202924677,-0.0071672916595066135,-0.002139734850350388,-0.005180341549334905
925,2.0,299.80922999999996,2095.2827,0.0,0.0,-0.009250008095682105,0.0,0.0,0.0,-0.18738606585606482,-0.17927695437825783,-0.27025060135665774,-0.005906105440862224,0.01148461030444279,-0.0027248544604221974
926,2.0,299.6601,1884.9403,0.0,0.0,-0.00926001251605646,0.0,0.0,0.0,-0.15956566316040485,-0.15519949755199786,-0.2582096133958048,-0.029017795802583474,0.013110880767943187,-0.007335521573609613
927,2.0,299.89051,1896.1892,0.0,0.0,-0.009269984027152955,0.0,0.0,0.0,-0.15320468168262485,-0.17165804316632982,-0.25153144410672074,-0.007539579808598592,0.017126205489474883,-0.026608564695310873
928,2.0,300.69865,2114.8438,0.0,0.0,-0.009279988447527199,0.0,0.0,0.0,-0.18340277706294483,-0.1803803128096508,-0.27907659741271573,-0.012186500807713989,0.004821573297652235,-0.017225742113048385
929,2.0,300.33879,2107.5631,0.0,0.0,-0.009289992867901331,0.0,0.0,0.0,-0.19222277467841084,-0.18460553532914784,-0.2638182364093328,0.017080628486726784,-0.012808996072899488,-0.02889484803544947
930,2.0,300.56911,1956.3956,0.0,0.0,-0.009299997288275685,0.0,0.0,0.0,-0.17574315346199884,-0.16983140654855483,-0.24912085119131377,0.013761543372658589,-0.0036437832364384064,-0.014682078048758287
931,2.0,300.37003,1912.1002,0.0,0.0,-0.009310001708649818,0.0,0.0,0.0,-0.16515220745425385,-0.16076084231585985,-0.2553176658878918,0.009096499280929581,-0.0012262404385955088,-0.01860162935758788
932,2.0,299.68621,1949.1657,0.0,0.0,-0.009320006129023728,0.0,0.0,0.0,-0.16354678359831085,-0.16439573519459583,-0.26455517320706273,0.0023270946223663577,0.003524953824335856,-0.01081406874601549
933,2.0,299.6936,1999.3759,0.0,0.0,-0.009330010549397971,0.0,0.0,0.0,-0.14991313873277484,-0.17207112496709784,-0.2857760956164047,-0.02152930001102648,-0.017107548515383587,-0.024407385244321376
934,2.0,299.94275,2071.4626,0.0,0.0,-0.009340014969772104,0.0,0.0,0.0,-0.16914849624615685,-0.18064096126537482,-0.27988343833484475,-0.00047359499151768656,-0.008094901151779542,-0.02133826487692278
935,2.0,299.68485,1974.0301,0.0,0.0,-0.009349986480868822,0.0,0.0,0.0,-0.1886361530344388,-0.15952797025668486,-0.25189175584228074,-0.0012771742919722886,-0.007323412525639543,-0.00897715341525106
936,2.0,299.6294,1890.4722,0.0,0.0,-0.009359990901242954,0.0,0.0,0.0,-0.16511490971807283,-0.16559662908061484,-0.2439447947779768,0.001116037432544319,-0.0021998865438618976,-0.01001248274155511
937,2.0,300.31712999999996,2042.7077,0.0,0.0,-0.009369995321617086,0.0,0.0,0.0,-0.18375548942275483,-0.16769380347508983,-0.26948284149088575,-0.005793338709408015,-0.005308620227895025,0.004585546819358235
938,2.0,300.1448,2258.0157,0.0,0.0,-0.009379999741991218,0.0,0.0,0.0,-0.1888918770946768,-0.1895891856809958,-0.3078993273722977,-0.002856158602455907,0.017684328975807382,-0.012862959746725288
939,2.0,299.45331,2124.5476,0.0,0.0,-0.00939000416236535,0.0,0.0,0.0,-0.16970194358327784,-0.18335931876615583,-0.29274816822949473,0.004094675579263016,0.007471896829743804,-0.027799763804373077
940,2.0,300.0992,1917.7804,0.0,0.0,-0.009400008582739594,0.0,0.0,0.0,-0.16092578929963886,-0.15717528458449284,-0.26485627060677874,0.005765499054960454,-0.00018451899363810682,-0.03375357275596827
941,2.0,300.48868999999996,1989.842,0.0,0.0,-0.009410013003113726,0.0,0.0,0.0,-0.19687098858465382,-0.16500221604195084,-0.24298905675365276,-0.004659703554426935,-0.01096769873942759,-0.022671610816013776
942,2.0,300.47935,1991.283,0.0,0.0,-0.009419984514210222,0.0,0.0,0.0,-0.1880889067879298,-0.16237940802559983,-0.2548320049824607,-0.007505081175818842,-0.0026884869891580076,-0.007572728386945103
943,2.0,300.48007,2020.5652,0.0,0.0,-0.009429988934584577,0.0,0.0,0.0,-0.18298719253442983,-0.17477616836156484,-0.25643800639096076,-0.008427898805718852,-0.007343562523753192,-0.0067714244713125635
944,2.0,300.35393,2028.6903,0.0,0.0,-0.009439993354958709,0.0,0.0,0.0,-0.15525711095268385,-0.18177341010713882,-0.27964065347838374,-0.0032689881039490074,-0.0012327865408665588,-0.0006846273256199563
945,2.0,299.8626,2045.0765,0.0,0.0,-0.009449997775332841,0.0,0.0,0.0,-0.15455581016097084,-0.18356901087435082,-0.28352738966947477,-0.0008559107195618112,-0.0036299289664960964,-0.01883647641276548
946,2.0,300.16823999999997,2144.9415,0.0,0.0,-0.009460002195706974,0.0,0.0,0.0,-0.18060346087917384,-0.1985553446233868,-0.27284986144068474,0.0056851119463518646,0.02253369734490278,-0.020003047464897082
947,2.0,300.05509,2270.834,0.0,0.0,-0.009470006616081217,0.0,0.0,0.0,-0.23385364451455778,-0.18771436902096583,-0.2687088096069948,0.008598513707907231,0.004489186937498255,-0.014356322194608686
948,2.0,300.00869,2169.5707,0.0,0.0,-0.00948001103645535,0.0,0.0,0.0,-0.2020054206838828,-0.19198875443531482,-0.2655011536329237,0.012896486166034088,0.01825372993575288,-0.017321277411976983
949,2.0,300.11933999999997,1839.7911,0.0,0.0,-0.009490015456829481,0.0,0.0,0.0,-0.16573935548970084,-0.16041702629192786,-0.23309417303460378,-0.004494956788867696,-0.005044303604159005,-0.013147412487048588
950,2.0,299.74785,1885.0098,0.0,0.0,-0.009499986967925977,0.0,0.0,0.0,-0.1271266942564279,-0.17579628829724284,-0.27007291781912174,-0.015838356506374086,0.007116801001723573,-0.03402668317467217
951,2.0,299.84732,2106.3926,0.0,0.0,-0.00950999138830011,0.0,0.0,0.0,-0.16902720007668584,-0.18891389501934983,-0.28234965868074174,-0.02273992211125558,-0.006700652092902874,-0.027347478343985973
952,2.0,299.5719,2004.5974,0.0,0.0,-0.009519995808674464,0.0,0.0,0.0,-0.16864028039349982,-0.17832672843447783,-0.26238054597494376,0.0007587227793226083,0.0008566536649326341,-0.04281419497868206
953,2.0,299.86946,1848.7751,0.0,0.0,-0.009530000229048596,0.0,0.0,0.0,-0.18091657542507583,-0.15901816360137083,-0.2220467477243078,0.01154348013525279,-0.004590854527357066,-0.014052446463118486
954,2.0,300.59505,1966.7107,0.0,0.0,-0.00954000464942284,0.0,0.0,0.0,-0.17463242870237886,-0.17347385827303682,-0.24972464692590376,0.014632228170338487,-0.002724194024007018,-0.013175069148528088
955,2.0,300.91954,2123.6995,0.0,0.0,-0.00955000906979675,0.0,0.0,0.0,-0.19663758642411883,-0.18216033992282582,-0.26675369287653977,0.000982000321943386,-0.01220773447680959,0.005775763582448485
956,2.0,300.78356,2221.8737,0.0,0.0,-0.009560013490170882,0.0,0.0,0.0,-0.16507910145953883,-0.19943034687974281,-0.31088466614192767,-0.014456088825954887,-0.00968063725430451,-0.011613537260416888
957,2.0,300.50203,2281.552,0.0,0.0,-0.0095699850012676,0.0,0.0,0.0,-0.18377989861766383,-0.20380376735886582,-0.3059511818025307,0.015687640620249587,0.0054720715532014155,-0.005287116324997755
958,2.0,300.09256,2089.8292,0.0,0.0,-0.009579989421641733,0.0,0.0,0.0,-0.18773672131817182,-0.17357405857542582,-0.27394512400377874,-9.358621914224071e-05,0.016988563569390686,-0.014758197449270687
959,2.0,299.99464,2025.444,0.0,0.0,-0.009589993842015976,0.0,0.0,0.0,-0.19073052072613683,-0.17793450945326883,-0.2470193806164148,0.008848368516940982,0.004725834943403596,-0.01838435813864488
960,2.0,300.37814,2095.3549,0.0,0.0,-0.009599998262390108,0.0,0.0,0.0,-0.2084249274874388,-0.17115351554403685,-0.25735713568917173,-0.01894515559199128,-0.01135695092434379,-0.017011603863414586
961,2.0,299.89707999999996,2051.9739,0.0,0.0,-0.009610002682764462,0.0,0.0,0.0,-0.17845706279484083,-0.17740549157605884,-0.26788628357331773,0.0023951244367303778,-0.017974040484149682,-0.01841837598425218
962,2.0,299.60905,1851.0971,0.0,0.0,-0.009620007103138595,0.0,0.0,0.0,-0.11621808420983187,-0.17877375411359583,-0.26769544804948375,0.003111415757047827,-0.011934846973127688,-0.03886056097623876
963,2.0,299.66886,1898.3970000000002,0.0,0.0,-0.009630011523512505,0.0,0.0,0.0,-0.14257640754119585,-0.16249008533402284,-0.27199878201918976,0.013667044628582287,-0.005221465723193545,-0.02737531941698368
964,2.0,300.08247,2139.1146,0.0,0.0,-0.009640015943886748,0.0,0.0,0.0,-0.18353510752600483,-0.18743863327125282,-0.2792636737786788,-0.013970440079525087,-0.00011983574170436689,-0.022196340790358277
965,2.0,300.33288999999996,2197.835,0.0,0.0,-0.009649987454983355,0.0,0.0,0.0,-0.2071822978298008,-0.18581986491149283,-0.27508480745125674,0.006143620383553124,0.0029231077855882775,-0.012542802099378188
966,2.0,300.41579,2116.1807,0.0,0.0,-0.009659991875357599,0.0,0.0,0.0,-0.19104106161678483,-0.17865442364931883,-0.27357059636931574,0.005792548273005005,0.016236747193942185,-0.008012802866402073
967,2.0,300.63151,2083.8407,0.0,0.0,-0.009669996295731731,0.0,0.0,0.0,-0.18460908170449783,-0.16884809798900985,-0.27997835960421275,0.013403140600286986,0.003211938982243697,0.008257517660328543
968,2.0,300.56243,2055.5635,0.0,0.0,-0.009680000716105863,0.0,0.0,0.0,-0.14181996567904087,-0.18107104540282082,-0.3019489553650417,-0.012454160954129987,-0.0076089806516729235,-0.017070888113515485
969,2.0,300.46889,2093.7029,0.0,0.0,-0.009690005136479996,0.0,0.0,0.0,-0.18137507109532583,-0.17349896661051484,-0.2815593438677437,-0.004668130755508635,-0.01806008061639118,-0.013426845586376489
970,2.0,299.68134,2191.6836,0.0,0.0,-0.009700009556854128,0.0,0.0,0.0,-0.19491293342890884,-0.17858646496511182,-0.2927176795339857,0.007375230135753544,-0.008209096565874752,-0.02598606740362518
971,2.0,299.44232999999997,1993.4847,0.0,0.0,-0.009710013977228371,0.0,0.0,0.0,-0.2037833301043488,-0.15310589993037588,-0.24908035158481676,0.005881512543710094,-0.0043742902530088355,-0.013338436475401188
972,2.0,299.23255,1875.2136,0.0,0.0,-0.009719985488324978,0.0,0.0,0.0,-0.17310800405942983,-0.14642323181084788,-0.2504868845786308,-0.016394163702977985,-0.003963649270406726,-0.013522893589855686
973,2.0,300.03978,2191.2324,0.0,0.0,-0.009729989908699,0.0,0.0,0.0,-0.1935414487560538,-0.19388880102283482,-0.2786496948805837,-0.014285701702388987,-0.005634302824062395,-0.019462839253582682
974,2.0,299.81349,2299.4442,0.0,0.0,-0.009739994329073354,0.0,0.0,0.0,-0.18523912061667783,-0.19258401860406282,-0.32115050072258666,-0.009195775397902372,0.006647348247542193,0.002036332474995368
975,2.0,300.18466,2137.3097,0.0,0.0,-0.009749998749447486,0.0,0.0,0.0,-0.18386917608397482,-0.18247937184931182,-0.28334025250850575,0.009953379052622032,0.01092751931996219,-0.02859462709706997
976,2.0,300.32927,2052.616,0.0,0.0,-0.009760003169821618,0.0,0.0,0.0,-0.17862462396387782,-0.17491457832522483,-0.27040481802187777,0.001991326540003628,0.011678585890336688,-0.001024461408381469
977,2.0,300.57051,2155.6441,0.0,0.0,-0.00977000759019575,0.0,0.0,0.0,-0.2060360383891738,-0.19171010052531381,-0.2575158410523347,0.008247883475727722,0.01130529036799529,-0.016952713767602583
978,2.0,300.31357,2172.2071,0.0,0.0,-0.009780012010569994,0.0,0.0,0.0,-0.2018909842175888,-0.17569107240685883,-0.28271464149926273,0.006994827981185774,0.012167116320050887,-0.006307489066575704
979,2.0,300.33993,2160.9751,0.0,0.0,-0.009790016430944126,0.0,0.0,0.0,-0.18430120566161282,-0.18912337434502383,-0.28345790097761675,0.009735481442467211,-0.003249357295186596,-0.03603819436594286
980,2.0,299.91949,2065.3207,0.0,0.0,-0.009799987942040622,0.0,0.0,0.0,-0.16807414716512684,-0.17795525068281584,-0.2817765036291758,0.0072759186563522635,-0.027263105008158973,-0.027763027408747473
981,2.0,299.53822,1906.6346,0.0,0.0,-0.009809992362414754,0.0,0.0,0.0,-0.16850308632995986,-0.17542726261082284,-0.2356389506607538,-0.008154715027707713,-0.018557124373445585,-0.04852665282270775
982,2.0,299.31856,1992.0893,0.0,0.0,-0.009819996782788887,0.0,0.0,0.0,-0.16340995430480684,-0.17967976182301185,-0.26245569873486074,-0.004769928649330305,-0.007110634462939983,-0.02851487722144927
983,2.0,299.43102999999996,2192.3899,0.0,0.0,-0.009830001203163241,0.0,0.0,0.0,-0.21919546194290782,-0.17110470728671984,-0.27613161639456874,-0.004893044615980905,0.0045713484496819655,-0.0035577589108984667
984,2.0,299.50112,2175.2727,0.0,0.0,-0.009840005623537373,0.0,0.0,0.0,-0.19158466016293382,-0.1854400177140048,-0.2842039164962427,0.006094953271975055,0.02086616531083018,-0.004949048164908026
985,2.0,299.48457,1989.9622,0.0,0.0,-0.009850010043911617,0.0,0.0,0.0,-0.16487860966225185,-0.16949314313517083,-0.2705270869114447,0.0013421095392058986,0.019846333138180582,-0.01181724308702109
986,2.0,299.97738,2141.4746,0.0,0.0,-0.009860014464285527,0.0,0.0,0.0,-0.17440517696995084,-0.1815779136328448,-0.2949717151764417,0.006761076046716253,0.019439477759277082,-0.012868696768791488
987,2.0,300.06899,2289.1905,0.0,0.0,-0.009869985975382467,0.0,0.0,0.0,-0.20937577151377976,-0.1924734628856518,-0.2940075165137827,-0.012410202111791589,0.003491904544499147,-0.01311283026113559
988,2.0,300.54702000000003,2189.9438,0.0,0.0,-0.009879990395756377,0.0,0.0,0.0,-0.19706622161392182,-0.18622710025918382,-0.2823949205627087,0.016378945699726085,-0.012317787623170987,-0.02358374666203458
989,2.0,300.1626,2034.5156,0.0,0.0,-0.00988999481613051,0.0,0.0,0.0,-0.18476581122996583,-0.17637632331698783,-0.25729981613101477,-0.005308752862333115,0.0026188114539815676,-0.011787760548861388
990,2.0,299.57332,1915.9311,0.0,0.0,-0.009899999236504753,0.0,0.0,0.0,-0.16963517040168782,-0.16166121635471986,-0.25109881671152373,-0.01211515888142309,0.004943707728930965,-0.016144188823807384
991,2.0,300.01305,2036.64,0.0,0.0,-0.009910003656878885,0.0,0.0,0.0,-0.16298136977750885,-0.17490335151411684,-0.28120298380757375,-0.017237175627176783,0.003974900906142176,-0.015333358736034683
992,2.0,300.42346000000003,2262.5831,0.0,0.0,-0.00992000807725324,0.0,0.0,0.0,-0.2012040715772958,-0.1986465776623908,-0.28791811646030574,-0.012520736551950488,-0.004074654466562086,-0.01991068363878148
993,2.0,299.36486,2192.6759,0.0,0.0,-0.009930012497627372,0.0,0.0,0.0,-0.19145207638734882,-0.18667916179129881,-0.2883874640391267,0.023638063960145277,0.0025873254163991375,-0.03043972310516677
994,2.0,299.83851,1952.5772,0.0,0.0,-0.009939984008723868,0.0,0.0,0.0,-0.15654555977984386,-0.17563046991837783,-0.2613586832490937,0.012792060610728089,-0.015099026411907884,-0.015471671427685086
995,2.0,300.14108999999996,2016.3641,0.0,0.0,-0.009949988429098,0.0,0.0,0.0,-0.17106941578573684,-0.17212804935771583,-0.26972685237996774,0.030174838250774674,0.002622420448187747,-0.002074006633588518
996,2.0,300.20706,2287.3542,0.0,0.0,-0.009959992849472132,0.0,0.0,0.0,-0.19030471250411282,-0.18685194119835083,-0.3181419179956627,-0.009038890439869033,-0.010916447536119488,0.0004846375734925045
997,2.0,300.33269,2238.8094,0.0,0.0,-0.009969997269846376,0.0,0.0,0.0,-0.18061004700482383,-0.19867347945254582,-0.3012586179394107,0.008207725942464482,0.019632243524551583,-0.017722205277795482
998,2.0,300.20187000000004,1957.2143,0.0,0.0,-0.009980001690220508,0.0,0.0,0.0,-0.16169678143322982,-0.17825916491780983,-0.2549883292078888,-0.015569098464550384,0.005065555207781376,-0.03309284553800957
999,2.0,300.13189,2086.8526,0.0,0.0,-0.00999000611059464,0.0,0.0,0.0,-0.18271672568523684,-0.18413772789047883,-0.26749663824736275,-0.008206693035312542,0.005964565817306813,-0.030660815290236867
1000,2.0,300.07291000000004,2296.0846,0.0,0.0,-0.010000010530968773,0.0,0.0,0.0,-0.2181949787941678,-0.2168726063536598,-0.26288481015221077,-0.02034759910840168,-0.0053051901736565045,-0.027309473359235177
1001,2.0,299.82145,2199.4363,0.0,0.0,-0.010010014951342905,0.0,0.0,0.0,-0.2038194119404098,-0.18914796592495084,-0.2756063272777267,-0.0040281093033434365,0.002390235808972908,-0.020763409591688983
1002,2.0,299.71167,2116.8639,0.0,0.0,-0.010019986462439623,0.0,0.0,0.0,-0.16505583723724285,-0.1856086326631458,-0.2928093077405287,0.003178704784263737,0.001017145540009449,-0.00988270668199721
1003,2.0,299.72702000000004,2027.1722,0.0,0.0,-0.010029990882813755,0.0,0.0,0.0,-0.15780940689457584,-0.17918415080159883,-0.2792161624814898,0.003215489917219147,-0.005969019558121364,-0.006810654070134224
1004,2.0,299.63788999999997,2113.241,0.0,0.0,-0.010039995303187776,0.0,0.0,0.0,-0.1841698073886448,-0.17432783558981785,-0.28387486352626773,-0.0012220772979096388,-0.004505022212711076,-0.009399778613410922
1005,2.0,299.48734,2380.1971,0.0,0.0,-0.01004999972356213,0.0,0.0,0.0,-0.21819016585619277,-0.20306227093568582,-0.30226804808653374,-0.005503083389737045,0.005085742290848685,-0.02123362451259558
1006,2.0,299.53266,2285.2998,0.0,0.0,-0.010060004143936263,0.0,0.0,0.0,-0.1980858450570508,-0.2003895704844108,-0.29619865972253173,0.011678307246559189,-0.00016195752108146284,-0.010321521792904891
1007,2.0,300.39194,2009.2684,0.0,0.0,-0.010070008564310395,0.0,0.0,0.0,-0.16067601301748785,-0.17099354361824884,-0.27909787566481575,-0.004133895450883716,0.0058113919890897345,-0.010628452473446591
1008,2.0,300.28412000000003,2071.6195,0.0,0.0,-0.010080012984684528,0.0,0.0,0.0,-0.15708427446051085,-0.18171916069678481,-0.29091715437128773,-0.008304330118923573,-0.015430493956871185,-0.008146411037838173
1009,2.0,299.90923,2279.2884,0.0,0.0,-0.010089984495781246,0.0,0.0,0.0,-0.2031651462183388,-0.18922074767963382,-0.30046087600317967,-0.01130599255031459,0.005553049589268324,-0.019489382353202283
1010,2.0,300.34517,2190.9622,0.0,0.0,-0.010099988916155378,0.0,0.0,0.0,-0.2028227892745508,-0.17761827409705883,-0.2855567269697547,-0.011927141206117188,-0.01091446967192429,-0.02692768173480527
1011,2.0,300.58223,2068.9646,0.0,0.0,-0.0101099933365294,0.0,0.0,0.0,-0.19170696958250483,-0.18934392849429083,-0.24786267827714176,0.007237586189169144,-0.002198106972711268,-0.04741134107988505
1012,2.0,299.86311,2117.7296,0.0,0.0,-0.010119997756903532,0.0,0.0,0.0,-0.2057039051388948,-0.17606810276906884,-0.26196491078392375,-0.0019236509578745683,-0.014098305149394384,-0.016001426950967883
1013,2.0,299.27667,2147.056,0.0,0.0,-0.010130002177277664,0.0,0.0,0.0,-0.1902048668392588,-0.18360842630324084,-0.27883810873667875,-0.006790644407159424,0.0034936466253960765,-0.025989237863188075
1014,2.0,299.25057000000004,2184.0618,0.0,0.0,-0.010140006597652018,0.0,0.0,0.0,-0.16298051864742485,-0.1990853048231898,-0.3018344277062387,0.0008777418921088801,0.0005945100877585774,-0.007739283601282822
1015,2.0,299.92946,2145.7299,0.0,0.0,-0.01015001101802615,0.0,0.0,0.0,-0.17144292003759884,-0.17691278858243284,-0.3038925919718637,-0.009758217660136102,0.0075232768171396135,-0.007622920338598664
1016,2.0,299.85564,2117.4572,0.0,0.0,-0.010160015438400394,0.0,0.0,0.0,-0.18382270843438883,-0.18139273204456882,-0.2784386855472587,0.02080591239363368,-0.003203864696171827,-0.02295846090607368
1017,2.0,300.26421,2123.549,0.0,0.0,-0.01016998694949689,0.0,0.0,0.0,-0.19322446359476983,-0.18674075726487782,-0.26554065012182176,0.0035837814026166864,-0.006472677811828563,-0.04635778895715755
1018,2.0,299.73151,2243.3443,0.0,0.0,-0.010179991369871244,0.0,0.0,0.0,-0.21929808391303582,-0.1853501930926398,-0.2772723738871527,0.020568820989484583,0.0035699232823239962,-0.026491807886287872
1019,2.0,300.27878,2206.3282,0.0,0.0,-0.010189995790245154,0.0,0.0,0.0,-0.18513332717373684,-0.19541331685829283,-0.29012204688531673,-0.005385824109989455,-0.0014570304403727086,-0.02843118580293957
1020,2.0,300.06106,1974.4825,0.0,0.0,-0.010200000210619287,0.0,0.0,0.0,-0.16362984984150886,-0.16384063625981185,-0.2727228809381528,0.004229652246284176,-0.007868737244658903,-0.010642141482297592
1021,2.0,300.12162,2002.9481,0.0,0.0,-0.01021000463099353,0.0,0.0,0.0,-0.16866554071849285,-0.17744596078505284,-0.2627346971498957,-0.015323913218602487,-0.004973808957601725,-0.027962789665962474
1022,2.0,300.09063,2238.044,0.0,0.0,-0.010220009051367662,0.0,0.0,0.0,-0.20023411765406882,-0.1920099110974028,-0.2880654632898477,-0.010817354716089791,0.007736065721615243,-0.008701025335099342
1023,2.0,300.65943,2197.8231,0.0,0.0,-0.010230013471742017,0.0,0.0,0.0,-0.1904216516981538,-0.1931562718630398,-0.28450540906349775,-0.012038169099074788,0.013447283854143587,-0.02109689958385188
1024,2.0,300.28693,2218.7108,0.0,0.0,-0.010239984982838513,0.0,0.0,0.0,-0.19420308080635182,-0.2036031641040678,-0.27662644721340474,-0.004454437423993746,0.00011998278455887887,-0.01035353340331419
1025,2.0,300.19316000000003,2342.328,0.0,0.0,-0.010249989403212645,0.0,0.0,0.0,-0.1940165819929458,-0.2053899191979068,-0.3126027228789867,0.006183802640118805,0.006430582032449035,-0.012487536399173887
1026,2.0,299.77297999999996,2170.607,0.0,0.0,-0.010259993823586777,0.0,0.0,0.0,-0.18194018094109782,-0.18158035556558583,-0.29628980156902673,0.007593385820708833,-0.01014564184054689,-0.005329494294530135
1027,2.0,299.66704,2189.7977,0.0,0.0,-0.01026999824396091,0.0,0.0,0.0,-0.1853884635489168,-0.18507010036749683,-0.29518526776751774,0.01007213865179269,0.0035775300547997266,-0.0036376553024836267
1028,2.0,299.57198999999997,2302.5781,0.0,0.0,-0.010280002664335153,0.0,0.0,0.0,-0.2081628503490738,-0.19550442830728482,-0.2962589785009847,-0.0003056551911833187,-0.013727701832568686,-0.01740498605573838
1029,2.0,299.21869,2162.4853,0.0,0.0,-0.010290007084709285,0.0,0.0,0.0,-0.20468299486813882,-0.18465825473185082,-0.2680002944745698,0.01159647514198299,-0.0012949911804056786,-0.014977667420930686
1030,2.0,299.80492999999996,1999.6521,0.0,0.0,-0.010300011505083417,0.0,0.0,0.0,-0.18349221664927184,-0.17383830406900483,-0.25051378636878574,0.00019556331840309677,-0.002073314482445208,-0.04112164478639036
1031,2.0,300.06782999999996,2122.9237,0.0,0.0,-0.01031001592545755,0.0,0.0,0.0,-0.17571436702665783,-0.18386220492328684,-0.2857392335777667,0.005506270871901625,0.007379064578106973,-0.005801660532479314
1032,2.0,300.26884,2274.1342,0.0,0.0,-0.010319987436554268,0.0,0.0,0.0,-0.1896435364163598,-0.2036607977697558,-0.2979756673504087,-0.013274185273310087,0.00024603974002223184,-0.020925307705917082
1033,2.0,300.34067000000005,2238.615,0.0,0.0,-0.0103299918569284,0.0,0.0,0.0,-0.18364256269910983,-0.19578616249758982,-0.30105433658674974,0.004100991268461326,-0.002135394390897018,-0.012601145040136187
1034,2.0,300.52794,2229.1905,0.0,0.0,-0.010339996277302532,0.0,0.0,0.0,-0.18747720770255982,-0.2032940214985578,-0.2868470199120967,0.0019519747432199081,-0.0064905120268386645,-0.025406559273932178
1035,2.0,300.26108,2278.9087,0.0,0.0,-0.010350000697676554,0.0,0.0,0.0,-0.19738233538011982,-0.1934115095632298,-0.3019374955064107,0.005024560020660465,0.004309341732198916,-0.00963495963582148
1036,2.0,300.02582,2235.491,0.0,0.0,-0.010360005118050908,0.0,0.0,0.0,-0.19028934150009583,-0.18413801160050683,-0.3051061008216277,-0.004536606636878215,0.002355924728786668,-0.01969930446916998
1037,2.0,299.85822,2209.6079999999997,0.0,0.0,-0.01037000953842504,0.0,0.0,0.0,-0.17383513259619185,-0.20681066809062382,-0.2910198675339247,-0.0013409062033871387,-0.010114858086608771,-0.01914539002375288
1038,2.0,299.66357,2178.0929,0.0,0.0,-0.010380013958799172,0.0,0.0,0.0,-0.2011376631657418,-0.17443945522083384,-0.2865087261012097,-0.008339169203736924,0.002190297246240508,-0.007076483678919563
1039,2.0,299.39506,2064.6704,0.0,0.0,-0.010389985469895668,0.0,0.0,0.0,-0.18190452467007884,-0.17324478269042884,-0.27245893941960375,-0.0015799979658836585,0.0012611657509923686,-0.01215232996134159
1040,2.0,299.73786,2116.3865,0.0,0.0,-0.010399989890270023,0.0,0.0,0.0,-0.18450309574403784,-0.18779387875631282,-0.2710316753287438,-0.007626695607146253,0.004285131742259576,-0.02609504650488058
1041,2.0,300.05042000000003,2401.7691,0.0,0.0,-0.010409994310644155,0.0,0.0,0.0,-0.21617872255267878,-0.21013166622088078,-0.3037674353195117,-0.01906480624329988,-0.004435488228573606,-0.024594862857323978
1042,2.0,300.6161,2391.5334,0.0,0.0,-0.010419998731018176,0.0,0.0,0.0,-0.21067881114237977,-0.21683931095537382,-0.2994483149132477,-0.005869493067048865,0.0014232850577172984,-0.027964598317390975
1043,2.0,300.92009,2198.1391,0.0,0.0,-0.010430003151392309,0.0,0.0,0.0,-0.17781796542676684,-0.18986393857811182,-0.3004974948617937,0.0035732544433527565,-0.0018054700258360182,-0.0057270877569195544
1044,2.0,300.44796,2207.1038,0.0,0.0,-0.010440007571766441,0.0,0.0,0.0,-0.19301989853208082,-0.17945798164112384,-0.2984265839099107,0.01953101882631148,0.0026339768695532776,-0.008873170751563771
1045,2.0,300.3198,2315.4384,0.0,0.0,-0.010450011992140795,0.0,0.0,0.0,-0.19135358847762882,-0.19929881688426182,-0.3131830618737617,-0.005652315573740114,-0.007259271970459363,-0.008687665936505872
1046,2.0,300.56404,2218.4884,0.0,0.0,-0.010460016412514928,0.0,0.0,0.0,-0.1909174451045848,-0.19211410360518583,-0.2913335292348807,-0.000930075560631311,0.0038048046866799865,-0.026036923439394274
1047,2.0,300.22326,2099.0862,0.0,0.0,-0.010469987923611535,0.0,0.0,0.0,-0.18319289243723083,-0.16748652290213284,-0.2873903651457207,-0.002430652126311688,0.01054571148353069,-0.012315481465943388
1048,2.0,299.47012,2147.74,0.0,0.0,-0.010479992343985667,0.0,0.0,0.0,-0.16550051217612885,-0.1910697061971118,-0.29628911255895873,0.005204071664026885,0.01073891294634819,-0.017324074995503085
1049,2.0,299.91821,2146.6853,0.0,0.0,-0.010489996764360021,0.0,0.0,0.0,-0.18238260646476184,-0.18655732859927482,-0.2835988035365227,-0.00032401820115560674,0.003163241777137657,-0.01947634587741568
1050,2.0,299.42211000000003,2296.5305,0.0,0.0,-0.010500001184733931,0.0,0.0,0.0,-0.2072438933033798,-0.2001414255349208,-0.2907025986626127,-0.00944052950593272,0.004302468654120596,-0.019215718699943783
1051,2.0,299.85414,2336.0146,0.0,0.0,-0.010510005605108064,0.0,0.0,0.0,-0.22004194120894877,-0.18639321248057783,-0.3036549442934097,0.00919058066728969,0.007769833193122832,-0.016166244238734088
1052,2.0,299.80221,2179.1584,0.0,0.0,-0.010520010025482307,0.0,0.0,0.0,-0.19349303566627582,-0.18775034953201683,-0.28116635481645874,-0.01038701219986829,0.007431289717411192,-0.024333079561487975
1053,2.0,300.06291,2163.0774,0.0,0.0,-0.01053001444585644,0.0,0.0,0.0,-0.18274974750599582,-0.19216690406789683,-0.2826048761159297,-0.0026150117661065675,0.0017962090212470282,-0.03064702698287607
1054,2.0,299.82997,2367.6745,0.0,0.0,-0.010539985956953157,0.0,0.0,0.0,-0.1965488257153588,-0.20151228199271382,-0.3216528194596617,-0.014488079158112087,-0.0032712417748214273,-0.019119558225703482
1055,2.0,300.30147,2359.3741,0.0,0.0,-0.01054999037732729,0.0,0.0,0.0,-0.20583868766719682,-0.20048112776344681,-0.3108709872655777,0.005069877124757915,-0.012358234540662788,-0.007771635055775663
1056,2.0,300.29601,2121.2535,0.0,0.0,-0.010559994797701422,0.0,0.0,0.0,-0.18398908410080883,-0.17779632240463084,-0.2830226999271658,-0.0013069044684564286,-0.005597735337228464,-0.015161590552582486
1057,2.0,300.49506,2168.8247,0.0,0.0,-0.010569999218075554,0.0,0.0,0.0,-0.18221219806294384,-0.18934996746488683,-0.2877063978519107,0.003017519694131007,-0.01112546177999759,-0.01701882124387688
1058,2.0,300.69377000000003,2211.9148,0.0,0.0,-0.010580003638449686,0.0,0.0,0.0,-0.20573314753678082,-0.18257697823144484,-0.2840567317867167,-0.0017406146227102884,0.01013550427329639,-0.027405063373669176
1059,2.0,300.15141,2164.6493,0.0,0.0,-0.01059000805882393,0.0,0.0,0.0,-0.16977512050549984,-0.18712447507774782,-0.3010997403237307,-0.003377497563783057,0.003861486707874066,-0.013235166025209185
1060,2.0,300.17862,2181.0394,0.0,0.0,-0.010600012479198062,0.0,0.0,0.0,-0.17550920414640983,-0.1914845814505568,-0.29598772131671375,0.001129993736771699,0.004582002267858415,-0.03190366887614697
1061,2.0,300.24129,2207.3283,0.0,0.0,-0.010609983990294558,0.0,0.0,0.0,-0.1990835113705128,-0.17725832713153483,-0.29463084771030074,0.004906644864123145,-0.017614297181895784,-0.006667308463912113
1062,2.0,299.82162999999997,2154.7653,0.0,0.0,-0.010619988410668912,0.0,0.0,0.0,-0.19187344657393482,-0.18810226142424782,-0.27501913871227573,0.008074575050798512,-0.00917125687330758,-0.023287018396749775
1063,2.0,300.03837999999996,2246.2135,0.0,0.0,-0.010629992831043045,0.0,0.0,0.0,-0.2040692895475708,-0.19641565425471583,-0.28230788237911875,0.007872916192046333,-0.004750082423596635,-0.02009007450273598
1064,2.0,299.78137999999996,2437.5483,0.0,0.0,-0.010639997251417177,0.0,0.0,0.0,-0.23042294179597378,-0.2044641936415448,-0.3060666923139307,0.000992865027863149,0.0037512250346420865,-0.024066924091470477
1065,2.0,300.19914,2319.3633,0.0,0.0,-0.01065000167179131,0.0,0.0,0.0,-0.19134831957710882,-0.2078577607439638,-0.3058224585098267,0.004282485436973405,0.008367954828477842,-0.031219058340081176
1066,2.0,300.62998,2032.3946,0.0,0.0,-0.01066000609216533,0.0,0.0,0.0,-0.15976661092023683,-0.17540531561365683,-0.28262527284044275,-0.001191885586004949,0.007529420760445972,-0.025033600150623975
1067,2.0,300.49008,2059.1879,0.0,0.0,-0.010670010512539685,0.0,0.0,0.0,-0.17363258390120184,-0.16249037917655185,-0.28981874060038276,0.012688355476243187,0.0059804459794990635,-0.003227833431262357
1068,2.0,300.16125,2211.9067,0.0,0.0,-0.010680014932913817,0.0,0.0,0.0,-0.2009618845383938,-0.18633675418500584,-0.28506577689880175,-0.0002499137193945637,-0.010384590532129291,-0.018605539489723783
1069,2.0,300.45338,2300.0447,0.0,0.0,-0.010689986444010313,0.0,0.0,0.0,-0.2100583373111438,-0.1940028828515938,-0.2950949365211027,0.01121057478839759,-0.018402790171213983,-0.029614284990702372
1070,2.0,300.16188,2366.46,0.0,0.0,-0.010699990864384445,0.0,0.0,0.0,-0.2245432642481948,-0.1948373551039498,-0.2999641200091537,0.0034584722561246365,-0.0015332783209977886,-0.034310014247134764
1071,2.0,299.72845,2335.7688,0.0,0.0,-0.0107099952847588,0.0,0.0,0.0,-0.17920036280319881,-0.2132525778538908,-0.3175624605284747,0.007897875379109612,-0.0033725841113981373,-0.02060899635594958
1072,2.0,299.48254,2274.2872,0.0,0.0,-0.010719999705132932,0.0,0.0,0.0,-0.19206369441271082,-0.18654504800806282,-0.3127177774278417,-0.014439342841552186,0.0034725813584670965,-0.022286665957272682
1073,2.0,299.35581,2532.0570000000002,0.0,0.0,-0.010730004125506953,0.0,0.0,0.0,-0.22865726230421476,-0.2120259575478328,-0.3289988928171627,-0.01057141155906709,0.0013869943908106888,-0.0006419074044438284
1074,2.0,300.036,2456.7392,0.0,0.0,-0.010740008545881086,0.0,0.0,0.0,-0.2329789867632358,-0.19583632851004082,-0.3179720668813997,0.000931281064805285,0.012353821836477288,-0.004023396069178277
1075,2.0,300.00599,2063.6072,0.0,0.0,-0.010750012966255218,0.0,0.0,0.0,-0.18160655821317181,-0.16468436961808183,-0.2809941326969617,-0.001045425856925499,-0.0018484738799551684,-0.0008194546497088773
1076,2.0,300.495,2181.3174,0.0,0.0,-0.010759984477351936,0.0,0.0,0.0,-0.17763970433667384,-0.20280795529308682,-0.2826183523422597,-0.010489560202738989,-0.006758848821671443,-0.023949993003430276
1077,2.0,300.24481000000003,2533.2522,0.0,0.0,-0.010769988897726068,0.0,0.0,0.0,-0.21753141143617882,-0.2073231294611998,-0.3451908523301847,-0.0050676236565355155,0.002960964835824477,-0.012238643671110088
1078,2.0,299.94057999999995,2421.3592,0.0,0.0,-0.010779993318100312,0.0,0.0,0.0,-0.1964811507411798,-0.21615096963243982,-0.32340062521965673,0.004236972471631626,0.017284291756826786,-0.01997450826258048
1079,2.0,300.69133,2153.7521,0.0,0.0,-0.010789997738474444,0.0,0.0,0.0,-0.16967697710081384,-0.18884966509551082,-0.29616020688123673,0.019237118542055783,0.010152261403450191,-0.011407067287539888
1080,2.0,300.96344,2286.423,0.0,0.0,-0.010800002158848576,0.0,0.0,0.0,-0.19274007938446483,-0.2012893872357158,-0.3009860435300097,0.008233457631404003,-0.007784137346109544,-0.018556091871593683
1081,2.0,300.68717000000004,2360.0921,0.0,0.0,-0.010810006579222708,0.0,0.0,0.0,-0.2114244922884728,-0.2011527099297268,-0.3048318748145637,0.007588848993386082,-0.004012288010981996,-0.028860542426813768
1082,2.0,300.74795,2369.755,0.0,0.0,-0.01082001099959684,0.0,0.0,0.0,-0.2165727248540638,-0.2065073922031928,-0.2972662301603927,-0.00016349211875541585,-0.005153121092023455,-0.033103416776302866
1083,2.0,300.4209,2326.6493,0.0,0.0,-0.010830015419971084,0.0,0.0,0.0,-0.1932407870538808,-0.1970216588745238,-0.3169808347060727,-0.007076600810631124,-0.012350159950615886,-0.01980878107622448
1084,2.0,300.33488,2121.3428,0.0,0.0,-0.010839986931067691,0.0,0.0,0.0,-0.17256853957368884,-0.1880588436574628,-0.28420785803913173,-0.019451982278761184,-0.008708219410809341,-0.013526449084456589
1085,2.0,300.90767,2087.9496,0.0,0.0,-0.010849991351441934,0.0,0.0,0.0,-0.17105956699476482,-0.17302673126890886,-0.2905982440348137,-0.0025160766077924274,0.013598404027057987,-0.013636167858284986
1086,2.0,300.41958,2382.545,0.0,0.0,-0.010859995771816067,0.0,0.0,0.0,-0.22233786461053878,-0.2067394568735958,-0.2951568663672147,-0.004208869980108126,0.03270793614302197,-0.004337738268901436
1087,2.0,299.40132,2486.5731,0.0,0.0,-0.010870000192190199,0.0,0.0,0.0,-0.23689839013755076,-0.2056956876805838,-0.3132620548515577,-0.01014876771710539,0.001982287538511548,-0.02413306399174798
1088,2.0,300.00942000000003,2231.7881,0.0,0.0,-0.010880004612564331,0.0,0.0,0.0,-0.1909284793981738,-0.1970444873992768,-0.29043488785369176,-0.0009380333330741822,-0.016813371613850586,-0.032507185966959465
1089,2.0,299.83567999999997,2256.604,0.0,0.0,-0.010890009032938464,0.0,0.0,0.0,-0.17154413359008786,-0.2195356100014778,-0.29487153513905473,0.0033072990902300067,-0.004239656773796546,-0.033878542970301864
1090,2.0,300.68566,2488.8847,0.0,0.0,-0.010900013453312707,0.0,0.0,0.0,-0.22693501071174177,-0.2058119885270618,-0.3238117919777357,0.009366124119289481,-0.0003006846928177687,-0.010365105732706291
1091,2.0,300.12149,2370.7586,0.0,0.0,-0.010909984964409203,0.0,0.0,0.0,-0.20950897337192578,-0.2012211853714848,-0.3099212780793487,0.001103015142259119,-0.018352663675516884,-0.0060632331736195245
1092,2.0,300.31622999999996,2123.2037,0.0,0.0,-0.010919989384783335,0.0,0.0,0.0,-0.18545480103296383,-0.1900567398071398,-0.26988937769600774,-0.007506234051782623,-0.008228854030899662,-0.013622753440211088
1093,2.0,300.58532,2139.6247,0.0,0.0,-0.01092999380515769,0.0,0.0,0.0,-0.1861785250493898,-0.17992822088003282,-0.2842857364418177,0.00933682943769832,0.004418256086772926,-0.015553111404472587
1094,2.0,300.81542,2313.2824,0.0,0.0,-0.010939998225531822,0.0,0.0,0.0,-0.1944187713551388,-0.2041181282023908,-0.3046431772484407,0.005522868617814694,-0.0026462559408901277,-0.03421038947080257
1095,2.0,300.06203999999997,2423.7341,0.0,0.0,-0.010950002645905954,0.0,0.0,0.0,-0.19691459886895782,-0.2113022233989058,-0.32853782349165866,-0.004243086017434986,-0.013566297171139288,-0.02208397540726868
1096,2.0,300.16374,2511.994,0.0,0.0,-0.010960007066280086,0.0,0.0,0.0,-0.21104729980624679,-0.22607994921735378,-0.3264561923537177,-0.013325862041660187,-0.016193366917410884,-0.026242386241671873
1097,2.0,299.25383999999997,2308.9556,0.0,0.0,-0.010970011486654108,0.0,0.0,0.0,-0.18861426683227883,-0.2027203598219418,-0.31053021099194567,0.009242142533078451,0.017688661633234983,-0.006469589121548734
1098,2.0,299.81992,2270.0831,0.0,0.0,-0.010980015907028462,0.0,0.0,0.0,-0.2009754114272288,-0.2055490095961078,-0.28352414726915476,0.005605403613985265,0.02432728579741618,-0.007067413469324404
1099,2.0,300.01157,2424.6059,0.0,0.0,-0.010989987418124958,0.0,0.0,0.0,-0.21324209071535583,-0.2024766225103868,-0.3213009379649337,-0.0012436167658854188,0.01098778135640959,-0.01076148309232569
1100,2.0,300.27259,2410.4781,0.0,0.0,-0.01099999183849909,0.0,0.0,0.0,-0.2031641025707358,-0.2135489028456358,-0.3160121372129697,-0.007266774884799843,-0.007620243737134502,-0.027746501299616477
1101,2.0,300.23156,2152.7665,0.0,0.0,-0.011009996258873223,0.0,0.0,0.0,-0.16757801938616282,-0.19333963973363683,-0.29346960230069474,-0.0017425871166799583,0.011747590248646887,-0.03056063525284987
1102,2.0,300.57999,2063.2043,0.0,0.0,-0.011020000679247577,0.0,0.0,0.0,-0.18367444967975682,-0.16843692109842984,-0.27505122834294277,0.016323771192030784,-0.01098850481698099,-0.024923365632494678
1103,2.0,299.59673,2317.4857,0.0,0.0,-0.01103000509962171,0.0,0.0,0.0,-0.2126875288031248,-0.18751769717655584,-0.3042525490698887,0.001234166182202719,-0.028140938285294376,-0.017988666749343185
1104,2.0,300.04202999999995,2352.3919,0.0,0.0,-0.011040009519995952,0.0,0.0,0.0,-0.2211520884160118,-0.19438200050900983,-0.2995343195817357,-0.007943806107467623,-0.017114706114089984,-0.011320478986994289
1105,2.0,299.46572000000003,2405.9971,0.0,0.0,-0.011050013940369863,0.0,0.0,0.0,-0.20129145426591982,-0.2137645224669158,-0.3163070740520777,-0.006661733055236864,0.01092275907099239,-0.029238755251890472
1106,2.0,299.85971,2475.1042,0.0,0.0,-0.01105998545146658,0.0,0.0,0.0,-0.21799706065213478,-0.20489126842619382,-0.3294815545022977,-0.004106398882920016,0.008853510558548461,-0.014531718826668986
1107,2.0,299.27622,2310.5805,0.0,0.0,-0.011069989871840713,0.0,0.0,0.0,-0.1938577854372738,-0.19438923511472384,-0.3141117461204157,-0.004194786614318206,0.004253100576123346,-0.024262539116026178
1108,2.0,299.4993,2271.095,0.0,0.0,-0.011079994292214845,0.0,0.0,0.0,-0.19258095858876081,-0.18420517994963584,-0.3135700220869517,-0.008370969146200332,-0.006583891636179514,-0.01020793139044439
1109,2.0,299.33099999999996,2376.8392,0.0,0.0,-0.011089998712589089,0.0,0.0,0.0,-0.2197129186364768,-0.1970223478845918,-0.3057645107366077,-0.006985218823862423,0.014137407484003486,-0.008748621846621752
1110,2.0,300.41978,2271.2815,0.0,0.0,-0.011100003132963221,0.0,0.0,0.0,-0.2181170497289768,-0.1815498972675798,-0.29074590497188674,-0.007432314417237323,0.0007510187956322843,-0.0005938244720784125
1111,2.0,300.57003,2109.3778,0.0,0.0,-0.011110007553337353,0.0,0.0,0.0,-0.18473353921428085,-0.17224434007169284,-0.2842203108828607,0.00031971040888546066,-0.009546443019010569,-0.023989479359827277
1112,2.0,300.26724,2313.2477,0.0,0.0,-0.011120011973711486,0.0,0.0,0.0,-0.18905679368095282,-0.20875431482994683,-0.3053584304940307,0.00940862600930909,-0.008104362577238311,-0.03425299258450717
1113,2.0,299.93317,2501.3419,0.0,0.0,-0.011130016394085618,0.0,0.0,0.0,-0.2096904464648358,-0.2123528016325898,-0.3383022512603327,0.00995393613752701,0.008934870488578061,-0.03423141643687777
1114,2.0,300.10289,2484.1574,0.0,0.0,-0.011139987905182114,0.0,0.0,0.0,-0.21550245917093677,-0.2234201677048538,-0.3161991831814297,0.010986743788307189,-0.025218560850378175,-0.018056626446800284
1115,2.0,299.95161,2347.5623,0.0,0.0,-0.011149992325556468,0.0,0.0,0.0,-0.2060941178849058,-0.1973073143427158,-0.3101988984742477,0.005252821862113155,-0.028009941259365973,-0.013754339164447588
1116,2.0,300.11529,2298.9453,0.0,0.0,-0.011159996745930711,0.0,0.0,0.0,-0.1957857369325478,-0.19327796320004983,-0.3097582765357617,0.008437336825100313,-0.012487698519189887,0.0002718805053350168
1117,2.0,300.12341000000004,2277.6036,0.0,0.0,-0.011170001166304844,0.0,0.0,0.0,-0.18327134839247383,-0.2089693467661688,-0.30009393761196573,0.006291630790585614,0.025167364362575478,-0.02569046181945118
1118,2.0,299.37003,2459.3391,0.0,0.0,-0.011180005586678976,0.0,0.0,0.0,-0.20824942243761782,-0.2147370095153928,-0.3245912346171607,-0.015540828786760384,0.02360488407237068,-0.02312380609714198
1119,2.0,299.36186000000004,2442.4570000000003,0.0,0.0,-0.011190010007053108,0.0,0.0,0.0,-0.2141738147123098,-0.21941326005190281,-0.3088588650844967,-0.02039786441936248,0.02042405794769758,-0.035230471916226865
1120,2.0,300.08585,2121.0966,0.0,0.0,-0.01120001442742724,0.0,0.0,0.0,-0.17813040109510184,-0.17845930207756183,-0.2881706893127327,0.009077824372311511,-0.0003248030241530627,-0.01133219519790059
1121,2.0,300.244,2169.5041,0.0,0.0,-0.011209985938523959,0.0,0.0,0.0,-0.18846791298783483,-0.18866020759181282,-0.2823469634354757,0.0050240500518851355,0.013636012831019687,-0.01770607838920388
1122,2.0,300.33726,2527.6593,0.0,0.0,-0.01121999035889798,0.0,0.0,0.0,-0.23626841202037677,-0.19634435184517882,-0.33573253754922167,0.01040190292333789,-0.024046619572716577,0.01119793449340009
1123,2.0,300.07475,2621.978,0.0,0.0,-0.011229994779272112,0.0,0.0,0.0,-0.23024400182831378,-0.2282709505710888,-0.3385008989424377,-0.013959782714973288,-0.02988441645411227,-0.01962414157675198
1124,2.0,299.75403,2390.6631,0.0,0.0,-0.011239999199646467,0.0,0.0,0.0,-0.19710906182814983,-0.20066359384145482,-0.32892924200528867,0.0038820900340824564,-0.01072992947096159,-0.01828198745454168
1125,2.0,300.12177,2431.8597,0.0,0.0,-0.011250003620020599,0.0,0.0,0.0,-0.1931370707736448,-0.21783687594382578,-0.3282506684133187,0.0002930669265784537,0.011144377132864388,-0.027975384364705473
1126,2.0,300.89947,2585.2209,0.0,0.0,-0.011260008040394731,0.0,0.0,0.0,-0.23310965549613175,-0.2228742285509738,-0.3298587267195217,0.006121352692730474,-0.002396574904248528,-0.006726126517642005
1127,2.0,300.88319,2461.031,0.0,0.0,-0.011270012460768752,0.0,0.0,0.0,-0.23295733360859877,-0.1999360397396508,-0.3151985885751787,-0.01802790688596588,-0.015974900063349885,-0.008107892031311643
1128,2.0,300.50862,2300.1955,0.0,0.0,-0.011279983971865581,0.0,0.0,0.0,-0.20099061017872882,-0.1998468230683458,-0.29836455273878876,0.002290722996776758,-0.008345773365238703,-0.013530169738823788
1129,2.0,300.1649,2135.3764,0.0,0.0,-0.011289988392239603,0.0,0.0,0.0,-0.17393392448094183,-0.1819802853800558,-0.29318690552279475,-0.0012806041435607888,0.013099993395618686,-0.003809449222488366
1130,2.0,300.48321,2218.9329,0.0,0.0,-0.011299992812613735,0.0,0.0,0.0,-0.17591722982917882,-0.2097703615002228,-0.28881261364858574,-0.0029473199033528273,0.003215896331834257,-0.03451374641824157
1131,2.0,300.37165,2536.3252,0.0,0.0,-0.011309997232987867,0.0,0.0,0.0,-0.21101799661335482,-0.22942770728275177,-0.3305338147311477,-0.01088353717287149,-0.0061231392553067945,-0.02862695788126077
1132,2.0,299.87368,2609.6596,0.0,0.0,-0.011320001653362,0.0,0.0,0.0,-0.22960381015013176,-0.22145103772551578,-0.34221651745664067,0.0034258130775764264,0.0029080423778014373,-0.02931094425526497
1133,2.0,300.09309,2343.4265,0.0,0.0,-0.011330006073736354,0.0,0.0,0.0,-0.1854075329157988,-0.21650852532772782,-0.31042708239676775,0.016544451997560286,0.02327212767328018,-0.01850543747259448
1134,2.0,299.92688,2334.7949,0.0,0.0,-0.011340010494110486,0.0,0.0,0.0,-0.1969022372177378,-0.1938746763164408,-0.3189424362371677,-0.0017612925241260384,-0.010391019604013792,-0.01799817610153168
1135,2.0,300.08445,2595.8858,0.0,0.0,-0.011350014914484507,0.0,0.0,0.0,-0.23323537956853976,-0.2191727448756658,-0.33667634961986864,-0.016320339313942084,-0.00983002821459825,-0.00996190453896343
1136,2.0,300.47635,2427.0723,0.0,0.0,-0.011359986425581226,0.0,0.0,0.0,-0.2228198474181068,-0.2025227963174438,-0.3124267416016187,0.004611023979872636,-0.003607346256217356,-0.029146474512283076
1137,2.0,300.71537,2215.0762,0.0,0.0,-0.011369990845955358,0.0,0.0,0.0,-0.17619686659177683,-0.19277079099499583,-0.3043601866280117,0.02315198660892318,0.028469254622446673,-0.025720823858697676
1138,2.0,299.94984,2190.4259,0.0,0.0,-0.01137999526632949,0.0,0.0,0.0,-0.2037456878631338,-0.17598418539578684,-0.2861048952738547,0.004394883750691256,-0.006444453122343004,-0.019932215203406482
1139,2.0,299.62302,2306.9362,0.0,0.0,-0.011389999686703622,0.0,0.0,0.0,-0.1961495443809528,-0.19196916831088182,-0.3131322777787497,-0.009919522415105641,-0.016894912915648083,-0.020578516779691483
1140,2.0,299.60129,2421.217,0.0,0.0,-0.011400004107077866,0.0,0.0,0.0,-0.2229952106129138,-0.1984308060535958,-0.3145634935449997,-0.010569298932608589,-0.007225676954118793,-0.018885703142373783
1141,2.0,299.91705,2573.2283,0.0,0.0,-0.011410008527451998,0.0,0.0,0.0,-0.2197118344588698,-0.21799269354420378,-0.3444926216862747,0.0029560375019131876,0.016387180383288784,-0.015120006768478486
1142,2.0,299.52365,2416.2052,0.0,0.0,-0.01142001294782613,0.0,0.0,0.0,-0.2151299985666778,-0.20034686199269583,-0.3189891977292827,-0.009179736155444422,0.00024269740284486876,-0.022714574646753978
1143,2.0,299.74185,2312.7492,0.0,0.0,-0.011429984458922848,0.0,0.0,0.0,-0.1835971792271308,-0.20884135301353682,-0.31057947521180773,-0.013835433622950985,-0.017930334954336283,-0.036968553515012166
1144,2.0,299.82653,2542.7949,0.0,0.0,-0.01143998887929698,0.0,0.0,0.0,-0.22613041920483476,-0.22468182619936977,-0.3221339207396427,0.0003889287149542756,0.006518087830960184,-0.01161227272429209
1145,2.0,300.25582,2506.419,0.0,0.0,-0.01144999329967089,0.0,0.0,0.0,-0.2187206326810458,-0.1934914043336148,-0.3496767435704077,0.0016127393190149785,0.019338641135825282,-0.004170729219843926
1146,2.0,300.44354,2208.8302,0.0,0.0,-0.011459997720045245,0.0,0.0,0.0,-0.18662461853841583,-0.1899547764495768,-0.2948498313219127,-0.00839227394545295,-0.00963127140545748,-0.006796506464287963
1147,2.0,300.45871,2179.3574,0.0,0.0,-0.011470002140419489,0.0,0.0,0.0,-0.1905878551120568,-0.17271318102546382,-0.2991691746431987,-0.014713380384097587,-0.013245213413200787,-0.01960345911571078
1148,2.0,299.96429,2463.5383,0.0,0.0,-0.01148000656079362,0.0,0.0,0.0,-0.21479746001635883,-0.2072859634475318,-0.3267707051847577,0.015992653218351985,0.004982876938046665,-0.03425241604520027
1149,2.0,300.35026,2513.8618,0.0,0.0,-0.011490010981167753,0.0,0.0,0.0,-0.21928269264401679,-0.21674220106578976,-0.32812633249354767,0.012999801199230486,0.01878426667486278,-0.04027183902027106
1150,2.0,300.06478,2473.6342,0.0,0.0,-0.011500015401541885,0.0,0.0,0.0,-0.2087540108549168,-0.21943205584125777,-0.3237369735903517,-0.0023396336936788676,-0.0006751553319626433,-0.03380923767671197
1151,2.0,299.24405,2382.0973,0.0,0.0,-0.011509986912638603,0.0,0.0,0.0,-0.1958850354423478,-0.2128535700970118,-0.3153595028235597,-0.008507119663462343,-0.014360363036007486,-0.026707580508332975
1152,2.0,299.80917999999997,2382.3797,0.0,0.0,-0.011519991333012625,0.0,0.0,0.0,-0.2004602852088898,-0.2058792987312048,-0.3178443669712967,0.004649253703495616,0.01142410711447159,-0.023629552659305275
1153,2.0,300.05836,2468.4626,0.0,0.0,-0.011529995753386757,0.0,0.0,0.0,-0.2112738118661018,-0.2051365560104018,-0.3339406250123737,0.003816433048802616,0.011885153135223288,-0.014679806342034087
1154,2.0,299.46862000000004,2500.0995,0.0,0.0,-0.01154000017376089,0.0,0.0,0.0,-0.2227078427520528,-0.2039303932238628,-0.3333295642745667,0.007977668216534553,-0.02035767284089588,-0.00878603428271407
1155,2.0,299.3869,2370.6581,0.0,0.0,-0.011550004594135244,0.0,0.0,0.0,-0.2175039827559718,-0.1870026621507258,-0.3161142322930457,-0.004276077035390947,-0.03155227475471707,-0.02061620765691128
1156,2.0,299.81491,2294.7372,0.0,0.0,-0.011560009014509376,0.0,0.0,0.0,-0.1995709353311178,-0.18467528746603182,-0.3132965762824647,0.014346618298400986,-0.0045664775538012455,-0.016773667408682087
1157,2.0,300.22303999999997,2509.3019,0.0,0.0,-0.011570013434883508,0.0,0.0,0.0,-0.2257977995945078,-0.1993694404162318,-0.3375978803208167,-0.0003835373327621876,0.014705592543828987,-0.004505089188542685
1158,2.0,300.12551,2643.8269,0.0,0.0,-0.011579984945980004,0.0,0.0,0.0,-0.24504681571923778,-0.21539480134781178,-0.34321575430775764,-0.004313453906404756,0.006531706317604224,-0.007931796560657373
1159,2.0,300.54152,2533.6824,0.0,0.0,-0.011589989366354359,0.0,0.0,0.0,-0.2243686812559648,-0.22145621543352678,-0.3243512868609797,-0.016774637089027784,-0.002754865915134097,-0.03928070107720336
1160,2.0,300.18311,2440.0998,0.0,0.0,-0.01159999378672838,0.0,0.0,0.0,-0.20873010828505778,-0.22078114768690282,-0.3122181438035317,0.0023175898298033078,0.013101944915311288,-0.03559136931034467
1161,2.0,299.98372,2419.6655,0.0,0.0,-0.011609998207102512,0.0,0.0,0.0,-0.2022697978999748,-0.2030412257311088,-0.3302068693213807,0.0018811467373797282,0.015114133970898884,-0.03272658501111247
1162,2.0,299.81635,2446.6833,0.0,0.0,-0.011620002627476644,0.0,0.0,0.0,-0.1997034583116968,-0.22033844858571178,-0.3236887327530907,-0.008246377786079123,-0.010567063702887989,-0.024505998797053775
1163,2.0,300.09015,2434.0087,0.0,0.0,-0.011630007047850777,0.0,0.0,0.0,-0.2032733106665138,-0.1997728355460438,-0.3368317315227037,-0.0074382110261942734,-0.025443392941567375,-0.012148897070002789
1164,2.0,299.60317000000003,2318.1833,0.0,0.0,-0.011640011468225131,0.0,0.0,0.0,-0.2016433458931488,-0.2003868043116378,-0.3026396980907127,0.004498111137754006,-0.00908835133157544,-0.011263641735884889
1165,2.0,299.93255,2178.3259,0.0,0.0,-0.011650015888599263,0.0,0.0,0.0,-0.16868998031090485,-0.18932404852732881,-0.3041426519640427,0.014555458263261885,-0.001232176260331329,-0.019485566453325682
1166,2.0,299.68144,2486.0507,0.0,0.0,-0.01165998739969587,0.0,0.0,0.0,-0.21661468354070476,-0.2272910971943848,-0.3117915452464297,0.009982044607226102,-0.0026373177577829975,-0.03611942763970997
1167,2.0,300.02973,2838.2259,0.0,0.0,-0.011669991820070003,0.0,0.0,0.0,-0.24986885268013578,-0.2516307628815228,-0.36125017740511667,0.0028322779187990674,-0.012128443603484189,-0.02674888666190958
1168,2.0,300.01473,2567.0711,0.0,0.0,-0.011679996240444135,0.0,0.0,0.0,-0.21533841397974682,-0.2416555081645418,-0.3233316026228447,0.003293790034596767,0.014959885894925787,-0.05585256452971895
1169,2.0,300.13358999999997,2204.161,0.0,0.0,-0.011690000660818267,0.0,0.0,0.0,-0.16048256330839586,-0.19517977284274382,-0.3143475902136917,0.0005170104278274566,0.015945981905495885,-0.009970043166416651
1170,2.0,300.58397,2300.467,0.0,0.0,-0.0117000050811924,0.0,0.0,0.0,-0.21040960072331077,-0.18902707505551983,-0.29984783942767773,-0.01014700770168169,0.009615566434207521,-0.02806845442614077
1171,2.0,300.33201,2520.7958,0.0,0.0,-0.011710009501566643,0.0,0.0,0.0,-0.2153254646434688,-0.2113413044552628,-0.33959219969764065,-0.011297594733485789,-0.015334505735147885,-0.006139529892899425
1172,2.0,300.26729,2446.4239,0.0,0.0,-0.011720013921940775,0.0,0.0,0.0,-0.2258186117515618,-0.2026752904574938,-0.3151578761861607,0.003168485245080147,-0.003561949004036997,-0.02248616375621158
1173,2.0,300.0601,2433.3555,0.0,0.0,-0.011729985433037493,0.0,0.0,0.0,-0.1967976799399188,-0.2061144436819118,-0.3367671874913337,0.008586448634991502,0.006775897261228994,0.0026146682743226676
1174,2.0,299.32732999999996,2460.5643,0.0,0.0,-0.011739989853411625,0.0,0.0,0.0,-0.2152193773579988,-0.2031716411514798,-0.3295590883999497,0.007100416747606572,-0.01949998297574848,-0.013410431948006587
1175,2.0,299.68396,2638.6286,0.0,0.0,-0.011749994273785758,0.0,0.0,0.0,-0.2269097098567448,-0.2293852217060588,-0.3457822864135547,-0.004026097495269887,-0.022696440509714276,-0.006226509105333604
1176,2.0,299.94739,2775.1402,0.0,0.0,-0.011759998694159779,0.0,0.0,0.0,-0.2615183410673507,-0.23157416616209078,-0.3504808284522647,-0.00019086507020691583,0.006298548552993344,-0.005325885705623995
1177,2.0,299.11345,2602.6254,0.0,0.0,-0.011770003114534022,0.0,0.0,0.0,-0.22833968945787278,-0.2193733481304638,-0.3434201065879257,0.008739974567618332,0.008383229979035383,-0.017132381248834382
1178,2.0,299.37982,2357.5425,0.0,0.0,-0.011780007534908266,0.0,0.0,0.0,-0.2026630199987828,-0.20552417483615681,-0.3084468674613357,-0.006449977969838264,-0.0024164832422133276,-0.030127713001873772
1179,2.0,300.1324,2417.4675,0.0,0.0,-0.011790011955282398,0.0,0.0,0.0,-0.19807478036595882,-0.2078878745369358,-0.32888710093362966,-0.015430009623323382,-0.0026491690349276275,-0.04050320049510466
1180,2.0,300.11201,2517.1906,0.0,0.0,-0.01180001637565653,0.0,0.0,0.0,-0.2120092997161888,-0.2199215468320668,-0.3332322416024617,-0.004254863833947366,0.011904776749909989,-0.026502033606297076
1181,2.0,300.42068,2281.1892,0.0,0.0,-0.011809987886753248,0.0,0.0,0.0,-0.18371276066603784,-0.1962667368875188,-0.3134450579521187,-0.004483459439982996,0.014144669447470185,-0.017734669267275585
1182,2.0,300.37866,2187.8972,0.0,0.0,-0.01181999230712738,0.0,0.0,0.0,-0.17692980105161182,-0.18653205814178084,-0.30160426794602374,-0.004022508867390716,-0.002273532600880198,-0.005092018463293095
1183,2.0,299.67897,2425.3405,0.0,0.0,-0.011829996727501402,0.0,0.0,0.0,-0.19914723466930181,-0.2087748128794698,-0.32932089356644173,-0.01175056109794009,-0.007779524930329333,-0.020742505228875878
1184,2.0,299.65198,2639.355,0.0,0.0,-0.011840001147875534,0.0,0.0,0.0,-0.22831956631088676,-0.23729517887671078,-0.3366832599855507,-0.0014569921395189284,0.01870456948824728,-0.03437319140411987
1185,2.0,299.96039,2651.5318,0.0,0.0,-0.011850005568249666,0.0,0.0,0.0,-0.2167332945974108,-0.23205026198657777,-0.3572159119994657,-0.0013681445952253585,0.013079517637597887,-0.032809449617540565
1186,2.0,300.2825,2638.434,0.0,0.0,-0.01186000998862402,0.0,0.0,0.0,-0.2292687790045668,-0.2266795602290308,-0.3460697252019227,-0.01032929342117189,-0.0016222006431487386,-0.023563880880573977
1187,2.0,300.24314,2458.1644,0.0,0.0,-0.011870014408998153,0.0,0.0,0.0,-0.22618169979239577,-0.20262280410231379,-0.3184160933402217,-0.005120494540128464,-0.013567650873272887,-0.028041631669493576
1188,2.0,299.81937,2357.8285,0.0,0.0,-0.011879985920094649,0.0,0.0,0.0,-0.22635065924657077,-0.18204286370623182,-0.3083274762020527,0.01196719092956979,0.000994579041732309,-0.006920046070805373
1189,2.0,299.68087,2463.7087,0.0,0.0,-0.011889990340468781,0.0,0.0,0.0,-0.2241964692689688,-0.2035753098588188,-0.3211341468659727,0.018369858529713883,0.004204820627408486,-0.014873675536667486
1190,2.0,299.94723,2541.1093,0.0,0.0,-0.011899994760843136,0.0,0.0,0.0,-0.23224981146127177,-0.20793802028438482,-0.3322459439551217,0.0035862163439319967,-0.012996236585378686,-0.0061214059896857334
1191,2.0,299.73662,2478.9594,0.0,0.0,-0.011909999181217157,0.0,0.0,0.0,-0.21075559523495782,-0.20974740125295682,-0.3330387716283677,0.007395753820504073,-0.012032876893802488,-0.03817895979296996
1192,2.0,300.09976,2528.1748,0.0,0.0,-0.01192000360159129,0.0,0.0,0.0,-0.22877545792837975,-0.2146395145907708,-0.3250870482885937,0.0024619912426296175,0.016180219997363385,-0.007905279197590312
1193,2.0,299.55936,2550.9858,0.0,0.0,-0.011930008021965421,0.0,0.0,0.0,-0.2228693345529908,-0.21354721071796878,-0.3390194600786157,-0.004980761170512856,0.013388914568882986,-0.012851922413385987
1194,2.0,300.46173,2601.7077,0.0,0.0,-0.011940012442339554,0.0,0.0,0.0,-0.2303230049386108,-0.2187101556750118,-0.3418210155451077,-0.023414830777613877,0.006468905785681294,-0.0019368746822796482
1195,2.0,301.21587999999997,2587.6042,0.0,0.0,-0.011949983953436272,0.0,0.0,0.0,-0.21851433496068579,-0.2251447497725568,-0.34290797958988267,-0.014960028763189887,-0.01140672176925579,-0.03237221193438857
1196,2.0,300.88513,2456.8032,0.0,0.0,-0.011959988373810404,0.0,0.0,0.0,-0.2103753022074258,-0.2207669723180038,-0.31566455189866566,8.262564253776602e-05,0.009420164192172821,-0.03400058691834667
1197,2.0,299.70447,2247.5623,0.0,0.0,-0.011969992794184647,0.0,0.0,0.0,-0.16775581438120984,-0.2055617765473678,-0.3098852165082897,0.017246162142313684,-0.0024663193404317676,-0.05211797797364395
1198,2.0,300.17519,2375.867,0.0,0.0,-0.01197999721455878,0.0,0.0,0.0,-0.2042411266320298,-0.2036509692437858,-0.3143121568576947,0.01140532145761759,-0.01318914319241709,-0.03716898958354367
1199,2.0,299.48006000000004,2501.7808,0.0,0.0,-0.011990001634932912,0.0,0.0,0.0,-0.2193641174220528,-0.2161873453110298,-0.32492743100034066,0.006208117906743534,-0.01965027228358088,-0.028314953857468374
1200,2.0,299.72274,2354.5588,0.0,0.0,-0.012000006055307044,0.0,0.0,0.0,-0.2000991730057508,-0.20568026601406178,-0.3099476631119527,0.007677720754357043,0.01084831051989489,-0.02026297144679958
1201,2.0,299.69969,2237.6873,0.0,0.0,-0.012010010475681177,0.0,0.0,0.0,-0.17431277869333184,-0.19482952268067683,-0.31105876277410965,0.004763227114493915,0.01102797901437679,-0.012161372205233988
1202,2.0,300.09872,2559.248,0.0,0.0,-0.01202001489605542,0.0,0.0,0.0,-0.21159599500039883,-0.22611077228539578,-0.3402407101591437,-0.009348989148173392,-0.0045826438578217355,-0.02265359928223618
1203,2.0,300.28721,2766.8186,0.0,0.0,-0.012029986407152027,0.0,0.0,0.0,-0.2292347844637118,-0.24276425708646673,-0.36904471525687765,-0.013828153420982488,-0.01374565054484009,-0.016917166927594384
1204,2.0,300.56473,2646.8243,0.0,0.0,-0.01203999082752627,0.0,0.0,0.0,-0.24303600063078576,-0.2180040926078288,-0.3435283824936117,-0.016856386107095785,0.01075875339655629,-0.01846479499783338
1205,2.0,300.16737,2498.0278,0.0,0.0,-0.012049995247900402,0.0,0.0,0.0,-0.2112530402390518,-0.2150088037222168,-0.33307624161706567,-0.00979089335466094,0.013164471565732186,-0.003023441735665467
1206,2.0,300.28887000000003,2518.2554,0.0,0.0,-0.012059999668274535,0.0,0.0,0.0,-0.2316264701322528,-0.2023573325761138,-0.3315029580542947,-0.009205103783623011,0.009038119153892911,-0.01047502310355429
1207,2.0,300.36017999999996,2680.3464,0.0,0.0,-0.012070004088648556,0.0,0.0,0.0,-0.23808263632442678,-0.23371663283603578,-0.34295911832242965,0.002378027665143058,0.0030701448645747073,-0.014055599697429687
1208,2.0,299.72896000000003,2644.3213,0.0,0.0,-0.0120800085090228,0.0,0.0,0.0,-0.24275252365030878,-0.22319403054753578,-0.33786107203429167,0.0024272290634988576,0.011205927010188889,-0.019382076127861983
1209,2.0,299.5329,2350.0729,0.0,0.0,-0.012090012929397043,0.0,0.0,0.0,-0.19303485410355684,-0.1987089026760418,-0.32261971336758666,0.008840575914396912,-0.005334830981481824,-0.02643232301266718
1210,2.0,299.58078,2236.4081,0.0,0.0,-0.012099984440493539,0.0,0.0,0.0,-0.19043280758175482,-0.18990185439685384,-0.29947754717863273,0.0010557963703739892,-0.015445372521339587,-0.016339921385374684
1211,2.0,299.58542,2530.5961,0.0,0.0,-0.012109988860867671,0.0,0.0,0.0,-0.20337625687667382,-0.21869697329121077,-0.34716480537999866,0.002958860214041767,-0.011322831753726488,-0.03146252916685987
1212,2.0,299.63075,2721.6448,0.0,0.0,-0.012119993281242025,0.0,0.0,0.0,-0.24821150988906876,-0.23154600794181177,-0.3475545317659617,0.0016327849523683283,0.015688288087063483,-0.004083063125166956
1213,2.0,300.01945,2544.2495,0.0,0.0,-0.012129997701616158,0.0,0.0,0.0,-0.2116372241469678,-0.21927126318288878,-0.3424798206276267,0.00978175383875894,0.00954428064197216,-0.024467401060994477
1214,2.0,299.98148,2472.4278,0.0,0.0,-0.012140002121990179,0.0,0.0,0.0,-0.1950437034868148,-0.23108929559173777,-0.32542331559928067,-0.01009660529798236,-0.00977307069070198,-0.02280588975901608
1215,2.0,300.35077,2588.4274,0.0,0.0,-0.012150006542364311,0.0,0.0,0.0,-0.2136250080606468,-0.23438015966402076,-0.3388121389756547,0.0038415067331271963,-0.008923702952600912,-0.036523905933878865
1216,2.0,300.31037000000003,2682.6564,0.0,0.0,-0.012160010962738443,0.0,0.0,0.0,-0.24410073396836676,-0.23486456413932777,-0.33649527169449767,-0.007129077438610164,0.0045458882104442355,-0.017444126893851285
1217,2.0,299.76828,2581.2796,0.0,0.0,-0.012170015383112798,0.0,0.0,0.0,-0.2262733583964418,-0.2168411753355578,-0.3415300101163877,0.0026343278593879177,0.019060323624857482,-0.02338917629833198
1218,2.0,300.56096,2453.8709,0.0,0.0,-0.012179986894209294,0.0,0.0,0.0,-0.2158588597611108,-0.2061243937978938,-0.3239322268846217,-0.020486065814067284,0.007327468869764874,-0.015380392792426586
1219,2.0,300.04767999999996,2411.7298,0.0,0.0,-0.012189991314583426,0.0,0.0,0.0,-0.2039810861263658,-0.2112070184195098,-0.31791755402601973,-0.0031676782927005072,0.01119216099433029,-0.03244336539616087
1220,2.0,299.84135,2642.7727,0.0,0.0,-0.012199995734957558,0.0,0.0,0.0,-0.23525795849065279,-0.22257505632644778,-0.34550389594857966,0.007594266942995794,0.007732358644799382,-0.025692426511395076
1221,2.0,300.4449,2794.8908,0.0,0.0,-0.012210000155331913,0.0,0.0,0.0,-0.26942178303985975,-0.22942237758722578,-0.3507328642821387,0.014200845046264288,-0.0010663357926141489,-0.024424336918494376
1222,2.0,300.34201,2630.8139,0.0,0.0,-0.012220004575705934,0.0,0.0,0.0,-0.22702737859085775,-0.2190396646075318,-0.3536346909785267,0.0033588946972470967,-0.026727843483832774,-0.004974023766622925
1223,2.0,300.43285,2546.8564,0.0,0.0,-0.012230008996080066,0.0,0.0,0.0,-0.2053325287122428,-0.2288343885541958,-0.34001382319675166,0.012280838445024388,-0.017603951898374784,-0.016344814370107586
1224,2.0,299.72027,2646.8790000000004,0.0,0.0,-0.012240013416454198,0.0,0.0,0.0,-0.23256189249207176,-0.2204340689976488,-0.3515891416766466,0.008199503316577973,0.003551505536581307,-0.0015798934997983485
1225,2.0,299.29946,2731.2543,0.0,0.0,-0.012249984927550917,0.0,0.0,0.0,-0.24550830047728278,-0.2300048646722128,-0.35471994263063267,-0.002091093779299888,0.0012741844949022189,-0.019928882623827582
1226,2.0,299.56592,2634.744,0.0,0.0,-0.012259989347925049,0.0,0.0,0.0,-0.23884502596466875,-0.22755283996021677,-0.3344985205174337,-0.0060378654441159245,-0.011835364051809488,-0.014518875881651487
1227,2.0,300.21841,2406.4922,0.0,0.0,-0.012269993768299181,0.0,0.0,0.0,-0.2033953971710628,-0.20740466569674681,-0.3207134859544567,-0.0014596504011562786,-0.008974458473960091,-0.040823392592955164
1228,2.0,300.30361,2369.1629,0.0,0.0,-0.012279998188673424,0.0,0.0,0.0,-0.20048747070907283,-0.1985603804763838,-0.3211185225494307,0.01086274832056979,-0.0028096854813193673,-0.011445441095327089
1229,2.0,300.99287000000004,2488.5136,0.0,0.0,-0.012290002609047557,0.0,0.0,0.0,-0.20965549946888679,-0.2042827205486348,-0.34250777619788564,-0.004059851693201166,0.006717555029746063,-0.02703295335394477
1230,2.0,300.69428,2624.3932,0.0,0.0,-0.012300007029421689,0.0,0.0,0.0,-0.23326896880935477,-0.21590480052064479,-0.3485762121067937,-0.006595096561085354,-0.008831661441342122,-0.01098699102133159
1231,2.0,300.53312,2668.5355,0.0,0.0,-0.012310011449795821,0.0,0.0,0.0,-0.22161448509914677,-0.24031273899952077,-0.34924094470239764,-0.005784599933920564,0.012647648153475688,-0.03700941789154517
1232,2.0,300.506,2619.6994,0.0,0.0,-0.012320015870169954,0.0,0.0,0.0,-0.23133405628589376,-0.2355473528517138,-0.3294417945683737,-0.000931914082672759,0.011499208198633488,-0.026524141710228974
1233,2.0,299.72874,2577.7716,0.0,0.0,-0.01232998738126645,0.0,0.0,0.0,-0.2188002944039078,-0.22104797696823678,-0.34372992807100267,-0.006962040525174904,0.008248873319750412,-0.021913949000738377
1234,2.0,299.80021,2629.2839,0.0,0.0,-0.012339991801640804,0.0,0.0,0.0,-0.2131731491785518,-0.23124587312969075,-0.3548176402052747,-0.006722522792336344,-0.015082825556058985,-0.020985439033101582
1235,2.0,299.7265,2579.2683,0.0,0.0,-0.012349996222015047,0.0,0.0,0.0,-0.2111992974537478,-0.2151457140757288,-0.3576881473410716,-0.0029326213934271973,-0.017447240611408586,0.002154400632297788
1236,2.0,299.80432,2467.705,0.0,0.0,-0.01236000064238918,0.0,0.0,0.0,-0.2088223647066628,-0.2130176659507068,-0.32828067074877965,0.014647942666139386,-0.008681272227049862,-0.015850168976039886
1237,2.0,300.39742,2446.5565,0.0,0.0,-0.012370005062763312,0.0,0.0,0.0,-0.2281756645316848,-0.19671682258193882,-0.3187995882380697,0.0016356401898251184,0.0026807868963480675,-0.015196242692752384
1238,2.0,300.50026,2523.9108,0.0,0.0,-0.012380009483137333,0.0,0.0,0.0,-0.23674251174216676,-0.2081488371001908,-0.3223145224374667,0.0027025501912709376,-0.008037447236659282,-0.042727228735849165
1239,2.0,300.07557,2659.4761,0.0,0.0,-0.012390013903511576,0.0,0.0,0.0,-0.2224656861106538,-0.23691968865465277,-0.34902896264897665,-0.007981160990954262,0.008151675480057732,-0.03767813863954276
1240,2.0,300.11771,2647.5988,0.0,0.0,-0.012399985414608072,0.0,0.0,0.0,-0.2151960118106928,-0.2301986284888358,-0.35940927422593366,0.0025803672253124177,0.006220497999115354,-0.03561657390658216
1241,2.0,300.17332000000005,2514.5343,0.0,0.0,-0.012409989834982316,0.0,0.0,0.0,-0.20877276611426782,-0.2139565434933668,-0.3416263195383927,-0.002035983309010908,-0.001852425454020158,-0.007764449390041492
1242,2.0,299.53709,2481.7521,0.0,0.0,-0.012419994255356448,0.0,0.0,0.0,-0.2202097556905108,-0.2039524010160348,-0.3302285022110157,-0.008332931636121322,-0.01321921645538509,-0.015680298610024984
1243,2.0,300.10166,2635.8319,0.0,0.0,-0.012429998675730802,0.0,0.0,0.0,-0.22769271913652178,-0.2302225513236968,-0.3433118002847367,-0.0059698025977986445,-0.002665554200969717,-0.016384595582283685
1244,2.0,299.16055,2674.6139,0.0,0.0,-0.012440003096104935,0.0,0.0,0.0,-0.24420391322604976,-0.23128680843373076,-0.3375250985661337,-0.006462163112890843,0.012673417130018887,-0.009465774834824242
1245,2.0,299.65806000000003,2721.6672,0.0,0.0,-0.012450007516478956,0.0,0.0,0.0,-0.2197433161394768,-0.23863494882143577,-0.36894060380910265,-0.0014731161910102486,0.013051630968345688,-0.028459303493214575
1246,2.0,299.98162,2613.9927,0.0,0.0,-0.012460011936853088,0.0,0.0,0.0,-0.21545433992368782,-0.22871283907219978,-0.35042132027389167,0.006365619832762764,-0.009132399137272621,-0.024017364002579276
1247,2.0,300.06277,2548.4314,0.0,0.0,-0.01247001635722722,0.0,0.0,0.0,-0.2145760952670118,-0.21961809869211876,-0.3404652970438087,-0.0015035833042921186,-0.012302740859185987,-0.026404264090897977
1248,2.0,299.57908,2613.1279,0.0,0.0,-0.012479987868323938,0.0,0.0,0.0,-0.24090372725284678,-0.2238503025048048,-0.3295715919061837,0.005290312521113195,-0.013673679390237087,-0.025155362415140978
1249,2.0,300.51981,2587.5701,0.0,0.0,-0.01248999228869807,0.0,0.0,0.0,-0.24301766080397574,-0.21942481110304277,-0.3241142370000847,0.0017473676306517584,-0.012578772477928189,-0.03139158950085867
1250,2.0,300.7672,2592.6591,0.0,0.0,-0.012499996709072203,0.0,0.0,0.0,-0.23549290079133978,-0.22197499948472676,-0.33063570716120366,0.0026129395683270576,-0.008802381958502461,-0.03467565162522036
1251,2.0,300.40055,2597.2286,0.0,0.0,-0.012510001129446335,0.0,0.0,0.0,-0.20765208110616482,-0.2246688971280938,-0.35717166336759865,-0.01215184866754409,0.0041259137758709865,-0.04266806506251016
1252,2.0,299.72767999999996,2652.349,0.0,0.0,-0.01252000554982069,0.0,0.0,0.0,-0.2040523074758948,-0.2332384902463468,-0.3689570792557287,0.002694835305009537,0.02511814776546818,-0.01967723993499238
1253,2.0,299.69091000000003,2705.8638,0.0,0.0,-0.012530009970194711,0.0,0.0,0.0,-0.23230171013139378,-0.23091552319958777,-0.35929778631743065,0.0023777338226140575,0.011582296733333688,-0.007600431860579223
1254,2.0,299.52948,2725.3716,0.0,0.0,-0.012540014390568843,0.0,0.0,0.0,-0.24060511231587575,-0.23457479487572977,-0.3532650066795417,0.0030513902131737674,-0.026934741048251973,-0.004690381322404595
1255,2.0,300.21837,2594.3261,0.0,0.0,-0.01254998590166534,0.0,0.0,0.0,-0.24329613232895878,-0.22040900119017479,-0.3249052104256477,0.0030604794718708072,-0.027810043226637576,-0.00975101821420057
1256,2.0,299.45397,2573.1592,0.0,0.0,-0.012559990322039694,0.0,0.0,0.0,-0.2178784191979258,-0.22737955392811476,-0.3369181820212357,0.00991679910281187,-0.010730772495044791,-0.02019803731414108
1257,2.0,299.03519,2655.1556,0.0,0.0,-0.012569994742413826,0.0,0.0,0.0,-0.21949631616259982,-0.22511641929976078,-0.3624882677023067,-0.006918954699122664,-0.002708050720763797,-0.03079643881612187
1258,2.0,298.93962999999997,2675.407,0.0,0.0,-0.012579999162787958,0.0,0.0,0.0,-0.22072597621895776,-0.2312910438191488,-0.36123989291660163,-0.013996999391146289,-0.01027445632575989,-0.03677043880245977
1259,2.0,300.00142,2618.8887,0.0,0.0,-0.012590003583162201,0.0,0.0,0.0,-0.23128276556583177,-0.22289579051310177,-0.34189821507022666,-0.010735917779052591,-0.000987004855379795,-0.023949795419660774
1260,2.0,299.79082,2644.9016,0.0,0.0,-0.012600008003536334,0.0,0.0,0.0,-0.24087116139463277,-0.2163373265908318,-0.34677554508908165,0.01002637845342651,0.007828224161935573,-0.01797565155180868
1261,2.0,299.99985,2721.4452,0.0,0.0,-0.012610012423910466,0.0,0.0,0.0,-0.25118864133288876,-0.23082456373811078,-0.3452381913748567,-0.0016479168293617285,-0.0006577755596223934,-0.013989579360663985
1262,2.0,299.99452,2642.8569,0.0,0.0,-0.012619983935007184,0.0,0.0,0.0,-0.21484411005096282,-0.23066312259967778,-0.35785528294506663,0.002265275524490288,-0.01071943523967589,-0.02090512781692548
1263,2.0,300.13592,2645.841,0.0,0.0,-0.012629988355381094,0.0,0.0,0.0,-0.2035826153920398,-0.2285458554557198,-0.37214111636996866,-0.0016540156830386385,-0.003425224480593337,-0.03397876049794257
1264,2.0,300.11508,2606.3626,0.0,0.0,-0.012639992775755227,0.0,0.0,0.0,-0.2020628314345488,-0.22808147280238877,-0.36212485542144063,0.01130469052393609,0.02280160371109308,-0.017724737389795384
1265,2.0,300.32057000000003,2507.9499,0.0,0.0,-0.012649997196129581,0.0,0.0,0.0,-0.2036710113307638,-0.22038080243989178,-0.3383023221878397,0.0029005923551161774,0.015288288358336587,-0.014438496777718687
1266,2.0,299.75183,2568.6083,0.0,0.0,-0.012660001616503824,0.0,0.0,0.0,-0.2311318014334328,-0.2317492355143688,-0.3179117379704457,-0.0007184738306353465,0.0017833724597051581,-0.01904870569921088
1267,2.0,299.82011,2649.1337,0.0,0.0,-0.012670006036877957,0.0,0.0,0.0,-0.24992540216821676,-0.21612309512218877,-0.33922199864110464,-0.0077001748831980925,-0.0049745679832516355,-0.03269356420360357
1268,2.0,299.41727000000003,2667.7571,0.0,0.0,-0.012680010457252089,0.0,0.0,0.0,-0.22642356259126578,-0.23366184640312876,-0.35084611524581566,0.006419700739625134,0.005847638376966975,-0.03253910030535917
1269,2.0,299.6015,2779.6289,0.0,0.0,-0.01269001487762611,0.0,0.0,0.0,-0.21761581516950879,-0.24771134937470674,-0.37961059345714865,0.007588634488339912,0.004734270959761165,-0.02711672887221277
1270,2.0,299.34116,2765.5035,0.0,0.0,-0.012699986388722717,0.0,0.0,0.0,-0.23582589530420378,-0.24179610674841778,-0.3630220275899847,-0.01200610277316009,-0.005658848605084875,-0.03194816372778827
1271,2.0,299.42034,2651.5368,0.0,0.0,-0.01270999080909685,0.0,0.0,0.0,-0.23178732358562779,-0.22122622792582877,-0.3529874166821456,-0.004566892581042206,0.005572605012223295,-0.009306318754662151
1272,2.0,299.88968,2555.8454,0.0,0.0,-0.012719995229471093,0.0,0.0,0.0,-0.24378072932178477,-0.20792796884339282,-0.32520450424018565,0.016858931391346983,0.016599212085964685,-0.011876074414327288
1273,2.0,300.34443,2670.0973,0.0,0.0,-0.012729999649845225,0.0,0.0,0.0,-0.24175619482697877,-0.22029840494175978,-0.34958829696917865,0.0087369365398435,0.010493341652112189,-0.000950799463601601
1274,2.0,299.75996000000004,2694.6022,0.0,0.0,-0.01274000407021958,0.0,0.0,0.0,-0.2136079753264658,-0.24454343306955778,-0.36094035592203966,-0.006102891275908474,-0.02531021844117408,-0.035733592134130965
1275,2.0,300.25957,2722.8147,0.0,0.0,-0.012750008490593712,0.0,0.0,0.0,-0.2167548565595388,-0.23864374383230377,-0.37226905946009564,-0.016980592330853982,-0.020302749619225378,-0.019176752140848085
1276,2.0,299.69507999999996,2734.7683,0.0,0.0,-0.012760012910967733,0.0,0.0,0.0,-0.2346355594842268,-0.2266201128456638,-0.37004559357315664,-0.007021714065964224,0.008144755995124832,-0.03068721349509217
1277,2.0,299.92071,2730.8812,0.0,0.0,-0.01276998442206434,0.0,0.0,0.0,-0.24803556914170477,-0.22668823364988677,-0.35539589190484366,-0.00958929123791436,0.014707641335531187,-0.011518066809494689
1278,2.0,300.17132000000004,2645.9381,0.0,0.0,-0.012779988842438583,0.0,0.0,0.0,-0.25161598969506477,-0.2233771653706098,-0.32930595825996767,-0.0023612329434105476,0.012487435074163888,-0.02139092145811958
1279,2.0,300.54846000000003,2674.8723,0.0,0.0,-0.012789993262812716,0.0,0.0,0.0,-0.24576184604980575,-0.22107341967824778,-0.34625912191061464,-0.005767541868487064,0.014864879512549386,-0.019692808522778882
1280,2.0,300.36848,2687.3924,0.0,0.0,-0.012799997683186848,0.0,0.0,0.0,-0.22100521781401677,-0.2283039825243488,-0.36759098507340565,0.008016973707788703,0.010531352716363589,-0.026292253345343373
1281,2.0,300.35761,2726.0922,0.0,0.0,-0.01281000210356098,0.0,0.0,0.0,-0.22107355140076082,-0.2352040839828358,-0.3723863228941687,0.013851495663536186,-0.0033656932001180566,-0.022424891509414478
1282,2.0,299.36926,2779.0613,0.0,0.0,-0.012820006523935112,0.0,0.0,0.0,-0.22945166051511576,-0.24589561532800777,-0.36941796619621464,0.004625186581820376,-0.017341478579220682,-0.01969585232607928
1283,2.0,299.13706,2741.7761,0.0,0.0,-0.012830010944309467,0.0,0.0,0.0,-0.24202285185579578,-0.24328019390488578,-0.3481284264901007,-0.00941486925112525,-0.010555358637732791,-0.02969760454642537
1284,2.0,299.14744,2686.4815,0.0,0.0,-0.012840015364683488,0.0,0.0,0.0,-0.24979375058272374,-0.21847067401387682,-0.34835886996034365,-0.0018734680241468981,0.015774862202107685,-0.004770959935282085
1285,2.0,299.98566,2795.3586,0.0,0.0,-0.012849986875780206,0.0,0.0,0.0,-0.24316110662063276,-0.24404903794826477,-0.36250905959435864,-0.00971874396936535,0.015304394981926185,-0.027194418810380178
1286,2.0,299.96012,2733.4824,0.0,0.0,-0.012859991296154116,0.0,0.0,0.0,-0.2110995429814028,-0.24613099332623775,-0.37367984810432964,0.0003494983102277976,-0.013044434866135489,-0.028584707378590975
1287,2.0,300.23431,2506.8724,0.0,0.0,-0.01286999571652847,0.0,0.0,0.0,-0.19896731184904481,-0.2134515599085288,-0.34960774123859767,-0.004712688833956175,-0.019019721680100382,-0.03144372223175377
1288,2.0,300.22531000000004,2484.6182,0.0,0.0,-0.012880000136902603,0.0,0.0,0.0,-0.19863053791330781,-0.2101645867166298,-0.3464667773861087,0.01048456893274639,-0.004438535476924346,-0.024951559316527178
1289,2.0,300.06901,2626.6479999999997,0.0,0.0,-0.012890004557276735,0.0,0.0,0.0,-0.25707502659632975,-0.2040462178427938,-0.3373141702928167,0.0006662882587475314,0.001063419760151359,-0.017484889945374282
1290,2.0,299.93045,2772.3897,0.0,0.0,-0.012900008977650979,0.0,0.0,0.0,-0.25832859935504776,-0.2265796537691708,-0.3578289789724707,0.004149692121267726,0.005283455553711464,-0.02372319520704708
1291,2.0,299.74401,2778.7088,0.0,0.0,-0.01291001339802511,0.0,0.0,0.0,-0.24449667157744276,-0.23705939557844075,-0.36310204395038165,0.00036270889277908064,-0.003282119825245007,-0.03097656327314877
1292,2.0,299.79361,2780.6317,0.0,0.0,-0.012919984909121829,0.0,0.0,0.0,-0.2192744143906998,-0.23922957464262076,-0.38673859512812764,0.0008654483008980972,0.020611113035408482,-0.026782388763215974
1293,2.0,300.10327,2762.077,0.0,0.0,-0.012929989329495961,0.0,0.0,0.0,-0.2356834627376468,-0.2331207607172278,-0.37079822561493564,0.0006270081899383904,-0.0011801065535924488,-0.018638528886479586
1294,2.0,299.34693,2700.8848,0.0,0.0,-0.012939993749869871,0.0,0.0,0.0,-0.22436573269817378,-0.2338024145895018,-0.36283338068636667,-0.007264552726005533,-0.016031516425937486,-0.03255902181557527
1295,2.0,299.41523,2667.6292,0.0,0.0,-0.012949998170244004,0.0,0.0,0.0,-0.24674630971446476,-0.2278567541952108,-0.33628959205669867,0.005037967548633685,-0.016406774613722586,-0.025166918532531477
1296,2.0,299.96191,2533.8775,0.0,0.0,-0.012960002590618358,0.0,0.0,0.0,-0.22999414448615477,-0.2107643598483228,-0.32947698474434667,-0.007731737522488082,0.015866790330680284,-0.017421662125884183
1297,2.0,299.46654,2488.2133,0.0,0.0,-0.012970007010992601,0.0,0.0,0.0,-0.20382752807371082,-0.2148485886164048,-0.33767861608878463,0.0043561401066175565,0.010651829166503689,-0.03676209266138606
1298,2.0,299.35691,2733.143,0.0,0.0,-0.012980011431366734,0.0,0.0,0.0,-0.22975605097765678,-0.23905247879014274,-0.3619987057839907,-0.013684496848304686,0.0032010392482679766,-0.03768906248887086
1299,2.0,299.57295,2824.103,0.0,0.0,-0.012990015851740866,0.0,0.0,0.0,-0.2294350736109788,-0.25213364903865376,-0.37688808163095766,0.013640874404999488,-0.015727773430210385,-0.03732473422991446
1300,2.0,299.78033999999997,2676.4605,0.0,0.0,-0.012999987362837584,0.0,0.0,0.0,-0.2301380158678538,-0.23864728007515276,-0.3447918648383077,0.02296716472443268,0.002008822126830308,-0.01919794021368918
1301,2.0,300.14547999999996,2704.3387,0.0,0.0,-0.013009991783211494,0.0,0.0,0.0,-0.24815590272358076,-0.23810119906625876,-0.3357943458053217,0.021944645412517876,-0.006999505548947414,-0.024383446197458775
1302,2.0,300.59339,2793.2683,0.0,0.0,-0.013019996203585738,0.0,0.0,0.0,-0.24425187035328277,-0.24104704134699076,-0.36378489345777365,-0.001950391235963628,-0.009221081420474881,-0.013649712985621789
1303,2.0,300.35402999999997,2708.472,0.0,0.0,-0.01303000062395987,0.0,0.0,0.0,-0.2166467529063698,-0.23787768622669977,-0.3687834183210897,-0.004069493781152766,0.0006002075018783686,-0.03020133068788927
1304,2.0,300.19751,2743.7839,0.0,0.0,-0.013040005044334002,0.0,0.0,0.0,-0.22204646401427977,-0.23564305432365876,-0.3763522648455766,0.0012319803990869988,0.033938296355199064,-0.027007782194960576
1305,2.0,300.13117,2723.0608,0.0,0.0,-0.013050009464708356,0.0,0.0,0.0,-0.23376616050092378,-0.22284359800045078,-0.37113274000294966,-0.01225034873626529,0.013060338839705088,-0.024059702658007776
1306,2.0,299.48522,2613.4818,0.0,0.0,-0.013060013885082489,0.0,0.0,0.0,-0.23684353277713674,-0.21898120007676178,-0.3386084757055547,-0.017215944997831484,-0.01912494364998498,-0.03258325875796727
1307,2.0,299.57397000000003,2731.7270000000003,0.0,0.0,-0.013069985396178985,0.0,0.0,0.0,-0.24915750044743076,-0.23965078270919077,-0.3415685034876867,-0.0013402066555180988,-0.03592224815699987,-0.015324061153117087
1308,2.0,299.68889,2794.1418,0.0,0.0,-0.013079989816553117,0.0,0.0,0.0,-0.25312304723129975,-0.23340347776012976,-0.3628228327528257,0.01202497354302249,-0.008365022989313492,-0.01963947407726518
1309,2.0,300.01724,2734.8791,0.0,0.0,-0.01308999423692736,0.0,0.0,0.0,-0.23305191037293277,-0.23454554234534275,-0.36373751388309766,0.017287232208616984,0.0017588811915380585,-0.003368355920055847
1310,2.0,300.59867,2702.8186,0.0,0.0,-0.013099998657301493,0.0,0.0,0.0,-0.22410351370479478,-0.23508877612145576,-0.36239708532580767,-0.009589714877781172,0.0033982165018278565,-0.02657788753528327
1311,2.0,300.88106,2801.8811,0.0,0.0,-0.013110003077675625,0.0,0.0,0.0,-0.2332392299189198,-0.24860949426334675,-0.3698531571141646,0.006323796617660134,0.0053502316737267545,-0.017716497639982183
1312,2.0,300.52864,2881.5261,0.0,0.0,-0.013120007498049757,0.0,0.0,0.0,-0.2565631630433127,-0.24300446828767377,-0.37634435136229566,0.003295764656391647,0.02114105297020948,-0.019618674079212382
1313,2.0,300.30273,2859.2975,0.0,0.0,-0.01313001191842389,0.0,0.0,0.0,-0.25649834543441574,-0.23790265270916378,-0.37475404519784467,0.011477349354226188,-0.002061349012014308,-0.026073340661238377
1314,2.0,300.08509,2729.6892,0.0,0.0,-0.013140016338798133,0.0,0.0,0.0,-0.23691016410371277,-0.23438141609414476,-0.3584657863953187,-0.004872387384867195,-0.017668384472233782,-0.03193490433697967
1315,2.0,300.07721000000004,2685.6707,0.0,0.0,-0.01314998784989474,0.0,0.0,0.0,-0.2160737802398218,-0.2348517667905648,-0.36545129470473464,-0.006334844184825443,-0.016628914499396085,-0.030338996925975872
1316,2.0,300.10026,2710.9059,0.0,0.0,-0.013159992270268983,0.0,0.0,0.0,-0.2128464469488088,-0.24369289067061578,-0.36750835452775066,-0.011899737857162687,0.013093794331506887,-0.029692532216424768
1317,2.0,299.5897,2732.9563,0.0,0.0,-0.013169996690642893,0.0,0.0,0.0,-0.2227862987072958,-0.24262222981994977,-0.36534192448894065,-0.005514918454880074,0.009429297729899231,-0.027489531955005576
1318,2.0,300.2372,2754.1906,0.0,0.0,-0.013180001111017248,0.0,0.0,0.0,-0.23802793095152774,-0.24147374122910278,-0.3577035082125877,-0.011238822174685388,0.002527587432903458,-0.027690567867596272
1319,2.0,299.81131,2623.1389,0.0,0.0,-0.01319000553139138,0.0,0.0,0.0,-0.23542565138220278,-0.22841898641069877,-0.3335240981612657,-0.0035048395939507367,-0.0045185918607002955,-0.024760782561198978
1320,2.0,300.35909,2771.7138,0.0,0.0,-0.013200009951765512,0.0,0.0,0.0,-0.23030885996721479,-0.24372204187599275,-0.36850087353070465,0.014027235787380387,0.008283239419417082,-0.01107768399803229
1321,2.0,300.83132,2998.4715,0.0,0.0,-0.013210014372139756,0.0,0.0,0.0,-0.27845587026895474,-0.24546584529809276,-0.38753874859959664,0.01024148212775559,-0.007638717008982674,-0.00971853078154431
1322,2.0,300.56748,2899.9272,0.0,0.0,-0.013219985883236363,0.0,0.0,0.0,-0.24730521846962478,-0.23995131268885075,-0.3942489365918406,-0.004453141781090876,-0.003130863775492197,-0.013578176515311687
1323,2.0,300.62245,2690.6023,0.0,0.0,-0.013229990303610606,0.0,0.0,0.0,-0.22511944891755978,-0.23693473541863777,-0.35582173052437066,-0.01013047703292524,0.0014496461776189386,-0.02815185605512187
1324,2.0,300.57883,2740.9339,0.0,0.0,-0.013239994723984738,0.0,0.0,0.0,-0.23709188037664675,-0.22040394507217578,-0.37567961876669165,-0.008302105224353993,0.015552202519132884,-0.015073031480592382
1325,2.0,299.68279,2824.0299,0.0,0.0,-0.013249999144358648,0.0,0.0,0.0,-0.26043698029562873,-0.2375895685607648,-0.3604080348495037,-0.004857932764240636,0.0006535885670291694,-0.03173500833075147
1326,2.0,300.03044,2815.4451,0.0,0.0,-0.01326000356473278,0.0,0.0,0.0,-0.2500516227331738,-0.2429419608890048,-0.36283141498117266,-0.012741195455708088,-0.021347296988314182,-0.03316736501661407
1327,2.0,300.27507,2725.4714,0.0,0.0,-0.013270007985107135,0.0,0.0,0.0,-0.24646624738682477,-0.23226211231748578,-0.3497468908748307,-0.0062433071707914435,-0.018485034668580883,-0.028622113532532675
1328,2.0,299.58985,2586.8764,0.0,0.0,-0.013280012405481378,0.0,0.0,0.0,-0.19451437150207382,-0.23425111213128474,-0.3575803476629326,-0.004923698673906225,0.011235185620076488,-0.025759771166041476
1329,2.0,299.94864,2696.4523,0.0,0.0,-0.013289983916577874,0.0,0.0,0.0,-0.21187838780326881,-0.24310585409267976,-0.3646699370226206,0.005404985074680495,0.012885906821739988,-0.03393580679970337
1330,2.0,299.97078999999997,2961.6812,0.0,0.0,-0.013299988336952007,0.0,0.0,0.0,-0.25649550833413576,-0.26095729435447973,-0.38282432893181967,-0.0007587397309967814,0.005555798942089665,-0.030599063776142472
1331,2.0,299.72508999999997,2852.4816,0.0,0.0,-0.013309992757326361,0.0,0.0,0.0,-0.2632779714560127,-0.24404648455801278,-0.3597587340529227,0.008317241660972842,0.000903581198341521,-0.022348210768346678
1332,2.0,300.06575,2615.4233,0.0,0.0,-0.013319997177700271,0.0,0.0,0.0,-0.22653507076477078,-0.2341844098772018,-0.3343038954382257,0.010913906304868689,0.01155593297898179,-0.022676271766473775
1333,2.0,299.96132,2670.1824,0.0,0.0,-0.013330001598074515,0.0,0.0,0.0,-0.23263744041952777,-0.22918933006422576,-0.34984201479421867,0.0014586905493365484,-0.004620299575263066,-0.023026887711826878
1334,2.0,300.41666000000004,2940.8464,0.0,0.0,-0.013340006018448647,0.0,0.0,0.0,-0.24367889768673476,-0.25779128295951875,-0.3924736920191376,-0.008861331532095331,-0.03370545553521947,-0.028195428849172175
1335,2.0,301.00563999999997,2947.888,0.0,0.0,-0.01335001043882278,0.0,0.0,0.0,-0.25746283793960373,-0.23966095574019475,-0.3989605495568406,-0.005948829030003714,-0.02054840096021928,-0.02146803080397968
1336,2.0,300.7347,2639.1334,0.0,0.0,-0.013360014859197133,0.0,0.0,0.0,-0.22255358555682878,-0.2150583719171088,-0.36461868683256266,-0.0017260143980443582,0.01697244985305038,-0.036126606516668464
1337,2.0,299.75552000000005,2610.8109,0.0,0.0,-0.01336998637029363,0.0,0.0,0.0,-0.22193727618350376,-0.22147510241539078,-0.35020894305293165,-0.004675117925548215,0.00947956334483506,-0.023761055297033578
1338,2.0,300.047,2786.4453,0.0,0.0,-0.013379990790667762,0.0,0.0,0.0,-0.25545857857929877,-0.2301866214751508,-0.36136458347390765,-0.005390534203079306,-0.007507790910561273,-0.03564229627362076
1339,2.0,299.49703999999997,2811.5502,0.0,0.0,-0.013389995211041894,0.0,0.0,0.0,-0.25841949802151876,-0.23521519933643278,-0.36100636916605466,0.0018338306934849984,0.003438666763044987,-0.015927269202649086
1340,2.0,299.95826,2789.3726,0.0,0.0,-0.013399999631416137,0.0,0.0,0.0,-0.23677881649324975,-0.2339228697613898,-0.37719794364403864,0.016641061341594883,0.0047980306342287555,-0.01175231604711329
1341,2.0,300.20601,2741.9223,0.0,0.0,-0.01341000405179027,0.0,0.0,0.0,-0.23101637198204078,-0.2339722758362658,-0.3684872655818617,0.004857548539802715,0.00885624653646848,-0.0013203171640051587
1342,2.0,300.05582999999996,2776.8724,0.0,0.0,-0.013420008472164402,0.0,0.0,0.0,-0.2205305912021748,-0.25311169883017975,-0.37045759119631766,-0.008422499195935951,-0.003665936936624806,-0.03404984809845837
1343,2.0,299.37239,3049.9368,0.0,0.0,-0.013430012892538534,0.0,0.0,0.0,-0.2790416504167667,-0.2557368373217608,-0.3923261222745736,0.001044224446281929,-0.0027160265189259476,-0.012329125891789989
1344,2.0,299.59271,3050.1048,0.0,0.0,-0.013439984403635252,0.0,0.0,0.0,-0.2798030470719107,-0.2468718817993578,-0.4004807894768766,0.008087559952155023,0.013596333957103688,-0.02112366255874318
1345,2.0,300.08707000000004,2702.1873,0.0,0.0,-0.013449988824009385,0.0,0.0,0.0,-0.22519876613538778,-0.23464676603033277,-0.36155192328489666,-0.0009992474193155421,-0.0009150478254831893,-0.03047319379572007
1346,2.0,300.08081,2612.5234,0.0,0.0,-0.013459993244383517,0.0,0.0,0.0,-0.20816832189961382,-0.22812167856635676,-0.35785188855723166,-0.01071354116384419,-0.027614951039133473,-0.05023057269437155
1347,2.0,300.42388,2801.4295,0.0,0.0,-0.01346999766475776,0.0,0.0,0.0,-0.24082910138298178,-0.23403634364008877,-0.3766991814148146,-0.012428937106140589,-0.00969796251378938,-0.034654104861843865
1348,2.0,299.52334,2748.6714,0.0,0.0,-0.01348000208513167,0.0,0.0,0.0,-0.22538472792624079,-0.2359070667697148,-0.37423568671168667,0.013080113428656686,0.016561834303025786,-0.040638276865935664
1349,2.0,300.24817,2615.0307,0.0,0.0,-0.013490006505506025,0.0,0.0,0.0,-0.2239667350737958,-0.22305018956333977,-0.34788711084628465,0.009404598542811612,0.023365922208536977,-0.029056685354671572
1350,2.0,300.15808,2656.6183,0.0,0.0,-0.013500010925880157,0.0,0.0,0.0,-0.22142393328534077,-0.23862508989796277,-0.3474965839927427,0.005369724072525505,-0.0013630503790225989,-0.019633304397406282
1351,2.0,300.4519,2784.1089,0.0,0.0,-0.01351001534625429,0.0,0.0,0.0,-0.24950073891880575,-0.23133604225608978,-0.36546280522587066,-0.0035726992836229666,-0.012997940872046886,-0.02065180211967418
1352,2.0,299.59337,2993.8766,0.0,0.0,-0.013519986857350785,0.0,0.0,0.0,-0.26787654623985674,-0.24979856352069876,-0.3923886094082406,0.01097188244909049,0.0034603899332638966,-0.0072868704713831235
1353,2.0,299.34247999999997,3140.1966,0.0,0.0,-0.01352999127772514,0.0,0.0,0.0,-0.29193802411203973,-0.25292451100670577,-0.4096788104396506,-0.0014116836480473284,-0.006551199425678044,-0.011317997537499387
1354,2.0,299.6186,2966.5609999999997,0.0,0.0,-0.013539995698099383,0.0,0.0,0.0,-0.26063145338732174,-0.2502235915401458,-0.3909054037793596,-0.0025281427952832678,-0.015821251831435984,-0.02143081412780668
1355,2.0,299.88621,2724.8377,0.0,0.0,-0.013550000118473515,0.0,0.0,0.0,-0.2385707898251038,-0.23744651791164675,-0.3522653138658796,-0.012161985221544488,-0.005163421589890035,-0.026039266073625476
1356,2.0,299.65161,2790.0334,0.0,0.0,-0.013560004538847426,0.0,0.0,0.0,-0.24865798841313275,-0.21736940287768977,-0.3820730850426776,-0.002072270733517198,0.014890810609108586,-0.020383569486951678
1357,2.0,299.84417,2858.1989,0.0,0.0,-0.013570008959221558,0.0,0.0,0.0,-0.24936385896279678,-0.22927298399248178,-0.3901842736831897,-0.01095877200604659,0.0038576623980216365,-0.027460480048138374
1358,2.0,300.03565,2617.072,0.0,0.0,-0.013580013379595912,0.0,0.0,0.0,-0.21537179043804078,-0.22532691187553477,-0.35482584753108465,0.003875223947429826,-0.014555147195481186,-0.039510373464120264
1359,2.0,299.92764,2512.8302,0.0,0.0,-0.013589984890692408,0.0,0.0,0.0,-0.2019787823387538,-0.22044195208342682,-0.3414168807427227,-0.01003448567012663,-0.022586338727348082,-0.031153571986118175
1360,2.0,300.34019,2724.3302,0.0,0.0,-0.013599989311066651,0.0,0.0,0.0,-0.22889533554771077,-0.23408837403272376,-0.36514465482697167,0.01188666591762259,0.002863293808335097,-0.023994764472348877
1361,2.0,300.10568,2865.3218,0.0,0.0,-0.013609993731440784,0.0,0.0,0.0,-0.2587492096040588,-0.24576340645495978,-0.36647365392313364,0.0008904223320753421,-0.002701849427501778,-0.023720613445792276
1362,2.0,300.02225,2989.3503,0.0,0.0,-0.013619998151815138,0.0,0.0,0.0,-0.25491324737547877,-0.26491394480247077,-0.3888606650775596,0.014614482108087086,0.006832836749273484,-0.015897650888975986
1363,2.0,299.90431,3057.0919,0.0,0.0,-0.013630002572189048,0.0,0.0,0.0,-0.26500100325106274,-0.27621542231033974,-0.3880631663213526,-0.0037733142921221267,0.014211288615044988,-0.015731044201533186
1364,2.0,299.39198999999996,2854.4352,0.0,0.0,-0.013640006992563292,0.0,0.0,0.0,-0.23531152902343977,-0.23515492108798378,-0.39721058557413264,0.013983925425105988,0.014037017703845788,-0.0049420986877721645
1365,2.0,299.52159,2831.7247,0.0,0.0,-0.013650011412937424,0.0,0.0,0.0,-0.23925434860756578,-0.24430447829847476,-0.3772147635956986,-0.009549267048364282,-0.0011933950246789187,-0.031001724299631966
1366,2.0,299.44417000000004,2950.9455,0.0,0.0,-0.013660015833311556,0.0,0.0,0.0,-0.24770475311655576,-0.24497438860208975,-0.40433461530471965,-3.663435728752956e-05,-0.019526769255392082,-0.032740213224957466
1367,2.0,299.80926,2735.1404,0.0,0.0,-0.013669987344408274,0.0,0.0,0.0,-0.2333397544613408,-0.23181162132302577,-0.36626301949234563,-0.0006441040901306244,-0.02046011951875658,-0.04265792546875946
1368,2.0,299.69041,2490.4178,0.0,0.0,-0.013679991764782407,0.0,0.0,0.0,-0.2040762809732608,-0.20797000859004178,-0.34497853590423067,0.0008126020595475792,-0.002861482623781347,-0.028245003123564767
1369,2.0,300.31916,2691.6583,0.0,0.0,-0.013689996185156539,0.0,0.0,0.0,-0.23545988910308177,-0.21967876197560576,-0.3630582512810596,-0.0039807631659207355,0.012220071810027187,-0.03189321010861477
1370,2.0,300.21195,2968.1234,0.0,0.0,-0.013700000605530671,0.0,0.0,0.0,-0.26471623944295875,-0.24739553958353877,-0.3901236103997026,-0.013320892049919687,0.01098442952507879,-0.016228461847874485
1371,2.0,300.28869,2954.2445,0.0,0.0,-0.013710005025904914,0.0,0.0,0.0,-0.25411749140944373,-0.26030797329289673,-0.3835910856799926,0.004229440274363256,0.006125963183335494,-0.02429268837275168
1372,2.0,300.28983999999997,2944.2429,0.0,0.0,-0.013720009446279047,0.0,0.0,0.0,-0.24866936721175575,-0.25008694463165976,-0.39622001201137064,0.01250231870488279,-0.002356675040485718,-0.006553153275845874
1373,2.0,300.34342999999996,2994.1554,0.0,0.0,-0.013730013866653179,0.0,0.0,0.0,-0.26156601448455574,-0.2594727816329698,-0.38910968142213564,0.016104166458107486,-0.008308476642307803,-0.011144035667580689
1374,2.0,300.19644,3004.7977,0.0,0.0,-0.013739985377749675,0.0,0.0,0.0,-0.26842247526123575,-0.24818890427933774,-0.3967720813283556,0.00022497424004572876,-0.014707957469562386,-0.01030321945634859
1375,2.0,300.39052000000004,3004.409,0.0,0.0,-0.01374998979812403,0.0,0.0,0.0,-0.2659114388634158,-0.25728838666988674,-0.39006548024146565,-0.0018563900990114382,0.005462853915716704,-0.029977627357311472
1376,2.0,300.59976,2832.0919,0.0,0.0,-0.013759994218498162,0.0,0.0,0.0,-0.24693419668050776,-0.2284140316177098,-0.3855369818345376,-0.012980785534603786,0.016292470883191686,-0.029939667968815177
1377,2.0,300.05371,2608.7808,0.0,0.0,-0.013769998638872294,0.0,0.0,0.0,-0.21995045485741982,-0.2175973740176888,-0.35545638293581366,-0.03032089318643917,0.008758833685104581,-0.04028302226162476
1378,2.0,300.3871,2678.6231,0.0,0.0,-0.013780003059246537,0.0,0.0,0.0,-0.2155267467758338,-0.24360156643910277,-0.3551062138337547,-0.021697338420860583,-0.0038455211286983863,-0.05044077142761655
1379,2.0,299.69386000000003,2844.6504,0.0,0.0,-0.013790007479620447,0.0,0.0,0.0,-0.24916824089849077,-0.2537406839622558,-0.36179375568626365,-0.02030485008668268,0.002903820975234817,-0.04608899498387966
1380,2.0,299.9452,2895.1137,0.0,0.0,-0.013800011899994802,0.0,0.0,0.0,-0.2442267012207988,-0.2563164062464598,-0.37949916634365166,0.021699589862582778,0.0066014920943915445,-0.028018472825207974
1381,2.0,300.05764,2858.2713,0.0,0.0,-0.013810016320368934,0.0,0.0,0.0,-0.2430804823101758,-0.25966267483421074,-0.3660999368887507,0.020628334234108082,0.008698808343880541,-0.028511380495354174
1382,2.0,299.78427999999997,2914.5529,0.0,0.0,-0.01381998783146543,0.0,0.0,0.0,-0.2577888106292747,-0.24168892515283977,-0.38647354916696963,0.01028276396332979,0.012395573820097887,-0.011528692763293389
1383,2.0,299.76371,2988.2416,0.0,0.0,-0.013829992251839562,0.0,0.0,0.0,-0.25793543805124575,-0.25701504219040977,-0.3934003396330906,-0.00024279713705221178,0.01118338726171439,-0.018385353150243082
1384,2.0,300.67904,2940.8378,0.0,0.0,-0.013839996672213917,0.0,0.0,0.0,-0.24775217322123574,-0.24514593184401978,-0.4010431432823766,0.01045529208435699,0.006559857647782544,-0.022350740853846376
1385,2.0,300.40058,2890.748,0.0,0.0,-0.01385000109258816,0.0,0.0,0.0,-0.24811706484724777,-0.2385035201509648,-0.3920946351567276,0.005258367481235465,-0.015791476463997384,-0.018736178838366882
1386,2.0,300.43318,2813.3085,0.0,0.0,-0.01386000551296207,0.0,0.0,0.0,-0.25037775754286073,-0.23723955144622078,-0.36755824696267464,-0.001078395292654329,-0.025723645760226177,-0.03401468629348817
1387,2.0,299.80429,2671.7333,0.0,0.0,-0.013870009933336203,0.0,0.0,0.0,-0.24029232201000575,-0.2099497675629288,-0.36189811031406266,-0.013157395027033789,-0.013556406836913186,-0.03156673991314467
1388,2.0,299.98905,2830.7965,0.0,0.0,-0.013880014353710446,0.0,0.0,0.0,-0.25281599192099574,-0.24153302649245376,-0.36614242246544365,-0.012127376651128887,-0.0012258575313827188,-0.04146094171487636
1389,2.0,300.31428999999997,2918.9407,0.0,0.0,-0.013889985864807053,0.0,0.0,0.0,-0.24895694785513778,-0.24735026756907075,-0.3909778714265116,-0.012962499410049089,-0.0009461005263953521,-0.029253921579387273
1390,2.0,300.35823,2778.9719,0.0,0.0,-0.013899990285181185,0.0,0.0,0.0,-0.2302452177284338,-0.23936941328892175,-0.3751234255217996,-0.006739820998043544,0.0027955101124203675,-0.03165263819037217
1391,2.0,299.68391,2852.1846,0.0,0.0,-0.013909994705555428,0.0,0.0,0.0,-0.24256094845390175,-0.2578894060992028,-0.3665425245324307,0.001987512970602258,0.010620057696368089,-0.025290449931723077
1392,2.0,299.87037999999995,2977.7768,0.0,0.0,-0.01391999912592956,0.0,0.0,0.0,-0.25625835714823075,-0.24377423438864376,-0.4051372005764286,0.025909441378062774,0.01858897994333948,-0.0018308137413122483
1393,2.0,299.63719,2971.8456,0.0,0.0,-0.013930003546303915,0.0,0.0,0.0,-0.25337646108130973,-0.25592827066315377,-0.39406212367090365,0.009248583662639141,-0.0023417649639392076,-0.01170752431319269
1394,2.0,299.65328,2989.0345,0.0,0.0,-0.013940007966677825,0.0,0.0,0.0,-0.24372338949862576,-0.25536013119958273,-0.4095083209778246,0.0037546951122595564,-0.012455426503504887,-0.021603625958861877
1395,2.0,299.7873,2900.7618,0.0,0.0,-0.013950012387052069,0.0,0.0,0.0,-0.24855345140031573,-0.24125609510762275,-0.39194961880241563,-0.006608361930069545,0.004129127602538166,-0.026386306259375675
1396,2.0,299.57052999999996,2708.7397,0.0,0.0,-0.013959983898148676,0.0,0.0,0.0,-0.22609607002644477,-0.2204601500552228,-0.3768329912230206,0.0017621500376856683,0.01159026898512049,-0.02420784894187868
1397,2.0,300.00856,2775.263,0.0,0.0,-0.013969988318522808,0.0,0.0,0.0,-0.23745021627451177,-0.24214396564024876,-0.3640164717681286,0.004584506515480566,-0.0018748470575329981,-0.045404531369078356
1398,2.0,300.00467000000003,2911.1744,0.0,0.0,-0.013979992738897051,0.0,0.0,0.0,-0.2521264346979417,-0.25379843921795575,-0.3789994313943316,0.007089703654299273,-0.02197329809884568,-0.033956826673027865
1399,2.0,300.38457999999997,2823.1768,0.0,0.0,-0.013989997159271184,0.0,0.0,0.0,-0.25074465540407076,-0.24189275054295575,-0.36553784652827664,0.010981495152789188,-0.009002682960795632,-0.038625725066812264
1400,2.0,300.95277000000004,2744.155,0.0,0.0,-0.014000001579645316,0.0,0.0,0.0,-0.2248447568154498,-0.23855406106595275,-0.37075579070074766,-0.005192102241920594,0.0006872697298932412,-0.028420093754094874
1401,2.0,300.66722000000004,2864.3271,0.0,0.0,-0.014010006000019448,0.0,0.0,0.0,-0.23092368999539378,-0.24666967760940176,-0.3930905384150156,-0.005368996153653665,0.0018526781585950984,-0.014336520247904385
1402,2.0,299.67118999999997,3079.7059,0.0,0.0,-0.014020010420393691,0.0,0.0,0.0,-0.25993056802814973,-0.2702611391576977,-0.40596197602532763,-0.011855175117764688,0.00910210123675745,-0.017837700590443983
1403,2.0,299.94234,3064.3179999999998,0.0,0.0,-0.014030014840767824,0.0,0.0,0.0,-0.26585894237573476,-0.25617338599484474,-0.4094438377414606,0.019160291892973583,0.03211372676762807,-0.01876159621712538
1404,2.0,299.36199,2950.3511,0.0,0.0,-0.01403998635186432,0.0,0.0,0.0,-0.26427443200185574,-0.24951962590066976,-0.3830389960980056,0.014350647994048685,0.016289237602122586,-0.014141166641874488
1405,2.0,299.46565,2959.0258,0.0,0.0,-0.014049990772238452,0.0,0.0,0.0,-0.2546342286954417,-0.24226622439731477,-0.40256951336551766,0.007753635275699223,-0.01130185342365609,-0.012115556075462289
1406,2.0,299.41179,3007.917,0.0,0.0,-0.014059995192612806,0.0,0.0,0.0,-0.24817326983029478,-0.26611681452618474,-0.4000415860885306,-0.002218421623966168,-0.025493070567470178,-0.028078234316105972
1407,2.0,299.77352,2944.5003,0.0,0.0,-0.014069999612986939,0.0,0.0,0.0,-0.24891766414876076,-0.25067392041458975,-0.3954629925966586,0.007680714199127472,-0.0062609850413111135,-0.03686744331403337
1408,2.0,300.51315,2915.7948,0.0,0.0,-0.014080004033361071,0.0,0.0,0.0,-0.2503811721956978,-0.24103296730310175,-0.3949146621725426,-0.01245286196750179,0.008734213734174781,-0.01828269267661128
1409,2.0,300.5734,2810.5032,0.0,0.0,-0.014090008453735314,0.0,0.0,0.0,-0.24732361909144077,-0.24637706111302274,-0.3606221143306317,-0.013215293150997887,0.003974115535989666,-0.036389523639366365
1410,2.0,300.04227000000003,2843.5868,0.0,0.0,-0.014100012874109225,0.0,0.0,0.0,-0.24831505391678776,-0.2496521691462508,-0.36641216990706565,-0.027305540935597075,0.004661876671916406,-0.04064112511196676
1411,2.0,300.79022000000003,3102.288,0.0,0.0,-0.014109984385205943,0.0,0.0,0.0,-0.28102624259263076,-0.2571626625974787,-0.4048291928110306,0.011845691096828688,0.02281986754414558,-0.02657515581301368
1412,2.0,300.42904,3051.8421,0.0,0.0,-0.014119988805580075,0.0,0.0,0.0,-0.26307176492816176,-0.26082742608916276,-0.40378462315043967,0.007536421305386873,0.025687426122151576,-0.017995118112729882
1413,2.0,300.41506,2898.5861,0.0,0.0,-0.014129993225954207,0.0,0.0,0.0,-0.2330334286911088,-0.2557792925009508,-0.3922850755130226,0.00974533033476422,0.004025876708073096,-0.01992936999712568
1414,2.0,300.3359,2966.1138,0.0,0.0,-0.01413999764632834,0.0,0.0,0.0,-0.23947998927233474,-0.25488340716003377,-0.4072611349060446,-0.0040274891942822365,-0.004797544476830775,-0.020496687714865583
1415,2.0,299.97393,3031.6376,0.0,0.0,-0.014150002066702694,0.0,0.0,0.0,-0.2548776822969687,-0.26148542057160173,-0.4051790174080556,0.016706301475783586,0.008769519623309201,-0.027366007648564675
1416,2.0,299.94543,2927.9781,0.0,0.0,-0.014160006487076937,0.0,0.0,0.0,-0.25680575538225475,-0.24859379901929776,-0.3846326763852897,0.011387926993150888,-0.0034371756641978267,-0.03369259840470057
1417,2.0,299.63009,2845.3129,0.0,0.0,-0.014170010907450847,0.0,0.0,0.0,-0.24723860740805076,-0.24375598575434276,-0.3739094911069936,0.0017307343196601784,-0.015605823714424883,-0.03501954668266016
1418,2.0,299.53016,2770.2186,0.0,0.0,-0.01418001532782498,0.0,0.0,0.0,-0.2282023130093148,-0.24204171857265777,-0.37183324032708365,-0.007396925542919712,-0.012288285833259388,-0.03909146243552696
1419,2.0,299.56742,2757.0409,0.0,0.0,-0.014189986838921698,0.0,0.0,0.0,-0.23047705948381478,-0.2330814466133478,-0.37451306392656164,-0.004774621213193425,0.0005572588800221694,-0.022199795973199276
1420,2.0,300.24392,2919.8275,0.0,0.0,-0.01419999125929583,0.0,0.0,0.0,-0.2472816705373008,-0.24437075498751576,-0.3959022263825076,0.006105542343470114,0.013163142181600987,-0.015019919950100687
1421,2.0,300.87667000000005,3046.4685,0.0,0.0,-0.014209995679669962,0.0,0.0,0.0,-0.27922998321285375,-0.25043906930641174,-0.39638128089728664,-0.011051527959950888,-0.0026385743905570176,-0.01182824191685659
1422,2.0,300.51762,2924.4452,0.0,0.0,-0.014220000100044206,0.0,0.0,0.0,-0.24704722472916274,-0.25595109918790676,-0.3859599934862856,0.003831850459674196,0.016360566356162183,-0.02240513313246448
1423,2.0,300.60452000000004,2936.2992,0.0,0.0,-0.014230004520418338,0.0,0.0,0.0,-0.25447558412728477,-0.24894534614149277,-0.3891407172726986,-0.0004935288025900004,0.02680714550290927,-0.02947821664802347
1424,2.0,300.70966,3173.1465,0.0,0.0,-0.014240008940792692,0.0,0.0,0.0,-0.2688362156745688,-0.26727796874328175,-0.4284431079815426,-0.005623187267815375,0.017381143267635284,-0.00919391831311909
1425,2.0,299.47104,3026.4414,0.0,0.0,-0.014250013361166602,0.0,0.0,0.0,-0.26221412977851977,-0.25732521831102173,-0.4004232672686996,-0.023123920594403276,-0.015633498614406185,-0.022275157462636877
1426,2.0,299.58897,2758.9544,0.0,0.0,-0.01425998487226332,0.0,0.0,0.0,-0.2133717158006488,-0.23916522312876975,-0.3861163075792126,0.0036718649563348567,-0.019321865767169683,-0.03279404112326987
1427,2.0,299.94411,2715.8141,0.0,0.0,-0.014269989292637453,0.0,0.0,0.0,-0.22809469571619378,-0.2295537961251958,-0.3678911705480316,0.02384736495380168,-0.0042977937208092155,-0.03180581931398997
1428,2.0,300.02715,2857.369,0.0,0.0,-0.014279993713011696,0.0,0.0,0.0,-0.24395333647631978,-0.25729503359054273,-0.36732044729670565,0.0017497194854588685,-0.004370552880014985,-0.036033534428732965
1429,2.0,299.90853,2970.0841,0.0,0.0,-0.014289998133385828,0.0,0.0,0.0,-0.26312123179804375,-0.25387211263272674,-0.3858380691017526,0.0076399181156512124,-0.01074841520578599,-0.04514277644424516
1430,2.0,300.05975,3017.4496,0.0,0.0,-0.01430000255375996,0.0,0.0,0.0,-0.25759581688272776,-0.2627590354172978,-0.39687449051596263,-0.01017394900859059,0.009252338666184731,-0.04045834999267826
1431,2.0,300.14318,2987.0535,0.0,0.0,-0.014310006974134093,0.0,0.0,0.0,-0.25001484175454375,-0.26142175806781875,-0.3965530673192406,0.013266020504004288,0.023886730733436775,-0.019586812429817878
1432,2.0,300.85828,3040.1914,0.0,0.0,-0.014320011394508225,0.0,0.0,0.0,-0.25961736228973875,-0.25743901642975275,-0.4070858933012496,-0.0016580392991857385,0.0012361024018188087,-0.012121415700790589
1433,2.0,300.2533,3180.3812,0.0,0.0,-0.014330015814882469,0.0,0.0,0.0,-0.28248816996941173,-0.27940326924495573,-0.40486502133456664,-0.005808846198213484,-0.003965112504876136,-0.011792937243622289
1434,2.0,299.94899,3189.4577,0.0,0.0,-0.014339987325979076,0.0,0.0,0.0,-0.28931228780289975,-0.27156578985395674,-0.4086374122518726,0.006564460741661833,-0.0036251420690486666,-0.015230296002113185
1435,2.0,300.20527999999996,2805.8593,0.0,0.0,-0.014349991746353097,0.0,0.0,0.0,-0.2515779117563068,-0.2316003485446748,-0.36973291472479763,0.025550149985353474,0.014469891318817088,-0.03517564394006576
1436,2.0,299.66958999999997,2665.1895,0.0,0.0,-0.014359996166727229,0.0,0.0,0.0,-0.2192571688739978,-0.2240483219718478,-0.36684556737233864,-0.0005912811737974086,0.01932940738766398,-0.025749987223075876
1437,2.0,300.04632999999995,2910.6759,0.0,0.0,-0.014370000587101583,0.0,0.0,0.0,-0.25082679958967774,-0.2344820520940768,-0.39946395247152267,-0.0017860305186924883,-0.014521777829937884,-0.022821843381840578
1438,2.0,299.9973,3001.8104,0.0,0.0,-0.014380005007475716,0.0,0.0,0.0,-0.25720833991198677,-0.25272476901449276,-0.40254228733533065,-0.011039262567490389,-0.01141803268012209,-0.03294594251201137
1439,2.0,300.18998,2963.8136,0.0,0.0,-0.014390009427849848,0.0,0.0,0.0,-0.2536960300303488,-0.26000303567530175,-0.3872262521362556,0.016948357805422684,-0.0030799063133880875,-0.033304721200170063
1440,2.0,300.95095,3059.1429,0.0,0.0,-0.014400013848224091,0.0,0.0,0.0,-0.27097075873273174,-0.26074937543395976,-0.39818291050259363,0.009061271918677912,-0.014302702012566787,-0.02801168708928827
1441,2.0,300.17913,3057.9944,0.0,0.0,-0.014409985359320698,0.0,0.0,0.0,-0.26345545234352874,-0.27029863954389877,-0.3957998374599026,0.00948928203449422,-0.009437719662080412,-0.03762943778673636
1442,2.0,300.11559,3045.7474,0.0,0.0,-0.01441998977969472,0.0,0.0,0.0,-0.25486392236061073,-0.2665585510397807,-0.40440867375452866,-0.006211355646113074,0.011117089294421291,-0.02115338827692688
1443,2.0,300.68057999999996,3135.4547,0.0,0.0,-0.014429994200068852,0.0,0.0,0.0,-0.2658311995879967,-0.26751570761424476,-0.41975303942639963,0.00974054678104212,0.027922776419513472,-0.01171996297142029
1444,2.0,300.45055,2947.8259,0.0,0.0,-0.014439998620442984,0.0,0.0,0.0,-0.24288116588300476,-0.2532296411418198,-0.3999546492299506,0.00013377831639289187,0.015833624628407088,-0.008043515084883133
1445,2.0,300.16456,2715.1855,0.0,0.0,-0.014450003040817117,0.0,0.0,0.0,-0.22997534869679975,-0.2225953618584518,-0.37277788326281264,0.006963152567159654,-0.011488680530094489,-0.017357986449849882
1446,2.0,300.165,2946.5826,0.0,0.0,-0.01446000746119147,0.0,0.0,0.0,-0.25034372247200176,-0.2582577326430538,-0.38708607911742166,-0.00014216151202274885,-0.011113080877025689,-0.038148164082680666
1447,2.0,299.59256,3142.8494,0.0,0.0,-0.014470011881565714,0.0,0.0,0.0,-0.27823697784985174,-0.26413887940347774,-0.41297188339715163,-0.0014410533101458889,-0.002374863285080758,-0.026317714293856178
1448,2.0,299.84687,3021.3413,0.0,0.0,-0.014480016301939624,0.0,0.0,0.0,-0.2524579701306618,-0.2531224190162377,-0.4128319130283376,0.005458110081398525,-0.01167530194676259,-0.029421414860667572
1449,2.0,299.55916,2855.798,0.0,0.0,-0.014489987813036342,0.0,0.0,0.0,-0.2363838718692718,-0.24098743184360777,-0.39071996887855864,-0.0071188037918712335,-0.016492295961912883,-0.024994811923545874
1450,2.0,299.75127000000003,2909.1239,0.0,0.0,-0.014499992233410475,0.0,0.0,0.0,-0.24175308414917177,-0.23138123321054976,-0.4111666972839936,0.007053023392729213,-0.011418166429135288,-0.02738153671959727
1451,2.0,300.17964,3047.9637,0.0,0.0,-0.014509996653784607,0.0,0.0,0.0,-0.26789010352619474,-0.26763952677646474,-0.39097524710875264,0.006250092096111063,-0.004075959735340906,-0.01939615321150128
1452,2.0,299.78365,3049.6082,0.0,0.0,-0.01452000107415874,0.0,0.0,0.0,-0.26462133843859276,-0.24842983488811576,-0.4139535707565366,0.01994996025240778,-0.0004216985404134057,-0.018081780380532785
1453,2.0,299.93669,3037.3909,0.0,0.0,-0.014530005494532983,0.0,0.0,0.0,-0.26416170792823074,-0.2610008641087797,-0.39812842804471665,-0.0012748403716919489,-0.004967197500699225,-0.019817862836870783
1454,2.0,300.43559,2953.9984,0.0,0.0,-0.014540009914907115,0.0,0.0,0.0,-0.23912332523713475,-0.25900926024222376,-0.39980915664809163,-0.007526488313331562,0.015510211408488685,-0.018047785839677782
1455,2.0,300.12809,3044.2383,0.0,0.0,-0.01455001433528147,0.0,0.0,0.0,-0.2640548303076828,-0.25443389901817076,-0.4068836891112936,-0.01846591058619348,0.023039294959301376,-0.024477207295462274
1456,2.0,300.11745,3220.8632,0.0,0.0,-0.014559985846377965,0.0,0.0,0.0,-0.2758305899223597,-0.2793941702590577,-0.42383721753197656,-0.014785207657186383,0.005622059621779084,-0.02288778164534818
1457,2.0,299.92146,3075.687,0.0,0.0,-0.014569990266752098,0.0,0.0,0.0,-0.2682657254707657,-0.2616970479874877,-0.4049692746373556,-0.02137492629204098,-0.007156599743126404,-0.03132595825213137
1458,2.0,299.29852,2829.7233,0.0,0.0,-0.014579994687126119,0.0,0.0,0.0,-0.24310589462268375,-0.24578576888466677,-0.37127356150184765,0.012913803623493187,-0.006103963801139324,-0.04288181625060576
1459,2.0,299.8154,2915.5479,0.0,0.0,-0.014589999107500473,0.0,0.0,0.0,-0.24726407038306375,-0.2558689550022998,-0.38312074511607364,-0.00978017114210274,-0.0027494993373044577,-0.044480374323871155
1460,2.0,299.89611,3075.8444,0.0,0.0,-0.014600003527874605,0.0,0.0,0.0,-0.26459192378818974,-0.26085921174479976,-0.40952874809984063,0.007633151428833394,-0.00865485264261745,-0.026666289553507874
1461,2.0,299.32027999999997,3030.7553,0.0,0.0,-0.014610007948248738,0.0,0.0,0.0,-0.25853394462031376,-0.25657105626159177,-0.4061689222257516,-0.008725399471554882,-0.005300419184235645,-0.02770598953411827
1462,2.0,299.63596,3009.8318,0.0,0.0,-0.01462001236862287,0.0,0.0,0.0,-0.2569586649548457,-0.26548276314360875,-0.3924722836014986,0.008377532575048093,0.016103841204825383,-0.019836433684703583
1463,2.0,299.58633,2991.0219,0.0,0.0,-0.014629983879719588,0.0,0.0,0.0,-0.27105477743102374,-0.24772303214835978,-0.3904181520712716,-0.0015584569780327288,0.019489709632984582,-0.012989710241484589
1464,2.0,300.27778,3052.8756,0.0,0.0,-0.01463998830009372,0.0,0.0,0.0,-0.25493583272020776,-0.26840068025158476,-0.4046614492569756,-0.016289983354196184,-0.02022911774770848,-0.023941189886561475
1465,2.0,300.35637,3146.2869,0.0,0.0,-0.014649992720467853,0.0,0.0,0.0,-0.2736657912162107,-0.2777100675328497,-0.4050168061995466,-0.004979362074774776,-0.008590054690772392,-0.034152534916592765
1466,2.0,300.83713,3118.5001,0.0,0.0,-0.014659997140841874,0.0,0.0,0.0,-0.2619911539615138,-0.2740752455816207,-0.41187975177686664,0.006210799371808175,0.006969237336660173,-0.03311105465555667
1467,2.0,300.18966,2856.1943,0.0,0.0,-0.014670001561216006,0.0,0.0,0.0,-0.25636204303096377,-0.23863933619436878,-0.3732103586704947,0.009678614807104911,0.03414668745026567,-0.04228580531653406
1468,2.0,299.77169,2820.3029,0.0,0.0,-0.01468000598159036,0.0,0.0,0.0,-0.24477878067028475,-0.2326273585810328,-0.37989552951776967,-0.027784304647597374,0.0013808519673794788,-0.03373001266464307
1469,2.0,299.84328,3086.7599,0.0,0.0,-0.014690010401964493,0.0,0.0,0.0,-0.27751412522851177,-0.25848395086037973,-0.4022998571164046,-0.018526042926628083,0.012184288882745687,-0.03142187554634767
1470,2.0,299.87369,3155.3126,0.0,0.0,-0.014700014822338625,0.0,0.0,0.0,-0.27140511878559975,-0.26074892960391577,-0.42698219385486164,-0.007704621328611923,0.01088661542667529,-0.04085432509200796
1471,2.0,299.73911,3051.1214,0.0,0.0,-0.014709986333435121,0.0,0.0,0.0,-0.25891787521570475,-0.2629548459991227,-0.4055919978838136,0.009289125724315332,0.011760687519439489,-0.013139228465990886
1472,2.0,299.68187,3018.3651,0.0,0.0,-0.014719990753809475,0.0,0.0,0.0,-0.24623984678448077,-0.25609228545684076,-0.4151754895821306,-0.007431396817946764,-0.027804535199093976,-0.014541326464117186
1473,2.0,299.80368,3069.6506,0.0,0.0,-0.014729995174183497,0.0,0.0,0.0,-0.2579874988413837,-0.25005988072148877,-0.4250497536616446,9.503989967645781e-05,-0.013147837038840487,-0.003991567654387056
1474,2.0,300.1905,3127.2312,0.0,0.0,-0.014739999594557629,0.0,0.0,0.0,-0.26590675764795374,-0.27558776453589473,-0.40910567565308664,0.012642149245182987,0.013750623576330888,-0.02261652344782708
1475,2.0,300.58173,3144.0718,0.0,0.0,-0.014750004014931761,0.0,0.0,0.0,-0.27605949325245077,-0.26390211325261076,-0.4157577030895906,0.007846408961480273,0.013814206033355987,-0.02079051403186398
1476,2.0,300.08139,2908.8198,0.0,0.0,-0.014760008435305894,0.0,0.0,0.0,-0.23778049527710776,-0.25283621639299175,-0.39359185403449165,0.004250993015915346,-0.001092126452709489,-0.04458569660551566
1477,2.0,300.64414,2815.9013,0.0,0.0,-0.014770012855680248,0.0,0.0,0.0,-0.22106241578216176,-0.25269903246195274,-0.3822022339004236,-0.014077913491131886,-0.003179052531698057,-0.047180166043069856
1478,2.0,300.56413,3076.7872,0.0,0.0,-0.014779984366776744,0.0,0.0,0.0,-0.24198623299718175,-0.2720096947227667,-0.4212705435711656,0.002855523598618237,-0.0013171281619654286,-0.053969754339650046
1479,2.0,300.41201,3125.7897,0.0,0.0,-0.014789988787150987,0.0,0.0,0.0,-0.27330059561516873,-0.26085870511974973,-0.41600272722877263,-0.012784767236508288,-0.005982599541261604,-0.03266338454937507
1480,2.0,300.15233,2938.6861,0.0,0.0,-0.01479999320752512,0.0,0.0,0.0,-0.25556713819501276,-0.25153240669431576,-0.38618765051875364,-0.01111962545942159,-0.03338238783358517,-0.029300009260185767
1481,2.0,299.85927000000004,2935.5393,0.0,0.0,-0.014809997627899252,0.0,0.0,0.0,-0.25730955346447576,-0.24440158818805874,-0.39061951526364463,0.008611628913226602,-0.009487054910774423,-0.018784760127661483
1482,2.0,300.16684,3182.1429,0.0,0.0,-0.014820002048273384,0.0,0.0,0.0,-0.2701433387010717,-0.27696780103959373,-0.42018083361861963,0.015254111432463588,0.008176936311675782,-0.030228883997858575
1483,2.0,300.32399,3384.2358,0.0,0.0,-0.014830006468647627,0.0,0.0,0.0,-0.29713473056241474,-0.28150841791771775,-0.45008004048444156,0.01979399471751518,0.005247501691138095,-0.0004106393310044466
1484,2.0,299.96328,3242.6417,0.0,0.0,-0.01484001088902176,0.0,0.0,0.0,-0.27655621884897374,-0.27246591058029174,-0.43665997860748457,-0.001027494673880829,-0.014344558360947687,-0.019620507048643283
1485,2.0,299.7644,2994.9214,0.0,0.0,-0.014850015309395892,0.0,0.0,0.0,-0.23884036501420877,-0.2624534797171417,-0.4090874776812906,-0.008446725803176932,0.008757151385963552,-0.006504727317791603
1486,2.0,300.1166,2907.9941,0.0,0.0,-0.01485998682049261,0.0,0.0,0.0,-0.25524262458548574,-0.23690151094785877,-0.3918134582539776,0.003687441042172096,0.004850042383061915,-0.03438736677301887
1487,2.0,299.88826,3046.8320000000003,0.0,0.0,-0.014869991240866742,0.0,0.0,0.0,-0.26414679288675874,-0.26737356889021674,-0.39464048682798364,-0.01161027155534459,0.007865970261285821,-0.03152481669025717
1488,2.0,299.44697,3068.4484,0.0,0.0,-0.014879995661240875,0.0,0.0,0.0,-0.2849774518875847,-0.2432226109017028,-0.4045316417866646,-0.0011756080271234789,-0.019922337028181584,-0.043881565806273365
1489,2.0,299.77857,2928.1365,0.0,0.0,-0.014890000081614896,0.0,0.0,0.0,-0.2504828721082348,-0.25289949386173677,-0.3866980144616226,0.0016329802056625985,-0.017746240583417585,-0.04237923204200456
1490,2.0,300.60073,2847.7317,0.0,0.0,-0.01490000450198925,0.0,0.0,0.0,-0.23362981756746776,-0.24603478522924277,-0.38597470587773763,0.011633002808087989,0.006979805636528183,-0.03925010700368396
1491,2.0,300.51785,3098.9577,0.0,0.0,-0.014910008922363382,0.0,0.0,0.0,-0.27889930904271876,-0.25396502766689677,-0.4091414332491156,-0.02045846589459338,-0.010278589372917792,-0.01928064877960188
1492,2.0,300.38158,3363.2086,0.0,0.0,-0.014920013342737515,0.0,0.0,0.0,-0.3036588149087917,-0.2895842947922447,-0.42908831524771957,-0.006639853540527524,-0.010053989012026459,-0.014061834225294988
1493,2.0,300.89052000000004,3278.5239,0.0,0.0,-0.01492998485383401,0.0,0.0,0.0,-0.2893518754843067,-0.28666500979663373,-0.4205725155772756,-0.0028241015984421273,0.004729109666401785,-0.02856423871332087
1494,2.0,300.17656,3032.82,0.0,0.0,-0.014939989274208365,0.0,0.0,0.0,-0.23905271183766577,-0.28015160510631076,-0.40269721327562064,0.029971004754657873,0.011566512323275888,-0.035150712921355264
1495,2.0,300.30147,2997.0434,0.0,0.0,-0.014949993694582497,0.0,0.0,0.0,-0.24255030932785174,-0.26740735064855076,-0.4010686873173976,0.006112041532261535,0.02048971351442728,-0.03395428240202676
1496,2.0,299.9884,3002.1938,0.0,0.0,-0.01495999811495663,0.0,0.0,0.0,-0.23896723405922976,-0.25848253231023977,-0.4151421941838446,-0.0022179135803660275,-0.006572650436920093,-0.03636538700873426
1497,2.0,299.49226,2942.9775,0.0,0.0,-0.014970002535330651,0.0,0.0,0.0,-0.24558649298749977,-0.2528090916878148,-0.3961960891765096,-0.0016586277948438186,0.008243397918860033,-0.026362979215573474
1498,2.0,299.76187000000004,2935.0046,0.0,0.0,-0.014980006955704783,0.0,0.0,0.0,-0.24551459276040374,-0.26465793703220475,-0.38199557141002766,-0.004706910167310866,0.01071092799183629,-0.030176606372199172
1499,2.0,300.09988,2943.0763,0.0,0.0,-0.014990011376079138,0.0,0.0,0.0,-0.26390668301056175,-0.23069747177806776,-0.4000175619286596,0.013574463966945286,-0.0034259934360942267,-0.015446343214935383
1500,2.0,300.24627999999996,3157.8112,0.0,0.0,-0.01500001579645327,0.0,0.0,0.0,-0.27968930974818573,-0.27459768746568175,-0.4056087570404676,-0.014361146278334787,-0.013070101504418587,-0.038888484122494564
1501,2.0,300.47707,3447.4143,0.0,0.0,-0.015009987307549766,0.0,0.0,0.0,-0.30545073757814073,-0.2904049463132367,-0.45207219150605155,-0.004264140847887936,-0.003165941176729067,-0.017332646078098982
1502,2.0,300.93717000000004,3408.3047,0.0,0.0,-0.015019991727923898,0.0,0.0,0.0,-0.2883886698067457,-0.2887144398463967,-0.4589363935134955,-0.008917961776209302,0.0042905406739433966,-0.03127710743831018
1503,2.0,300.25,3105.0616,0.0,0.0,-0.015029996148298252,0.0,0.0,0.0,-0.26797335215441076,-0.25857892279225275,-0.41730890793268255,-0.01008108301572543,0.01032288765403969,-0.004488938995198785
1504,2.0,299.98377999999997,3000.2476,0.0,0.0,-0.015040000568672274,0.0,0.0,0.0,-0.25801728839432375,-0.24630767374617474,-0.4076753920769286,-0.0037661012686352564,-0.008332560685259713,-0.014593991151314788
1505,2.0,299.91961000000003,3069.4921,0.0,0.0,-0.015050004989046406,0.0,0.0,0.0,-0.27134751551741476,-0.26142745253338073,-0.4002739749989656,0.00994683943515162,0.005627974874537874,-0.01820673640936498
1506,2.0,299.96751,2993.6977,0.0,0.0,-0.015060009409420538,0.0,0.0,0.0,-0.22765616107291378,-0.2698173761439017,-0.4125358210841156,0.013160797520869589,0.012280914438781888,-0.04152958028990046
1507,2.0,299.45491,2915.0849,0.0,0.0,-0.01507001382979467,0.0,0.0,0.0,-0.24387922736400577,-0.25056957591929174,-0.3916642166467486,0.025051963282186274,-0.0039051501878083167,-0.03732391755033386
1508,2.0,299.82205,2994.1405,0.0,0.0,-0.015079985340891389,0.0,0.0,0.0,-0.24059874910524778,-0.2638524437327088,-0.4056927656062586,-0.00936326320763213,-0.0019245179959851383,-0.04010477839678346
1509,2.0,300.02583,3112.5042,0.0,0.0,-0.015089989761265521,0.0,0.0,0.0,-0.26879170359767574,-0.27020828803248176,-0.4071235558074666,-0.015027989473897089,0.009463221748547272,-0.03694264167020486
1510,2.0,300.55257,3277.8285,0.0,0.0,-0.015099994181639764,0.0,0.0,0.0,-0.27426111617996474,-0.2847562593907547,-0.43736063091913363,-0.01973862566580068,-0.003028225188062557,-0.02357082367025918
1511,2.0,300.03491,3384.7981,0.0,0.0,-0.015109998602013897,0.0,0.0,0.0,-0.3046404110756677,-0.2881519847158867,-0.4361017183323886,-0.007941852155974783,-0.012743612057196589,-0.033794831286790165
1512,2.0,300.41148,3248.9541,0.0,0.0,-0.015120003022388029,0.0,0.0,0.0,-0.27072768003374176,-0.27065765431933075,-0.44621559579555053,0.01154364732151929,-0.017564611449992183,-0.021406061441113778
1513,2.0,300.10611,3053.5585,0.0,0.0,-0.015130007442762161,0.0,0.0,0.0,-0.25239565524951174,-0.26403329874305775,-0.4117765725191836,0.015966462729767185,0.00014850492374379485,-0.04521773263364275
1514,2.0,299.95366,3135.5237,0.0,0.0,-0.015140011863136404,0.0,0.0,0.0,-0.2641433073064148,-0.26567964777053976,-0.42329796582875656,-0.0004639011568834796,-0.003100575602177987,-0.02434996030815398
1515,2.0,299.03519,3025.8749,0.0,0.0,-0.015150016283510537,0.0,0.0,0.0,-0.2597991190926767,-0.24645083585280378,-0.4135404585582656,-0.0016994564036482882,-0.0023532856175762077,-0.024401704964260775
1516,2.0,299.80991,2899.5845,0.0,0.0,-0.015159987794607144,0.0,0.0,0.0,-0.2425732695751178,-0.2626468888962298,-0.37618113703618766,0.004199365896820146,0.008050921132514053,-0.016752492508092284
1517,2.0,299.87639,2940.1505,0.0,0.0,-0.015169992214981387,0.0,0.0,0.0,-0.25164431003535975,-0.24481676741653377,-0.3972712691226216,0.007676478611059452,0.016034705124002183,-0.025621503057395478
1518,2.0,299.73306,3163.3347,0.0,0.0,-0.01517999663535552,0.0,0.0,0.0,-0.26591742717150674,-0.2715378545486997,-0.42411946847983256,-0.01044623362846299,0.013739929734775488,-0.035045304513452266
1519,2.0,299.82628,3340.9879,0.0,0.0,-0.015190001055729652,0.0,0.0,0.0,-0.2993097022995677,-0.2871882724132757,-0.4290789224192926,-0.007867170962654322,0.0028987855275378572,-0.02996594863665887
1520,2.0,299.89884,3376.4445,0.0,0.0,-0.015200005476103673,0.0,0.0,0.0,-0.3097358938410527,-0.27781115949532675,-0.4388077445794526,-0.012501066327759188,-0.005629121367026025,-0.026466011551991978
1521,2.0,299.95867999999996,3162.2731,0.0,0.0,-0.015210009896478027,0.0,0.0,0.0,-0.2891606143954307,-0.2649014311637357,-0.4071900148815256,-0.004370251438110235,-0.004017794012025396,-0.03432830239818967
1522,2.0,300.2519,2922.1441,0.0,0.0,-0.01522001431685216,0.0,0.0,0.0,-0.24445034578287078,-0.24366751888811178,-0.40014098592334063,-0.014496263179169785,-0.004745844707703405,-0.028217929080892774
1523,2.0,299.80917999999997,2995.8869,0.0,0.0,-0.015229985827948656,0.0,0.0,0.0,-0.2611559724340878,-0.24577187722579577,-0.4037469505117216,-0.006100057620678814,-0.016398893554444786,-0.024855363378533377
1524,2.0,299.73663,3195.4321,0.0,0.0,-0.015239990248322788,0.0,0.0,0.0,-0.27365119028226975,-0.2704732326686297,-0.4272071556420636,0.013548217749604987,0.0063174333057071244,-0.028350143020191274
1525,2.0,300.40512,3078.3836,0.0,0.0,-0.015249994668697142,0.0,0.0,0.0,-0.25508284517721674,-0.26865686027436775,-0.4120120417099226,0.017915771510648982,0.005859703145907675,-0.03521208244016197
1526,2.0,300.38704,2958.8088,0.0,0.0,-0.015259999089071274,0.0,0.0,0.0,-0.24351250175531278,-0.2656056602482378,-0.39028583174071263,0.017480604910701383,0.0037526026494780467,-0.048406869435636046
1527,2.0,299.82809,3175.9744,0.0,0.0,-0.015270003509445407,0.0,0.0,0.0,-0.27286047016923176,-0.27810291472912074,-0.4144535286208786,-0.013238564466044588,-0.008368921975698293,-0.029380452198874873
1528,2.0,299.98541,3351.5201,0.0,0.0,-0.015280007929819428,0.0,0.0,0.0,-0.3083355112753457,-0.29152538814131573,-0.4189175235264406,-0.0017364938358785983,0.014596225367785286,-0.01980815083466228
1529,2.0,300.10278999999997,3257.0813,0.0,0.0,-0.01529001235019356,0.0,0.0,0.0,-0.28223054099898576,-0.28481786499683476,-0.4230229697516166,0.005960432972798933,0.0035239046038573066,-0.023230257139397876
1530,2.0,299.95713,3106.8363,0.0,0.0,-0.015299983861290278,0.0,0.0,0.0,-0.26644077084815676,-0.2577244287179208,-0.4202354579315106,0.0007327576780900523,0.011956812208795489,-0.021101693270074977
1531,2.0,299.5827,3037.4371,0.0,0.0,-0.01530998828166441,0.0,0.0,0.0,-0.25197548069804376,-0.24939746846861374,-0.4219320844289546,-0.017291138287752483,-0.02158327280410318,-0.022624000220314976
1532,2.0,299.5406,3082.0798,0.0,0.0,-0.015319992702038543,0.0,0.0,0.0,-0.26711174506437674,-0.2522103723362258,-0.4175531721342896,-0.02203023870146528,-0.01029548025208479,-0.029036335239663175
1533,2.0,299.48465,3269.7672,0.0,0.0,-0.015329997122412675,0.0,0.0,0.0,-0.2844690232524067,-0.2756463911866807,-0.43381217840642855,-0.0041832327260779255,-0.006043972099818604,-0.031426175779772074
1534,2.0,300.00027,3215.3061,0.0,0.0,-0.01534000154278703,0.0,0.0,0.0,-0.27991964176091777,-0.2569701754759817,-0.4404829712347846,-0.0025002963520600377,-0.007841625509083181,-0.027238802204510474
1535,2.0,300.18575,2966.3348,0.0,0.0,-0.01535000596316105,0.0,0.0,0.0,-0.23685500276826876,-0.25674178890344174,-0.4080949181483326,0.021030374648536382,-0.006913010366086003,-0.026826775197096576
1536,2.0,300.64411,3088.3033,0.0,0.0,-0.015360010383535183,0.0,0.0,0.0,-0.24036659324233578,-0.27453187687168673,-0.4238686080200746,0.004469098848965716,0.0015113297026316285,-0.028473058363322073
1537,2.0,300.39588,3374.9645,0.0,0.0,-0.015370014803909315,0.0,0.0,0.0,-0.2902158738445767,-0.29130744817730675,-0.4443816029820496,0.03111433387599567,0.01134521546168559,-0.024315968807049275
1538,2.0,300.56264,3311.7204,0.0,0.0,-0.015379986315006033,0.0,0.0,0.0,-0.28392069282829074,-0.29675665655260175,-0.42600294842821756,0.0014788355825247086,0.00921201779700537,-0.03645942573726517
1539,2.0,299.88884,3127.5388,0.0,0.0,-0.015389990735380166,0.0,0.0,0.0,-0.2754719196519617,-0.2694119545138898,-0.4058098263903116,0.00025391780007973574,-0.01039804750670739,-0.02139035201156338
1540,2.0,300.14562,3183.7444,0.0,0.0,-0.015399995155754298,0.0,0.0,0.0,-0.27782717897940773,-0.25216160460891274,-0.4377900260465116,-0.02098925695947838,-0.0032298141325578372,-0.022627566860666977
1541,2.0,299.75386000000003,3126.6224,0.0,0.0,-0.015409999576128541,0.0,0.0,0.0,-0.25620889027834876,-0.26482137427333474,-0.4293848631544866,-0.0024510170347715474,0.002445728781174638,-0.02271264339206338
1542,2.0,300.01162999999997,3141.4437,0.0,0.0,-0.015420003996502674,0.0,0.0,0.0,-0.25311733250073576,-0.2706792770764647,-0.4311238333736096,-0.003357925118226407,-0.007144604685792583,-0.031124698411268574
1543,2.0,299.41458,3203.1516,0.0,0.0,-0.015430008416876806,0.0,0.0,0.0,-0.26681600775768977,-0.26104793970842577,-0.44581416637093263,-0.0041280263010044765,-0.013470599752194687,-0.028882344529215474
1544,2.0,299.73832999999996,3142.8278,0.0,0.0,-0.015440012837250938,0.0,0.0,0.0,-0.26540336486577276,-0.2660670639462748,-0.4238707561102866,0.0022008947277113978,0.0016404715689519386,-0.029781795497234368
1545,2.0,299.533,3048.6546,0.0,0.0,-0.015449984348347434,0.0,0.0,0.0,-0.2606396505806307,-0.27079215313760474,-0.3952830697764016,0.006064041747199324,0.001214477010234549,-0.04221797835484006
1546,2.0,299.42867,3221.0313,0.0,0.0,-0.015459988768721677,0.0,0.0,0.0,-0.28188265170965177,-0.27636961871055776,-0.42086082576072964,0.008254879663693192,0.01073161349262779,-0.027528983860899178
1547,2.0,299.17697999999996,3305.8117,0.0,0.0,-0.01546999318909592,0.0,0.0,0.0,-0.2942380106465307,-0.2772534767727877,-0.43339274352753354,0.004714087828369245,-0.008129431296637402,-0.025238600910855977
1548,2.0,299.82844,3210.9177,0.0,0.0,-0.015479997609470164,0.0,0.0,0.0,-0.27516838031950475,-0.27575421112982174,-0.42511621273570355,-0.001183528907130209,0.00041672280354483864,-0.023970445456698776
1549,2.0,299.81561,3091.0603,0.0,0.0,-0.015490002029844296,0.0,0.0,0.0,-0.26166783598710475,-0.27440328530149577,-0.4035340058707056,0.001893085761983018,0.005910905003935905,-0.04172586912577266
1550,2.0,300.41843,3135.9422,0.0,0.0,-0.015500006450218429,0.0,0.0,0.0,-0.26787936307513477,-0.26400749126301076,-0.4213612699851196,-0.016512093855616784,0.00045159122194858364,-0.015690335865515586
1551,2.0,300.56424,3138.8989,0.0,0.0,-0.01551001087059245,0.0,0.0,0.0,-0.2737547241774877,-0.26368351467603673,-0.4167086383084406,-0.004997109352926295,-0.0004380399441836766,-0.030684682396342366
1552,2.0,299.83722,3204.3203,0.0,0.0,-0.015520015290966804,0.0,0.0,0.0,-0.27540722363307674,-0.2642372051931818,-0.4343889304958496,-0.0027095415156359274,0.004328553663369985,-0.018107800643100785
1553,2.0,299.867,3252.4067,0.0,0.0,-0.0155299868020633,0.0,0.0,0.0,-0.27311332673168676,-0.2727039128962807,-0.44283319470923355,0.00854557736835782,0.00910532975555108,-0.03333583101799037
1554,2.0,300.37242000000003,3147.4993,0.0,0.0,-0.015539991222437433,0.0,0.0,0.0,-0.25612718179028476,-0.2812595028981517,-0.4193745094540416,-0.006368485911995624,0.0066716979646703235,-0.025794586439477477
1555,2.0,299.52615,3132.445,0.0,0.0,-0.015549995642811565,0.0,0.0,0.0,-0.25752510215824875,-0.2760813186596047,-0.4185786420304956,-0.009272228056372662,-0.004847968260107215,-0.03968718155356986
1556,2.0,299.92714,3431.0434,0.0,0.0,-0.01556000006318592,0.0,0.0,0.0,-0.31195205419477073,-0.2941402826743857,-0.4368591734446436,-0.002825783897583157,0.0013691203550716589,-0.02103330496782558
1557,2.0,299.90798,3262.592,0.0,0.0,-0.015570004483560052,0.0,0.0,0.0,-0.29090778180786275,-0.2788798445082977,-0.42195886462909765,0.0032738244480013173,0.002517080839966538,-0.027929364571663673
1558,2.0,299.71754,2905.0949,0.0,0.0,-0.015580008903934184,0.0,0.0,0.0,-0.2387377430440808,-0.2543924874865837,-0.38994608898218264,0.025700006635393177,0.0062743019847253945,-0.03199004034117117
1559,2.0,300.24757,3055.5833,0.0,0.0,-0.015590013324308205,0.0,0.0,0.0,-0.26066661316579176,-0.25698001413445276,-0.4111743979847536,-0.0006312957982665444,-0.01072236555896509,-0.024277389309491776
1560,2.0,299.86695,3359.0664,0.0,0.0,-0.015599984835404923,0.0,0.0,0.0,-0.2987297179423277,-0.2690558882962487,-0.4532867034734146,0.017629207157117282,0.008908939088043832,-0.017282251071125382
1561,2.0,299.62827000000004,3347.6629,0.0,0.0,-0.015609989255779055,0.0,0.0,0.0,-0.2924624114362927,-0.28674708305473373,-0.4383964460988605,-0.012473479580536588,0.0022546156268132378,-0.04274079716793826
1562,2.0,300.40494,3233.0758,0.0,0.0,-0.015619993676153188,0.0,0.0,0.0,-0.27214887475650273,-0.27755621563766575,-0.43306923303560557,-0.004264191510392936,0.01964952855800748,-0.03521183622038767
1563,2.0,300.4682,3123.395,0.0,0.0,-0.01562999809652732,0.0,0.0,0.0,-0.2616817783084808,-0.26279911959125374,-0.4249531807946136,-0.036760597104238464,0.0011874421803414188,-0.022915773692610775
1564,2.0,300.16331,3159.7371,0.0,0.0,-0.015640002516901452,0.0,0.0,0.0,-0.2641862387131517,-0.2698209326517527,-0.4264740083997076,-0.00871092448460131,-0.004475473509319845,-0.027392329859662473
1565,2.0,300.66418,3300.6407,0.0,0.0,-0.015650006937275807,0.0,0.0,0.0,-0.28519729676178174,-0.2841891230447828,-0.4339259258626546,-0.01120106644945919,-0.002289985148053938,-0.02374152084835568
1566,2.0,299.50495,3244.8574,0.0,0.0,-0.015660011357649828,0.0,0.0,0.0,-0.2788312895635058,-0.28304131333150273,-0.4244830226157126,0.012374994710566887,-0.002369812435982278,-0.02368916925543898
1567,2.0,299.73596000000003,3034.031,0.0,0.0,-0.01567001577802396,0.0,0.0,0.0,-0.2619716083670848,-0.2550832808747598,-0.4052147648715836,0.0077266053094065725,0.003924892048781686,-0.03372184789533726
1568,2.0,300.05638,3104.9045,0.0,0.0,-0.015679987289120678,0.0,0.0,0.0,-0.27070815470431475,-0.26597816138250074,-0.4071271224478186,0.0032256440004462773,0.007705298686303773,-0.03004711503591937
1569,2.0,299.55324,3378.33,0.0,0.0,-0.01568999170949481,0.0,0.0,0.0,-0.28457046985241874,-0.29505740573739875,-0.4473000773775806,0.015493299251069586,0.00982116825439884,-0.03249645362190026
1570,2.0,299.84231,3332.3356,0.0,0.0,-0.015699996129868943,0.0,0.0,0.0,-0.28731620537090174,-0.27309984037285573,-0.4525307581038086,0.005449078881932215,-0.0017688504579469486,-0.022210761365781477
1571,2.0,299.89847000000003,3068.7754,0.0,0.0,-0.015710000550243075,0.0,0.0,0.0,-0.23998799234247079,-0.26514198686997675,-0.4277011251983146,3.307713914820947e-05,-0.002987701567538187,-0.030916254627196767
1572,2.0,299.98394,3081.0281,0.0,0.0,-0.01572000497061732,0.0,0.0,0.0,-0.26061432946063173,-0.25249692959700676,-0.4234443500707036,-0.005626869621328795,-0.01190608688228929,-0.022499708883548377
1573,2.0,300.04452000000003,3336.2259,0.0,0.0,-0.01573000939099145,0.0,0.0,0.0,-0.2900630351994927,-0.27934408530661475,-0.4447222475331686,-0.009620108125130752,0.000978060045617011,-0.03539619504958247
1574,2.0,299.95145,3325.8993,0.0,0.0,-0.015740013811365583,0.0,0.0,0.0,-0.29756873597774774,-0.2762953880082317,-0.4371262256409996,-0.005705470673986114,-0.0006882943790568664,-0.03502065315176937
1575,2.0,299.52864,3166.0378,0.0,0.0,-0.0157499853224623,0.0,0.0,0.0,-0.26037284156429874,-0.2711869559065687,-0.4308366175002636,0.008149577241750652,0.000977404959162359,-0.033389926414329175
1576,2.0,299.83558999999997,3114.9824,0.0,0.0,-0.01575998974283621,0.0,0.0,0.0,-0.27091267923699974,-0.24915922297260076,-0.4268049561473696,0.004446054096641375,0.01038564228573309,-0.018495045579568884
1577,2.0,300.06955,3146.3802,0.0,0.0,-0.015769994163210455,0.0,0.0,0.0,-0.26542430874533973,-0.27088480472674875,-0.4201119123468176,0.01941777191563488,-0.0003164108308623177,-0.04663874902438616
1578,2.0,300.14856000000003,3299.6422,0.0,0.0,-0.015779998583584698,0.0,0.0,0.0,-0.29163983474011074,-0.28133076477768476,-0.4300382473489706,0.010855942319648091,-0.008030724626220813,-0.023891259961383776
1579,2.0,299.98301000000004,3299.3152,0.0,0.0,-0.01579000300395894,0.0,0.0,0.0,-0.29006959092763973,-0.2800408366053787,-0.43279901949893756,0.012596443559672188,-7.841908003211063e-05,-0.039315697722407256
1580,2.0,300.33606000000003,3099.4179999999997,0.0,0.0,-0.015800007424333073,0.0,0.0,0.0,-0.26287685613892575,-0.2724959838432597,-0.4067728496828546,0.005301064421899325,0.0035776522527617865,-0.027864343299496573
1581,2.0,300.3938,3063.8905,0.0,0.0,-0.015810011844707206,0.0,0.0,0.0,-0.2462072302637618,-0.2692651244418987,-0.41587385194855364,-0.00046629030942677046,0.015117473643228484,-0.03777873917572126
1582,2.0,300.10916000000003,3348.9487,0.0,0.0,-0.015820016265081227,0.0,0.0,0.0,-0.2756258526071537,-0.2805595699940737,-0.4618113690822335,0.002262880302578898,0.007140526658115114,-0.01733193376327868
1583,2.0,300.38515,3410.5,0.0,0.0,-0.015829987776178056,0.0,0.0,0.0,-0.2922407933744207,-0.28326021588310674,-0.46120583055747155,0.008270840480593402,0.0006304362886042174,-0.032526187446084764
1584,2.0,299.82016,3275.3817,0.0,0.0,-0.015839992196552077,0.0,0.0,0.0,-0.28223763374968575,-0.27077928486133473,-0.4426173217754286,-0.0006564213305987414,-0.002109078056649798,-0.027857391390560475
1585,2.0,299.8413,3321.8857,0.0,0.0,-0.01584999661692621,0.0,0.0,0.0,-0.3046359629077287,-0.2815093703728117,-0.4236249821660306,-0.015443795904183984,-0.006160838441177414,-0.03539637946110067
1586,2.0,299.70419,3345.0437,0.0,0.0,-0.015860001037300342,0.0,0.0,0.0,-0.2908624388658877,-0.27841527946994876,-0.4475320305904726,-0.008976327312444531,-0.003930510317936166,-0.025003942320196978
1587,2.0,299.88434,3237.1301,0.0,0.0,-0.015870005457674696,0.0,0.0,0.0,-0.27230109531902574,-0.2813002254196707,-0.4304053985227056,-0.016012326482293584,-0.0004794787119333645,-0.024836384190910277
1588,2.0,300.08457000000004,3293.6981,0.0,0.0,-0.01588000987804883,0.0,0.0,0.0,-0.26745683778343476,-0.2810173867867567,-0.45272774405574956,0.017416235158348583,-0.01171595354077459,-0.010629635949563388
1589,2.0,300.20014,3281.0017,0.0,0.0,-0.01589001429842296,0.0,0.0,0.0,-0.2878271266013257,-0.2803912590199627,-0.42912419443376065,0.013172907886064789,-0.0076665510905546816,-0.026766547611152575
1590,2.0,300.0059,3120.869,0.0,0.0,-0.015899985809519457,0.0,0.0,0.0,-0.26629344428361673,-0.27090754205899276,-0.4114652514259586,0.016836119078595585,-0.01134604632676759,-0.034564832461783365
1591,2.0,300.0868,3233.1222,0.0,0.0,-0.0159099902298937,0.0,0.0,0.0,-0.2869749123397187,-0.28570432711182175,-0.4101091681546236,0.009332843615779952,-0.004624612879613756,-0.03297358397473937
1592,2.0,299.68155,3454.7145,0.0,0.0,-0.015919994650267832,0.0,0.0,0.0,-0.2980999019451697,-0.28473321808348073,-0.4673138237502836,0.00992021466757396,0.005495108908800025,-0.025551021380439475
1593,2.0,299.80633,3347.1548,0.0,0.0,-0.015929999070641965,0.0,0.0,0.0,-0.2809520828178117,-0.2992767108763117,-0.43722267691801864,-0.005785959411579734,0.013851415616778287,-0.035761022840838166
1594,2.0,299.87802,3150.461,0.0,0.0,-0.015940003491016097,0.0,0.0,0.0,-0.2595589889514778,-0.26504290114269774,-0.43305959702715463,-0.016951513066234086,0.005754325034182665,-0.024428268328882376
1595,2.0,299.85656,3177.8203,0.0,0.0,-0.01595000791139023,0.0,0.0,0.0,-0.2703730019687377,-0.26746608875684774,-0.42813894043402356,-0.02840669858777287,0.005856750535116274,-0.029217903578082575
1596,2.0,299.88392000000005,3291.7409,0.0,0.0,-0.015960012331764584,0.0,0.0,0.0,-0.2878602396145937,-0.27954869089930773,-0.43319811844832556,-0.013064737358389188,0.002536171485100638,-0.032435332349368066
1597,2.0,300.12472,3365.5127,0.0,0.0,-0.01596998384286108,0.0,0.0,0.0,-0.3048033518242487,-0.29072938899525674,-0.42749908312837454,-0.005084889134264485,0.0006278000144940373,-0.03751504489019667
1598,2.0,299.92503,3351.5708,0.0,0.0,-0.015979988263235323,0.0,0.0,0.0,-0.29777934001103273,-0.2887569558205927,-0.4322575487779986,0.0027188925981588073,-0.0020918252445470777,-0.036533588551834466
1599,2.0,300.5631,3245.2474,0.0,0.0,-0.015989992683609455,0.0,0.0,0.0,-0.26510213574354374,-0.28994724097806474,-0.43142478891831154,0.0015209045107765886,-0.00011682101868183688,-0.027836354291984274
1600,2.0,300.28747999999996,3130.7198,0.0,0.0,-0.015999997103983588,0.0,0.0,0.0,-0.25315116492157475,-0.2665188519008627,-0.43199060803915357,0.016257111494451984,0.007662288854009033,-0.032532939744751174
1601,2.0,300.32405,3366.8888,0.0,0.0,-0.01601000152435772,0.0,0.0,0.0,-0.2806682410672987,-0.2880092177767967,-0.4547726651425676,0.016757697573855986,-0.0015339443302885183,-0.01887647446046298
1602,2.0,300.41646000000003,3449.0627,0.0,0.0,-0.016020005944731852,0.0,0.0,0.0,-0.3136947531742617,-0.2853812725824387,-0.44935291194767957,0.005715121374563564,-0.008796264764998741,-0.025149864520098375
1603,2.0,300.42216,3244.7123,0.0,0.0,-0.016030010365106095,0.0,0.0,0.0,-0.2876829917746007,-0.27813231924702275,-0.4204961975797436,-0.020354826621364983,-0.003973240898503346,-0.020526202677028482
1604,2.0,300.03376000000003,3261.6679999999997,0.0,0.0,-0.016040014785480228,0.0,0.0,0.0,-0.27999377113823376,-0.26676650035780375,-0.4447053667865026,-0.016549339916042686,-0.003734017818793866,-0.03552922161546117
1605,2.0,300.00987000000003,3438.0964,0.0,0.0,-0.016049986296576946,0.0,0.0,0.0,-0.2941411439369707,-0.2866115709863597,-0.4643427414095606,-0.013639255231339686,0.015589347254548786,-0.01078378776677699
1606,2.0,300.10045,3339.8341,0.0,0.0,-0.016059990716951078,0.0,0.0,0.0,-0.2795946012613387,-0.27661042772932376,-0.45902116201686155,-0.01087260217779229,0.004735402658797855,-0.02106338937654468
1607,2.0,299.84605,3226.4357,0.0,0.0,-0.01606999513732499,0.0,0.0,0.0,-0.2699251555570387,-0.26748208797592676,-0.4433486451676046,-0.004062060578419166,0.013232374521183686,-0.014266816747025185
1608,2.0,300.04864,3232.6455,0.0,0.0,-0.01607999955769923,0.0,0.0,0.0,-0.2826389821142957,-0.27497685578560277,-0.42502768507446664,-0.004646250531524226,0.004240832143912546,-0.03137504110022547
1609,2.0,299.80892,3224.7607,0.0,0.0,-0.016090003978073586,0.0,0.0,0.0,-0.2871559801325887,-0.2775213395692237,-0.4155694006910066,0.013806489120594385,0.01144199300523679,-0.03460221531097277
1610,2.0,299.69221,3293.3286,0.0,0.0,-0.016100008398447718,0.0,0.0,0.0,-0.2815693953087357,-0.28124520593924074,-0.4382750587368806,0.0013470061716391588,-0.007838801378404462,-0.050045442781850656
1611,2.0,299.9571,3379.928,0.0,0.0,-0.01611001281882185,0.0,0.0,0.0,-0.2880158646974527,-0.2847218190198557,-0.4546760314805306,0.005599307901383665,-0.006414833592769785,-0.038454541528667764
1612,2.0,300.12577000000005,3284.4904,0.0,0.0,-0.016119984329918347,0.0,0.0,0.0,-0.25579394409739675,-0.2845140419543497,-0.4580950818229646,-0.002152839619193728,-0.011269693878732188,-0.03514852227463907
1613,2.0,300.24504,3216.1094,0.0,0.0,-0.0161299887502927,0.0,0.0,0.0,-0.26474624177841977,-0.2739950974987107,-0.43887561207115056,-0.004435863739060665,-0.006469785185443083,-0.01943671563950448
1614,2.0,300.18277,3351.6619,0.0,0.0,-0.016139993170666833,0.0,0.0,0.0,-0.2889855045131487,-0.2892590516426457,-0.4405769805790625,-0.0018934634002952884,-0.0035489124269253865,-0.017968827312385183
1615,2.0,300.29463,3400.5294,0.0,0.0,-0.016149997591040854,0.0,0.0,0.0,-0.30667444985641173,-0.28197580992384574,-0.44502576660062354,-0.01038970643188419,0.005624383916183475,-0.016527576317144785
1616,2.0,299.7936,3252.3875,0.0,0.0,-0.016160002011414987,0.0,0.0,0.0,-0.27266188328213276,-0.27773250089006374,-0.4382502138444286,0.008270202538330442,0.01979230562959848,-0.03976982628472626
1617,2.0,300.12716,3364.8740000000003,0.0,0.0,-0.01617000643178912,0.0,0.0,0.0,-0.3067237242087747,-0.27869793571784474,-0.43741600503709854,-0.002400975348107818,0.010456860595511791,-0.03246902595494337
1618,2.0,299.73668,3392.2713,0.0,0.0,-0.016180010852163473,0.0,0.0,0.0,-0.28482461324250075,-0.29069084496145275,-0.45565031198168454,0.004035935444465816,0.0023858913978441476,-0.04593205774214116
1619,2.0,299.49405,3280.2749,0.0,0.0,-0.016190015272537606,0.0,0.0,0.0,-0.29901324558530973,-0.2736437834240387,-0.42446462199389656,0.003322040359309857,-0.003769987488068796,-0.03224746666157717
1620,2.0,299.26338,3360.8836,0.0,0.0,-0.0161999867836341,0.0,0.0,0.0,-0.2900142573396787,-0.27962291146913276,-0.4519875141951946,0.010120788436794051,-0.0038363153462398457,-0.029718103609198472
1621,2.0,300.28821,3420.9458,0.0,0.0,-0.016209991204008234,0.0,0.0,0.0,-0.3107401462801647,-0.2866878788513907,-0.4424540669193166,0.0070732156433720335,-0.004233488816462815,-0.017194750845489784
1622,2.0,300.31498999999997,3306.9048,0.0,0.0,-0.016219995624382477,0.0,0.0,0.0,-0.26881880803785074,-0.2956980128481217,-0.44069966490117063,0.001309787570290969,-0.003955716434048816,-0.03993949906697166
1623,2.0,300.60667,3314.4968,0.0,0.0,-0.01623000004475661,0.0,0.0,0.0,-0.28597715483374775,-0.27028266058982175,-0.45126444879133354,-0.0008577479649081333,-0.0004252585743747536,-0.02326402065923008
1624,2.0,299.91825,3440.0295,0.0,0.0,-0.016240004465130742,0.0,0.0,0.0,-0.28031338061727673,-0.3041523892975037,-0.46121731068110455,0.002687602117845677,-0.002936260683811367,-0.03539641897785457
1625,2.0,300.43626,3341.4384,0.0,0.0,-0.016250008885504874,0.0,0.0,0.0,-0.3041424189165197,-0.27359455973418073,-0.43797684909994955,0.01008570120703121,0.005425411892721464,-0.02144029206924208
1626,2.0,300.48175,3344.1588,0.0,0.0,-0.016260013305879006,0.0,0.0,0.0,-0.2847347582236327,-0.30437648982212073,-0.4274295235090096,-0.00036191996611871963,-0.01140099994594109,-0.03519025703300797
1627,2.0,300.36605,3366.3528,0.0,0.0,-0.016269984816975724,0.0,0.0,0.0,-0.28351146137790273,-0.2938986833205417,-0.4458770385396376,0.002051474484489768,-0.0036257835576869765,-0.027166898937664174
1628,2.0,299.53898,3278.3252,0.0,0.0,-0.016279989237349857,0.0,0.0,0.0,-0.2715087844033307,-0.28237548642579074,-0.44264470992563154,-0.005017433630057145,0.00963263088311665,-0.04226883844360956
1629,2.0,299.60852,3276.1699,0.0,0.0,-0.0162899936577241,0.0,0.0,0.0,-0.27093246801145277,-0.28385137638894975,-0.4410900093696946,0.0017892094895562282,0.008236340834563554,-0.039814767979661665
1630,2.0,299.60322,3373.6584,0.0,0.0,-0.016299998078098232,0.0,0.0,0.0,-0.2925619632586177,-0.2877346168671957,-0.4452113433564386,0.01119158850802379,0.008981787615908421,-0.04765564783799625
1631,2.0,300.85729,3350.3255,0.0,0.0,-0.016310002498472365,0.0,0.0,0.0,-0.2987573594050557,-0.27206536268326076,-0.4475925824164486,0.013199095334899286,-0.005523849139936464,-0.02206916067755658
1632,2.0,300.03306000000003,3187.9663,0.0,0.0,-0.016320006918846497,0.0,0.0,0.0,-0.27155227309762275,-0.27067276187832173,-0.4268371065730426,0.01085315993487349,0.005914184286559545,-0.034656288415809366
1633,2.0,299.64631,3390.6251,0.0,0.0,-0.01633001133922063,0.0,0.0,0.0,-0.28295077943506775,-0.2741373578127507,-0.47357723937593454,0.006776808882343963,-0.004613726013914306,-0.007791342871545673
1634,2.0,299.34997999999996,3465.1611,0.0,0.0,-0.016340015759594873,0.0,0.0,0.0,-0.30042120726176474,-0.28895223951236576,-0.4639490126857026,-0.004514017239148816,0.0002493081302072968,-0.022686976753780275
1635,2.0,299.13968,3348.3462,0.0,0.0,-0.01634998727069148,0.0,0.0,0.0,-0.27497567028298575,-0.29492021167385873,-0.44791776477104156,-0.014292342543544386,-0.008853189256941752,-0.019593930511770382
1636,2.0,299.07541000000003,3355.9648,0.0,0.0,-0.016359991691065723,0.0,0.0,0.0,-0.29563445166934876,-0.2812812979078027,-0.4432137511817915,-0.015433996762466885,-0.00024259538882480077,-0.04158850787596616
1637,2.0,299.90744,3470.6801,0.0,0.0,-0.016369996111439855,0.0,0.0,0.0,-0.3140560173649157,-0.3030623956349297,-0.43788166438555554,0.004513703536917856,-0.0036078947284964866,-0.024499454214657875
1638,2.0,299.5905,3295.4861,0.0,0.0,-0.016380000531813765,0.0,0.0,0.0,-0.2918502361233757,-0.28066240474672277,-0.42923284524198363,0.002051311452548678,0.006141112690880634,-0.041386128393742866
1639,2.0,299.81715,3248.3277,0.0,0.0,-0.01639000495218801,0.0,0.0,0.0,-0.26298035963664074,-0.27160205407503574,-0.4528281064781545,0.015869955723992683,0.0007023169903707904,-0.02089640170706428
1640,2.0,300.17137,3338.2944,0.0,0.0,-0.016400009372562363,0.0,0.0,0.0,-0.27109886394287475,-0.28055433149105674,-0.4631049348223985,-0.0014052731186396587,0.0042366834927031055,-0.026765913316589975
1641,2.0,299.95456,3224.9019,0.0,0.0,-0.016410013792936495,0.0,0.0,0.0,-0.25269961001450975,-0.2576114614642718,-0.4699785803207746,0.0010880258295547889,0.004467392029172266,-0.01804019355667848
1642,2.0,300.10925,3311.3913,0.0,0.0,-0.01641998530403299,0.0,0.0,0.0,-0.2751340919361207,-0.2953248024387887,-0.43612136525182754,-0.00985110756570362,-0.008612816644993821,-0.049883274129845855
1643,2.0,300.45415,3555.3914,0.0,0.0,-0.016429989724407124,0.0,0.0,0.0,-0.32755491009965265,-0.28296661653413074,-0.47022868084295755,-0.0025628958551631277,-0.008063151365196081,-0.015225475971387485
1644,2.0,299.8137,3470.0441,0.0,0.0,-0.016439994144781478,0.0,0.0,0.0,-0.3035095023740557,-0.3004647668835637,-0.4508324800087016,0.004437622741234265,0.0012094998244183389,-0.03880660338191356
1645,2.0,299.97333,3412.6104,0.0,0.0,-0.016449998565155388,0.0,0.0,0.0,-0.2905721933747427,-0.29863082473256775,-0.4481453204784996,0.002753141059488867,0.002507072158128758,-0.02299034687347058
1646,2.0,299.87655,3534.6892,0.0,0.0,-0.01646000298552963,0.0,0.0,0.0,-0.3054166113147727,-0.2966316214902617,-0.47240901267313956,-0.0055889223918336945,0.012286191445302687,-0.024886962596151974
1647,2.0,299.54908,3513.6496,0.0,0.0,-0.016470007405903764,0.0,0.0,0.0,-0.3018968033823947,-0.3060322823405347,-0.46013267711155953,0.004286617876181246,0.005795290431750635,-0.027397264387649473
1648,2.0,299.76114,3259.1809,0.0,0.0,-0.016480011826277896,0.0,0.0,0.0,-0.28307420342974876,-0.2800271678615297,-0.42760823042914664,0.006081483631770704,0.013562250250239886,-0.03739118722447286
1649,2.0,299.48089,3220.8703,0.0,0.0,-0.01649001624665225,0.0,0.0,0.0,-0.3038069216759087,-0.26157302617524775,-0.41368421848245357,-0.005359140168605955,0.0038052022860192262,-0.037312148650422365
1650,2.0,299.72976,3284.4128,0.0,0.0,-0.016499987757748746,0.0,0.0,0.0,-0.28420483855383377,-0.27589470838868774,-0.4382799426023625,0.004155364700627566,0.012936900659522688,-0.038344836940340764
1651,2.0,300.25166,3273.6428,0.0,0.0,-0.01650999217812288,0.0,0.0,0.0,-0.2894826658072147,-0.26743977465175073,-0.43818322788031755,0.0024442042450741777,0.013687323816083688,-0.03573594186111286
1652,2.0,300.3921,3407.1051,0.0,0.0,-0.01651999659849701,0.0,0.0,0.0,-0.2642742800143407,-0.29025388085582776,-0.48114672424798455,-0.0037318146077764264,0.016460522465277082,-0.03289484228296817
1653,2.0,300.46258,3556.8607,0.0,0.0,-0.016530001018871254,0.0,0.0,0.0,-0.2897323914268607,-0.3072374318769737,-0.48422701468448553,0.0010956240907296789,-0.0036211676968564265,-0.03104077901148637
1654,2.0,299.99169,3384.7936,0.0,0.0,-0.016540005439245387,0.0,0.0,0.0,-0.28730923421021376,-0.2836474496738237,-0.4579360319547676,-0.003805290844077966,-0.0024378779167498177,-0.029182228055311673
1655,2.0,299.73999,3325.2711,0.0,0.0,-0.01655000985961952,0.0,0.0,0.0,-0.3030094735822067,-0.2852313115676387,-0.4225585972307866,0.009160749165795552,-0.008435281852572502,-0.03515616420689326
1656,2.0,300.55477,3464.5672,0.0,0.0,-0.01656001427999365,0.0,0.0,0.0,-0.30971417989140965,-0.2942792093955967,-0.4491485292700086,0.005826165783497795,-0.005886953392772064,-0.019590578680439584
1657,2.0,300.53817999999995,3284.1538,0.0,0.0,-0.01656998579109037,0.0,0.0,0.0,-0.29932789013886274,-0.2649108645221667,-0.43406200535108463,0.005486118847287775,0.0055906918304833245,-0.039111798365033965
1658,2.0,299.80002,3228.5745,0.0,0.0,-0.0165799902114645,0.0,0.0,0.0,-0.25185289770094577,-0.2936288446864107,-0.4359243083723796,-0.007181832710366703,0.008557766159110762,-0.04437696505841546
1659,2.0,299.2533,3364.9249,0.0,0.0,-0.016589994631838634,0.0,0.0,0.0,-0.28604889294082775,-0.26443548810525075,-0.4723687461141655,-0.01215048787265979,0.011067246508752189,-0.028327393528946074
1660,2.0,299.3682,3520.1499,0.0,0.0,-0.016599999052212877,0.0,0.0,0.0,-0.3015650956971577,-0.29664195664128173,-0.47183062925105757,-0.013925521689341988,0.003876479060328697,-0.013053252168505688
1661,2.0,299.78066,3513.3348,0.0,0.0,-0.01661000347258701,0.0,0.0,0.0,-0.32123430663835767,-0.2870794797500387,-0.4596522749741475,0.003647208629726466,-0.008886192332573902,-0.03230462612621837
1662,2.0,299.84926,3571.2851,0.0,0.0,-0.01662000789296114,0.0,0.0,0.0,-0.3282278804185697,-0.29030673198104373,-0.46704688301143854,0.01012303542021581,0.005115915561601555,-0.02791119902387087
1663,2.0,299.83634,3504.2811,0.0,0.0,-0.016630012313335274,0.0,0.0,0.0,-0.3163804637568207,-0.2886932831843087,-0.4601402258248045,0.011461664242678188,-0.011488058394533091,-0.02227822355743948
1664,2.0,300.18567,3365.5967,0.0,0.0,-0.01663998382443177,0.0,0.0,0.0,-0.26728119087859975,-0.2820959408557017,-0.4736802261160986,0.008989906181009661,-0.011918389765003489,-0.032680976597611266
1665,2.0,300.23332,3466.6848,0.0,0.0,-0.016649988244806013,0.0,0.0,0.0,-0.29375485246884675,-0.2943616474237327,-0.4656691263204646,0.0018026700105096781,-0.005317243087571036,-0.016690503893474484
1666,2.0,300.08252999999996,3460.9645,0.0,0.0,-0.016659992665180257,0.0,0.0,0.0,-0.3054674866022937,-0.29129423539600274,-0.4552850454531356,0.014014721135395286,0.0071981995365819835,-0.026563015050315473
1667,2.0,300.24375,3195.4883,0.0,0.0,-0.0166699970855545,0.0,0.0,0.0,-0.2719697625363257,-0.27098131679877374,-0.4283975826545496,0.002906123991387107,0.008127079543155303,-0.023970080686662776
1668,2.0,300.26149,3201.3553,0.0,0.0,-0.016680001505928632,0.0,0.0,0.0,-0.27094376575006773,-0.2787732100677737,-0.42341509754031653,-0.005169935268157885,0.006956224266950884,-0.04628423409264826
1669,2.0,300.60152,3599.8652,0.0,0.0,-0.016690005926302542,0.0,0.0,0.0,-0.3123087283624717,-0.3001041714379757,-0.48185624249800857,0.009637406533487972,-0.005351865438187995,-0.03203489185684767
1670,2.0,300.14005,3606.2579,0.0,0.0,-0.016700010346676786,0.0,0.0,0.0,-0.2900151489997667,-0.3255451690563067,-0.48065204541666356,0.003972486635128906,0.01063647538773839,-0.06332917692410314
1671,2.0,299.03938,3432.8905,0.0,0.0,-0.01671001476705114,0.0,0.0,0.0,-0.28074854113772374,-0.30138116040650476,-0.46138329117998556,0.005735918636841095,-0.01011913754840612,-0.033568227021176074
1672,2.0,299.09013999999996,3473.4790000000003,0.0,0.0,-0.016719986278147636,0.0,0.0,0.0,-0.2993431902153727,-0.2926537839826797,-0.46385390903131657,-0.006279084829172425,-0.015802994077884085,-0.032146924893904465
1673,2.0,299.73373,3514.4976,0.0,0.0,-0.01672999069852177,0.0,0.0,0.0,-0.29821126826366073,-0.3050463899932347,-0.4650618652705325,0.0007015829919983503,0.003505237395939997,-0.016115742840499984
1674,2.0,299.08005,3427.0183,0.0,0.0,-0.0167399951188959,0.0,0.0,0.0,-0.29892578183667773,-0.2953208001008937,-0.4474814187479776,0.021110326160926982,0.012056122877596689,-0.03812372246376846
1675,2.0,299.74033,3507.1505,0.0,0.0,-0.016749999539270255,0.0,0.0,0.0,-0.3053573361839227,-0.2940453512725167,-0.46668348086307354,0.009347770106978081,0.0026028848849347377,-0.02068737429093488
1676,2.0,299.53157999999996,3346.1309,0.0,0.0,-0.016760003959644165,0.0,0.0,0.0,-0.27364065248122976,-0.2841075260142297,-0.4593920723484676,-0.013831399874302886,-0.01078358106375659,-0.032181477735564575
1677,2.0,299.81255,3295.5708,0.0,0.0,-0.01677000838001841,0.0,0.0,0.0,-0.2817226595188617,-0.28316818237652375,-0.43688038076923663,-0.004705557073127325,-0.018955458319008085,-0.040219113538067466
1678,2.0,300.48172,3594.6014,0.0,0.0,-0.01678001280039254,0.0,0.0,0.0,-0.3114218710799457,-0.30946423135674167,-0.47178296596635355,0.0015397803468894884,0.006594418190143403,-0.02393084662954068
1679,2.0,299.83395,3622.7498,0.0,0.0,-0.01678998431148926,0.0,0.0,0.0,-0.31614977710655373,-0.3112655873845217,-0.4738101247789185,0.003899050827506356,0.0008878240548439121,-0.012328819890259789
1680,2.0,300.05984,3338.1413,0.0,0.0,-0.01679998873186339,0.0,0.0,0.0,-0.28277735154795175,-0.2829734458398047,-0.4489607942914806,0.004454740588423665,-0.0012529222521537988,-0.018951655591382784
1681,2.0,300.45822000000004,3416.4272,0.0,0.0,-0.016809993152237523,0.0,0.0,0.0,-0.2768857987090007,-0.30122882838647075,-0.4603939233848426,-0.010399215784072689,0.012685971298757885,-0.04056999698144696
1682,2.0,299.32279,3550.5985,0.0,0.0,-0.016819997572611656,0.0,0.0,0.0,-0.3033965047229037,-0.30045446213004673,-0.47544232883500454,0.004653484326638146,0.022120403774863878,-0.04091610599035526
1683,2.0,299.69442000000004,3522.3319,0.0,0.0,-0.016830001992985788,0.0,0.0,0.0,-0.3266929483720837,-0.29413775968163675,-0.4498702571837376,-0.00040336157096868756,0.006132059199912124,-0.04397382324112845
1684,2.0,299.61298999999997,3451.7643,0.0,0.0,-0.01684000641336003,0.0,0.0,0.0,-0.2966960540641207,-0.2917845876493967,-0.46076951493191054,0.004708917415758965,-0.002313696720269088,-0.026099625382082478
1685,2.0,299.74204,3404.7866,0.0,0.0,-0.016850010833734164,0.0,0.0,0.0,-0.29547566524617774,-0.2918559508539397,-0.44763850291098056,0.005576345931592495,-0.009973978427155031,-0.025013628991152975
1686,2.0,299.97097,3421.611,0.0,0.0,-0.016860015254108296,0.0,0.0,0.0,-0.27972642509934875,-0.29612882652563977,-0.4642290648808416,0.015927316825403784,0.005102431938545825,-0.024176511142785878
1687,2.0,300.36064,3455.073,0.0,0.0,-0.016869986765204792,0.0,0.0,0.0,-0.27818536288975776,-0.3061290578575857,-0.46594149807984553,-0.0008206090658128091,-0.018215528380482682,-0.05098250458033145
1688,2.0,299.98078,3520.3177,0.0,0.0,-0.016879991185579146,0.0,0.0,0.0,-0.28464623056239574,-0.3067034186767707,-0.47873903936036455,-0.004196380152750476,-0.012622665459010089,-0.028393410825961474
1689,2.0,300.3045,3367.9366,0.0,0.0,-0.01688999560595328,0.0,0.0,0.0,-0.2987359696954447,-0.29347377689110676,-0.43155887230404455,-0.002410932860815548,0.006828321909477904,-0.05615172662174395
1690,2.0,299.37962000000005,3307.4227,0.0,0.0,-0.01690000002632741,0.0,0.0,0.0,-0.2810408131290687,-0.2889856159706597,-0.43534748535545154,0.0058709046257631745,0.01741448020917538,-0.031096251414711073
1691,2.0,299.81284,3589.6552,0.0,0.0,-0.016910004446701654,0.0,0.0,0.0,-0.3357622865721577,-0.2899578801041147,-0.46544536016838056,-0.012893168785206686,0.0026247154596642478,-0.029198674117684772
1692,2.0,299.61328,3681.4972,0.0,0.0,-0.016920008867075564,0.0,0.0,0.0,-0.3094362453889797,-0.3033110472094697,-0.5063359393489666,-0.01828812977664788,-0.005898188411205874,-0.001956477829314328
1693,2.0,299.8177,3426.2924,0.0,0.0,-0.01693001328744992,0.0,0.0,0.0,-0.27492721666320374,-0.2928450552040567,-0.47373505307900954,-0.013286723230047488,-0.004768514557490745,-0.047670480806210155
1694,2.0,300.22053,3474.1473,0.0,0.0,-0.016939984798546415,0.0,0.0,0.0,-0.30044127974624574,-0.28873619432604375,-0.4668765455371276,0.005064267468229285,0.007735323718567012,-0.025159720403821077
1695,2.0,300.76912000000004,3616.5234,0.0,0.0,-0.016949989218920547,0.0,0.0,0.0,-0.3415176484651677,-0.29462672378239374,-0.4631884367631396,-0.0005005037325683725,-0.009947059209098311,-0.04437646856586646
1696,2.0,300.43164,3490.5134,0.0,0.0,-0.01695999363929479,0.0,0.0,0.0,-0.3099359904708007,-0.30080389155953274,-0.4502890435825686,0.0030315464192403373,-0.011643382542112389,-0.03129095958042727
1697,2.0,300.5559,3388.2381,0.0,0.0,-0.016969998059669034,0.0,0.0,0.0,-0.3074279228957737,-0.2865853075437677,-0.43592654765510064,0.009708858904039771,0.007849762920636282,-0.036607172800596666
1698,2.0,300.10638,3440.3146,0.0,0.0,-0.016980002480043277,0.0,0.0,0.0,-0.27629403025309773,-0.2974973930382067,-0.47197832058563355,0.011263535344624388,0.015182173715113885,-0.024009909521593577
1699,2.0,299.47348,3340.7503,0.0,0.0,-0.01699000690041741,0.0,0.0,0.0,-0.25629429712927776,-0.2984857881132537,-0.4607245975549776,-0.02258202937467278,-0.011520029474938388,-0.039740523091834255
1700,2.0,299.40171000000004,3451.3522,0.0,0.0,-0.01700001132079132,0.0,0.0,0.0,-0.2870710900392107,-0.29215084716304374,-0.46990294120080955,-0.024342827027449977,-0.014337936771544185,-0.025361176815203272
1701,2.0,299.743,3621.7621,0.0,0.0,-0.017010015741165563,0.0,0.0,0.0,-0.3133712832123377,-0.3155472074045847,-0.4720067321184375,-0.018049379682085084,0.007177576654646664,-0.045885992352844865
1702,2.0,299.1242,3368.6946,0.0,0.0,-0.01701998725226217,0.0,0.0,0.0,-0.3050376355123707,-0.27524942006250275,-0.44371199665346456,0.013342704284822385,0.028203286603697676,-0.03450872069774557
1703,2.0,299.86963,3241.7737,0.0,0.0,-0.017029991672636413,0.0,0.0,0.0,-0.2865305413758627,-0.2660913008886667,-0.4327964154461806,0.004789679629554576,0.006915972602753354,-0.03480143649263437
1704,2.0,300.57336000000004,3452.1581,0.0,0.0,-0.017039996093010545,0.0,0.0,0.0,-0.28240146615835476,-0.2823825589114887,-0.4845858268098976,0.0016705095708164585,-0.007790834726620523,-0.01009378207922873
1705,2.0,300.35305,3559.6162,0.0,0.0,-0.017050000513384678,0.0,0.0,0.0,-0.2863293301710047,-0.30847057751367574,-0.4872345334988046,0.0026833931782552873,0.0019408113615681684,-0.02801163440028307
1706,2.0,300.90362999999996,3531.6306,0.0,0.0,-0.017060004933759032,0.0,0.0,0.0,-0.2957286839286487,-0.30398658105113974,-0.47381224247162756,0.00820955566949506,0.014788430805754486,-0.037300702977292766
1707,2.0,300.30455,3564.2463,0.0,0.0,-0.017070009354132942,0.0,0.0,0.0,-0.3108925492277057,-0.3071049291613967,-0.46544439758078554,-0.008414616312807972,-0.004042899613728126,-0.04338215003073486
1708,2.0,299.98172,3573.0266,0.0,0.0,-0.017080013774507186,0.0,0.0,0.0,-0.32733800365074567,-0.3008398619380827,-0.4579330124694696,-0.01217748794807449,0.004615559388645245,-0.03948283940590286
1709,2.0,300.14276,3480.0641,0.0,0.0,-0.017089985285603793,0.0,0.0,0.0,-0.2992701247506617,-0.3058423486092897,-0.45274009557446854,-0.004896018910324445,0.0011053997250444591,-0.04122950728603556
1710,2.0,299.99862,3520.4265,0.0,0.0,-0.017099989705978036,0.0,0.0,0.0,-0.2831246936822317,-0.29875866649768473,-0.4882383705053755,0.006609634977495183,0.006864585522606843,-0.024377854070156878
1711,2.0,299.74327999999997,3477.0588,0.0,0.0,-0.017109994126352168,0.0,0.0,0.0,-0.28568132633455173,-0.29679554509143974,-0.4744621714832706,0.003447097915802077,-0.013532542770557987,-0.009493153359151293
1712,2.0,299.61437,3284.6449,0.0,0.0,-0.0171199985467263,0.0,0.0,0.0,-0.2850855656732547,-0.26499652468562074,-0.44836795179047156,-0.00025743209593156975,-0.017793368872068786,-0.010941250885317388
1713,2.0,299.64995,3462.4236,0.0,0.0,-0.017130002967100433,0.0,0.0,0.0,-0.29945507329141474,-0.2943338134434857,-0.45870142081530557,0.0038726249609233264,-0.0017503131486924582,-0.03646386579920337
1714,2.0,299.77977000000004,3778.4715,0.0,0.0,-0.017140007387474565,0.0,0.0,0.0,-0.3585457926232147,-0.3140885730906287,-0.47592662185280055,0.018381454163858283,0.012409332743205787,-0.03156408418463257
1715,2.0,300.28274,3566.5342,0.0,0.0,-0.01715001180784881,0.0,0.0,0.0,-0.3114418625044187,-0.30884222751785473,-0.4638532504187516,0.0073207146459232835,-0.004331228238333947,-0.058522647755985646
1716,2.0,299.8398,3341.7555,0.0,0.0,-0.01716001622822294,0.0,0.0,0.0,-0.26436046706784677,-0.29540814225951373,-0.45604162917030455,-0.002409147514139348,-0.001092046709926619,-0.03989566586764566
1717,2.0,300.02734,3469.9584,0.0,0.0,-0.017169987739319437,0.0,0.0,0.0,-0.27132583196527477,-0.3053733354030017,-0.47808156163547655,0.0005091831518649645,-0.006200714088262834,-0.05160795650930875
1718,2.0,300.01551,3534.2614,0.0,0.0,-0.01717999215969357,0.0,0.0,0.0,-0.28614023743734274,-0.3154377155987787,-0.47274925192421857,0.007627144780915582,-0.0055010937718406846,-0.028235051994332676
1719,2.0,300.75654,3486.3042,0.0,0.0,-0.017189996580067923,0.0,0.0,0.0,-0.29174509116049874,-0.3079468589344887,-0.46005746355663657,-0.0002908089088631047,-0.02203590378277438,-0.035990472312733064
1720,2.0,300.23586,3485.8432,0.0,0.0,-0.017200001000442056,0.0,0.0,0.0,-0.31726668269178365,-0.28609586721546376,-0.45624674138804755,0.015219843314081587,-0.007063073921796124,-0.013414808175188486
1721,2.0,300.35423,3509.9589,0.0,0.0,-0.017210005420816188,0.0,0.0,0.0,-0.3034158577998137,-0.3015769709883297,-0.4619470331381225,0.003798951140852286,0.015628170945380382,-0.032933843292567266
1722,2.0,300.04762,3648.3074,0.0,0.0,-0.01722000984119043,0.0,0.0,0.0,-0.2988051949422767,-0.3170454091349457,-0.4931437574194995,0.014394292728856086,0.014953558148051285,-0.018900600958594083
1723,2.0,299.89659,3854.6169,0.0,0.0,-0.01723001426156434,0.0,0.0,0.0,-0.3394400905926287,-0.3227199744649817,-0.5095472024933935,-0.010234391403555792,-0.008466938521471772,-0.016646207638852783
1724,2.0,300.13216,3802.8723,0.0,0.0,-0.01723998577266128,0.0,0.0,0.0,-0.3355400808252277,-0.3152109299613967,-0.5052272106920435,-0.002395606845102988,-0.004279285694482615,-0.01989177537866538
1725,2.0,299.26231,3352.3277,0.0,0.0,-0.017249990193035192,0.0,0.0,0.0,-0.2990183219683107,-0.27129685301241474,-0.44870873819660456,0.0025019150190947878,0.003230380032738687,-0.04685350333008075
1726,2.0,299.3263,3377.6068,0.0,0.0,-0.017259994613409324,0.0,0.0,0.0,-0.29208875519691574,-0.28855577501323776,-0.44606361841305153,0.015024034758756785,-0.0017546412464946083,-0.04821577350652636
1727,2.0,300.14873,3593.2651,0.0,0.0,-0.017269999033783567,0.0,0.0,0.0,-0.3149623290493617,-0.30465150616426273,-0.4726490414893285,0.0003187813193387667,-0.018323713093659683,-0.044000667276027756
1728,2.0,299.79733,3460.5761,0.0,0.0,-0.01728000345415781,0.0,0.0,0.0,-0.28523965061596174,-0.28838346170123175,-0.4783056013650875,0.003127115256747247,0.00037375599384934465,-0.03870863121649446
1729,2.0,299.86407,3340.3548,0.0,0.0,-0.017290007874532054,0.0,0.0,0.0,-0.2788724579150687,-0.2892072644300347,-0.44730471806303856,-0.0013843604471757386,0.014730576251544687,-0.033028447414653966
1730,2.0,300.36846,3485.1445,0.0,0.0,-0.017300012294906186,0.0,0.0,0.0,-0.2937493302558017,-0.28746531525561775,-0.47818225843041456,-0.003382910143167237,0.005909424240239765,-0.013165503054333987
1731,2.0,299.60277,3676.2995,0.0,0.0,-0.017309983806002682,0.0,0.0,0.0,-0.32442353159310966,-0.3171889562766127,-0.4758907527992605,-0.009204140284102921,-0.007549875037564653,-0.015742207177884885
1732,2.0,300.002,3876.4853,0.0,0.0,-0.017319988226376815,0.0,0.0,0.0,-0.35540963157619965,-0.3313603836327237,-0.49158472015313454,0.0003916200997373946,0.006199382576306425,-0.02371074135006798
1733,2.0,300.19374,3896.0619,0.0,0.0,-0.017329992646750947,0.0,0.0,0.0,-0.3290958203217287,-0.3349591237478917,-0.5202506091297375,-0.00047175942816653053,0.010118959317713531,-0.036299199485702066
1734,2.0,300.2828,3494.9326,0.0,0.0,-0.01733999706712519,0.0,0.0,0.0,-0.2830402696838997,-0.3137631171585087,-0.46556886522306956,-0.0018388023064256583,0.018431869435833883,-0.04647705862642855
1735,2.0,300.3254,3352.1047,0.0,0.0,-0.017350001487499322,0.0,0.0,0.0,-0.26953015013805476,-0.2880961039728717,-0.4613298625022126,-0.007944497448010852,-0.0060059991337709645,-0.046626109742638755
1736,2.0,300.12108,3537.1799,0.0,0.0,-0.017360005907873455,0.0,0.0,0.0,-0.3120318679051477,-0.29643021776788475,-0.4667522805448635,0.01122695904251459,0.012029572685226387,-0.04113468024892686
1737,2.0,300.31025,3456.0548,0.0,0.0,-0.01737001032824781,0.0,0.0,0.0,-0.3141812956072797,-0.2832626071533427,-0.4531104688835216,0.00873065124814819,0.005701407034460064,-0.035209696236176466
1738,2.0,300.40822000000003,3268.2124,0.0,0.0,-0.01738001474862172,0.0,0.0,0.0,-0.2759159157132808,-0.2746245791233357,-0.4429144573672536,0.017113929964513386,-0.004789312225068315,-0.03572760382603997
1739,2.0,300.12248999999997,3453.1279999999997,0.0,0.0,-0.017389986259718437,0.0,0.0,0.0,-0.27034451950842675,-0.3037392669667317,-0.47558091105118155,-0.009949210339060611,-0.027264039224751176,-0.03239174435656627
1740,2.0,299.82189,3780.8307,0.0,0.0,-0.01739999068009257,0.0,0.0,0.0,-0.3301331452441047,-0.3122774594643857,-0.5068675410139316,-0.01688115399254018,-0.0019350012841697582,-0.02236079026833818
1741,2.0,299.60871000000003,3851.5434,0.0,0.0,-0.017409995100466813,0.0,0.0,0.0,-0.33738860364516265,-0.3188481938453667,-0.5145362230707715,-0.011967301373830688,0.016712030391848983,-0.01098463014859859
1742,2.0,299.82809,3683.7091,0.0,0.0,-0.017419999520840945,0.0,0.0,0.0,-0.3183330980245307,-0.3167106110369037,-0.48471186498983654,-0.01998013585363588,0.01038053550522909,-0.028354463518617673
1743,2.0,300.28805,3503.2215,0.0,0.0,-0.017430003941215078,0.0,0.0,0.0,-0.3128757735159347,-0.2833590179003577,-0.4686570792753525,0.001087113296514729,0.006976241427976424,-0.007407084084447284
1744,2.0,300.19083,3421.2296,0.0,0.0,-0.01744000836158921,0.0,0.0,0.0,-0.28033051467646775,-0.3088883202649037,-0.4507495556205176,9.94724321531647e-05,-0.002364723792655068,-0.05386169222973515
1745,2.0,300.1803,3492.3524,0.0,0.0,-0.017450012781963342,0.0,0.0,0.0,-0.28589608469324673,-0.3018843809361687,-0.4738074599311556,0.0034117384257373665,0.018929391446935482,-0.040117038722993464
1746,2.0,300.26482000000004,3488.612,0.0,0.0,-0.01745998429306006,0.0,0.0,0.0,-0.2993336150019277,-0.29166657441024973,-0.4694507479461815,-0.017529966402572983,-0.0027979300576341974,-0.06067133071929415
1747,2.0,300.85625,3270.7755,0.0,0.0,-0.017469988713434192,0.0,0.0,0.0,-0.27827280637338775,-0.2857448875133247,-0.4302163969815526,-0.008901513484685982,-0.01053182793066049,-0.045516852169163555
1748,2.0,300.84028,3293.4027,0.0,0.0,-0.017479993133808214,0.0,0.0,0.0,-0.27468675214947175,-0.28923637510540773,-0.4371890471471996,-0.008382308732044461,-0.0005846573856411914,-0.05510972555015645
1749,2.0,300.47798,3745.4069,0.0,0.0,-0.017489997554182346,0.0,0.0,0.0,-0.3350186927212707,-0.3178627777256137,-0.4856287043428215,0.007641622098344383,-0.0003150724085402257,-0.02347302781035748
1750,2.0,300.49482,3931.37,0.0,0.0,-0.0175000019745567,0.0,0.0,0.0,-0.3199669131482757,-0.35132638566071467,-0.5237450351471106,0.008176720388079472,-0.013430409186978187,-0.02275260394950718
1751,2.0,299.48299,3684.8869,0.0,0.0,-0.017510006394930833,0.0,0.0,0.0,-0.2866897938940797,-0.3117609045634057,-0.5216628973841195,-0.012821785315661686,-0.031868441209920266,-0.012752998806122988
1752,2.0,299.76804,3561.6489,0.0,0.0,-0.017520010815304965,0.0,0.0,0.0,-0.2932075859573357,-0.30355109629066074,-0.4858936388464685,0.018700817423126983,-0.01112608999505959,-0.014933507955072485
1753,2.0,300.35853,3634.8877,0.0,0.0,-0.01753001523567921,0.0,0.0,0.0,-0.3248761605452807,-0.29468769104091075,-0.48535123593543755,3.629293354708366e-05,0.02154217538004718,-0.029999003894671177
1754,2.0,300.21006,3640.1755,0.0,0.0,-0.017539986746775815,0.0,0.0,0.0,-0.3450753316862837,-0.28806748979004776,-0.4733796353414325,0.0028186207260012075,0.025035361179297774,-0.02836544613645157
1755,2.0,300.31687,3629.6040000000003,0.0,0.0,-0.01754999116715006,0.0,0.0,0.0,-0.33948180609924566,-0.30044071232618974,-0.46338646636268355,-0.009659428612486382,-0.006773484408765863,-0.04276852779667505
1756,2.0,300.2465,3490.9094,0.0,0.0,-0.01755999558752397,0.0,0.0,0.0,-0.29243033193812673,-0.3000814847682367,-0.46863748301841857,-0.001877729146117438,0.006618981601717624,-0.025862678872697678
1757,2.0,299.97085,3356.6571,0.0,0.0,-0.0175700000078981,0.0,0.0,0.0,-0.26813014247488476,-0.2851278182024247,-0.4670819718624016,0.013604135982873687,0.0053378130778511355,-0.04134870197479916
1758,2.0,300.24627000000004,3652.8335,0.0,0.0,-0.017580004428272344,0.0,0.0,0.0,-0.3086630241051687,-0.3112108414816187,-0.49049630716071657,0.005101849725038366,-0.014401049080522884,-0.02063425668094258
1759,2.0,299.95704,3910.5586,0.0,0.0,-0.017590008848646588,0.0,0.0,0.0,-0.35602075310901266,-0.3171149282243067,-0.5155764864184375,-0.002358294112820508,-0.013685110877865288,-0.018815808137225682
1760,2.0,299.65738,3691.9252,0.0,0.0,-0.01760001326902083,0.0,0.0,0.0,-0.3221262301713837,-0.3301681631675607,-0.46995868008881053,-0.00013176499857669289,-0.008130601093877851,-0.027947911101494072
1761,2.0,299.64647,3528.8091,0.0,0.0,-0.017609984780117327,0.0,0.0,0.0,-0.29502777830447474,-0.3059243712048847,-0.47171769239491157,0.014699949754022086,0.025166237628464275,-0.025021592123688874
1762,2.0,299.66438999999997,3707.4501,0.0,0.0,-0.01761998920049146,0.0,0.0,0.0,-0.30283312753480274,-0.3144128029901277,-0.5097263147135705,-0.005032326785326985,0.00995132965296977,-0.033438554313128366
1763,2.0,300.00678,3724.9777,0.0,0.0,-0.01762999362086559,0.0,0.0,0.0,-0.31463992300004273,-0.3149481840779657,-0.5027121111613225,-0.013069585760117687,-0.015130122044226785,-0.016083933880110684
1764,2.0,300.13891,3521.3915,0.0,0.0,-0.017639998041239724,0.0,0.0,0.0,-0.28594531851560573,-0.3024308672451027,-0.4820389010935356,0.007889565917689533,-0.005646184600035035,-0.05904759439429385
1765,2.0,300.84245,3444.5831,0.0,0.0,-0.017650002461613967,0.0,0.0,0.0,-0.2965868054383387,-0.2919465050153767,-0.45853394070627657,0.010829469134285388,0.00996511684575546,-0.04733040975464776
1766,2.0,300.33072999999996,3352.4366,0.0,0.0,-0.0176600068819881,0.0,0.0,0.0,-0.3000233748750017,-0.29224474504981074,-0.4267889163982866,0.017338449974671783,0.006258514129617254,-0.07410996243083383
1767,2.0,300.40609,3507.3258,0.0,0.0,-0.017670011302362232,0.0,0.0,0.0,-0.29809527139221276,-0.2982742822873797,-0.4697699217276816,-0.013135565566879386,-0.007686705952268812,-0.039831799700592564
1768,2.0,300.04073999999997,3712.6764,0.0,0.0,-0.017680015722736586,0.0,0.0,0.0,-0.3045667376608967,-0.3223473416082057,-0.5016468610661905,-0.0016081552742375684,0.014654877349823786,-0.04438004533871946
1769,2.0,299.98194,3662.4296,0.0,0.0,-0.017689987233833082,0.0,0.0,0.0,-0.30355257563580673,-0.3021193435018577,-0.5076152385277235,0.007546372333293962,0.015848183005843886,-0.0010881653540935588
1770,2.0,299.78942,3531.78,0.0,0.0,-0.017699991654207214,0.0,0.0,0.0,-0.2880151250248797,-0.2942211096348627,-0.4913367069261575,0.005223857500054594,-0.0065723449420149425,-0.009173871261215601
1771,2.0,299.3573,3824.6094,0.0,0.0,-0.017709996074581347,0.0,0.0,0.0,-0.3396567031990067,-0.3207597509540227,-0.5021693130827526,-0.003932075890665676,-0.014771726364605884,-0.01031294463080839
1772,2.0,299.24983,4021.2683,0.0,0.0,-0.01772000049495559,0.0,0.0,0.0,-0.39183830314642965,-0.3251970467194497,-0.5053298123971696,-0.005967909846611844,-0.01882275092691088,-0.012106965741114488
1773,2.0,299.74363999999997,3726.8997,0.0,0.0,-0.017730004915329722,0.0,0.0,0.0,-0.31584238742371673,-0.3253649422610197,-0.4916771285622545,0.008380170571683441,0.01848992360031338,-0.03991904864020336
1774,2.0,299.5416,3397.3055,0.0,0.0,-0.017740009335703855,0.0,0.0,0.0,-0.2834788347246827,-0.29424838632755473,-0.45496882022942653,-0.005993749142711984,-0.0006524217588765144,-0.045403561688732656
1775,2.0,299.65178,3408.2547,0.0,0.0,-0.017750013756077987,0.0,0.0,0.0,-0.2857563777694587,-0.26915597714112677,-0.48111196976955456,0.005132333151646845,0.005772717752647885,-0.025834647308681177
1776,2.0,300.33754,3522.8621,0.0,0.0,-0.017759985267174705,0.0,0.0,0.0,-0.29165474978158273,-0.3116738765123167,-0.4675334761069616,-0.004899966431389035,-0.006178934885313394,-0.05002284426487035
1777,2.0,300.0351,3538.0986,0.0,0.0,-0.017769989687548837,0.0,0.0,0.0,-0.2910200499189427,-0.3080609711607507,-0.47641260699826354,0.0014516123894379885,0.015981027186704584,-0.04481964794760486
1778,2.0,300.38612,3676.265,0.0,0.0,-0.01777999410792297,0.0,0.0,0.0,-0.3178384698557147,-0.32692524609000967,-0.4727290477172245,-0.01053586573230899,0.004272534105091286,-0.050353371513740856
1779,2.0,300.39763999999997,3700.1304,0.0,0.0,-0.01778999852829699,0.0,0.0,0.0,-0.2986966049290597,-0.3289984064571147,-0.4970522379577365,-0.007230175075287723,-0.006801732301678713,-0.03988860148794846
1780,2.0,300.11465,3608.8408,0.0,0.0,-0.017800002948671123,0.0,0.0,0.0,-0.2939434487099597,-0.3146279159863577,-0.4884261156164046,0.0052941888106957545,0.004798856331735245,-0.048142082866503656
1781,2.0,300.46616,3784.8851,0.0,0.0,-0.017810007369045477,0.0,0.0,0.0,-0.30850329535940474,-0.3400762090054087,-0.5019310675867396,0.012036186168629089,0.007360413480866254,-0.007077685596188182
1782,2.0,299.67124,3724.9286,0.0,0.0,-0.01782001178941961,0.0,0.0,0.0,-0.30083049950715873,-0.3194789217676147,-0.5119758616580835,0.018023131438244584,-0.013233367506281688,-0.024624590602007876
1783,2.0,299.24,3407.5591,0.0,0.0,-0.017830016209793742,0.0,0.0,0.0,-0.2960527213106287,-0.2876481967661667,-0.4521119514399755,0.005434927425735574,-0.026412931432253376,-0.012151328870242789
1784,2.0,299.42812999999995,3510.7267,0.0,0.0,-0.01783998772089035,0.0,0.0,0.0,-0.31477980217634766,-0.2998922501795607,-0.4525012117308925,0.0011109549700427188,-0.016333440637735085,-0.05410631005562705
1785,2.0,300.13173,3763.5508,0.0,0.0,-0.017849992141264592,0.0,0.0,0.0,-0.3345350279185367,-0.3129998561231807,-0.4964905832948055,-0.002392883330159198,0.01911016438402638,-0.04605723465949516
1786,2.0,299.36696,3622.5762,0.0,0.0,-0.017859996561638836,0.0,0.0,0.0,-0.3224650103423187,-0.30176266933415674,-0.4769450192633085,-0.011891175893817689,0.018934399942179783,-0.050488078048285354
1787,2.0,299.93534,3672.5938,0.0,0.0,-0.017870000982012746,0.0,0.0,0.0,-0.3254011659520947,-0.29935897665193073,-0.4916166780612885,-0.01129779535700559,0.0038736617184256467,-0.027026620540819772
1788,2.0,299.71224,3733.2245,0.0,0.0,-0.017880005402386878,0.0,0.0,0.0,-0.3419033117182297,-0.28770884991715273,-0.5051948677488515,-0.010828774044716789,0.010943073722247289,-0.00993358571854358
1789,2.0,300.03687,3649.8501,0.0,0.0,-0.01789000982276112,0.0,0.0,0.0,-0.3138035661025007,-0.3151861863939547,-0.48047354114654656,0.01002116345781183,0.023269466878517577,-0.024513484688792577
1790,2.0,300.16505,3724.2195,0.0,0.0,-0.017900014243135476,0.0,0.0,0.0,-0.3178584612801877,-0.3091753638857327,-0.5050359192056645,0.009003345119735981,-0.0052293197286936745,-0.01874736511947088
1791,2.0,300.22253,3792.3416,0.0,0.0,-0.017909985754231972,0.0,0.0,0.0,-0.3170634551192267,-0.31555794785564467,-0.5201557689203775,0.0007803507344296213,-0.016837499125231786,-0.029862402582439673
1792,2.0,300.04421,3541.4904,0.0,0.0,-0.017919990174606104,0.0,0.0,0.0,-0.30659686529625474,-0.3005029664123337,-0.4694248087436215,0.009508564690522272,-0.007657945152155342,-0.018261228999742984
1793,2.0,300.46616,3438.9188,0.0,0.0,-0.017929994594980236,0.0,0.0,0.0,-0.27286846471252074,-0.30062779882465374,-0.4718491919928896,0.01082541005438479,0.013522196473786887,-0.046854287585658155
1794,2.0,300.18007,3691.1119,0.0,0.0,-0.01793999901535437,0.0,0.0,0.0,-0.3095117325214297,-0.3227369261391547,-0.4897572020077725,-0.005120173137196746,0.016802708169798182,-0.03837528003959526
1795,2.0,300.50835,3853.3355,0.0,0.0,-0.0179500034357285,0.0,0.0,0.0,-0.34260663901014266,-0.32654875275035267,-0.5021623925845695,-0.012048217500316488,-0.007702572435584713,-0.05174351113418695
1796,2.0,300.22889,3699.6794,0.0,0.0,-0.017960007856102744,0.0,0.0,0.0,-0.3039057439581617,-0.3308684304441717,-0.4898359720705465,-0.01000328699027256,0.008659742182300012,-0.06055770890608054
1797,2.0,299.76113,3531.0709,0.0,0.0,-0.017970012276476877,0.0,0.0,0.0,-0.30096228281516474,-0.30593055203049474,-0.46646453778146557,-0.0020134556182125982,0.017972938068040883,-0.06104099070027674
1798,2.0,299.81497,3640.2803,0.0,0.0,-0.017979983787573595,0.0,0.0,0.0,-0.3121209933839437,-0.3009140926404087,-0.4935192172440545,0.010558772277319689,-0.009047204866214601,-0.02982494677924307
1799,2.0,299.82596,3670.7588,0.0,0.0,-0.017989988207947727,0.0,0.0,0.0,-0.3173126943788247,-0.31232581175915775,-0.48618051021478054,-0.0035610169152700062,-0.02090989819839628,-0.026050391559723475
1800,2.0,299.24865,3705.1582,0.0,0.0,-0.01799999262832186,0.0,0.0,0.0,-0.3265890801043327,-0.3033423870350627,-0.49634411799285055,-0.004199145008298346,-0.0003478163150617976,-0.005830888643538905
1801,2.0,300.12734,3721.0823,0.0,0.0,-0.01800999704869599,0.0,0.0,0.0,-0.3251222384645667,-0.3153694934695457,-0.4906243819733565,0.018525739964848183,-0.0028480849243340974,-0.020340039249405584
1802,2.0,299.5079,3581.2811,0.0,0.0,-0.018020001469070124,0.0,0.0,0.0,-0.27807410802877774,-0.3224009121409927,-0.4881450096411616,-0.006120508858047194,0.00032787369884611467,-0.03205838507366626
1803,2.0,300.32136,3798.5514,0.0,0.0,-0.018030005889444367,0.0,0.0,0.0,-0.3203434470179367,-0.3165019017813057,-0.5178194269722985,-0.01127660424441419,-0.023117963697065376,-0.02838569796620027
1804,2.0,300.57979,4021.1998,0.0,0.0,-0.0180400103098185,0.0,0.0,0.0,-0.36102340190023563,-0.3329399594786157,-0.5283809684621416,-0.009410925276436012,-0.0063426598894717945,-0.024897885432229976
1805,2.0,300.13942000000003,3674.3496,0.0,0.0,-0.01805001473019263,0.0,0.0,0.0,-0.3112513613531177,-0.3090023919611617,-0.49665675631120554,0.008460413596127812,0.018920695734577282,-0.04530283449629166
1806,2.0,300.43384,3433.5021,0.0,0.0,-0.018059986241289128,0.0,0.0,0.0,-0.30437156542663474,-0.28245037574068177,-0.4568769626852455,-0.0014158625954347587,-0.006653323079406863,-0.027780137149936074
1807,2.0,300.34213,3608.7928,0.0,0.0,-0.018069990661663482,0.0,0.0,0.0,-0.3085026164818377,-0.3073327077838767,-0.48114756524556757,0.001081297544915759,-0.01164445557396829,-0.03258073069896777
1808,2.0,299.53485,3722.0452,0.0,0.0,-0.018079995082037614,0.0,0.0,0.0,-0.3187445282276357,-0.31475460264636074,-0.4979096704573585,0.00012879838466891086,-0.0028917930885977573,-0.028076074066892772
1809,2.0,300.11797,3741.0761,0.0,0.0,-0.018089999502411747,0.0,0.0,0.0,-0.32446600703730166,-0.3166151324799807,-0.49611258021249954,0.007609434587717723,0.0061382615064242444,-0.033106581156365174
1810,2.0,299.49996,3749.5055,0.0,0.0,-0.018100003922785768,0.0,0.0,0.0,-0.3120869481805837,-0.3278477900410577,-0.4998213187585235,-0.006385455115395354,-0.011011322195982888,-0.026472596664391872
1811,2.0,299.97579,3677.8024,0.0,0.0,-0.0181100083431599,0.0,0.0,0.0,-0.3057546214156317,-0.3132785302981837,-0.49892694316025554,-0.0048900735640376855,-0.017634366626626485,-0.03808726977817086
1812,2.0,300.70711,3735.665,0.0,0.0,-0.018120012763534254,0.0,0.0,0.0,-0.32974292236559266,-0.3294329894250047,-0.47637297878685253,0.003648168278896177,0.015052858684351486,-0.041626288932444855
1813,2.0,300.5727,3895.1322,0.0,0.0,-0.01812998427463075,0.0,0.0,0.0,-0.33169136177788866,-0.3409686594284867,-0.5113629061425895,0.0009320198558506982,0.024628059970350277,-0.04509726428950346
1814,2.0,300.47157999999996,3682.3629,0.0,0.0,-0.018139988695004883,0.0,0.0,0.0,-0.3039509349126217,-0.3194876661159777,-0.4959077618372856,0.0016844339576656882,-0.00040579961282930356,-0.04508063888186266
1815,2.0,300.11505,3344.7672,0.0,0.0,-0.018149993115379126,0.0,0.0,0.0,-0.27055470810917076,-0.2931785867394737,-0.4529924151143706,-0.006619019497271363,-0.01929863700862718,-0.028747838618190767
1816,2.0,300.19664,3495.8556,0.0,0.0,-0.01815999753575337,0.0,0.0,0.0,-0.2948855990504427,-0.28681893261932473,-0.4809482994809015,0.01183843419961249,-0.008699950276743241,-0.04255125049823146
1817,2.0,299.80618,3843.6606,0.0,0.0,-0.018170001956127613,0.0,0.0,0.0,-0.33605689917123366,-0.31950253049494465,-0.5128173962636365,0.005104991104323395,0.006999168035339102,-0.025684404610353373
1818,2.0,299.84608,3847.8059,0.0,0.0,-0.018180006376501523,0.0,0.0,0.0,-0.35978562571057665,-0.3152331708010917,-0.4946181173750075,-0.013411230389085385,0.0002464614344488498,-0.027344186294411075
1819,2.0,299.87376,3865.8971,0.0,0.0,-0.018190010796875655,0.0,0.0,0.0,-0.3279604533196767,-0.3274076341976177,-0.5197680994321175,-0.010968171927224291,-0.007545298085537943,-0.023729070031126877
1820,2.0,299.99107000000004,3904.632,0.0,0.0,-0.0182000152172499,0.0,0.0,0.0,-0.34557356702545566,-0.33539300757321266,-0.5059440547402905,-0.0014967674748444487,0.01213739465486759,-0.01922016686788278
1821,2.0,300.15907999999996,3801.6904,0.0,0.0,-0.018209986728346506,0.0,0.0,0.0,-0.32449565473522773,-0.31549176235911275,-0.5156315362963705,0.004806578108097325,0.02113311212917578,-0.018298937102214485
1822,2.0,300.06456000000003,3809.5363,0.0,0.0,-0.01821999114872075,0.0,0.0,0.0,-0.3176503903721527,-0.3224060898490037,-0.5179474409899325,-0.00891043768494173,-0.002812335029005857,-0.026967566298491574
1823,2.0,299.66627,3792.2393,0.0,0.0,-0.01822999556909488,0.0,0.0,0.0,-0.3330027607198137,-0.3216499823593817,-0.49809330177298156,-0.0010045904694778599,-0.01875913604588258,-0.03153589860660087
1824,2.0,300.16621000000004,3550.1067,0.0,0.0,-0.018239999989469013,0.0,0.0,0.0,-0.31480060420090067,-0.2897956790281067,-0.4745475074066925,0.0042508232965235955,-0.002083720358322188,-0.032383684965270866
1825,2.0,299.99969,3439.0757,0.0,0.0,-0.018250004409843146,0.0,0.0,0.0,-0.27299715760772175,-0.30800956898317766,-0.4643864124888705,0.01323858979729709,0.0025066548004125675,-0.06564567234247344
1826,2.0,300.53717,3679.4885,0.0,0.0,-0.018260008830217278,0.0,0.0,0.0,-0.3263914152748247,-0.30287043540348474,-0.48921078662634554,-0.009603564486773021,-0.015178969818297685,-0.03068778192839827
1827,2.0,300.16622,3778.0523,0.0,0.0,-0.01827001325059152,0.0,0.0,0.0,-0.3151546439183417,-0.3177090170229387,-0.5155698901602865,-0.014709349675199787,-0.017830432547476682,-0.03338425626676957
1828,2.0,299.78598999999997,3632.7549,0.0,0.0,-0.018279984761688017,0.0,0.0,0.0,-0.29027162286507874,-0.3186390995547307,-0.4953560370253345,-0.00021796138411611375,0.011419358011252888,-0.03383811631781207
1829,2.0,299.86991,3758.3476,0.0,0.0,-0.01828998918206237,0.0,0.0,0.0,-0.3173853646759967,-0.3144945824056987,-0.5105638773787315,0.0045633939297719155,0.030289107530802172,-0.03539126052159547
1830,2.0,299.92098,3886.8632,0.0,0.0,-0.018299993602436504,0.0,0.0,0.0,-0.33468652907348867,-0.3389634172155847,-0.5078594216693225,0.001108582748908599,0.0064643633854829935,-0.03582443608509657
1831,2.0,299.46799,3752.4727,0.0,0.0,-0.018309998022810636,0.0,0.0,0.0,-0.3146763493411377,-0.32824733482048973,-0.49773430726255147,-0.01165587287609509,-0.01030006723528749,-0.04922916343504015
1832,2.0,299.31278,3729.7012,0.0,0.0,-0.01832000244318477,0.0,0.0,0.0,-0.32500937253592765,-0.3162261052365867,-0.4925005563885205,-0.0024768343433445176,-0.007395690087072783,-0.04150542542076656
1833,2.0,299.13882,3651.8956,0.0,0.0,-0.0183300068635589,0.0,0.0,0.0,-0.3019454799171987,-0.3176784472674217,-0.4904611575147475,0.005010069227005335,-0.0027770920627026474,-0.04200806637137336
1834,2.0,299.77374,3499.1855,0.0,0.0,-0.018340011283933144,0.0,0.0,0.0,-0.29012423550553273,-0.28778747812491273,-0.48575329357511754,0.0012261332367349287,-0.01013062719659006,-0.026598316683799476
1835,2.0,300.46904,3733.2389,0.0,0.0,-0.018350015704307276,0.0,0.0,0.0,-0.3278238570736957,-0.3101803154674137,-0.49680722395105553,-0.0030716223858705274,-0.02036091929421628,-0.019286091959139082
1836,2.0,299.92578,3953.8114,0.0,0.0,-0.018359987215403772,0.0,0.0,0.0,-0.33920327377925663,-0.33928805241512366,-0.5233686127349605,0.0024362734352164675,0.0006357339451620554,-0.024442931071079477
1837,2.0,300.4508,3796.8796,0.0,0.0,-0.018369991635777905,0.0,0.0,0.0,-0.33512349317911366,-0.3171834745935717,-0.5018496225437016,0.006084794730447484,0.01879801749196988,-0.04173423249209806
1838,2.0,300.33171,3738.4657,0.0,0.0,-0.01837999605615226,0.0,0.0,0.0,-0.3203169302628197,-0.31590916060530666,-0.5001741425758445,-0.006536530907955374,0.0013602579630720088,-0.02054927742155578
1839,2.0,300.62717000000004,3970.5293,0.0,0.0,-0.01839000047652639,0.0,0.0,0.0,-0.3418882142917397,-0.3314586891574257,-0.5335948697667136,-0.002233489970178298,-0.006351279000122434,-0.025584496123993175
1840,2.0,300.41702000000004,3998.5487,0.0,0.0,-0.018400004896900524,0.0,0.0,0.0,-0.3492680086125686,-0.3266387090942307,-0.5395522433321605,-0.008532605943227642,0.01127661842991559,-0.010804814732852188
1841,2.0,299.75791,3709.8312,0.0,0.0,-0.018410009317274545,0.0,0.0,0.0,-0.29937759005626774,-0.3301059090814167,-0.4982125613097515,0.007124499675983374,0.010320968558350291,-0.047585491414322355
1842,2.0,300.37835,3604.53,0.0,0.0,-0.018420013737648677,0.0,0.0,0.0,-0.2936915547350997,-0.3130889106744697,-0.4889066393438285,-0.006246711792452454,-0.004986074350062225,-0.03583458885109857
1843,2.0,300.22126000000003,3575.6023,0.0,0.0,-0.018429985248745395,0.0,0.0,0.0,-0.29828198298813974,-0.3042867766582667,-0.4843250466316606,-0.007939553902097963,-0.004370013526986755,-0.04810997803708516
1844,2.0,300.36106,3634.7613,0.0,0.0,-0.018439989669119528,0.0,0.0,0.0,-0.3073721840077727,-0.3254128588582487,-0.47209164247681756,-0.0003011850154521467,-0.002097445540201758,-0.057624626483857855
1845,2.0,299.67228,3766.1778,0.0,0.0,-0.01844999408949366,0.0,0.0,0.0,-0.3074872486891287,-0.33619118520698665,-0.5011455657117165,0.005499240841382814,0.014994752844116884,-0.05539964882776965
1846,2.0,299.70189,3686.2943,0.0,0.0,-0.018459998509867903,0.0,0.0,0.0,-0.31995035664164173,-0.3073627202518387,-0.4932283638028495,0.0016628010680306883,-0.0036260034329586768,-0.02475148599153148
1847,2.0,299.26311,3571.0849,0.0,0.0,-0.018470002930242146,0.0,0.0,0.0,-0.2851128828959507,-0.30850213012178973,-0.4919056265923055,0.00990371186319526,-0.015890220725992683,-0.03225840773615697
1848,2.0,300.26089,3866.4561,0.0,0.0,-0.01848000735061639,0.0,0.0,0.0,-0.3311033018173517,-0.3364550051355237,-0.5077478121708074,0.014131433361413885,0.005007156436942865,-0.029760020752585367
1849,2.0,299.82835,4126.4889,0.0,0.0,-0.0184900117709903,0.0,0.0,0.0,-0.3702183121852027,-0.34595955451854965,-0.5381717407334154,-0.0004112975180044046,0.026945837150097074,-0.03207143674820437
1850,2.0,300.2482,3845.1986,0.0,0.0,-0.018500016191364432,0.0,0.0,0.0,-0.3389528388845407,-0.3093758151530157,-0.5205157057534006,-0.011969518365049487,0.017852875023941586,-0.02968343525702697
1851,2.0,300.4671,3591.6484,0.0,0.0,-0.01850998770246115,0.0,0.0,0.0,-0.3130306285287177,-0.29833810691117874,-0.48040268456705354,-0.014302521654048985,0.017914451245768685,-0.03507111908624996
1852,2.0,300.54701,3741.5789,0.0,0.0,-0.018519992122835283,0.0,0.0,0.0,-0.3434511525709897,-0.2982457896945677,-0.49564962624180947,0.002777715920789217,0.003521391844934317,-0.028763914844277375
1853,2.0,300.45294,3798.8276,0.0,0.0,-0.018529996543209526,0.0,0.0,0.0,-0.3203141944875497,-0.3312610851229237,-0.5031734743293556,0.017724287506750983,0.00016917431385870486,-0.03621216332861226
1854,2.0,300.05521,3703.0373,0.0,0.0,-0.018540000963583658,0.0,0.0,0.0,-0.3057410033342877,-0.32947168544632366,-0.49041819571050754,0.003351576599724857,-0.017073171979240884,-0.03972604476115536
1855,2.0,300.19788,3796.8327,0.0,0.0,-0.01855000538395779,0.0,0.0,0.0,-0.3266617402690037,-0.30802189010439374,-0.5194586933815815,0.005891203368991505,-0.023064490436287978,-0.02397607608750448
1856,2.0,299.89203,3829.8341,0.0,0.0,-0.018560009804331923,0.0,0.0,0.0,-0.3362930877695437,-0.3176022711249037,-0.5102785765480745,0.007722936634769503,0.0023531776051155476,-0.03399640726168417
1857,2.0,299.93637,3847.1016,0.0,0.0,-0.018570014224706055,0.0,0.0,0.0,-0.3178534558246937,-0.3310134164009807,-0.5205559419148714,0.008556341529470162,0.027519130003676673,-0.038235436327043765
1858,2.0,299.80208999999996,3978.6407,0.0,0.0,-0.018579985735802773,0.0,0.0,0.0,-0.35398770731336665,-0.32303063694564166,-0.5323890818827115,0.003969944897253056,0.004691259810241296,-0.019032673042878583
1859,2.0,299.95502,3938.952,0.0,0.0,-0.018589990156176794,0.0,0.0,0.0,-0.3265515999831337,-0.3331378877531497,-0.5376535443672734,-0.01065863618067549,-0.0045319880402723955,-0.02165396929008038
1860,2.0,300.16168999999996,3606.9915,0.0,0.0,-0.01859999457655115,0.0,0.0,0.0,-0.2995839992341387,-0.31453881077256374,-0.4823125394155415,0.0019126602340398683,-0.006096618345864385,-0.038292613016936664
1861,2.0,299.20501,3529.2969,0.0,0.0,-0.01860999899692528,0.0,0.0,0.0,-0.28744432071354575,-0.2985141793810557,-0.48685962082930356,0.01041874415324999,0.004874720697197475,-0.041776259066495756
1862,2.0,299.87786,3787.8851,0.0,0.0,-0.018620003417299413,0.0,0.0,0.0,-0.32270281000828765,-0.32885908456836466,-0.49986060246490055,0.0024195814570440975,-0.007972778372876963,-0.04278523730407416
1863,2.0,299.41719,3768.7973,0.0,0.0,-0.018630007837673546,0.0,0.0,0.0,-0.3231236735698237,-0.32102871819306766,-0.5014678907010275,-0.0075767190724639515,-0.004978806104444905,-0.044774778193426554
1864,2.0,299.76637,3707.6362,0.0,0.0,-0.018640012258047678,0.0,0.0,0.0,-0.3289747470672797,-0.3180897457480137,-0.4799643323087916,0.00034254823527437873,-0.008906540319757092,-0.049257787750365156
1865,2.0,300.39097999999996,3813.6702,0.0,0.0,-0.018649983769144396,0.0,0.0,0.0,-0.3211666823266837,-0.32841788507732167,-0.5096759561836005,0.0049912870152016755,0.011695357205991888,-0.03613229692923006
1866,2.0,300.5684,3821.4771,0.0,0.0,-0.018659988189518417,0.0,0.0,0.0,-0.32459591583262265,-0.3230884225988447,-0.5139492675528434,0.006914378253721004,-0.005701356067980035,-0.02090074145724258
1867,2.0,299.8127,3899.2639,0.0,0.0,-0.01866999260989255,0.0,0.0,0.0,-0.3297440268082017,-0.3274598064452667,-0.5280750277269475,0.0025811913016187474,-0.012506270380272789,-0.017276528234560586
1868,2.0,300.29795,4094.0398,0.0,0.0,-0.018679997030266682,0.0,0.0,0.0,-0.35845704204695567,-0.32281851303720666,-0.5632103159420304,-0.009152771341133202,-0.01201453808024259,-0.00935943190635401
1869,2.0,299.36371,3815.8153,0.0,0.0,-0.018690001450641036,0.0,0.0,0.0,-0.3392869885025187,-0.3155822658580447,-0.5050433057988936,0.006352104596303914,0.017151183117689983,-0.03175592687906597
1870,2.0,299.67287000000005,3557.6604,0.0,0.0,-0.01870000587101517,0.0,0.0,0.0,-0.29672612732708875,-0.29877037966884074,-0.4859434299563825,-0.0026963498099340077,-0.006867068593301905,-0.042871664497853866
1871,2.0,299.97471,3850.4938,0.0,0.0,-0.0187100102913893,0.0,0.0,0.0,-0.3272190278240037,-0.32613714016222967,-0.5170977902510785,0.00019427910496135482,-0.0038194852620788457,-0.038097605942440965
1872,2.0,299.18575,3937.0985,0.0,0.0,-0.018720014711763322,0.0,0.0,0.0,-0.34694707819851067,-0.3395449721104797,-0.5102875742089625,-0.010244756952078792,0.004779308508156025,-0.048245272256687656
1873,2.0,299.28852,3599.1917,0.0,0.0,-0.01872998622286015,0.0,0.0,0.0,-0.29461981341671173,-0.3179948346111467,-0.48144974682289055,0.0027629848855353772,0.01203957042396309,-0.05729044545512675
1874,2.0,299.73491,3606.1254,0.0,0.0,-0.018739990643234172,0.0,0.0,0.0,-0.29118035621726374,-0.3123131056029037,-0.49267860469609254,-0.003121153901108907,0.001093401323985309,-0.036290964802139364
1875,2.0,299.91512,3793.7977,0.0,0.0,-0.018749995063608305,0.0,0.0,0.0,-0.3423788806526647,-0.3118394111811537,-0.4990014778376115,-0.002282435624208858,0.0007635032527644043,-0.038237863061033266
1876,2.0,300.17928,3829.1105,0.0,0.0,-0.018759999483982437,0.0,0.0,0.0,-0.32825867308910867,-0.3282637697371117,-0.5074315261520925,0.010370197314458792,0.0015814023305222586,-0.04113898554860176
1877,2.0,300.24018,3831.2803,0.0,0.0,-0.01877000390435668,0.0,0.0,0.0,-0.3291070775303397,-0.3255037879222227,-0.5100026888108465,0.011957268171340489,0.02081351683563418,-0.042991724502202865
1878,2.0,300.02927999999997,3784.6561,0.0,0.0,-0.018780008324730924,0.0,0.0,0.0,-0.3222008053787437,-0.3117843917007237,-0.5164557443252135,0.0069909333517764035,-0.007923589234847372,-0.016629907484494087
1879,2.0,300.40997999999996,3633.2299,0.0,0.0,-0.018790012745104945,0.0,0.0,0.0,-0.29336077923995474,-0.3049953323206957,-0.5060550461562445,0.007068364505868263,-0.013633100750232288,-0.028693820228859575
1880,2.0,300.61848,3811.0222,0.0,0.0,-0.018799984256201663,0.0,0.0,0.0,-0.3096906116940837,-0.3326613055686147,-0.5161036703129664,-0.0032590828749464373,0.0007011174643724064,-0.03557505091748417
1881,2.0,300.27063,4046.8657,0.0,0.0,-0.018809988676575795,0.0,0.0,0.0,-0.36692235146491664,-0.3315600344324277,-0.5316637569311274,-0.0011762509343119288,0.01934599429180098,-0.03288642825413777
1882,2.0,300.24107999999995,3782.8996,0.0,0.0,-0.018819993096949927,0.0,0.0,0.0,-0.3274820472849617,-0.3198388180706337,-0.5025861641738925,-0.013444733503641887,0.008675924698322103,-0.05286970315658345
1883,2.0,299.64355,3591.3934,0.0,0.0,-0.01882999751732406,0.0,0.0,0.0,-0.3092754932606147,-0.3083095011452787,-0.47410891196840654,-0.02057988264082628,0.017523758219210286,-0.04541613308272336
1884,2.0,299.5556,3922.2072,0.0,0.0,-0.018840001937698303,0.0,0.0,0.0,-0.3629820751385417,-0.32278420438882066,-0.5064867616263515,-0.0023706036829853677,0.00920160746282795,-0.04060229331513436
1885,2.0,300.38035,4084.3566,0.0,0.0,-0.018850006358072435,0.0,0.0,0.0,-0.3526615858474887,-0.3448859653750947,-0.5439948890581154,0.0073169865948303535,0.012067651637234488,-0.03200408297430707
1886,2.0,300.33182999999997,3729.1107,0.0,0.0,-0.018860010778446568,0.0,0.0,0.0,-0.3270261860649717,-0.31055034427143274,-0.49598001670191655,0.004266876825807956,-0.016461167905590785,-0.03104435173133897
1887,2.0,299.67235,3787.7474,0.0,0.0,-0.0188700151988207,0.0,0.0,0.0,-0.32002492171650065,-0.3158661177410587,-0.5154896002223625,0.003793425584081957,-0.035568455672583266,-0.02454547400769968
1888,2.0,299.76675,3961.6679999999997,0.0,0.0,-0.018879986709917418,0.0,0.0,0.0,-0.3412262073389047,-0.3443005702623207,-0.5187213715488135,0.0036120173391783563,-0.006742908168448223,-0.04564973789327836
1889,2.0,298.95095,3835.3361,0.0,0.0,-0.01888999113029155,0.0,0.0,0.0,-0.3222900929775557,-0.3259175182030547,-0.5176387948769715,0.011930635905712089,0.008237338885912054,-0.03603864323573717
1890,2.0,299.18647000000004,3869.83,0.0,0.0,-0.01889999555066557,0.0,0.0,0.0,-0.3295188218409757,-0.32875540881813264,-0.5180574596857905,0.004870435966499605,7.301227820000082e-05,-0.03566640757300037
1891,2.0,299.64884,3847.6512,0.0,0.0,-0.018909999971039926,0.0,0.0,0.0,-0.3117869754884787,-0.3208258351255447,-0.5369770580705094,-0.0032370494475469067,-0.005881273923311545,-0.02536209785954418
1892,2.0,299.57677,3602.512,0.0,0.0,-0.018920004391414058,0.0,0.0,0.0,-0.2915316500269337,-0.31041927023849675,-0.49312279327493047,0.006211021070930055,0.008363148881928533,-0.040187990547995864
1893,2.0,299.60332,3804.9723,0.0,0.0,-0.01893000881178819,0.0,0.0,0.0,-0.31323163708355567,-0.3305617500364047,-0.5128231819217075,-0.0018258669529990384,0.012938253348406188,-0.04482746517212636
1894,2.0,300.50365,4055.7239,0.0,0.0,-0.018940013232162323,0.0,0.0,0.0,-0.35364164187421265,-0.3408126493105897,-0.5383845131219145,-0.013119051616749589,-0.006955285997358284,-0.034766718491207965
1895,2.0,300.10292999999996,3714.8928,0.0,0.0,-0.01894998474325904,0.0,0.0,0.0,-0.33127124802142666,-0.3122460487112857,-0.4857173535940706,-0.013140891209404986,-0.015035145046103286,-0.033509128195843466
1896,2.0,300.6225,3764.1992,0.0,0.0,-0.018959989163633173,0.0,0.0,0.0,-0.3245179665024297,-0.32166493793085765,-0.4980396501801865,-0.004137581350772486,0.009419377504795181,-0.043474644566113364
1897,2.0,299.83185,4150.365,0.0,0.0,-0.018969993584007194,0.0,0.0,0.0,-0.35985107153453566,-0.33984027371962366,-0.5619159699992885,0.017975242198768285,0.002376697673061798,-0.026571963061948575
1898,2.0,300.45711,3969.9476,0.0,0.0,-0.018979998004381327,0.0,0.0,0.0,-0.3486935363358727,-0.33109912722693974,-0.5269722772456145,0.006264549047212854,-0.016657653311982382,-0.024764813270096775
1899,2.0,299.9804,3776.0686,0.0,0.0,-0.01899000242475546,0.0,0.0,0.0,-0.3084773662893457,-0.3208292193808787,-0.5185239904293335,0.01090663522215109,-0.013283370385466588,-0.029211717686222074
1900,2.0,299.55767000000003,3931.8565,0.0,0.0,-0.019000006845129813,0.0,0.0,0.0,-0.3310517071222597,-0.3346238798198057,-0.5295106106011285,0.0008568032814424001,0.01228639004232229,-0.03934287410333936
1901,2.0,299.0324,3825.4926,0.0,0.0,-0.019010011265503945,0.0,0.0,0.0,-0.3280218968057407,-0.3250875447811427,-0.5097447761303926,0.012517446528875788,0.018789009698580883,-0.032091665273200766
1902,2.0,299.59472,3702.6428,0.0,0.0,-0.019020015685878078,0.0,0.0,0.0,-0.2995182291701477,-0.31180833480058673,-0.5141844125035505,-0.0057567987829768045,-0.008405735884956543,-0.03683290972412517
1903,2.0,299.85988,3906.2396,0.0,0.0,-0.019029987196974685,0.0,0.0,0.0,-0.3387657219885737,-0.3252346990931657,-0.5233988785154474,0.0002248449088029648,-0.009083276063149553,-0.034252797027237866
1904,2.0,300.3349,3920.3851,0.0,0.0,-0.019039991617348817,0.0,0.0,0.0,-0.33897962921718466,-0.3290133316310877,-0.5237062074032786,0.008108793317275593,0.017076054675775384,-0.029775499161112974
1905,2.0,300.26332,3772.3545,0.0,0.0,-0.01904999603772295,0.0,0.0,0.0,-0.31233209390977773,-0.3270003684524237,-0.5073691200784335,0.009971058544341861,0.014121013097385487,-0.060013240991345744
1906,2.0,300.2267,3959.3663,0.0,0.0,-0.01906000045809708,0.0,0.0,0.0,-0.3371986901789197,-0.34533434880934666,-0.5210154305702195,-0.013105478118409989,-0.009119339356733721,-0.02735742947321807
1907,2.0,300.64607,4071.4385,0.0,0.0,-0.019070004878471214,0.0,0.0,0.0,-0.3712879800507706,-0.33013571889935867,-0.5361919513630254,-0.011649679891483888,-0.00983820949988068,-0.034127890647660565
1908,2.0,300.58234,3824.4695,0.0,0.0,-0.019080009298845457,0.0,0.0,0.0,-0.3172543109080627,-0.32782250945106267,-0.5174664005049575,0.00027159050302389575,0.02189950714706308,-0.03899968629446936
1909,2.0,300.01412999999997,3706.1479999999997,0.0,0.0,-0.0190900137192197,0.0,0.0,0.0,-0.3141848723801327,-0.3168307521012607,-0.49556081487054454,0.006642205597984654,0.013785743838046987,-0.05093412087480636
1910,2.0,299.54697000000004,3916.792,0.0,0.0,-0.019099985230316308,0.0,0.0,0.0,-0.3253398845860467,-0.32550066711191467,-0.5397664140057975,-0.003033439373077157,-0.010720887227069188,-0.030282628809662766
1911,2.0,300.16737,3885.9253,0.0,0.0,-0.01910998965069044,0.0,0.0,0.0,-0.3106154455903577,-0.3347024573650607,-0.5359063465573385,0.008721676892012491,-0.017644299517356785,-0.03837917395972956
1912,2.0,300.25342,3782.7352,0.0,0.0,-0.019119994071064572,0.0,0.0,0.0,-0.3239277584516807,-0.3226824234162757,-0.5032468539015975,0.00975402949217276,0.005842913490425665,-0.035223451106283964
1913,2.0,299.80134,3965.7393,0.0,0.0,-0.019129998491438704,0.0,0.0,0.0,-0.3437339608064007,-0.33884597139649364,-0.5229058006192845,0.02039519653184918,-0.0023809103616775577,-0.029511485701806874
1914,2.0,300.16369,3895.1485,0.0,0.0,-0.019140002911812837,0.0,0.0,0.0,-0.3453315218415677,-0.3232205402793837,-0.5154758200210026,-0.009650900593019731,-0.017948735576152283,-0.03497452190121657
1915,2.0,300.02378,3846.9487,0.0,0.0,-0.01915000733218708,0.0,0.0,0.0,-0.33586567861236166,-0.3190720613224607,-0.5144386268211396,-0.007125926534774192,-0.002332367879861788,-0.04249107965429306
1916,2.0,300.31876,4120.8492,0.0,0.0,-0.019160011752561212,0.0,0.0,0.0,-0.36358790750583264,-0.34405446194553163,-0.5449928897441105,-0.0008215799519261282,0.01007674508939731,-0.04289323355273256
1917,2.0,300.67111,4008.3381,0.0,0.0,-0.019170016172935345,0.0,0.0,0.0,-0.3383962606046107,-0.3371565693722627,-0.5428818743532694,-0.007477595449631212,0.018477830460369882,-0.042495152919695064
1918,2.0,300.27468,3615.8892,0.0,0.0,-0.019179987684032063,0.0,0.0,0.0,-0.31007823051983874,-0.30842499139167673,-0.4806368061351595,-0.019145816602044983,-0.007994761847046561,-0.04204064844158896
1919,2.0,300.1845,3812.4612,0.0,0.0,-0.019189992104406195,0.0,0.0,0.0,-0.31817740201416467,-0.3141726221864237,-0.5265429631782444,-0.004265701354366946,-0.01216339870543399,-0.03373858172073877
1920,2.0,300.17612,4099.1805,0.0,0.0,-0.019199996524780327,0.0,0.0,0.0,-0.36410605320946965,-0.3369393994783297,-0.5450030729076155,0.01002375464229256,0.013734132930953385,-0.027892117497987676
1921,2.0,300.20655,3870.8056,0.0,0.0,-0.01921000094515435,0.0,0.0,0.0,-0.3218478903689137,-0.3400846696437437,-0.5146956985040105,0.013547622971796288,-0.002196134174766568,-0.04015036451878246
1922,2.0,299.49889,3833.1059999999998,0.0,0.0,-0.019220005365528703,0.0,0.0,0.0,-0.30750616606849573,-0.3371721632913017,-0.5204901718508805,0.007631239324569682,-0.012908494192969187,-0.04572749875895275
1923,2.0,299.67543,4022.9019,0.0,0.0,-0.019230009785902835,0.0,0.0,0.0,-0.34437024133919664,-0.3421727653173227,-0.5363187190830365,-0.0050778880826985355,-0.008522566661236842,-0.03015746405130997
1924,2.0,299.7553,3927.8317,0.0,0.0,-0.019240014206276967,0.0,0.0,0.0,-0.3432464253882847,-0.3329695261165337,-0.5177468174701325,0.01213710993158949,0.02188985188686018,-0.04474512644250016
1925,2.0,300.09238999999997,3873.7526,0.0,0.0,-0.019249985717373463,0.0,0.0,0.0,-0.3199744719940217,-0.3413771410738007,-0.5161724598622555,-0.011725580429974689,0.019126342948373082,-0.038069467987163964
1926,2.0,299.73798,3904.3599,0.0,0.0,-0.019259990137747818,0.0,0.0,0.0,-0.34577903388073367,-0.3231660983515107,-0.5178827956335526,-0.016468550445819383,0.00030856115194011473,-0.03310325668278707
1927,2.0,300.29967999999997,3862.3895,0.0,0.0,-0.01926999455812195,0.0,0.0,0.0,-0.33082760659764265,-0.3191317518858517,-0.5241106259156915,-0.01120844898968779,-0.004129558841780726,-0.026235229656215574
1928,2.0,300.26387,3804.1021,0.0,0.0,-0.01927999897849597,0.0,0.0,0.0,-0.32294803679748973,-0.3152465355699107,-0.5181574776031616,0.004402318878600046,0.018190424096005083,-0.05401557452242215
1929,2.0,300.73724,4050.8808,0.0,0.0,-0.019290003398870104,0.0,0.0,0.0,-0.34750405164597964,-0.33809564956494265,-0.5457669013629995,-0.0011419833225549789,0.007681989171728303,-0.027668567168174972
1930,2.0,300.66376,3961.3334,0.0,0.0,-0.019300007819244236,0.0,0.0,0.0,-0.3450029653641417,-0.3134726386198407,-0.5456708553860204,-6.134607625238634e-05,-0.02978336704813947,-0.03437888992268227
1931,2.0,300.17177000000004,3814.2303,0.0,0.0,-0.01931001223961859,0.0,0.0,0.0,-0.3176609281731927,-0.3248951589846557,-0.5168746827115595,0.014217510983909087,-0.017585187519772883,-0.03282495031757037
1932,2.0,299.85131,3995.6766,0.0,0.0,-0.019319983750715086,0.0,0.0,0.0,-0.35885533039626366,-0.3270930403065697,-0.5286375639174655,0.013372205061483887,0.007210560985151962,-0.025474861449923076
1933,2.0,299.86947999999995,4089.8623,0.0,0.0,-0.01932998817108922,0.0,0.0,0.0,-0.35996903411117764,-0.34281267328547665,-0.5404342978092125,0.011569917856861988,0.005724817772720525,-0.030210567475800868
1934,2.0,299.96682000000004,3873.4608,0.0,0.0,-0.019339992591463462,0.0,0.0,0.0,-0.3024161953836547,-0.3580155081833796,-0.5170036795817905,-0.013864462225065885,0.0014012620667937985,-0.047770128887294656
1935,2.0,300.42314,3843.3091,0.0,0.0,-0.019349997011837594,0.0,0.0,0.0,-0.3281677946876397,-0.3301422138324997,-0.5099600005841336,-0.015771596497035384,0.011046405980695388,-0.046444652861730364
1936,2.0,299.54541,4073.9382,0.0,0.0,-0.019360001432211726,0.0,0.0,0.0,-0.3535049848332257,-0.34477255229140163,-0.5400979494385175,-0.0022226894333873676,0.017334678657799585,-0.04189224985844316
1937,2.0,300.50111,3927.1504,0.0,0.0,-0.01937000585258586,0.0,0.0,0.0,-0.34585638539336766,-0.3310069214678397,-0.5168923335283016,-0.005385643954121676,-0.006135576089684214,-0.04563926392699466
1938,2.0,300.26416,3812.8474,0.0,0.0,-0.01938001027295999,0.0,0.0,0.0,-0.3177922251211507,-0.3242771676161647,-0.5169409999306045,-0.007159854099797583,-0.034185438187090064,-0.03392087250647947
1939,2.0,300.54662,4016.8431,0.0,0.0,-0.019390014693334234,0.0,0.0,0.0,-0.3410004653491257,-0.3281802171338657,-0.5518393092122994,0.008197373363542761,-0.014544028802133886,-0.03988464069330756
1940,2.0,300.11314,4015.4452,0.0,0.0,-0.01939998620443084,0.0,0.0,0.0,-0.3328143671287207,-0.33844666979708565,-0.5493340280750475,0.008221482129797113,0.02353822234829168,-0.039643841807042564
1941,2.0,300.51865,3920.3841,0.0,0.0,-0.019409990624805085,0.0,0.0,0.0,-0.32844013604951766,-0.3301472192879937,-0.5331115292040115,-0.001033992545447119,-0.005990024637994405,-0.05436078072549135
1942,2.0,300.14136,4090.7863,0.0,0.0,-0.019419995045179217,0.0,0.0,0.0,-0.34420189996758266,-0.3468623299601467,-0.5524326583383585,-0.016572155268544383,-0.016330195197664786,-0.025242997403039875
1943,2.0,300.42927000000003,3982.4345,0.0,0.0,-0.01942999946555335,0.0,0.0,0.0,-0.34801083881599565,-0.3369874883280757,-0.5255623194664625,0.008380175232633904,-0.0006559750749896993,-0.023090098306065274
1944,2.0,299.75184,3823.845,0.0,0.0,-0.01944000388592748,0.0,0.0,0.0,-0.33185827446686167,-0.33143261823235265,-0.49906250589113454,0.018353881602137082,0.01698259248655138,-0.021984008152402684
1945,2.0,299.90885,4086.9567,0.0,0.0,-0.019450008306301614,0.0,0.0,0.0,-0.3590810318560387,-0.3449804610794207,-0.5382712925557405,0.007670713724615503,-0.006723412831224183,-0.024197888693395682
1946,2.0,299.25096,4079.1898,0.0,0.0,-0.019460012726675857,0.0,0.0,0.0,-0.3600108002802997,-0.34423198336305166,-0.5357290480548405,-0.005506482843822546,-0.013346290176926288,-0.027264842732080477
1947,2.0,299.58207000000004,3761.4688,0.0,0.0,-0.019469984237772353,0.0,0.0,0.0,-0.3130788794984797,-0.3245485767879507,-0.5057651249051316,0.001094159336385119,0.01122490721106209,-0.045549310622866955
1948,2.0,299.60764,3920.1029,0.0,0.0,-0.019479988658146707,0.0,0.0,0.0,-0.3278665756979117,-0.3220132527852337,-0.5417335681474404,0.010074110943112339,0.025821174122101474,-0.04189774471373546
1949,2.0,299.67766,4110.3674,0.0,0.0,-0.01948999307852084,0.0,0.0,0.0,-0.36619100780773867,-0.32809060529502165,-0.5551674406232605,-0.0006194646037388965,-0.0026180322646546677,-0.03321188114650747
1950,2.0,300.16435,3859.5236,0.0,0.0,-0.019499997498894972,0.0,0.0,0.0,-0.3146305099066137,-0.32770509402947473,-0.5308631778946165,-0.015865455880298585,-0.02145651015034268,-0.042153117176188755
1951,2.0,300.56626,3879.8761,0.0,0.0,-0.019510001919268993,0.0,0.0,0.0,-0.3184659857751457,-0.3258743233512917,-0.5350451245023425,-0.008041686067127622,-0.0003651887818688267,-0.028099548031959472
1952,2.0,300.11277,4135.2527,0.0,0.0,-0.019520006339643126,0.0,0.0,0.0,-0.35676821757528165,-0.3569149868522667,-0.5433303692450325,0.015625139301081187,0.02023379491017008,-0.042840223347250864
1953,2.0,300.19687999999996,4014.0322,0.0,0.0,-0.01953001076001748,0.0,0.0,0.0,-0.3465688015386777,-0.3461869278409897,-0.5274098290362975,0.0019395256485162783,0.0033687398405187366,-0.04523415843101386
1954,2.0,300.13254,3871.6993,0.0,0.0,-0.019540015180391612,0.0,0.0,0.0,-0.3134470844523187,-0.36164660137424065,-0.5018062149094175,0.005285224789711075,-0.016473668372074483,-0.058182395332655346
1955,2.0,299.74582999999996,3946.7406,0.0,0.0,-0.019549986691488108,0.0,0.0,0.0,-0.3393359487473507,-0.3403561598755377,-0.5200184836643285,0.004985934926848465,0.0038295503819471962,-0.02180596896408158
1956,2.0,299.45202,3827.8272,0.0,0.0,-0.01955999111186224,0.0,0.0,0.0,-0.3206829668614447,-0.3380588989838157,-0.5048220221095545,0.014684486544245985,0.012636483150623788,-0.04918756242568445
1957,2.0,299.92357000000004,3778.3069,0.0,0.0,-0.019569995532236595,0.0,0.0,0.0,-0.31414258945345963,-0.32125742900563975,-0.5131109449501076,0.0008915145042256311,-0.005616133831219255,-0.02392459994267418
1958,2.0,299.57627,3947.7474,0.0,0.0,-0.019579999952610727,0.0,0.0,0.0,-0.34694890204869067,-0.3271577059279517,-0.5259100162382775,-0.027605174188918575,-0.007408322377394493,-0.05112831836247215
1959,2.0,299.93539,3990.6881,0.0,0.0,-0.01959000437298475,0.0,0.0,0.0,-0.34088091196982667,-0.3227291545108877,-0.5494594785699285,-0.006392128380553953,0.01979509916012418,-0.02016677044255528
1960,2.0,299.89487,3881.9435,0.0,0.0,-0.01960000879335888,0.0,0.0,0.0,-0.3258705743259217,-0.3246306297810487,-0.5295126978963345,-0.005179098494112225,0.03012313007167147,-0.061996038701282646
1961,2.0,300.24147999999997,4221.1294,0.0,0.0,-0.019610013213733013,0.0,0.0,0.0,-0.37750799817463865,-0.3428935407759577,-0.5627163970482845,-0.015513411252304484,0.011224736985045291,-0.019583620692002878
1962,2.0,300.3704,4177.2983,0.0,0.0,-0.01961998472482973,0.0,0.0,0.0,-0.3632033588278807,-0.3378827150564277,-0.5687082920446385,-0.003969831919866906,-0.019236238027718882,-0.04045862154370507
1963,2.0,299.67144,3747.9719,0.0,0.0,-0.019629989145203863,0.0,0.0,0.0,-0.3125505404988367,-0.31206534568845173,-0.5146739946868685,0.015488972673142585,0.006009903389056285,-0.01945111696317578
1964,2.0,299.54897,3841.1029,0.0,0.0,-0.019639993565577996,0.0,0.0,0.0,-0.3293457283263927,-0.32585766551964773,-0.5123959652820445,0.025036865855696276,0.002633530228909198,-0.04114620698206446
1965,2.0,299.79266,4214.8461,0.0,0.0,-0.01964999798595224,0.0,0.0,0.0,-0.37372452230123865,-0.35874561567543567,-0.5487378317162075,0.01980284748363888,-0.024811135011668376,-0.024312082992915776
1966,2.0,299.76081,3954.0791,0.0,0.0,-0.01966000240632637,0.0,0.0,0.0,-0.34291725082829766,-0.34627937678011367,-0.5127446854364605,-0.00989256428824508,-0.019538797547329182,-0.04469148700870636
1967,2.0,300.26804,3777.6949,0.0,0.0,-0.019670006826700503,0.0,0.0,0.0,-0.3184251315311137,-0.3200042514144607,-0.5098955274802706,-0.001005676825572575,0.008453520759672543,-0.03876632365068826
1968,2.0,300.28986000000003,4023.0433,0.0,0.0,-0.019680011247074636,0.0,0.0,0.0,-0.3329384294709647,-0.35215384622237866,-0.5378124523804565,0.005218449682945885,0.018015340558225682,-0.04172892812782456
1969,2.0,299.70724,4064.7478,0.0,0.0,-0.019690015667448768,0.0,0.0,0.0,-0.34947872410336467,-0.34400594753074365,-0.5420971526808235,-0.016640093687749383,0.004102797082789546,-0.045171591250588956
1970,2.0,300.80844,3990.4413,0.0,0.0,-0.019699987178545486,0.0,0.0,0.0,-0.3388420703836087,-0.33285732893296066,-0.5412951246966694,-0.007108031423433083,-0.005065675784543275,-0.05235517576905354
1971,2.0,300.65372,4092.4996,0.0,0.0,-0.01970999159891962,0.0,0.0,0.0,-0.34719408830788867,-0.34797812097026665,-0.5488454895393324,0.0015865524781305386,0.012605706692086388,-0.051742620487349046
1972,2.0,299.95519,3862.3266,0.0,0.0,-0.01971999601929386,0.0,0.0,0.0,-0.3306020571253827,-0.3223296198639567,-0.5211191569829565,0.006515378197542764,0.01847021081961788,-0.05106590316956225
1973,2.0,300.02595,3725.0624,0.0,0.0,-0.019730000439667994,0.0,0.0,0.0,-0.31792007701876873,-0.3051893595823447,-0.5092165181907575,-0.005986863399007415,-0.017989077115633682,-0.04932321229607205
1974,2.0,299.93979,4143.8663,0.0,0.0,-0.019740004860042126,0.0,0.0,0.0,-0.33699041662086465,-0.3529834143442507,-0.5696580518933725,-0.0066937129509180345,-0.022058751559279277,-0.01909172525870658
1975,2.0,299.49021,4141.5748,0.0,0.0,-0.01975000928041626,0.0,0.0,0.0,-0.3708526067478026,-0.33540277530417667,-0.5526799622902655,0.0071321328942867135,-0.004189696248465826,-0.01212225669837359
1976,2.0,299.4163,3902.2429,0.0,0.0,-0.01976001370079039,0.0,0.0,0.0,-0.3147659814449837,-0.34567468938543566,-0.5257437418968676,0.026026397797355473,-0.002957395561022217,-0.023842171033789078
1977,2.0,299.73365,4067.2835,0.0,0.0,-0.019769985211886887,0.0,0.0,0.0,-0.35734066335177767,-0.35163515336368767,-0.5273768173480395,0.0015086376997659487,-0.025856476768835575,-0.03418728635527247
1978,2.0,299.98618999999997,4235.4717,0.0,0.0,-0.01977998963226113,0.0,0.0,0.0,-0.3702194368928136,-0.35261985007586966,-0.5646383602354674,0.003961991694568136,-0.01920096375198758,-0.01688956092861988
1979,2.0,300.53983999999997,4058.7289,0.0,0.0,-0.019789994052635485,0.0,0.0,0.0,-0.35395737060537263,-0.3332818300623557,-0.5465130182066354,0.007414922485895872,0.02436833762521768,-0.040932337243707165
1980,2.0,300.45928,4076.1703,0.0,0.0,-0.019799998473009617,0.0,0.0,0.0,-0.3258461144685077,-0.3466422419059257,-0.5665656328531745,0.007910283741159221,0.03685309062636686,-0.03169039695534867
1981,2.0,300.04871,3996.9291,0.0,0.0,-0.01981000289338375,0.0,0.0,0.0,-0.3551079667564277,-0.3190675726245177,-0.5407911036994264,-0.02012692134262248,0.006396237413684484,-0.04445994416210486
1982,2.0,299.9432,3876.7704,0.0,0.0,-0.01982000731375777,0.0,0.0,0.0,-0.3144452573908307,-0.3238825067022147,-0.5401136244175645,-0.01814465254923778,-0.005406130756568564,-0.03912577918991376
1983,2.0,300.47059,4018.6125,0.0,0.0,-0.019830011734131903,0.0,0.0,0.0,-0.34177888460594963,-0.3489390569676037,-0.5308399035398195,-0.008174775049212482,0.01114854057752529,-0.059127039281634444
1984,2.0,300.62015,4225.2881,0.0,0.0,-0.019840016154506257,0.0,0.0,0.0,-0.3746597116135347,-0.35436870961596867,-0.5553536455941375,-0.003733368021504736,0.003734211450887976,-0.03501970677617596
1985,2.0,300.62172000000004,4030.8087,0.0,0.0,-0.019849987665602753,0.0,0.0,0.0,-0.34063733677828767,-0.36639440763281267,-0.5182334510956594,-0.014833193155422187,-0.004440505741743796,-0.05860024954139435
1986,2.0,301.1742,3848.2182,0.0,0.0,-0.019859992085976885,0.0,0.0,0.0,-0.3147151061574627,-0.3396606751393987,-0.5153864614946835,-0.0008496742057263152,-2.5814344816427477e-05,-0.03773738033313946
1987,2.0,300.6094,4085.4898,0.0,0.0,-0.019869996506351018,0.0,0.0,0.0,-0.34703826057500964,-0.36558281456771463,-0.5292657992444675,0.02083327115958378,0.019880360103038782,-0.03365269357601226
1988,2.0,300.5903,4223.8959,0.0,0.0,-0.019880000926725372,0.0,0.0,0.0,-0.3577335916080566,-0.3531761243807697,-0.5730491669305495,0.023977546313399576,0.002098618883817558,-0.03189100324989697
1989,2.0,300.34378,3972.0179,0.0,0.0,-0.019890005347099504,0.0,0.0,0.0,-0.33300103819464366,-0.3461744952622626,-0.5282187471211315,0.0022594526801406178,-0.03055303790360007,-0.05692266505307964
1990,2.0,300.31977,3796.3117,0.0,0.0,-0.019900009767473525,0.0,0.0,0.0,-0.3207922864147337,-0.3120559629925257,-0.5211357134895905,0.0015318083990777185,-0.028089885679005874,-0.05402635752998636
1991,2.0,300.52524,3941.4562,0.0,0.0,-0.019910014187847658,0.0,0.0,0.0,-0.33622345722267166,-0.3090382914122047,-0.5528425078713075,0.0013365682770590187,0.015889760710447284,-0.03956150206416626
1992,2.0,299.55125,3969.7169,0.0,0.0,-0.019919985698944376,0.0,0.0,0.0,-0.3368673675287207,-0.3300184250677827,-0.5398090211725024,-0.014943313176290185,0.018347758531782783,-0.04151819237202656
1993,2.0,299.69604,4103.845,0.0,0.0,-0.019929990119318508,0.0,0.0,0.0,-0.36001291797300866,-0.3463271717873307,-0.5411263172300095,-0.025167582211346975,0.001030192756247109,-0.027362212013690074
1994,2.0,299.77628,4191.1985,0.0,0.0,-0.01993999453969264,0.0,0.0,0.0,-0.36866351030425565,-0.3467417531982467,-0.5586144262709515,-0.015055980507909586,0.007257987169332562,-0.02488219322793127
1995,2.0,299.63907,3949.91,0.0,0.0,-0.019949998960066773,0.0,0.0,0.0,-0.34528541896201764,-0.33030387788595467,-0.5250847037668255,0.011038782286942989,0.021923008469882477,-0.02276755850773308
1996,2.0,300.06537000000003,4086.3564,0.0,0.0,-0.019960003380441016,0.0,0.0,0.0,-0.35416940332129865,-0.35401516639107666,-0.5339657395683155,0.014267730698615384,-0.0023723034100281174,-0.04064131256323526
1997,2.0,300.24025,4424.0194,0.0,0.0,-0.019970007800815148,0.0,0.0,0.0,-0.3739451980405177,-0.3796301390515776,-0.5912160826109845,0.006236814264150644,-0.02182398759060988,-0.03117122178961007
1998,2.0,300.27322000000004,4127.5582,0.0,0.0,-0.01998001222118928,0.0,0.0,0.0,-0.35880136469593765,-0.3495509688354947,-0.5463223042728135,0.008949761921322732,-0.02252529446182348,-0.03447880347529297
1999,2.0,300.53151,3796.8678,0.0,0.0,-0.019989983732286,0.0,0.0,0.0,-0.2931794176045557,-0.3407346189203887,-0.5202389567535876,0.013048386541525486,0.001104484861529169,-0.035735505150319764
2000,2.0,300.75748,3922.0840000000003,0.0,0.0,-0.01999998815265991,0.0,0.0,0.0,-0.32356403206328366,-0.33408390870901467,-0.5345676607902206,0.004222505793328876,-0.008534973402086293,-0.04338414714668196
2001,2.0,300.14029,4082.4628,0.0,0.0,-0.020009992573034263,0.0,0.0,0.0,-0.3464749847119187,-0.34340106761854666,-0.5510906997734175,-0.0025494430349104376,-0.026087141127600376,-0.05202428476339715
2002,2.0,299.78191,4073.4272,0.0,0.0,-0.020019996993408395,0.0,0.0,0.0,-0.34548210093892867,-0.34937160330279265,-0.5433664510810935,-0.004781172483039985,-0.0026839213855324173,-0.06575936812294435
2003,2.0,299.55314,4081.3485,0.0,0.0,-0.02003000141378264,0.0,0.0,0.0,-0.3337802376540447,-0.3583153086229677,-0.5485324661859395,-0.0030419811727451667,0.008912523561597592,-0.05180856483035725
2004,2.0,299.65086,4046.9427,0.0,0.0,-0.02004000583415677,0.0,0.0,0.0,-0.3475257048006167,-0.33327330862901466,-0.5493705253436495,-0.008569008979570343,0.008955621344001012,-0.042742843933140255
2005,2.0,299.80816,4142.5613,0.0,0.0,-0.020050010254530903,0.0,0.0,0.0,-0.36495866263861565,-0.35844574430834064,-0.5358307783648805,-0.02078124481994918,-0.0016460389729513983,-0.05079658230623236
2006,2.0,300.58564,4252.4556,0.0,0.0,-0.020060014674905036,0.0,0.0,0.0,-0.38642200513438263,-0.34403743934385167,-0.5621808741054325,-0.006459362590939453,0.01226099799481629,-0.017646995775872882
2007,2.0,300.69571,4145.0372,0.0,0.0,-0.02006998618600153,0.0,0.0,0.0,-0.37672705592506567,-0.3387878513707577,-0.5444728999252915,0.007290687688484853,0.018607726083439583,-0.016794828123770485
2008,2.0,300.42307,3896.3265,0.0,0.0,-0.020079990606375775,0.0,0.0,0.0,-0.3108969163356367,-0.3376816153090807,-0.5358074432150776,0.013911197372678288,-0.012141859034808187,-0.031977655385198867
2009,2.0,300.56306,3979.0252,0.0,0.0,-0.020089995026749907,0.0,0.0,0.0,-0.34175623846621467,-0.32399652773596765,-0.5437715282060716,0.002179981549622428,-0.03710245350247707,-0.04248447225039096
2010,2.0,299.95401,4265.6602,0.0,0.0,-0.02009999944712426,0.0,0.0,0.0,-0.36189257796851665,-0.3584561503868677,-0.5763054487769194,0.003155474303196067,-0.00989079221514519,-0.015962262808102683
2011,2.0,299.56889,4134.2047,0.0,0.0,-0.020110003867498394,0.0,0.0,0.0,-0.3765192788595596,-0.33179179512780066,-0.5483839237212795,0.017541221584683783,0.014336535446655887,-0.047087912661215155
2012,2.0,299.45112,4039.2382,0.0,0.0,-0.020120008287872526,0.0,0.0,0.0,-0.33705978372271067,-0.3403370499786517,-0.5504307294532835,0.0025311467778547374,0.009446559053302791,-0.04272356684998776
2013,2.0,299.77812,4084.0312,0.0,0.0,-0.020130012708246547,0.0,0.0,0.0,-0.37838663799885364,-0.32876495363407465,-0.5342919149080064,-0.003021498929923727,-0.012450505147769188,-0.048560234970772054
2014,2.0,300.10089,4159.4293,0.0,0.0,-0.020139984219343376,0.0,0.0,0.0,-0.3380556869809987,-0.3561343283127216,-0.5701726410891584,-0.006246196250801574,0.009230038450033872,-0.03441084175133567
2015,2.0,300.25158999999996,4131.6488,0.0,0.0,-0.020149988639717398,0.0,0.0,0.0,-0.3503092041503267,-0.35478271347432766,-0.5508261401723075,-0.006366247237224683,0.025661718953864474,-0.048354718466239156
2016,2.0,300.23053,4168.5582,0.0,0.0,-0.02015999306009153,0.0,0.0,0.0,-0.34428199738798765,-0.35392170420185265,-0.5689338921794035,-0.01109550301429089,0.004021695024910396,-0.029338713387505575
2017,2.0,299.9778,4022.6289,0.0,0.0,-0.020169997480465662,0.0,0.0,0.0,-0.34888378417464866,-0.34844273667112063,-0.5254522298430975,-0.012354320355526489,-0.013159860264527088,-0.048345603268339546
2018,2.0,299.99352000000005,3855.2819,0.0,0.0,-0.020180001900839795,0.0,0.0,0.0,-0.3119653277710807,-0.34095728062986363,-0.5189868228100115,0.00983120135556403,0.020119864055675982,-0.04413035112982656
2019,2.0,299.49391,4055.2166,0.0,0.0,-0.02019000632121415,0.0,0.0,0.0,-0.34098030167213567,-0.35038733586553766,-0.5413169501038235,0.018932445382736883,0.013768446645589886,-0.04716272496909855
2020,2.0,299.00357,4130.4204,0.0,0.0,-0.02020001074158828,0.0,0.0,0.0,-0.3138140735060377,-0.35954193906152665,-0.5821886423025454,-8.890381817762371e-05,0.00044173593604344264,-0.056408853020120345
2021,2.0,299.25054,3840.6931,0.0,0.0,-0.020210015161962303,0.0,0.0,0.0,-0.3141740103390607,-0.3324609454938407,-0.5208398343278896,-0.013182368602248487,-0.026220045090216977,-0.06998524317550572
2022,2.0,299.81125,3932.8922,0.0,0.0,-0.02021998667305902,0.0,0.0,0.0,-0.3329565463827527,-0.32284869775768565,-0.5396957702088255,0.0095933264051126,0.0016924092492027884,-0.03917628970739876
2023,2.0,299.88338,4227.2528,0.0,0.0,-0.020229991093433153,0.0,0.0,0.0,-0.3897628427015976,-0.3419016803855687,-0.5533147837429174,0.003364019108302837,0.014872474835298986,-0.023678269724113275
2024,2.0,300.03648,4194.2434,0.0,0.0,-0.020239995513807285,0.0,0.0,0.0,-0.38868198855492564,-0.3375484843784417,-0.5487147802764325,-0.006383029192005934,-0.0037706652510606864,-0.03943679428160857
2025,2.0,299.63993999999997,4271.309,0.0,0.0,-0.020249999934181417,0.0,0.0,0.0,-0.3681158182277027,-0.3528675187978127,-0.5773879443887534,-0.006640476993314054,-0.01878681601211438,-0.015884954865222983
2026,2.0,300.09327,4321.7608,0.0,0.0,-0.02026000435455555,0.0,0.0,0.0,-0.36456194482696264,-0.3649186595246677,-0.5842267644811925,-0.006921866374610023,0.008357339716455211,-0.023470864521393978
2027,2.0,300.52614,4091.224,0.0,0.0,-0.020270008774929793,0.0,0.0,0.0,-0.3378678912074647,-0.3407726461966417,-0.5649894108651135,0.009996046913008021,0.003121855880778187,-0.009522948890266881
2028,2.0,299.93105,4113.0,0.0,0.0,-0.020280013195303925,0.0,0.0,0.0,-0.3452077128118487,-0.3529476060857167,-0.5520939896249344,-0.00935707052699596,-0.011975834966172888,-0.04671220661688586
2029,2.0,299.91875,4266.8082,0.0,0.0,-0.020289984706400643,0.0,0.0,0.0,-0.37968499641199166,-0.35923271539600865,-0.5580854185262425,0.01018216140065109,-0.01922802462240828,-0.01784766995817788
2030,2.0,300.06084,4009.5919,0.0,0.0,-0.020299989126774776,0.0,0.0,0.0,-0.34727919118378764,-0.34963640608392665,-0.5219002208225415,0.018655418752396482,0.004931464830622685,-0.060269463570632946
2031,2.0,299.60956,3860.5554,0.0,0.0,-0.020309993547148686,0.0,0.0,0.0,-0.3019409608217527,-0.3488100094348677,-0.5227614732750405,0.025381856236494176,0.015925970216020883,-0.050689309518145355
2032,2.0,299.96872,4212.7941,0.0,0.0,-0.02031999796752304,0.0,0.0,0.0,-0.3405890655435237,-0.3698124041951426,-0.5701827431926554,-0.004777637861391145,-0.015923103731487986,-0.054938742635531744
2033,2.0,299.64821,4315.784000000001,0.0,0.0,-0.020330002387897173,0.0,0.0,0.0,-0.37014035272250867,-0.36423737042242965,-0.5775128375960795,3.4335658593915666e-05,-0.012317709602913288,-0.02172758494959568
2034,2.0,299.76072999999997,3941.2309,0.0,0.0,-0.020340006808271416,0.0,0.0,0.0,-0.33578389919679064,-0.3338449539379317,-0.5284069279297036,0.009295111600606091,0.023485767403864776,-0.048822522865157855
2035,2.0,299.96851000000004,4092.5748,0.0,0.0,-0.020350011228645548,0.0,0.0,0.0,-0.37629816742273764,-0.3408395004382397,-0.5269028797462655,0.0008030553893578962,0.003268243770425547,-0.022168645625374978
2036,2.0,300.07412,4206.4849,0.0,0.0,-0.02036001564901968,0.0,0.0,0.0,-0.3683735079931347,-0.35622595651926464,-0.5540669192921475,-0.012337955353161387,-0.012854349147375488,-0.05453779247821104
2037,2.0,299.8033,4160.7448,0.0,0.0,-0.0203699871601164,0.0,0.0,0.0,-0.34696324967010667,-0.3619122755504607,-0.5558869900492744,-0.01918647731530788,-0.02249685658451688,-0.042534511606579464
2038,2.0,300.01192000000003,4130.4865,0.0,0.0,-0.02037999158049031,0.0,0.0,0.0,-0.3294311047798187,-0.36281152488170965,-0.5633221280905655,-0.00019192358218888284,0.014187503582197588,-0.04798316168106936
2039,2.0,299.65211,4102.8098,0.0,0.0,-0.020389996000864552,0.0,0.0,0.0,-0.3419906437443487,-0.34559488580755965,-0.5595662024873845,0.006421356187638514,0.0068498440508769735,-0.018384230469132283
2040,2.0,299.93644,4010.8447,0.0,0.0,-0.020400000421238684,0.0,0.0,0.0,-0.3246488885478507,-0.34550613523130064,-0.5490416243611895,0.0041012648459883266,-0.006769081634431343,-0.040267356401828665
2041,2.0,300.10729,4148.4215,0.0,0.0,-0.02041000484161304,0.0,0.0,0.0,-0.38629015089886964,-0.33745701829191466,-0.5372693807243595,0.006466395762533573,-0.007055266019175543,-0.018404128674596083
2042,2.0,300.33581000000004,4426.9543,0.0,0.0,-0.02042000926198717,0.0,0.0,0.0,-0.39158770613169763,-0.36580017697916667,-0.5882956729077625,0.018047565964406084,0.010855063831811389,-0.031534116299674966
2043,2.0,300.51021000000003,4199.3531,0.0,0.0,-0.020430013682361303,0.0,0.0,0.0,-0.3626207096228777,-0.3470528615089507,-0.5668249032887624,0.01885559644215248,0.01036987712742719,-0.036548148955771464
2044,2.0,299.95344,4032.9705,0.0,0.0,-0.0204399851934578,0.0,0.0,0.0,-0.3273340013128507,-0.3439284237655927,-0.5546599137806715,-0.00879723515461951,-0.0038973309367866162,-0.035851533432520864
2045,2.0,300.02558999999997,4285.0532,0.0,0.0,-0.020449989613832154,0.0,0.0,0.0,-0.3919386959663376,-0.34810876943816066,-0.5625016994845955,-0.002154276002535488,0.0034821803832894467,-0.03948255164287446
2046,2.0,299.45875,4260.2041,0.0,0.0,-0.020459994034206175,0.0,0.0,0.0,-0.3638415544033657,-0.35776809277396165,-0.5733860117937934,-0.01181279390583199,0.023509241368931476,-0.02907116469860057
2047,2.0,299.54202000000004,3941.7655,0.0,0.0,-0.020469998454580307,0.0,0.0,0.0,-0.3499235408972647,-0.3305982270400047,-0.5176765283106954,-8.051507297696903e-05,0.01829236414881578,-0.05464462450250454
2048,2.0,299.41667,4103.0089,0.0,0.0,-0.02048000287495444,0.0,0.0,0.0,-0.32376252775787373,-0.3558577211679227,-0.5675919944094685,-0.004656421333378006,-0.016522190892863282,-0.057601672316092443
2049,2.0,299.77345,4207.4223,0.0,0.0,-0.02049000729532857,0.0,0.0,0.0,-0.35924480346970167,-0.3591641588942427,-0.5605423473687224,-0.002017276685664708,-0.016226222565153485,-0.06535856488688814
2050,2.0,300.01818,3986.9486,0.0,0.0,-0.020500011715702926,0.0,0.0,0.0,-0.31013857969579467,-0.34025373042292867,-0.5615405101747335,0.01026328321690719,0.015546790750348784,-0.03716082988048836
2051,2.0,299.94088,4004.3648,0.0,0.0,-0.02051001613607706,0.0,0.0,0.0,-0.3294626067254277,-0.3458847867936707,-0.5418794964268425,0.007854102468164561,-0.0007638765746312484,-0.04718418965921695
2052,2.0,300.25496,4088.3346,0.0,0.0,-0.020519987647173554,0.0,0.0,0.0,-0.33599710728283266,-0.34253974423854067,-0.5642147912961645,-0.0004931608104186824,-0.01075378543131599,-0.023153897598611774
2053,2.0,299.98817,4071.6444,0.0,0.0,-0.020529992067547798,0.0,0.0,0.0,-0.36238725679983763,-0.34286774342841164,-0.5324232081460795,-0.002047591507456548,-0.0048836184516256155,-0.045677106791729455
2054,2.0,299.74807000000004,4324.0266,0.0,0.0,-0.02053999648792193,0.0,0.0,0.0,-0.37281327608880566,-0.3663848222868667,-0.5751980272126255,0.01650594444075988,0.013205596347540885,-0.03986485901160526
2055,2.0,300.08187999999996,4412.7618,0.0,0.0,-0.020550000908296062,0.0,0.0,0.0,-0.3977753610473716,-0.36316519982911466,-0.5804288599263685,-0.002031321649275838,0.004848284900763465,-0.039842811702679365
2056,2.0,300.34708,4136.2576,0.0,0.0,-0.020560005328670194,0.0,0.0,0.0,-0.33832167526474966,-0.3555155162116497,-0.5634818365713274,-0.014119447625980986,-0.008077520568839211,-0.03675265018370417
2057,2.0,300.6197,4178.2024,0.0,0.0,-0.020570009749044327,0.0,0.0,0.0,-0.36527487772982364,-0.3416900327046807,-0.5631042894515664,-0.01999744925809458,-0.0035430872521004866,-0.02669325315191897
2058,2.0,301.12927,4366.6115,0.0,0.0,-0.02058001416941857,0.0,0.0,0.0,-0.3894606408592726,-0.3517667745516777,-0.5861134564323944,-0.013598664432333688,0.02047912707738248,-0.013819918737419789
2059,2.0,300.54681,4052.4311,0.0,0.0,-0.020589985680515177,0.0,0.0,0.0,-0.3513945267299397,-0.3249330444058947,-0.5555103041920985,-0.008773703028997071,0.00013232925729238088,-0.014826044675966684
2060,2.0,300.36211000000003,3965.5481,0.0,0.0,-0.02059999010088942,0.0,0.0,0.0,-0.3031970464407187,-0.35182521881744566,-0.5504053475382785,-0.007091966647072613,-0.025903205836947375,-0.05845567597737604
2061,2.0,300.366,4246.4783,0.0,0.0,-0.020609994521263553,0.0,0.0,0.0,-0.3774847643498456,-0.35327927324094965,-0.5600593411785535,0.006373680946583333,-0.018873006105370682,-0.02953989318161047
2062,2.0,299.80895,4253.6989,0.0,0.0,-0.020619998941637463,0.0,0.0,0.0,-0.3607406747248326,-0.3541949777538227,-0.5780826083923115,0.03068757015912737,0.0009044662317738671,-0.04719722917475386
2063,2.0,300.19102000000004,4239.6613,0.0,0.0,-0.020630003362011817,0.0,0.0,0.0,-0.37313672578572765,-0.3601034214719407,-0.5555110438646714,0.03049071390319917,-0.0008988037443850232,-0.02949918889859327
2064,2.0,300.10983,4280.3513,0.0,0.0,-0.02064000778238595,0.0,0.0,0.0,-0.35542945074815563,-0.3790812614724076,-0.5666091924749734,0.006286271305506674,-0.016918830684258587,-0.045717869843252455
2065,2.0,300.06592,4329.3395,0.0,0.0,-0.020650012202760193,0.0,0.0,0.0,-0.3689622569637397,-0.3792341305149946,-0.5678147270464504,-0.0004210571733651076,-0.0033928988639780463,-0.03156332728680787
2066,2.0,300.00268,4160.7515,0.0,0.0,-0.02065998371385669,0.0,0.0,0.0,-0.34278320797256867,-0.3623571632718677,-0.5596242009231085,0.0017882167071082483,0.024721583967830377,-0.06267418267521024
2067,2.0,299.71353999999997,4148.702,0.0,0.0,-0.020669988134231043,0.0,0.0,0.0,-0.3641244436987846,-0.3568854708768536,-0.5400919206004224,-0.007211184336613483,0.004173839897650926,-0.05060999534006765
2068,2.0,299.39696000000004,4025.0003,0.0,0.0,-0.020679992554605175,0.0,0.0,0.0,-0.3380478038952207,-0.3331055853399617,-0.5523462078398265,-0.01930580372658448,-0.02061097523339488,-0.06353041852646414
2069,2.0,299.57075,3887.0278,0.0,0.0,-0.020689996974979086,0.0,0.0,0.0,-0.3248485089500517,-0.3239949166683087,-0.5327159563649715,-0.015036977002284086,0.0051484321758606955,-0.03911728916732586
2070,2.0,299.57739,4083.5789,0.0,0.0,-0.02070000139535333,0.0,0.0,0.0,-0.34840512482740865,-0.34303986422289867,-0.5498610194520575,0.0037685827181301564,0.013441413083064187,-0.04315368037168666
2071,2.0,299.5369,4458.8918,0.0,0.0,-0.02071000581572746,0.0,0.0,0.0,-0.38356729456764466,-0.3795668007878267,-0.5922576733162814,0.009003317964633302,0.006726362300940274,-0.021440032677216482
2072,2.0,299.47309,4299.9322,0.0,0.0,-0.020720010236101816,0.0,0.0,0.0,-0.35011731484638864,-0.38771143681413966,-0.5692432678324365,-0.00013290241234394687,-0.015287270041986087,-0.044151246373388756
2073,2.0,300.15947,4261.8298,0.0,0.0,-0.020730014656475948,0.0,0.0,0.0,-0.3784920464067566,-0.36335309692765866,-0.5536446979754776,0.016597909046336085,-0.014947017618655786,-0.029431908078703172
2074,2.0,300.58139,4496.7021,0.0,0.0,-0.020739986167572444,0.0,0.0,0.0,-0.4028417128723816,-0.3699071430794927,-0.5941362997966875,0.011369423019824689,0.005201547962002815,-0.025964605753257076
2075,2.0,300.77281,4273.2681,0.0,0.0,-0.020749990587946576,0.0,0.0,0.0,-0.3990064497863706,-0.3408917132158927,-0.5590686257607774,0.008879665583379763,-0.01056050189524039,-0.02148024958693558
2076,2.0,300.16617,4095.8379999999997,0.0,0.0,-0.02075999500832093,0.0,0.0,0.0,-0.3392893088452477,-0.35494353653019967,-0.5507996335496914,0.002377375132078658,-0.019911309827343283,-0.039769463541190465
2077,2.0,299.92118,4190.0437,0.0,0.0,-0.020769999428694952,0.0,0.0,0.0,-0.3592699726021857,-0.3569792370411077,-0.5574194396330154,-0.005036055748345005,0.012125794967722788,-0.033913790901530565
2078,2.0,299.52067,4171.7043,0.0,0.0,-0.020780003849069084,0.0,0.0,0.0,-0.3426577676101887,-0.34890519414926163,-0.5765309881166785,-0.0009289855061737311,0.028004260979305372,-0.036167920776245865
2079,2.0,300.06815,4125.5479,0.0,0.0,-0.020790008269443216,0.0,0.0,0.0,-0.3482629557058776,-0.3582123421478057,-0.5475882589477535,-0.01939924565080648,0.009065499704720162,-0.057236848577837146
2080,2.0,299.6254,4273.0553,0.0,0.0,-0.02080001268981735,0.0,0.0,0.0,-0.33884005401590966,-0.37996583894220864,-0.5800962200510394,-0.01037966917639359,0.0009501446507244761,-0.05809980025075385
2081,2.0,299.70157,4276.7283,0.0,0.0,-0.020809984200914067,0.0,0.0,0.0,-0.37133047575996464,-0.3618779365045716,-0.5668102010298115,0.01124843690488429,0.006689443013671623,-0.04229393664858656
2082,2.0,300.0743,4190.2537,0.0,0.0,-0.0208199886212882,0.0,0.0,0.0,-0.3343772040829607,-0.37298288402304464,-0.5663724161916055,0.018772612272212583,0.005308393057222605,-0.025545489034893475
2083,2.0,300.7559,4268.4868,0.0,0.0,-0.02082999304166233,0.0,0.0,0.0,-0.36897012991701666,-0.36263843136712665,-0.5659048519329604,-0.0013049029955338987,-0.004904849587595965,-0.04686574440453886
2084,2.0,300.61092,4354.4184,0.0,0.0,-0.020839997462036575,0.0,0.0,0.0,-0.3680440902531236,-0.3658900725280386,-0.5897003111238894,-0.0022752061860703676,-0.01910134910815638,-0.027548113009537075
2085,2.0,300.65096,4148.3184,0.0,0.0,-0.020850001882410707,0.0,0.0,0.0,-0.3506949991259017,-0.35226104808295866,-0.5580291628806905,0.0016837075586689984,0.015320296928995588,-0.04554611483205156
2086,2.0,299.99347,4203.2565,0.0,0.0,-0.02086000630278484,0.0,0.0,0.0,-0.3484303040923937,-0.35681037891194267,-0.5724443174158554,0.015283884773401986,0.013245788939257588,-0.03758518712836917
2087,2.0,300.17708,4395.7559,0.0,0.0,-0.02087001072315897,0.0,0.0,0.0,-0.4060157390756336,-0.3560979627666327,-0.5740863196004085,0.0013918850450683586,-0.006887149589083744,-0.03657463733988567
2088,2.0,300.34757,4248.5926,0.0,0.0,-0.020880015143533104,0.0,0.0,0.0,-0.34714983967602164,-0.36676546995193365,-0.5775507534148215,-0.0036207734412425172,-0.020502794573218283,-0.045492845234544256
2089,2.0,299.94605,4116.3317,0.0,0.0,-0.020889986654629822,0.0,0.0,0.0,-0.35303055073890266,-0.3463300088876107,-0.5519015025034374,-0.005878709184658425,-0.011808808793188689,-0.043680552185184865
2090,2.0,300.07344,4284.6412,0.0,0.0,-0.020899991075003954,0.0,0.0,0.0,-0.36223029422684666,-0.3523041314772107,-0.5878895217376784,0.0007156110343328104,0.01185801323129479,-0.03670412968941556
2091,2.0,299.62816000000004,4337.0217,0.0,0.0,-0.020909995495378197,0.0,0.0,0.0,-0.39268573486756464,-0.3484807132848687,-0.5771798430832155,-0.03049433931205697,-0.0026375846478593375,-0.03814284857265606
2092,2.0,299.3984,4242.9003,0.0,0.0,-0.02091999991575233,0.0,0.0,0.0,-0.3513846070114607,-0.3644311849015576,-0.5739199540664894,-0.008981718917551642,0.0019272126333010782,-0.05064959619372595
2093,2.0,300.00363,4301.2639,0.0,0.0,-0.02093000433612624,0.0,0.0,0.0,-0.38924866893835264,-0.35225070279943765,-0.5659774411701245,-0.0024711479837833178,0.017746372305930586,-0.02175118557092488
2094,2.0,299.93998,4321.3193,0.0,0.0,-0.020940008756500594,0.0,0.0,0.0,-0.3576075534281177,-0.36282692628322966,-0.5931386638807284,0.019159587684154083,0.015454493798739784,-0.03646897257970736
2095,2.0,300.08128,4178.5023,0.0,0.0,-0.020950013176874727,0.0,0.0,0.0,-0.35117404350817966,-0.35320840652895563,-0.5657779018279314,-0.007929575009813122,-0.012954328561242687,-0.03456986324852986
2096,2.0,300.41362000000004,4279.8627,0.0,0.0,-0.020959984687971223,0.0,0.0,0.0,-0.35440253190430665,-0.37357427757641065,-0.5729945730151614,0.014581585930340486,-0.016095321797984587,-0.05482753337080625
2097,2.0,300.33751,4386.0496,0.0,0.0,-0.020969989108345466,0.0,0.0,0.0,-0.37111758178145365,-0.3679558159044117,-0.5941761610556214,0.009496404372097141,0.00028303630787600867,-0.04409397139823616
2098,2.0,300.79741,4149.7549,0.0,0.0,-0.02097999352871982,0.0,0.0,0.0,-0.3460684687717987,-0.36399576093608466,-0.5513576506447634,0.017230077810226282,-0.0004815562596734025,-0.06891795239467233
2099,2.0,300.2095,4175.7705,0.0,0.0,-0.020989997949093953,0.0,0.0,0.0,-0.35920501313827463,-0.3555016752152837,-0.5546232847895565,0.0008598269210658103,-0.0030245862016534167,-0.05727799058489755
2100,2.0,300.14302999999995,4314.9601,0.0,0.0,-0.021000002369467863,0.0,0.0,0.0,-0.37534810359897364,-0.3604518680488296,-0.5758401440659975,-0.017473354092985782,-0.01118362436223779,-0.061884307612755644
2101,2.0,300.38289,4184.8259,0.0,0.0,-0.021010006789842106,0.0,0.0,0.0,-0.3562147094431547,-0.3569379167020297,-0.5589299422195905,-0.006554789978732404,0.01725012395020468,-0.031806860935092766
2102,2.0,299.77154,4162.6913,0.0,0.0,-0.02102001121021624,0.0,0.0,0.0,-0.3435942133526087,-0.35556032213107164,-0.5661996874470585,-0.007260717574377034,0.008166928744413111,-0.043471520716055055
2103,2.0,299.74908,4480.3214,0.0,0.0,-0.021030015630590593,0.0,0.0,0.0,-0.38848275318776265,-0.3723364608567476,-0.6010866179301304,0.0028061430576447575,0.007178436903981562,-0.025571388720699577
2104,2.0,300.23163999999997,4358.1459,0.0,0.0,-0.02103998714168709,0.0,0.0,0.0,-0.3851784331541516,-0.36322518423503464,-0.5763639234401905,0.004196020144989946,-0.004967286058757965,-0.04359714143695286
2105,2.0,299.50377000000003,4171.4479,0.0,0.0,-0.02104999156206122,0.0,0.0,0.0,-0.35114410196772466,-0.35507260432793764,-0.5617992841177725,0.016642572097493986,0.007921807130571492,-0.02334029812675808
2106,2.0,300.2453,4402.5648,0.0,0.0,-0.021059995982435353,0.0,0.0,0.0,-0.38974055119939766,-0.36161240418336565,-0.5869168117741795,0.014864430642755087,-0.004266285087749556,-0.03215178241488387
2107,2.0,299.63132,4453.1432,0.0,0.0,-0.021070000402809708,0.0,0.0,0.0,-0.3908804778268996,-0.36849003175463463,-0.5942738181002594,0.0070623186451715825,-0.01992922611561148,-0.02743368768899418
2108,2.0,299.57822000000004,4170.0126,0.0,0.0,-0.02108000482318373,0.0,0.0,0.0,-0.3491530249912207,-0.35885336469106965,-0.5595733155030864,-0.004620832443490655,-0.015866920026693085,-0.05116128546772575
2109,2.0,300.6721,4250.1829,0.0,0.0,-0.02109000924355786,0.0,0.0,0.0,-0.3678179530958056,-0.33855248350502865,-0.5855790379321514,-0.008551729620315002,0.0024600665740646677,-0.04650374358106216
2110,2.0,300.59835,4357.6111,0.0,0.0,-0.021100013663931994,0.0,0.0,0.0,-0.37375693617193767,-0.3692920901362916,-0.5815559486751034,-0.0067293678033868935,0.012199414680238488,-0.03787281944750626
2111,2.0,300.79456,4125.096,0.0,0.0,-0.02110998517502871,0.0,0.0,0.0,-0.3477182121871157,-0.35228432243775565,-0.5539236355955065,-0.01068399884392859,-8.784706114482991e-05,-0.06735988784840334
2112,2.0,301.26272,4182.4658,0.0,0.0,-0.021119989595402844,0.0,0.0,0.0,-0.35545430577310866,-0.35272662637140767,-0.5631842348844565,-0.001213913339203919,0.00044437057882096157,-0.048696103703181254
2113,2.0,300.90162000000004,4298.986,0.0,0.0,-0.021129994015776976,0.0,0.0,0.0,-0.38018059730090364,-0.35746333754138465,-0.5691404533447895,-0.002050024726246688,0.0002962408210591927,-0.03188977721727597
2114,2.0,300.52791,4267.598,0.0,0.0,-0.02113999843615111,0.0,0.0,0.0,-0.33417709732071166,-0.37648659141133367,-0.5865795413458934,0.01005175074255556,0.012813266922070988,-0.026137196695790475
2115,2.0,300.7844,4379.3797,0.0,0.0,-0.02115000285652535,0.0,0.0,0.0,-0.36836156177445567,-0.3884527001897966,-0.5744078035921365,0.010479561450752189,0.002116838944465738,-0.04725413836662036
2116,2.0,300.03018,4567.0839,0.0,0.0,-0.021160007276899484,0.0,0.0,0.0,-0.3701741142158407,-0.4003698081934236,-0.6177355431057514,0.024190776690943775,-0.004915979025369355,-0.037910587331733664
2117,2.0,300.2355,4303.6389,0.0,0.0,-0.021170011697273616,0.0,0.0,0.0,-0.37723653834034765,-0.37169156769810163,-0.5592706475657155,0.020011877939518582,0.01053043471177299,-0.045298477520861656
2118,2.0,300.44579,4107.3877,0.0,0.0,-0.02118001611764775,0.0,0.0,0.0,-0.32989476802557866,-0.35071971229584065,-0.5679288190077104,-0.008076965814409462,0.006451155569104484,-0.04292348312121796
2119,2.0,299.76081,4306.4487,0.0,0.0,-0.021189987628744245,0.0,0.0,0.0,-0.3895967304802036,-0.3604378851974496,-0.5590182672308074,-0.008084737341351452,-0.016463212644292586,-0.04082157887527616
2120,2.0,299.88492,4289.9407,0.0,0.0,-0.0211999920491186,0.0,0.0,0.0,-0.33443997492665567,-0.36771722590336464,-0.6018776622832004,-0.011767756965387188,-0.004484534802314126,-0.04336350217589446
2121,2.0,299.3846,4068.656,0.0,0.0,-0.02120999646949273,0.0,0.0,0.0,-0.3563772448916957,-0.3400758138378697,-0.5403167709301135,0.0017516993761542683,0.008761534300596112,-0.03696682896334197
2122,2.0,299.67908,4362.6345,0.0,0.0,-0.021220000889866975,0.0,0.0,0.0,-0.36028387118224964,-0.36268029886125863,-0.6031677728405244,0.003976248123475136,0.00048099544600805456,-0.030473787560278673
2123,2.0,300.24407,4552.1271,0.0,0.0,-0.021230005310241107,0.0,0.0,0.0,-0.4106520675582036,-0.38595452193574564,-0.5871263924248634,-0.011764220722538188,-0.004765447753413076,-0.03331605744228887
2124,2.0,300.5047,4352.5866,0.0,0.0,-0.021240009730615017,0.0,0.0,0.0,-0.3651397405639867,-0.37391806320283966,-0.5840198284132694,-0.01056191233937959,-0.003327955612068647,-0.03914088877540496
2125,2.0,300.25827000000004,4447.1715,0.0,0.0,-0.02125001415098937,0.0,0.0,0.0,-0.4000320412725886,-0.36861723517218864,-0.5831798035503655,0.0025931331633223175,0.0033662649771494866,-0.03616603815756007
2126,2.0,300.2028,4476.7185,0.0,0.0,-0.021259985662085867,0.0,0.0,0.0,-0.3849310177447336,-0.36668203893869966,-0.6091975836556204,-0.000997826488037807,0.006063838489229264,-0.023343774587851182
2127,2.0,300.1752,4243.3388,0.0,0.0,-0.02126999008246,0.0,0.0,0.0,-0.35815832578497464,-0.36786430928788066,-0.5638464039573075,-0.004781201461992846,-0.02023038937658398,-0.05040117158720836
2128,2.0,300.62374,4258.8673,0.0,0.0,-0.021279994502834243,0.0,0.0,0.0,-0.3342439414298087,-0.3675022040996436,-0.5928431596215644,0.004126339746213027,-0.005183653661261785,-0.05296217641370986
2129,2.0,300.07504,4326.5232,0.0,0.0,-0.021289998923208597,0.0,0.0,0.0,-0.36673068507600065,-0.36746043793052163,-0.5809638965091725,0.0014555904093305886,0.002681932882211167,-0.05081367887516965
2130,2.0,299.53848,4180.5565,0.0,0.0,-0.02130000334358273,0.0,0.0,0.0,-0.34889926663617665,-0.35541793009451866,-0.5664675705084964,0.015283783448391985,0.007508519842683212,-0.04337957232248046
2131,2.0,299.87005,4201.5244,0.0,0.0,-0.02131000776395664,0.0,0.0,0.0,-0.3544021266042667,-0.3581553265646787,-0.5646010624992865,-0.012124144383309887,-0.004003278495067827,-0.06210276433431564
2132,2.0,300.02699,4468.9324,0.0,0.0,-0.021320012184330883,0.0,0.0,0.0,-0.37997617409322865,-0.38068041331023167,-0.5977872729545105,-0.005480649019272944,-0.00024761710698290577,-0.052103556384970655
2133,2.0,299.52008,4398.1795,0.0,0.0,-0.02132998369542749,0.0,0.0,0.0,-0.38514516815336863,-0.36949429432624764,-0.5822972829782674,0.0074101352844734136,0.0022349870472010477,-0.03479518169976707
2134,2.0,299.9182,4242.1184,0.0,0.0,-0.021339988115801733,0.0,0.0,0.0,-0.35111469744982265,-0.36627830943635464,-0.5721050711498745,0.007092859219085703,0.006186630925122933,-0.04661221909701786
2135,2.0,300.08897,4547.2299,0.0,0.0,-0.021349992536175866,0.0,0.0,0.0,-0.4030071766137116,-0.38224563140220663,-0.5969915271209765,0.013919627613510288,-0.00949421301610587,-0.027829781338585574
2136,2.0,300.36585,4609.7012,0.0,0.0,-0.021359996956549998,0.0,0.0,0.0,-0.39745371493562764,-0.3873329068417816,-0.6164474387836254,-0.01041901671752689,0.0007317877545643282,-0.04533339715905796
2137,2.0,300.62651,4341.9014,0.0,0.0,-0.02137000137692413,0.0,0.0,0.0,-0.36023715022013864,-0.36667592904059665,-0.5929165391938064,-0.0031354622084210273,0.008377873635031752,-0.02486952557518108
2138,2.0,300.7462,4332.5854,0.0,0.0,-0.021380005797298263,0.0,0.0,0.0,-0.37189075240275965,-0.35380946648827566,-0.5912975479190244,-0.006975139518492674,0.003099309647503047,-0.04069804646283446
2139,2.0,299.72931,4430.0606,0.0,0.0,-0.021390010217672506,0.0,0.0,0.0,-0.39362188676745563,-0.36391257310287467,-0.5890933540489874,0.0001018436015336809,-0.0037364776860616365,-0.025531246791487872
2140,2.0,300.0542,4254.0054,0.0,0.0,-0.02140001463804664,0.0,0.0,0.0,-0.3521559436500857,-0.3693282834298636,-0.5716271920052115,-0.009121351266132281,-0.006568031637664254,-0.05645563883023774
2141,2.0,300.22112000000004,4246.7606,0.0,0.0,-0.021409986149143134,0.0,0.0,0.0,-0.3630634391215717,-0.35228092804992067,-0.5755648237488254,-0.0026254984993415277,-0.0018893462611639582,-0.020626402979417483
2142,2.0,299.90753,4476.2361,0.0,0.0,-0.02141999056951749,0.0,0.0,0.0,-0.39330157814584366,-0.36793616898497267,-0.5994262556537654,-0.01052674850790919,-0.0037582968110650163,-0.030108225162700473
2143,2.0,300.35511,4419.7801,0.0,0.0,-0.02142999498989162,0.0,0.0,0.0,-0.3866158702760156,-0.36944278069116365,-0.5874441273912214,-0.0005569675908834214,-0.00990386709311058,-0.03886687352436176
2144,2.0,300.0242,4314.9137,0.0,0.0,-0.021439999410265753,0.0,0.0,0.0,-0.36765522512974563,-0.3681285547814596,-0.5758422414937044,-0.0023082514129066775,0.004720641935316085,-0.05504913927367704
2145,2.0,299.81806,4570.2636,0.0,0.0,-0.021450003830639885,0.0,0.0,0.0,-0.4008257200759186,-0.39606785224385366,-0.5923524425981345,0.010169832173434291,0.0027908283903333173,-0.055417294578261146
2146,2.0,300.30695,4462.3923,0.0,0.0,-0.02146000825101413,0.0,0.0,0.0,-0.37020814928669965,-0.37664275351674564,-0.6096049203283214,0.0013735054988544386,0.020534623798609583,-0.03609086411939096
2147,2.0,300.08538,4245.4071,0.0,0.0,-0.02147001267138826,0.0,0.0,0.0,-0.3493749976906277,-0.37954616088328963,-0.5615765920107945,0.0004801272325273686,0.005167661129633445,-0.06694423543213164
2148,2.0,300.06253,4256.5583,0.0,0.0,-0.02147998418248498,0.0,0.0,0.0,-0.3398425940623527,-0.37136471348084366,-0.5826801192635505,-0.0019479713920748081,-0.001998894505000528,-0.02673236561902908
2149,2.0,300.95352,4218.6381,0.0,0.0,-0.02148998860285889,0.0,0.0,0.0,-0.34832799622979665,-0.35928698507136464,-0.5747456617054805,-0.00041449813189028067,0.000982667415411723,-0.03968994873959296
2150,2.0,300.47784,4205.5101,0.0,0.0,-0.02149999302323302,0.0,0.0,0.0,-0.3377488748507187,-0.37060485696585166,-0.5700163371287325,-0.001048624890141219,-0.0011435985445393889,-0.04843442882510596
2151,2.0,300.83268,4459.24,0.0,0.0,-0.021509997443607376,0.0,0.0,0.0,-0.39100508732419764,-0.3758241892909596,-0.5886683462945425,0.007309868310227832,-0.0025886832728581476,-0.05432188002765215
2152,2.0,300.60348,4456.3993,0.0,0.0,-0.02152000186398151,0.0,0.0,0.0,-0.3722173735724946,-0.3851184082182276,-0.5972983189862544,-0.0014050105855387487,0.005687391556426845,-0.045956180187271864
2153,2.0,299.73065,4287.9133,0.0,0.0,-0.02153000628435575,0.0,0.0,0.0,-0.37090865974333465,-0.36322898392290964,-0.5692809202061525,0.02073020943891238,0.009155281972230981,-0.03209593510912217
2154,2.0,300.35187,4588.5622,0.0,0.0,-0.021540010704729884,0.0,0.0,0.0,-0.38619625301210264,-0.3781144283594886,-0.6304976510302734,-0.01637273042361268,0.003745142088991746,-0.025278552349048876
2155,2.0,300.35295,4746.081,0.0,0.0,-0.021550015125103794,0.0,0.0,0.0,-0.42832984688536463,-0.3936651120167216,-0.6206951554553425,-0.010043648794755961,-0.003342038268583497,-0.028222336718827772
2156,2.0,299.52547999999996,4331.059,0.0,0.0,-0.021559986636200512,0.0,0.0,0.0,-0.36742900691241964,-0.36455428465620665,-0.5845504877556414,-0.012019759358007889,-0.01102798813362769,-0.04941344120422696
2157,2.0,299.99197999999996,4240.6021,0.0,0.0,-0.021569991056574644,0.0,0.0,0.0,-0.36173736831819864,-0.35705123859321364,-0.5702485436541495,0.02053468155386528,-0.004385552122570296,-0.04426786538039816
2158,2.0,299.66765,4490.6928,0.0,0.0,-0.021579995476948777,0.0,0.0,0.0,-0.37229792695544467,-0.38719692867836164,-0.6055636229669764,0.0018286725412009282,-0.0033926618647796567,-0.03905296805097786
2159,2.0,299.64783,4295.4929999999995,0.0,0.0,-0.02158999989732302,0.0,0.0,0.0,-0.37317988010748665,-0.3472398061524007,-0.5853029171474005,-0.0015258506911397384,-0.012995737053079387,-0.04050732644951186
2160,2.0,300.42512999999997,4264.0567,0.0,0.0,-0.021600004317697374,0.0,0.0,0.0,-0.33204603984289266,-0.37767027017815363,-0.5864504431506524,-0.018864338764015283,0.0007738183718299272,-0.038731682656269466
2161,2.0,300.2626,4354.8629,0.0,0.0,-0.021610008738071507,0.0,0.0,0.0,-0.36340072981485966,-0.36831616816997564,-0.5920526928210514,0.0036965351644696167,0.005226412714156776,-0.03294332528700307
2162,2.0,300.45791,4395.4699,0.0,0.0,-0.021620013158445417,0.0,0.0,0.0,-0.37114527390668667,-0.37514430860636067,-0.5898235223360494,0.014626877196560384,0.0036826169584459963,-0.04087706647725236
2163,2.0,300.96116,4540.8428,0.0,0.0,-0.021629984669542135,0.0,0.0,0.0,-0.36887908939553166,-0.4213014983617206,-0.5901222385980305,0.006254995415994984,-0.012498775369283089,-0.08092543420121852
2164,2.0,300.43448,4585.992,0.0,0.0,-0.021639989089916267,0.0,0.0,0.0,-0.4087849414664326,-0.3807186533690056,-0.6045234609443204,0.0024698813198333076,-0.0008773665032118323,-0.043425063198970056
2165,2.0,299.90345,4415.692,0.0,0.0,-0.02164999351029051,0.0,0.0,0.0,-0.38135974683977664,-0.37058405494129865,-0.5903163063896835,-0.013553058045332685,0.005465855973112985,-0.04876566636229655
2166,2.0,300.24844,4202.6236,0.0,0.0,-0.021659997930664643,0.0,0.0,0.0,-0.34756827143731767,-0.35806482306574666,-0.5718595403856425,-0.005141007383102925,0.014030343425437089,-0.035483953653993566
2167,2.0,299.89126,4419.559,0.0,0.0,-0.021670002351038775,0.0,0.0,0.0,-0.37036872916254765,-0.3746847388910046,-0.5983821216907174,-0.0009889733672765722,-0.001193777121291629,-0.03613434774743247
2168,2.0,299.97544,4599.5859,0.0,0.0,-0.021680006771412907,0.0,0.0,0.0,-0.4087406928345656,-0.3818454077452076,-0.6075731714928034,0.008065147771868113,-0.012341141011475789,-0.032795826469946075
2169,2.0,300.07739,4333.3473,0.0,0.0,-0.02169001119178704,0.0,0.0,0.0,-0.36458868449710163,-0.3621430837907397,-0.5904975970975754,0.003153067834208567,-0.014618867454519884,-0.04912713117647036
2170,2.0,300.00603,4317.2478,0.0,0.0,-0.021700015612161283,0.0,0.0,0.0,-0.3676830287124897,-0.3698234587537336,-0.5748290521887105,0.01155052830294839,-0.02226631989526468,-0.05161107225336625
2171,2.0,299.88276,4507.91,0.0,0.0,-0.02170998712325789,0.0,0.0,0.0,-0.3946757985939686,-0.36932894204242867,-0.6062873267184005,0.005820522993690895,-0.003852978750759397,-0.037924208452827964
2172,2.0,300.15592000000004,4427.2159,0.0,0.0,-0.02171999154363191,0.0,0.0,0.0,-0.3788010572897536,-0.36431289808488365,-0.6026491205118374,-0.004348942788507236,-0.0014164229227400587,-0.047776246891398456
2173,2.0,299.42816,4410.1005,0.0,0.0,-0.021729995964006266,0.0,0.0,0.0,-0.3902731965119656,-0.3599695508687286,-0.5903176844098195,-0.007904462619334722,0.005438709888358875,-0.01876210790842588
2174,2.0,299.53743,4558.8453,0.0,0.0,-0.021740000384380398,0.0,0.0,0.0,-0.39552457793773665,-0.3742570561562957,-0.6159935128713264,-0.0024562138932094375,0.006733525168547193,-0.04686100644707125
2175,2.0,299.4268,4389.4516,0.0,0.0,-0.02175000480475453,0.0,0.0,0.0,-0.36948216572255066,-0.37793075651386165,-0.5868707696896355,0.01014362243309759,0.010894070920911091,-0.03853445859055496
2176,2.0,299.94789,4314.5777,0.0,0.0,-0.021760009225128663,0.0,0.0,0.0,-0.3592751300451946,-0.37132524738944866,-0.5809234982276855,-0.005964783564753304,-0.0051881234114279145,-0.058588500906484854
2177,2.0,300.85547,4625.4489,0.0,0.0,-0.021770013645502906,0.0,0.0,0.0,-0.4033430082268556,-0.37397692290114865,-0.6287010370129614,-0.013665047512635186,0.004660280397708865,-0.03141300555497227
2178,2.0,300.42045,4458.042,0.0,0.0,-0.021779985156599513,0.0,0.0,0.0,-0.37729855937896867,-0.38260679426785066,-0.5952281071769404,-0.02395081069626098,-0.0033578618914201666,-0.04855237417649625
2179,2.0,300.08242,4081.3140000000003,0.0,0.0,-0.021789989576973756,0.0,0.0,0.0,-0.3230514592351967,-0.36617601170625863,-0.5513900543829614,0.0002792520315350297,0.007993443507341451,-0.06683748548109623
2180,2.0,300.20443,4336.9894,0.0,0.0,-0.021799993997347666,0.0,0.0,0.0,-0.35643536491743166,-0.37184387945313363,-0.5900572284716145,0.007634415357008133,0.0023536234351595477,-0.05212197524528846
2181,2.0,300.6206,4644.4203,0.0,0.0,-0.0218099984177218,0.0,0.0,0.0,-0.37836907837462064,-0.41879827412217163,-0.6146204677933174,0.008659148113766382,-0.0070792777160703126,-0.058209753085355344
2182,2.0,299.94223,4414.5148,0.0,0.0,-0.021820002838096153,0.0,0.0,0.0,-0.37382816765396765,-0.3754208448236526,-0.5926532360228205,0.002105633614259858,-0.019293033735574183,-0.038162893699384366
2183,2.0,299.59754,4370.4343,0.0,0.0,-0.021830007258470285,0.0,0.0,0.0,-0.3626293222487277,-0.3874817938114756,-0.5783917813953244,-0.0039598925443359665,0.006360279498110713,-0.058645612748371344
2184,2.0,299.14646,4511.5295,0.0,0.0,-0.02184001167884453,0.0,0.0,0.0,-0.3976974623796836,-0.3733739073691356,-0.6003209352270634,0.0051389358945984846,0.009169280225012502,-0.01000393415311143
2185,2.0,299.61384,4537.4248,0.0,0.0,-0.02185001609921844,0.0,0.0,0.0,-0.4038225794991856,-0.36783809650779364,-0.6076031738282645,-0.006057209300450015,0.018258771868250482,-0.03249622766712797
2186,2.0,299.45351,4601.3405,0.0,0.0,-0.02185998761031538,0.0,0.0,0.0,-0.3964536776169316,-0.39550669407347167,-0.6067322549698114,-0.013391674662155387,0.007837919749492451,-0.033360600929934967
2187,2.0,299.48379,4567.7836,0.0,0.0,-0.02186999203068929,0.0,0.0,0.0,-0.3974770906154346,-0.37393304917181863,-0.6170820170562534,-0.00991876024838042,0.005268031354064215,-0.03952863932367296
2188,2.0,299.44637,4282.8717,0.0,0.0,-0.02187999645106342,0.0,0.0,0.0,-0.3643184506954317,-0.3550245965381997,-0.5825430163925194,-0.000926676998205899,-0.007539283230294323,-0.03885177508462167
2189,2.0,299.8375,4219.3078,0.0,0.0,-0.021890000871437665,0.0,0.0,0.0,-0.35445824039480467,-0.34845757065258465,-0.5796483939043424,0.0075180613148998834,-0.003527057736843497,-0.03670139188764537
2190,2.0,300.45174,4669.1337,0.0,0.0,-0.021900005291811797,0.0,0.0,0.0,-0.4133163073711436,-0.37745046583396064,-0.6285332630614034,-0.0040070285336879265,-0.009734145168235332,-0.028685211656009974
2191,2.0,300.2034,4590.7085,0.0,0.0,-0.02191000971218615,0.0,0.0,0.0,-0.39381201301621965,-0.40088500533926963,-0.6007637457857654,-0.0018248024324439783,0.013073906258544089,-0.05343086841971616
2192,2.0,300.04195,4250.1389,0.0,0.0,-0.021920014132560284,0.0,0.0,0.0,-0.3338393405323777,-0.39153135929363664,-0.5665654099381525,6.196389638161045e-05,-0.0010656575229972091,-0.06306535294256574
2193,2.0,300.46247,4465.5962,0.0,0.0,-0.02192998564365678,0.0,0.0,0.0,-0.3728121513811946,-0.3891988778284386,-0.5954187096532515,-0.003302406004172096,0.005563066782406944,-0.047105207827172056
2194,2.0,300.24417,4679.2916,0.0,0.0,-0.021939990064030912,0.0,0.0,0.0,-0.40469904083568564,-0.4084963070429466,-0.6091924667426154,0.0023187704688198275,-0.017421782702646084,-0.04625545880305836
2195,2.0,300.01421,4437.1044,0.0,0.0,-0.021949994484405044,0.0,0.0,0.0,-0.36995394510161167,-0.37452578021531663,-0.6042892279187034,-0.004633632224053896,0.0017352544283562783,-0.04642576486661625
2196,2.0,300.15963,4353.6688,0.0,0.0,-0.021959998904779288,0.0,0.0,0.0,-0.37932158413112566,-0.37451342869659765,-0.5695715912623395,0.006962343284304784,0.006768151369514534,-0.046008851967220155
2197,2.0,299.61032,4355.1262,0.0,0.0,-0.02197000332515342,0.0,0.0,0.0,-0.3715750338041007,-0.35787056275657464,-0.5944040207381094,0.0058691601130660045,0.005616487354179145,-0.054072857603575546
2198,2.0,299.09024,4318.2528,0.0,0.0,-0.021980007745527552,0.0,0.0,0.0,-0.36139294434420666,-0.3636783198122557,-0.5875697704036213,0.01112362779731659,0.01124477907202329,-0.05429627215787486
2199,2.0,299.6143,4558.6335,0.0,0.0,-0.021990012165901685,0.0,0.0,0.0,-0.37615297881590865,-0.4042287914642756,-0.6053289643763174,-0.007695849014546163,0.011694364220893889,-0.06317667974430284
2200,2.0,299.23798,4611.1582,0.0,0.0,-0.021999983676998403,0.0,0.0,0.0,-0.39230689078767567,-0.3824404692639356,-0.6269295921281334,0.016772670370583682,-0.0042360818247937256,-0.027575963201785673
2201,2.0,299.91378,4264.1385,0.0,0.0,-0.022009988097372535,0.0,0.0,0.0,-0.35759248639913066,-0.35565389577780665,-0.5829452462847164,-0.024792080843537876,-0.016307558177180687,-0.03542176745560626
2202,2.0,300.12079,4272.4936,0.0,0.0,-0.022019992517746667,0.0,0.0,0.0,-0.36983410801228467,-0.35553924652899166,-0.5733580258260315,0.017380970001868185,-0.015850047386027882,-0.025577660738818574
2203,2.0,300.04267000000004,4814.9003,0.0,0.0,-0.02202999693812069,0.0,0.0,0.0,-0.42975154823317563,-0.3884689223238976,-0.6453889824499334,0.006774391368930373,0.006598875173358274,-0.01898557616498048
2204,2.0,300.11454,4827.4138,0.0,0.0,-0.022040001358495043,0.0,0.0,0.0,-0.4242011769678966,-0.4196793558791276,-0.6235327218303883,0.0024257422203021175,0.026978644161834875,-0.03346860731109437
2205,2.0,299.9428,4422.0186,0.0,0.0,-0.022050005778869175,0.0,0.0,0.0,-0.38497232795131064,-0.35993713699802965,-0.5992737716462164,-0.0068292418392436926,0.01100299530666109,-0.019485980872616583
2206,2.0,299.31658,4463.2788,0.0,0.0,-0.022060010199243307,0.0,0.0,0.0,-0.3830233819139646,-0.36893853677889865,-0.6047633783029984,0.0004232889580353675,-0.006067560460821594,-0.03616666231962167
2207,2.0,299.71075,4563.7801,0.0,0.0,-0.02207001461961744,0.0,0.0,0.0,-0.3823457101145836,-0.38171294555963464,-0.6232165270041824,0.001878245498368398,-0.0012565495861867888,-0.02747217802054287
2208,2.0,300.10017,4477.1356,0.0,0.0,-0.022079986130714158,0.0,0.0,0.0,-0.38081513504352765,-0.3751857606679516,-0.6049365427450885,0.007619942497879773,-0.019750162531439283,-0.06457805934810824
2209,2.0,300.07307000000003,4400.3016,0.0,0.0,-0.02208999055108829,0.0,0.0,0.0,-0.3509579071293487,-0.38424505755953464,-0.6023788461801635,-0.025069434753660576,-0.009176933303017802,-0.05683889156131185
2210,2.0,300.42625,4214.7574,0.0,0.0,-0.02209999497146231,0.0,0.0,0.0,-0.34854267352848367,-0.3639097157375927,-0.5687285975766425,-0.005513585524373525,-0.01237591068865729,-0.08184458579093172
2211,2.0,300.50062,4215.3076,0.0,0.0,-0.022109999391836443,0.0,0.0,0.0,-0.3323410881395117,-0.3787713082668176,-0.5702358678953985,0.0016808611364880785,0.015792025645551586,-0.05470327040504244
2212,2.0,300.29087999999996,4563.1274,0.0,0.0,-0.022120003812210576,0.0,0.0,0.0,-0.37504361181142265,-0.4006497995935566,-0.6113833566388395,-0.006345954168196915,0.025655313186732275,-0.054710574925013356
2213,2.0,300.37667999999996,4747.9016,0.0,0.0,-0.02213000823258493,0.0,0.0,0.0,-0.40175567088519765,-0.3995486399148806,-0.6419392103644673,-0.004023255126089366,0.008709435006954312,-0.010291817352973291
2214,2.0,299.78175,4479.639,0.0,0.0,-0.022140012652959062,0.0,0.0,0.0,-0.3798390712221976,-0.38143668291986965,-0.6004226250070994,-0.003537767689075486,-0.0011373504391227489,-0.03573581520485037
2215,2.0,299.96067999999997,4491.0375,0.0,0.0,-0.02214998416405556,0.0,0.0,0.0,-0.3700382171124287,-0.3916460997349606,-0.6034789318137335,0.008820494310665011,0.008716434437320102,-0.05418840357872905
2216,2.0,299.97598,4707.0285,0.0,0.0,-0.0221599885844298,0.0,0.0,0.0,-0.41741814642596364,-0.3885096549779176,-0.6248913280944723,0.012236785370426688,-0.005843569873840444,-0.04981104155671705
2217,2.0,300.32409,4661.0132,0.0,0.0,-0.022169993004804156,0.0,0.0,0.0,-0.39553360599612764,-0.3981861731679156,-0.6231118380038505,-0.003809613774304606,-0.004353259335258246,-0.05630929309179455
2218,2.0,299.9772,4454.8604,0.0,0.0,-0.022179997425178066,0.0,0.0,0.0,-0.3933762141482096,-0.36426246862740663,-0.5965276409601945,-0.01152823376099809,-0.000959799991987384,-0.05052519238619825
2219,2.0,300.28612000000004,4389.228,0.0,0.0,-0.0221900018455522,0.0,0.0,0.0,-0.37816606358458466,-0.35933498272860165,-0.5967146767961534,-0.0032618727577717775,-0.007524035437489483,-0.03098881144035757
2220,2.0,300.23785,4393.5071,0.0,0.0,-0.022200006265926442,0.0,0.0,0.0,-0.37280832129581665,-0.36805609726680866,-0.5946520440975874,0.0007778566497059744,0.0014316308948159686,-0.027030576269210176
2221,2.0,299.75577999999996,4559.91,0.0,0.0,-0.022210010686300574,0.0,0.0,0.0,-0.3820294240958686,-0.37238075001861864,-0.6316886049328114,0.007383104406255674,-0.007496048051177342,-0.029965771317891368
2222,2.0,299.4617,4865.085999999999,0.0,0.0,-0.02222001510667493,0.0,0.0,0.0,-0.44250526644686955,-0.4148507125275776,-0.6215086736956305,-0.005487879774636564,-0.007387753400364493,-0.035772647859235465
2223,2.0,299.47245,4692.6513,0.0,0.0,-0.022229986617771424,0.0,0.0,0.0,-0.41509177485886867,-0.3883535638000126,-0.6230034709056554,-0.0013639953360658585,0.017021622880403386,-0.038540609018661964
2224,2.0,299.3831,4314.2925,0.0,0.0,-0.022239991038145557,0.0,0.0,0.0,-0.36661979498505665,-0.37492055258677764,-0.5698968344119385,-0.0040024715426881866,0.007651762907995203,-0.05217903034516935
2225,2.0,300.45037,4494.0265,0.0,0.0,-0.02224999545851969,0.0,0.0,0.0,-0.36953955620821466,-0.39502227946566365,-0.6015099943519144,0.012507930083936589,-0.004086077240239426,-0.03993405487418436
2226,2.0,300.90586,4716.4993,0.0,0.0,-0.02225999987889382,0.0,0.0,0.0,-0.38170650128899863,-0.40966281122057163,-0.6423286935704063,0.0014438589996727887,-0.004194610308800807,-0.051386003061653654
2227,2.0,299.9789,4369.7228,0.0,0.0,-0.022270004299268065,0.0,0.0,0.0,-0.3462713923693257,-0.39733972429937764,-0.5846754924204784,-0.001096857824051439,-0.007986170904748702,-0.07221862168817303
2228,2.0,300.5827,4247.8521,0.0,0.0,-0.022280008719642197,0.0,0.0,0.0,-0.34984267340678366,-0.3683960122778557,-0.5730022737159215,0.006438491057429594,-0.0007991976321196652,-0.07512769312277602
2229,2.0,300.19824,4451.9706,0.0,0.0,-0.02229001314001633,0.0,0.0,0.0,-0.37885800194537367,-0.38151335555493665,-0.5929165391938064,0.005593740801359234,-0.005513622508002175,-0.06107220690935753
2230,2.0,300.04415,4532.8651,0.0,0.0,-0.022299984651113047,0.0,0.0,0.0,-0.39008442801833565,-0.38838598780321265,-0.5994073990694044,0.01077948145385199,-0.002033842108899588,-0.05351675048494204
2231,2.0,300.10204,4655.2328,0.0,0.0,-0.02230998907148718,0.0,0.0,0.0,-0.4022961283560366,-0.3913187996876586,-0.6214596019932874,-0.007895690406593972,-0.0014265813629426186,-0.03080674052988857
2232,2.0,299.82847000000004,4565.8639,0.0,0.0,-0.022319993491861312,0.0,0.0,0.0,-0.3826759384546747,-0.38433210587562566,-0.6209005817806165,-0.008080091589642952,0.008632539051565271,-0.018181181228592882
2233,2.0,299.62417999999997,4365.0394,0.0,0.0,-0.022329997912235444,0.0,0.0,0.0,-0.3642364990273436,-0.36662187214776165,-0.5960046316560774,-0.002264321448196128,-0.009243964154108232,-0.03446848149652426
2234,2.0,300.07979,4675.6616,0.0,0.0,-0.022340002332609465,0.0,0.0,0.0,-0.4026673831926766,-0.3948752974061576,-0.6237417046635133,0.015412099414555786,0.0033271249496366665,-0.039653411954237064
2235,2.0,300.15265,4971.2493,0.0,0.0,-0.02235000675298382,0.0,0.0,0.0,-0.4515018330247616,-0.4150323781380066,-0.6446014439422093,0.003328458488093277,-0.006894127639872423,-0.04993458916791025
2236,2.0,300.29693,4643.5382,0.0,0.0,-0.022360011173357952,0.0,0.0,0.0,-0.42143058642446063,-0.3750731480518376,-0.6150159190423454,-0.006616596613632244,0.01158038270389479,-0.040224455392594664
2237,2.0,300.45367000000005,4227.6342,0.0,0.0,-0.022370015593732084,0.0,0.0,0.0,-0.3379932201123337,-0.35809982072420066,-0.5890021818049894,-0.012432030558695887,0.003812615325075837,-0.04323390444835416
2238,2.0,300.56338,4392.6356,0.0,0.0,-0.02237998710482858,0.0,0.0,0.0,-0.36319853575740463,-0.37535225792438365,-0.5967007344747774,-0.006492799540264425,0.0008038625950500613,-0.036963150865478966
2239,2.0,300.64627,4737.0246,0.0,0.0,-0.022389991525202935,0.0,0.0,0.0,-0.4010240941804966,-0.3923275002947096,-0.6465856004205304,-0.003957315748006656,0.004607100574160425,-0.03976920313591476
2240,2.0,301.1883,4560.5244,0.0,0.0,-0.022399995945577067,0.0,0.0,0.0,-0.38530484623662764,-0.4024288337216336,-0.5985518714799704,-0.0075168204888274226,0.003374532084715387,-0.05925086857635544
2241,2.0,301.03051,4336.2561,0.0,0.0,-0.022410000365951088,0.0,0.0,0.0,-0.3459420252918197,-0.38617143851715363,-0.5860001142762085,-0.005650211762557485,-0.005353230691372735,-0.05761716389687135
2242,2.0,300.80195,4476.9917,0.0,0.0,-0.02242000478632522,0.0,0.0,0.0,-0.38557468487075863,-0.3849978517213296,-0.5903211699901635,-0.0015639036026202685,0.0014523915787648886,-0.05029381368611296
2243,2.0,300.33171,4711.7252,0.0,0.0,-0.022430009206699353,0.0,0.0,0.0,-0.3725548061207966,-0.43240746926279455,-0.6272845336381634,0.02768009288806247,0.003195629911284117,-0.05164084052805415
2244,2.0,300.04753,4860.5609,0.0,0.0,-0.022440013627073707,0.0,0.0,0.0,-0.4145846634488206,-0.4148027655328456,-0.6481017265451604,0.008685645718456493,0.00960902043326148,-0.03825540647326466
2245,2.0,299.91654,4714.5939,0.0,0.0,-0.022449985138170203,0.0,0.0,0.0,-0.3895747226880316,-0.4001445525636926,-0.6433995469385914,-0.004672677512682366,-0.0001134176838484539,-0.037371620351791764
2246,2.0,300.197,4367.6705,0.0,0.0,-0.022459989558544335,0.0,0.0,0.0,-0.3596568010928627,-0.38084219895369864,-0.5871637712210525,-0.003005501838669937,0.002032311898598568,-0.05039916737851055
2247,2.0,300.12858,4434.5166,0.0,0.0,-0.02246999397891858,0.0,0.0,0.0,-0.37256638756943966,-0.3613670659366527,-0.6140488630144044,-1.2156489353002088e-06,0.006241475923885713,-0.05156143819721775
2248,2.0,299.90353999999996,4840.359,0.0,0.0,-0.022479998399292933,0.0,0.0,0.0,-0.44942939206522753,-0.3975916385392397,-0.6243272517638024,0.0036256100892698563,-0.003753948752235897,-0.033040889112631866
2249,2.0,299.83997,4656.8773,0.0,0.0,-0.022490002819666843,0.0,0.0,0.0,-0.39849366417576265,-0.37653237005085166,-0.6405484030122054,-0.006466405793709563,-0.017685415179914583,-0.031351470876399265
2250,2.0,299.99631,4332.3679,0.0,0.0,-0.022500007240040976,0.0,0.0,0.0,-0.37171222786764063,-0.36187034726132267,-0.5833490872445725,-0.015388712588997685,0.005316561778203796,-0.038365685574398366
2251,2.0,300.82634,4628.5123,0.0,0.0,-0.02251001166041522,0.0,0.0,0.0,-0.3913188706151656,-0.38633408542320563,-0.6292991889444943,0.017424327986897283,-0.002349290575081928,-0.03100096334880687
2252,2.0,300.70136,4918.954000000001,0.0,0.0,-0.02252001608078935,0.0,0.0,0.0,-0.4488448886125416,-0.3956972661522796,-0.6506970349537974,-0.003263550902587397,0.015303440500331984,-0.03266042281933277
2253,2.0,300.45162,4841.9888,0.0,0.0,-0.022529987591885958,0.0,0.0,0.0,-0.41987792250122463,-0.4163249610255746,-0.6356408072128634,0.011753539039983989,-0.013760871587842288,-0.04139971709083396
2254,2.0,300.28603,4631.7394,0.0,0.0,-0.0225399920122602,0.0,0.0,0.0,-0.4093138174886286,-0.38822054432688463,-0.6103987815166694,-0.008784854352972622,-0.015834838502026882,-0.04821573297652236
2255,2.0,300.35507,4420.5206,0.0,0.0,-0.022549996432634334,0.0,0.0,0.0,-0.3541984126716617,-0.3871251297762756,-0.6024043395526795,0.013345373185585789,-0.0057426342558538745,-0.04488607358441055
2256,2.0,300.65572000000003,4398.3696,0.0,0.0,-0.022560000853008466,0.0,0.0,0.0,-0.37136687170355664,-0.38706696922053563,-0.5785607003194955,0.0007817490702301264,-0.003524418828283057,-0.05762214908736336
2257,2.0,300.28418999999997,4688.2565,0.0,0.0,-0.0225700052733826,0.0,0.0,0.0,-0.3789385958583277,-0.39821390582315264,-0.6479603984212123,0.005353154697615235,-0.007510116015565742,-0.04717640181894836
2258,2.0,299.72786,4636.6363,0.0,0.0,-0.022580009693756842,0.0,0.0,0.0,-0.37732776124685063,-0.39873894162746965,-0.6333549656497683,-0.016274828172450483,0.01953308585651548,-0.05637620711514845
2259,2.0,299.65051,4332.3479,0.0,0.0,-0.022590014114130974,0.0,0.0,0.0,-0.34508690300242567,-0.37380086056377265,-0.5980378091742364,0.014725073290251587,-0.00011676571549137888,-0.06478069822235714
2260,2.0,300.08137999999997,4436.8411,0.0,0.0,-0.02259998562522747,0.0,0.0,0.0,-0.3786346613583316,-0.37863044623791564,-0.5914238090139855,0.0005147924841535624,0.011436712958965688,-0.05483844100813274
2261,2.0,299.84848999999997,4839.5054,0.0,0.0,-0.022609990045601824,0.0,0.0,0.0,-0.4177551939392276,-0.4107583777586956,-0.6425752375847383,0.004507137777594866,-0.016914195065051086,-0.04452470806874655
2262,2.0,300.48184,4848.6696,0.0,0.0,-0.022619994465975957,0.0,0.0,0.0,-0.43284920577639063,-0.4043940018930806,-0.6366312591856134,0.0009812531310546442,-0.008281627034532951,-0.041963393187714464
2263,2.0,300.25435,4520.2125,0.0,0.0,-0.02262999888635009,0.0,0.0,0.0,-0.37861942207682764,-0.37927523807155167,-0.6161370802779954,-0.003049440010706297,0.004867687626928366,-0.044819518251592055
2264,2.0,299.67831,4505.0836,0.0,0.0,-0.02264000330672422,0.0,0.0,0.0,-0.38634861542963966,-0.38309528214106064,-0.5999890350243074,0.0003756462625733997,0.008242080592405021,-0.03143905216204287
2265,2.0,300.51088,4652.9587,0.0,0.0,-0.022650007727098243,0.0,0.0,0.0,-0.4067424319148526,-0.3786041929278246,-0.6290366254460814,0.0008046796900632022,-0.005348478852378765,-0.03195774907373426
2266,2.0,300.41377,4672.9603,0.0,0.0,-0.022660012147472597,0.0,0.0,0.0,-0.40519215926185265,-0.3998482579694506,-0.6154228301500044,-0.007888903454774153,0.008401769618765102,-0.042403471010896754
2267,2.0,299.72541,4710.9179,0.0,0.0,-0.022669983658569093,0.0,0.0,0.0,-0.3982735355915376,-0.39882202813566964,-0.6349058563853295,0.0054873968596389055,0.0022507792592846177,-0.04251494980014886
2268,2.0,299.77347000000003,4576.5855,0.0,0.0,-0.022679988078943225,0.0,0.0,0.0,-0.3998997614720336,-0.37053388892884764,-0.6207340642591824,-0.006132199231075944,-0.00047595594531069454,-0.026493919499496275
2269,2.0,299.47116,4427.821,0.0,0.0,-0.022689992499317357,0.0,0.0,0.0,-0.3500659126688157,-0.39691225434718963,-0.5989688340286213,0.006661097342124124,-0.005695776808954405,-0.05779033441846194
2270,2.0,299.16037,4794.0013,0.0,0.0,-0.022699996919691712,0.0,0.0,0.0,-0.4130734921171796,-0.3969190025928556,-0.6472641841450014,0.0027936258725344072,-0.004547835170511386,-0.04613173083334736
2271,2.0,299.36969,4921.0671,0.0,0.0,-0.022710001340065844,0.0,0.0,0.0,-0.42126625752324265,-0.4194112296376656,-0.6552040321936033,0.008472543010424893,0.009515123965044621,-0.05146020336647665
2272,2.0,299.28727000000003,4472.2304,0.0,0.0,-0.022720005760439865,0.0,0.0,0.0,-0.36977781183672864,-0.3957974563221676,-0.5938710815830125,-0.01037029661296859,0.007065179050203884,-0.05012315399827016
2273,2.0,300.12031,4357.1408,0.0,0.0,-0.022730010180813998,0.0,0.0,0.0,-0.35629968059654066,-0.3657376290504936,-0.6024246856146874,-0.01186366412710249,-0.009398389042223782,-0.044719815455002164
2274,2.0,301.09663,4602.3614,0.0,0.0,-0.02274001460118813,0.0,0.0,0.0,-0.40458285144671857,-0.40086874267516465,-0.5935513505139575,-0.015270221095803487,0.0015675462367297683,-0.040305554917348566
2275,2.0,300.0129,4632.2146,0.0,0.0,-0.022749986112284848,0.0,0.0,0.0,-0.3766731003572406,-0.3979371162933356,-0.6334673452183593,0.002187582445247578,0.006887072075451093,-0.06052251062410673
2276,2.0,299.75804,4616.3147,0.0,0.0,-0.02275999053265898,0.0,0.0,0.0,-0.38452328590449364,-0.4025682670678946,-0.6161528464495515,0.005011799959501145,0.0033621839097217163,-0.06055984483729135
2277,2.0,300.16533,4617.4687,0.0,0.0,-0.022769994953033112,0.0,0.0,0.0,-0.36642998284382367,-0.4051676183444306,-0.6319975854183054,0.006579684419114294,-0.0009346934378295602,-0.06063268840023044
2278,2.0,300.0523,4528.5349,0.0,0.0,-0.022779999373407356,0.0,0.0,0.0,-0.38352104983308066,-0.3768702788267006,-0.6161702135562653,0.002104635056286308,-0.007409300366391014,-0.057119980311303144
2279,2.0,300.26545,4620.1383,0.0,0.0,-0.02279000379378171,0.0,0.0,0.0,-0.3986766368788206,-0.3888736245463386,-0.6168564371864904,0.01700691859495218,0.00968923397212794,-0.03329331808354467
2280,2.0,299.67393,4870.8941,0.0,0.0,-0.02280000821415562,0.0,0.0,0.0,-0.44048042797703363,-0.39857845294413063,-0.6415712992531574,0.005151728785061044,-0.004563158045148635,-0.024259825632258376
2281,2.0,299.3641,4708.9847,0.0,0.0,-0.022810012634529753,0.0,0.0,0.0,-0.40074604822055565,-0.3831315058321356,-0.6475362113993484,0.005163612486208875,-0.014256255641232885,-0.02292470853199258
2282,2.0,299.27161,4508.3833,0.0,0.0,-0.02281998414562647,0.0,0.0,0.0,-0.4006697403555246,-0.38850006963197165,-0.5812661490140024,-0.014812899782419385,-0.008858096224526033,-0.04048810712161507
2283,2.0,299.55939,4801.9765,0.0,0.0,-0.022829988566000603,0.0,0.0,0.0,-0.41107280952972763,-0.3907916664556346,-0.6578164645289304,-0.0025020832186113877,0.017278447330249982,-0.031260917728212365
2284,2.0,298.91008999999997,4926.5182,0.0,0.0,-0.022839992986374735,0.0,0.0,0.0,-0.4500433709633226,-0.4003929710907096,-0.6471021654540114,-0.005403413726425415,0.0034620552098032467,-0.03585343530295857
2285,2.0,299.94212000000005,4712.6403,0.0,0.0,-0.02284999740674898,0.0,0.0,0.0,-0.3951875304244726,-0.4034445358868756,-0.6338929203928604,-0.019182593527674582,-0.000897738443627386,-0.026216429813860173
2286,2.0,299.90336,4482.2774,0.0,0.0,-0.02286000182712311,0.0,0.0,0.0,-0.38889179212063163,-0.3635780181848567,-0.6100305866953314,-0.01044815272415239,-0.007797763432129332,-0.048598857024833755
2287,2.0,300.55512000000004,4576.6248,0.0,0.0,-0.022870006247497243,0.0,0.0,0.0,-0.37171304860022164,-0.3931992094882406,-0.6262674129227814,-0.0013730179229063187,0.006211884360015254,-0.044969430630387254
2288,2.0,300.60367,4613.1501,0.0,0.0,-0.022880010667871375,0.0,0.0,0.0,-0.3946749981263896,-0.39075265632678463,-0.6168547957213284,0.017916588190229586,-0.0035023610828811267,-0.06639612792303763
2289,2.0,300.55052,4735.5219,0.0,0.0,-0.02289001508824562,0.0,0.0,0.0,-0.3568041170263247,-0.42925927080459164,-0.6534170136547384,0.0073185027209549825,-0.01030860690713029,-0.06319067070168365
2290,2.0,299.76822999999996,4695.8158,0.0,0.0,-0.022899986599342115,0.0,0.0,0.0,-0.39483069413675564,-0.41118046735285263,-0.6213995871898644,0.015915611760248586,-0.003245181083574437,-0.06341404269947874
2291,2.0,299.58482000000004,4542.6622,0.0,0.0,-0.022909991019716247,0.0,0.0,0.0,-0.37937101047100363,-0.38228729624631863,-0.6191975718075424,0.00020094453769668182,0.003069227670584187,-0.03398562222761976
2292,2.0,299.59459,4603.6403,0.0,0.0,-0.0229199954400906,0.0,0.0,0.0,-0.40588805943053263,-0.39545351870822365,-0.5980501302954524,0.002562709315819718,-0.002346333607315098,-0.05136495887032675
2293,2.0,300.48798999999997,4841.7795,0.0,0.0,-0.022929999860464734,0.0,0.0,0.0,-0.4185089810861206,-0.4014081362333986,-0.6518629514463643,-0.011143890772816387,0.0018355116754008981,-0.037647776600296265
2294,2.0,300.59904,4697.8899,0.0,0.0,-0.022940004280838866,0.0,0.0,0.0,-0.4066680289600096,-0.3966166284980136,-0.6247565455661704,0.0043991664548889255,-0.007847607535023561,-0.053907430339249156
2295,2.0,300.53893999999997,4487.9654,0.0,0.0,-0.022950008701213,0.0,0.0,0.0,-0.35363911888146365,-0.3823059299156576,-0.6282843784393405,-0.004099778712066656,0.015341220543560585,-0.05629248124613535
2296,2.0,300.46407999999997,4625.9313,0.0,0.0,-0.02296001312158702,0.0,0.0,0.0,-0.4105257152707336,-0.36761947766621766,-0.6280224026259854,-0.008210044765318331,-0.001767180317807118,-0.028194012325532373
2297,2.0,300.40536000000003,4720.0106,0.0,0.0,-0.022969984632683738,0.0,0.0,0.0,-0.40974627263130864,-0.38242668906257565,-0.6425924121739334,0.0023307521512523277,0.006937265445654793,-0.03394665262877377
2298,2.0,299.90747999999996,4706.7867,0.0,0.0,-0.02297998905305787,0.0,0.0,0.0,-0.39991191034073265,-0.40211495923815666,-0.6287187587572104,0.011774474813550187,0.011551609440805091,-0.03998674286613426
2299,2.0,299.62724,4703.5707,0.0,0.0,-0.022989993473432002,0.0,0.0,0.0,-0.40561596124867866,-0.37950578286680464,-0.6446463005241364,0.015809290414005486,0.013923723170414487,-0.03057374670914387
2300,2.0,299.51992,4745.6068,0.0,0.0,-0.022999997893806134,0.0,0.0,0.0,-0.40968647061040664,-0.40085853924665765,-0.6320009595411384,0.01934316428427168,-0.01086530373732199,-0.03231386798038047
2301,2.0,299.34536,4749.4704,0.0,0.0,-0.02301000231418049,0.0,0.0,0.0,-0.38742399802577165,-0.4104976786404666,-0.6457987407903734,0.0072688916655837535,0.008475397031981562,-0.04776287806957905
2302,2.0,299.9549,4844.4595,0.0,0.0,-0.02302000673455462,0.0,0.0,0.0,-0.4320538145803916,-0.4082817817317746,-0.6322591255341173,0.021956442683432182,-0.006906176196811524,-0.028744248673086472
2303,2.0,299.74669,4789.5842,0.0,0.0,-0.023030011154928642,0.0,0.0,0.0,-0.4198814891415766,-0.4045042333714596,-0.6315282783694884,-0.016261416794126883,0.0017535667960885686,-0.04579968168282666
2304,2.0,300.03324,4481.3839,0.0,0.0,-0.023040015575302775,0.0,0.0,0.0,-0.39537737296320863,-0.36731299990847066,-0.5995384427048375,-0.016232907989313285,-0.014138859471396786,-0.04919317279148815
2305,2.0,300.4855,4472.5795,0.0,0.0,-0.023049987086399493,0.0,0.0,0.0,-0.3689403099665737,-0.3908877225651146,-0.5997244450256944,-0.016820060077760685,0.006806918115690513,-0.08691660675025123
2306,2.0,300.52421,4770.4249,0.0,0.0,-0.023059991506773625,0.0,0.0,0.0,-0.38821617721895363,-0.41593312707940366,-0.6459407477918884,-0.002232915356046588,0.013533100058112986,-0.07722525052578882
2307,2.0,299.58238,4722.1321,0.0,0.0,-0.023069995927147757,0.0,0.0,0.0,-0.3729184514491856,-0.4153069689151066,-0.6471848365296704,-0.007047255973160013,0.010773851836296389,-0.08186903044959422
2308,2.0,299.6389,4575.5491,0.0,0.0,-0.02308000034752189,0.0,0.0,0.0,-0.3847455625789306,-0.3953983675052806,-0.6107087347222594,-0.005217079768810685,-0.019114418007946183,-0.051087106441154856
2309,2.0,299.66298,4533.1131,0.0,0.0,-0.023090004767896133,0.0,0.0,0.0,-0.37149788494148667,-0.38043017093303466,-0.6260251245588694,0.0016639760328466483,0.002724566697393797,-0.04176489749312446
2310,2.0,299.52645,4661.2558,0.0,0.0,-0.023100009188270487,0.0,0.0,0.0,-0.3935921884070246,-0.40455981013944464,-0.6187533933612054,0.0072892586005438124,0.003169897209094497,-0.021492285984873478
2311,2.0,299.33706,4810.1718,0.0,0.0,-0.023110013608644397,0.0,0.0,0.0,-0.4045160276026236,-0.4102738516933766,-0.6473822277816514,0.01964120369518588,0.00901305539941931,-0.03548050961690367
2312,2.0,299.8135,4978.1383,0.0,0.0,-0.023119985119741115,0.0,0.0,0.0,-0.4332569680141336,-0.4042935584106676,-0.6756792126618464,0.006868870861254774,-0.014560836594792686,-0.01805866713250168
2313,2.0,299.83684,4745.2755,0.0,0.0,-0.023129989540115026,0.0,0.0,0.0,-0.4102679748427966,-0.39420832552783264,-0.6379689722326354,-0.007787524134568793,-0.00981127396849735,-0.04041988904538246
2314,2.0,300.00766,4609.684,0.0,0.0,-0.02313999396048938,0.0,0.0,0.0,-0.42090766831285253,-0.37398573817701863,-0.6063354054356453,0.0050940908637226254,-0.006762490442530843,-0.03104778867567817
2315,2.0,299.6924,4920.1178,0.0,0.0,-0.023149998380863623,0.0,0.0,0.0,-0.4449241882780986,-0.4044218966683336,-0.6462468709121004,-0.012572196484779188,0.00992861917185342,-0.04491073609184455
2316,2.0,299.92456,5063.477,0.0,0.0,-0.023160002801237756,0.0,0.0,0.0,-0.47139830583089054,-0.4032790721455456,-0.6644931950028724,0.004196165039754246,-0.007154243733993882,-0.02837657668880007
2317,2.0,300.06799,4627.3449,0.0,0.0,-0.023170007221611888,0.0,0.0,0.0,-0.37770200517128566,-0.38560242765849667,-0.6432928719680634,-0.007848716030632962,0.0045760416214951465,-0.06038037392657895
2318,2.0,300.08173,4379.2931,0.0,0.0,-0.02318001164198602,0.0,0.0,0.0,-0.3436751923006007,-0.3837684247124946,-0.6037521344381964,0.010230320164653991,0.00976188572682311,-0.05967971958842974
2319,2.0,299.70552000000004,4691.4961,0.0,0.0,-0.023190016062360153,0.0,0.0,0.0,-0.37045793570135166,-0.4189356809682326,-0.6367040409402964,0.0009604176287183402,-0.002184184916337268,-0.05476365605800204
2320,2.0,299.37462999999997,4767.9807,0.0,0.0,-0.02319998757345687,0.0,0.0,0.0,-0.40695901412372765,-0.40026015426760164,-0.6421279180630913,0.008506180380619642,-0.017679828118863185,-0.03582133553979057
2321,2.0,299.50786,4658.8073,0.0,0.0,-0.023209991993830892,0.0,0.0,0.0,-0.37783809479221664,-0.41411740316520557,-0.6242055806917944,0.003134406199166807,-0.00998029867597879,-0.04434488556024946
2322,2.0,299.93703,4567.3251,0.0,0.0,-0.023219996414205024,0.0,0.0,0.0,-0.3912724434955836,-0.37753141438444965,-0.6195489264122184,0.00942542306151683,-0.0024984467653274976,-0.029581642125480773
2323,2.0,299.73048,4618.4322,0.0,0.0,-0.02323000083457938,0.0,0.0,0.0,-0.35647876241921467,-0.4287141219857897,-0.6186951720104593,2.877749948836807e-05,0.011879566074171889,-0.06427093716329764
2324,2.0,299.98407000000003,4908.5916,0.0,0.0,-0.02324000525495351,0.0,0.0,0.0,-0.41536661894849364,-0.4216361748697506,-0.6550864850495024,-0.008984827163558402,-0.0046112305815680255,-0.06116491625375724
2325,2.0,300.78765,5084.8416,0.0,0.0,-0.023250009675327643,0.0,0.0,0.0,-0.4426747426585956,-0.42357114818821756,-0.6794189769259324,-0.0057699429672490345,-0.0050381220692739355,-0.06586985291384834
2326,2.0,300.6435,4652.994000000001,0.0,0.0,-0.023260014095701775,0.0,0.0,0.0,-0.41149382507877863,-0.3910001021337057,-0.6119000736598353,-0.010761211541298889,-0.003399693516498627,-0.05035061344696865
2327,2.0,300.16418999999996,4280.3454,0.0,0.0,-0.023269985606798493,0.0,0.0,0.0,-0.3563155987556117,-0.35237099585130965,-0.5924315267684395,-0.008249719687558941,-0.01079373585625879,-0.048656488664021544
2328,2.0,299.64982000000003,4728.7591,0.0,0.0,-0.023279990027172515,0.0,0.0,0.0,-0.42054961612501557,-0.39274220329563764,-0.6241328597321174,-0.0017805812596546884,-0.005029823145654895,-0.025600240004046974
2329,2.0,299.5608,5038.0473,0.0,0.0,-0.023289994447546647,0.0,0.0,0.0,-0.4309961942585126,-0.42104416323382365,-0.6794002419315833,0.01082714372530589,-0.0016187688663850484,-0.03295486012614147
2330,2.0,299.25237000000004,4862.2325,0.0,0.0,-0.02329999886792078,0.0,0.0,0.0,-0.4100344612247506,-0.41528384654782463,-0.6526789622818984,0.015770905460467183,0.01675886179822088,-0.034644538767649766
2331,2.0,299.53379,4722.4081,0.0,0.0,-0.02331000328829491,0.0,0.0,0.0,-0.38492903177453763,-0.41872188519713266,-0.6318432370305724,0.011798502013171489,0.00931047409332225,-0.04450852139839906
2332,2.0,299.45051,4759.6265,0.0,0.0,-0.023320007708669266,0.0,0.0,0.0,-0.4219698583926826,-0.38733729421471463,-0.6375004555188963,0.009510057815869631,-0.006065010211644904,-0.012313270554225188
2333,2.0,299.48491,4870.0354,0.0,0.0,-0.023330012129043398,0.0,0.0,0.0,-0.4258317395588206,-0.4058214686339606,-0.6487159486232794,0.007560153750554083,-0.002623549411449168,-0.04226217024470146
2334,2.0,299.98023,4919.0146,0.0,0.0,-0.023339983640139894,0.0,0.0,0.0,-0.4300911288716896,-0.4224631794688696,-0.6427033022648774,0.012565808956148788,-0.0042061018821599365,-0.05018006622988695
2335,2.0,300.01864,4653.4912,0.0,0.0,-0.023349988060514137,0.0,0.0,0.0,-0.37496038344820865,-0.3949414930351906,-0.6446432607738364,0.0021602805226280876,-0.006675865158356594,-0.05861294860489765
2336,2.0,299.92451,4346.2079,0.0,0.0,-0.02335999248088827,0.0,0.0,0.0,-0.3371578156698857,-0.3901514849099536,-0.5938293964738984,-0.013005752017067789,-0.01226701974016059,-0.08010429328042822
2337,2.0,299.68915,4548.33,0.0,0.0,-0.023369996901262402,0.0,0.0,0.0,-0.3732275839221947,-0.3932096864942746,-0.6161414676509284,-0.006498099547562493,0.0028928417011262475,-0.07929415017622334
2338,2.0,299.7915,4969.4352,0.0,0.0,-0.023380001321636534,0.0,0.0,0.0,-0.44553431682581357,-0.41034290468769163,-0.6547070026220504,-0.013957783572525986,0.02324555214965738,-0.055549279523037044
2339,2.0,299.75599,4804.9727,0.0,0.0,-0.023390005742010667,0.0,0.0,0.0,-0.41359813275395757,-0.4172976000615666,-0.6296959878161554,-0.002005285883981308,0.023100898538881177,-0.047512528287871454
2340,2.0,300.19295,4510.6282,0.0,0.0,-0.02340001016238491,0.0,0.0,0.0,-0.36954141045589767,-0.38406402016416763,-0.6175129219262804,-0.004482953321558045,0.0019444697010542183,-0.03526248757963657
2341,2.0,299.88093,4779.4837,0.0,0.0,-0.023410014582759264,0.0,0.0,0.0,-0.38882685292172264,-0.4118963893435086,-0.6521204588267784,0.0030089175047570372,-0.0020123689074803483,-0.03536128858363746
2342,2.0,299.68056,5081.3703,0.0,0.0,-0.02341998609385576,0.0,0.0,0.0,-0.42812452188510064,-0.4287780175370956,-0.6877071398289103,0.01210945630986029,-0.009821656235647002,-0.03223455886855327
2343,2.0,299.58432,4940.9229,0.0,0.0,-0.023429990514229893,0.0,0.0,0.0,-0.43730820535895953,-0.3976855364260066,-0.6669234348377183,0.012037598639268489,-0.026572594316760872,-0.04286836839527856
2344,2.0,299.87451,4788.6242,0.0,0.0,-0.023439994934603803,0.0,0.0,0.0,-0.4270245983715466,-0.4027214806155156,-0.6258761058666624,-0.007684753824626154,-0.02352605118809048,-0.033984789336037574
2345,2.0,299.96497999999997,4644.5887,0.0,0.0,-0.023449999354978157,0.0,0.0,0.0,-0.4120632918999806,-0.3672582742705697,-0.6325174232496094,-0.014821543819022487,-0.02079702315050638,-0.04074534700400266
2346,2.0,300.07183,4649.6201,0.0,0.0,-0.0234600037753524,0.0,0.0,0.0,-0.3898053080132886,-0.3996378768511876,-0.6239252042566235,-0.0017637406376926482,0.017632032098396085,-0.04266098447081136
2347,2.0,299.91483999999997,4896.4958,0.0,0.0,-0.023470008195726533,0.0,0.0,0.0,-0.40978397566752955,-0.4068619650291496,-0.6717665372681954,-0.0013689886325586587,0.0077508614022254625,-0.04274985055758176
2348,2.0,300.59627,4919.0304,0.0,0.0,-0.023480012616100665,0.0,0.0,0.0,-0.4179190567453996,-0.4013590037360496,-0.6759843630619623,-0.003842750092324906,0.001060031958442009,-0.029455241202005975
2349,2.0,300.82973,4550.7905,0.0,0.0,-0.023489984127197383,0.0,0.0,0.0,-0.37387993460157665,-0.39096136558238265,-0.6184853785772544,-0.0023613784461249078,0.0023198287072242678,-0.053488797954433356
2350,2.0,300.4584,4648.8399,0.0,0.0,-0.023499988547571515,0.0,0.0,0.0,-0.3969996269033126,-0.38920724727426464,-0.6269243738901185,0.0007287280128398553,0.01877477353467588,-0.048631236445029355
2351,2.0,300.18998999999997,5189.1251,0.0,0.0,-0.023509992967945648,0.0,0.0,0.0,-0.45500285530028556,-0.44254015264781255,-0.6798214601306544,-0.0003730503056846986,-0.0037156289506790263,-0.03209316893634918
2352,2.0,300.04687,5094.0196,0.0,0.0,-0.02351999738831967,0.0,0.0,0.0,-0.43727464651564757,-0.45135330069260254,-0.6598268236548374,1.858349116754778e-05,-0.003766424495417156,-0.04495357731932266
2353,2.0,299.96655,4697.7238,0.0,0.0,-0.0235300018086938,0.0,0.0,0.0,-0.36611740532047465,-0.4211228623690906,-0.6407504754796484,0.012918365275443388,-0.005479444670204085,-0.05497765245262186
2354,2.0,299.81939,4566.9551,0.0,0.0,-0.023540006229068156,0.0,0.0,0.0,-0.37553087365201165,-0.39997100308656464,-0.6127384570575775,0.008856674735960742,0.009585361651376542,-0.07103334502594533
2355,2.0,299.24416,4665.2917,0.0,0.0,-0.023550010649442288,0.0,0.0,0.0,-0.3940851244481736,-0.40068588142961764,-0.6233611785884584,0.012414767816742188,-0.0062735883526799634,-0.05156999509431225
2356,2.0,299.49332000000004,4733.7683,0.0,0.0,-0.02356001506981642,0.0,0.0,0.0,-0.4227662121762766,-0.3992236298128046,-0.6169575291489675,-0.0003260322687768797,-0.014684591922256384,-0.07287672965462322
2357,2.0,299.87403,4744.1316,0.0,0.0,-0.023569986580912916,0.0,0.0,0.0,-0.41330945780046763,-0.40543213741553663,-0.6233559400854415,0.0038800236118285165,-0.011247455065537388,-0.04387618139524196
2358,2.0,300.13636,4546.3915,0.0,0.0,-0.02357999100128727,0.0,0.0,0.0,-0.39272859534679466,-0.3803510968952306,-0.6089097800972164,-0.0021783397804853977,0.015399440881056485,-0.05932575586474625
2359,2.0,299.71574,4575.4941,0.0,0.0,-0.02358999542166129,0.0,0.0,0.0,-0.3703309146688157,-0.38234566958457966,-0.6381593821914273,-0.006708060876309064,-0.002488417818487718,-0.03694610901204706
2360,2.0,300.41192,5099.4976,0.0,0.0,-0.023599999842035424,0.0,0.0,0.0,-0.4395307795858106,-0.41694220258899156,-0.6936469639026254,-0.01938295664219888,0.004219041491236976,-0.04672774784691965
2361,2.0,300.32948,5288.8906,0.0,0.0,-0.023610004262409556,0.0,0.0,0.0,-0.44851842956282256,-0.43386429999157256,-0.7253079391148203,-0.015563197295967985,0.003326373016737457,-0.02314099183208808
2362,2.0,300.34123999999997,4784.8813,0.0,0.0,-0.02362000868278369,0.0,0.0,0.0,-0.41552843498946357,-0.4174217333313176,-0.6215342785256575,-0.012428571322854487,0.027817257567349575,-0.03741335612341076
2363,2.0,300.09679,4579.6414,0.0,0.0,-0.023630013103158043,0.0,0.0,0.0,-0.3832658121328906,-0.39236617605102664,-0.6164646539028245,7.993465190893592e-05,0.004254665439577786,-0.03420073927685017
2364,2.0,300.11345,4926.3152,0.0,0.0,-0.02363998461425454,0.0,0.0,0.0,-0.44111538115219856,-0.42095720611024157,-0.6354042234470144,0.004581596866493405,-0.0026354182178205277,-0.03596528088874686
2365,2.0,300.30042000000003,4920.8947,0.0,0.0,-0.02364998903462867,0.0,0.0,0.0,-0.40096122201179163,-0.42709315487331256,-0.6677747371742354,0.021799509494694082,-0.016053536377110683,-0.056312608446121744
2366,2.0,299.87387,4666.4037,0.0,0.0,-0.023659993455002915,0.0,0.0,0.0,-0.3846963186240706,-0.4061761669639666,-0.6275977292440734,-0.004363843745802846,0.0006189442086200374,-0.06494023242410193
2367,2.0,299.46166,4609.4187,0.0,0.0,-0.023669997875377047,0.0,0.0,0.0,-0.37020692325407867,-0.38677399808662166,-0.6441672662743594,-0.003523440433986497,-0.004785885818530155,-0.06009046280796694
2368,2.0,299.31736,4683.4159,0.0,0.0,-0.02368000229575118,0.0,0.0,0.0,-0.4047521351409256,-0.39068024947463864,-0.6282090939569104,-0.01148305800528959,0.002089033436546548,-0.05954961523583944
2369,2.0,299.643,4919.0859,0.0,0.0,-0.02369000671612531,0.0,0.0,0.0,-0.4132549246800856,-0.4214563027119986,-0.6605680667654923,-0.014893147163839184,0.0014754973287452486,-0.05340619881953145
2370,2.0,299.70444,5139.2716,0.0,0.0,-0.023700011136499444,0.0,0.0,0.0,-0.4533192490666266,-0.43293446063980456,-0.6759565392142164,0.0055650656208792145,0.006011826537746083,-0.04669405322809426
2371,2.0,299.75023,4861.3046,0.0,0.0,-0.023710015556873687,0.0,0.0,0.0,-0.39764522933702867,-0.41473083490824664,-0.6653391473788614,0.01101198080854789,0.001063240110908629,-0.03097411931390757
2372,2.0,299.60875,4511.9487,0.0,0.0,-0.023719987067970294,0.0,0.0,0.0,-0.35823582928512365,-0.3968469301132426,-0.6164369820425935,-0.0028077786459561774,0.0006612428913320924,-0.05794051936153404
2373,2.0,300.15971,4927.1395,0.0,0.0,-0.023729991488344537,0.0,0.0,0.0,-0.4117175405683576,-0.4269715749938136,-0.6590382617645123,0.006948560043194483,-0.011491987778420887,-0.04029816528436926
2374,2.0,300.13723,5141.6887,0.0,0.0,-0.02373999590871867,0.0,0.0,0.0,-0.4523032327938536,-0.43682508771127954,-0.6738166563280263,-0.006040571024532944,0.0030414443528421872,-0.053470839109660946
2375,2.0,300.5015,4714.4812,0.0,0.0,-0.02375000032909258,0.0,0.0,0.0,-0.4036062404703346,-0.4049482395652796,-0.6245300740363193,-0.008125536261927992,-0.002345368993219898,-0.04393050274635305
2376,2.0,300.53325,4622.0955,0.0,0.0,-0.023760004749466934,0.0,0.0,0.0,-0.3998429688039286,-0.38428743167871665,-0.6208712177927184,-0.015827779188580186,-0.010300208077051391,-0.050727645835678854
2377,2.0,299.9056,4838.3058,0.0,0.0,-0.023770009169841178,0.0,0.0,0.0,-0.4112400059287286,-0.3954522926756026,-0.6640318419673403,-0.00862658539662769,-0.013108842108741988,-0.04816117249838766
2378,2.0,299.84281,5010.2304,0.0,0.0,-0.02378001359021531,0.0,0.0,0.0,-0.43948123165592057,-0.4095500263519406,-0.6739536781390494,0.0048441287515032854,-0.0009138966517795772,-0.05184656576210765
2379,2.0,300.19057999999995,5109.7104,0.0,0.0,-0.023789985101311806,0.0,0.0,0.0,-0.43799720529445857,-0.41731541299832464,-0.6979117437060264,0.007334017505161173,0.0059779774996054445,-0.04038843776227846
2380,2.0,299.77831000000003,4954.6009,0.0,0.0,-0.02379998952168616,0.0,0.0,0.0,-0.43646094589034157,-0.41330372280490163,-0.6563102885202824,0.008051298061551252,-0.002957649278847257,-0.029904103903555267
2381,2.0,299.76915,4665.1994,0.0,0.0,-0.023809993942060292,0.0,0.0,0.0,-0.3957228405848036,-0.38765274936834765,-0.6347285274853284,0.008837010895245072,-0.005807719565427295,-0.04630321125377116
2382,2.0,299.50355,4743.4848,0.0,0.0,-0.023819998362434425,0.0,0.0,0.0,-0.4036448047691406,-0.3981699206363116,-0.6400861988465895,-0.007725583750655752,0.016643605612595983,-0.04251829757847926
2383,2.0,299.99352999999996,5068.1468,0.0,0.0,-0.023830002782808446,0.0,0.0,0.0,-0.4141182137652856,-0.44025475691476157,-0.6862171048943553,-0.005646738442539694,0.0012901495674528488,-0.04688288049023005
2384,2.0,300.07124,4934.3884,0.0,0.0,-0.02384000720318258,0.0,0.0,0.0,-0.4224056572606926,-0.4179156319600616,-0.6596095727008964,-0.013268572881006186,-0.01129803347077909,-0.05135105403920445
2385,2.0,300.03078999999997,4501.5587,0.0,0.0,-0.023850011623556933,0.0,0.0,0.0,-0.3504329422525387,-0.40666114899183065,-0.6112673496348904,-0.007028474470631424,-0.006140984717393005,-0.07804490602193252
2386,2.0,299.96822000000003,4670.1583,0.0,0.0,-0.023860016043931065,0.0,0.0,0.0,-0.3904798893998646,-0.40371661380372764,-0.6254150061436554,0.012886519838050487,0.0018026806496357283,-0.060353829813709244
2387,2.0,300.31228,5085.9652,0.0,0.0,-0.02386998755502756,0.0,0.0,0.0,-0.4358490542874525,-0.42855630828271457,-0.6816010414137853,0.014289148779229186,0.007910121317168192,-0.04000148768158946
2388,2.0,300.33565,4993.7378,0.0,0.0,-0.023879991975401693,0.0,0.0,0.0,-0.43060895033529456,-0.4288226613365016,-0.6585399757628353,0.02142532839176528,-0.012765039257061288,-0.04973261701222715
2389,2.0,300.66213999999997,4938.6938,0.0,0.0,-0.023889996395776047,0.0,0.0,0.0,-0.41560754955727164,-0.4168914995539876,-0.6687405469045533,0.001188441548915049,-0.01139652036724899,-0.04136588770974526
2390,2.0,300.14679,4949.8007,0.0,0.0,-0.02390000081615007,0.0,0.0,0.0,-0.43610883134809064,-0.4099263271740786,-0.6585806780193524,-0.008831834504459202,0.00033027001506761265,-0.05055935512656986
2391,2.0,299.96263999999996,4930.3626,0.0,0.0,-0.0239100052365242,0.0,0.0,0.0,-0.4159081808619416,-0.41351561366581363,-0.6692833348506223,-0.004903874030399685,0.005088700879815675,-0.045743937728575164
2392,2.0,299.41252000000003,5064.2674,0.0,0.0,-0.023920009656898333,0.0,0.0,0.0,-0.44069306864301955,-0.4283870144560066,-0.6703307416114934,-0.01122163947948959,-0.0003949885686348366,-0.052577001547196044
2393,2.0,299.23567,5051.2516,0.0,0.0,-0.023930014077272466,0.0,0.0,0.0,-0.4381603689580616,-0.4269031299495586,-0.6703908476074253,-0.003415602961618767,0.008026026185507112,-0.03140636066081647
2394,2.0,299.69147000000004,4654.7455,0.0,0.0,-0.023939985588369184,0.0,0.0,0.0,-0.39146147543423965,-0.39473565127737564,-0.6287292762932484,0.00991191584527993,0.0007864688905209363,-0.04440970519564666
2395,2.0,299.82487000000003,4559.5022,0.0,0.0,-0.023949990008743316,0.0,0.0,0.0,-0.37205893165435766,-0.38936217321455463,-0.6245537131611525,-0.004238849314791855,0.005669210303257495,-0.04132865684807086
2396,2.0,300.56427,5015.8493,0.0,0.0,-0.023959994429117448,0.0,0.0,0.0,-0.44054560022346556,-0.42073767534357565,-0.6634096658759364,0.007413011192232243,-0.028754499724348175,-0.053057709686138245
2397,2.0,300.20975,5103.8404,0.0,0.0,-0.02396999884949169,0.0,0.0,0.0,-0.43248288546773755,-0.4425197356582976,-0.6764374074466744,0.005061644062395375,-0.01236873383819899,-0.05026647011891436
2398,2.0,300.06383999999997,4814.3407,0.0,0.0,-0.023980003269865824,0.0,0.0,0.0,-0.4054714819169196,-0.42645918455074455,-0.6315086821125544,-0.00042825814930828865,0.008936568594420652,-0.05812951786293674
2399,2.0,300.73839,4832.8497,0.0,0.0,-0.023990007690239956,0.0,0.0,0.0,-0.40700343500811165,-0.3922155462911606,-0.6698466613762184,-0.007320849306861572,0.005849458174146574,-0.03503297629948557
2400,2.0,300.38183,4941.292,0.0,0.0,-0.02400001211061409,0.0,0.0,0.0,-0.41503368523063566,-0.4128421569868486,-0.6741535214562724,-0.012872222879139488,-0.0013502810972873685,-0.039251459692567464
2401,2.0,300.07749,5022.3452,0.0,0.0,-0.024009983621710584,0.0,0.0,0.0,-0.42093241188029457,-0.4262087597885296,-0.6795263510390294,-0.01245987669794409,0.01142403314721429,-0.05352312484132115
2402,2.0,299.94606,5099.3727,0.0,0.0,-0.02401998804208494,0.0,0.0,0.0,-0.4333361433769476,-0.4319662393742486,-0.6847795968449844,0.01983910967821768,0.01144075177386429,-0.052424315902877154
2403,2.0,299.893,4779.9812,0.0,0.0,-0.02402999246245907,0.0,0.0,0.0,-0.3910262439862856,-0.4231154997507486,-0.6388531849324004,0.003775518415064656,0.01821591949502128,-0.06219441685886104
2404,2.0,299.60025,4532.5109999999995,0.0,0.0,-0.024039996882833314,0.0,0.0,0.0,-0.37055259352569364,-0.4027028773436796,-0.6045147165959575,0.014172289631946089,-0.01201496364528459,-0.05763274869665944
2405,2.0,300.20358999999996,4936.951,0.0,0.0,-0.024050001303207447,0.0,0.0,0.0,-0.4239130593019616,-0.43085269777935054,-0.6459440712522164,0.0037861043454844065,-0.0024636431442676475,-0.047047570108483656
2406,2.0,299.47188,5111.2187,0.0,0.0,-0.024060005723581357,0.0,0.0,0.0,-0.44903284650609154,-0.4334254715057636,-0.6712245396572044,-0.0006085635829355494,0.0005905363133838964,-0.03199305678671887
2407,2.0,299.61261,4824.1053,0.0,0.0,-0.02407001014395571,0.0,0.0,0.0,-0.4174516444742696,-0.4018784160023116,-0.6470775029465774,-0.0033813691924151567,5.737316010054005e-05,-0.03441664666115857
2408,2.0,299.87399,4744.4912,0.0,0.0,-0.024080014564329955,0.0,0.0,0.0,-0.39066105851774463,-0.4125962817175826,-0.6389495044869064,-0.0049778104848966455,-0.02843046234236818,-0.05997386305270944
2409,2.0,300.43293,5067.0504,0.0,0.0,-0.02408998607542645,0.0,0.0,0.0,-0.43486580652291357,-0.4259380497593126,-0.6794529410692843,0.006668078128688073,-0.0018728473071356383,-0.041487185905716456
2410,2.0,300.61922000000004,5146.6671,0.0,0.0,-0.024099990495800583,0.0,0.0,0.0,-0.4423383942879006,-0.43033308286306854,-0.6917868089715423,0.017275934470001985,0.0002469196058790678,-0.052108126142921644
2411,2.0,300.23332,4949.3103,0.0,0.0,-0.024109994916174937,0.0,0.0,0.0,-0.4208823978553586,-0.41737459693666557,-0.6662097419972823,-0.0016264091774390885,0.019877764156282583,-0.03590893303743577
2412,2.0,299.93007,4831.1657,0.0,0.0,-0.02411999933654907,0.0,0.0,0.0,-0.40064231167531766,-0.39132132268040765,-0.6765901042367444,-0.013502699515362687,-0.006164692033957734,-0.04043250704887776
2413,2.0,300.13369,4731.1187,0.0,0.0,-0.024130003756923202,0.0,0.0,0.0,-0.39898632663938466,-0.4024173130679966,-0.6367382887936763,-0.016109133410097683,0.011037517750818189,-0.03926286686219326
2414,2.0,300.36145,4956.0142,0.0,0.0,-0.024140008177297223,0.0,0.0,0.0,-0.4086910942421706,-0.4424526686341786,-0.6553608225140773,0.01060054047294189,0.017102809544665882,-0.07679403965423164
2415,2.0,300.26099,5164.7487,0.0,0.0,-0.024150012597671355,0.0,0.0,0.0,-0.4570246641523225,-0.4464671148678736,-0.6664628721372643,0.002366852529790158,0.002261662983908758,-0.06629175201698653
2416,2.0,300.60909,4946.1427,0.0,0.0,-0.024159984108768073,0.0,0.0,0.0,-0.4222954460473156,-0.4389654772225196,-0.6422429624794453,0.0002950991009790137,-0.024524634492892976,-0.05730253859507024
2417,2.0,300.36971,4554.4622,0.0,0.0,-0.024169988529142206,0.0,0.0,0.0,-0.37563554238734165,-0.3907794365269276,-0.6180278049645954,0.01037352786753749,-0.0066624045360781335,-0.06190320270062044
2418,2.0,300.47848,4836.2069,0.0,0.0,-0.024179992949516338,0.0,0.0,0.0,-0.41008578234231563,-0.39909944588054863,-0.6609009092908414,0.012456348561095888,0.007984050172289403,-0.027679380573242172
2419,2.0,300.47008999999997,5269.3417,0.0,0.0,-0.02418999736989047,0.0,0.0,0.0,-0.4456425319364936,-0.44489404408762356,-0.7112117253136323,0.011793427656670687,0.014182385655942485,-0.04296738015530026
2420,2.0,299.84291,5015.7201,0.0,0.0,-0.024200001790264825,0.0,0.0,0.0,-0.4076372533431646,-0.4202030845908156,-0.6968133299351214,-0.0008811504553127792,-0.017275670011725884,-0.03900609915435226
2421,2.0,299.69101,4827.2242,0.0,0.0,-0.024210006210638846,0.0,0.0,0.0,-0.39900199148593063,-0.4277451711801616,-0.6406084583456324,-0.001754418027497578,-0.0014742420131963585,-0.07310237437239264
2422,2.0,300.16367,5013.1086,0.0,0.0,-0.024220010631012978,0.0,0.0,0.0,-0.4393329526362866,-0.4047997173656216,-0.6797271873413504,0.002266547862640858,-0.00014342020169447187,-0.02516826716841458
2423,2.0,299.79425,5044.839,0.0,0.0,-0.02423001505138711,0.0,0.0,0.0,-0.43543040974363556,-0.41831840900731265,-0.6797562574867193,-0.002068864186680998,0.008786059208666533,-0.046382749360120955
2424,2.0,299.8281,4994.2008,0.0,0.0,-0.02423998656248383,0.0,0.0,0.0,-0.4183353910789886,-0.4194893714853776,-0.6802875653091554,-0.015332774090726985,-0.019070382158600182,-0.02410554107928168
2425,2.0,300.63285,4991.1641,0.0,0.0,-0.02424999098285796,0.0,0.0,0.0,-0.4434664456242306,-0.40545715456050563,-0.6682656669801863,-0.010014670247196001,0.008577015377885511,-0.04300100080686837
2426,2.0,300.04472999999996,4740.1489,0.0,0.0,-0.024259995403232093,0.0,0.0,0.0,-0.39465472299188864,-0.4036111648658206,-0.6426210162242564,0.01071254513899589,0.016852265218939087,-0.05437063660921405
2427,2.0,299.19821,4778.2273,0.0,0.0,-0.024269999823606225,0.0,0.0,0.0,-0.42146510785536756,-0.41619181996243454,-0.6148048489140144,0.007084637099824244,0.009242551075518772,-0.07101648454428133
2428,2.0,299.26007999999996,5163.3127,0.0,0.0,-0.02428000424398047,0.0,0.0,0.0,-0.4400636883434046,-0.4354697542450186,-0.6939846801609553,0.01067086306963219,-0.016092707612726586,-0.045436173143201156
2429,2.0,299.37538,5035.5414,0.0,0.0,-0.0242900086643546,0.0,0.0,0.0,-0.44763206877284556,-0.41493045531044764,-0.6681163341804484,-0.018227788706692682,-0.006540435264565703,-0.03452665421126547
2430,2.0,299.8251,4832.2252,0.0,0.0,-0.024300013084728733,0.0,0.0,0.0,-0.3851950808532946,-0.4096549483997956,-0.6740257708836643,-0.007625533105306523,0.0028879906649474873,-0.03949239536759596
2431,2.0,300.08763,4998.6152,0.0,0.0,-0.02430998459582523,0.0,0.0,0.0,-0.42515612465714253,-0.4147927444893566,-0.6795053463644564,-0.02383452200878418,-0.00999323443470545,-0.04278913629045896
2432,2.0,299.83252999999996,5190.1252,0.0,0.0,-0.02431998901619936,0.0,0.0,0.0,-0.42917391461616755,-0.44818386451230363,-0.7003106842452833,0.0003539870385683007,-0.024368032636937577,-0.056219075329390744
2433,2.0,299.70682999999997,5004.7135,0.0,0.0,-0.024329993436573716,0.0,0.0,0.0,-0.42801685392947464,-0.43403942000635554,-0.6592516623680733,0.011510089491457388,0.0032558462501520074,-0.06790934095363013
2434,2.0,300.1399,4863.5078,0.0,0.0,-0.024339997856947848,0.0,0.0,0.0,-0.4119313262069566,-0.4167919477316626,-0.6496616656041144,0.02983724560895687,0.017069136204092585,-0.04730837257822286
2435,2.0,300.30375,4811.4016,0.0,0.0,-0.02435000227732209,0.0,0.0,0.0,-0.4312590819969576,-0.3892773236511806,-0.6420095603189103,-0.00010450065740341189,0.004201680767998606,-0.04727962565963575
2436,2.0,300.32234,4780.1797,0.0,0.0,-0.024360006697696224,0.0,0.0,0.0,-0.3871811523743046,-0.4160282712637936,-0.6498458339422903,-0.017502467808109084,-0.016078945649868382,-0.040294748605032064
2437,2.0,300.04059,4974.4147,0.0,0.0,-0.024370011118070134,0.0,0.0,0.0,-0.41606685582760156,-0.4362574447402576,-0.6597735672295814,-0.013874645388570885,-0.0042864799728426365,-0.06514060465787715
2438,2.0,299.82791000000003,5227.0815,0.0,0.0,-0.02438001553844449,0.0,0.0,0.0,-0.4500435938783446,-0.4385764094491216,-0.7002822423149764,-0.001796006877852078,0.005544491982898755,-0.035812137255382764
2439,2.0,299.58158,5018.8529,0.0,0.0,-0.024389987049540984,0.0,0.0,0.0,-0.4412212353901456,-0.4305977235241866,-0.6537869917962523,-0.0038846009691552667,-0.005493942556609915,-0.06416680342402044
2440,2.0,299.52427,4804.405,0.0,0.0,-0.024399991469915228,0.0,0.0,0.0,-0.40302916414088163,-0.4023755671638766,-0.6550144227023904,0.008044231148728802,-0.018256370465513483,-0.056700988222701844
2441,2.0,299.17239,5088.3711,0.0,0.0,-0.02440999589028936,0.0,0.0,0.0,-0.44859037031992255,-0.4159986134333666,-0.6821487537553403,-0.0001264901198811029,0.007793328436441632,-0.02258763974047648
2442,2.0,299.97866,5103.0769,0.0,0.0,-0.024420000310663714,0.0,0.0,0.0,-0.4350898259875226,-0.4158698800081616,-0.7002482477741213,0.014855369147110787,0.012290043822182887,-0.026993029273504575
2443,2.0,299.58038,4821.258,0.0,0.0,-0.024430004731037847,0.0,0.0,0.0,-0.4175879772752246,-0.4031602685713206,-0.6447938094736944,-0.001921308627618398,-0.018639214856797284,-0.040177406137451264
2444,2.0,300.11309,4885.1773,0.0,0.0,-0.024440009151411757,0.0,0.0,0.0,-0.39697779136365763,-0.4329947591532556,-0.6549993556734034,0.002157804139383688,-0.019996105688461982,-0.07128016160455422
2445,2.0,299.7731,5059.5975,0.0,0.0,-0.024450013571786,0.0,0.0,0.0,-0.4365611867227346,-0.4487176446649836,-0.6527124704627053,-0.0052604555870415445,-0.004626732497497945,-0.05219557165305186
2446,2.0,299.96906,5080.3448,0.0,0.0,-0.024459985082882607,0.0,0.0,0.0,-0.4171996289093976,-0.44911817229701256,-0.6779801617839323,0.0014918595953350784,0.008082471207502802,-0.06476465847327413
2447,2.0,299.8599,5148.3574,0.0,0.0,-0.02446998950325685,0.0,0.0,0.0,-0.4596942437932896,-0.4286973324316326,-0.6765805087582974,-0.019242040911041584,0.0025030477313815773,-0.02512254527090218
2448,2.0,300.32577000000003,5018.5191,0.0,0.0,-0.024479993923630983,0.0,0.0,0.0,-0.39799696897674264,-0.43879727770591964,-0.6887102574279104,-0.007808905028903924,-0.00948997823863793,-0.05247858963123355
2449,2.0,300.11285,4664.8507,0.0,0.0,-0.024489998344005115,0.0,0.0,0.0,-0.3819399338470366,-0.4000192945863306,-0.6360389131771534,0.002127917010459058,0.013230443266493088,-0.04747397614806666
2450,2.0,299.81734,4938.2757,0.0,0.0,-0.024500002764379247,0.0,0.0,0.0,-0.38452513001967564,-0.44054200318561054,-0.6760453809829844,0.010043532777619511,0.013763624588363986,-0.06429847730101565
2451,2.0,299.98742000000004,5329.8389,0.0,0.0,-0.0245100071847536,0.0,0.0,0.0,-0.4786046925296056,-0.4388049176116736,-0.7027283192488853,0.029790236883817472,-0.006934735258830082,-0.05675012477305124
2452,2.0,299.69923,5069.524,0.0,0.0,-0.024520011605127623,0.0,0.0,0.0,-0.4209309831976536,-0.4382137165758266,-0.6818640000797374,-0.006525747799066164,-0.012191340090191589,-0.05825773554384085
2453,2.0,299.77304,4761.9372,0.0,0.0,-0.024530016025501755,0.0,0.0,0.0,-0.39460551956703266,-0.4133690065088446,-0.6395354872847384,0.001047428140448109,-0.00955154746903934,-0.05374481383070015
2454,2.0,299.29586,5012.8012,0.0,0.0,-0.024539987536598473,0.0,0.0,0.0,-0.40116454077685765,-0.41970897317955064,-0.7028928811976264,-0.012939920144820687,-0.005453656441908985,-0.03193469256770876
2455,2.0,299.86246,5304.8496,0.0,0.0,-0.024549991956972606,0.0,0.0,0.0,-0.4608938812491845,-0.46253882185902756,-0.6891091131972743,-0.007678847285818222,-0.0034968981449669764,-0.058611948527048936
2456,2.0,299.9197,5103.9564,0.0,0.0,-0.024559996377346738,0.0,0.0,0.0,-0.4346822056047936,-0.4350709288731576,-0.6817221855957414,0.004991977747794845,0.006332804816349175,-0.050905917058272854
2457,2.0,300.32952,4980.1002,0.0,0.0,-0.02457000079772087,0.0,0.0,0.0,-0.4380395895461416,-0.4270852413900316,-0.6487012564968295,0.016087247207937683,0.012534513713560187,-0.05395021989097215
2458,2.0,300.62757,4844.4807,0.0,0.0,-0.024580005218095002,0.0,0.0,0.0,-0.4008793007412066,-0.4071587155859366,-0.6645631396572754,0.014238834832263587,0.025083801626828477,-0.03245280584734257
2459,2.0,300.26164,4849.6033,0.0,0.0,-0.024590009638469246,0.0,0.0,0.0,-0.4216862496896926,-0.39067418010653965,-0.6617978990743674,-0.008218224125425572,-0.015959397336819885,-0.04036108304932876
2460,2.0,300.36725,5193.3223,0.0,0.0,-0.024600014058843378,0.0,0.0,0.0,-0.4259774043931966,-0.4387534343740926,-0.7139094631748784,-0.01840607208828788,-0.005077191574579795,-0.040594320050097464
2461,2.0,299.96412999999995,5195.241,0.0,0.0,-0.024609985569940096,0.0,0.0,0.0,-0.45620281699621257,-0.42591864601989765,-0.6971020758161183,-0.010928071541266689,-0.001145220656624479,-0.04510653451466836
2462,2.0,299.59141,4860.9477,0.0,0.0,-0.024619989990314006,0.0,0.0,0.0,-0.3768956911392086,-0.4326069984724866,-0.6681040333242344,-0.0014813357771464586,0.012315908044235489,-0.07200334961167733
2463,2.0,299.05742000000004,4960.7021,0.0,0.0,-0.02462999441068814,0.0,0.0,0.0,-0.44601806268855554,-0.4305548630449566,-0.6313566338025484,-0.003333869851577337,-0.014432516575628485,-0.06397363742495643
2464,2.0,299.5394,5240.5296,0.0,0.0,-0.024639998831062493,0.0,0.0,0.0,-0.4518316965948166,-0.4323432900014606,-0.7088151760446113,-0.003169341745389677,-0.007242069111586573,-0.06090013779062565
2465,2.0,299.91183,4926.954000000001,0.0,0.0,-0.024650003251436625,0.0,0.0,0.0,-0.4345510302468476,-0.4151049572426696,-0.6480150024691014,0.005527742452120704,0.007266682679040744,-0.04768544752343725
2466,2.0,300.6689,4732.6899,0.0,0.0,-0.02466000767181087,0.0,0.0,0.0,-0.3592478128224986,-0.4134629955881206,-0.6659087560550774,0.006492884754597834,0.02135555092362878,-0.04740993671524646
2467,2.0,299.96963999999997,4970.8334,0.0,0.0,-0.024670012092185,0.0,0.0,0.0,-0.4355886692767546,-0.4222293517432926,-0.6531912108699534,0.0064040087379764535,-0.003566836213244327,-0.04845008353915095
2468,2.0,300.14937000000003,5127.9204,0.0,0.0,-0.02467998360328172,0.0,0.0,0.0,-0.4261727691449776,-0.4503811480166586,-0.6822058402659743,-0.0034450750633024368,-0.0034023911935648667,-0.07424963389086833
2469,2.0,300.40902,5153.9678,0.0,0.0,-0.02468998802365563,0.0,0.0,0.0,-0.4541449465731166,-0.4344537481047466,-0.6780788118136684,0.0033772626924098766,-0.007157985666613183,-0.05875888803005074
2470,2.0,299.7801,5163.9975,0.0,0.0,-0.02469999244402976,0.0,0.0,0.0,-0.42756100284198556,-0.44111868434752455,-0.7010466179254143,0.0018611315015293782,0.005182923411914715,-0.05127509777195815
2471,2.0,300.09249,4914.4382,0.0,0.0,-0.024709996864404005,0.0,0.0,0.0,-0.4114213878291296,-0.4082852470471166,-0.6741598542693974,-0.013899996906072886,-0.01092099196281799,-0.04289763815091725
2472,2.0,299.91457,4812.0371,0.0,0.0,-0.024720001284778137,0.0,0.0,0.0,-0.3854338228418566,-0.3872186628930066,-0.6900866462312494,-0.008517624533874092,0.004972229807320875,-0.032000618672215174
2473,2.0,300.21319,5138.9714,0.0,0.0,-0.02473000570515249,0.0,0.0,0.0,-0.4388134491775155,-0.4380017243899046,-0.6853038017842193,-0.0016544667819831586,0.002289126722569218,-0.05249870467221875
2474,2.0,299.68514,5107.4389,0.0,0.0,-0.024740010125526624,0.0,0.0,0.0,-0.4454251796575425,-0.4149806314553996,-0.6921280817377233,0.018751090840088584,0.02641264265597487,-0.03333689189084507
2475,2.0,299.59569,4941.5809,0.0,0.0,-0.024750014545900534,0.0,0.0,0.0,-0.43469443553350057,-0.42383200942646265,-0.6435907674974634,-0.0057027399649666145,-0.00920102079102005,-0.07092377317338143
2476,2.0,299.32647000000003,5041.3515,0.0,0.0,-0.024759986056997252,0.0,0.0,0.0,-0.43462867560201063,-0.4226633774236276,-0.6751529305599064,-0.011432033770003888,-0.014102762436584287,-0.038822220605704866
2477,2.0,299.24332000000004,5273.6367,0.0,0.0,-0.024769990477371384,0.0,0.0,0.0,-0.46862296314448554,-0.42510372949447156,-0.7093271814526423,-0.007970476673949803,-0.023259908890324275,-0.04066057951388676
2478,2.0,299.88273,5222.1079,0.0,0.0,-0.024779994897745627,0.0,0.0,0.0,-0.4281634104239386,-0.45005867103983255,-0.7091683241019643,-0.009394291864119421,-0.0003291342225005187,-0.04113464073217296
2479,2.0,299.65965,4958.169,0.0,0.0,-0.02478999931811976,0.0,0.0,0.0,-0.42967917177853254,-0.4246506445797556,-0.6528297541617804,-0.005619929871393895,-0.012138736197999989,-0.06001721799798824
2480,2.0,299.56957,4873.1015,0.0,0.0,-0.024800003738493892,0.0,0.0,0.0,-0.4077794224646956,-0.41877258823213664,-0.6547491538262105,-0.010792259550863091,0.004300355217062016,-0.07715264507662323
2481,2.0,300.19447,4897.7318,0.0,0.0,-0.024810008158868024,0.0,0.0,0.0,-0.42919013675026857,-0.41935493346210956,-0.6402431107570754,0.016412069858745184,0.026101321562749875,-0.060669580836371445
2482,2.0,300.25093,5065.1938,0.0,0.0,-0.02482001257924238,0.0,0.0,0.0,-0.4032841485285466,-0.42934916635346365,-0.7070591325613034,0.0004273087542295905,0.02025109615562758,-0.06827262455173344
2483,2.0,299.85298,5160.8493,0.0,0.0,-0.024829984090338875,0.0,0.0,0.0,-0.43201138979870457,-0.44577318040438757,-0.6909847607223863,0.01034963846992979,-0.011878591327575688,-0.04190858648980546
2484,2.0,300.4093,4994.1159,0.0,0.0,-0.024839988510713007,0.0,0.0,0.0,-0.39152091268510564,-0.42905640800207057,-0.6975092199713003,-0.018427698898422284,-0.017132674078113284,-0.05886135497291344
2485,2.0,299.94479,5005.3386,0.0,0.0,-0.02484999293108725,0.0,0.0,0.0,-0.4305296229849656,-0.4276186973026796,-0.6633496409400124,0.017481680982307585,-0.007309976930638553,-0.04690457721462136
2486,2.0,299.77297999999996,5379.1841,0.0,0.0,-0.024859997351461383,0.0,0.0,0.0,-0.46207772213602055,-0.46113680796065953,-0.7119231180763413,0.013606546504861587,0.011401865261526489,-0.05811761521401204
2487,2.0,299.28862000000004,5382.0588,0.0,0.0,-0.024870001771835515,0.0,0.0,0.0,-0.4757502859378975,-0.4537663355407506,-0.7064948637131143,0.0059922891506428945,-0.01246940631513459,-0.05222767344272005
2488,2.0,299.35212,4960.1091,0.0,0.0,-0.024880006192209647,0.0,0.0,0.0,-0.39541961535987763,-0.4249485705066586,-0.6873811468742373,-0.0004305755840095016,-0.004984572409438995,-0.04048439052024826
2489,2.0,299.91985,4842.8165,0.0,0.0,-0.02489001061258378,0.0,0.0,0.0,-0.4077119197430336,-0.4053772395251186,-0.6590061316038414,-0.003455106137967427,-0.003929074947844506,-0.04882490096314255
2490,2.0,299.98961,5011.4397,0.0,0.0,-0.024900015032958023,0.0,0.0,0.0,-0.4305575785552246,-0.40529950297744666,-0.6874954617505193,-0.007320013071554044,0.01151748520393729,-0.008129720883515983
2491,2.0,299.87182,5070.1194,0.0,0.0,-0.02490998654405463,0.0,0.0,0.0,-0.4455079115282076,-0.42765363416612756,-0.6680281307592434,-0.007825355752227483,-0.01739822058482068,-0.06721468404282284
2492,2.0,300.31335,5211.6821,0.0,0.0,-0.024919990964428873,0.0,0.0,0.0,-0.44311929600746963,-0.4448111906269466,-0.6962907259310444,-0.008328578916341742,-0.0006870355576626303,-0.03493346804691486
2493,2.0,299.64448,5205.0185,0.0,0.0,-0.024929995384802783,0.0,0.0,0.0,-0.4514549195451316,-0.43961530490915257,-0.6911254201012683,0.0006514266054233004,-0.0016733285339196684,-0.061547825493047444
2494,2.0,299.97302,5064.5532,0.0,0.0,-0.024939999805176916,0.0,0.0,0.0,-0.4077572829500106,-0.43434417523893254,-0.6973962425851503,-0.003575745417398596,-0.0032317309990970173,-0.05074298745544295
2495,2.0,300.02612999999997,5231.3853,0.0,0.0,-0.02495000422555127,0.0,0.0,0.0,-0.4461329247198916,-0.44830050986381553,-0.6957770790578514,0.0038089110853602565,-0.026558961036665375,-0.060701952150566243
2496,2.0,300.02488999999997,5238.7902,0.0,0.0,-0.024960008645925513,0.0,0.0,0.0,-0.4467587991741606,-0.44616559190311555,-0.6995370069989273,-0.01251377856351379,-0.015348683130547087,-0.04815818746359305
2497,2.0,299.84467,4876.3872,0.0,0.0,-0.024970013066299646,0.0,0.0,0.0,-0.4181922998998666,-0.4216619519522946,-0.6424456834269524,0.013391033274842087,0.010328158581059892,-0.051489496426867655
2498,2.0,300.3819,4752.5899,0.0,0.0,-0.02497998457739614,0.0,0.0,0.0,-0.3803540961155267,-0.4159345354970426,-0.6483800460826283,-0.0021836738329868276,0.014898009751069087,-0.07694250409863392
2499,2.0,300.18356,4989.5154,0.0,0.0,-0.024989988997770496,0.0,0.0,0.0,-0.41874790545970053,-0.4262031970454806,-0.6717370111602813,-0.0015010726731943386,-8.385396713049221e-05,-0.05080142665496046
2500,2.0,300.11377999999996,5179.1205,0.0,0.0,-0.024999993418144406,0.0,0.0,0.0,-0.40738873349113763,-0.45109681669478957,-0.7158377591751863,0.0013513991174477085,0.012979507826227688,-0.06886667687336184
2501,2.0,299.59806000000003,5110.6147,0.0,0.0,-0.02500999783851876,0.0,0.0,0.0,-0.4417177380716466,-0.4306692387162446,-0.6811122698305473,-0.012224743906238289,0.004192575803925016,-0.046669965233466955
2502,2.0,299.0262,5205.1002,0.0,0.0,-0.02502000225889278,0.0,0.0,0.0,-0.4453490339125276,-0.44113984100961257,-0.6957316145258644,0.006598812149202054,-0.0027099031445966173,-0.05323362814200005
2503,2.0,299.11773,5236.8511,0.0,0.0,-0.025030006679266914,0.0,0.0,0.0,-0.47911163168713655,-0.4309668100056126,-0.6817935184027814,-0.00019825388245363478,-0.023618538630718274,-0.03490762206336407
2504,2.0,299.77304,5148.735,0.0,0.0,-0.02504001109964127,0.0,0.0,0.0,-0.43798125673788457,-0.43907046006538053,-0.6880351795487853,0.02458756441685368,0.007063686330156563,-0.057293932048720846
2505,2.0,299.98639,5262.0762,0.0,0.0,-0.0250500155200154,0.0,0.0,0.0,-0.44939062511640154,-0.4420756585369706,-0.7080734871039124,0.014579290918863987,0.005706501858612885,-0.03660644326052467
2506,2.0,299.94617999999997,5162.457,0.0,0.0,-0.025059987031111897,0.0,0.0,0.0,-0.43294226266557456,-0.42956802837506364,-0.7067477405405713,-0.001021194183434019,0.0017951918194716384,-0.028645853982375676
2507,2.0,300.02929,4877.277,0.0,0.0,-0.02506999145148603,0.0,0.0,0.0,-0.4143607047792176,-0.4125293464159766,-0.6556803711981144,-0.010992999594424591,-0.016897240351127784,-0.04541752528836075
2508,2.0,300.24911000000003,5106.8302,0.0,0.0,-0.02507999587186016,0.0,0.0,0.0,-0.4461215053912646,-0.4211659153658396,-0.6850614424928003,-0.004140250454185906,-6.114945709698154e-05,-0.037886777980883864
2509,2.0,300.07489,5502.7209,0.0,0.0,-0.025090000292234405,0.0,0.0,0.0,-0.49032595955390457,-0.4609395686961935,-0.7214242224090273,0.0006254146211086174,0.014930756981050985,-0.04708197906862955
2510,2.0,299.84167,5273.2637,0.0,0.0,-0.025100004712608537,0.0,0.0,0.0,-0.4462195576034415,-0.4465303011441096,-0.7101906225253573,-0.003527206279308156,-0.004373048008386235,-0.057442785581161546
2511,2.0,300.11012999999997,5006.834,0.0,0.0,-0.02511000913298267,0.0,0.0,0.0,-0.3993955682222736,-0.42868073539499457,-0.6938762320027524,-0.0018026020214279683,-0.0021195742131106883,-0.061483313885680645
2512,2.0,300.18617,5076.8407,0.0,0.0,-0.0251200135533568,0.0,0.0,0.0,-0.4046901343673066,-0.43911045304682755,-0.6994322065410844,-0.006966650711804894,0.0043304334449555055,-0.06182453193635624
2513,2.0,300.0885,5126.0987,0.0,0.0,-0.02512998506445352,0.0,0.0,0.0,-0.4423310279596736,-0.4320742822324116,-0.6838006959233743,0.006260207574509384,0.022899734956777877,-0.037327312951418966
2514,2.0,300.60061,5044.3345,0.0,0.0,-0.02513998948482765,0.0,0.0,0.0,-0.42935527625156655,-0.4429300918162966,-0.6610663730321714,-0.014563104248516487,0.007055277772876702,-0.07000798253424993
2515,2.0,300.0752,5063.9521,0.0,0.0,-0.025149993905201784,0.0,0.0,0.0,-0.4583693686250345,-0.4178565696117326,-0.6630890634117954,-0.009317760476116361,-0.01773859865116338,-0.039982484175963964
2516,2.0,299.62257999999997,4973.6918,0.0,0.0,-0.025159998325575805,0.0,0.0,0.0,-0.40460130273103967,-0.42561532960246257,-0.6816614716497494,0.016788736464169285,-0.0017647061637129384,-0.07651946508913322
2517,2.0,299.42345,4948.2228,0.0,0.0,-0.02517000274595016,0.0,0.0,0.0,-0.4060008544316646,-0.4264711307694236,-0.6716641990080953,0.013598845804101587,0.009196783683076882,-0.05264221331038194
2518,2.0,299.70937000000004,5342.8521,0.0,0.0,-0.025180007166324292,0.0,0.0,0.0,-0.43434363821637956,-0.4567017210804506,-0.7330482680862312,0.02028976785894418,-0.007155385970831613,-0.06626665077225923
2519,2.0,299.93021,5462.6553,0.0,0.0,-0.025190011586698424,0.0,0.0,0.0,-0.49167638888968157,-0.45025447148915654,-0.7185799685833213,-0.0037127345004433665,-0.006190967027600874,-0.03185339140618497
2520,2.0,300.02704,5117.9705,0.0,0.0,-0.025200016007072557,0.0,0.0,0.0,-0.43920139224330257,-0.4364752631142546,-0.6800585809190564,0.01028687978523599,0.01128496963723979,-0.06863905530464734
2521,2.0,300.37279,5136.6586,0.0,0.0,-0.025209987518169275,0.0,0.0,0.0,-0.4616006839889406,-0.4159748628510226,-0.6838404051947934,0.007104899568698994,0.027752133956922376,-0.03604546848841076
2522,2.0,300.52304,5363.7851,0.0,0.0,-0.025219991938543407,0.0,0.0,0.0,-0.4512166436516156,-0.4497916695059816,-0.7294484336609552,-0.014116307563921088,-0.001059204943710389,-0.05001128510772955
2523,2.0,300.22632999999996,5205.0538,0.0,0.0,-0.02522999635891765,0.0,0.0,0.0,-0.4325202034689206,-0.42846138701334663,-0.7212247843918443,-0.011793652598192888,-0.007246193343468602,-0.04306514865744926
2524,2.0,300.02595,4924.7842,0.0,0.0,-0.02524000077929156,0.0,0.0,0.0,-0.3981576400450996,-0.4182669156372306,-0.6805868591236933,-0.007286171024839092,-0.0023208543189754877,-0.054321488913113544
2525,2.0,299.45313,5089.4981,0.0,0.0,-0.025250005199665693,0.0,0.0,0.0,-0.43213178417558656,-0.43123925269250063,-0.6837092804993523,0.016920681892191286,0.021734481129776276,-0.03404930398315467
2526,2.0,299.18824,5164.5044,0.0,0.0,-0.025260009620040047,0.0,0.0,0.0,-0.4435797269854106,-0.4443269280066536,-0.6819737350655674,-0.009622093183401662,-0.015859037954165184,-0.051009324297228355
2527,2.0,299.48931,5253.6234,0.0,0.0,-0.02527001404041429,0.0,0.0,0.0,-0.46081292256619455,-0.4474721272445606,-0.6886852706804444,-0.011461572036919089,-0.017548239354876382,-0.06470208723984884
2528,2.0,299.82223999999997,5422.9968,0.0,0.0,-0.025279985551510786,0.0,0.0,0.0,-0.4563552908712606,-0.46471543506134255,-0.7273848789047983,0.009392575418450021,-0.008016682398384952,-0.06082562844452215
2529,2.0,299.72693,5153.8141,0.0,0.0,-0.02528998997188492,0.0,0.0,0.0,-0.4310861607348916,-0.4349778719839736,-0.7005667730755574,0.008000585805971341,0.016184646887050284,-0.05893022254246015
2530,2.0,300.23389,4930.2034,0.0,0.0,-0.025299994392259273,0.0,0.0,0.0,-0.3796238265034546,-0.4363102857329726,-0.6827246243171743,0.003922287286749616,-0.00936580747863323,-0.06331317973152434
2531,2.0,300.18047,5271.8151,0.0,0.0,-0.025309998812633183,0.0,0.0,0.0,-0.45707554957234453,-0.4467248654283115,-0.6986997280437943,-0.015989896164829882,-0.014422184464358787,-0.041832482288044565
2532,2.0,299.91026,5362.9031,0.0,0.0,-0.025320003233007315,0.0,0.0,0.0,-0.46227135423013055,-0.45607184428828657,-0.7118454524561763,0.0006391020492894614,0.02032412109033458,-0.05485530148979675
2533,2.0,299.85611,4903.6423,0.0,0.0,-0.02533000765338156,0.0,0.0,0.0,-0.42171999091802265,-0.4152640172433676,-0.6536008070903774,-0.009670909040094412,0.023849172591980078,-0.055146935133578746
2534,2.0,300.62322,4932.2977,0.0,0.0,-0.02534001207375569,0.0,0.0,0.0,-0.3880495077100046,-0.4322837919555886,-0.6789620517933374,0.000858377375605251,-0.0046238408843625655,-0.07423933623010202
2535,2.0,300.68597,5278.6823,0.0,0.0,-0.02534998358485241,0.0,0.0,0.0,-0.4570024233126276,-0.43980837971570763,-0.7077768074746323,-0.02238956758442828,-0.012121954749843789,-0.03735664248881356
2536,2.0,300.00094,5344.2483,0.0,0.0,-0.02535998800522654,0.0,0.0,0.0,-0.44103121046639154,-0.4569927062441686,-0.7264941104768863,0.01104700582475459,0.00024019637735803675,-0.06431400333229793
2537,2.0,300.30803,5296.4489,0.0,0.0,-0.025369992425600674,0.0,0.0,0.0,-0.47866084685014754,-0.43457365612158055,-0.6967537102992373,0.01063663750775439,0.011054132012707888,-0.025120285723179175
2538,2.0,300.12196,5293.6738,0.0,0.0,-0.025379996845974806,0.0,0.0,0.0,-0.46149389756090153,-0.4455961453469156,-0.7020546193898963,0.008701243082545832,-0.012181210628941888,-0.03731226618743397
2539,2.0,300.09585,5170.4541,0.0,0.0,-0.02539000126634894,0.0,0.0,0.0,-0.45213719149996656,-0.4290527704342116,-0.6904989883594443,-0.005480779728535844,-0.01073046953326489,-0.035625830959495765
2540,2.0,299.85232,5220.2599,0.0,0.0,-0.02540000568672318,0.0,0.0,0.0,-0.4329588698347136,-0.4407949205430716,-0.7130748794650112,0.0008682598166130722,-0.002912870311877917,-0.05231018239836305
2541,2.0,299.34488,5521.6534,0.0,0.0,-0.025410010107097314,0.0,0.0,0.0,-0.47695472619926654,-0.4677810536363956,-0.7337089983439403,0.00035275842215954566,0.013935788952605286,-0.04099960387809586
2542,2.0,299.02106000000003,5128.4262,0.0,0.0,-0.025420014527471446,0.0,0.0,0.0,-0.4160993000958036,-0.4339292087929785,-0.7088849788440003,-0.003164047006992127,-0.015127951662512587,-0.04597354222773536
2543,2.0,299.62564,4755.9348,0.0,0.0,-0.025429986038568164,0.0,0.0,0.0,-0.39948768278886465,-0.41463133374842664,-0.6315664171032525,-0.015221964046540883,-0.004872861383263975,-0.06269851182336135
2544,2.0,300.0504,5150.2588,0.0,0.0,-0.025439990458942296,0.0,0.0,0.0,-0.4430845212640376,-0.43474720559870855,-0.6877183362425153,-0.004875101881885095,0.01142324483863649,-0.04992530577049405
2545,2.0,300.35643999999996,5346.2756,0.0,0.0,-0.02544999487931643,0.0,0.0,0.0,-0.46460145455759355,-0.44935131101252157,-0.7111815405931534,-0.005140258185978985,0.02450707588191008,-0.05949274657397694
2546,2.0,299.53421000000003,5117.7685,0.0,0.0,-0.02545999929969056,0.0,0.0,0.0,-0.4117022607568496,-0.4465598171195226,-0.6974117554441813,0.00898478835607957,-0.003215450400465247,-0.07559076260397743
2547,2.0,299.84354,5188.1039,0.0,0.0,-0.025470003720064582,0.0,0.0,0.0,-0.4357469186773726,-0.44184657282186157,-0.6994605370138803,-0.005634919893373295,-0.0099342577060099,-0.06298503767338924
2548,2.0,300.3633,5247.5231,0.0,0.0,-0.025480008140438937,0.0,0.0,0.0,-0.4460065015049146,-0.4459984360341186,-0.7031110440766573,0.004564884420669015,0.003412243429587207,-0.06311692635940563
2549,2.0,300.22986000000003,5194.8763,0.0,0.0,-0.02549001256081307,0.0,0.0,0.0,-0.4644655169241776,-0.4290905950604446,-0.6855565671541654,-0.006559846502031444,0.00012815282276519886,-0.039533481645900856
2550,2.0,300.06391,5331.3005,0.0,0.0,-0.025499984071909565,0.0,0.0,0.0,-0.4534058819501766,-0.4464052458167676,-0.7207711016595693,-0.006913797560088693,-0.02328985955003018,-0.04498102829103186
2551,2.0,299.81692000000004,5252.9809,0.0,0.0,-0.025509988492283697,0.0,0.0,0.0,-0.44983746841050154,-0.4363466715440636,-0.7105908867123604,0.0016638780515619784,-0.01058289066944999,-0.03326820670631637
2552,2.0,299.26047,4918.0261,0.0,0.0,-0.02551999291265805,0.0,0.0,0.0,-0.39538122331358866,-0.4128885131789236,-0.6866874049282704,0.016365262770375682,0.0033308330397026267,-0.06905992798543424
2553,2.0,299.39627,5110.0545,0.0,0.0,-0.025529997333032184,0.0,0.0,0.0,-0.44007194633171964,-0.42738356248447357,-0.6858734509904393,0.02373442607115548,0.011687943255010188,-0.04856530324777225
2554,2.0,299.58721,5489.5380000000005,0.0,0.0,-0.025540001753406427,0.0,0.0,0.0,-0.4898173687987106,-0.4520395445878295,-0.7268255547170973,0.006706860985540643,-0.013626829745363386,-0.046944241903035956
2555,2.0,300.06345,5326.1848,0.0,0.0,-0.025550006173780337,0.0,0.0,0.0,-0.4708818522549206,-0.4442833481198526,-0.7038619839907693,-0.0004682494386276216,-0.004784663838909555,-0.03424337785430827
2556,2.0,299.98787000000004,5099.4251,0.0,0.0,-0.02556001059415447,0.0,0.0,0.0,-0.4208064446278626,-0.4348281744141996,-0.6944632888456903,-0.007864155429031712,-0.0016654980358218581,-0.045944554155624456
2557,2.0,300.36322,5334.8295,0.0,0.0,-0.025570015014528824,0.0,0.0,0.0,-0.45756158538031255,-0.4379907204938186,-0.7261026514332524,-0.014890465090824485,0.00971910843542632,-0.04292285794590625
2558,2.0,300.50092,5425.6215,0.0,0.0,-0.02557998652562532,0.0,0.0,0.0,-0.45550170872201856,-0.44678026994377956,-0.7469714896978463,-0.019392952354435382,-0.002153287678387948,-0.038383911917197165
2559,2.0,300.23901,5230.4704,0.0,0.0,-0.025589990945999563,0.0,0.0,0.0,-0.42153603536236756,-0.4695883777072645,-0.6988079735519773,-0.008323626656477992,-0.004953172498115065,-0.07470958661476214
2560,2.0,299.72859,5201.2718,0.0,0.0,-0.025599995366373696,0.0,0.0,0.0,-0.4425887886526126,-0.43530094677835857,-0.7031670160121813,0.014420288673421686,0.015577008908081086,-0.044514941351032664
2561,2.0,300.07017,5076.5794,0.0,0.0,-0.02560999978674805,0.0,0.0,0.0,-0.4310056276169436,-0.4358979334722766,-0.6762498143231603,0.007039910821860103,0.006921774979451003,-0.06586331846395344
2562,2.0,299.90896000000004,4881.2975,0.0,0.0,-0.02562000420712196,0.0,0.0,0.0,-0.39236857745376363,-0.4207369356710026,-0.6706870408766573,0.01974192582137638,-0.002708142419897847,-0.04962229231483895
2563,2.0,299.80794,5181.5622,0.0,0.0,-0.025630008627496093,0.0,0.0,0.0,-0.4167646406414676,-0.4548006916403336,-0.7035002131750653,0.010055998286974762,-0.004854109467638305,-0.06902815043579802
2564,2.0,299.77144,5431.7293,0.0,0.0,-0.025640013047870336,0.0,0.0,0.0,-0.45212422189868656,-0.4736376392143955,-0.7253482259387963,0.02244561044745928,-0.0002749548175959277,-0.050186092028231655
2565,2.0,299.699,5254.9011,0.0,0.0,-0.025649984558966943,0.0,0.0,0.0,-0.4563097756767686,-0.44501871437992757,-0.6960302395953364,0.0013186302039136686,-0.006068942229982964,-0.06186586342118534
2566,2.0,299.52901,5350.2925,0.0,0.0,-0.025659988979341186,0.0,0.0,0.0,-0.47782951567310156,-0.4557628840677945,-0.6927629335878783,-0.01868596115016078,-0.01066752137080239,-0.04332579204692275
2567,2.0,299.41017,5570.1629,0.0,0.0,-0.02566999339971532,0.0,0.0,0.0,-0.5090673981735405,-0.45759973424657757,-0.7265232920797663,-0.017122735107882384,-0.0004890503587380126,-0.030195312995545367
2568,2.0,299.50565,5433.4861,0.0,0.0,-0.02567999782008945,0.0,0.0,0.0,-0.4586699593997005,-0.45632666655593557,-0.7366474742964453,-0.004779844416133916,0.012787901219067588,-0.03292699169539107
2569,2.0,299.76878999999997,5327.0986,0.0,0.0,-0.025690002240463583,0.0,0.0,0.0,-0.4491665853867906,-0.4568649556715606,-0.7132734258221063,-0.005980130352092915,0.0069606870256913225,-0.03761802453760996
2570,2.0,300.18966,5312.6796,0.0,0.0,-0.025700006660837715,0.0,0.0,0.0,-0.43286604599305256,-0.44067953162168355,-0.7413763733081513,0.007015100177261483,0.0011197216099079188,-0.04090255681001806
2571,2.0,300.56937,5083.2611,0.0,0.0,-0.02571001108121196,0.0,0.0,0.0,-0.4373795179009976,-0.43857454506893756,-0.6692303925328973,0.0029549186711527674,0.010472952020349889,-0.05664501122092734
2572,2.0,300.17229,5115.4884,0.0,0.0,-0.02572001550158609,0.0,0.0,0.0,-0.4284571921579326,-0.4507521495407736,-0.6757714082884454,0.01932242305472468,0.015459794110012885,-0.06216300306601074
2573,2.0,299.87127000000004,5266.7216,0.0,0.0,-0.025729987012682587,0.0,0.0,0.0,-0.47120065113388354,-0.43977422305483654,-0.6899769923054273,0.004300930641793805,-0.0014208215427491688,-0.06492122993172654
2574,2.0,299.96128,5190.9011,0.0,0.0,-0.02573999143305694,0.0,0.0,0.0,-0.4283279825051806,-0.4445164564378586,-0.7050598887889934,0.002497778324236528,-0.01190653575208359,-0.04693231392285876
2575,2.0,300.51322000000005,5107.7264,0.0,0.0,-0.025749995853431074,0.0,0.0,0.0,-0.4000713351114666,-0.45915055405463157,-0.6933993965056924,-0.008284078795799923,-0.018159024488656184,-0.07447260464162384
2576,2.0,299.57117999999997,5379.2296,0.0,0.0,-0.025760000273805206,0.0,0.0,0.0,-0.42891871744598165,-0.4735668535624096,-0.7326659080284953,-0.00043038570094076163,-0.0025644160342881577,-0.04728995067815475
2577,2.0,299.89196,5619.138000000001,0.0,0.0,-0.025770004694179338,0.0,0.0,0.0,-0.48449036851797656,-0.4906121419121485,-0.7329751316940133,-0.013996034777051088,-0.010253965368987589,-0.04942378243474755
2578,2.0,299.93579,5406.6198,0.0,0.0,-0.02578000911455336,0.0,0.0,0.0,-0.4903346735047645,-0.45070080815820657,-0.7024419342406214,-0.015084179258192585,0.006242412673603165,-0.03856074331139906
2579,2.0,299.84595,5254.9645,0.0,0.0,-0.025790013534927714,0.0,0.0,0.0,-0.4537340837900676,-0.4441260207768256,-0.6995178869695403,-0.005560936930696744,0.009638873719632771,-0.05129596160476725
2580,2.0,300.41127,5254.4202,0.0,0.0,-0.02579998504602421,0.0,0.0,0.0,-0.4388492979660536,-0.4431959179800316,-0.7151673321140204,-0.012437820269767289,0.018390069829458584,-0.048238733753792354
2581,2.0,300.75426,5165.066,0.0,0.0,-0.025809989466398342,0.0,0.0,0.0,-0.41109770508468463,-0.43645378221213454,-0.7224995948726584,-0.009137016214003292,0.008251364901746312,-0.06920593833809434
2582,2.0,299.93987999999996,5184.9244,0.0,0.0,-0.025819993886772474,0.0,0.0,0.0,-0.4266324705828466,-0.4498050950698066,-0.6996499945175783,-0.008555732667485072,-0.0007894965223497402,-0.06650231349376734
2583,2.0,300.06147999999996,5281.4801,0.0,0.0,-0.02582999830714683,0.0,0.0,0.0,-0.47687510500640856,-0.43231284183595553,-0.6962501249995373,0.018430083075907582,-0.0017353370082394282,-0.04668826453027296
2584,2.0,299.87917000000004,5127.1946,0.0,0.0,-0.02584000272752096,0.0,0.0,0.0,-0.4443748750013856,-0.4294072154516925,-0.6847570317652574,0.007570803921030173,0.008407079454589142,-0.05940338703440785
2585,2.0,300.0946,5281.0087,0.0,0.0,-0.025850007147895204,0.0,0.0,0.0,-0.44594648670149156,-0.4554224522991966,-0.7039258288795703,0.015054119167475885,-0.013905412727857386,-0.049306151190888256
2586,2.0,299.78956,5648.9232,0.0,0.0,-0.025860011568269115,0.0,0.0,0.0,-0.48982156365412455,-0.4498327365325345,-0.7774772990010353,-0.0012683247682489089,-0.009803743392429141,-0.025406423498418772
2587,2.0,299.40362999999996,5495.6045,0.0,0.0,-0.025870015988643247,0.0,0.0,0.0,-0.4514732897694445,-0.4636252184837466,-0.7554280243699413,0.003085222937987797,-0.02087678923812868,-0.03723426720798607
2588,2.0,299.45466,5180.7881,0.0,0.0,-0.025879987499739965,0.0,0.0,0.0,-0.4122496184608696,-0.44745210542258457,-0.7151284841051863,0.007295568514216554,0.0007591251814673223,-0.05528401571310754
2589,2.0,299.39957999999996,5324.6426,0.0,0.0,-0.025889991920114097,0.0,0.0,0.0,-0.4711744890163015,-0.4422157910258006,-0.7051681140321743,-0.008609968601612741,-0.007974193376641613,-0.03515403232868287
2590,2.0,299.43233,5398.8837,0.0,0.0,-0.02589999634048834,0.0,0.0,0.0,-0.4786644337555015,-0.4574925425184986,-0.7049688584000093,-0.010505504706312589,0.015315453593517585,-0.06063847912455194
2591,2.0,299.79111,5136.5036,0.0,0.0,-0.025910000760862473,0.0,0.0,0.0,-0.44510604640604656,-0.42130463943703056,-0.6949581601945303,-0.01054885357209079,0.006897635410393612,-0.06344189086522714
2592,2.0,299.91245,5096.2664,0.0,0.0,-0.025920005181236827,0.0,0.0,0.0,-0.4167607902910876,-0.4390549877363536,-0.6933219639330503,0.004077675573060246,0.02194072717438118,-0.07619921726252724
2593,2.0,300.34814,5193.1142,0.0,0.0,-0.025930009601610737,0.0,0.0,0.0,-0.3974784483705686,-0.4615153176680155,-0.7195832685673393,0.0101084232391987,-0.010748334145777989,-0.07061117538503044
2594,2.0,300.31666,5196.5085,0.0,0.0,-0.02594001402198487,0.0,0.0,0.0,-0.4233469666035926,-0.44666336114724153,-0.7095984892994183,0.0009690040924507582,-0.0005843597332918154,-0.06756175462607604
2595,2.0,299.89459,5455.0274,0.0,0.0,-0.025949985533081588,0.0,0.0,0.0,-0.4817690421944026,-0.4620436971976626,-0.7143793680412543,0.01011748321496785,-0.019307858597787282,-0.05066496821099305
2596,2.0,300.30133,5574.0039,0.0,0.0,-0.02595998995345572,0.0,0.0,0.0,-0.4944359755370315,-0.46129326390860054,-0.7386287632769833,-0.001251538051192189,-0.0036043573710723763,-0.04110115585611826
2597,2.0,299.78403,5289.299,0.0,0.0,-0.025969994373829963,0.0,0.0,0.0,-0.45116235371125757,-0.44529320383201754,-0.7113592545281924,0.0018386085730065383,-0.004002551792096106,-0.04223492597601266
2598,2.0,300.01222,5315.0544,0.0,0.0,-0.025979998794204096,0.0,0.0,0.0,-0.4415498121325736,-0.45149449709403755,-0.7225995317300213,-0.011864944875228888,-0.008926719904773662,-0.03955654929767746
2599,2.0,299.45813,5559.3227,0.0,0.0,-0.025990003214578228,0.0,0.0,0.0,-0.4803937882311755,-0.4500197318384896,-0.7594817543100133,-0.002667743429135778,-0.009852866973177261,-0.03185283817163037
2600,2.0,298.76591,5310.0321,0.0,0.0,-0.02600000763495236,0.0,0.0,0.0,-0.4591586701879326,-0.45297631457028154,-0.7019821720077464,0.0032453880905698664,0.005964667243641824,-0.05446991789376235
2601,2.0,298.88597000000004,5042.8292,0.0,0.0,-0.026010012055326492,0.0,0.0,0.0,-0.44634394418571754,-0.4206181523617796,-0.6659320506748764,0.03093026888932987,-0.0035566136343104368,-0.062299442258226236
2602,2.0,299.71255,5246.5786,0.0,0.0,-0.02601998356642321,0.0,0.0,0.0,-0.45330876192809155,-0.4419657310336215,-0.6995543943706434,0.008231870881747403,0.017374268365706786,-0.07083440552781153
2603,2.0,299.39013,5281.7324,0.0,0.0,-0.02602998798679723,0.0,0.0,0.0,-0.4530272709178106,-0.45160446512739055,-0.7008830286967693,-0.0036789447374335764,-0.0025131520640287973,-0.062170516315502244
2604,2.0,300.57925,5316.4972,0.0,0.0,-0.026039992407171364,0.0,0.0,0.0,-0.43384669983733554,-0.4585945533272586,-0.7236411528328213,-0.004844560700020916,0.01050726877473669,-0.07377096947737784
2605,2.0,300.22277,5536.8439,0.0,0.0,-0.02604999682754572,0.0,0.0,0.0,-0.46198235503660856,-0.46912004337854357,-0.7519598820601623,-0.011606652225987389,-0.006557119744687334,-0.04112058290028556
2606,2.0,299.82111000000003,5456.7389,0.0,0.0,-0.02606000124791985,0.0,0.0,0.0,-0.46893355469763853,-0.46676968818158154,-0.7230091380829463,0.00946533396970573,0.007510804215033663,-0.05160993336025386
2607,2.0,299.83822000000004,5205.3298,0.0,0.0,-0.026070005668293983,0.0,0.0,0.0,-0.4427576467817776,-0.44704369470477756,-0.6924889304958364,-0.011850255788529189,-0.014422839023923384,-0.04584215104751806
2608,2.0,299.97693,5407.42,0.0,0.0,-0.026080010088668115,0.0,0.0,0.0,-0.45516505637629356,-0.4727932675085626,-0.7157623429702433,0.001208538655373479,0.0004675075065068986,-0.06448023410395363
2609,2.0,299.90608,5524.2792,0.0,0.0,-0.026090014509042136,0.0,0.0,0.0,-0.47021168863878055,-0.4655371403624386,-0.7434941065471553,-0.002246269587064548,-0.0009326523164306171,-0.03779882179270326
2610,2.0,300.19827000000004,5195.4364,0.0,0.0,-0.026099986020138966,0.0,0.0,0.0,-0.4081270989715086,-0.4690988664514536,-0.7020569903951304,0.005027496824750306,0.017767580643773685,-0.08006965329925952
2611,2.0,299.9968,5049.8405,0.0,0.0,-0.026109990440512987,0.0,0.0,0.0,-0.4102888173973536,-0.4349811245167946,-0.6897554553035633,-0.006321220125305854,-0.002063484335275048,-0.06111921867424724
2612,2.0,300.27997,5343.8824,0.0,0.0,-0.02611999486088712,0.0,0.0,0.0,-0.45992876052893455,-0.4573797880473706,-0.7070982541476643,-0.019848776084171682,-0.005913785876620224,-0.07181267823435952
2613,2.0,300.87376,5483.7922,0.0,0.0,-0.02612999928126125,0.0,0.0,0.0,-0.47291502977307953,-0.46775216587604457,-0.7262686927271393,-0.010534637673187791,-0.014965748560004384,-0.05383023385388045
2614,2.0,301.20401,5537.6337,0.0,0.0,-0.026140003701635606,0.0,0.0,0.0,-0.47447441154447856,-0.4701272038454425,-0.7387007445640873,-0.0002635027913882008,-0.002660955362740847,-0.055158895537759156
2615,2.0,300.45975,5650.146,0.0,0.0,-0.026150008122009738,0.0,0.0,0.0,-0.49192924545213657,-0.46915512209700555,-0.7564189221727353,0.0037931233315771262,0.0037652834744795463,-0.025745405306123677
2616,2.0,299.81946,5420.0347,0.0,0.0,-0.02616001254238398,0.0,0.0,0.0,-0.45704699618452654,-0.45518260586802556,-0.7353255983484862,-0.0032866213914642768,0.00015878318077067985,-0.04162539119285626
2617,2.0,300.02836,5441.1015,0.0,0.0,-0.026169984053480477,0.0,0.0,0.0,-0.4690269763568586,-0.44965812314280157,-0.7352738820633823,0.0034151151830206267,0.0006392153813131465,-0.02014342009400078
2618,2.0,299.96051,5690.0788,0.0,0.0,-0.02617998847385461,0.0,0.0,0.0,-0.5042339114865125,-0.48279929463108057,-0.7426086475497673,0.01710612489899308,-0.00017145928402671385,-0.03695712709363447
2619,2.0,299.93144,5449.6597,0.0,0.0,-0.026189992894228742,0.0,0.0,0.0,-0.4572642471384676,-0.46200813211915254,-0.7372880814071683,0.021623059082529778,-0.007781918835015592,-0.05073018706692965
2620,2.0,300.20108999999997,5100.4557,0.0,0.0,-0.026199997314602874,0.0,0.0,0.0,-0.4178781822363656,-0.45026738029543056,-0.6822656220218744,0.006123679418935104,-0.003959995794521156,-0.07896730710471642
2621,2.0,299.91411,5226.7051,0.0,0.0,-0.026210001734977117,0.0,0.0,0.0,-0.42497843098710564,-0.4421788783246576,-0.7216305302618883,0.005423393498522265,0.004735181466301026,-0.062128306342836434
2622,2.0,299.97753,5342.995,0.0,0.0,-0.02622000615535125,0.0,0.0,0.0,-0.43917718569841363,-0.44748708281603655,-0.7374727969003982,-0.01003186925571841,0.0020875162971718177,-0.07355243574881024
2623,2.0,300.26671,5244.7714,0.0,0.0,-0.026230010575725604,0.0,0.0,0.0,-0.43287007872845057,-0.45296639485180257,-0.7084430599453864,-0.013361586200435885,0.004884159324528996,-0.05255912680218195
2624,2.0,299.81752,5278.8048,0.0,0.0,-0.026240014996099514,0.0,0.0,0.0,-0.4430740746555066,-0.4503401012551076,-0.7112106715335283,-0.006389147500084764,0.01136468708885729,-0.07528124813568073
2625,2.0,299.61672000000004,5479.7515,0.0,0.0,-0.026249986507196232,0.0,0.0,0.0,-0.46362917015913657,-0.46071251961378556,-0.7413659368321213,-0.01077868909227379,0.010985260390160791,-0.04951204462445836
2626,2.0,299.35941,5412.206999999999,0.0,0.0,-0.026259990927570365,0.0,0.0,0.0,-0.46373135643172153,-0.4621035093510656,-0.7193409092759203,-0.00897590620570297,0.004509025969156216,-0.05924828073560004
2627,2.0,299.83074,5427.8866,0.0,0.0,-0.026269995347944497,0.0,0.0,0.0,-0.45136695930395054,-0.46809051034943655,-0.7304845224182093,0.0037413221361147463,0.002207081126196948,-0.05373421827440446
2628,2.0,299.93672999999995,5562.2402,0.0,0.0,-0.02627999976831874,0.0,0.0,0.0,-0.46753518849963055,-0.4759286990155055,-0.7473182542795692,0.009687895063445801,-0.0012365217860351987,-0.05678900115288804
2629,2.0,300.31212999999997,5373.5113,0.0,0.0,-0.026290004188692873,0.0,0.0,0.0,-0.4709855077401505,-0.4525627464094656,-0.7098650044732213,0.010900039977250189,-0.005004168869023016,-0.054358333726499855
2630,2.0,299.90738999999996,5294.4527,0.0,0.0,-0.026300008609067005,0.0,0.0,0.0,-0.4567439432121176,-0.4398842721481976,-0.7127532029557644,0.0012365750829904589,-0.0063318991734097945,-0.053356722830398544
2631,2.0,300.24571000000003,5512.4622,0.0,0.0,-0.026310013029441137,0.0,0.0,0.0,-0.4714759613185545,-0.46585897899170153,-0.7383159121761074,0.0017525725950904485,0.012238955752140887,-0.05341532414993204
2632,2.0,299.98982,5392.0123,0.0,0.0,-0.026319984540537855,0.0,0.0,0.0,-0.46518516767520157,-0.4459619387655166,-0.7278900043446503,0.003944054330697856,0.016967613610323083,-0.04685720878569646
2633,2.0,300.13218,5301.3786,0.0,0.0,-0.026329988960911987,0.0,0.0,0.0,-0.44502831999087555,-0.43413604353589164,-0.7323223655820903,-0.007752767426988573,0.028183710611765674,-0.055791259858918654
2634,2.0,300.26988,5507.5701,0.0,0.0,-0.02633999338128601,0.0,0.0,0.0,-0.48668980011254354,-0.45841542084207954,-0.7290585856849803,-0.013406605915628988,-0.001962393487373158,-0.046920270432170154
2635,2.0,301.07669,5564.2194,0.0,0.0,-0.02634999780166014,0.0,0.0,0.0,-0.4980433384105505,-0.45528552168068254,-0.7380548888178463,-0.010507237363983589,0.0033801766983724666,-0.03728761887875147
2636,2.0,300.81835,5368.8531,0.0,0.0,-0.026360002222034495,0.0,0.0,0.0,-0.4592760653445186,-0.4586944699196196,-0.7140267468739534,0.01073988769294439,-0.01108133879114299,-0.07038506153246474
2637,2.0,299.98905,5374.4598,0.0,0.0,-0.026370006642408628,0.0,0.0,0.0,-0.4604631081016705,-0.45547404699428856,-0.7177644137103323,0.008079731581882424,-0.0011531211703041987,-0.05690547627838325
2638,2.0,299.61242999999996,5398.7557,0.0,0.0,-0.02638001106278276,0.0,0.0,0.0,-0.46573834143479553,-0.4524643496922545,-0.7228842448756203,0.01148637538611699,-0.025379979697308975,-0.05463096589115655
2639,2.0,299.606,5271.8685,0.0,0.0,-0.026390015483156892,0.0,0.0,0.0,-0.41656381447164753,-0.4618085015844505,-0.7241440693874553,-0.007287098655305643,-0.00974070829310806,-0.06863008094851164
2640,2.0,299.99119,5346.6364,0.0,0.0,-0.02639998699425361,0.0,0.0,0.0,-0.44491915242510155,-0.4624313666859226,-0.7178934612430683,0.0031788250570506066,-0.002990198925059657,-0.06664691644203853
2641,2.0,300.00149,5409.0761,0.0,0.0,-0.026409991414627743,0.0,0.0,0.0,-0.4620435249451456,-0.4550299090779556,-0.7271506357466803,-0.01005722219177055,-0.001091594901707029,-0.050617971644854855
2642,2.0,299.62122999999997,5260.8142,0.0,0.0,-0.026419995835001764,0.0,0.0,0.0,-0.4411647669620726,-0.44055257138415355,-0.7174388361882003,-0.0028509254696644374,-0.0005680107200132934,-0.05716631725162625
2643,2.0,300.16931,5340.2512,0.0,0.0,-0.026430000255375896,0.0,0.0,0.0,-0.45899523294680256,-0.4526891797569436,-0.7116186060237883,-0.01994594980851198,0.024978288854165177,-0.06024074806279894
2644,2.0,300.61645,5626.9592,0.0,0.0,-0.02644000467575003,0.0,0.0,0.0,-0.4809545816315216,-0.4748057848571826,-0.7546947251400703,0.004986241333678705,0.013669087340783887,-0.04929163942295605
2645,2.0,300.54762,5582.6568,0.0,0.0,-0.026450009096124383,0.0,0.0,0.0,-0.4716689044025965,-0.4715611857844656,-0.7537581882051413,-0.01657050164438118,0.017653640670028684,-0.05135868989195805
2646,2.0,300.31382,5495.6171,0.0,0.0,-0.026460013516498515,0.0,0.0,0.0,-0.4863973457361805,-0.4607842779858676,-0.7233487491189633,-0.005531435850060214,-0.013319338737516387,-0.036607296417108866
2647,2.0,300.06162,5584.7174,0.0,0.0,-0.026469985027595122,0.0,0.0,0.0,-0.4910062252735415,-0.46821046902877556,-0.7383979347717022,0.0024552498870642975,-0.007107939825624044,-0.04177856725022356
2648,2.0,299.72195,5595.4611,0.0,0.0,-0.026479989447969254,0.0,0.0,0.0,-0.4861931353110266,-0.47608820484624753,-0.7385991054465563,0.013719603937769487,-0.019714689658688382,-0.047405883714846456
2649,2.0,300.1578,5451.9062,0.0,0.0,-0.026489993868343387,0.0,0.0,0.0,-0.45426284835475256,-0.4627180658017176,-0.7402624365457143,0.012247684901752388,-0.009071645978501752,-0.04497239843993016
2650,2.0,299.69187,5383.218000000001,0.0,0.0,-0.02649999828871752,0.0,0.0,0.0,-0.4501010046290106,-0.45587393627875455,-0.7303889222712743,0.01081391675850049,-0.03659639789903326,-0.04994376313431566
2651,2.0,299.57854,5358.8643,0.0,0.0,-0.02651000270909165,0.0,0.0,0.0,-0.4348079600747046,-0.4535909014184366,-0.7405620951302884,-0.008214907757848272,0.0063376471385770735,-0.05208380510077135
2652,2.0,300.11996,5339.6823,0.0,0.0,-0.026520007129465895,0.0,0.0,0.0,-0.46319224658351554,-0.4570280788051595,-0.7029097518117913,-0.004630360642131015,-0.0007664321737684664,-0.06112913535297594
2653,2.0,300.6251,5531.0041,0.0,0.0,-0.026530011549840027,0.0,0.0,0.0,-0.46557782235395356,-0.4750633226350996,-0.7406459821060672,-0.0005806804600586994,0.02396453212911518,-0.06558395730538263
2654,2.0,300.20223,5513.4708,0.0,0.0,-0.02654001597021438,0.0,0.0,0.0,-0.47196848192716256,-0.4662312369459406,-0.7377577228285183,-0.0061038340038015145,-0.009878161140723601,-0.058457184706774946
2655,2.0,299.92395,5379.1258,0.0,0.0,-0.026549987481310877,0.0,0.0,0.0,-0.4375950665947706,-0.47648310894022156,-0.7210417407612794,0.007281644431342354,0.016065834193574383,-0.06756488050263453
2656,2.0,299.25437,5471.045,0.0,0.0,-0.02655999190168501,0.0,0.0,0.0,-0.44481145407197253,-0.47449358223637056,-0.7437560316980052,0.004442257651166696,-0.0075400690057468725,-0.05951200947162804
2657,2.0,299.44617,5653.505999999999,0.0,0.0,-0.026569996322059142,0.0,0.0,0.0,-0.4793643565270786,-0.48091520673263555,-0.7582450825629633,-0.007923983085161243,-0.006940103559184894,-0.049595327703177754
2658,2.0,299.41805,5524.3067,0.0,0.0,-0.026580000742433274,0.0,0.0,0.0,-0.4895338310232275,-0.4521210909558776,-0.7375963830150953,-0.01111812584927359,-0.03317850063521307,-0.041277217180244165
2659,2.0,299.34578999999997,5339.1298,0.0,0.0,-0.026590005162807517,0.0,0.0,0.0,-0.4468461210677786,-0.45302164737975553,-0.7230943828138593,-0.0055941265456723056,0.008229652066678422,-0.059813185904851844
2660,2.0,299.27095,5338.4161,0.0,0.0,-0.02660000958318165,0.0,0.0,0.0,-0.4531891578862876,-0.4498930857084906,-0.7196629505552034,0.014526456005649585,-0.004956433238261875,-0.04835261090603116
2661,2.0,299.9006,5352.2988,0.0,0.0,-0.026610014003555782,0.0,0.0,0.0,-0.4389269635862186,-0.4489662455770186,-0.7390719690032244,-0.0023675878453877277,0.007203269232132323,-0.05873657018334815
2662,2.0,300.46461,5476.7211,0.0,0.0,-0.0266199855146525,0.0,0.0,0.0,-0.45524903454458154,-0.4698336551589716,-0.7397037608380772,0.008857881922129883,-0.015772205460345485,-0.05536501593935165
2663,2.0,300.05566,5621.3033,0.0,0.0,-0.026629989935026632,0.0,0.0,0.0,-0.4892394413391736,-0.4628548950952216,-0.7566415028222023,0.013648781808779887,0.008952449465887972,-0.04100949117257166
2664,2.0,299.85615,5529.9928,0.0,0.0,-0.026639994355400765,0.0,0.0,0.0,-0.49674277111219456,-0.46291583195623554,-0.7213211140788512,0.01057316245523989,0.006936614837765583,-0.03870655202728926
2665,2.0,300.08391,5446.9117,0.0,0.0,-0.026649998775774786,0.0,0.0,0.0,-0.4584719095351546,-0.4655208169033276,-0.7317324108438663,0.005163977256244875,0.012203270096868987,-0.05575584879442386
2666,2.0,300.0432,5696.4836,0.0,0.0,-0.026660003196148918,0.0,0.0,0.0,-0.5001025057937745,-0.4690328430749376,-0.7624534243357942,-0.01171017902845469,-0.011462091834220388,-0.04801993354044845
2667,2.0,300.2617,5741.7804,0.0,0.0,-0.026670007616523272,0.0,0.0,0.0,-0.47952130896756856,-0.49292737786064456,-0.7729091723826963,-0.004755058697487755,0.025486409461312774,-0.05846065306186724
2668,2.0,299.74625,5363.1361,0.0,0.0,-0.026680012036897405,0.0,0.0,0.0,-0.43281763290327463,-0.4735258270658606,-0.7239159867899453,-0.009954754640957792,0.008365821835692332,-0.06827089594706284
2669,2.0,299.20021,5280.7055,0.0,0.0,-0.0266899835479939,0.0,0.0,0.0,-0.4399000788497576,-0.4538911375555676,-0.7114113862458373,-0.01054730431268789,5.440030761189235e-05,-0.06250906141241404
2670,2.0,299.87503,5455.1684,0.0,0.0,-0.026699987968368033,0.0,0.0,0.0,-0.4865386839926295,-0.45417946800402353,-0.7175168361808983,-0.012685366388448187,-0.026661971081581675,-0.04842271666720005
2671,2.0,300.77547999999996,5429.8012,0.0,0.0,-0.026709992388742387,0.0,0.0,0.0,-0.46330613589475556,-0.4681559967033996,-0.7190618601983803,0.004300555536606786,0.007171349523507093,-0.07974079082030333
2672,2.0,300.62202,5351.8237,0.0,0.0,-0.02671999680911652,0.0,0.0,0.0,-0.4535474532541485,-0.4552434819340336,-0.7180298548390294,0.016416590980691384,0.0019295438178061482,-0.061537582547786546
2673,2.0,300.11302,5442.6245,0.0,0.0,-0.02673000122949054,0.0,0.0,0.0,-0.4253976733484816,-0.4860898141983295,-0.7429344581194223,0.015209115022022787,0.003964339496374846,-0.08288239909985592
2674,2.0,300.03947,5503.9796,0.0,0.0,-0.026740005649864673,0.0,0.0,0.0,-0.4490441645097086,-0.47562209966774655,-0.7484060998519313,0.004867679419602556,-0.007014977877974414,-0.05018943372706145
2675,2.0,299.54205,5586.5175,0.0,0.0,-0.026750010070238806,0.0,0.0,0.0,-0.48780594576019853,-0.4799212083845355,-0.7304346603807883,-0.0012118103386213688,0.00880556528634163,-0.06587084488569624
2676,2.0,299.3575,5710.5868,0.0,0.0,-0.02676001449061316,0.0,0.0,0.0,-0.5267903887201636,-0.4661671387446146,-0.7429182562503233,-0.0022284308124289978,0.0021331281557233576,-0.035142237084268765
2677,2.0,299.53407999999996,5439.9477,0.0,0.0,-0.026769986001709656,0.0,0.0,0.0,-0.4657046812664735,-0.44879138900726157,-0.7391121848996933,-0.027977361215650576,-0.0037452991427572467,-0.05113916013854215
2678,2.0,299.78741,5264.6749,0.0,0.0,-0.0267799904220839,0.0,0.0,0.0,-0.4484133149974485,-0.4424877878826446,-0.7094286077876524,-0.004324325370702686,-0.0004903843024946625,-0.04201840658864386
2679,2.0,299.60544,5588.8967,0.0,0.0,-0.02678999484245803,0.0,0.0,0.0,-0.4538399177630126,-0.47788937848900953,-0.7671557660623793,-0.015418818275968884,0.01317027140930459,-0.05721238770717304
2680,2.0,300.34682000000004,5706.6532,0.0,0.0,-0.026799999262832164,0.0,0.0,0.0,-0.4972480485395615,-0.4749337076823076,-0.7624983214477253,0.007928312500188522,0.013559178075936687,-0.04979283953192065
2681,2.0,300.47655,5386.2136,0.0,0.0,-0.026810003683206296,0.0,0.0,0.0,-0.45962874730682557,-0.4521371307049606,-0.7255085727671213,0.004439951189964066,-0.01045830143715399,-0.05766607854544885
2682,2.0,300.28512,5409.7051,0.0,0.0,-0.02682000810358043,0.0,0.0,0.0,-0.4634205216985446,-0.4552189308841106,-0.7257758174809963,0.010818313250684388,-0.006063732503268805,-0.047001447977181754
2683,2.0,300.02221000000003,5602.1561,0.0,0.0,-0.02683001252395467,0.0,0.0,0.0,-0.4761974534720295,-0.4771301096590755,-0.7495880155635772,0.02002377349569258,-0.0023069101737493076,-0.05542609668187985
2684,2.0,300.17293,5588.6961,0.0,0.0,-0.02683998403505128,0.0,0.0,0.0,-0.46864073555123953,-0.4755340482340566,-0.7546492808730854,0.009420687535849471,-0.006803575504935623,-0.06661654629679123
2685,2.0,299.69953,5550.4596,0.0,0.0,-0.026849988455425522,0.0,0.0,0.0,-0.44414777525647253,-0.4813135761419515,-0.7617397618928612,0.0014629161062285785,-0.015412991074643787,-0.07091797332980902
2686,2.0,299.84801,5574.8545,0.0,0.0,-0.026859992875799654,0.0,0.0,0.0,-0.4833602704164446,-0.4640249253831945,-0.7472313680834943,-0.012215097765286289,-0.0026216610172377975,-0.031517859715070574
2687,2.0,299.70943,5426.5314,0.0,0.0,-0.026869997296173787,0.0,0.0,0.0,-0.46981574089720357,-0.4593802477198005,-0.7203340666264373,0.005602786186326944,0.02006555992981658,-0.05273636450967395
2688,2.0,300.15539,5504.6366,0.0,0.0,-0.02688000171654792,0.0,0.0,0.0,-0.48825676099469056,-0.4515612905406296,-0.7334540139562753,-0.021405297450538378,0.00986518090031755,-0.03757624316973646
2689,2.0,300.22351000000003,5716.7337,0.0,0.0,-0.02689000613692205,0.0,0.0,0.0,-0.4780968617119865,-0.48826531282553454,-0.7713821335544894,-0.01108281104353829,-0.01138801514590959,-0.05764873676998735
2690,2.0,299.7884,5529.4764,0.0,0.0,-0.026900010557296294,0.0,0.0,0.0,-0.4563962768378056,-0.4710893354778975,-0.7533371625235893,-0.011146899112363289,-0.0076165902612489325,-0.046733739194760954
2691,2.0,299.43827000000005,5416.9078,0.0,0.0,-0.026910014977670427,0.0,0.0,0.0,-0.41586402342258355,-0.4751305720442366,-0.7556101155454122,0.018787156464147983,0.000988650333012191,-0.08632268615113582
2692,2.0,299.76,5608.8666,0.0,0.0,-0.026919986488766923,0.0,0.0,0.0,-0.49701345074390857,-0.47164937907316956,-0.7362925631839182,0.003382387407440647,0.005885915419369624,-0.04528054299409166
2693,2.0,298.95625,5541.3719,0.0,0.0,-0.026929990909141277,0.0,0.0,0.0,-0.47056613365626154,-0.46869600834419456,-0.7451765678082013,0.004411220179403536,-0.02026578118932688,-0.06218411007884384
2694,2.0,299.53967,5478.4312,0.0,0.0,-0.02693999532951541,0.0,0.0,0.0,-0.4724544366751226,-0.4607601018384816,-0.7320917701243322,-0.0003317857054946997,0.01145125613765099,-0.04172597754353336
2695,2.0,299.80836,5562.3366,0.0,0.0,-0.02694999974988954,0.0,0.0,0.0,-0.46322178282393056,-0.4686508781847406,-0.7589387637139243,0.012827099812436188,0.010657204458284188,-0.048170781149085955
2696,2.0,299.61146,5605.0494,0.0,0.0,-0.026960004170263563,0.0,0.0,0.0,-0.4755280092634605,-0.4646563828455145,-0.7636106674075053,0.003950438211627896,0.007043384344527914,-0.04623413799445416
2697,2.0,300.10595,5597.6991,0.0,0.0,-0.026970008590637695,0.0,0.0,0.0,-0.46277901279523254,-0.47234379989670355,-0.7664379492940363,-0.008978308925665101,-0.022628918536300377,-0.042572279490806865
2698,2.0,300.00485,5684.41,0.0,0.0,-0.02698001301101205,0.0,0.0,0.0,-0.5070591364753405,-0.47604930617490854,-0.7448102778970513,-0.008855286684648751,0.0015188913854779086,-0.03393483711935767
2699,2.0,299.56343,5717.878000000001,0.0,0.0,-0.026989984522108545,0.0,0.0,0.0,-0.4919072579249665,-0.4848450769804835,-0.7613398118133893,0.0009927181876586571,0.0018707780477814184,-0.04046005833234686
2700,2.0,300.26056,5493.5906,0.0,0.0,-0.026999988942482678,0.0,0.0,0.0,-0.4675912110976595,-0.46669487992669856,-0.7356282764183583,-0.004171859905630516,0.0096626985732091,-0.07186845866561463
2701,2.0,299.80234,5374.4014,0.0,0.0,-0.02700999336285681,0.0,0.0,0.0,-0.43785219907264755,-0.4646440313267956,-0.7311876166625993,-0.006908666157607264,-0.02088407450634768,-0.06877608522167113
2702,2.0,299.64695,5628.0257,0.0,0.0,-0.027019997783231164,0.0,0.0,0.0,-0.46122915557477356,-0.48620592252728856,-0.7633442130287083,-0.0028842096208743276,0.000996525191199379,-0.07635415130881802
2703,2.0,300.06133,5586.4084,0.0,0.0,-0.027030002203605186,0.0,0.0,0.0,-0.46180243221635153,-0.48365753773078257,-0.7526686809026153,0.016532751998655584,-0.00043615311037746053,-0.062291927995484636
2704,2.0,299.94114,5476.3941,0.0,0.0,-0.027040006623979318,0.0,0.0,0.0,-0.4858747012020995,-0.46770531319142056,-0.7111070464458014,-0.0035437673455676064,0.002605335632951607,-0.05877534219842465
2705,2.0,300.06942000000004,5585.5339,0.0,0.0,-0.02705001104435345,0.0,0.0,0.0,-0.4731188754281976,-0.4689745203991816,-0.7557694389911362,0.001020432219358819,-0.026536104140909577,-0.04619381368022445
2706,2.0,299.92557999999997,5599.0729,0.0,0.0,-0.027060015464727583,0.0,0.0,0.0,-0.49034876781365555,-0.4748553429195736,-0.7367742318839553,-0.0076346004778014035,0.01876567454877788,-0.04797571125308405
2707,2.0,300.10857999999996,5633.2362,0.0,0.0,-0.0270699869758243,0.0,0.0,0.0,-0.45532122861420654,-0.48974993700455555,-0.7672919671408213,0.006340967863129805,0.017218795270362786,-0.07582673436676603
2708,2.0,300.56427,5770.7113,0.0,0.0,-0.027079991396198433,0.0,0.0,0.0,-0.4936181307188165,-0.49133230942072353,-0.7692017105317983,-0.023525826246568276,0.02171624668097668,-0.05801206393784494
2709,2.0,300.46666,5608.5651,0.0,0.0,-0.027089995816572676,0.0,0.0,0.0,-0.47508663751990055,-0.48612593656439457,-0.7436511907101583,-0.014830820123687985,-0.026342289661781575,-0.06541976417967803
2710,2.0,300.10413,5345.3565,0.0,0.0,-0.02710000023694681,0.0,0.0,0.0,-0.4832706585776006,-0.4411606531666666,-0.7004235907039263,0.0028045682643393376,-0.007449964524704252,-0.03964878342778026
2711,2.0,300.39447,5519.6073,0.0,0.0,-0.02711000465732094,0.0,0.0,0.0,-0.45217013226071756,-0.48125488869615957,-0.7443977736488403,0.0068478101539512426,-0.014319530070227588,-0.06474193633978163
2712,2.0,300.21558999999996,5616.6231,0.0,0.0,-0.027120009077695073,0.0,0.0,0.0,-0.4869579668840095,-0.47209955596009856,-0.7482556423445823,0.0012811016493598888,-0.006211858116837664,-0.048241942716859054
2713,2.0,300.5058,5469.0432,0.0,0.0,-0.027130013498069205,0.0,0.0,0.0,-0.44601431366318556,-0.4666716663669076,-0.7497666008937023,-0.012643734981589489,-0.022763312989814082,-0.05923253077604564
2714,2.0,299.83197,5510.6857,0.0,0.0,-0.027139985009165812,0.0,0.0,0.0,-0.4579503289136786,-0.4791997236508305,-0.7379607882810593,-0.00025666565329092775,0.017490832657210784,-0.06589436951326794
2715,2.0,299.37494,5730.7754,0.0,0.0,-0.027149989429540056,0.0,0.0,0.0,-0.5109134486632315,-0.47396290262899654,-0.7571362728460322,0.014454330837031385,0.008114105686224882,-0.04445161119328246
2716,2.0,299.50889,5773.7317,0.0,0.0,-0.0271599938499143,0.0,0.0,0.0,-0.5125801437527215,-0.4918013732895165,-0.7506887496772113,-0.0004733957257530205,0.002096280099936738,-0.05929182313214735
2717,2.0,299.92232,5673.0235,0.0,0.0,-0.02716999827028843,0.0,0.0,0.0,-0.47486709662073356,-0.4759846912160315,-0.7736056805014362,0.003209390759567207,-0.03444207822541847,-0.03490219104282807
2718,2.0,300.32015,5628.5798,0.0,0.0,-0.027180002690662564,0.0,0.0,0.0,-0.4668701924590005,-0.47019172761181055,-0.7738857833590802,-0.00034043766571358167,0.0093690445087277,-0.052973024269280446
2719,2.0,300.5078,5514.0074,0.0,0.0,-0.027190007111036696,0.0,0.0,0.0,-0.4292783097739706,-0.48242970152460457,-0.7644125434041442,0.010145949868577291,0.024180315896911376,-0.05422999040258335
2720,2.0,300.16817000000003,5524.6522,0.0,0.0,-0.027200011531410828,0.0,0.0,0.0,-0.45389128954308255,-0.48607658115202357,-0.7393884475394583,-0.011363523877742488,0.01953663425836568,-0.0909489966299671
2721,2.0,300.10882000000004,5549.71,0.0,0.0,-0.02721001595178507,0.0,0.0,0.0,-0.49032417623372854,-0.45689400555192755,-0.7397550819556423,-0.018187342802450983,-0.015063527194654385,-0.05305485232085625
2722,2.0,299.84495,5430.7214,0.0,0.0,-0.027219987462881567,0.0,0.0,0.0,-0.4768017963616736,-0.45784950039622757,-0.7161524037287393,-0.006757550544318313,0.007887080921819284,-0.06375521920690023
2723,2.0,299.66651,5401.883000000001,0.0,0.0,-0.0272299918832557,0.0,0.0,0.0,-0.43382598900529157,-0.45878892509394154,-0.7494226430147563,0.018664426545785484,0.00849098112249459,-0.06369554181576054
2724,2.0,299.30354,5653.99,0.0,0.0,-0.027239996303630054,0.0,0.0,0.0,-0.4634912161580216,-0.4865342054271875,-0.7686463582844894,-0.000981749978241179,-0.003181101424725267,-0.05668423210579815
2725,2.0,298.92617,5873.4542,0.0,0.0,-0.027250000724004186,0.0,0.0,0.0,-0.4792717961304435,-0.5021935094951405,-0.8039181211555412,0.003387913977461077,-0.03090546047388147,-0.06393027133392654
2726,2.0,299.81264,5690.4871,0.0,0.0,-0.02726000514437832,0.0,0.0,0.0,-0.5048916931864306,-0.4574456290388686,-0.7674286545793113,0.004927981580753915,0.017126069713961484,-0.04103386085072676
2727,2.0,300.00718,5612.321,0.0,0.0,-0.02727000956475234,0.0,0.0,0.0,-0.5076319267568705,-0.4608350114183745,-0.7375385163018843,0.017714005044736185,0.016759025944737087,-0.05101031525582615
2728,2.0,300.33302000000003,5663.1585,0.0,0.0,-0.027280013985126472,0.0,0.0,0.0,-0.5035798990769665,-0.4678394573721595,-0.7500394387481293,0.0031905434971071273,0.00860573767449518,-0.04075778262247996
2729,2.0,300.01685,5623.5299,0.0,0.0,-0.02728998549622319,0.0,0.0,0.0,-0.4650055488299746,-0.4796678046670265,-0.7647393064288933,-0.011639162355445888,-0.01204792163128729,-0.03976555543555476
2730,2.0,299.55906,5607.0941,0.0,0.0,-0.027299989916597323,0.0,0.0,0.0,-0.4487794225235806,-0.4761491315747605,-0.7794880431619802,-0.007282542069605942,0.006902343780958293,-0.05430741790897485
2731,2.0,299.58656,5635.4198,0.0,0.0,-0.027309994336971455,0.0,0.0,0.0,-0.44256358912262556,-0.4726310360350515,-0.7978322674774142,-0.0018552376283476983,0.010705979278347889,-0.05039642248398966
2732,2.0,300.8102,5513.486999999999,0.0,0.0,-0.027319998757345587,0.0,0.0,0.0,-0.47263911163834854,-0.48257298522124553,-0.7207502793700143,-0.006533123145219054,0.0027771649153848373,-0.08771613808615883
2733,2.0,300.10627,5472.9856,0.0,0.0,-0.02733000317771994,0.0,0.0,0.0,-0.4778473286098595,-0.4624498787652495,-0.7233537647069583,-0.007815007124981153,-0.015451556386699886,-0.053740939162317744
2734,2.0,300.32552999999996,5738.2055,0.0,0.0,-0.027340007598093963,0.0,0.0,0.0,-0.5156501598332085,-0.48446787436575656,-0.7441531548096983,0.004983707904453675,0.01761447855366368,-0.06792747407741974
2735,2.0,299.71702,5711.4421,0.0,0.0,-0.027350012018468095,0.0,0.0,0.0,-0.47769379082220653,-0.4786733604888825,-0.7797686323796723,0.011410542735382887,0.0051042322813235055,-0.032129005565885965
2736,2.0,299.57018999999997,5617.5643,0.0,0.0,-0.027360016438842227,0.0,0.0,0.0,-0.4429480871380726,-0.5002456982979064,-0.7644055013159493,0.008492242314894061,-0.02206555857345108,-0.06442285577729084
2737,2.0,299.46053,5681.7837,0.0,0.0,-0.027369987949938945,0.0,0.0,0.0,-0.4558096556924106,-0.48536186492898653,-0.7859488601721133,0.001060424998155799,-0.028503092109536176,-0.04161111044594686
2738,2.0,299.71307,5804.3456,0.0,0.0,-0.027379992370313078,0.0,0.0,0.0,-0.5255151830718104,-0.4874691819569625,-0.7513917425965912,0.014383434740784486,-0.0037274541872960865,-0.05353331205782654
2739,2.0,299.38062,5717.5995,0.0,0.0,-0.02738999679068721,0.0,0.0,0.0,-0.5134607999446356,-0.48242989404212355,-0.7421167855537243,0.0006740987350233653,0.02074551660817308,-0.059920446533937646
2740,2.0,299.92632000000003,5612.5541,0.0,0.0,-0.027400001211061453,0.0,0.0,0.0,-0.49706234006123357,-0.48119847093059154,-0.7278155000647973,-0.0012394869611278387,0.004479658637532886,-0.06203450775457924
2741,2.0,299.99607000000003,5529.88,0.0,0.0,-0.027410005631435586,0.0,0.0,0.0,-0.44604521779123557,-0.46523779588539554,-0.7696624150872663,-0.013147104459018188,0.0004167269477377476,-0.04834103655013886
2742,2.0,301.0173,5447.5062,0.0,0.0,-0.027420010051809718,0.0,0.0,0.0,-0.4321097865159156,-0.4615944119708215,-0.7622016722159483,-0.008056548723569451,0.015162241059146686,-0.058663502692136944
2743,2.0,300.9724,5630.3997,0.0,0.0,-0.02743001447218385,0.0,0.0,0.0,-0.45171583144588157,-0.4776941353272406,-0.7820909408138662,-0.006532110199094084,0.0028050774225145876,-0.055124948619658845
2744,2.0,299.95813,5761.5104,0.0,0.0,-0.027439985983280568,0.0,0.0,0.0,-0.5361418056155766,-0.47045152493745057,-0.7447619661322833,-0.01124315179236269,-0.024054713414515375,-0.05491742486667785
2745,2.0,299.95791,5720.7176,0.0,0.0,-0.02744999040365459,0.0,0.0,0.0,-0.5170960879909104,-0.4845058408470035,-0.7373533651111114,-0.01396360570760059,-0.033419701781767765,-0.06745877700516294
2746,2.0,300.23492000000005,5551.5906,0.0,0.0,-0.027459994824028833,0.0,0.0,0.0,-0.5025306380684125,-0.4606753130701136,-0.7243389680441903,0.016818773250133683,-0.0006538907182089894,-0.057684448769761844
2747,2.0,300.08562,5748.0622,0.0,0.0,-0.027469999244403076,0.0,0.0,0.0,-0.4781842646656126,-0.48603980017339354,-0.7830433249803592,0.007292771538640513,0.015798843805474486,-0.051503132746713455
2748,2.0,300.39389,5813.1915,0.0,0.0,-0.02748000366477721,0.0,0.0,0.0,-0.4687631361633196,-0.5053386986005465,-0.7929632258443772,0.006429306654548164,-0.007778526777655822,-0.062434495324304944
2749,2.0,299.83477,5531.8066,0.0,0.0,-0.02749000808515134,0.0,0.0,0.0,-0.4422671932033736,-0.4717599550565826,-0.7675039289292402,0.0033076129951109872,-0.017306120203731085,-0.04883071701871655
2750,2.0,299.71112,5561.5232,0.0,0.0,-0.027500012505525362,0.0,0.0,0.0,-0.4813516844782125,-0.47882033241588756,-0.7303921748040954,0.013514143161992087,0.002015834526797378,-0.062088686237426235
2751,2.0,299.74318999999997,5647.2532,0.0,0.0,-0.02750998401662219,0.0,0.0,0.0,-0.4972785271025696,-0.46326884829107556,-0.7560765652289473,0.007871020401109234,0.020623978271928183,-0.05393851989206745
2752,2.0,299.25997,5637.6123,0.0,0.0,-0.027519988436996212,0.0,0.0,0.0,-0.48797021386641054,-0.48221865166127553,-0.7435045024931812,-0.015122731397997385,-0.003843018502276397,-0.07598012624640464
2753,2.0,298.68257,5665.6909,0.0,0.0,-0.027529992857370345,0.0,0.0,0.0,-0.4581808230464266,-0.4825546453944355,-0.7814930928573632,-0.033657064736943666,0.0065582058474695235,-0.05675412204469574
2754,2.0,299.62571,5718.3103,0.0,0.0,-0.027539997277744477,0.0,0.0,0.0,-0.45605470009659455,-0.49417147673092754,-0.7879973782967863,-0.015422663560098384,0.010795881919970591,-0.05952670666432854
2755,2.0,299.95351,5607.7314,0.0,0.0,-0.02755000169811883,0.0,0.0,0.0,-0.46483126981277456,-0.4829976282056545,-0.7567814326610123,-0.00874830875234085,0.02038321484941668,-0.05860347471646264
2756,2.0,300.52473,5724.704000000001,0.0,0.0,-0.027560006118492963,0.0,0.0,0.0,-0.5301259269893555,-0.4696708360004025,-0.7403703172838613,0.004555773275769816,-0.03349585360628336,-0.04744568519202455
2757,2.0,300.12883999999997,5878.1736,0.0,0.0,-0.027570010538867096,0.0,0.0,0.0,-0.5308689939501905,-0.4903527397540476,-0.7655962525684673,0.0002637756393751288,-0.02033432451884158,-0.05294885926764554
2758,2.0,300.51112,5739.5869999999995,0.0,0.0,-0.027580014959241117,0.0,0.0,0.0,-0.5058023213163025,-0.4882919005081585,-0.7505968884231452,0.03125261313039277,-0.0016794114795700085,-0.05441627947321865
2759,2.0,300.53931,5793.91,0.0,0.0,-0.027589986470337835,0.0,0.0,0.0,-0.4502579874670035,-0.5094599920572864,-0.8014859966755092,0.021681057518253777,0.01910545783731188,-0.07041961538737493
2760,2.0,300.33128999999997,5850.9484,0.0,0.0,-0.027599990890711967,0.0,0.0,0.0,-0.4838707356843235,-0.48664476114559857,-0.8080267084560272,0.0009850867628079939,-0.007909518838658732,-0.061268203929200946
2761,2.0,299.85494,5722.5481,0.0,0.0,-0.0276099953110861,0.0,0.0,0.0,-0.4690569584273175,-0.4941322639520575,-0.7763225181270672,-0.011871582676633989,0.0015640433298090585,-0.056455509134224945
2762,2.0,299.79031000000003,5470.3907,0.0,0.0,-0.027619999731460232,0.0,0.0,0.0,-0.48706276734185255,-0.4506575525114376,-0.7251418572909294,0.008566880850385311,0.01041784337391109,-0.041476142492876567
2763,2.0,299.4388,5561.5473,0.0,0.0,-0.027630004151834364,0.0,0.0,0.0,-0.4638651459749255,-0.47769233174206255,-0.7490140195144283,-0.007097098252204063,0.016074724449951786,-0.06786148211165684
2764,2.0,299.92419,5677.2664,0.0,0.0,-0.02764000857220872,0.0,0.0,0.0,-0.4949815904508795,-0.4756918315396286,-0.7550738225324842,-0.009978280991054661,-0.017136744303764984,-0.05562363789487565
2765,2.0,299.75205,5634.7623,0.0,0.0,-0.02765001299258274,0.0,0.0,0.0,-0.4446270526862736,-0.49054264308778955,-0.7776573434113043,-0.03203769045362387,-0.012879292325087187,-0.07433056926910603
2766,2.0,300.09629,5769.7898,0.0,0.0,-0.027659984503679458,0.0,0.0,0.0,-0.47862555534916457,-0.5131408560930595,-0.7621056059739674,0.005478252885436464,0.007429491198483693,-0.05432229951319354
2767,2.0,300.30455,5819.814,0.0,0.0,-0.02766998892405359,0.0,0.0,0.0,-0.5000273125038536,-0.48532105121495855,-0.7837297816581072,0.002302699815608778,0.022733646040136182,-0.05996886468996614
2768,2.0,300.50854,5804.4339,0.0,0.0,-0.027679993344427722,0.0,0.0,0.0,-0.5131179161107955,-0.49161770144388955,-0.7596673411983293,0.015367498171653986,-0.017878656159485983,-0.055313000745468154
2769,2.0,299.94645,5712.4044,0.0,0.0,-0.027689997764801855,0.0,0.0,0.0,-0.49635469632389456,-0.47255477883252556,-0.7675188237057102,0.0016964498879515684,-0.018436195000510785,-0.053748466597310654
2770,2.0,299.85733,5697.6229,0.0,0.0,-0.027700002185175987,0.0,0.0,0.0,-0.48644570816345356,-0.4667953538066146,-0.7786940198536163,0.021784614718224078,-0.013542178779008988,-0.04942968360332996
2771,2.0,299.33465,5485.0238,0.0,0.0,-0.02771000660555023,0.0,0.0,0.0,-0.42816931767202154,-0.4681582359861206,-0.7709827204975702,0.008808547686685972,0.0034085718165248464,-0.06776382202726854
2772,2.0,300.55971,5587.48,0.0,0.0,-0.027720011025924363,0.0,0.0,0.0,-0.46707496017170946,-0.46894089062836253,-0.7624385498243264,-0.0015148643242804687,-0.018149897131755383,-0.05978670663998854
2773,2.0,299.97549,5869.5691,0.0,0.0,-0.027730015446298495,0.0,0.0,0.0,-0.5139186673998235,-0.49913939130872254,-0.7711443744185242,-0.020472136664942582,0.00941116318755949,-0.04401951068813746
2774,2.0,300.28907999999996,5722.5836,0.0,0.0,-0.027739986957395213,0.0,0.0,0.0,-0.5184881821707995,-0.47780462011814456,-0.7432297191985623,-0.0037857888194032666,0.01056214133390219,-0.036157493419466766
2775,2.0,300.1035,5689.4966,0.0,0.0,-0.027749991377769123,0.0,0.0,0.0,-0.4716409083023336,-0.4873324337234665,-0.7704915576440963,-0.004932278470452986,0.028871871576181873,-0.03635411764112207
2776,2.0,300.27192,5953.7464,0.0,0.0,-0.027759995798143366,0.0,0.0,0.0,-0.5077450358655335,-0.5043442848199056,-0.7977008996019492,-0.012468064772002187,-0.0095928694293175,-0.047015518981320455
2777,2.0,300.46627,5987.8513,0.0,0.0,-0.02777000021851761,0.0,0.0,0.0,-0.48622334029650754,-0.5122973557823125,-0.8216365723417162,-0.015621631429234985,-0.008588382929432403,-0.059211085337679145
2778,2.0,300.20916,5703.6822,0.0,0.0,-0.027780004638891853,0.0,0.0,0.0,-0.49493074556086153,-0.4705609660807516,-0.7682852562138512,0.0028034572356046873,-0.0026663737176505975,-0.05235103157614455
2779,2.0,299.22812000000005,5628.4164,0.0,0.0,-0.027790009059265985,0.0,0.0,0.0,-0.48356002254115854,-0.47913081251152956,-0.7482072191223034,0.0073587776899048125,0.013154002665698987,-0.07019480862743824
2780,2.0,299.14726,5563.1691,0.0,0.0,-0.027800013479640118,0.0,0.0,0.0,-0.4880420229009975,-0.4628811889353165,-0.7401412720987562,0.011991299189199089,-0.011924674955373788,-0.062497663362039144
2781,2.0,299.6603,5533.1461,0.0,0.0,-0.027809984990736836,0.0,0.0,0.0,-0.4467074476590926,-0.4855589927359415,-0.7496718012143463,-0.006840504722055253,-0.008165714566818283,-0.08255786319882673
2782,2.0,300.03081000000003,5700.4485,0.0,0.0,-0.027819989411110968,0.0,0.0,0.0,-0.45977643864140155,-0.5015833606824235,-0.7714342044771283,0.014910682470069787,0.005732483617677084,-0.06623662513204594
2783,2.0,300.41907000000003,5706.3402,0.0,0.0,-0.02782999383148499,0.0,0.0,0.0,-0.4520378524601626,-0.49555015547949255,-0.7869969255455492,0.007263974768148494,0.01245669205287979,-0.07704002840750883
2784,2.0,300.36682,5760.218000000001,0.0,0.0,-0.02783999825185912,0.0,0.0,0.0,-0.49060025648847555,-0.5110183403135835,-0.7493438526869802,-0.0013116619816509589,-0.00985530394099277,-0.061900103168564535
2785,2.0,299.78087,5923.2975,0.0,0.0,-0.027850002672233254,0.0,0.0,0.0,-0.5264277870393774,-0.5070381520657695,-0.7670686062887773,-0.029722541644636467,-0.007598633949601784,-0.055263599736842646
2786,2.0,300.40532,5953.9395,0.0,0.0,-0.027860007092607608,0.0,0.0,0.0,-0.5393871848908705,-0.49223634129244453,-0.7782254220798692,-0.012628914172376788,0.01994384326155408,-0.038871224420291166
2787,2.0,300.23215,5719.4439,0.0,0.0,-0.02787001151298174,0.0,0.0,0.0,-0.4812203672652526,-0.4775304853035896,-0.7798172886494743,-0.01062931778903199,0.02249409243824408,-0.03845322227703756
2788,2.0,299.86285,5724.0119,0.0,0.0,-0.027880015933355873,0.0,0.0,0.0,-0.47756696230718954,-0.4793926768673735,-0.7829970599807932,-0.015833346997879683,-0.004833586188187816,-0.04972340656881816
2789,2.0,299.60786,5919.7064,0.0,0.0,-0.02788998744445237,0.0,0.0,0.0,-0.5064608325562925,-0.48325118391067856,-0.8097309140642192,-0.007323819953504754,-0.012746491713980788,-0.05424585992564955
2790,2.0,299.92676,5793.6842,0.0,0.0,-0.027899991864826612,0.0,0.0,0.0,-0.5330914668520315,-0.4664655105015616,-0.7615783410194303,0.014950570073506385,-0.0029525796846219267,-0.06174387317539584
2791,2.0,299.65019,5547.0822,0.0,0.0,-0.027909996285200744,0.0,0.0,0.0,-0.4699322038636976,-0.4739184209496065,-0.7423238533441603,0.024274102326167377,0.008359512023344602,-0.08453929707412902
2792,2.0,300.4013,5657.2758,0.0,0.0,-0.027920000705574877,0.0,0.0,0.0,-0.4915856928732305,-0.4812022300884626,-0.7468826580615793,0.017341031735926583,-0.01202308484483609,-0.06346448735570724
2793,2.0,300.52525,5796.5037,0.0,0.0,-0.02793000512594901,0.0,0.0,0.0,-0.46755190712628053,-0.5153833913468805,-0.7790570977619492,0.015650017630786488,-0.003111512725082397,-0.06403785721629444
2794,2.0,300.43751000000003,5733.6324,0.0,0.0,-0.02794000954632314,0.0,0.0,0.0,-0.46719017684058056,-0.49195289470947057,-0.7837380092489192,-0.00018648810335244282,0.012691712373824488,-0.03818157701797826
2795,2.0,299.75229,5743.9379,0.0,0.0,-0.027950013966697496,0.0,0.0,0.0,-0.46206291855205955,-0.5044624601790685,-0.7794883167395072,0.006825027225452744,0.0031206741271865572,-0.061864711355821646
2796,2.0,299.53792999999996,5786.9745,0.0,0.0,-0.02795998547779399,0.0,0.0,0.0,-0.5047073829932405,-0.48341009192386153,-0.7709782824621323,-0.025024459621471873,-0.017820598955256183,-0.045720199305232356
2797,2.0,299.52907000000005,5823.8695,0.0,0.0,-0.027969989898168235,0.0,0.0,0.0,-0.5003726686679376,-0.48882288409056257,-0.7811153532200832,-0.01879985654090138,-0.017830549071238183,-0.07758861518390013
2798,2.0,299.84186,5932.5944,0.0,0.0,-0.027979994318542367,0.0,0.0,0.0,-0.5109837479551695,-0.5068265347823846,-0.7855502779802762,-0.010541994882163891,0.014485521714859687,-0.06195087105157494
2799,2.0,299.90918999999997,5744.4037,0.0,0.0,-0.0279899987389165,0.0,0.0,0.0,-0.4738106212714676,-0.48137603287811553,-0.7909686227575252,7.685025071677923e-05,0.014388543547788686,-0.06991480912130443
2800,2.0,300.17368,5556.4632,0.0,0.0,-0.028000003159290632,0.0,0.0,0.0,-0.4390134951447586,-0.47728426552928954,-0.7727283072398463,-0.012917577980115688,-0.002097707161377578,-0.06902205269669623
2801,2.0,299.73346000000004,5642.3262,0.0,0.0,-0.028010007579664764,0.0,0.0,0.0,-0.4753229173107196,-0.4805520984267996,-0.7592512500447642,0.008021040387065052,-0.02292629426839908,-0.06651178535570214
2802,2.0,300.41491,5872.3799,0.0,0.0,-0.028020012000039007,0.0,0.0,0.0,-0.5238816009955884,-0.48262121592600554,-0.7785540292198002,0.02080645954868768,0.0015685359794274487,-0.04464937430805016
2803,2.0,300.70911,5829.5819,0.0,0.0,-0.02803001642041314,0.0,0.0,0.0,-0.5000761916886776,-0.49914542014681756,-0.7728257211044602,0.02695371314312437,-0.003725387258417096,-0.06373677906833035
2804,2.0,301.80237,5844.3964,0.0,0.0,-0.028039987931509858,0.0,0.0,0.0,-0.4991227537420805,-0.5057476564734075,-0.7716801608064022,0.0007430171595925844,-0.015305193423004985,-0.05106429007540305
2805,2.0,301.1277,5986.8876,0.0,0.0,-0.02804999235188399,0.0,0.0,0.0,-0.49912564150486555,-0.5002214208255105,-0.8205172754862502,0.0004243194333870676,-0.01740504685074438,-0.032899655220943166
2806,2.0,300.96173,6045.668000000001,0.0,0.0,-0.0280599967722579,0.0,0.0,0.0,-0.5060129861445934,-0.5128814539349585,-0.8188376614579852,-0.018245778962218184,0.016335272593915883,-0.03234365246706997
2807,2.0,300.95679,5936.7512,0.0,0.0,-0.028070001192632144,0.0,0.0,0.0,-0.5084375213813765,-0.5015928244383575,-0.7945937884353013,-0.005831078526607645,0.004584009414981506,-0.04372500042732155
2808,2.0,300.45325,5758.3985,0.0,0.0,-0.028080005613006387,0.0,0.0,0.0,-0.5083396616867185,-0.46693260866516056,-0.7751370864375743,-0.024717343516161873,-0.016291761608121683,-0.053698829501411846
2809,2.0,300.41064,5737.3454,0.0,0.0,-0.02809001003338063,0.0,0.0,0.0,-0.4883454913059475,-0.5012576311727764,-0.7544066074741352,-0.008401464022534942,-0.006036334321889813,-0.07934736911122563
2810,2.0,300.12864,5708.6957,0.0,0.0,-0.028100014453754762,0.0,0.0,0.0,-0.4875544672178795,-0.48124559719274257,-0.7665008923902483,0.01062308630091699,0.018825625517444582,-0.06550847017293264
2811,2.0,299.24298999999996,5702.616999999999,0.0,0.0,-0.02810998596485126,0.0,0.0,0.0,-0.45797075603569454,-0.49921265942345355,-0.7762697480618592,0.016204548132264383,0.01105427690747219,-0.08254206966951802
2812,2.0,300.14961,5714.9163,0.0,0.0,-0.028119990385225613,0.0,0.0,0.0,-0.47435775606046554,-0.4843865407802296,-0.7784475670317933,-0.005711721717828045,-0.01733946525127198,-0.05577055510637524
2813,2.0,300.24813,5626.8889,0.0,0.0,-0.028129994805599745,0.0,0.0,0.0,-0.4706917361386575,-0.47368391434646256,-0.7660580514340433,0.013706059823682788,-0.016118861624307784,-0.06392950936985134
2814,2.0,299.75869,5745.8965,0.0,0.0,-0.028139999225973766,0.0,0.0,0.0,-0.48695888894160055,-0.4961571936144025,-0.7634929581433882,-0.0029109358147869973,0.027554748784441977,-0.05769663310221435
2815,2.0,299.6381,6037.1944,0.0,0.0,-0.0281500036463479,0.0,0.0,0.0,-0.5110343395326625,-0.5208846098498084,-0.8032373994733591,0.008687824510146522,0.002858712600657967,-0.05921043077811454
2816,2.0,299.83614,5988.0286,0.0,0.0,-0.02816000806672203,0.0,0.0,0.0,-0.5156499571831885,-0.5154085402143626,-0.7891526961933072,-0.02301484320788818,-0.00856979536297295,-0.05227075785022215
2817,2.0,299.13461,5837.7409,0.0,0.0,-0.028170012487096385,0.0,0.0,0.0,-0.4713233861184965,-0.5067028169451745,-0.7965012520135533,-0.025190094602068776,-0.0028575781658460074,-0.05087533717025486
2818,2.0,300.15289,5888.6779,0.0,0.0,-0.02817998399819288,0.0,0.0,0.0,-0.5163425845540455,-0.4880936378610915,-0.7855748087651973,-0.004700385444616925,0.03159519704220318,-0.03759158580275066
2819,2.0,299.80411000000004,5779.4428,0.0,0.0,-0.028189988418567014,0.0,0.0,0.0,-0.5015834924049365,-0.4773314323214446,-0.7778913636544003,-0.01174575525271579,0.006561802378699473,-0.044889691900517656
2820,2.0,300.69114,5827.845,0.0,0.0,-0.028199992838941146,0.0,0.0,0.0,-0.5058367515547004,-0.48907962140090055,-0.7766030060197493,0.0003899373750313226,-0.016152218830849885,-0.05727416151276965
2821,2.0,300.38922,5864.7428,0.0,0.0,-0.02820999725931539,0.0,0.0,0.0,-0.5145424140288825,-0.4841163171110605,-0.7840766374323392,0.013451120019022187,-0.01954869497430598,-0.05505841861809285
2822,2.0,300.01657,5805.423000000001,0.0,0.0,-0.02822000167968952,0.0,0.0,0.0,-0.5008014761102576,-0.4948062677860765,-0.7690958664263523,0.021388956766175683,0.02359564728445908,-0.07086305314788884
2823,2.0,299.74822,5798.1669999999995,0.0,0.0,-0.028230006100063654,0.0,0.0,0.0,-0.47721299351725555,-0.49387718837188355,-0.7914077957483683,0.007575742907317612,-0.0060230494985037035,-0.06823366913838884
2824,2.0,300.0596,6005.7708,0.0,0.0,-0.028240010520437786,0.0,0.0,0.0,-0.5336114364058485,-0.4911404505142885,-0.8008524823154862,-0.0038272931646994267,-0.007016060434381253,-0.04311542004791066
2825,2.0,299.99575,6022.5453,0.0,0.0,-0.02825001494081192,0.0,0.0,0.0,-0.5164431800239735,-0.5130160135482386,-0.8012442149366472,-0.001975115551653728,-0.0029306176913544476,-0.05396719081689704
2826,2.0,299.53262,5749.9203,0.0,0.0,-0.028259986451908636,0.0,0.0,0.0,-0.4898005184495476,-0.4835926897243825,-0.7744389773836763,0.007074765004099942,0.01800551912500638,-0.05150586852198345
2827,2.0,299.41605,5741.7188,0.0,0.0,-0.02826999087228277,0.0,0.0,0.0,-0.4693049513892925,-0.5035051009545845,-0.7725290718726833,-0.00022018616722818275,-0.006621115607753234,-0.06313576571851494
2828,2.0,299.45709,5847.3139,0.0,0.0,-0.028279995292657012,0.0,0.0,0.0,-0.4836860708535986,-0.4967855809289195,-0.7969657663893972,-0.017305836493703083,-0.013485685019683486,-0.04971373712311386
2829,2.0,299.98503999999997,5806.8239,0.0,0.0,-0.028289999713031144,0.0,0.0,0.0,-0.47476280278794053,-0.49451707607503553,-0.7958495802117382,0.007611330378654822,-0.008824448519180262,-0.06798850517069303
2830,2.0,299.73771,5672.6746,0.0,0.0,-0.028300004133405277,0.0,0.0,0.0,-0.4856182779992925,-0.48950072814246054,-0.7492324357059843,-0.018135881856372185,0.023761275172305276,-0.062155382412008645
2831,2.0,300.08984,5688.6487,0.0,0.0,-0.02831000855377941,0.0,0.0,0.0,-0.47321380683006653,-0.47555266163839355,-0.7804406806409983,-0.0016045625933579985,0.0025512610082398576,-0.08428245438578062
2832,2.0,300.36509,5842.1127,0.0,0.0,-0.02832001297415354,0.0,0.0,0.0,-0.4956560401149426,-0.5061672737373205,-0.7740330795261172,-0.012438582233842487,0.00027479538269269274,-0.07768181190159792
2833,2.0,300.64341,6035.47,0.0,0.0,-0.028329984485250037,0.0,0.0,0.0,-0.5136322823915596,-0.5158445417323926,-0.8051553501901462,0.02780729427911627,0.0007490097537315074,-0.07295067664692123
2834,2.0,300.04851,6077.9687,0.0,0.0,-0.02833998890562439,0.0,0.0,0.0,-0.5122104999837405,-0.5154015386561714,-0.8199386792816472,0.013711378373457685,0.018192101024920585,-0.053997070549095944
2835,2.0,299.91152,5807.7497,0.0,0.0,-0.028349993325998635,0.0,0.0,0.0,-0.4771845718519505,-0.4916421005062975,-0.7965842371967432,-0.00017702739730124384,-0.018403599758043884,-0.049855840383388354
2836,2.0,300.41067000000004,5767.1333,0.0,0.0,-0.028359997746372767,0.0,0.0,0.0,-0.4908094825016246,-0.4696230004631815,-0.7926320349166913,-0.005912238643717525,-0.025035078482519877,-0.03344689741445177
2837,2.0,299.7448,6051.5194,0.0,0.0,-0.028370002166746677,0.0,0.0,0.0,-0.5299961397840465,-0.5044262770179975,-0.8050883743585362,0.0025871857905353573,-0.003120647377383917,-0.034786375543147965
2838,2.0,299.58047999999997,6073.9863,0.0,0.0,-0.02838000658712092,0.0,0.0,0.0,-0.5310087312714814,-0.5113161243854726,-0.8040153222376343,0.004568763750001876,0.03350377215581486,-0.04929979102001055
2839,2.0,299.12737000000004,5696.6824,0.0,0.0,-0.028390011007495164,0.0,0.0,0.0,-0.47846530984584956,-0.4730224545486815,-0.7801614491784403,-0.014973167577236586,-0.0017271917946605584,-0.05597843856314174
2840,2.0,299.37264,5700.3401,0.0,0.0,-0.028400015427869407,0.0,0.0,0.0,-0.46942580172871956,-0.49293839188923155,-0.7703968491572493,-0.02623017759121697,-0.006082131199909614,-0.06881464952047714
2841,2.0,300.1057,5937.2692,0.0,0.0,-0.028409986938965903,0.0,0.0,0.0,-0.5129318935249365,-0.48738837526148754,-0.8044613245341513,-0.005103174549544115,0.0055945555557646446,-0.06064886696457714
2842,2.0,300.22732,5883.4735,0.0,0.0,-0.028419991359340036,0.0,0.0,0.0,-0.5159971675949555,-0.48276403352760056,-0.7896678224116462,0.009975534880633642,0.016918544947730384,-0.06753856031803694
2843,2.0,299.67697999999996,5815.696,0.0,0.0,-0.02842999577971439,0.0,0.0,0.0,-0.4902381310352365,-0.4973419464263285,-0.7802462987418142,-0.0010140863353075291,-0.0020389884061574877,-0.07942520799715772
2844,2.0,299.60263,5772.7723,0.0,0.0,-0.028440000200088522,0.0,0.0,0.0,-0.4958565116472275,-0.47845240103957554,-0.7804697102563632,-0.0019747393318915985,-0.011975412440881189,-0.07322148901439833
2845,2.0,300.20676000000003,5853.1429,0.0,0.0,-0.028450004620462543,0.0,0.0,0.0,-0.47521402332247253,-0.5163866102708905,-0.7876086550284223,0.01755820973586038,0.014492260841274786,-0.07653758301417134
2846,2.0,300.81352000000004,6079.1606,0.0,0.0,-0.028460009040836676,0.0,0.0,0.0,-0.5130450735611065,-0.5221198731792196,-0.8127480992844922,0.02046080143607388,0.01859324572626048,-0.057223787784048144
2847,2.0,300.23517999999996,5991.2881,0.0,0.0,-0.028470013461210808,0.0,0.0,0.0,-0.5017143739203535,-0.5136432660226435,-0.8058443399931443,0.01170841192028029,-0.014816923398566486,-0.05909649891037035
2848,2.0,300.22978,5678.4332,0.0,0.0,-0.028479984972307526,0.0,0.0,0.0,-0.4658613803944386,-0.49626194340974056,-0.7639785886513163,-0.007281724478100253,-0.027554162112634076,-0.052968289351563155
2849,2.0,299.92307999999997,5705.1325,0.0,0.0,-0.02848998939268166,0.0,0.0,0.0,-0.4756275914832886,-0.4899706938038425,-0.7686195375543422,-0.016894298886087483,-0.006107159186654684,-0.07862786325496592
2850,2.0,299.77025,6028.2873,0.0,0.0,-0.02849999381305579,0.0,0.0,0.0,-0.5243244318192924,-0.5150975028311655,-0.7930268883481603,-0.0029631821310183073,0.021245079304976083,-0.06148606688620234
2851,2.0,300.13129,6001.3934,0.0,0.0,-0.028509998233429923,0.0,0.0,0.0,-0.5059945348602725,-0.5068517647098746,-0.8114274392366532,-0.021295637445215777,0.008691300667264592,-0.06824587981534394
2852,2.0,299.97972000000004,5731.6455,0.0,0.0,-0.028520002653804166,0.0,0.0,0.0,-0.4837089703058585,-0.4766337589650895,-0.7819343734084143,-0.012541350111984888,0.011937512834140789,-0.04502821940118925
2853,2.0,298.96926,5805.8877,0.0,0.0,-0.0285300070741783,0.0,0.0,0.0,-0.4945427720975715,-0.48591319457339854,-0.7843889211131593,-0.005431000878948056,0.018207247087415383,-0.04656837373869066
2854,2.0,299.37945,6140.039000000001,0.0,0.0,-0.02854001149455243,0.0,0.0,0.0,-0.5474296447770994,-0.4967450002624145,-0.8222438941866542,0.03275944775160577,0.0004971287383402866,-0.045980737316695455
2855,2.0,299.57506,6214.4671,0.0,0.0,-0.028550015914926563,0.0,0.0,0.0,-0.5460111959621095,-0.5281038749572945,-0.8149277623696082,0.008542710073224841,-0.03225729012129667,-0.04626559535705875
2856,2.0,299.72444,6074.8387,0.0,0.0,-0.02855998742602328,0.0,0.0,0.0,-0.5252934839499305,-0.5140540376131835,-0.8072517646470463,0.011072700834040489,-0.04444385071076656,-0.06413517887514934
2857,2.0,300.6338,5822.5213,0.0,0.0,-0.028569991846397413,0.0,0.0,0.0,-0.48398178789528357,-0.48523754927421753,-0.8006817598061372,-0.00028633163024873175,-9.079253156277521e-05,-0.04860631961182025
2858,2.0,299.5508,5691.8695,0.0,0.0,-0.028579996266771546,0.0,0.0,0.0,-0.4708812139073576,-0.49058159242163357,-0.7687234058220932,0.004528989833226496,0.007853727059002513,-0.07061041139445504
2859,2.0,299.97471,5950.1144,0.0,0.0,-0.02859000068714579,0.0,0.0,0.0,-0.5060310827913795,-0.5008558167131205,-0.8017992834739283,-0.016372195427559882,0.0018956883961898784,-0.04480345621100686
2860,2.0,299.99799,6024.8832,0.0,0.0,-0.02860000510751992,0.0,0.0,0.0,-0.5069428862913675,-0.5172993358284694,-0.8071718192141561,-0.012809629354211987,-0.017146333702711382,-0.05602162530890395
2861,2.0,300.38884,5694.9756,0.0,0.0,-0.028610009527894054,0.0,0.0,0.0,-0.4650009486745206,-0.4926141214597285,-0.7735153188575182,-0.0026639471863111174,0.00981741922902884,-0.06752054169150863
2862,2.0,300.51592999999997,5725.2768,0.0,0.0,-0.028620013948268186,0.0,0.0,0.0,-0.4685922920639586,-0.4833679305872005,-0.7883809643871432,0.018509906918785582,0.0001997724302460038,-0.08408899251768742
2863,2.0,300.48562999999996,6093.0166,0.0,0.0,-0.028629985459364682,0.0,0.0,0.0,-0.5095195812956674,-0.5319711972764695,-0.8106341353358603,0.004812823477738696,0.006479423828344343,-0.07777540682658501
2864,2.0,299.64771,6140.8174,0.0,0.0,-0.028639989879738814,0.0,0.0,0.0,-0.5295317773957174,-0.5125112528784226,-0.8246121231153802,0.004003330373472946,-0.015595020441858684,-0.05526342039157495
2865,2.0,300.18802999999997,5982.8277,0.0,0.0,-0.02864999430011317,0.0,0.0,0.0,-0.5024397799319456,-0.5070327311777345,-0.8091577083501482,0.00929573414146753,0.025167018844291372,-0.05202349949456965
2866,2.0,299.34247,5812.8639,0.0,0.0,-0.028659998720487412,0.0,0.0,0.0,-0.5038074345194224,-0.4891938146871705,-0.7739642190493213,0.008990897747557522,0.004411016617458447,-0.041127138628432564
2867,2.0,299.18365,5906.071,0.0,0.0,-0.028670003140861544,0.0,0.0,0.0,-0.49917211928695254,-0.49284439267745456,-0.8032815873102203,0.004301549332304866,-0.013141641014478988,-0.05581842002784914
2868,2.0,299.68998,6078.0576,0.0,0.0,-0.028680007561235454,0.0,0.0,0.0,-0.5246429571207285,-0.5202299489601985,-0.8027048250882982,-0.008298045739153352,-0.036465923710156466,-0.06447286980222684
2869,2.0,299.62916,6039.4633,0.0,0.0,-0.028690011981609698,0.0,0.0,0.0,-0.5092184534984485,-0.5109647495157945,-0.8156628449196552,0.002578355417238867,-0.002342798377716198,-0.06193636738964354
2870,2.0,300.3058,5887.5536,0.0,0.0,-0.02870001640198394,0.0,0.0,0.0,-0.5222362044232005,-0.4711410011004965,-0.7962920867954103,0.010880486276820388,-0.0014433045492180687,-0.053777662385692045
2871,2.0,300.47336,5771.5772,0.0,0.0,-0.028709987913080548,0.0,0.0,0.0,-0.47829133480367947,-0.4875243635574085,-0.7885996440237252,-0.02210829644941898,0.0019731676796614877,-0.050114298192396156
2872,2.0,299.99318,5944.0564,0.0,0.0,-0.02871999233345468,0.0,0.0,0.0,-0.5128198989913835,-0.49394359678343747,-0.8000812267368692,-0.00959068009982643,-0.014026948024351988,-0.05549791483571774
2873,2.0,300.1457,6196.8943,0.0,0.0,-0.028729996753828813,0.0,0.0,0.0,-0.5405756461981626,-0.5042959730551375,-0.8388294912310252,-0.010675450052834889,0.015839134682450885,-0.04013037816055996
2874,2.0,299.70792,5972.5732,0.0,0.0,-0.028740001174203167,0.0,0.0,0.0,-0.5109124050156285,-0.5122864836087395,-0.7923142188903252,0.014545587180787684,0.012767998960603386,-0.08038109800899672
2875,2.0,298.94485,5796.1721,0.0,0.0,-0.0287500055945773,0.0,0.0,0.0,-0.4846232967985955,-0.4893942152919486,-0.7878740758921172,-0.0019111698444677784,0.00026720489314606974,-0.06032712155432334
2876,2.0,299.18589,5944.2088,0.0,0.0,-0.02876001001495132,0.0,0.0,0.0,-0.5075097693248145,-0.5168850685250845,-0.7824962205888643,0.008667231417764142,-0.005625613089879785,-0.07319135799617464
2877,2.0,299.30304,6049.2418,0.0,0.0,-0.028770014435325453,0.0,0.0,0.0,-0.5167948284711785,-0.5140157063619005,-0.8080079329316742,-0.006727966985123644,0.0072702739413701735,-0.04382237477518166
2878,2.0,299.60922999999997,6006.7488,0.0,0.0,-0.02877998594642217,0.0,0.0,0.0,-0.5156533414385225,-0.5128101819229245,-0.7974381233210153,0.018530857891103283,0.002426973420498628,-0.06639930040910073
2879,2.0,299.70212999999995,5809.0831,0.0,0.0,-0.028789990366796303,0.0,0.0,0.0,-0.4765356966204115,-0.5143857959609255,-0.7748947068811533,-0.018528043082325484,-0.003828761972044387,-0.06247527762757984
2880,2.0,299.54776,5735.8846,0.0,0.0,-0.028799994787170435,0.0,0.0,0.0,-0.46210341815855654,-0.4935300083576195,-0.7879322668453603,-0.007811200243030442,-0.017404754021465484,-0.08458273814566633
2881,2.0,299.67092,5937.222,0.0,0.0,-0.028809999207544568,0.0,0.0,0.0,-0.48943238442321557,-0.5025407401719095,-0.8127941211040343,-0.016666023771058483,0.014729705869708785,-0.07648369837385334
2882,2.0,300.19521000000003,6023.0165,0.0,0.0,-0.0288200036279187,0.0,0.0,0.0,-0.5196858437889995,-0.5148618107254045,-0.7962989768960902,0.01894464390069078,-0.0006466767321345243,-0.06853810317068414
2883,2.0,300.15882,5895.7367,0.0,0.0,-0.028830008048292943,0.0,0.0,0.0,-0.5033129887356245,-0.4873571468934056,-0.8014866147580703,0.0033006247104962966,-0.0034659456848872066,-0.060720017386599136
2884,2.0,300.33423,5866.5664,0.0,0.0,-0.028840012468667076,0.0,0.0,0.0,-0.5047324406682135,-0.5079938900900935,-0.7705633666786833,0.008948279739076451,-0.013052777967458887,-0.05017635368152055
2885,2.0,300.48417,6051.9303,0.0,0.0,-0.028849983979763794,0.0,0.0,0.0,-0.5142394522489825,-0.5166747279368256,-0.8087215041820982,0.006241073156970964,0.02308274616333968,-0.044695881474390055
2886,2.0,300.51383,6289.3711,0.0,0.0,-0.028859988400137704,0.0,0.0,0.0,-0.5403151497299534,-0.5220045349203365,-0.8494920841533411,0.011627224242767688,0.016154627326337587,-0.04215220829084906
2887,2.0,300.33486,6203.5819,0.0,0.0,-0.028869992820512058,0.0,0.0,0.0,-0.5298108264732575,-0.5361851524548544,-0.8197380050993422,-0.014116275139917886,-0.002443429919347758,-0.05708972668981734
2888,2.0,299.81349,5861.9269,0.0,0.0,-0.02887999724088619,0.0,0.0,0.0,-0.4892619152263915,-0.4800272754050035,-0.8125902146539102,-0.002058883065245938,-0.016346623021536083,-0.048025117327960054
2889,2.0,299.98392,5777.595,0.0,0.0,-0.028890001661260323,0.0,0.0,0.0,-0.4810648840374075,-0.49230858602457456,-0.7828711535233672,-0.013771643449655386,-0.002107423925861548,-0.05701337424178194
2890,2.0,299.61845,5923.3401,0.0,0.0,-0.028900006081634566,0.0,0.0,0.0,-0.5144311693004034,-0.49821886372537355,-0.7878974515719243,0.0043975202274514555,-0.007046030751139094,-0.06066322573174424
2891,2.0,299.84451,5986.3136,0.0,0.0,-0.0289100105020087,0.0,0.0,0.0,-0.5058269027637285,-0.5128117625930805,-0.8010512009250982,-0.009552628708221052,-0.012563570686677886,-0.07083922758503743
2892,2.0,299.77092999999996,5798.7396,0.0,0.0,-0.02892001492238283,0.0,0.0,0.0,-0.4817383001863686,-0.5109777292495755,-0.7699560144362423,0.01096670271457929,0.0013412562812966887,-0.08941130854320911
2893,2.0,300.62414,5792.6252,0.0,0.0,-0.028929986433479327,0.0,0.0,0.0,-0.48098636728715854,-0.4980934132304925,-0.7817336485636043,0.014774557385385287,0.01065339666440839,-0.07623573783588153
2894,2.0,299.65366,6070.095,0.0,0.0,-0.02893999085385346,0.0,0.0,0.0,-0.5013997091017985,-0.5391425660517284,-0.8046150447068223,0.01089912197265959,0.014288372629652588,-0.07117052085098352
2895,2.0,300.35344,6315.0726,0.0,0.0,-0.028949995274227702,0.0,0.0,0.0,-0.5571425082481845,-0.5390990368274325,-0.8233828480940603,0.003482036907075287,-0.0020692247010665778,-0.05692449700926045
2896,2.0,300.29081,6146.0228,0.0,0.0,-0.028959999694601946,0.0,0.0,0.0,-0.5317496197446016,-0.5168363007977715,-0.8196515546008103,-0.01073129431884629,-0.0008540890073395222,-0.044270315419139956
2897,2.0,300.07867999999996,5823.7603,0.0,0.0,-0.02897000411497619,0.0,0.0,0.0,-0.4803849526903035,-0.49742762685478453,-0.7924651222277183,0.006211047212782634,0.018080659725922182,-0.052509991265082656
2898,2.0,299.95378999999997,5929.3569,0.0,0.0,-0.02898000853535032,0.0,0.0,0.0,-0.4839090973331095,-0.5061202488001795,-0.8123471055574172,-0.005672109921068665,0.007361818149479883,-0.061021903094892936
2899,2.0,300.70877,6130.1867,0.0,0.0,-0.02899001295572423,0.0,0.0,0.0,-0.5029030784076695,-0.5221641927385935,-0.8383564250243373,-0.004949062046434395,-0.013096696279793289,-0.05172463631132415
2900,2.0,300.10123,6086.2169,0.0,0.0,-0.02899998446682117,0.0,0.0,0.0,-0.5089642290483585,-0.5208106425925085,-0.8202830931231382,0.0036181761772611865,-0.030456735574345768,-0.058053824027466346
2901,2.0,299.48874,5874.6119,0.0,0.0,-0.02900998888719508,0.0,0.0,0.0,-0.5012254300845985,-0.48808458953769857,-0.7964253089185582,0.025010754400619277,-0.0023558830842075576,-0.05074119704251625
2902,2.0,299.99047,5894.5642,0.0,0.0,-0.029019993307569325,0.0,0.0,0.0,-0.5169652267404955,-0.49784627139860155,-0.7769888415253283,-0.0019180059389174483,-0.005327796290012555,-0.05687917331903735
2903,2.0,299.62899,6188.9765,0.0,0.0,-0.029029997727943457,0.0,0.0,0.0,-0.5268631198123415,-0.5305172644429775,-0.8239139330014742,-0.0068315266168941825,-0.003923764909370446,-0.06860812787184503
2904,2.0,299.53134,6282.5489,0.0,0.0,-0.02904000214831759,0.0,0.0,0.0,-0.5571221621861765,-0.5229108364722814,-0.8297050119605092,-0.01148369736610269,0.0027395451683220576,-0.05368395093694345
2905,2.0,299.04226,6112.6349,0.0,0.0,-0.029050006568691944,0.0,0.0,0.0,-0.5121761406728494,-0.5217650025966966,-0.8241472237044982,0.01250959688035109,0.006991183016601044,-0.059996827352975846
2906,2.0,299.4303,5905.5188,0.0,0.0,-0.029060010989066076,0.0,0.0,0.0,-0.5031259123696615,-0.49164089473867856,-0.8003634574197233,0.008658387568241322,0.01735395371445188,-0.05332969641048125
2907,2.0,299.94215,5903.3369,0.0,0.0,-0.029070015409440098,0.0,0.0,0.0,-0.5062172573647535,-0.5006414535219645,-0.7876083003908873,-0.0052053463326526845,-0.011201806122032188,-0.05182658548338575
2908,2.0,300.64616,6089.8371,0.0,0.0,-0.029079986920536705,0.0,0.0,0.0,-0.5255953007572175,-0.5159649665067776,-0.8095981276386143,0.0005888424226617224,-0.0002708531203961218,-0.06116443901296014
2909,2.0,300.33268,6143.2669,0.0,0.0,-0.029089991340910948,0.0,0.0,0.0,-0.5135928973601726,-0.5223587975527995,-0.8314480554450343,0.0015730744279503584,-0.002066207343593788,-0.06838113147844224
2910,2.0,300.09562,5913.4009,0.0,0.0,-0.02909999576128508,0.0,0.0,0.0,-0.48410931555286957,-0.5047840860258106,-0.8086328245333463,0.005513470419162165,0.003267344409636787,-0.08136165356802001
2911,2.0,300.48759,5853.4946,0.0,0.0,-0.029110000181659212,0.0,0.0,0.0,-0.46834472466702554,-0.5115573893667835,-0.7994140927385283,-0.010302258895253791,-0.02374582108178008,-0.07652306415348842
2912,2.0,300.69299,5952.0517,0.0,0.0,-0.029120004602033345,0.0,0.0,0.0,-0.49599745473613754,-0.5125837306580755,-0.8006939289398383,-0.006516790262882124,-0.003316407094053897,-0.06868593433377393
2913,2.0,300.47042999999996,6062.0435,0.0,0.0,-0.029130009022407477,0.0,0.0,0.0,-0.5340850396350895,-0.4947754751155375,-0.8138493298906753,0.004610602163856006,-0.007967447664100862,-0.04547680548546126
2914,2.0,299.89759,6167.7628,0.0,0.0,-0.02914001344278172,0.0,0.0,0.0,-0.5475633836577986,-0.5076701566831435,-0.8196123316894393,0.0002666074302246047,0.012575515892106788,-0.05005266117556305
2915,2.0,299.85400000000004,6048.1978,0.0,0.0,-0.029149984953878327,0.0,0.0,0.0,-0.5261086436553805,-0.5009804566079215,-0.8114119871726282,-0.005710232138856035,-0.003873734165807796,-0.04148291505654496
2916,2.0,300.27666,6049.6553,0.0,0.0,-0.02915998937425257,0.0,0.0,0.0,-0.5228539120816635,-0.5071117545530335,-0.8089784948049612,0.002037005779686818,0.005938853582769214,-0.047752567236561454
2917,2.0,299.41963,6260.4994,0.0,0.0,-0.02916999379462648,0.0,0.0,0.0,-0.5358611657353796,-0.5257320591232145,-0.8414422579388853,0.002278572405552588,0.017254859881172084,-0.04751642727425626
2918,2.0,299.48156,6345.5224,0.0,0.0,-0.029179998215000835,0.0,0.0,0.0,-0.5532973659736985,-0.5197926808795434,-0.8557903049199271,0.013025722163288686,0.012364165093498088,-0.04483335418170756
2919,2.0,299.96715,6105.7176,0.0,0.0,-0.029190002635374968,0.0,0.0,0.0,-0.5213232559505996,-0.5138269885307755,-0.8208354360176502,-0.001154313360371859,-0.01010047540673931,-0.05299340275529165
2920,2.0,300.29122,5783.9812,0.0,0.0,-0.0292000070557491,0.0,0.0,0.0,-0.48407833036481157,-0.4830155728649255,-0.7910919758246993,-0.012836514932365387,-0.0012066160133087287,-0.05375336870129445
2921,2.0,299.87419,5850.6651,0.0,0.0,-0.029210011476123343,0.0,0.0,0.0,-0.4854306646107765,-0.49195373570705353,-0.8010716888421202,-0.007937144190710142,0.0004402510990819005,-0.07070023804232023
2922,2.0,300.7778,6095.3671,0.0,0.0,-0.029220015896497475,0.0,0.0,0.0,-0.5273463083875285,-0.5124883027636574,-0.8130047960648262,-0.009924570325778832,0.016500781931500383,-0.06426194862166054
2923,2.0,299.96621,6113.2673,0.0,0.0,-0.029229987407594193,0.0,0.0,0.0,-0.5066236922448656,-0.5372481024722594,-0.8144088161983922,0.0075914257897153935,-0.011734565931861488,-0.08067863079486091
2924,2.0,299.8507,5978.5039,0.0,0.0,-0.029239991827968104,0.0,0.0,0.0,-0.5118910526247136,-0.5089251378595006,-0.7964997017409002,0.0034167127744532963,0.004566757920103915,-0.05956952762680465
2925,2.0,299.95949,5950.3635,0.0,0.0,-0.029249996248342236,0.0,0.0,0.0,-0.5013278291397045,-0.5156582455690065,-0.7917758588471933,0.014554877670954588,-0.0033183001492157263,-0.056759903649766345
2926,2.0,299.67217999999997,6124.7306,0.0,0.0,-0.02926000066871648,0.0,0.0,0.0,-0.5255098533762845,-0.5269701798179075,-0.8092851346827242,-0.0034914158539759163,0.00969180002800619,-0.05560536392932215
2927,2.0,299.48528999999996,6262.9732,0.0,0.0,-0.029270005089090723,0.0,0.0,0.0,-0.5441360246645445,-0.5271454619527065,-0.8325059797419433,-0.0016192539092079186,-0.008649498527764043,-0.059476685546641844
2928,2.0,299.93206000000004,6022.6148,0.0,0.0,-0.029280009509464966,0.0,0.0,0.0,-0.5039324594492615,-0.5180564160381875,-0.8087356288884923,-0.003108622631822167,0.009233105152786532,-0.07134294055425003
2929,2.0,299.50551,5680.7751,0.0,0.0,-0.029290013929839098,0.0,0.0,0.0,-0.4470574242436326,-0.4824376555378896,-0.7973186915317282,0.013817912502221788,0.0038593941437675464,-0.07205841570161194
2930,2.0,299.52757,5857.2245,0.0,0.0,-0.029299985440935594,0.0,0.0,0.0,-0.48590423744251454,-0.4958848623850255,-0.7986609034091943,-0.006780292132212734,0.01212005693240649,-0.08296991148449272
2931,2.0,300.1621,6111.6053,0.0,0.0,-0.02930998986130995,0.0,0.0,0.0,-0.5230783368463126,-0.5154947576653715,-0.8192023200364742,0.007280544041733753,-0.013548288677111987,-0.06756428369832564
2932,2.0,300.22171000000003,6120.155,0.0,0.0,-0.02931999428168386,0.0,0.0,0.0,-0.5360860971250785,-0.5033507424343505,-0.8209374601702192,-0.02221275341547808,0.0003052174772726197,-0.055792660170556854
2933,2.0,300.5143,6057.3655,0.0,0.0,-0.029329998702058102,0.0,0.0,0.0,-0.5211095919020124,-0.5001120303447145,-0.8200662576017382,0.0059680334631240445,0.0019516758344404082,-0.05091129133680325
2934,2.0,300.32726,6125.8363,0.0,0.0,-0.029340003122432234,0.0,0.0,0.0,-0.5310232612779154,-0.5151880975226065,-0.8158899041345642,-0.004683198392445696,0.004593808556698606,-0.05143651357913865
2935,2.0,300.03612000000004,6300.0419999999995,0.0,0.0,-0.029350007542806367,0.0,0.0,0.0,-0.5312457000723685,-0.5368906278369795,-0.8469191381744111,0.016738141846925982,-0.013990119422967287,-0.05737123289884985
2936,2.0,299.69194,6357.0662,0.0,0.0,-0.02936001196318072,0.0,0.0,0.0,-0.5694137775592644,-0.5308407141398995,-0.8321348971578203,0.004639859051218435,-0.0035704696267779166,-0.037990222710093065
2937,2.0,299.53415,6197.8791,0.0,0.0,-0.02937001638355463,0.0,0.0,0.0,-0.5291726106327705,-0.5256665626367505,-0.8291613120893502,0.014873720119671884,0.006824820522432343,-0.04487504638357226
2938,2.0,299.82256,5934.1337,0.0,0.0,-0.02937998789465135,0.0,0.0,0.0,-0.5056570617819666,-0.4951790019678625,-0.8029924057316802,0.0005764097628747144,0.01133276160470649,-0.033798830584934866
2939,2.0,299.96207000000004,6026.1029,0.0,0.0,-0.02938999231502548,0.0,0.0,0.0,-0.4815592588936985,-0.5307086572543666,-0.8195168835300192,-0.0008309916673349923,-0.005278418991439395,-0.07636051350619592
2940,2.0,299.59659,6196.7553,0.0,0.0,-0.029399996735399725,0.0,0.0,0.0,-0.5130648319380565,-0.5321456688111885,-0.8384483977359143,-0.012336587465526386,0.00912661418847669,-0.06841735719601744
2941,2.0,299.87248,6107.7921,0.0,0.0,-0.029410001155773857,0.0,0.0,0.0,-0.48937460890251355,-0.5338928463561214,-0.8333488315726262,-0.0006410290483296414,0.003229454935397387,-0.08523829373511461
2942,2.0,301.18387,5926.4819,0.0,0.0,-0.02942000557614799,0.0,0.0,0.0,-0.5021616731769984,-0.5077648449049885,-0.7915760053974692,-0.0052916284290180655,0.0056233506037314945,-0.07682924198920582
2943,2.0,301.16486000000003,5880.7943,0.0,0.0,-0.029430009996522122,0.0,0.0,0.0,-0.5007819102508265,-0.5031957658315556,-0.7836369375514443,-0.006636808825302035,-0.006400015721982374,-0.07418931916541573
2944,2.0,300.68861,6108.3296,0.0,0.0,-0.029440014416896254,0.0,0.0,0.0,-0.5326940600303105,-0.5141677546719066,-0.8099178587076692,-0.018222230016644084,0.016549360181044682,-0.055432884444299745
2945,2.0,299.7632,6330.8605,0.0,0.0,-0.029449985927992972,0.0,0.0,0.0,-0.5478209518332184,-0.5368745374253915,-0.8397280211547032,0.0003356266022512667,0.003669857707886757,-0.05072698418336355
2946,2.0,299.83191,6293.846,0.0,0.0,-0.029459990348367104,0.0,0.0,0.0,-0.5269071860591905,-0.5358614798429105,-0.8504033404982753,0.005853735609443724,0.0073242957757517135,-0.05918236375034454
2947,2.0,300.31785,6053.331999999999,0.0,0.0,-0.029469994768741348,0.0,0.0,0.0,-0.5132848389322695,-0.5279321088003425,-0.7988448285673463,0.01085431301348729,-0.022199668303686682,-0.06340324651966324
2948,2.0,299.89623,5983.0734,0.0,0.0,-0.029479999189115258,0.0,0.0,0.0,-0.5107240519545396,-0.4956102310779215,-0.8123706534897412,0.008392510438026291,-0.010571927303367989,-0.05709545763238295
2949,2.0,299.79642,6159.4121,0.0,0.0,-0.029490003609489612,0.0,0.0,0.0,-0.5390210672322374,-0.5139174818972065,-0.8193689186179162,0.004965626152444145,0.00013853121929946686,-0.048147269693765544
2950,2.0,299.4561,6158.5594,0.0,0.0,-0.029500008029863745,0.0,0.0,0.0,-0.5358058422799195,-0.5023441899175115,-0.8338982461743492,-0.006206872318395604,0.01142495723130549,-0.04516756459469155
2951,2.0,299.61432,6048.0308,0.0,0.0,-0.029510012450237877,0.0,0.0,0.0,-0.5044214843450244,-0.4989167701292515,-0.8351120691316443,-0.008743622774603381,-0.002340587972623048,-0.06436788189311535
2952,2.0,300.068,6060.9363,0.0,0.0,-0.029519983961334373,0.0,0.0,0.0,-0.5034529895019415,-0.5170392953228055,-0.8218810087958403,-0.006683627870022714,0.013134967749320386,-0.06261946311680984
2953,2.0,300.22871000000004,6182.3173,0.0,0.0,-0.029529988381708727,0.0,0.0,0.0,-0.5281680744836305,-0.5279996723170105,-0.8231023298038752,0.004658792946562066,-0.0026978332080804072,-0.06938130558590173
2954,2.0,300.00773,6332.6245,0.0,0.0,-0.02953999280208297,0.0,0.0,0.0,-0.5596956857176635,-0.5348890839869425,-0.8303749425291262,0.007136047890023092,-0.012416988860961388,-0.04739031614031005
2955,2.0,300.67127999999997,6264.3937,0.0,0.0,-0.02954999722245688,0.0,0.0,0.0,-0.5434649592558155,-0.5362287019441525,-0.8245256118218423,0.006743753320356634,-0.02202467697166638,-0.05821057787093674
2956,2.0,300.28967,5999.3482,0.0,0.0,-0.029560001642831013,0.0,0.0,0.0,-0.5124071515631485,-0.5008125002713456,-0.8104324175059522,-0.0007376436409997593,-0.006014267051936944,-0.03143102012850017
2957,2.0,300.20212999999995,6008.1317,0.0,0.0,-0.029570006063205256,0.0,0.0,0.0,-0.4796002006203545,-0.5264841946724444,-0.8202376184586502,0.0014961246689810085,0.016488305783019085,-0.07960300603195503
2958,2.0,300.00515,6266.6581,0.0,0.0,-0.0295800104835795,0.0,0.0,0.0,-0.5136233556581785,-0.5388922223495215,-0.8523919958070403,0.0001226360407407349,0.0035705397436848365,-0.06115550721332864
2959,2.0,299.99217999999996,6207.8245,0.0,0.0,-0.029590014903953743,0.0,0.0,0.0,-0.5144012277599485,-0.5339077310000905,-0.8387146798621942,0.004717238124255155,0.002148511622716588,-0.095389858022496
2960,2.0,299.63568,5970.4074,0.0,0.0,-0.02959998641505024,0.0,0.0,0.0,-0.4980055847118245,-0.5088988237544035,-0.8079503397959903,0.007345580816627383,-0.005814564576477844,-0.06043233035195664
2961,2.0,299.91527,5824.3143,0.0,0.0,-0.02960999083542437,0.0,0.0,0.0,-0.49217229375362354,-0.4850350715067345,-0.7932387386790682,0.01088761246477369,-0.006419927302347494,-0.07427598041996852
2962,2.0,300.0084,6060.0898,0.0,0.0,-0.029619995255798504,0.0,0.0,0.0,-0.5106752538297235,-0.5059313587165375,-0.8255093763439322,-0.004332355276420176,-0.015846934681720683,-0.048725592320841546
2963,2.0,300.01662999999996,6342.8872,0.0,0.0,-0.029629999676172636,0.0,0.0,0.0,-0.5395557390450055,-0.5377335505951695,-0.8507900271339381,-0.001093498292019879,-0.011244742595019688,-0.07208750307223263
2964,2.0,299.78379,6337.6491,0.0,0.0,-0.02964000409654688,0.0,0.0,0.0,-0.5387031802783645,-0.5305243673261785,-0.8572595276974281,-0.01059284483843239,-0.0023800072518634276,-0.053411559925810544
2965,2.0,299.42591,6139.7394,0.0,0.0,-0.02965000851692101,0.0,0.0,0.0,-0.5318771271371855,-0.5241164014412615,-0.8103339397287332,-0.003000518978653167,0.01135991974713679,-0.05912014310145385
2966,2.0,299.26922,6091.1876,0.0,0.0,-0.029660012937295144,0.0,0.0,0.0,-0.5422734176682193,-0.49583035966214656,-0.8134651561152603,0.0014379026089599387,0.0015358712280036885,-0.04720951685871655
2967,2.0,299.0968,6269.988,0.0,0.0,-0.029669984448391862,0.0,0.0,0.0,-0.5482715542851895,-0.5187219896313745,-0.8389262363505732,-0.009270522249829312,0.006535873105990454,-0.04126238623853046
2968,2.0,299.43606,6249.6049,0.0,0.0,-0.029679988868765994,0.0,0.0,0.0,-0.5392668107789904,-0.5118829060939095,-0.8485741099602442,0.016363272747179285,0.00888552287823283,-0.043527174491047656
2969,2.0,300.18039,6039.1033,0.0,0.0,-0.029689993289140126,0.0,0.0,0.0,-0.49557077511902753,-0.5088085127729906,-0.8313573290310802,0.0029216358371680073,0.02070833944875398,-0.06581108440804834
2970,2.0,300.40201,5955.64,0.0,0.0,-0.02969999770951426,0.0,0.0,0.0,-0.4846972336583925,-0.5115792147739375,-0.8140893992368682,5.4012242956093344e-05,-0.008399138106930392,-0.08178927348122284
2971,2.0,300.36672999999996,6098.8588,0.0,0.0,-0.029710002129888502,0.0,0.0,0.0,-0.5194647019546745,-0.5306210415182195,-0.8038150432228682,-0.0014646731832269884,-0.0017809822027192582,-0.08268125983575501
2972,2.0,300.24672999999996,6286.2991,0.0,0.0,-0.029720006550262634,0.0,0.0,0.0,-0.5474133010529865,-0.5365236083857574,-0.8269410379402262,-0.006277382569004425,-0.012802481888006588,-0.06627344866718014
2973,2.0,300.11657,6290.6988,0.0,0.0,-0.029730010970636767,0.0,0.0,0.0,-0.5315376478236815,-0.5411163975115305,-0.8395613111157502,-0.002194489872504288,0.007536097673304932,-0.06694115312532743
2974,2.0,299.71283999999997,6072.4404,0.0,0.0,-0.0297400153910109,0.0,0.0,0.0,-0.49876288783656453,-0.5299939410313295,-0.8171134137628152,-0.005668928011779635,-0.02047513689848868,-0.05328761106757775
2975,2.0,300.24933,5967.3111,0.0,0.0,-0.029749986902107617,0.0,0.0,0.0,-0.4786086746024985,-0.5181301806454676,-0.8171747255263663,-0.014309058130444087,0.011037898732855789,-0.07125351008717393
2976,2.0,299.90708,6141.7062,0.0,0.0,-0.02975999132248175,0.0,0.0,0.0,-0.5130223058313594,-0.5283852747750665,-0.8255177559222592,0.005071576243850605,0.008812003882777072,-0.06051001725037374
2977,2.0,299.33034,6332.778,0.0,0.0,-0.02976999574285588,0.0,0.0,0.0,-0.5511551424797775,-0.5434444105437876,-0.8304068497747752,0.006823478168699864,0.02941892631842197,-0.059195733585414044
2978,2.0,299.5447,6238.8905,0.0,0.0,-0.029780000163230125,0.0,0.0,0.0,-0.5414508612370396,-0.5300484234892064,-0.8249676421779673,0.004164226788652186,0.0013088777730261786,-0.05925202570796965
2979,2.0,299.63604,6053.946999999999,0.0,0.0,-0.029790004583604035,0.0,0.0,0.0,-0.5092549102370465,-0.5074676181206544,-0.8235262128507093,-0.01029479630826729,-0.004083036172714296,-0.05866439840522534
2980,2.0,299.71859,6096.1098,0.0,0.0,-0.02980000900397839,0.0,0.0,0.0,-0.4976258895018515,-0.5173369476721815,-0.8381023120317582,-0.0013656362946028087,-0.013838496678003288,-0.07667457949394182
2981,2.0,299.85618,6275.1714,0.0,0.0,-0.02981001342435252,0.0,0.0,0.0,-0.5283263644142525,-0.5285146262828325,-0.8506544137405543,0.0015214187352023385,0.000949913781689191,-0.05075414435229405
2982,2.0,300.53897,6320.294,0.0,0.0,-0.029819984935449018,0.0,0.0,0.0,-0.5505901947540215,-0.5387739557978495,-0.8318473975744463,0.002994164583301037,-0.0039457036992106365,-0.07164032337909942
2983,2.0,300.20328,6131.4804,0.0,0.0,-0.02982998935582315,0.0,0.0,0.0,-0.5436043824695754,-0.5084134668240026,-0.8117990892408322,-0.017018820230626786,-0.0005260517699272675,-0.039349156253959364
2984,2.0,300.84511000000003,6035.8968,0.0,0.0,-0.029839993776197504,0.0,0.0,0.0,-0.5359154050132325,-0.49270434124863255,-0.8061421645950373,0.0027786460843810174,0.0027361526043372373,-0.057452991036168743
2985,2.0,300.1581,6187.746,0.0,0.0,-0.029849998196571748,0.0,0.0,0.0,-0.5253695790324405,-0.5174949741577775,-0.8380557025271581,-0.01042727673234209,0.016561304373223486,-0.026461628232059373
2986,2.0,299.67474,6383.951999999999,0.0,0.0,-0.029860002616945658,0.0,0.0,0.0,-0.5330053304610305,-0.5419133187151806,-0.8656433414098462,0.006355204027034805,-0.005429190302344364,-0.07072435035494994
2987,2.0,299.97854,6457.2607,0.0,0.0,-0.02987000703731979,0.0,0.0,0.0,-0.5435538922170925,-0.5442341680692305,-0.8750579547139962,-0.0061863678853969735,-0.001078497022964369,-0.06739163398728644
2988,2.0,299.78537,6146.5299,0.0,0.0,-0.029880011457694033,0.0,0.0,0.0,-0.5186793115371625,-0.5336135946285615,-0.8160987045826712,0.013001259266124386,-0.0068400410588094936,-0.08743269048993473
2989,2.0,299.59708,5971.6748,0.0,0.0,-0.029890015878068277,0.0,0.0,0.0,-0.5067325153056055,-0.5183293653501255,-0.7901781559570122,0.01066517772332109,0.02090899539255718,-0.07919149882184243
2990,2.0,299.73145,6163.2191,0.0,0.0,-0.029899987389164773,0.0,0.0,0.0,-0.5134846518519895,-0.5352287051554604,-0.8247513436791202,0.01060462691059519,-0.01150097328030769,-0.07367399333680702
2991,2.0,299.71236,6220.4153,0.0,0.0,-0.029909991809539016,0.0,0.0,0.0,-0.5129273136344845,-0.5351638875465635,-0.8427597262489092,-0.008455365280154581,0.008514466233312392,-0.06409746773292754
2992,2.0,300.38312,6052.496999999999,0.0,0.0,-0.02991999622991315,0.0,0.0,0.0,-0.48354339510701755,-0.5213347158092305,-0.8349298361011592,0.004019426965886556,0.003059692885818177,-0.06224809175640835
2993,2.0,300.50063,6039.148,0.0,0.0,-0.02993000065028728,0.0,0.0,0.0,-0.5037433768481004,-0.5117238156957085,-0.8202830120631303,-0.011480154030502988,0.02315132191685758,-0.05817784381320614
2994,2.0,299.91424,6228.6422,0.0,0.0,-0.029940005070661413,0.0,0.0,0.0,-0.5458469987834045,-0.5294613666462685,-0.8180433240420902,-0.00013826350849054585,-0.02226253033989068,-0.05213535318635875
2995,2.0,300.16037,6517.1917,0.0,0.0,-0.029950009491035656,0.0,0.0,0.0,-0.5912498745018194,-0.5276610340010895,-0.8621526238878392,-0.01959737657536048,-0.006161661098933604,-0.03972752106655106
2996,2.0,300.30338,6552.5534,0.0,0.0,-0.02996001391140979,0.0,0.0,0.0,-0.5748251005133204,-0.5462033588435745,-0.8707841569847052,0.013672230442594089,-0.002187871424176098,-0.05563759642825324
2997,2.0,299.41699,6251.0558,0.0,0.0,-0.029969985422506507,0.0,0.0,0.0,-0.5162691239217956,-0.5079660257123435,-0.8759297145700322,0.005731368738592055,0.010468586938919089,-0.03250651418214317
2998,2.0,299.78575,6123.2766,0.0,0.0,-0.02997998984288064,0.0,0.0,0.0,-0.4965648849246385,-0.5231878489171204,-0.8415704543415372,0.017511298282730584,0.0007759547488707713,-0.08029892139938652
2999,2.0,299.6409,6248.8316,0.0,0.0,-0.02998999426325477,0.0,0.0,0.0,-0.5406643157144134,-0.5185602141204085,-0.8402642533726252,0.01006834149704294,-0.004061663080404936,-0.054669986152507545
3000,2.0,299.592,6320.0487,0.0,0.0,-0.029999998683628903,0.0,0.0,0.0,-0.5606358399554495,-0.5183583645679875,-0.8421427785280212,0.014909095720413186,0.004222715232124545,-0.07341675852066994
3001,2.0,299.79296,6099.9614,0.0,0.0,-0.030010003104003036,0.0,0.0,0.0,-0.5369303168433965,-0.5110228391440275,-0.8062828037089173,-0.005564999151672655,0.00932861613371273,-0.05273982779851575
3002,2.0,300.3809,5877.4061,0.0,0.0,-0.03002000752437728,0.0,0.0,0.0,-0.4826652517753516,-0.5014928774484936,-0.8024265663458362,-0.012016993185234887,-0.016418772508156685,-0.07312057538393893
3003,2.0,300.14103,6200.8503,0.0,0.0,-0.03003001194475141,0.0,0.0,0.0,-0.4955208725516025,-0.5385589441266295,-0.8508238392897752,-0.02333545580453018,-0.006807169807015353,-0.05289028226611445
3004,2.0,300.05592,6551.0024,0.0,0.0,-0.030040016365125544,0.0,0.0,0.0,-0.5473127562455635,-0.5640536440002605,-0.8799747710892482,-0.0055502077267128545,0.004006503872786147,-0.06913610210145203
3005,2.0,299.51262,6397.0453,0.0,0.0,-0.03004998787622204,0.0,0.0,0.0,-0.5494455565135544,-0.5439579358269685,-0.8511385547708352,0.00012772605195557988,0.019397580880892183,-0.06630120969341993
3006,2.0,299.6166,6120.5114,0.0,0.0,-0.030059992296596394,0.0,0.0,0.0,-0.5269558625939945,-0.5244520709343895,-0.8090746927694552,-0.016423674612140483,-0.01013626725062169,-0.07993873429358883
3007,2.0,300.64975,6086.0944,0.0,0.0,-0.030069996716970526,0.0,0.0,0.0,-0.5163949391867125,-0.5088062025627625,-0.8248195658083532,-0.0049908567892092155,-0.002555891155896818,-0.07182729335380193
3008,2.0,300.49345,6138.9053,0.0,0.0,-0.03008000113734466,0.0,0.0,0.0,-0.5043402419520066,-0.5267176576279855,-0.8350160130221642,0.01229956533337259,0.0026536935005991576,-0.06456935755624944
3009,2.0,300.00442000000004,6250.8971,0.0,0.0,-0.03009000555771868,0.0,0.0,0.0,-0.5121484789451195,-0.5250944613652885,-0.8628736830565021,0.029313622275279273,0.011521855351618591,-0.056940065597046945
3010,2.0,299.83287,6189.0488,0.0,0.0,-0.030100009978092812,0.0,0.0,0.0,-0.5257562859331055,-0.5187118064678695,-0.8368481921179861,0.0073786779218688115,-0.028019224656782176,-0.05324853609072135
3011,2.0,299.9144,6106.3486,0.0,0.0,-0.030110014398467166,0.0,0.0,0.0,-0.5254725860376065,-0.5117583067291125,-0.8189465959762362,-0.0030532265263299974,-0.023443936386736378,-0.060292363022892946
3012,2.0,300.00087,6353.7624,0.0,0.0,-0.030119985909563662,0.0,0.0,0.0,-0.5674531386157645,-0.5297193299892275,-0.8342126475478782,0.0025810581605556072,-0.011626226191419188,-0.05122481523574565
3013,2.0,299.54438999999996,6627.9075,0.0,0.0,-0.030129990329937795,0.0,0.0,0.0,-0.5863973893754164,-0.5495666905630094,-0.8787543012112973,0.0005946944891442764,0.0004834985182600886,-0.04213151671055696
3014,2.0,299.24435,6528.2648,0.0,0.0,-0.030139994750311927,0.0,0.0,0.0,-0.5481065566389054,-0.5565121552284734,-0.8798107664280622,-0.012062101053186688,-0.005328229049130265,-0.05126297322126155
3015,2.0,299.52186,6172.9454,0.0,0.0,-0.03014999917068628,0.0,0.0,0.0,-0.5042907548171225,-0.5227859736624585,-0.8493445346737792,-0.013938823636654787,0.0035039471232626565,-0.056751602091697044
3016,2.0,299.60623,6049.7895,0.0,0.0,-0.030160003591060525,0.0,0.0,0.0,-0.5082286804032655,-0.5097088462818465,-0.8210474079385702,-0.016928849701247382,0.03124811733969907,-0.06636175341339513
3017,2.0,300.12073,6246.8231,0.0,0.0,-0.030170008011434435,0.0,0.0,0.0,-0.5505475977198174,-0.5305387048150935,-0.8177919265597793,-0.007052502176877773,0.02856831603172327,-0.05791503713476914
3018,2.0,300.42503999999997,6266.677,0.0,0.0,-0.030180012431808567,0.0,0.0,0.0,-0.5547126331833744,-0.5225323571624285,-0.8276683387295052,-0.014580604090993586,0.0035786063290559464,-0.07504863023072313
3019,2.0,299.82731,6115.2363,0.0,0.0,-0.030189983942905285,0.0,0.0,0.0,-0.5199036013679905,-0.5181006646700546,-0.8208748717115423,-0.003076114123563827,-0.012614614173715488,-0.07693969435610663
3020,2.0,300.01788,6151.6392,0.0,0.0,-0.030199988363279417,0.0,0.0,0.0,-0.4836969734246745,-0.5338525088696405,-0.8523952179423582,0.008134531997640802,-0.0006364959700322615,-0.07478341303029823
3021,2.0,299.45004,6302.3918,0.0,0.0,-0.03020999278365366,0.0,0.0,0.0,-0.5058729245832706,-0.5453248710068744,-0.8645719408866072,0.02196646879317168,0.001124980985876979,-0.07122935825779034
3022,2.0,299.99528,6515.1213,0.0,0.0,-0.030219997204027793,0.0,0.0,0.0,-0.5553380314100964,-0.5569375581504574,-0.8681585929280823,0.01139576549592449,-0.02011495891194188,-0.07167684800545414
3023,2.0,300.37934,6325.4377,0.0,0.0,-0.030230001624401925,0.0,0.0,0.0,-0.5592288915290945,-0.5248864005897544,-0.8386598225017802,0.005567392144433824,-0.01962646597248138,-0.06542019177122023
3024,2.0,299.8382,6023.3147,0.0,0.0,-0.030240006044776058,0.0,0.0,0.0,-0.5207867096251465,-0.5152428636905115,-0.7949077135812832,-0.00904204448478031,0.017757572772535982,-0.05818494568315704
3025,2.0,299.8577,6147.6674,0.0,0.0,-0.03025001046515019,0.0,0.0,0.0,-0.5191038126665576,-0.5197888811916686,-0.8298446783542932,0.0014881943657483487,0.008716556331307133,-0.062496260010650645
3026,2.0,300.77564,6454.9598,0.0,0.0,-0.030260014885524433,0.0,0.0,0.0,-0.5347053006838045,-0.5491515923945425,-0.8782897159079462,-0.014990840685480787,-0.008073181426610973,-0.053372052291161445
3027,2.0,300.45942,6368.5424,0.0,0.0,-0.03026998639662093,0.0,0.0,0.0,-0.5238802736379575,-0.5406139571844435,-0.8713836362738691,-0.006284173472499635,-0.0028271592832688976,-0.06851027425668764
3028,2.0,299.82752999999997,6174.9936,0.0,0.0,-0.030279990816995284,0.0,0.0,0.0,-0.5348838657489274,-0.5036631071751785,-0.8384968918857003,0.0004922346795622805,0.01927440209273538,-0.05129007259518605
3029,2.0,299.59229,6241.7295,0.0,0.0,-0.030289995237369416,0.0,0.0,0.0,-0.5491880693981425,-0.5153324552643536,-0.8328093873518871,0.0004986770351555917,0.01104880940993259,-0.05718038825576495
3030,2.0,299.99986,6415.8651,0.0,0.0,-0.030299999657743548,0.0,0.0,0.0,-0.5752165190269505,-0.5145097468456584,-0.8605365305083431,-0.007767328844175674,-0.005653205308652925,-0.04267361463330786
3031,2.0,299.75154,6534.5838,0.0,0.0,-0.03031000407811768,0.0,0.0,0.0,-0.5548392286508685,-0.5528143699160305,-0.8786966979431121,0.014215603033970787,-0.016761590480740184,-0.062036834176808844
3032,2.0,299.71027000000004,6441.1376,0.0,0.0,-0.030320008498491813,0.0,0.0,0.0,-0.5276527557477725,-0.5493440997810415,-0.8809481497978131,0.014373770361330687,0.001281059599480739,-0.051357147725305856
3033,2.0,300.18394,6246.021,0.0,0.0,-0.030330012918866056,0.0,0.0,0.0,-0.5125639013536185,-0.5358395632432476,-0.850230966391263,0.013980176399735988,-0.015428845398958484,-0.06497444076072803
3034,2.0,300.2851,6236.191,0.0,0.0,-0.030339984429962552,0.0,0.0,0.0,-0.5403215028080806,-0.5301004336168396,-0.8252244098858083,-0.01082631995297459,-0.030202834351037672,-0.061314189271739344
3035,2.0,300.76617000000005,6350.9168,0.0,0.0,-0.030349988850336684,0.0,0.0,0.0,-0.5657876695588955,-0.5395411786410684,-0.8251912766075382,-0.000986977882662133,-0.01047116870017389,-0.06889002620866623
3036,2.0,301.13212000000004,6270.066999999999,0.0,0.0,-0.030359993270710817,0.0,0.0,0.0,-0.5399378660552184,-0.5232023282610495,-0.8428035999782393,-0.007914170568542822,0.01908051567285028,-0.05638882207889345
3037,2.0,300.12871,5986.4292,0.0,0.0,-0.03036999769108517,0.0,0.0,0.0,-0.4725060415027156,-0.5142774795252355,-0.8329414645024222,0.00017822901059483384,0.015648008355838183,-0.09078227443201291
3038,2.0,300.21671000000003,6084.3317,0.0,0.0,-0.030380002111459303,0.0,0.0,0.0,-0.4770208711657945,-0.5185329475602175,-0.8539311024439381,-0.01810249526557718,0.007698569084439612,-0.07775895975096182
3039,2.0,300.43277,6306.195,0.0,0.0,-0.030390006531833436,0.0,0.0,0.0,-0.5114632685649945,-0.5496327747345314,-0.8558297608788212,0.004353875492644056,-0.003780600573591226,-0.08839442695485072
3040,2.0,299.6752,6397.5537,0.0,0.0,-0.030400010952207457,0.0,0.0,0.0,-0.5445960807399485,-0.5524409467241764,-0.8476595402874832,0.008091442118588163,0.01433221596147959,-0.06509777356290004
3041,2.0,299.72481,6437.8957,0.0,0.0,-0.03041001537258159,0.0,0.0,0.0,-0.5665570911548314,-0.5429878907112325,-0.8474145566783051,0.0017214148505404186,-0.0036316923256451265,-0.06236734217392744
3042,2.0,299.99605,6408.594,0.0,0.0,-0.030419986883678307,0.0,0.0,0.0,-0.5650101216971575,-0.5319803367923714,-0.8510620949182892,-0.021975273936540682,-0.016954302543759386,-0.034215162892023664
3043,2.0,300.25004,6285.4221,0.0,0.0,-0.03042999130405244,0.0,0.0,0.0,-0.5319626049156215,-0.5245603772375784,-0.8540883993894621,0.0012683369272501088,-0.01001621109662307,-0.05713604235188835
3044,2.0,299.76144,6381.1312,0.0,0.0,-0.030439995724426572,0.0,0.0,0.0,-0.5414858082329884,-0.5307253860135175,-0.8674933537074281,0.004818464342370405,0.018127016931247283,-0.04847046911791286
3045,2.0,299.19716,6452.9353,0.0,0.0,-0.030450000144800704,0.0,0.0,0.0,-0.5512516140217985,-0.5403966960980015,-0.8698828811532561,0.024192133432827678,-0.0031693256347130874,-0.06378710922729754
3046,2.0,299.70542,6292.0740000000005,0.0,0.0,-0.03046000456517506,0.0,0.0,0.0,-0.5567514747695925,-0.5202129060935166,-0.8356690020491092,-0.0044494475725512855,-0.008914851909002382,-0.054662105093229746
3047,2.0,300.15457999999995,6241.1626,0.0,0.0,-0.0304700089855493,0.0,0.0,0.0,-0.5309050656537505,-0.5368188897298994,-0.8294336433187273,0.006035906527697594,-0.0015862508335757683,-0.07158867903475254
3048,2.0,300.37322,6322.3903,0.0,0.0,-0.030480013405923212,0.0,0.0,0.0,-0.5396243259442745,-0.5251795946386905,-0.8570448605312422,-0.01052871725285349,0.01683707761319018,-0.050475048665249454
3049,2.0,300.62877000000003,6388.8606,0.0,0.0,-0.03048998491701993,0.0,0.0,0.0,-0.5221196097341935,-0.5394992706169325,-0.8804352121996902,-0.005705455069934574,0.015447527704302286,-0.07431552453162123
3050,2.0,299.95965,6387.9662,0.0,0.0,-0.030499989337394062,0.0,0.0,0.0,-0.5278770893199125,-0.5454615483128635,-0.8684435897837091,-0.02184522835245618,0.0037228865571702963,-0.07362747705121622
3051,2.0,299.76586000000003,6424.1873,0.0,0.0,-0.030509993757768195,0.0,0.0,0.0,-0.5560705504373904,-0.5406398457244984,-0.8560821209487272,0.013932106801741886,-0.004749433740882615,-0.08368348577466701
3052,2.0,299.98569,6312.6737,0.0,0.0,-0.030519998178142438,0.0,0.0,0.0,-0.5506765439275435,-0.5359819958098044,-0.8322366477328622,0.008463023627060404,0.017116529964269985,-0.05728752425508845
3053,2.0,299.43096,6157.3669,0.0,0.0,-0.03053000259851657,0.0,0.0,0.0,-0.5278719014794004,-0.5268099039170895,-0.8170039726195142,0.009748480934625162,-0.009355661501406902,-0.06515112219391514
3054,2.0,299.43547,6344.6291,0.0,0.0,-0.030540007018890702,0.0,0.0,0.0,-0.5353480153547355,-0.5304145614128415,-0.8628462543762953,-0.002957232731731147,-0.018438086738447483,-0.04999037466541586
3055,2.0,299.38932,6403.9596,0.0,0.0,-0.030550011439264835,0.0,0.0,0.0,-0.5268244237910225,-0.5517220457782265,-0.8680973318270362,0.0007762795461903263,-0.0025014887447777174,-0.07162943094052443
3056,2.0,299.32876,6119.3942,0.0,0.0,-0.030560015859638967,0.0,0.0,0.0,-0.49177681210709256,-0.5297689184491214,-0.8385973151031112,0.006287382942191384,0.014820388713908486,-0.07714367376023783
3057,2.0,300.64597000000003,6170.7935,0.0,0.0,-0.030569987370735685,0.0,0.0,0.0,-0.5220885941486325,-0.5339112672429395,-0.8197672677622302,0.001132249231494299,-0.01124479832377519,-0.08594102928896923
3058,2.0,300.93035,6519.7417,0.0,0.0,-0.030579991791109706,0.0,0.0,0.0,-0.5670464402906265,-0.5507499336322864,-0.8640423049268361,-0.016743323607937385,-0.012153310787438388,-0.07100135368053803
3059,2.0,300.34342999999996,6625.4744,0.0,0.0,-0.03058999621148406,0.0,0.0,0.0,-0.5748771005084524,-0.5546117844009215,-0.8844898844623551,0.0026413142188274176,0.006297679083082534,-0.07297470688629283
3060,2.0,300.17262,6485.5229,0.0,0.0,-0.030600000631858193,0.0,0.0,0.0,-0.5451969887117535,-0.5501702329850744,-0.8760697963963572,0.003045515997044027,0.01692524557064168,-0.05480289214162435
3061,2.0,299.91725,6345.0567,0.0,0.0,-0.030610005052232325,0.0,0.0,0.0,-0.5225917133532865,-0.5322912525855564,-0.8738558347953562,0.0016705251748679983,0.007217889012525182,-0.04910638488067286
3062,2.0,299.83265,6275.4976,0.0,0.0,-0.030620009472606458,0.0,0.0,0.0,-0.5237854942236034,-0.5244324949424575,-0.8593765921913661,-0.01165628830863609,-0.005570500998390644,-0.05068361201283305
3063,2.0,300.18567,6397.9986,0.0,0.0,-0.03063001389298059,0.0,0.0,0.0,-0.5601123949537895,-0.5423950583427245,-0.8423243732109432,0.010634957539088592,0.0022907493412793575,-0.060192955082082146
3064,2.0,299.73656,6395.2912,0.0,0.0,-0.030639985404077308,0.0,0.0,0.0,-0.5669824738118135,-0.5264255072266525,-0.8506008432077672,-0.0033856127851589666,-0.0007596686685559603,-0.04842501167867655
3065,2.0,299.37548,6189.0136,0.0,0.0,-0.03064998982445133,0.0,0.0,0.0,-0.5296021678801645,-0.5204785498722335,-0.8312248769780082,-0.009597451447594711,-0.017247665805462085,-0.06719366011649794
3066,2.0,299.94458,6206.316,0.0,0.0,-0.03065999424482546,0.0,0.0,0.0,-0.5069023968173715,-0.5309823867688815,-0.8486803289682272,-0.023850567837367775,-0.029342749162653874,-0.06497022361381184
3067,2.0,299.87798,6446.3732,0.0,0.0,-0.030669998665199594,0.0,0.0,0.0,-0.5281288211747565,-0.5462605061492145,-0.8851471696697242,-0.0030872499448128467,-0.00019255919397661282,-0.08612987681610702
3068,2.0,299.98683,6517.615,0.0,0.0,-0.030680003085573948,0.0,0.0,0.0,-0.5451416044612876,-0.5687156786378674,-0.8673349523192951,0.008463182099376044,0.017583105290817382,-0.07539615475002114
3069,2.0,300.62685,6276.3778,0.0,0.0,-0.03069000750594808,0.0,0.0,0.0,-0.5253877770042366,-0.5388526144031125,-0.8436217386389832,0.014074130015258486,-0.0024827680372551276,-0.08716611654762592
3070,2.0,300.5064,6246.5775,0.0,0.0,-0.0307000119263221,0.0,0.0,0.0,-0.5290513853908065,-0.5290844173440664,-0.8406677802249503,0.005591941471831655,-0.005316570796129684,-0.06778436972604643
3071,2.0,300.64943,6355.9619,0.0,0.0,-0.030710016346696234,0.0,0.0,0.0,-0.5582906320689954,-0.5331051761258845,-0.8406579111689761,-0.006055494070680734,-0.003835008962885916,-0.06395498754361584
3072,2.0,300.8411,6420.9636,0.0,0.0,-0.030719987857793063,0.0,0.0,0.0,-0.5347172266374814,-0.5537024734961795,-0.8633928926727441,0.007322862938785304,0.00969959445440044,-0.05514360255399985
3073,2.0,300.45982000000004,6423.5741,0.0,0.0,-0.030729992278167084,0.0,0.0,0.0,-0.5339984067515395,-0.5565147086187254,-0.8620930143844562,-0.012714765840099687,-0.016706766557579484,-0.06491415035327784
3074,2.0,300.24582999999996,6495.8214,0.0,0.0,-0.030739996698541217,0.0,0.0,0.0,-0.5601109054761425,-0.5523402397967374,-0.8621163495342591,-0.005946092140158604,-0.015030385810383589,-0.06515675991747154
3075,2.0,299.70086000000003,6510.9465,0.0,0.0,-0.03075000111891535,0.0,0.0,0.0,-0.5635125279168565,-0.5579487412202535,-0.8577039087937852,-0.006071956446380444,0.004729738894713885,-0.06598742234945153
3076,2.0,299.80575,6450.2472,0.0,0.0,-0.03076000553928948,0.0,0.0,0.0,-0.5603446622742124,-0.5387123096617654,-0.8616571040589351,-0.00046214526538768667,0.007481794054070582,-0.07429529803312503
3077,2.0,299.69329,6452.2536,0.0,0.0,-0.030770009959663835,0.0,0.0,0.0,-0.5526556746853685,-0.5365624057320865,-0.872105911342652,-0.01087126975391079,-0.001122556785012729,-0.05335436803716616
3078,2.0,299.71119,6244.8099,0.0,0.0,-0.03078001438003808,0.0,0.0,0.0,-0.5083523678429726,-0.5332649150041495,-0.8566489837171722,0.003945006988441876,-0.004993454255840565,-0.07163906086947484
3079,2.0,299.80689,6173.5834,0.0,0.0,-0.030789985891134575,0.0,0.0,0.0,-0.5128611281379525,-0.5177480232377515,-0.8460060377142952,0.006302599932193184,0.03065046696696557,-0.058444258675249244
3080,2.0,300.09761000000003,6473.0087,0.0,0.0,-0.030799990311508707,0.0,0.0,0.0,-0.5550565707973184,-0.5510353357879535,-0.8615411071874871,0.015536366433319985,0.012120781406227988,-0.06364040783806924
3081,2.0,299.76347000000004,6581.7797,0.0,0.0,-0.03080999473188284,0.0,0.0,0.0,-0.5709625911321204,-0.5602998664872915,-0.8694342342739781,-0.0035979580887408164,-0.007154452058214442,-0.056293166203202946
3082,2.0,300.52171,6471.1630000000005,0.0,0.0,-0.03081999915225697,0.0,0.0,0.0,-0.5664111831404315,-0.5447836941284644,-0.8558770999234931,0.006645683781602924,-0.02167995206239468,-0.05776649061710874
3083,2.0,300.44642000000005,6538.9252,0.0,0.0,-0.030830003572631215,0.0,0.0,0.0,-0.5515108439273825,-0.5549530976971064,-0.8812060422132652,0.006664299212440124,0.0035543906649160464,-0.05585743623619975
3084,2.0,300.62351,6508.0382,0.0,0.0,-0.030840007993005347,0.0,0.0,0.0,-0.5380985334136905,-0.5533763082889895,-0.8868062653834641,0.016237781722294287,-0.0007545433354426294,-0.05422203537604824
3085,2.0,300.52662999999995,6320.7668,0.0,0.0,-0.03085001241337948,0.0,0.0,0.0,-0.5128548054573285,-0.5438944962382075,-0.8646059658249652,-0.0019530635817773681,-0.01764831097450268,-0.06733574311177044
3086,2.0,300.22352,6261.7342,0.0,0.0,-0.030859983924476198,0.0,0.0,0.0,-0.5238014934426825,-0.5342977613610835,-0.8453115864932582,0.004813640359969316,-0.01874287236852748,-0.07193035608772343
3087,2.0,300.12793999999997,6326.7666,0.0,0.0,-0.03086998834485033,0.0,0.0,0.0,-0.5428834550234255,-0.5292263331530725,-0.8510692687289971,0.004290946581933456,0.012561673882490687,-0.06904724412068244
3088,2.0,299.73461000000003,6171.3682,0.0,0.0,-0.030879992765224462,0.0,0.0,0.0,-0.5237145464516015,-0.5151270188065785,-0.8371002684778642,0.009297743821715871,0.0009927727917065459,-0.07008393272199563
3089,2.0,300.0601,6250.509,0.0,0.0,-0.030889997185598483,0.0,0.0,0.0,-0.5176251160006216,-0.5244042556621705,-0.8579692992599771,-0.005042998436705195,0.0017266879053858283,-0.06347812772855345
3090,2.0,299.99997,6539.0934,0.0,0.0,-0.030900001605972838,0.0,0.0,0.0,-0.5410206453770805,-0.5707287836715454,-0.8759716732566732,-0.0026792383462202374,-0.007084304044516374,-0.07157882011127953
3091,2.0,299.60148,6534.4588,0.0,0.0,-0.03091000602634697,0.0,0.0,0.0,-0.5590464862460924,-0.5569323804424465,-0.8703334329427223,0.014648973141491087,0.033699957640176866,-0.055176491638995746
3092,2.0,299.32596,6488.0119,0.0,0.0,-0.030920010446721102,0.0,0.0,0.0,-0.5671874543070434,-0.5462545887686304,-0.8587515789996822,0.0028932585522173874,0.01053716471893719,-0.07446668928754002
3093,2.0,299.7203,6505.025,0.0,0.0,-0.030930014867095235,0.0,0.0,0.0,-0.5821607171297895,-0.5326504193485035,-0.8625540229149543,-0.004777581018060535,-8.045142161893713e-05,-0.04479544444246616
3094,2.0,299.51478,6348.7442,0.0,0.0,-0.030939986378191953,0.0,0.0,0.0,-0.5469507827798396,-0.5236405994593035,-0.8592683162856802,-0.007465411725128774,-0.024838222226591676,-0.05791065888108704
3095,2.0,300.46467,6317.7587,0.0,0.0,-0.030949990798566085,0.0,0.0,0.0,-0.5272496949904935,-0.5179691448070746,-0.8752220607001922,0.014588665508789185,0.005811486322674045,-0.045740105616696954
3096,2.0,300.06835,6406.291,0.0,0.0,-0.030959995218940217,0.0,0.0,0.0,-0.5290050291987315,-0.5472310984200045,-0.8711163814274933,0.0009916254379558108,-0.01097740770188579,-0.07074522634676023
3097,2.0,300.03724,6378.7969,0.0,0.0,-0.03096999963931424,0.0,0.0,0.0,-0.5422083467467975,-0.5312676977320395,-0.8655189244300671,-0.0072302138827665535,-0.01059226323287499,-0.05940361197593005
3098,2.0,300.2745,6417.7317,0.0,0.0,-0.03098000405968837,0.0,0.0,0.0,-0.5409633055539215,-0.5608468796862774,-0.8490199906667492,0.0034946108341912365,-0.011476885285680388,-0.07953643347388484
3099,2.0,300.4984,6628.8713,0.0,0.0,-0.030990008480062725,0.0,0.0,0.0,-0.5885736783376995,-0.5520758929781485,-0.8743617809677892,-0.0029243253069084372,0.025766772724232476,-0.05768357636142574
3100,2.0,300.29049,6575.1334,0.0,0.0,-0.031000012900436857,0.0,0.0,0.0,-0.5767149234073314,-0.5498534302088085,-0.8721080391678622,0.01144808263833779,0.02388396861366418,-0.05803595130895245
3101,2.0,300.45617000000004,6333.1581,0.0,0.0,-0.031009984411533353,0.0,0.0,0.0,-0.5121940853321205,-0.5446301360758095,-0.8682977020343112,-0.007032592015062795,0.014578002064736787,-0.059781631270237647
3102,2.0,299.90657000000004,6383.4619999999995,0.0,0.0,-0.031019988831907486,0.0,0.0,0.0,-0.5215316612311675,-0.5493038433545685,-0.8695775382356212,-0.002252636445392908,-0.0008694984641978172,-0.06890340414973653
3103,2.0,299.35688999999996,6552.9863,0.0,0.0,-0.03102999325228184,0.0,0.0,0.0,-0.5480637772196835,-0.5559753353254935,-0.8879051047194111,-0.008401663936779671,0.012566539509470887,-0.06337725260159785
3104,2.0,299.47857,6460.9952,0.0,0.0,-0.03103999767265586,0.0,0.0,0.0,-0.5662090600104834,-0.5501632010293805,-0.8476089487099903,-0.0018354825951230282,-0.002090787879094698,-0.07650568792752352
3105,2.0,299.93985,6321.1422,0.0,0.0,-0.031050002093029994,0.0,0.0,0.0,-0.5602702289218665,-0.5198429279520026,-0.8413562330053952,-0.02151425426029158,-0.018600788360004884,-0.07027437206504053
3106,2.0,299.76927,6354.8626,0.0,0.0,-0.031060006513404126,0.0,0.0,0.0,-0.5542484025175585,-0.5339026951470934,-0.8435684518162242,0.01069075418234529,-0.02056861732621448,-0.07743740280522662
3107,2.0,300.10523,6511.5761,0.0,0.0,-0.03107001093377837,0.0,0.0,0.0,-0.5245290678094885,-0.5597400660720434,-0.8950873861982471,0.003958885981686626,0.013764368313937387,-0.059862074208926745
3108,2.0,300.34821,6568.1642,0.0,0.0,-0.031080015354152613,0.0,0.0,0.0,-0.5261256865220625,-0.5740509673044194,-0.8963812457809411,0.015305298801015384,0.0004718033525583655,-0.07917242438870993
3109,2.0,300.40229,6571.1994,0.0,0.0,-0.03108998686524911,0.0,0.0,0.0,-0.5504939866570264,-0.5690695562352924,-0.8779169817261601,-0.01890846884562058,0.0019460955621646782,-0.05937352959371115
3110,2.0,300.62595,6376.1504,0.0,0.0,-0.031099991285623352,0.0,0.0,0.0,-0.5452438413963775,-0.5427026405430805,-0.8502440170525511,0.006331519407272313,0.0029069698525705876,-0.07073242595824693
3111,2.0,300.03231,6308.0562,0.0,0.0,-0.031109995705997484,0.0,0.0,0.0,-0.5588142189256694,-0.5280064104301755,-0.8306709635458411,-0.005242909844334915,0.023576565758575876,-0.05218053400831774
3112,2.0,300.02875,6606.4263,0.0,0.0,-0.031120000126371616,0.0,0.0,0.0,-0.5644695122388035,-0.5548525731546855,-0.8888665574742992,0.0049438426938442845,0.002225723104186768,-0.06187303723189335
3113,2.0,299.74316,6620.8826,0.0,0.0,-0.03113000454674575,0.0,0.0,0.0,-0.5482374178893205,-0.5575806477239255,-0.9067649213482301,-0.025334883988358373,-0.016482464396192584,-0.05889675489165714
3114,2.0,299.3139,6362.1429,0.0,0.0,-0.031140008967119992,0.0,0.0,0.0,-0.5143061849005685,-0.5384602738318914,-0.8811661302918261,0.004438204448116676,-0.01069023033204359,-0.07907750818559242
3115,2.0,299.88954,6364.8644,0.0,0.0,-0.031150013387494124,0.0,0.0,0.0,-0.5386665512872495,-0.5287041952440414,-0.8673891004046391,0.007162465143980274,4.496258105971126e-05,-0.06473169136802054
3116,2.0,300.18737000000004,6576.7019,0.0,0.0,-0.03115998489859073,0.0,0.0,0.0,-0.5896699744158954,-0.5468870088185455,-0.8625961741191142,0.011433374299886188,-0.003069706329931427,-0.062259091599493936
3117,2.0,299.91058,6618.9981,0.0,0.0,-0.031169989318964975,0.0,0.0,0.0,-0.5900530741462044,-0.5525339326858535,-0.8694231391853832,-0.012272601734961489,-0.006187684705226934,-0.06792209169288853
3118,2.0,300.28974,6563.794,0.0,0.0,-0.031179993739339107,0.0,0.0,0.0,-0.5534428889530605,-0.5661006929122885,-0.8756859063309702,0.001961361086846268,-0.0031903992102928873,-0.06374566729820755
3119,2.0,300.33652,6472.0865,0.0,0.0,-0.03118999815971324,0.0,0.0,0.0,-0.5122314539958085,-0.5539463323977465,-0.9011749016065381,0.02800790766641527,0.015015980433711886,-0.06098537846853824
3120,2.0,299.68728,6500.9606,0.0,0.0,-0.03120000258008726,0.0,0.0,0.0,-0.5386582021064255,-0.5545962512768885,-0.8828752400305022,0.018041052792763284,-0.013043827929325588,-0.052000076192007944
3121,2.0,299.92931,6581.68,0.0,0.0,-0.031210007000461615,0.0,0.0,0.0,-0.5546527197049614,-0.5718386471685805,-0.8741749883118541,0.018589716576162183,-0.02842879959895407,-0.06251122976762805
3122,2.0,299.79044,6468.3298,0.0,0.0,-0.031220011420835747,0.0,0.0,0.0,-0.5738670624112694,-0.5359286481920396,-0.8564150445340841,-0.0036433640548720362,-0.014791228389280585,-0.06369516184697303
3123,2.0,299.56524,6342.0904,0.0,0.0,-0.03123001584120988,0.0,0.0,0.0,-0.5490826001952335,-0.5365091290418285,-0.8422454106306502,0.009369697852392181,0.027758858897836077,-0.06616533589476024
3124,2.0,299.58125,6327.6785,0.0,0.0,-0.031239987352306375,0.0,0.0,0.0,-0.5291896231019495,-0.5381315552344494,-0.8561350733989531,-0.014716175941123484,0.003917776702604457,-0.08416648487208532
3125,2.0,299.90197,6484.8105,0.0,0.0,-0.03124999177268073,0.0,0.0,0.0,-0.5292702372799055,-0.5557451350352745,-0.8862050838341322,-0.017329505002788983,0.00014623778677754585,-0.09353116622455741
3126,2.0,299.62368,6473.2352,0.0,0.0,-0.03125999619305486,0.0,0.0,0.0,-0.5446902319392405,-0.5447108718437775,-0.8783007502015351,-0.026969162167399075,-0.006160082860577844,-0.07837284948304801
3127,2.0,299.85087999999996,6454.2652,0.0,0.0,-0.03127000061342888,0.0,0.0,0.0,-0.5493199236336554,-0.5497900210175505,-0.8628255232792491,0.004290216332586386,0.01849291370135848,-0.06986728566511423
3128,2.0,299.99205,6550.4619,0.0,0.0,-0.031280005033803016,0.0,0.0,0.0,-0.5838075727823214,-0.5387186526073915,-0.8686506069116402,-0.005815812596626014,-0.015074796562266587,-0.052760437305549746
3129,2.0,299.96013999999997,6626.6429,0.0,0.0,-0.03129000945417715,0.0,0.0,0.0,-0.5799289527245315,-0.5505044535305594,-0.8839005883366962,0.023732086476674578,-0.018771917182643982,-0.052418350899538446
3130,2.0,300.21894,6686.246999999999,0.0,0.0,-0.0313000138745515,0.0,0.0,0.0,-0.5510184145112834,-0.5649968683858495,-0.9164368697802772,0.00918480129136931,0.001190532390496399,-0.050346364889299354
3131,2.0,300.35677999999996,6649.4788,0.0,0.0,-0.031309985385648,0.0,0.0,0.0,-0.5454893721606094,-0.5604737706019545,-0.9153123749517981,0.02159453305246448,0.011990519999872188,-0.05682010894420815
3132,2.0,300.48015,6612.1461,0.0,0.0,-0.03131998980602213,0.0,0.0,0.0,-0.5708474960532615,-0.5469525255700114,-0.8921272976211091,0.001257516429432209,0.001764182009436208,-0.05508787481174994
3133,2.0,300.14367000000004,6493.3302,0.0,0.0,-0.03132999422639626,0.0,0.0,0.0,-0.5638945941320634,-0.5410349727334945,-0.8688806856118473,0.00043599130446899157,-0.002404393851295198,-0.06429948751136534
3134,2.0,299.74818999999997,6405.7446,0.0,0.0,-0.03133999864677062,0.0,0.0,0.0,-0.5731711014475834,-0.5287188367079865,-0.8452964688017662,-0.01040764399840449,-0.0007980432666782382,-0.05551523127992674
3135,2.0,300.3446,6555.5608,0.0,0.0,-0.03135000306714464,0.0,0.0,0.0,-0.5597836560913455,-0.5465219652050185,-0.8864211594179572,-0.014016110301282386,0.006660104964976182,-0.058194459088345946
3136,2.0,299.83399,6595.115,0.0,0.0,-0.03136000748751877,0.0,0.0,0.0,-0.5478315098992604,-0.5584912454562945,-0.8984275144903922,-0.013469059612042688,0.0005102721221449374,-0.07067215176279834
3137,2.0,299.5231,6504.9918,0.0,0.0,-0.0313700119078929,0.0,0.0,0.0,-0.5346317083290415,-0.5578798908759585,-0.8848434783497522,0.0027126730663949872,-0.008479510523412533,-0.08485810608559301
3138,2.0,300.35212,6600.8799,0.0,0.0,-0.031380016328267146,0.0,0.0,0.0,-0.5530638016931475,-0.5631580727668745,-0.8902808013013742,0.019007293154373783,0.002318900570132668,-0.06604944642782284
3139,2.0,300.00969,6580.6244,0.0,0.0,-0.03138998783936375,0.0,0.0,0.0,-0.5679423256315435,-0.5636874554141205,-0.8687157386280682,-0.0028253700862423173,0.00015566122549006683,-0.07645090858736722
3140,2.0,300.06002,6507.22,0.0,0.0,-0.031399992259737886,0.0,0.0,0.0,-0.5604694034940234,-0.5517077082893115,-0.8658552829332632,0.0030447454203429767,-0.0013893558714937486,-0.06265844487465703
3141,2.0,300.0254,6508.6814,0.0,0.0,-0.03140999668011213,0.0,0.0,0.0,-0.5347624885194485,-0.5646078816724595,-0.8791062536335322,-0.01018732998941119,-0.005399651326154094,-0.07096019951447642
3142,2.0,299.66972999999996,6489.9042,0.0,0.0,-0.03142000110048626,0.0,0.0,0.0,-0.5187061018698065,-0.5670971838556345,-0.8869655482991842,0.024436371289932077,0.018569574177424285,-0.07639325870967763
3143,2.0,299.66335,6480.9469,0.0,0.0,-0.03143000552086039,0.0,0.0,0.0,-0.5328482260330255,-0.5559609167765706,-0.8812368754138081,-0.00027908592944613674,0.015043469908924885,-0.062312898219554234
3144,2.0,300.2501,6557.8264,0.0,0.0,-0.031440009941234526,0.0,0.0,0.0,-0.5561093072537155,-0.5571960585159694,-0.8801101210376062,-0.006437720886028584,-0.006726758177754344,-0.06804989090150133
3145,2.0,300.15772999999996,6578.0946,0.0,0.0,-0.03145001436160877,0.0,0.0,0.0,-0.5853840987454124,-0.5494004466191025,-0.8647919681458222,-0.012773379318634386,-0.027203687009044873,-0.07547227212403333
3146,2.0,300.28255,6520.6573,0.0,0.0,-0.031459985872705265,0.0,0.0,0.0,-0.5770592055263094,-0.5395506322645015,-0.8655071605964062,0.0013654457022589986,-0.007149393204440174,-0.06450774587066883
3147,2.0,300.17107999999996,6558.2176,0.0,0.0,-0.03146999029307962,0.0,0.0,0.0,-0.5398769697242085,-0.5551311156071754,-0.8985263165076431,0.006148579026892504,-0.0045502552170502255,-0.06222745691812184
3148,2.0,300.83287,6703.9391,0.0,0.0,-0.03147999471345375,0.0,0.0,0.0,-0.5587765260219495,-0.5606737760391934,-0.9183797869795282,-0.01076692323211259,0.008515755999364681,-0.041997917658371756
3149,2.0,299.9949,6615.7211,0.0,0.0,-0.031489999133827884,0.0,0.0,0.0,-0.5510557831749715,-0.5619632381164535,-0.8979950086852072,-0.007599622071099303,0.0051554035391987146,-0.06674492812421152
3150,2.0,299.81269,6502.3869,0.0,0.0,-0.031500003554202016,0.0,0.0,0.0,-0.5525966123370395,-0.5607744930991335,-0.8631921374304312,-0.005932398875657184,0.023572523903926976,-0.06314789837521234
3151,2.0,299.82484,6625.1925,0.0,0.0,-0.03151000797457604,0.0,0.0,0.0,-0.5890368754884134,-0.5528398835535485,-0.8720163299013112,0.014263512538449088,0.008387279433060031,-0.06832891363453873
3152,2.0,299.92516,6672.6478,0.0,0.0,-0.03152001239495039,0.0,0.0,0.0,-0.5813526603075404,-0.5649263360463884,-0.8820393188305031,0.007784634345283593,0.002975179012202307,-0.06576604037485284
3153,2.0,300.09806000000003,6507.4217,0.0,0.0,-0.03152998390604689,0.0,0.0,0.0,-0.5286829575219455,-0.5607184198385994,-0.8886923189871031,0.013175770317597287,-0.017191004859870084,-0.08320873757281301
3154,2.0,300.13154,6477.137,0.0,0.0,-0.03153998832642102,0.0,0.0,0.0,-0.5224795668322184,-0.5497737786184475,-0.8966345684384422,0.00976384251541623,0.0036473130958117766,-0.06691527167802314
3155,2.0,299.71418,6556.0689,0.0,0.0,-0.03154999274679515,0.0,0.0,0.0,-0.5369557798184095,-0.5666545050194455,-0.8892709455892092,0.01922662937702058,0.0037213371964423866,-0.06840757122655164
3156,2.0,300.07889,6563.4526,0.0,0.0,-0.03155999716716951,0.0,0.0,0.0,-0.5651279626837875,-0.5566901934035445,-0.8733075449012442,-0.02198604377185358,0.008577847256217613,-0.07622248249807333
3157,2.0,300.14659,6619.815,0.0,0.0,-0.03157000158754364,0.0,0.0,0.0,-0.5934193341584284,-0.5699906005761924,-0.8488485487498292,-0.017135147421607384,-0.004254411721752746,-0.07807281599593702
3158,2.0,300.33541,6566.5069,0.0,0.0,-0.03158000600791766,0.0,0.0,0.0,-0.5573903796201475,-0.5746167762927604,-0.8640469658772961,-0.028326084409816873,0.013981074139324586,-0.08193409630476572
3159,2.0,300.59565,6402.3013,0.0,0.0,-0.03159001042829179,0.0,0.0,0.0,-0.5206176589784626,-0.5411327513681445,-0.8843893396549322,0.012156087092712388,0.01082528339812229,-0.05505246780025555
3160,2.0,300.30818,6574.3534,0.0,0.0,-0.031600014848665925,0.0,0.0,0.0,-0.5332426133694486,-0.5701931695361844,-0.8950034890899672,0.007884835458272673,-0.00044474494433540865,-0.06582319173349324
3161,2.0,300.42528,6820.0357,0.0,0.0,-0.03160998635976264,0.0,0.0,0.0,-0.5813295683377615,-0.5670228619607994,-0.9247681160775071,0.016506104534275683,0.004196198173032516,-0.04977150859081545
3162,2.0,300.25536,6637.6146,0.0,0.0,-0.031619990780136775,0.0,0.0,0.0,-0.5750505385280694,-0.5595188229127085,-0.8830997154576562,-0.0018975488246984883,0.004640919012148045,-0.08020040917166413
3163,2.0,299.95999,6517.9093,0.0,0.0,-0.03162999520051091,0.0,0.0,0.0,-0.5776263317397805,-0.5466284273930255,-0.8570269158719712,0.007579016921040733,-0.0057799869101902955,-0.04774740979355246
3164,2.0,300.0555,6733.1752,0.0,0.0,-0.03163999962088504,0.0,0.0,0.0,-0.5815286517174094,-0.5630853214096945,-0.9021031602881501,-0.013709201912242886,-0.01125410603919379,-0.07756602071992022
3165,2.0,299.62571,6748.6678,0.0,0.0,-0.031650004041259394,0.0,0.0,0.0,-0.5705112692725784,-0.5772200792446864,-0.9036951383152662,-0.0013469863119371988,-0.016956713065747284,-0.06866779614373383
3166,2.0,299.28332,6581.8939,0.0,0.0,-0.031660008461633415,0.0,0.0,0.0,-0.5464431647447414,-0.5587616312454795,-0.8955265895865931,-0.016068771605614287,0.011673542944588989,-0.060982028663707645
3167,2.0,299.36116,6507.2094,0.0,0.0,-0.03167001288200755,0.0,0.0,0.0,-0.5463780330283134,-0.5424691775875394,-0.8891819619654271,-0.014284217290992487,-0.0026884867865079876,-0.04917620591856365
3168,2.0,300.00492,6527.732,0.0,0.0,-0.031679984393104044,0.0,0.0,0.0,-0.5641924288664575,-0.5444029350058865,-0.8756721767921152,-0.006058026689305684,-0.003902710788192566,-0.05139469877401186
3169,2.0,300.15351,6612.3151,0.0,0.0,-0.0316899888134784,0.0,0.0,0.0,-0.5866921944920115,-0.5551836627573615,-0.8681028337750791,0.0019724554661661982,-0.009169589367618011,-0.08421601861647392
3170,2.0,299.91319,6685.8058,0.0,0.0,-0.03169999323385253,0.0,0.0,0.0,-0.5654178231398944,-0.5614780331735674,-0.9054221724482112,0.028296870382933673,0.004336173202796976,-0.07577325806623833
3171,2.0,299.65891,6640.3768,0.0,0.0,-0.03170999765422666,0.0,0.0,0.0,-0.5372728460397015,-0.5735727335222215,-0.90766316756188,0.012599521813475989,-0.006565542690118614,-0.07772791782089822
3172,2.0,300.28854,6455.9257,0.0,0.0,-0.031720002074600906,0.0,0.0,0.0,-0.5220641950862246,-0.5450473519369855,-0.8953286511795582,0.016140705269963588,-0.005562788037304434,-0.06322022416735035
3173,2.0,300.36518,6605.1154,0.0,0.0,-0.03173000649497504,0.0,0.0,0.0,-0.5467847617509545,-0.5755571027830635,-0.8854482772019412,-0.005344953349980825,-0.00884710783116656,-0.09095147605296182
3174,2.0,300.41662,6721.9777,0.0,0.0,-0.03174001091534917,0.0,0.0,0.0,-0.5804980446431964,-0.5721562402799245,-0.8906590880937082,0.0019825715525145777,0.01064738606481519,-0.06896586088590052
3175,2.0,300.33927,6521.2077,0.0,0.0,-0.0317500153357233,0.0,0.0,0.0,-0.5653678496449625,-0.5522250839228725,-0.8646913726758941,-0.015711612091115382,-0.009950879567275351,-0.07177895321803114
3176,2.0,300.26955,6490.7724,0.0,0.0,-0.0317599868468198,0.0,0.0,0.0,-0.5282069022274625,-0.5662560950801254,-0.8785697478380832,-0.003246533265832887,-0.007898194856866143,-0.07863874961404033
3177,2.0,300.45949,6651.2903,0.0,0.0,-0.03176999126719404,0.0,0.0,0.0,-0.5608040800020534,-0.5557412745523935,-0.9052808139267602,-0.003807553735526296,-0.017438562124302084,-0.062233182794436945
3178,2.0,299.64214,6610.2988,0.0,0.0,-0.031779995687568396,0.0,0.0,0.0,-0.5564018021600825,-0.5542433463995595,-0.8987206274793201,0.025012773808068576,-0.001978698404007328,-0.05687352951598035
3179,2.0,299.40291,6666.960999999999,0.0,0.0,-0.03179000010794253,0.0,0.0,0.0,-0.5859642148251655,-0.5354725640570275,-0.9051528809691342,-0.014260846677435985,0.0005076079735245065,-0.03892843353418726
3180,2.0,299.67387,6744.3742,0.0,0.0,-0.03180000452831666,0.0,0.0,0.0,-0.5932140902181724,-0.5578206866726154,-0.8990865728854361,0.00020884829377672176,0.007163604847692753,-0.05572436103431625
3181,2.0,299.64664,6675.3398,0.0,0.0,-0.03181000894869079,0.0,0.0,0.0,-0.5899305519441124,-0.5536965358505935,-0.8855095281704861,-0.016366717797519283,0.0006536076262635503,-0.07176769398291992
3182,2.0,299.9794,6705.5413,0.0,0.0,-0.031820013369064815,0.0,0.0,0.0,-0.5509929920662744,-0.5668580872295375,-0.9204660385379252,0.013869251858288587,0.014584870887164684,-0.07939856458577822
3183,2.0,300.15211,6723.8715,0.0,0.0,-0.03182998488016142,0.0,0.0,0.0,-0.5645336611026345,-0.5718467025068755,-0.9075086975841351,0.004014976366147316,-0.007830471854632403,-0.06043802988376915
3184,2.0,300.22802,6695.8334,0.0,0.0,-0.031839989300535665,0.0,0.0,0.0,-0.5632071140717145,-0.5714108631088615,-0.9007482017244262,0.0059205780973405646,-0.0017238024730760581,-0.05876735677438654
3185,2.0,300.79735,6495.4976,0.0,0.0,-0.0318499937209098,0.0,0.0,0.0,-0.5565104023058005,-0.5547688482989225,-0.8631898170877021,-0.008385753275759413,-0.015293914936141885,-0.07470317476812934
3186,2.0,300.60105,6422.6697,0.0,0.0,-0.03185999814128393,0.0,0.0,0.0,-0.5590784340217455,-0.5540417298946615,-0.8392110508211822,0.008037734999687683,0.0009421982368152262,-0.06301570267441564
3187,2.0,300.15207000000004,6609.1978,0.0,0.0,-0.031870002561658284,0.0,0.0,0.0,-0.5488313243029345,-0.5677904597065555,-0.8924093155214421,-0.007235597989822924,0.013844668384362385,-0.07737775581158993
3188,2.0,300.01972,6787.9652,0.0,0.0,-0.031880006982032416,0.0,0.0,0.0,-0.5545799278177774,-0.5969333463002344,-0.911858641058441,-0.006014851595919635,-0.0006199194719737884,-0.08139881856843792
3189,2.0,299.87352000000004,6871.2827,0.0,0.0,-0.03189001140240644,0.0,0.0,0.0,-0.5577751816106244,-0.6077665908043924,-0.9231565823234611,-0.012716611981781888,0.0016772728125839386,-0.09357233862912082
3190,2.0,300.00716,6688.5868,0.0,0.0,-0.03190001582278057,0.0,0.0,0.0,-0.5675655384493575,-0.5646897522805395,-0.9009080925902061,-0.01101714230455729,0.015574863857619385,-0.06359151041474344
3191,2.0,300.0992,6506.5264,0.0,0.0,-0.03190998733387729,0.0,0.0,0.0,-0.5550362044703084,-0.5483325012787045,-0.8744528620192782,0.001052463993445109,0.02380147283027248,-0.06232718909896465
3192,2.0,299.55717999999996,6581.2405,0.0,0.0,-0.03191999175425142,0.0,0.0,0.0,-0.5761960785611255,-0.5483518644881155,-0.8759848252429713,-0.001076480047315309,0.007516115672057863,-0.06960157399864053
3193,2.0,299.88119,6709.5164,0.0,0.0,-0.03192999617462555,0.0,0.0,0.0,-0.5610863816124144,-0.5742100374376184,-0.9042290197929562,-0.00021588710917389876,9.77620224146104e-05,-0.07000441792039813
3194,2.0,300.13707,6443.5294,0.0,0.0,-0.031940000594999685,0.0,0.0,0.0,-0.5171605002997676,-0.5606167705885674,-0.8808947616500441,0.0056308193715436045,0.0001132408615735029,-0.08321175300511062
3195,2.0,299.55431,6355.701,0.0,0.0,-0.03195000501537382,0.0,0.0,0.0,-0.5275175881844325,-0.5278314829329115,-0.8766253107636822,0.003654966275142087,-0.013762204011723789,-0.04640085309965766
3196,2.0,300.01521,6715.7572,0.0,0.0,-0.03196000943574806,0.0,0.0,0.0,-0.5729582783965795,-0.5723030196894104,-0.8961611779917221,-0.002217208256971418,-0.02390716697470368,-0.06860169272045993
3197,2.0,299.98163,6928.2542,0.0,0.0,-0.03197001385612219,0.0,0.0,0.0,-0.6336606024099324,-0.5682937308987245,-0.9040619449839672,-0.011975927171931989,-0.014735011247232385,-0.03891067531293467
3198,2.0,300.04367,6838.5211,0.0,0.0,-0.03197998536721891,0.0,0.0,0.0,-0.5945321968757594,-0.5684525173218954,-0.9157549524629771,-0.005673735376879084,0.004424801581093915,-0.06360535951711024
3199,2.0,300.59821,6789.571,0.0,0.0,-0.03198998978759282,0.0,0.0,0.0,-0.5625182965212335,-0.5798277999670485,-0.921513972188848,0.0003407449743364107,0.015915815423518682,-0.04479845582176336
3200,2.0,299.95162,6756.6198,0.0,0.0,-0.031999994207967175,0.0,0.0,0.0,-0.5492045752422715,-0.5738504755071325,-0.9307886556541882,0.0006425997075746534,-0.00022506529069971478,-0.06650724802175434
3201,2.0,299.98242999999997,6780.7817,0.0,0.0,-0.03200999862834131,0.0,0.0,0.0,-0.5707458265382275,-0.5830379688013675,-0.9074045354738551,0.006885994686619764,0.002221038342349418,-0.07386369402052903
3202,2.0,300.3796,6801.2819,0.0,0.0,-0.03202000304871555,0.0,0.0,0.0,-0.5847361962339694,-0.5798844305151374,-0.9027992428418482,-0.002117483878154388,-2.5871147617033472e-05,-0.06690639256739685
3203,2.0,299.97206,6561.7149,0.0,0.0,-0.03203000746908968,0.0,0.0,0.0,-0.5800093845174694,-0.5422708845429695,-0.8723172145185063,-0.0005341498876414895,0.0025469318971876073,-0.06988862572547035
3204,2.0,299.80255,6462.4119,0.0,0.0,-0.032040011889463815,0.0,0.0,0.0,-0.5441392569323634,-0.5666083717423924,-0.8536642326326002,-0.005825096601992275,-0.007926061058466322,-0.07741622385163642
3205,2.0,300.23213,6700.4853,0.0,0.0,-0.03205001630983795,0.0,0.0,0.0,-0.5461990525306495,-0.5886313322683895,-0.901949825150517,-0.00030594907424232265,0.005361554946244275,-0.0990470231516801
3206,2.0,299.60955,6799.4683,0.0,0.0,-0.032059987820934666,0.0,0.0,0.0,-0.5711270517558515,-0.5715172543693615,-0.9242242642188332,0.016490719344757286,0.00898596615799581,-0.06565154108705265
3207,2.0,299.95465,6703.1863,0.0,0.0,-0.032069992241308576,0.0,0.0,0.0,-0.5538873916394295,-0.5702657993033524,-0.9134480656953051,-0.014450044789108387,0.0036709875830732664,-0.08055060563147583
3208,2.0,299.89554,6591.4667,0.0,0.0,-0.03207999666168282,0.0,0.0,0.0,-0.5575628651846705,-0.5493665331382555,-0.8967118895535732,0.0026119220625766375,-0.01046092271516269,-0.04888165614099386
3209,2.0,299.71871,6665.1291,0.0,0.0,-0.032090001082057173,0.0,0.0,0.0,-0.5835512205070215,-0.5675127987816524,-0.8749687887051962,-0.011863222350058888,-0.008258498182450311,-0.07569618114438142
3210,2.0,299.64123,6797.4536,0.0,0.0,-0.032100005502431306,0.0,0.0,0.0,-0.5790011905354685,-0.5672984457229975,-0.919956535857641,0.026163925220178373,0.006826026290051343,-0.055610942884372745
3211,2.0,299.80475,6792.715,0.0,0.0,-0.03211000992280544,0.0,0.0,0.0,-0.5665959492961664,-0.5667431036081895,-0.9314766828695911,-0.00969343581896763,0.0017821187653564283,-0.06649446891149313
3212,2.0,299.3313,6655.0031,0.0,0.0,-0.03212001434317957,0.0,0.0,0.0,-0.5604359561082225,-0.5508240022145965,-0.9116947985172711,0.0013558280336348088,-0.0035271484227274467,-0.06737048644444933
3213,2.0,299.64316,6503.4596,0.0,0.0,-0.03212998585427629,0.0,0.0,0.0,-0.5630867906223395,-0.5204968795665426,-0.8933056568249041,-0.01090144130213849,-0.0028268457836879575,-0.05483506587204965
3214,2.0,299.89803,6577.6288,0.0,0.0,-0.0321399902746502,0.0,0.0,0.0,-0.5636614756815564,-0.5468865731210025,-0.8888868731388041,0.012914996218860886,0.0069744473673493635,-0.07791705412431452
3215,2.0,300.19313,6794.4017,0.0,0.0,-0.03214999469502444,0.0,0.0,0.0,-0.6234767397623634,-0.5523956645772075,-0.8894560562499781,-0.01061039736991469,-0.003511996686032087,-0.03872512084862186
3216,2.0,300.39551,6878.0508,0.0,0.0,-0.032159999115398574,0.0,0.0,0.0,-0.5965810595054665,-0.5767786163086174,-0.9173960224574381,-0.006045523081746675,-0.01774190083323928,-0.07574490631519024
3217,2.0,300.74613999999997,6763.1176,0.0,0.0,-0.03217000353577271,0.0,0.0,0.0,-0.5572878184450254,-0.5881746807133215,-0.91035638632768,-0.004315274514184436,-0.0019437745101606079,-0.07032522202130903
3218,2.0,300.39394,6780.159000000001,0.0,0.0,-0.03218000795614706,0.0,0.0,0.0,-0.5567479891892485,-0.5747565744090575,-0.929494461698961,0.01903146828850968,0.0016070724138556986,-0.06073168698800084
3219,2.0,300.25965,6825.0667,0.0,0.0,-0.03219001237652119,0.0,0.0,0.0,-0.5705650829853895,-0.5765173193728295,-0.9275674525262801,0.013403568191829186,0.0063425791334388235,-0.04731166260129755
3220,2.0,299.93595,6747.3055,0.0,0.0,-0.03219998388761769,0.0,0.0,0.0,-0.5701799972848844,-0.5735102767860575,-0.9073221177107212,-0.005276648843514695,-0.0016551145527720884,-0.05527382950985225
3221,2.0,299.79621000000003,6620.3633,0.0,0.0,-0.03220998830799182,0.0,0.0,0.0,-0.5681539327824274,-0.5512466896263125,-0.8930245204521581,-0.02119257673779448,-0.004625238156250465,-0.08323043835020472
3222,2.0,299.70599,6557.3678,0.0,0.0,-0.032219992728366065,0.0,0.0,0.0,-0.5477474304059625,-0.5660860919783475,-0.8794425513417222,0.004286219567566935,0.0026127464428579972,-0.07960428779333152
3223,2.0,299.93694,6549.1888,0.0,0.0,-0.0322299971487402,0.0,0.0,0.0,-0.5406255386330865,-0.5591382867051524,-0.8910260366174231,-0.005861311781766434,0.009775762389592631,-0.08684329709226611
3224,2.0,299.2085,6715.6666,0.0,0.0,-0.03224000156911433,0.0,0.0,0.0,-0.5754671160416824,-0.5539616831367614,-0.9119661468940511,0.013794734406184287,-0.005172579546943855,-0.07264763988651383
3225,2.0,299.33473,6813.354,0.0,0.0,-0.03225000598948846,0.0,0.0,0.0,-0.5677249834850935,-0.5947464384769034,-0.9086180747211222,-0.006727793314056503,0.0074375832164323115,-0.08402306236018062
3226,2.0,299.68327999999997,6667.0029,0.0,0.0,-0.032260010409862594,0.0,0.0,0.0,-0.5733687156145865,-0.5595734066955954,-0.8936602842274032,0.008365677650203102,-0.0001298430657870129,-0.059533053662954936
3227,2.0,300.31196,6726.6745,0.0,0.0,-0.03227001483023684,0.0,0.0,0.0,-0.5735605542560195,-0.5788418873547464,-0.8923386311944662,-0.0014944794547936387,-0.009838639827198152,-0.06161454091938174
3228,2.0,300.34189,6974.6565,0.0,0.0,-0.032279986341333444,0.0,0.0,0.0,-0.5965261514825474,-0.5924344753262304,-0.9311608021509162,-0.004732360983322665,-0.021310860514718182,-0.06583317224697822
3229,2.0,300.2378,6999.0065,0.0,0.0,-0.03228999076170769,0.0,0.0,0.0,-0.6007460848365224,-0.5910525744423475,-0.9357245717938252,0.005479334732568235,-0.008670278666114882,-0.05652268254960445
3230,2.0,300.3823,6722.0316,0.0,0.0,-0.0322999951820816,0.0,0.0,0.0,-0.5719806643025964,-0.5750298783585305,-0.8963192146098191,-0.007308430407010924,-0.0007945962607655453,-0.07331478300410572
3231,2.0,300.47722999999996,6635.2519,0.0,0.0,-0.03230999960245595,0.0,0.0,0.0,-0.5602078228482075,-0.5485220195774084,-0.9082210428019382,0.0027397179274641073,0.02036484462510368,-0.045994073714511655
3232,2.0,300.07382,6721.0525,0.0,0.0,-0.032320004022830084,0.0,0.0,0.0,-0.5754316522881825,-0.5613638702848004,-0.9062366026135892,-0.017814032081358084,-0.0008423072087542492,-0.06825929828641823
3233,2.0,300.29201,6799.8897,0.0,0.0,-0.03233000844320433,0.0,0.0,0.0,-0.5888104140910634,-0.5822898659875354,-0.8958964056080911,-0.0019008984268790682,0.015472117257729087,-0.07704350588185202
3234,2.0,299.75514,6821.5999,0.0,0.0,-0.03234001286357846,0.0,0.0,0.0,-0.5674563708835835,-0.5886612434113415,-0.9174784199555701,-0.006668555572135193,0.0015225477997887684,-0.08206260478844853
3235,2.0,299.33619,6737.1653,0.0,0.0,-0.03234998437467507,0.0,0.0,0.0,-0.5735488714823664,-0.5741814637847985,-0.9001996889152921,0.016724843952613585,0.007267962109942013,-0.07483191224633472
3236,2.0,299.58139,6754.6768,0.0,0.0,-0.03235998879504931,0.0,0.0,0.0,-0.5524522444627915,-0.5810756985252065,-0.9197251500648052,-0.00030940724617111766,-0.002298743783243348,-0.07595925532084483
3237,2.0,300.1737,6874.4243,0.0,0.0,-0.03236999321542344,0.0,0.0,0.0,-0.5798022964620314,-0.5882257586508625,-0.921625277712333,0.016325277894929484,-0.0013857165811095784,-0.07337907068320043
3238,2.0,299.44613,6819.2106,0.0,0.0,-0.03237999763579735,0.0,0.0,0.0,-0.5799382948904535,-0.5838451643610314,-0.9090862874598312,0.0012529514337566788,0.0003649512152503807,-0.05584854395332215
3239,2.0,300.32937000000004,6698.227,0.0,0.0,-0.032390002056171596,0.0,0.0,0.0,-0.5632733704957534,-0.5750137068869345,-0.8978066860216212,-0.0013479973328869787,0.0014461727562761386,-0.06864731430621243
3240,2.0,300.23919,6654.1437,0.0,0.0,-0.03240000647654595,0.0,0.0,0.0,-0.5517872889521654,-0.5643582979078274,-0.9065479541043172,-0.012288414516022089,-0.01033810059104109,-0.06760878564271763
3241,2.0,300.37407,6809.0561,0.0,0.0,-0.03241001089692008,0.0,0.0,0.0,-0.5840158058103725,-0.5809942433496674,-0.9047729831091411,-0.001106698711672659,0.002146409128759088,-0.0852422910067591
3242,2.0,300.38957,6791.5575,0.0,0.0,-0.032420015317294215,0.0,0.0,0.0,-0.5730096096466455,-0.5624668740786585,-0.9289874009514182,0.004858813379902545,0.01074059595476429,-0.06739413772828352
3243,2.0,300.12151,6674.1884,0.0,0.0,-0.03242998682839071,0.0,0.0,0.0,-0.5600110800762905,-0.5667381792127035,-0.9020373598266561,0.0027308685050657375,0.012069094505376887,-0.07917552392076584
3244,2.0,299.47062999999997,6750.4173,0.0,0.0,-0.032439991248765065,0.0,0.0,0.0,-0.5802593735821415,-0.5533544018218274,-0.9183445258760482,-0.013200820899819587,0.005299167719037135,-0.05708199964455474
3245,2.0,299.96763,6873.4092,0.0,0.0,-0.032449995669138976,0.0,0.0,0.0,-0.5933617714202475,-0.5782623285625484,-0.9177206475244762,-0.007803078536853893,0.009537526114155542,-0.061949726078961945
3246,2.0,299.77746,6807.2111,0.0,0.0,-0.03246000008951322,0.0,0.0,0.0,-0.5762123412252305,-0.5786162162924745,-0.9143936408211261,-0.009778912178853492,-0.004505369048220306,-0.05910718160617465
3247,2.0,299.3471,6799.3025,0.0,0.0,-0.03247000450988735,0.0,0.0,0.0,-0.5934758127190024,-0.5583076546706754,-0.9150347038943941,0.0030309688666833373,-0.0003704164532422577,-0.05135305014190145
3248,2.0,299.95946000000004,6863.2786,0.0,0.0,-0.032480008930261484,0.0,0.0,0.0,-0.5700504836571024,-0.5888098669360095,-0.9274049677402441,-0.003597384183884176,-0.008765485165386033,-0.06774758672091623
3249,2.0,300.08606000000003,6735.6691,0.0,0.0,-0.03249001335063584,0.0,0.0,0.0,-0.5773344346509725,-0.5672051355212885,-0.902935636437809,0.001080635183325389,-0.007843883638256043,-0.06264163910849843
3250,2.0,300.47697,6768.1197,0.0,0.0,-0.032499984861732334,0.0,0.0,0.0,-0.5637863688888824,-0.5626997594816425,-0.9308532604805642,0.00959311341994158,0.003918295385330646,-0.05273655804044305
3251,2.0,300.02553,6726.1338,0.0,0.0,-0.032509989282106466,0.0,0.0,0.0,-0.5648169962280974,-0.5745718994458314,-0.9051878178325821,0.00903131163309606,0.004371847610992766,-0.06355149007554374
3252,2.0,299.58447,6643.5294,0.0,0.0,-0.0325199937024806,0.0,0.0,0.0,-0.5503794083357184,-0.5543636191864295,-0.9147240110162311,0.015938558835263284,0.0023901951776438973,-0.07227877125385934
3253,2.0,300.27333,6753.4684,0.0,0.0,-0.03252999812285484,0.0,0.0,0.0,-0.5820836898571874,-0.5737823952329134,-0.8970196642714481,-0.0064969006700441746,-0.008911002875847512,-0.08538354718995002
3254,2.0,300.40405,6911.9531,0.0,0.0,-0.032540002543228974,0.0,0.0,0.0,-0.5804656510374995,-0.5806958107977145,-0.9398996992283781,-0.0008112451048811583,-0.003117979996495667,-0.08366517634536001
3255,2.0,299.77306,6852.0041,0.0,0.0,-0.032550006963603106,0.0,0.0,0.0,-0.5839450404233885,-0.5899801302715054,-0.9089129710302261,-0.0007099173185758842,-0.0023132806797780277,-0.09388140220112301
3256,2.0,300.25522,6780.1301,0.0,0.0,-0.03256001138397724,0.0,0.0,0.0,-0.5678813887705295,-0.5862014774685814,-0.9069073944447911,-0.01056342309527869,0.015158311675258884,-0.06374689231757844
3257,2.0,300.48702000000003,6914.0273,0.0,0.0,-0.03257001580435137,0.0,0.0,0.0,-0.5993304731218124,-0.5891002542821685,-0.913260928534336,-0.007402038706899343,0.013529602318767788,-0.06710970423971215
3258,2.0,300.7925,6966.5678,0.0,0.0,-0.03257998731544809,0.0,0.0,0.0,-0.6076034676707934,-0.5752829983660115,-0.9347761798327261,-0.01155298340794069,0.013120817711673888,-0.03720290711739106
3259,2.0,300.563,6802.049,0.0,0.0,-0.03258999173582222,0.0,0.0,0.0,-0.5799742956665065,-0.5765646685500024,-0.911114084619959,0.015193156332947787,0.0001950548897679188,-0.050899650106404355
3260,2.0,300.13908,6766.9058,0.0,0.0,-0.032599996156196465,0.0,0.0,0.0,-0.5617795662708265,-0.5665601005076284,-0.9286307369162181,0.004261593030511486,-0.01876941344164688,-0.05933760886441604
3261,2.0,299.85694,6896.8295,0.0,0.0,-0.032610000576570375,0.0,0.0,0.0,-0.5980752285004295,-0.5800666027506165,-0.9183221229163371,0.02130945513682948,-0.01966332598461918,-0.07470989970904303
3262,2.0,299.94259,6853.8973,0.0,0.0,-0.03262000499694473,0.0,0.0,0.0,-0.5871592217281034,-0.5740362447804664,-0.9222181708758472,-0.014311401777925385,-0.01916773016195768,-0.08614955413304902
3263,2.0,299.88268999999997,6802.1793,0.0,0.0,-0.03263000941731886,0.0,0.0,0.0,-0.5858880690801505,-0.5763736810386534,-0.9054309167965741,0.0002138492909702818,-0.0015394547896323584,-0.07410782447312284
3264,2.0,300.24788,6688.8733,0.0,0.0,-0.032640013837693105,0.0,0.0,0.0,-0.5682528057271855,-0.5701128795982605,-0.8948847868407522,-0.0062035304169157845,0.012457175373177488,-0.08172837411046252
3265,2.0,299.89177,6631.7976,0.0,0.0,-0.0326499853487896,0.0,0.0,0.0,-0.5645423041259875,-0.5646579767574035,-0.8867006036630362,0.014648444224938884,0.003187840247165337,-0.06750180365740935
3266,2.0,299.97602,6882.5101,0.0,0.0,-0.032659989769163844,0.0,0.0,0.0,-0.5827711800500375,-0.5847895945142394,-0.9245504496910252,-0.007475958037469612,-0.0009155871886439202,-0.07236313648368553
3267,2.0,299.55656,6970.2378,0.0,0.0,-0.03266999418953809,0.0,0.0,0.0,-0.6083579235627524,-0.5846300886834974,-0.9257902118508802,0.003728796034403517,0.00018156970630703483,-0.047057955922008655
3268,2.0,299.64606000000003,6798.6235,0.0,0.0,-0.032679998609912,0.0,0.0,0.0,-0.5585617271332505,-0.5822959657531375,-0.9257540793523141,-0.0012515792904712589,0.007736831130740784,-0.07000729048443163
3269,2.0,300.18063,6759.0772,0.0,0.0,-0.03269000303028613,0.0,0.0,0.0,-0.5694101501239065,-0.5723964008186264,-0.9127841335672802,0.004497772914870626,0.007761726989672812,-0.06468858162926594
3270,2.0,299.81291,6915.6783,0.0,0.0,-0.03270000745066037,0.0,0.0,0.0,-0.5905637724616065,-0.5722588825150545,-0.9393708637361862,-0.008307988965034672,0.006416928183376504,-0.07013833614636483
3271,2.0,299.79258,6935.0257,0.0,0.0,-0.03271001187103473,0.0,0.0,0.0,-0.5851093863783005,-0.5898845098595684,-0.9330807388378992,0.004199653457198526,-0.002790418631992877,-0.06836906873600174
3272,2.0,300.49144,6808.2994,0.0,0.0,-0.03272001629140886,0.0,0.0,0.0,-0.5596653794071725,-0.5832872384584684,-0.9266003863658381,0.0060825817922290845,-0.010798453548724388,-0.08711633151721251
3273,2.0,300.67292000000003,6727.9947,0.0,0.0,-0.032729987802505356,0.0,0.0,0.0,-0.5640807281754334,-0.5702763776343964,-0.91078529509501,0.02614472615728358,-0.011121977212903688,-0.08243184629713983
3274,2.0,300.34583,6709.0629,0.0,0.0,-0.03273999222287949,0.0,0.0,0.0,-0.5667718697785284,-0.5613254073110044,-0.9112903192098522,0.00962556113319392,-0.0008940846333692831,-0.06674501425047003
3275,2.0,299.55037999999996,6860.4276,0.0,0.0,-0.03274999664325384,0.0,0.0,0.0,-0.5946599373158664,-0.5648816618494795,-0.925857076224979,0.0016785715965621185,-0.000983218937573654,-0.05932162180433825
3276,2.0,299.12911,6953.431,0.0,0.0,-0.03276000106362775,0.0,0.0,0.0,-0.5920801822962645,-0.5790384072116415,-0.9425508073200222,-0.027284513969521876,0.014208147539734987,-0.04991860920058315
3277,2.0,300.15348,6922.2449,0.0,0.0,-0.032770005484001996,0.0,0.0,0.0,-0.5891362651907224,-0.5805455052778804,-0.9345078306762421,-0.007688646528860333,0.014111255498922486,-0.05623557104101875
3278,2.0,299.9435,6823.741,0.0,0.0,-0.03278000990437613,0.0,0.0,0.0,-0.5727938785678545,-0.5741522619169165,-0.927300724569956,-0.007653002011542493,0.01869889224793698,-0.05380022746541905
3279,2.0,299.13097,6887.0311,0.0,0.0,-0.03279001432475026,0.0,0.0,0.0,-0.5969385544057484,-0.5877618724900805,-0.9087850583376021,-0.013858404002717989,-0.00036226720692798966,-0.07612692085464212
3280,2.0,299.10455,6984.8921,0.0,0.0,-0.03279998583584698,0.0,0.0,0.0,-0.5779519497919164,-0.5914719485262364,-0.953808897458609,-0.009011790356669462,-0.012900404404170788,-0.07459142442785043
3281,2.0,299.33002,6922.8361,0.0,0.0,-0.03280999025622111,0.0,0.0,0.0,-0.5978003641458024,-0.5886329737335514,-0.9179359733032271,-0.002296989543345218,-0.02093499133712278,-0.07648629938686002
3282,2.0,299.64697,6794.4114,0.0,0.0,-0.03281999467659524,0.0,0.0,0.0,-0.5546907064512105,-0.5917271254314205,-0.9189135671322082,0.016801503415429287,-0.001039865545676739,-0.08197238398629442
3283,2.0,300.10305,6729.2653,0.0,0.0,-0.032829999096969376,0.0,0.0,0.0,-0.5859258531763796,-0.5608173029158585,-0.8987854653532191,0.007512406062116753,-3.7104203385399765e-05,-0.07351715032732783
3284,2.0,299.99375,6808.1882,0.0,0.0,-0.03284000351734362,0.0,0.0,0.0,-0.5694787674206785,-0.5875013456243684,-0.9125391094280981,0.013799005255355788,0.016547090500820684,-0.08358275756897592
3285,2.0,299.55948,6892.2849,0.0,0.0,-0.03285000793771775,0.0,0.0,0.0,-0.5965765809400244,-0.5829805985807055,-0.915525339857816,0.0020000358299131684,0.01229360235653409,-0.06614700316070093
3286,2.0,300.32714,6932.1687,0.0,0.0,-0.032860012358091883,0.0,0.0,0.0,-0.5731007109631364,-0.5982690835095614,-0.9358363940748611,0.006905931395587364,0.008215310930063061,-0.07200347120168933
3287,2.0,300.36914,6795.5542,0.0,0.0,-0.03286998386918838,0.0,0.0,0.0,-0.5886699370971995,-0.5793189255018265,-0.897689929212598,-0.0099650594957998,0.002032384244655708,-0.06767428820868224
3288,2.0,300.29273,6848.0767,0.0,0.0,-0.032879988289562734,0.0,0.0,0.0,-0.5701579388302075,-0.5809547569932705,-0.9305316245013211,-0.010354619607421392,-0.008133011007915693,-0.06822574349610663
3289,2.0,300.02501,7050.0115,0.0,0.0,-0.032889992709936866,0.0,0.0,0.0,-0.6061315496480264,-0.6112677650674314,-0.9256281424973852,-0.011794412535767887,-0.0054017592916621344,-0.07487260031735034
3290,2.0,299.39943999999997,7017.3777,0.0,0.0,-0.032899997130311,0.0,0.0,0.0,-0.6054192246952255,-0.5961337197188175,-0.9315546423322851,0.0031893698495162968,0.008621751991000673,-0.062221641875797935
3291,2.0,299.09255,6890.769,0.0,0.0,-0.03291000155068524,0.0,0.0,0.0,-0.5921784979534674,-0.5790767080654214,-0.923366507479179,-0.0029316810973343973,-0.0033806249602167065,-0.08165745673596352
3292,2.0,299.57814,6801.995,0.0,0.0,-0.03292000597105915,0.0,0.0,0.0,-0.5708951390729635,-0.5768384183295194,-0.9199030767823652,-0.004856238103448386,-0.005206739044915135,-0.06248956648049003
3293,2.0,299.62348,6883.3594,0.0,0.0,-0.032930010391433506,0.0,0.0,0.0,-0.5958939746126565,-0.5670459134005744,-0.9294295022350502,-0.007583873935395083,-0.0016534243502802782,-0.060530915533686246
3294,2.0,299.75467000000003,7035.3730000000005,0.0,0.0,-0.03294001481180764,0.0,0.0,0.0,-0.6069536095866574,-0.5858492109388154,-0.945774898210715,0.00838050545084149,-0.0014354739497952488,-0.061664663362078445
3295,2.0,299.66455,6935.9889,0.0,0.0,-0.032949986322904135,0.0,0.0,0.0,-0.6074480047079505,-0.5772534658354814,-0.9236659735462341,0.005449985436796684,-0.007555626549107283,-0.06009663046132564
3296,2.0,299.57563,6810.3289,0.0,0.0,-0.03295999074327838,0.0,0.0,0.0,-0.6009378018879434,-0.5553693408381865,-0.9138627889612352,0.008793744609350021,0.003976347827284976,-0.060767566174041845
3297,2.0,300.20287,6917.4252,0.0,0.0,-0.03296999516365262,0.0,0.0,0.0,-0.5840427785280344,-0.5948263231147874,-0.923855441182433,-0.004342259694822666,0.0096580781527531,-0.06494306851113185
3298,2.0,300.17028,6988.7548,0.0,0.0,-0.032979999584026864,0.0,0.0,0.0,-0.5915644683928675,-0.5859959194207944,-0.9468465723114811,-0.0058764574389611945,0.006228292830809644,-0.07537888491531673
3299,2.0,300.19773,6953.9326,0.0,0.0,-0.032990004004400775,0.0,0.0,0.0,-0.5828498690528034,-0.5898100562422204,-0.94116192514295,-0.015829473342747386,0.00028808074310135575,-0.05401380741424775
3300,2.0,299.97246,6851.6215,0.0,0.0,-0.03300000842477491,0.0,0.0,0.0,-0.5646752425391074,-0.5853757698295905,-0.9326708285099442,-0.009717975723139531,-0.009311845831307631,-0.08798858786579751
3301,2.0,299.95122000000003,6793.1718,0.0,0.0,-0.03301001284514915,0.0,0.0,0.0,-0.5841244160885914,-0.5619732895574454,-0.9188568859216142,0.0055961399749460145,0.0001313924569124259,-0.057228251150738645
3302,2.0,299.65581000000003,6875.056,0.0,0.0,-0.03301998435624576,0.0,0.0,0.0,-0.5755180217267064,-0.5914278316168824,-0.9228995106405902,0.002880429894026297,0.0098136697983588,-0.08022776084486352
3303,2.0,299.69377000000003,6973.2983,0.0,0.0,-0.03302998877662,0.0,0.0,0.0,-0.5823412681651084,-0.5899578387693054,-0.9474094530070332,0.004234475823385225,0.007841091120980442,-0.06451587314972093
3304,2.0,299.12939,6857.0673,0.0,0.0,-0.03303999319699413,0.0,0.0,0.0,-0.5826816796687044,-0.5656143429967895,-0.9360812054315221,0.00977807087729546,-0.007037451663867405,-0.07718578848739423
3305,2.0,299.38025,6845.8751,0.0,0.0,-0.033049997617368265,0.0,0.0,0.0,-0.5763351674023525,-0.5685947573709335,-0.9360451641254651,0.01046040697086179,-0.004768960894159795,-0.07016343739109214
3306,2.0,299.77375,6949.8579,0.0,0.0,-0.03306000203774262,0.0,0.0,0.0,-0.5850143536514215,-0.5801348248798495,-0.9474340851169641,0.030465764645986868,-0.0093152003984137,-0.08157674528599791
3307,2.0,299.54438,7059.6375,0.0,0.0,-0.03307000645811653,0.0,0.0,0.0,-0.6187545180688164,-0.6008160396234264,-0.9263829631593801,0.004935009990072565,-0.02017912398777448,-0.07107870519317203
3308,2.0,299.45322000000004,7050.9514,0.0,0.0,-0.03308001087849077,0.0,0.0,0.0,-0.6080842447107424,-0.5955118881324475,-0.9397170203678491,0.009595827815634471,-0.014164573732434587,-0.07360473262622153
3309,2.0,300.18433,7003.4788,0.0,0.0,-0.033090015298864905,0.0,0.0,0.0,-0.5995855487019864,-0.5791614664362865,-0.9501356733285901,-0.012366233136952188,0.006910157560429454,-0.05836600334352604
3310,2.0,300.02614,6778.7209,0.0,0.0,-0.03309998680996162,0.0,0.0,0.0,-0.5617998312728264,-0.5771861961613424,-0.9215758615049561,-0.0034397220630241368,0.024976272486466177,-0.06349682928564915
3311,2.0,299.74512999999996,6804.1594,0.0,0.0,-0.033109991230335756,0.0,0.0,0.0,-0.5581798939655664,-0.5719685458314004,-0.9381461179428131,-0.030691370860252472,0.006262015314012794,-0.05406175846198016
3312,2.0,300.42019,7007.3848,0.0,0.0,-0.03311999565070989,0.0,0.0,0.0,-0.5870986293721234,-0.5931763466519474,-0.9497950287774711,-0.0045777428684130456,-0.0014004950364680988,-0.07281072046360863
3313,2.0,300.07695,7038.5423,0.0,0.0,-0.03313000007108402,0.0,0.0,0.0,-0.6169733865130324,-0.5873543635648624,-0.935213356720872,-0.005497130342749525,-0.007654529688718262,-0.06523584712752685
3314,2.0,299.47861,6981.441,0.0,0.0,-0.03314000449145815,0.0,0.0,0.0,-0.5967363603482934,-0.5878375521400494,-0.937609814797384,0.033875301583231966,-0.0027062936437653876,-0.08123185825671021
3315,2.0,299.74855,7013.7797,0.0,0.0,-0.033150008911832396,0.0,0.0,0.0,-0.6045737282817815,-0.5986393352286025,-0.9288008413430061,0.004933700972268375,-0.010541882411402791,-0.06626043346964564
3316,2.0,299.6216,7070.5023,0.0,0.0,-0.03316001333220653,0.0,0.0,0.0,-0.5960769979782193,-0.6040543058830184,-0.94912485502883,0.015447178133017787,-0.00934707187633417,-0.07496622766634063
3317,2.0,299.79323,7054.3895,0.0,0.0,-0.033169984843303024,0.0,0.0,0.0,-0.6020945282021034,-0.5946453059844224,-0.9476184054426552,-0.006700152459278563,0.013501359998730488,-0.06594607667912103
3318,2.0,299.73551000000003,6866.1521,0.0,0.0,-0.033179989263677157,0.0,0.0,0.0,-0.5757259102497234,-0.5893891014881755,-0.9220237788441622,0.007963698233430822,0.01004771557535732,-0.07977974623364792
3319,2.0,299.83734,6762.8106,0.0,0.0,-0.03318999368405151,0.0,0.0,0.0,-0.5826062533312605,-0.5793945950192945,-0.8937247066687612,-0.005702469224539894,0.0022481618316262976,-0.06771722468166973
3320,2.0,300.07822000000004,6799.9798,0.0,0.0,-0.03319999810442564,0.0,0.0,0.0,-0.5597450613950364,-0.6008273069645385,-0.9064517156098192,-0.005111342561250235,-0.007089088408838554,-0.08909633974962411
3321,2.0,300.46939,6891.5197,0.0,0.0,-0.033210002524799775,0.0,0.0,0.0,-0.5916359937174264,-0.5838720154886814,-0.919341918611983,-0.016113817665309987,0.009623499777190481,-0.06507067824197593
3322,2.0,300.12335,7000.7734,0.0,0.0,-0.03322000694517402,0.0,0.0,0.0,-0.5769219101377594,-0.5966709753193404,-0.9544674188311001,-0.002965873728583947,0.01878646238782948,-0.07407793055542253
3323,2.0,299.29437,6965.2372,0.0,0.0,-0.03323001136554793,0.0,0.0,0.0,-0.5659813523155104,-0.5947510892948624,-0.9565257350842401,-0.004324385557758626,0.009037710611452593,-0.07701926184670933
3324,2.0,299.73343,6959.1234,0.0,0.0,-0.03324001578592228,0.0,0.0,0.0,-0.5892310243400745,-0.5967377890309344,-0.9294309410501921,0.0068461518688375834,-0.015494390521427285,-0.07725357897208464
3325,2.0,299.71042,7026.529,0.0,0.0,-0.03324998729701878,0.0,0.0,0.0,-0.6129863385620414,-0.5896878582801605,-0.933215156596165,0.008438388072079061,-0.01121343721993009,-0.06275298820173773
3326,2.0,299.76281,7029.9928,0.0,0.0,-0.03325999171739291,0.0,0.0,0.0,-0.6216260789847174,-0.5969579682776645,-0.9183582047523982,0.025048845511628576,-0.01017525407471939,-0.08242411418562672
3327,2.0,299.48435,6921.5953,0.0,0.0,-0.033269996137767155,0.0,0.0,0.0,-0.6054830594515255,-0.5697071539932185,-0.9288019255206131,0.010686108430636792,-0.016366222318220384,-0.06022791930328285
3328,2.0,300.02873999999997,6851.1005,0.0,0.0,-0.03328000055814151,0.0,0.0,0.0,-0.5617906714919224,-0.6046791772196884,-0.9160936414414032,-0.005496987373160415,0.0022805232159701177,-0.07733325082744763
3329,2.0,300.04733,6859.7329,0.0,0.0,-0.03329000497851564,0.0,0.0,0.0,-0.5660695456042145,-0.5772389662265505,-0.9418790123712211,-0.01074166493361979,0.00855578292469003,-0.053224493692348544
3330,2.0,300.32679,6993.9961,0.0,0.0,-0.03330000939888955,0.0,0.0,0.0,-0.5969585660952235,-0.5912121613330974,-0.9378294468890601,-0.015590575313669986,0.017139561139042983,-0.06794114180801863
3331,2.0,300.04022000000003,7120.0788,0.0,0.0,-0.033310013819263684,0.0,0.0,0.0,-0.6020039639081655,-0.6070179104380035,-0.9553042823536921,-0.02083253250026088,0.013369670922983789,-0.06366318671356734
3332,2.0,300.31419,7026.3541,0.0,0.0,-0.0333199853303604,0.0,0.0,0.0,-0.5942863013414914,-0.5924306148433495,-0.9491192821532801,0.0013421092352308686,-0.012810350788283189,-0.08896333142224723
3333,2.0,300.07986,6890.7561,0.0,0.0,-0.033329989750734534,0.0,0.0,0.0,-0.5900541887213144,-0.5844734300855365,-0.9200901734133301,-0.011042903175099688,0.011487284271456687,-0.05942006513105384
3334,2.0,299.95521,6960.3832,0.0,0.0,-0.03333999417110878,0.0,0.0,0.0,-0.5735208145870975,-0.5937319623442824,-0.948529935365116,-0.0013068469158507487,0.005614782459560885,-0.08552225606238952
3335,2.0,299.7996,7026.2244,0.0,0.0,-0.03334999859148291,0.0,0.0,0.0,-0.5871909161912314,-0.5886416978169124,-0.959964168901087,0.004828947022604965,0.006058496533377054,-0.05736127569011715
3336,2.0,299.80432,6862.3351,0.0,0.0,-0.03336000301185704,0.0,0.0,0.0,-0.5768761618957444,-0.5937744681859773,-0.9153278979433301,0.0065980823051550236,-0.008238466734598363,-0.09175112492588101
3337,2.0,300.34586,6888.9681,0.0,0.0,-0.0333700074322314,0.0,0.0,0.0,-0.5803319425543034,-0.5779753457367255,-0.9357669864430112,0.034822427994956065,-0.0031995196770930067,-0.06178622702957584
3338,2.0,300.26466,6950.394,0.0,0.0,-0.03338001185260531,0.0,0.0,0.0,-0.6004809172853524,-0.5926438735918964,-0.919621423652068,0.017483172486454784,-0.007652591341276962,-0.09021423021395132
3339,2.0,299.99637,7073.8733,0.0,0.0,-0.03339001627297955,0.0,0.0,0.0,-0.6173131191390614,-0.5904311481560175,-0.942536591421119,0.006977332090384063,-0.0030586189420371873,-0.062069573300789944
3340,2.0,299.71035,7139.6675,0.0,0.0,-0.033399987784076046,0.0,0.0,0.0,-0.5922892056593935,-0.6097316981808335,-0.9682597386622961,-0.01059710251535259,-0.004759447894270935,-0.08413501028422901
3341,2.0,299.66458,7046.2552,0.0,0.0,-0.0334099922044504,0.0,0.0,0.0,-0.5933718329937404,-0.5877699886233815,-0.9607438243230332,-0.011534604064376789,0.016263619599844285,-0.061862589610112234
3342,2.0,299.65595,6978.528,0.0,0.0,-0.03341999662482453,0.0,0.0,0.0,-0.5849492219349934,-0.5854139389608575,-0.9509350871274861,-0.009845224027672959,0.027844380246026375,-0.07226618668761733
3343,2.0,299.75106,7035.2656,0.0,0.0,-0.033430001045198665,0.0,0.0,0.0,-0.6017101619091694,-0.5819722323461874,-0.9548626876951101,-0.006433096311247174,0.01342122204832149,-0.058706980240677845
3344,2.0,299.92627000000005,6956.6591,0.0,0.0,-0.0334400054655728,0.0,0.0,0.0,-0.5995614130846044,-0.5780733270213955,-0.9370159185162712,0.003534834532686007,0.005680108821333094,-0.07245246258600134
3345,2.0,300.16942,6901.9785,0.0,0.0,-0.03345000988594693,0.0,0.0,0.0,-0.5888460095670764,-0.5674502001904744,-0.9417328915743001,0.011890833415283887,-8.235589509614402e-05,-0.04655454186157555
3346,2.0,300.13349,6921.0638,0.0,0.0,-0.03346001430632117,0.0,0.0,0.0,-0.5721261974144595,-0.5913695292061284,-0.9403348496163241,0.008357729209793652,0.0023920617869781177,-0.08036189084010113
3347,2.0,300.52931,7038.4878,0.0,0.0,-0.03346998581741778,0.0,0.0,0.0,-0.6140645683909545,-0.5921734317029674,-0.9332865299332092,-0.0026836406139297076,-0.008549952683614633,-0.06423502352675324
3348,2.0,301.01283,7150.9152,0.0,0.0,-0.0334799902377918,0.0,0.0,0.0,-0.6081434995765904,-0.6087837824472814,-0.9567723702910812,0.003498159945316507,-0.016312893952207284,-0.07873227766452083
3349,2.0,299.82327999999995,7131.880999999999,0.0,0.0,-0.033489994658165934,0.0,0.0,0.0,-0.6035363932269044,-0.6151755565956004,-0.9492017911089231,0.014994536008595486,0.004764072063752305,-0.07453999894552513
3350,2.0,299.61953,7082.7771,0.0,0.0,-0.03349999907854029,0.0,0.0,0.0,-0.6008226054840744,-0.5936750075561614,-0.958489778548076,0.015282825927047484,0.012766365601442188,-0.07756030396285603
3351,2.0,299.77821,7013.4504,0.0,0.0,-0.03351000349891442,0.0,0.0,0.0,-0.5925709499821995,-0.5879396269551234,-0.9514032188061872,0.004723609643533975,0.0032254249357746567,-0.07468833977341523
3352,2.0,299.33833,6872.5199,0.0,0.0,-0.03352000791928855,0.0,0.0,0.0,-0.5647295426119665,-0.5841921619902775,-0.9401527280433501,-0.019542496923444282,-0.004348635672401926,-0.07206616503837672
3353,2.0,299.89835,6925.8078,0.0,0.0,-0.033530012339662796,0.0,0.0,0.0,-0.5782571103245335,-0.5801088350147845,-0.9469066783074132,-0.012045582036806387,0.01073239166870459,-0.06457653339345765
3354,2.0,299.96415,6912.5988,0.0,0.0,-0.0335399838507594,0.0,0.0,0.0,-0.5659306695455085,-0.6042602590983445,-0.9310664888316081,-0.016056508239653985,0.021642764770474582,-0.08139510298032122
3355,2.0,299.67323,6891.9812,0.0,0.0,-0.033549988271133424,0.0,0.0,0.0,-0.5772182351295044,-0.5908551325278614,-0.9269168345045692,-0.0069218321267566435,0.002975344678593657,-0.08395984973944201
3356,2.0,300.01511,7141.0054,0.0,0.0,-0.033559992691507556,0.0,0.0,0.0,-0.6203264337439525,-0.6097422663793765,-0.9406186204393301,-0.013744230981449989,-0.0038572582125567458,-0.06823800787531703
3357,2.0,299.73935,7217.7582,0.0,0.0,-0.03356999711188169,0.0,0.0,0.0,-0.6193347861360844,-0.6264346802492894,-0.9482488192573721,0.01191165165183849,-0.0069405609402800345,-0.07950377844966203
3358,2.0,299.60165,7192.5678,0.0,0.0,-0.03358000153225593,0.0,0.0,0.0,-0.6170927271098104,-0.6106128609977974,-0.958655424674424,0.02003177209198198,-0.005881007337210234,-0.06639955473487584
3359,2.0,300.35717,7097.6831,0.0,0.0,-0.033590005952630286,0.0,0.0,0.0,-0.6236471785616844,-0.6023738913871745,-0.9314973633041321,0.024335712998497877,-0.02785578336265177,-0.07928592055891112
3360,2.0,300.63775,6986.8578,0.0,0.0,-0.03360001037300442,0.0,0.0,0.0,-0.5943703707022885,-0.5915044637219454,-0.937955464803997,0.02022499179330128,6.588248712934524e-07,-0.06391495301891474
3361,2.0,300.24683,6919.5772,0.0,0.0,-0.03361001479337833,0.0,0.0,0.0,-0.5903355378765814,-0.5749681106324344,-0.9380750587133,0.006694192420865354,-0.0025864996175676376,-0.06872948483632203
3362,2.0,300.37667999999996,6985.0486,0.0,0.0,-0.03361998630447505,0.0,0.0,0.0,-0.5880666378551584,-0.5893090344652734,-0.9459046854160242,-0.008556164312027673,0.00997104628401565,-0.06902602869008864
3363,2.0,300.12392,7002.8871,0.0,0.0,-0.03362999072484918,0.0,0.0,0.0,-0.5777171392137425,-0.5974276704940205,-0.953558006601348,-0.019429264198269083,-0.0038835240869489864,-0.07648892877086952
3364,2.0,300.18507,7006.1185,0.0,0.0,-0.03363999514522331,0.0,0.0,0.0,-0.5850547215354055,-0.5977306829364254,-0.946899686881723,-0.026740482765580175,0.01138045832666379,-0.06583948378185114
3365,2.0,299.47211,7083.0612,0.0,0.0,-0.033649999565597555,0.0,0.0,0.0,-0.5943930269745245,-0.6159818300976734,-0.942698893822137,-0.01180023061784209,0.004114312062225986,-0.07334291791963243
3366,2.0,299.6677,7169.9119,0.0,0.0,-0.03366000398597169,0.0,0.0,0.0,-0.5975838629969354,-0.6107283309791934,-0.9711619807912252,-0.005681652305210425,0.005901697904252235,-0.08206058639424933
3367,2.0,300.20385,7133.7602,0.0,0.0,-0.03367000840634582,0.0,0.0,0.0,-0.6115813254433774,-0.6272437199241354,-0.9296599355727921,0.014324888136756387,-0.0059790517473614635,-0.06843582773209034
3368,2.0,300.42624,6999.8986,0.0,0.0,-0.033680012826720174,0.0,0.0,0.0,-0.5865974758726635,-0.5972034686443934,-0.9439934322823982,0.006923256047122173,0.0013639713220384886,-0.07238274489962072
3369,2.0,300.05678,7017.8182,0.0,0.0,-0.03368998433781667,0.0,0.0,0.0,-0.5858143450028744,-0.5946960698144325,-0.9527310830622371,0.02270017230983258,-0.0036768298818248566,-0.06494401589997534
3370,2.0,299.98888,7037.1579,0.0,0.0,-0.0336999887581908,0.0,0.0,0.0,-0.5994841932944834,-0.5976707390605094,-0.941965361544743,0.002257403077838338,-0.007819254466750332,-0.08423722290131662
3371,2.0,300.33391,7044.749,0.0,0.0,-0.03370999317856482,0.0,0.0,0.0,-0.6004895805737074,-0.5889649752613174,-0.9519732327824431,0.022961276728101578,-0.017887720694880583,-0.08301996806593293
3372,2.0,300.20047,6988.2419,0.0,0.0,-0.03371999759893918,0.0,0.0,0.0,-0.5750020342457824,-0.5989114942054624,-0.950337522881011,0.0008227986283514021,-0.013014502444931388,-0.08618364695916372
3373,2.0,299.97502000000003,7007.4236,0.0,0.0,-0.03373000201931331,0.0,0.0,0.0,-0.6047494258491214,-0.5808419518596375,-0.9444904314564481,0.015204523985819686,0.0018219775924901882,-0.07874511959628822
3374,2.0,299.9952,7089.0719,0.0,0.0,-0.03374000643968744,0.0,0.0,0.0,-0.5823275183612515,-0.5880314172816825,-0.9845419078317211,-0.028676072140107974,0.02110198407285368,-0.06761889483896534
3375,2.0,299.54146000000003,7088.6157,0.0,0.0,-0.033750010860061574,0.0,0.0,0.0,-0.5996355424619204,-0.6024186162465884,-0.952708001224959,-0.008847877597267531,-0.0022579562110679277,-0.07267335820055203
3376,2.0,299.5794,7114.0169,0.0,0.0,-0.03376001528043571,0.0,0.0,0.0,-0.6189699249075754,-0.5787997564155885,-0.9647138192748411,-0.033390756266161066,0.016391488722713985,-0.03948605546172026
3377,2.0,299.66234,7110.878000000001,0.0,0.0,-0.033769986791532425,0.0,0.0,0.0,-0.6088616000549614,-0.6006605361305796,-0.9520072171907971,-0.0038478921339323868,0.005496808331867745,-0.06089213311483564
3378,2.0,299.78238999999996,7139.8615,0.0,0.0,-0.03377999121190656,0.0,0.0,0.0,-0.6094341370239664,-0.6041274726727395,-0.9567780140941381,-0.004575547256771356,0.004868214111680326,-0.055799005142683045
3379,2.0,299.37557999999996,7179.7384,0.0,0.0,-0.03378999563228058,0.0,0.0,0.0,-0.6204378507249484,-0.5961942614122925,-0.96582909352741,0.012503205298720288,-0.002045666940216608,-0.07011965586752122
3380,2.0,300.24667999999997,7216.6963,0.0,0.0,-0.03380000005265471,0.0,0.0,0.0,-0.6072642112723114,-0.6057837515512015,-0.9806475216023751,0.002141715754295888,0.007891930944747941,-0.06233192806968235
3381,2.0,299.87519,7136.8871,0.0,0.0,-0.033810004473029065,0.0,0.0,0.0,-0.6097131962340074,-0.5966331912231114,-0.9630890828719921,0.02204155974483258,-0.007529689170397463,-0.08684531143346491
3382,2.0,300.81703999999996,7087.5833,0.0,0.0,-0.0338200088934032,0.0,0.0,0.0,-0.6038081367712235,-0.5957233939583214,-0.9549168053829511,0.012780457883832988,-0.005236616142663775,-0.07080874902202944
3383,2.0,300.57225,7081.0628,0.0,0.0,-0.03383001331377733,0.0,0.0,0.0,-0.5823026228062944,-0.6197871212457264,-0.950376512744859,0.006721925785377424,-0.027574024854344372,-0.10609387159564991
3384,2.0,299.87239,7075.0406,0.0,0.0,-0.03383998482487394,0.0,0.0,0.0,-0.6036380222119344,-0.5896055722395395,-0.9573920841847421,-0.011501499157109591,-0.021156380404472177,-0.07816836446711692
3385,2.0,299.34051,7014.689,0.0,0.0,-0.03384998924524818,0.0,0.0,0.0,-0.5931379748706604,-0.5966624336209975,-0.9424898805915091,-0.017634131552603283,-0.005146151248560585,-0.09354799225571801
3386,2.0,300.22639,7099.4559,0.0,0.0,-0.0338599936656222,0.0,0.0,0.0,-0.5771463349024084,-0.6159135370409334,-0.9649974482428331,-0.01062085005794629,0.012849896926436089,-0.061124562555274646
3387,2.0,300.32374,7085.7105,0.0,0.0,-0.03386999808599633,0.0,0.0,0.0,-0.6166443538080594,-0.5949854945729964,-0.942249213427757,-0.011785235529612187,0.016240840724346183,-0.06731260959873735
3388,2.0,299.57103,7145.5171,0.0,0.0,-0.033880002506370466,0.0,0.0,0.0,-0.6091156421200333,-0.6028234096615385,-0.9601197230564391,0.0017857626153660482,0.02339233966514418,-0.04507185400349566
3389,2.0,299.18408999999997,7183.0742,0.0,0.0,-0.03389000692674471,0.0,0.0,0.0,-0.6323445019875433,-0.5974369012024314,-0.9536937922472492,0.01137724328409649,0.016419785758256682,-0.06333634364206044
3390,2.0,299.59562,7147.7724,0.0,0.0,-0.03390001134711906,0.0,0.0,0.0,-0.6124036893570385,-0.5852744144220875,-0.9750662360765451,0.021962924444321876,0.01295203456301629,-0.058154839996185856
3391,2.0,299.70921,7093.86,0.0,0.0,-0.033910015767493196,0.0,0.0,0.0,-0.6028132366305344,-0.6003457902520164,-0.953197269300746,0.015168332718747884,-0.022362797516786277,-0.07977532035721113
3392,2.0,299.70932,7143.7072,0.0,0.0,-0.03391998727858969,0.0,0.0,0.0,-0.5878685575931094,-0.5957059153940965,-0.987934127311507,0.01200905335745129,-0.01207744165970069,-0.06636759378697153
3393,2.0,299.50751,7094.8591,0.0,0.0,-0.033929991698963824,0.0,0.0,0.0,-0.6221861124474883,-0.5965574913081404,-0.9379164141451432,-0.013264733676377288,-0.006857987237955643,-0.07438867206959034
3394,2.0,299.78049,7074.8505,0.0,0.0,-0.033939996119337956,0.0,0.0,0.0,-0.6016604011967585,-0.5967942675915084,-0.9521232343272471,-0.005540221944327334,-0.0027982895587696775,-0.07426625119250833
3395,2.0,299.97729,7103.0356,0.0,0.0,-0.03395000053971209,0.0,0.0,0.0,-0.6114948242823404,-0.5937164393527504,-0.953934195965975,-0.012904537451328687,-0.011439558165246489,-0.06842050941707853
3396,2.0,300.39795,7152.6484,0.0,0.0,-0.03396000496008633,0.0,0.0,0.0,-0.6118849255708404,-0.6140119705782634,-0.9483296259528471,0.004533200596667066,0.012858758811810688,-0.06680303801744653
3397,2.0,300.12111,7185.3854,0.0,0.0,-0.033970009380460464,0.0,0.0,0.0,-0.5952864703827004,-0.6218432387461494,-0.9670480333977101,-0.008310529385685392,0.013942432833510987,-0.07464182146132423
3398,2.0,300.48616,7157.3128,0.0,0.0,-0.033980013800834596,0.0,0.0,0.0,-0.5947390620161754,-0.6143339105325364,-0.9665714005506701,-0.006747427770519273,0.01924954605453228,-0.07737167225798952
3399,2.0,299.76367,7113.5583,0.0,0.0,-0.033989985311931314,0.0,0.0,0.0,-0.5998252330131414,-0.6090385033899205,-0.9534803511136841,-0.006404749626449573,-0.004216745466510376,-0.07136546307747284
3400,2.0,299.29042999999996,6992.6068,0.0,0.0,-0.03399998973230545,0.0,0.0,0.0,-0.5797625061306044,-0.5974884655000204,-0.9483268800450761,0.0064039792523985445,-0.0015496138377849786,-0.08058770274413703
3401,2.0,299.84145,7036.4758,0.0,0.0,-0.03400999415267958,0.0,0.0,0.0,-0.5829117786339135,-0.6168320178590804,-0.9391691560387792,0.008110006886920361,0.001732498388084278,-0.08543317415334782
3402,2.0,299.85446,7061.6756,0.0,0.0,-0.0340199985730536,0.0,0.0,0.0,-0.6014691299753814,-0.5958311227089534,-0.949272799675931,-0.00023203470859754275,-0.00865588595506943,-0.0911600667582981
3403,2.0,299.70694,7091.8945,0.0,0.0,-0.034030002993427955,0.0,0.0,0.0,-0.5799845497575185,-0.6112442374001094,-0.9645300562367051,-0.0005464816885135434,-0.009297639558280581,-0.07847234861636783
3404,2.0,299.91532,7190.8462,0.0,0.0,-0.03404000741380209,0.0,0.0,0.0,-0.6096608821313444,-0.6128357594646804,-0.9633410376418581,0.0026071862329342475,-0.008446684259922833,-0.06824580888783693
3405,2.0,299.94829,7326.1975,0.0,0.0,-0.03405001183417622,0.0,0.0,0.0,-0.6468167632983444,-0.6112418663948754,-0.9689224548902011,0.014872603518061685,0.013051596517842289,-0.04919249796692155
3406,2.0,300.38119,7322.6942,0.0,0.0,-0.03406001625455035,0.0,0.0,0.0,-0.6322049571837713,-0.6205920572576674,-0.973119174684385,-0.00971202247350199,0.005991445011984584,-0.07156402463331935
3407,2.0,300.61977,7229.3438,0.0,0.0,-0.03406998776564707,0.0,0.0,0.0,-0.6369437961789585,-0.6007549203773944,-0.9598412717964581,-0.00016466434779610587,0.005056120734775266,-0.045948851349298554
3408,2.0,299.95142000000004,7268.7044,0.0,0.0,-0.0340799921860212,0.0,0.0,0.0,-0.6107860051748853,-0.6252849960233244,-0.973433626720419,-0.009636398248313461,0.005771185110546625,-0.07835013342905613
3409,2.0,300.16282,7290.2819,0.0,0.0,-0.034089996606395334,0.0,0.0,0.0,-0.6132267625457694,-0.6208330182639484,-0.982003878451237,0.006787772653726003,0.01153433960610069,-0.06515459662850803
3410,2.0,300.47179,7192.5769,0.0,0.0,-0.034100001026769355,0.0,0.0,0.0,-0.6127300876117514,-0.6051725084283764,-0.9684611829146771,-0.008573442455382892,-0.008862661118876552,-0.08215812590187573
3411,2.0,299.7466,7089.3637,0.0,0.0,-0.03411000544714349,0.0,0.0,0.0,-0.6100863154508315,-0.5918200809955945,-0.953083167206985,-0.01008843455050097,0.0025676838671856678,-0.07068073297789523
3412,2.0,299.58552000000003,7016.5026,0.0,0.0,-0.03412000986751784,0.0,0.0,0.0,-0.5838987754238225,-0.5980701217199254,-0.9508727013188291,0.004131494453446756,0.008372517898978181,-0.09503357800908391
3413,2.0,299.92611,7103.7354,0.0,0.0,-0.034130014287891974,0.0,0.0,0.0,-0.5990032642670193,-0.6089975072908744,-0.9513574300341681,0.0025785093299290577,0.007761879787787893,-0.07801151740463734
3414,2.0,300.07736,7245.3203,0.0,0.0,-0.03413998579898847,0.0,0.0,0.0,-0.5923929726021344,-0.6264437488376844,-0.9835597239797872,0.0028788818505235173,-0.0013217555738471187,-0.0883173480064936
3415,2.0,299.6129,7238.6106,0.0,0.0,-0.034149990219362714,0.0,0.0,0.0,-0.5924070770435265,-0.6167224449932663,-0.9912273623890241,-0.013649327950583788,-0.013278387221474787,-0.06497052049609113
3416,2.0,299.53871000000004,7095.6923,0.0,0.0,-0.03415999463973696,0.0,0.0,0.0,-0.5908027677626935,-0.6012146015502614,-0.9648959104503121,-0.0015414862547578486,-0.015956204585754787,-0.06634317445956153
3417,2.0,299.79606,7171.0638,0.0,0.0,-0.03416999906011098,0.0,0.0,0.0,-0.6043326659504904,-0.6116827517783875,-0.9638089160080341,-0.016483223320517486,0.004120984820759535,-0.07304003213348992
3418,2.0,300.46103,7264.5824,0.0,0.0,-0.03418000348048511,0.0,0.0,0.0,-0.6170829999088504,-0.6138617461184374,-0.9773069069501821,0.014448561390961987,-0.009174090933837281,-0.07874270603455003
3419,2.0,300.79868,7257.6123,0.0,0.0,-0.03419000790085924,0.0,0.0,0.0,-0.6501671862115054,-0.6085213202738784,-0.9474444101354831,-0.020903466086761482,0.0100328854442437,-0.07361262584450053
3420,2.0,300.24457,7209.9059,0.0,0.0,-0.034200012321233486,0.0,0.0,0.0,-0.6096708018498234,-0.6020355063837785,-0.9799250337510711,0.0033418316668881068,-0.0023639073157244875,-0.07218012426387364
3421,2.0,299.76137,7200.1197,0.0,0.0,-0.03420998383233009,0.0,0.0,0.0,-0.6135204733522565,-0.6105658563256584,-0.964570272133174,-0.013620324679721385,0.0060763532425393745,-0.07381965107843234
3422,2.0,299.91706,7115.0823,0.0,0.0,-0.034219988252704336,0.0,0.0,0.0,-0.6014401408900204,-0.5943315226934545,-0.967035692011492,0.01730149573027468,-0.002945085382907297,-0.06538853479834594
3423,2.0,300.10201,7127.2199,0.0,0.0,-0.03422999267307847,0.0,0.0,0.0,-0.6175521955001564,-0.5822744443210134,-0.966670232965424,-0.0005121572840884886,-0.015314473780670884,-0.05882846892766785
3424,2.0,299.931,7234.2115,0.0,0.0,-0.0342399970934526,0.0,0.0,0.0,-0.6094913451246124,-0.6249321620735024,-0.964596140408227,0.004999232517185836,-0.01924362462094788,-0.07328741005265423
3425,2.0,300.11413,7196.8446,0.0,0.0,-0.03425000151382673,0.0,0.0,0.0,-0.6285881406868193,-0.5931405383934134,-0.9659323639776021,-0.0025169031158989975,0.0023437091882310876,-0.056617983787759944
3426,2.0,300.03291,7262.826999999999,0.0,0.0,-0.034260005934200866,0.0,0.0,0.0,-0.5856364182853144,-0.6299324499919924,-0.992149197065002,0.018884504467505482,-0.010741579820611389,-0.08180174152370331
3427,2.0,300.59294,7353.0449,0.0,0.0,-0.03427001035457511,0.0,0.0,0.0,-0.6259535080418014,-0.6196776193074194,-0.989510906587123,-0.001071833282356709,0.00014994672797358986,-0.061803067246237846
3428,2.0,300.74023,7317.0646,0.0,0.0,-0.03428001477494924,0.0,0.0,0.0,-0.6167503296360184,-0.6181631143829495,-0.989291497410469,-0.0032445322995354065,-0.0012067902923259288,-0.07256136670674933
3429,2.0,301.03459,7147.3061,0.0,0.0,-0.03428998628604596,0.0,0.0,0.0,-0.6119761586098443,-0.6172458089349184,-0.9433806186219181,-0.018821950459331882,-0.0003169724247302427,-0.07794559231338102
3430,2.0,300.39783,7046.4539,0.0,0.0,-0.03429999070642009,0.0,0.0,0.0,-0.5988440624113074,-0.6035414392124024,-0.9395605441549061,0.0016051376127897486,0.004498166765184496,-0.09365079357111371
3431,2.0,299.6718,7134.9931,0.0,0.0,-0.034309995126794224,0.0,0.0,0.0,-0.6143664358607465,-0.6036140689795704,-0.950879246914475,-0.016285683120771784,0.0004467636019796346,-0.08089301526426902
3432,2.0,299.85412,7183.3121,0.0,0.0,-0.034319999547168356,0.0,0.0,0.0,-0.5924573342484863,-0.6268565266634224,-0.9642336603174531,-0.01031849217510589,-0.016403855440184485,-0.09996141651892372
3433,2.0,300.60071,7264.8656,0.0,0.0,-0.03433000396754238,0.0,0.0,0.0,-0.6032063168743284,-0.6253884184610313,-0.979743013503107,-0.008403078028619232,-0.007451522092757973,-0.07687948906166482
3434,2.0,300.10435,7210.0894,0.0,0.0,-0.03434000838791673,0.0,0.0,0.0,-0.5979071201763384,-0.6176253014948714,-0.976154730128971,0.013486940436557387,-0.00976742678631997,-0.07843795282847323
3435,2.0,299.53529,7286.3516,0.0,0.0,-0.034350012808290864,0.0,0.0,0.0,-0.6173051347282734,-0.6181191190636075,-0.979444692408665,0.015228950405980385,-0.0025934534516789272,-0.05436388127079735
3436,2.0,299.84456,7380.1739,0.0,0.0,-0.03435998431938736,0.0,0.0,0.0,-0.6510493724110704,-0.6092597364167545,-0.9830794535648881,0.020423953582937283,-0.013374445357454986,-0.055867307318673946
3437,2.0,300.1735,7335.0327,0.0,0.0,-0.03436998873976149,0.0,0.0,0.0,-0.6307299588807004,-0.6166305533416974,-0.9823062728110811,0.008924331066337901,0.003913928885349706,-0.06270774354502244
3438,2.0,299.77151000000003,7193.3761,0.0,0.0,-0.03437999316013585,0.0,0.0,0.0,-0.6030075070722074,-0.6144491778639124,-0.9691500207301601,-0.001990090273556618,-0.004024191267856757,-0.07398882838137884
3439,2.0,299.61701,7170.2171,0.0,0.0,-0.03438999758050998,0.0,0.0,0.0,-0.6140572628577334,-0.5954632521276474,-0.9700464430936301,-0.014339215493170384,0.023981034933493874,-0.06809133283059134
3440,2.0,298.79328,7216.432,0.0,0.0,-0.03440000200088411,0.0,0.0,0.0,-0.6193873535512724,-0.6086428393583714,-0.9655849509158151,-0.018765628952523383,-0.001099649834701989,-0.08757858127908301
3441,2.0,299.26628999999997,7205.4976,0.0,0.0,-0.03441000642125813,0.0,0.0,0.0,-0.6160880997681615,-0.6011485680412444,-0.9730546813155202,-0.00033953066501906764,0.016708225637723482,-0.07111757346700803
3442,2.0,299.62417,7223.5106,0.0,0.0,-0.034420010841632265,0.0,0.0,0.0,-0.6043105061708034,-0.6264757574083434,-0.9649805978936701,-0.005858823644820875,-0.0005722228716065005,-0.096276613980012
3443,2.0,300.14061,7292.6224,0.0,0.0,-0.03443001526200662,0.0,0.0,0.0,-0.6022763559325485,-0.6174293693230344,-0.9970693875630872,0.008165416367313853,0.004253726562035125,-0.07514613427459603
3444,2.0,300.05711,7351.4152,0.0,0.0,-0.034439986773103115,0.0,0.0,0.0,-0.6135736689825064,-0.6202068195696474,-1.000866157277799,-0.0027935933472061974,-0.017703119698911883,-0.08502263662358092
3445,2.0,300.12888,7281.8055,0.0,0.0,-0.03444999119347725,0.0,0.0,0.0,-0.6192590963536144,-0.6241008308964564,-0.970127118066592,0.015642852939329384,0.005313819619458165,-0.06085256063218015
3446,2.0,300.28291,7199.1014,0.0,0.0,-0.03445999561385149,0.0,0.0,0.0,-0.5951742833316285,-0.6206797641863234,-0.9724930165200881,0.015064022673953287,0.002793765903698227,-0.07493251683551364
3447,2.0,300.10835,7241.476,0.0,0.0,-0.034470000034225734,0.0,0.0,0.0,-0.6168429913576634,-0.6147345090920724,-0.9696503737620411,0.0010742104684163191,0.006420701020123853,-0.05584099827982745
3448,2.0,300.02092999999996,7273.2372,0.0,0.0,-0.034480004454599755,0.0,0.0,0.0,-0.6224385434449015,-0.6071454076980863,-0.981298565189128,-0.005686362600950295,-0.004700807159308545,-0.06649373126542034
3449,2.0,300.21378,7346.1814,0.0,0.0,-0.03449000887497389,0.0,0.0,0.0,-0.6230736587400825,-0.6313622573406035,-0.978619785237253,0.008012570730804162,0.0055017012152756345,-0.07231147187433663
3450,2.0,299.95836,7219.2718,0.0,0.0,-0.03450001329534802,0.0,0.0,0.0,-0.6114570300536104,-0.5996343569593034,-0.983386985102739,-0.002489197514439668,-0.00024498806747843974,-0.08200921866717972
3451,2.0,300.14042,7244.0237,0.0,0.0,-0.03450998480644474,0.0,0.0,0.0,-0.6161900732582255,-0.6139456736242204,-0.9718665746457631,-0.007543845996819633,-0.0028985969616942475,-0.08808244623581062
3452,2.0,299.51412999999997,7258.4514,0.0,0.0,-0.03451998922681887,0.0,0.0,0.0,-0.6047236994290824,-0.6072953585803854,-0.994368934191573,-0.016761670527498086,-0.0013588652508095588,-0.08520743115031873
3453,2.0,299.93567,7314.1386,0.0,0.0,-0.034529993647193113,0.0,0.0,0.0,-0.6327252205801174,-0.6057112737715484,-0.9848789958749891,-0.01036708258365139,0.006956641422017054,-0.07399578636981553
3454,2.0,299.24632,7248.621,0.0,0.0,-0.034539998067567246,0.0,0.0,0.0,-0.5970490797266564,-0.6163334684123773,-0.9900172479270951,-0.00013658868713525385,0.004022460940660986,-0.05615254330132455
3455,2.0,299.25178999999997,7194.0557,0.0,0.0,-0.03455000248794138,0.0,0.0,0.0,-0.5903723492527144,-0.6174464121897164,-0.9789945459192392,0.0018956656993876385,0.0031658876771237868,-0.07063301801743613
3456,2.0,300.26666,7404.8084,0.0,0.0,-0.03456000690831551,0.0,0.0,0.0,-0.6362953870424655,-0.6312569198602074,-0.9833245486315771,0.008733730616527102,-0.0036279211100979365,-0.05188854876675105
3457,2.0,300.04565,7468.2499,0.0,0.0,-0.03457001132868964,0.0,0.0,0.0,-0.6582279859245443,-0.6277345686700784,-0.9841989226728711,0.002214991671052658,-0.003424047691927197,-0.07864710386111483
3458,2.0,299.53104,7366.4698,0.0,0.0,-0.034580015749063886,0.0,0.0,0.0,-0.6281628694873485,-0.6381099051890443,-0.9729501037726991,0.016010873481650183,0.0007677948938279561,-0.07703777392603633
3459,2.0,300.15423,7260.523,0.0,0.0,-0.03458998726016038,0.0,0.0,0.0,-0.6238398987307043,-0.6179783178297114,-0.965199480180272,0.014747803529744885,0.006744645487069682,-0.08606990355593812
3460,2.0,300.11562000000004,7257.2456,0.0,0.0,-0.034599991680534736,0.0,0.0,0.0,-0.6102071759227594,-0.6102680114587634,-0.985546261595843,0.008954497953615142,0.012013406279880887,-0.08006050263760643
3461,2.0,299.81145,7190.687,0.0,0.0,-0.03460999610090887,0.0,0.0,0.0,-0.6082564465652374,-0.6019687635996914,-0.9755640965131801,-0.014483381730648486,-0.006237916173634394,-0.08965367188762852
3462,2.0,300.3826,7172.0694,0.0,0.0,-0.034620000521283,0.0,0.0,0.0,-0.6118913090464704,-0.5969356463779614,-0.971303065735149,-0.01730379074175118,0.011472660032763388,-0.09006629468610122
3463,2.0,300.05914,7194.5072,0.0,0.0,-0.03463000494165713,0.0,0.0,0.0,-0.5952688803609644,-0.6115436933346634,-0.9801379479945841,-0.004927217184878476,0.0016373402208428984,-0.091798413308048
3464,2.0,300.48877999999996,7354.1176,0.0,0.0,-0.034640009362031154,0.0,0.0,0.0,-0.6205726332532504,-0.6210614149689895,-0.993834069861286,-0.0008185889592209402,-0.004593691121012016,-0.08033817470826052
3465,2.0,300.17042000000004,7378.6632,0.0,0.0,-0.03465001378240551,0.0,0.0,0.0,-0.6336589102822654,-0.6202747782538545,-0.988995658778772,-0.012607735218786588,-0.004402482619816206,-0.06603078337423093
3466,2.0,299.98472000000004,7419.7828,0.0,0.0,-0.034659985293502005,0.0,0.0,0.0,-0.6338827169643534,-0.6238242034866555,-0.997721788904974,0.00096529207097441,0.0019969294077565878,-0.04786983776338516
3467,2.0,299.55203,7380.8987,0.0,0.0,-0.03466998971387614,0.0,0.0,0.0,-0.6309581630682224,-0.6273095406506314,-0.985341210173106,0.013832926842203589,0.006674240715796274,-0.060852989236972445
3468,2.0,299.45526,7346.5688,0.0,0.0,-0.03467999413425027,0.0,0.0,0.0,-0.6348074191381143,-0.6168234153657314,-0.9815426368732161,0.015205393354405485,0.010083471651511172,-0.06150893391445914
3469,2.0,299.98035,7431.156,0.0,0.0,-0.034689998554624624,0.0,0.0,0.0,-0.6406005448623514,-0.6255081744903505,-0.992777158814477,0.021856525077821078,-0.011435477807093789,-0.08399342479475562
3470,2.0,299.84132,7387.7657,0.0,0.0,-0.034700002974998756,0.0,0.0,0.0,-0.6438660270196295,-0.6251719983721724,-0.9766582748986671,-0.01087024130505929,-0.0032928159972756372,-0.07529538905407633
3471,2.0,300.0101,7208.7080000000005,0.0,0.0,-0.03471000739537289,0.0,0.0,0.0,-0.6043373066359484,-0.6018350753814974,-0.9850948586762931,-0.0018071443203012585,-0.0017383151529333483,-0.08642908551763662
3472,2.0,300.51193,7234.9542,0.0,0.0,-0.03472001181574691,0.0,0.0,0.0,-0.6081492548371584,-0.5971239487765454,-0.9939722062474191,-0.012162702602615288,0.003462861047607777,-0.07131447227944043
3473,2.0,300.64592999999996,7351.8292,0.0,0.0,-0.03473001623612104,0.0,0.0,0.0,-0.6208972887177914,-0.6129762972535504,-1.000898925786033,-0.005146296751274946,0.009561703781416691,-0.07543177555728663
3474,2.0,299.9405,7343.5106,0.0,0.0,-0.03473998774721776,0.0,0.0,0.0,-0.6200067736024044,-0.6147149432326414,-0.9975221279727691,-0.013050097920944385,0.01225543221201699,-0.06280885070625093
3475,2.0,300.3013,7373.1625,0.0,0.0,-0.03474999216759189,0.0,0.0,0.0,-0.6228665301546404,-0.6298522816440804,-0.988538470201151,0.007408644388276273,0.004225485356572936,-0.06963914024609803
3476,2.0,300.1007,7380.5335,0.0,0.0,-0.034759996587966024,0.0,0.0,0.0,-0.6182867815576545,-0.6352476357765604,-0.989963464611787,-0.0035887254551546267,-0.00020691205389562983,-0.06379124531420573
3477,2.0,299.7627,7391.210999999999,0.0,0.0,-0.03477000100834027,0.0,0.0,0.0,-0.6277310729572334,-0.6365103277861784,-0.9825021847179161,0.019057753009353782,-0.01002007482190439,-0.06981221248242893
3478,2.0,300.07424,7382.6046,0.0,0.0,-0.03478000542871451,0.0,0.0,0.0,-0.6243835580718594,-0.6239454895236255,-0.995798417300152,-0.00876508857929689,0.006940408851440024,-0.07864898546655053
3479,2.0,300.04434,7290.438,0.0,0.0,-0.03479000984908853,0.0,0.0,0.0,-0.6273564642627625,-0.6075967599551314,-0.9811578754127431,0.004904126025699555,-0.004343788385248536,-0.060719576622805645
3480,2.0,300.45672,7267.203,0.0,0.0,-0.034800014269462665,0.0,0.0,0.0,-0.6082686663614434,-0.6112587775390443,-0.989520795908099,-0.005571861793274944,-0.009566613890076282,-0.08797047095400952
3481,2.0,300.41816,7355.1205,0.0,0.0,-0.03480998578055938,0.0,0.0,0.0,-0.6294086300877954,-0.6220121272728174,-0.984352207147999,0.024436107844906078,-0.018324967497283483,-0.08372756316726712
3482,2.0,300.51186,7423.2798,0.0,0.0,-0.034819990200933515,0.0,0.0,0.0,-0.6428979172115843,-0.6167925619001864,-0.99680121065912,0.01056952792713119,-0.011576739056535189,-0.09486168823561972
3483,2.0,300.09258,7381.1573,0.0,0.0,-0.03482999462130765,0.0,0.0,0.0,-0.6317852385948485,-0.6173612282538093,-0.994541044853559,0.01051470197747029,-0.018386790952134982,-0.07545430213350983
3484,2.0,300.09657999999996,7366.9352,0.0,0.0,-0.03483999904168189,0.0,0.0,0.0,-0.6323462549102165,-0.6097996467325394,-0.9972184670503,-0.015165403412708786,-0.0032104303541698066,-0.06840032547508652
3485,2.0,299.87008,7508.5975,0.0,0.0,-0.03485000346205602,0.0,0.0,0.0,-0.6334461784237704,-0.6393908559654644,-1.009589105798687,0.007043660455180164,0.0013812688184706187,-0.06591101518591073
3486,2.0,299.97937,7503.6576,0.0,0.0,-0.034860007882430155,0.0,0.0,0.0,-0.6368120635334574,-0.6405555869554144,-1.0035569037133552,0.0016194311266504086,0.013276665709554885,-0.05133462317558286
3487,2.0,300.16307,7361.191,0.0,0.0,-0.03487001230280429,0.0,0.0,0.0,-0.6101278485724304,-0.6361925117598124,-0.9912978744634832,0.005702992770866564,-0.003216909176634217,-0.07387259846240783
3488,2.0,300.07982999999996,7339.0589,0.0,0.0,-0.034879983813901005,0.0,0.0,0.0,-0.6183138049378214,-0.6331674637187634,-0.97940938064268,-0.005347457698927985,-0.01230042051645699,-0.05139505949104745
3489,2.0,300.57943,7335.8914,0.0,0.0,-0.03488998823427503,0.0,0.0,0.0,-0.6007579905251974,-0.6393660617355174,-0.989803766263526,-0.0004734915893449816,-0.013508483146933488,-0.1050409831517379
3490,2.0,300.59941000000003,7275.4542,0.0,0.0,-0.03489999265464916,0.0,0.0,0.0,-0.6207837439115854,-0.6160895689808065,-0.9746831059487331,0.013404580428679088,0.001957694438709398,-0.07788061359771813
3491,2.0,300.69978,7247.755999999999,0.0,0.0,-0.03490999707502351,0.0,0.0,0.0,-0.6111938383401354,-0.6086170420108253,-0.9833259570492161,0.007254463693434822,-0.003224985894506327,-0.10662339609790991
3492,2.0,300.3794,7269.6702,0.0,0.0,-0.034920001495397646,0.0,0.0,0.0,-0.6168928837925873,-0.6111095156668135,-0.9817958278082041,0.004335393608170035,0.0024054524949996777,-0.07311249978064194
3493,2.0,299.74204,7333.8165,0.0,0.0,-0.03493000591577178,0.0,0.0,0.0,-0.6250691230895193,-0.6142819915974124,-0.9899459657825601,-0.012648385799548488,-0.007792575794267352,-0.09018348719266722
3494,2.0,299.86596000000003,7504.3209,0.0,0.0,-0.03494001033614591,0.0,0.0,0.0,-0.6521117651409204,-0.6335051698445925,-0.9955092255891111,0.013393719400857188,0.006611413940695754,-0.07188997807123843
3495,2.0,300.06691,7513.9161,0.0,0.0,-0.03495001475651993,0.0,0.0,0.0,-0.6405246726948634,-0.6354803590595284,-1.008037830028088,-0.014522765748785386,-0.007929813123586623,-0.06201570081947314
3496,2.0,299.84497000000005,7498.0355,0.0,0.0,-0.03495998626761676,0.0,0.0,0.0,-0.6426041658750934,-0.6343165602596704,-1.002294819653797,-0.0018439516434338582,0.008653777989561393,-0.05726809923742134
3497,2.0,300.04646,7507.4625,0.0,0.0,-0.03496999068799078,0.0,0.0,0.0,-0.6447075312276794,-0.6430556701196534,-0.9943179373140401,-0.019537043611406082,0.004989719719946995,-0.05332093179711625
3498,2.0,299.75581,7462.646,0.0,0.0,-0.034979995108364914,0.0,0.0,0.0,-0.6454558569565334,-0.6354764884441464,-0.987525696328698,0.004407960959131876,0.025587803372319574,-0.06321426017726174
3499,2.0,300.20538999999997,7293.7732,0.0,0.0,-0.034989999528739046,0.0,0.0,0.0,-0.6223383127450094,-0.6098398119665035,-0.9849468025716811,-0.0004764142281984236,-0.0026357222941755377,-0.06117619575387045
3500,2.0,300.37687999999997,7280.3121,0.0,0.0,-0.0350000039491134,0.0,0.0,0.0,-0.6176229000921344,-0.6097714479822565,-0.9856387611974722,0.0029945773813917775,-0.005215349542939925,-0.08033092997004551
3501,2.0,299.81631,7330.3995,0.0,0.0,-0.03501000836948753,0.0,0.0,0.0,-0.6129679582052274,-0.6213957165744824,-0.9938947331447731,-0.014318117599588186,-0.009550719947682671,-0.095978353680576
3502,2.0,299.71785,7344.5089,0.0,0.0,-0.035020012789861554,0.0,0.0,0.0,-0.6227629455969174,-0.6153055464509295,-0.9944788312974191,0.008981761068755803,0.01015153591637859,-0.08678943170370002
3503,2.0,300.04927000000004,7352.7413,0.0,0.0,-0.03502998430095827,0.0,0.0,0.0,-0.6260002492689144,-0.6161786843271014,-0.9928708337862221,0.002192994214031678,0.00039097172099840464,-0.09265842452917451
3504,2.0,299.62036,7366.095,0.0,0.0,-0.035039988721332405,0.0,0.0,0.0,-0.6407084863955044,-0.6082073545978924,-0.9901931076144511,-0.003613114993011687,-0.007410398729499414,-0.06675128221558864
3505,2.0,299.95193,7485.5184,0.0,0.0,-0.03504999314170654,0.0,0.0,0.0,-0.6378459839354974,-0.6374641102378094,-1.000100586032243,-0.00973394920566599,0.007933324339158153,-0.08514346771125601
3506,2.0,299.99,7474.7349,0.0,0.0,-0.03505999756208067,0.0,0.0,0.0,-0.6221693532908343,-0.6475828411689504,-1.002380581142261,-0.01061294569391619,0.015072958526585186,-0.061730384790064645
3507,2.0,299.36375,7353.7207,0.0,0.0,-0.0350700019824548,0.0,0.0,0.0,-0.6005344270231334,-0.6271275102701664,-1.007685533100819,-0.004013233373325296,0.006475668622148734,-0.06880306807183413
3508,2.0,299.54328,7311.1334,0.0,0.0,-0.035080006402829045,0.0,0.0,0.0,-0.6150342690016564,-0.6252314153580364,-0.982136310239307,-0.015139917132943487,0.0030713821442718173,-0.06987856009897693
3509,2.0,300.04954,7275.448,0.0,0.0,-0.0350900108232034,0.0,0.0,0.0,-0.6079822104256724,-0.6211741086451114,-0.9823982151251551,0.0026828544331771176,0.0059908571242765635,-0.08603649062064052
3510,2.0,300.23458999999997,7343.7361,0.0,0.0,-0.03510001524357731,0.0,0.0,0.0,-0.6371418865735085,-0.6165011207739234,-0.9786693939621491,0.010866652373205091,0.0010847974120861688,-0.08848558602659742
3511,2.0,300.30159,7417.8688,0.0,0.0,-0.03510998675467403,0.0,0.0,0.0,-0.6337402742652953,-0.6213027407453064,-0.9998038760054601,0.015188334275721886,0.007606062998009972,-0.07507479944105583
3512,2.0,300.19408,7416.6494,0.0,0.0,-0.03511999117504816,0.0,0.0,0.0,-0.6371682918711143,-0.6100316404754355,-1.00727629151793,0.005037653745077715,-0.024212377156575576,-0.09162547482073032
3513,2.0,299.51328,7465.2072,0.0,0.0,-0.03512999559542229,0.0,0.0,0.0,-0.6272710675443344,-0.6255006359096064,-1.016464838592269,0.006050392964377295,-0.004051052021382707,-0.07068494505856093
3514,2.0,299.6637,7498.8825,0.0,0.0,-0.035140000015796424,0.0,0.0,0.0,-0.6418391113870884,-0.6290093892833933,-1.008624542365992,-0.00994182840678207,0.006873730510059384,-0.07920484839190993
3515,2.0,299.96216,7458.0107,0.0,0.0,-0.03515000443617067,0.0,0.0,0.0,-0.6350911798286193,-0.6127792707716054,-1.019178626335099,0.0019711429019866585,-0.008349185687600472,-0.03969405037599776
3516,2.0,299.27194,7457.5041,0.0,0.0,-0.0351600088565448,0.0,0.0,0.0,-0.6581025962246694,-0.6166488830360064,-0.992143543129444,-0.008585031604726652,-0.019905271869997382,-0.05875497587141465
3517,2.0,299.55797,7465.8754,0.0,0.0,-0.03517001327691893,0.0,0.0,0.0,-0.6421904761242654,-0.6284662669647914,-0.9987829556022031,0.01072473656419909,0.009145642822704672,-0.05851861806033795
3518,2.0,299.61469,7424.3682,0.0,0.0,-0.03517998478801565,0.0,0.0,0.0,-0.6349284417300584,-0.6290795365878163,-0.992814588273171,0.00956064250326195,0.01060243525062889,-0.07962412925678973
3519,2.0,299.96272999999997,7410.0835,0.0,0.0,-0.03518998920838978,0.0,0.0,0.0,-0.6017020255108664,-0.6465459924741214,-1.004232315965013,-0.003990729493904337,0.02042872193790788,-0.07621809107213992
3520,2.0,299.57349,7410.5553,0.0,0.0,-0.035199993628763804,0.0,0.0,0.0,-0.6252126803636874,-0.6293984975867954,-0.9980126119486761,-0.013304748949326487,-0.0058312192670465345,-0.08995548362866501
3521,2.0,299.95844,7410.2747,0.0,0.0,-0.035209998049137936,0.0,0.0,0.0,-0.6129802793264434,-0.6395314342843383,-1.000026780894959,-0.0015035566558144885,0.0094263519078835,-0.1026740309181379
3522,2.0,300.0611,7316.9953,0.0,0.0,-0.03522000246951229,0.0,0.0,0.0,-0.6439483637227554,-0.6174790084454334,-0.9627564835266672,0.004360607222333426,0.007714435973055553,-0.0909318828357781
3523,2.0,300.80406,7358.326999999999,0.0,0.0,-0.03523000688988642,0.0,0.0,0.0,-0.6063649518085614,-0.6308335738359264,-0.9995491347978189,-0.0010681900402971488,-0.01110087222657079,-0.08029409630241033
3524,2.0,299.98978999999997,7470.0858,0.0,0.0,-0.035240011310260555,0.0,0.0,0.0,-0.6450994259688564,-0.6321543149437734,-0.993465824377443,-0.004492625908337656,-0.026606894859146073,-0.07277877876745623
3525,2.0,300.38293999999996,7608.3591,0.0,0.0,-0.03525001573063469,0.0,0.0,0.0,-0.6321027607786853,-0.6464735653569734,-1.0341748291401092,-0.008176337683516702,-0.006860563325009884,-0.06497646219467754
3526,2.0,299.86915,7580.6762,0.0,0.0,-0.035259987241731405,0.0,0.0,0.0,-0.6472300882791364,-0.6486694201786875,-1.008436776989961,0.019130288544262485,-0.0007484226766235673,-0.06372150533632294
3527,2.0,299.95637999999997,7494.745,0.0,0.0,-0.03526999166210543,0.0,0.0,0.0,-0.6312484592218723,-0.6295431086410673,-1.017423778486909,0.0007132215170194833,0.006414940389330323,-0.053623347435212354
3528,2.0,299.77349,7549.6419,0.0,0.0,-0.03527999608247956,0.0,0.0,0.0,-0.6572586906138823,-0.6391152114082604,-0.9985287007546101,0.008317732479321282,-0.0036994119841535365,-0.06611515265705754
3529,2.0,299.88478,7547.6506,0.0,0.0,-0.03529000050285369,0.0,0.0,0.0,-0.6343722991476715,-0.6410938760710394,-1.018831081550799,-0.02084985299747028,0.005254464847150305,-0.07216048342393523
3530,2.0,299.74592,7368.7336,0.0,0.0,-0.03530000492322782,0.0,0.0,0.0,-0.6229694560997985,-0.6266173793748204,-0.990324201912389,0.004197086793370216,0.003726024187429956,-0.0939530379699429
3531,2.0,300.40946,7281.766,0.0,0.0,-0.03531000934360218,0.0,0.0,0.0,-0.6043075272155094,-0.6276008500543814,-0.9815666610330871,-0.016903806211775785,-0.003991558433811147,-0.07184274136482653
3532,2.0,300.76565,7376.3665,0.0,0.0,-0.03532001376397631,0.0,0.0,0.0,-0.6193966551871904,-0.6260971261109755,-0.996737436697826,0.002207191874432878,-0.019918755189078083,-0.08367285678111802
3533,2.0,300.66766,7511.986,0.0,0.0,-0.035329985275072806,0.0,0.0,0.0,-0.6572138745619593,-0.6223163049528374,-1.0039259800622802,-0.0015525369629984685,0.0015322149150178385,-0.062234347018801844
3534,2.0,300.09589,7541.226,0.0,0.0,-0.03533998969544705,0.0,0.0,0.0,-0.6590180676900194,-0.6354163723157134,-0.997909979846047,0.013699787805563787,-0.004873934415119875,-0.07654157724606553
3535,2.0,300.32779,7550.2808,0.0,0.0,-0.03534999411582118,0.0,0.0,0.0,-0.6454382466697953,-0.6385138272089085,-1.011144758809718,0.003107640387175227,-2.332412564191198e-05,-0.06232404498390435
3536,2.0,300.25625,7553.1654,0.0,0.0,-0.035359998536195314,0.0,0.0,0.0,-0.6402761427103354,-0.6456792482060805,-1.010018267878542,-0.0030772300158989573,-0.0009737976570838461,-0.07942149848854162
3537,2.0,300.03736000000004,7536.0097,0.0,0.0,-0.035370002956569446,0.0,0.0,0.0,-0.6354877456527575,-0.6388645535985223,-1.016406475386509,-0.01866490176008238,0.02057098326519798,-0.0976562917931756
3538,2.0,299.88749,7422.3627,0.0,0.0,-0.03538000737694358,0.0,0.0,0.0,-0.6162901925006065,-0.6375915973653914,-1.002331154802383,-0.01161167186698279,0.007803748903120054,-0.08306588957371502
3539,2.0,299.75111,7269.0162,0.0,0.0,-0.03539001179731782,0.0,0.0,0.0,-0.5994899688200535,-0.6287390744217154,-0.981370384356216,-0.014574183125109883,0.01166886679537749,-0.08836682602212673
3540,2.0,299.45808,7234.9388,0.0,0.0,-0.035400016217692176,0.0,0.0,0.0,-0.6109671236302604,-0.6138203852493554,-0.9744532400310469,-0.0006410930857359613,-0.013815323648216287,-0.07064264997288673
3541,2.0,300.34913,7399.8549,0.0,0.0,-0.03540998772878867,0.0,0.0,0.0,-0.6131977531954064,-0.6361380596994384,-1.000035312460801,-0.0008045046308434252,-0.007838977481271842,-0.1020094097800449
3542,2.0,300.16017999999997,7515.3509,0.0,0.0,-0.035419992149162804,0.0,0.0,0.0,-0.6443637658662523,-0.6226500999332804,-1.0174651190909891,-0.009884648981113901,-0.01841704356037068,-0.07073969298796413
3543,2.0,299.7362,7548.7482,0.0,0.0,-0.03542999656953694,0.0,0.0,0.0,-0.6422451105696574,-0.6306300220233374,-1.021755827964449,-0.004272106310899066,-0.005629628600026085,-0.09123481827117551
3544,2.0,299.65664,7600.307,0.0,0.0,-0.03544000098991107,0.0,0.0,0.0,-0.6688518220305354,-0.6278676996007174,-1.013583965907949,-0.0024522764033208374,-0.012420089406267387,-0.058697191231461734
3545,2.0,300.25597999999997,7636.5142,0.0,0.0,-0.0354500054102852,0.0,0.0,0.0,-0.6745459532200023,-0.6289908265415615,-1.017772843146359,0.015431624743982787,0.01047707290850659,-0.06410344388201734
3546,2.0,300.87602999999996,7601.3266,0.0,0.0,-0.035460009830659445,0.0,0.0,0.0,-0.6634361927635544,-0.6305130929617974,-1.016664246211949,0.0015303641123851784,0.0015329793108932784,-0.05433577979252394
3547,2.0,300.83367999999996,7477.7371,0.0,0.0,-0.03547001425103358,0.0,0.0,0.0,-0.6353992889190274,-0.6299775396214424,-1.0076685408966422,0.011611910994006387,0.003221471639184497,-0.06689072265460033
3548,2.0,300.95718,7492.1599,0.0,0.0,-0.035479985762130295,0.0,0.0,0.0,-0.6295980065314855,-0.6371097158828334,-1.0107218180854771,-0.009548352286174002,-0.018545982675345983,-0.08557377679022422
3549,2.0,300.77588,7540.8718,0.0,0.0,-0.03548999018250443,0.0,0.0,0.0,-0.6235934053788774,-0.6440529919280814,-1.024590293794189,0.01899056540847288,0.007538626542904513,-0.08561583173562472
3550,2.0,300.58374,7459.9289,0.0,0.0,-0.03549999460287856,0.0,0.0,0.0,-0.6235746501195264,-0.6290293300453613,-1.015028151275479,-0.012030403550308388,0.0008686222156438383,-0.09036944087751941
3551,2.0,299.97141,7393.8036,0.0,0.0,-0.03550999902325258,0.0,0.0,0.0,-0.6244742946183144,-0.6217067742226815,-1.001350612415611,0.0054390750636949155,0.018726501286661784,-0.06924068673702373
3552,2.0,299.95392999999996,7458.6915,0.0,0.0,-0.03552000344362671,0.0,0.0,0.0,-0.6239507786891474,-0.6327503289175954,-1.010554854733999,-0.012794361701705188,-0.009505826686102052,-0.06999770615173573
3553,2.0,299.98952,7613.9919,0.0,0.0,-0.03553000786400107,0.0,0.0,0.0,-0.6523869638680804,-0.6436311860439524,-1.018445235912719,0.003437389155993897,0.0027270971881935375,-0.07456096714309453
3554,2.0,300.1892,7692.0318,0.0,0.0,-0.0355400122843752,0.0,0.0,0.0,-0.6582591737626224,-0.6503231659318993,-1.029603247338929,0.0001977152387004748,-0.006423472563122384,-0.07310565223646613
3555,2.0,299.99855,7561.116999999999,0.0,0.0,-0.035549983795471696,0.0,0.0,0.0,-0.6329049204853524,-0.6414337708170844,-1.024052055341069,0.003273809654549857,0.006729023602327924,-0.08986790538277172
3556,2.0,299.75628,7479.1865,0.0,0.0,-0.03555998821584583,0.0,0.0,0.0,-0.6440563863159163,-0.6206023113486795,-1.0088272329159962,0.007197206754134003,-0.0037654639343223566,-0.06893963290706204
3557,2.0,299.52541,7527.382,0.0,0.0,-0.03556999263622018,0.0,0.0,0.0,-0.6473860882645324,-0.6441839849010094,-0.996566085973415,-0.005807423291098055,0.005667489703262684,-0.0994993785263241
3558,2.0,299.85392,7590.0799,0.0,0.0,-0.035579997056594204,0.0,0.0,0.0,-0.6609485219130404,-0.6359577214466404,-1.010288532077715,0.007659497957933593,-0.01077116267053099,-0.06435156856650534
3559,2.0,299.46653,7467.4617,0.0,0.0,-0.035590001476968336,0.0,0.0,0.0,-0.6291233393896394,-0.6329714403544173,-1.007827124669793,-0.01169637754884259,0.0017996965267662183,-0.09365772217529751
3560,2.0,299.73941,7374.4757,0.0,0.0,-0.03560000589734247,0.0,0.0,0.0,-0.6076190311923294,-0.6277989809789354,-1.0062384599705039,-0.0038884672275618366,-0.004493197482719066,-0.06459023658781003
3561,2.0,300.00352000000004,7418.5493,0.0,0.0,-0.0356100103177166,0.0,0.0,0.0,-0.6093764830932764,-0.6414652018351864,-1.004212040830512,-0.016148002697183785,-0.00023469021419462077,-0.07876467734971843
3562,2.0,300.83499,7620.170999999999,0.0,0.0,-0.035620014738090955,0.0,0.0,0.0,-0.6591600544265324,-0.6348524986350634,-1.0223291248710291,0.006761814098089093,0.014835138595614186,-0.043669877595381365
3563,2.0,300.83001,7772.7665,0.0,0.0,-0.03562998624918745,0.0,0.0,0.0,-0.6716125029879934,-0.6615882778936794,-1.029526139006319,0.0011652335619995989,0.008858202615786532,-0.06634124117837073
3564,2.0,300.41906,7616.0567,0.0,0.0,-0.03563999066956158,0.0,0.0,0.0,-0.6714191748689134,-0.6285686964174004,-1.015103233107889,0.011192934104156591,-0.0007090078050211222,-0.05156465830603555
3565,2.0,300.01484,7565.1695,0.0,0.0,-0.035649995089935826,0.0,0.0,0.0,-0.6481918754065574,-0.6473500773559784,-1.004080683087548,0.005385416986099275,-0.00014400784622246786,-0.08652853500170152
3566,2.0,299.74059,7615.4929,0.0,0.0,-0.03565999951030996,0.0,0.0,0.0,-0.6420047575134364,-0.6393623532401513,-1.033552592253699,0.02037195054805498,-0.004118672482706327,-0.08296517960652572
3567,2.0,299.63218,7587.7704,0.0,0.0,-0.03567000393068409,0.0,0.0,0.0,-0.6478908894643524,-0.6432619678400134,-1.015339928331249,0.0031580757215028074,-0.0032991170956725067,-0.09648353788893381
3568,2.0,300.13223999999997,7462.1177,0.0,0.0,-0.03568000835105822,0.0,0.0,0.0,-0.6402163001594294,-0.6308919471741874,-0.997189204387412,-0.007438841369081483,-0.004752113382097076,-0.0968278564849154
3569,2.0,299.93137,7286.1394,0.0,0.0,-0.035690012771432356,0.0,0.0,0.0,-0.6095391502643305,-0.6316525230967505,-0.9736127490730971,-0.008969655364511062,-0.007252428377958953,-0.1044186348078169
3570,2.0,299.68857,7247.432,0.0,0.0,-0.035699984282529074,0.0,0.0,0.0,-0.5988385807282663,-0.6287377875940884,-0.975461981168102,-0.016301286159061686,0.003446161976684707,-0.07635893384929003
3571,2.0,299.95701,7441.6576,0.0,0.0,-0.035709988702903206,0.0,0.0,0.0,-0.6084512742944654,-0.6381149106445384,-1.015511876873219,-0.0012726549938762688,0.012325796351961387,-0.07007219421958713
3572,2.0,300.01479,7698.3828,0.0,0.0,-0.03571999312327745,0.0,0.0,0.0,-0.6441291984681023,-0.6544053783322824,-1.041581586046099,-0.00996132779700651,0.0073439141215378935,-0.06245550303862824
3573,2.0,299.9494,7653.6586,0.0,0.0,-0.03572999754365158,0.0,0.0,0.0,-0.6523279825797593,-0.6541548319800554,-1.020038267719939,-0.0028717998402745773,0.007840747021246482,-0.07499601823253073
3574,2.0,300.50411,7628.6397,0.0,0.0,-0.03574000196402549,0.0,0.0,0.0,-0.6672391331713754,-0.6425273007225074,-1.009149547772806,-0.0005691869817893815,0.008769137830671521,-0.06720668139353303
3575,2.0,299.56385,7654.5095,0.0,0.0,-0.035750006384399846,0.0,0.0,0.0,-0.6718290547993654,-0.6422002945177344,-1.012750405580683,0.0008371724625474893,-0.009028629154781321,-0.08355141166388233
3576,2.0,299.48567,7732.0601,0.0,0.0,-0.03576001080477398,0.0,0.0,0.0,-0.6858481501354423,-0.6444430830840804,-1.020061977772279,-0.004829569563466405,-0.010255747675913491,-0.06645213633556522
3577,2.0,299.559,7598.4833,0.0,0.0,-0.03577001522514822,0.0,0.0,0.0,-0.6403681356869144,-0.6336806546294114,-1.0357003784906689,-0.003979066883928326,-0.022363966807401683,-0.09323475105355351
3578,2.0,300.42265,7345.0075,0.0,0.0,-0.03577998673624472,0.0,0.0,0.0,-0.6028695125410884,-0.6122272825146284,-1.017602110504509,-0.001132329278252199,-0.005287314516717315,-0.07462818615472852
3579,2.0,299.74844,7313.5587,0.0,0.0,-0.03578999115661907,0.0,0.0,0.0,-0.6053694538503134,-0.6159784255773374,-1.00179136607661,0.011348527776262489,-0.007558697000885312,-0.09350356326533321
3580,2.0,299.98447000000004,7626.0787,0.0,0.0,-0.035799995576993204,0.0,0.0,0.0,-0.6524736474141354,-0.6335785494168344,-1.0320853047838892,0.007497222914668294,0.0002333630592136408,-0.06018676919022164
3581,2.0,299.60247999999996,7732.9089,0.0,0.0,-0.03580999999736734,0.0,0.0,0.0,-0.6662216882159614,-0.6533670300273053,-1.031022506753999,0.007184746311029253,0.0019705857157566683,-0.07395618450290713
3582,2.0,300.10213,7592.6415,0.0,0.0,-0.03582000441774136,0.0,0.0,0.0,-0.6445436076265014,-0.6391147655782164,-1.024314993742019,-0.014334963895750785,0.013034888023693287,-0.050617054653514355
3583,2.0,300.05098,7584.7519,0.0,0.0,-0.03583000883811549,0.0,0.0,0.0,-0.6185652733476394,-0.6399845394640564,-1.047025373533359,-0.0018996559796064484,0.012803382667345488,-0.06798701771954622
3584,2.0,300.28099,7816.6926,0.0,0.0,-0.035840013258489845,0.0,0.0,0.0,-0.6573803920833934,-0.6687728391852403,-1.049926105919639,-0.02323635893150008,0.01965427259497568,-0.06966653244930143
3585,2.0,299.36715,7815.2634,0.0,0.0,-0.03584998476958634,0.0,0.0,0.0,-0.6742303055488504,-0.6566131185776694,-1.044801492213879,-0.004684172936391876,0.0026465839299474976,-0.08500014753761143
3586,2.0,300.39519,7617.5253,0.0,0.0,-0.03585998918996047,0.0,0.0,0.0,-0.6610065608787684,-0.6388862067531593,-1.015644713961329,-0.01101249756609889,-0.004432903123593476,-0.09445422288015601
3587,2.0,300.49534,7347.8067,0.0,0.0,-0.035869993610334605,0.0,0.0,0.0,-0.6328768939875864,-0.6083022859997614,-0.992370582079351,0.013877146089817688,-0.009907244154368871,-0.08711282465861642
3588,2.0,299.9586,7333.7644,0.0,0.0,-0.03587999803070896,0.0,0.0,0.0,-0.6165560490618445,-0.6156825058856324,-0.9970426884229521,0.0018353843098633282,-0.014314121341193788,-0.08738346680007672
3589,2.0,299.73375,7466.3325,0.0,0.0,-0.03589000245108298,0.0,0.0,0.0,-0.6128404812101463,-0.6278387510453605,-1.028899443819469,0.009461752434577262,-0.024725645074231178,-0.09131038950338381
3590,2.0,299.69635,7545.3206,0.0,0.0,-0.03590000687145711,0.0,0.0,0.0,-0.6235492378070184,-0.6469731685837804,-1.023066669618819,0.0011861272856866487,-0.005260657933086515,-0.07800731140347222
3591,2.0,299.72407000000004,7572.9216,0.0,0.0,-0.035910011291831245,0.0,0.0,0.0,-0.6341086818691544,-0.6541438382164704,-1.0137265301970189,0.005925028798404813,0.0021463226985255577,-0.07605501454804553
3592,2.0,299.90476,7648.3067,0.0,0.0,-0.03592001571220538,0.0,0.0,0.0,-0.6649809026735053,-0.6482006501524233,-1.011712695623269,-0.0028086059646628275,0.01968777368303198,-0.06233811092179253
3593,2.0,299.19662,7789.9947,0.0,0.0,-0.035929987223302096,0.0,0.0,0.0,-0.6809416081162043,-0.6582644527956434,-1.028757791455489,-0.015060175363323587,-0.01091052508928499,-0.058799005641260046
3594,2.0,300.28211,7805.0668,0.0,0.0,-0.03593999164367623,0.0,0.0,0.0,-0.6679130052828813,-0.6589808003513414,-1.045651609047779,-0.0005746009391936974,0.006515629686217584,-0.047668709645035355
3595,2.0,300.80102,7601.1171,0.0,0.0,-0.03594999606405036,0.0,0.0,0.0,-0.6375272559840414,-0.6452465904133804,-1.027775952108589,-0.005026043216156845,0.00017450806238510484,-0.06808975418693554
3596,2.0,299.999,7461.5898,0.0,0.0,-0.035960000484424604,0.0,0.0,0.0,-0.6383426284720124,-0.6193464081147314,-1.0104479365834471,0.0042288285752778865,0.009313687008064342,-0.07470850952990583
3597,2.0,299.73305,7529.8489,0.0,0.0,-0.035970004904798736,0.0,0.0,0.0,-0.6551833112290584,-0.6365550019830873,-0.9971477523258211,-0.006706063355061924,-0.004828823507417776,-0.09346153973068581
3598,2.0,299.82153,7503.7888,0.0,0.0,-0.03598000932517287,0.0,0.0,0.0,-0.6572337139989174,-0.6259334963523263,-0.9977972253749191,-0.0016650546375780984,0.00038177869535862364,-0.09662850358074081
3599,2.0,299.56798,7500.6322,0.0,0.0,-0.035990013745547,0.0,0.0,0.0,-0.6383675442919714,-0.6354593847824583,-1.006177979072035,-0.003614715522869647,-0.01126350697362159,-0.087309725497549
3600,2.0,299.93661000000003,7598.2948,0.0,0.0,-0.035999985256643496,0.0,0.0,0.0,-0.6308137546639704,-0.6588152859475064,-1.020062788372359,-0.007542945014830713,0.003954126036691857,-0.09530757096862491
3601,2.0,299.98863,7623.2483,0.0,0.0,-0.03600998967701785,0.0,0.0,0.0,-0.6239128426054034,-0.6604359693499554,-1.0329283288670892,-0.005028301244004696,-0.014098220036385986,-0.08011405493189162
3602,2.0,300.1044,7820.6238,0.0,0.0,-0.03601999409739198,0.0,0.0,0.0,-0.6617553020401634,-0.6821495035604144,-1.033369497960629,-0.001093731035567849,-6.467530298670543e-06,-0.07268666724061552
3603,2.0,300.75698,7837.5796,0.0,0.0,-0.036029998517766226,0.0,0.0,0.0,-0.6596559694229753,-0.6731793321476274,-1.049593151936779,0.0037297914513017565,-0.0017733157498126385,-0.06338556631866835
3604,2.0,300.93104,7604.3719,0.0,0.0,-0.03604000293814036,0.0,0.0,0.0,-0.6529030222765114,-0.6539978592745633,-1.004638284750079,0.002592072797092668,0.008708834960245092,-0.07384554164498754
3605,2.0,300.01447,7455.4817,0.0,0.0,-0.03605000735851427,0.0,0.0,0.0,-0.6260122968126034,-0.6281611570946795,-1.0121068296471671,-0.014991653312060985,-0.0017640455246477381,-0.08123300525582343
3606,2.0,299.83096,7575.347,0.0,0.0,-0.03606001177888862,0.0,0.0,0.0,-0.6350020847473263,-0.6416828276916644,-1.026031439411419,-0.008041045186439371,0.004330061480843796,-0.08351980028726252
3607,2.0,300.00344,7609.7994,0.0,0.0,-0.036070016199262755,0.0,0.0,0.0,-0.6272290987251924,-0.6442094782735254,-1.041750393512759,-0.01212514952740909,-0.005561162480169005,-0.08240221481121542
3608,2.0,299.25575,7618.7513,0.0,0.0,-0.03607998771035936,0.0,0.0,0.0,-0.6550326510716894,-0.6385927897892013,-1.0222847445166492,0.008732485332154202,0.014703704858892686,-0.08305589892772902
3609,2.0,299.81641,7735.5357,0.0,0.0,-0.036089992130733495,0.0,0.0,0.0,-0.6601497160642044,-0.6544007781768284,-1.036859232630039,0.000934797711397351,-0.006264449444728024,-0.08743327412199232
3610,2.0,300.02504,7636.8987,0.0,0.0,-0.03609999655110785,0.0,0.0,0.0,-0.6635776830075184,-0.6427948595439135,-1.015053989153029,0.014690337050323386,0.002145664896560638,-0.07456906402464364
3611,2.0,299.77985,7619.95,0.0,0.0,-0.03611000097148198,0.0,0.0,0.0,-0.6300776284663204,-0.6480855145435603,-1.0381114071036188,0.01169819025327149,-0.008750490989081223,-0.06179340894628464
3612,2.0,300.45065,7831.1922,0.0,0.0,-0.036120005391856114,0.0,0.0,0.0,-0.6602032460669874,-0.6583538214544633,-1.0619297758793091,0.003157446391865697,-0.007248493826495643,-0.06212171819068624
3613,2.0,299.82487000000003,7767.3495,0.0,0.0,-0.036130009812230135,0.0,0.0,0.0,-0.6534025444433104,-0.6577778698326214,-1.049899862742049,0.0021121653283794877,-0.01154388036904229,-0.048503443315917154
3614,2.0,299.96787,7528.107,0.0,0.0,-0.03614001423260427,0.0,0.0,0.0,-0.6451427424106313,-0.6341055002638404,-1.009108318626237,-0.007627255326501492,-0.0022729588986735777,-0.07126203760001554
3615,2.0,299.52803,7557.8992,0.0,0.0,-0.036149985743700985,0.0,0.0,0.0,-0.6531991142207334,-0.6300433806129404,-1.0141701310907991,-0.0050894721657917955,0.001095019484395009,-0.07484732276710562
3616,2.0,299.59179,7682.0336,0.0,0.0,-0.03615999016407512,0.0,0.0,0.0,-0.6599971003341424,-0.6518461314947044,-1.023303162192159,-0.020635790741593982,0.013056424654568789,-0.1012454060323936
3617,2.0,299.881,7627.8609,0.0,0.0,-0.03616999458444925,0.0,0.0,0.0,-0.6337740762886314,-0.6449656262931514,-1.039939512934039,-0.008483546906510892,0.01202786231905759,-0.090806694772673
3618,2.0,300.27348,7652.0359,0.0,0.0,-0.03617999900482338,0.0,0.0,0.0,-0.6362079536913364,-0.6614578118108033,-1.028362117291439,-0.007833496507505913,0.0028486798034678073,-0.09794540041770841
3619,2.0,299.58578,7563.419,0.0,0.0,-0.036190003425197736,0.0,0.0,0.0,-0.6291392879462134,-0.6313907296684135,-1.038560479547939,0.006979512908574293,0.006304734546178853,-0.06381619761116834
3620,2.0,300.35067999999995,7515.425,0.0,0.0,-0.03620000784557176,0.0,0.0,0.0,-0.6260654519128493,-0.6497581979411414,-1.0086778798512561,0.014763730808066786,-0.005408187654271564,-0.08473261708720821
3621,2.0,300.55282,7703.4292,0.0,0.0,-0.03621001226594589,0.0,0.0,0.0,-0.6540989411045395,-0.6455228125231414,-1.042028328015189,0.006040019816478545,-0.015480351941291786,-0.07473682480395033
3622,2.0,300.36391000000003,7881.0864,0.0,0.0,-0.03621998377704261,0.0,0.0,0.0,-0.6807700648742744,-0.6727175940770573,-1.042165826053759,-0.0028186549738545875,-0.007034061025057773,-0.08304778786067851
3623,2.0,300.00915,7696.8106,0.0,0.0,-0.03622998819741674,0.0,0.0,0.0,-0.6306219362875394,-0.6641576369672554,-1.044858639519519,-0.0038017073837743063,-0.0004295577945490537,-0.06334174933134394
3624,2.0,299.71623,7571.4313,0.0,0.0,-0.03623999261779087,0.0,0.0,0.0,-0.6333414083634304,-0.6525172171684354,-1.015667410763569,8.684377635956341e-05,0.009550464000707411,-0.07048596705692334
3625,2.0,299.16784,7837.0916,0.0,0.0,-0.036249997038165005,0.0,0.0,0.0,-0.6637670391862064,-0.6689310784533573,-1.049582006185679,-0.0035585603917275667,0.003050287290439917,-0.07041961842712523
3626,2.0,299.89662000000004,7818.6299,0.0,0.0,-0.03626000145853914,0.0,0.0,0.0,-0.7077258916571073,-0.6490582346395604,-1.019884152379729,0.011411037201431688,0.006965415965233034,-0.07750790170743432
3627,2.0,299.4557,7552.4484,0.0,0.0,-0.03627000587891338,0.0,0.0,0.0,-0.6403876508838404,-0.6495192431700584,-1.00584882477705,-0.0012816185082358987,0.008032106091407153,-0.08425474199554563
3628,2.0,299.60812999999996,7517.5708,0.0,0.0,-0.03628001029928751,0.0,0.0,0.0,-0.6319390904900324,-0.6367473877795744,-1.016467371717519,-0.01056490649342509,-0.004410913772573296,-0.09800961311629572
3629,2.0,299.60077,7615.0651,0.0,0.0,-0.036290014719661645,0.0,0.0,0.0,-0.6216634476484054,-0.6431424955207223,-1.0499836585253188,-0.007838244698799523,0.0012052661615255087,-0.07970191241396633
3630,2.0,300.41732,7686.0152,0.0,0.0,-0.03629998623075814,0.0,0.0,0.0,-0.6482817810879303,-0.6450358951875864,-1.0430390449899392,-0.004341545961452226,0.01313780687610059,-0.08244657895359382
3631,2.0,299.87196,7699.3698,0.0,0.0,-0.03630999065113227,0.0,0.0,0.0,-0.6450352669725243,-0.6423234753323914,-1.053057454028679,0.004262965275121916,0.005051459682990255,-0.06290159146140374
3632,2.0,300.11456,7672.7517,0.0,0.0,-0.03631999507150663,0.0,0.0,0.0,-0.6664259290386183,-0.6505174667710754,-1.015381572910359,0.003237344809951057,-0.004396647819115356,-0.07542395529301482
3633,2.0,300.11315,7631.229,0.0,0.0,-0.03632999949188076,0.0,0.0,0.0,-0.6442803247205174,-0.6536505475377864,-1.021772242616069,-0.007746701706589932,-8.480783266863142e-05,-0.07815373313567293
3634,2.0,300.04422,7752.3148,0.0,0.0,-0.036340003912255,0.0,0.0,0.0,-0.6468210189487644,-0.6777814837043243,-1.031907682041359,-0.0037907929576721363,-0.0030600585677792672,-0.08868152630443522
3635,2.0,299.49665,7832.4617,0.0,0.0,-0.036350008332629136,0.0,0.0,0.0,-0.6576604442785323,-0.6703431235277154,-1.052869192160099,-0.017912658806341783,0.01094347294278669,-0.06735683391260194
3636,2.0,299.29575,7637.2096,0.0,0.0,-0.036360012753003046,0.0,0.0,0.0,-0.6500018339276863,-0.6499448487420624,-1.021574354871539,0.000961726737715039,-0.002381218795007998,-0.07475998364823594
3637,2.0,299.55672000000004,7476.9228,0.0,0.0,-0.036369984264099986,0.0,0.0,0.0,-0.6379794999011744,-0.6323758924756414,-1.0024424501933669,-0.008944268687230592,-0.002477807570065568,-0.08265593567600572
3638,2.0,299.47447,7715.5458,0.0,0.0,-0.036379988684473896,0.0,0.0,0.0,-0.6843119819238344,-0.6463554102628124,-1.014665914364729,0.007582731090607292,-0.010536579060379392,-0.08420074893746693
3639,2.0,299.6376,7828.6027,0.0,0.0,-0.03638999310484814,0.0,0.0,0.0,-0.6660953663259944,-0.6528965070783684,-1.060707897583719,-0.008011744526672622,-0.015223873009729286,-0.08408489392103292
3640,2.0,299.88942000000003,7745.9734,0.0,0.0,-0.03639999752522227,0.0,0.0,0.0,-0.6401651816918844,-0.6652778153503084,-1.0491395198670088,-0.0027424426583080174,-0.020213144873132083,-0.08822673608980092
3641,2.0,299.87616,7706.0153,0.0,0.0,-0.036410001945596626,0.0,0.0,0.0,-0.6305528528957214,-0.6492950311879304,-1.062588388444309,0.0007711523182993083,0.008750238284506282,-0.07571482393297134
3642,2.0,300.0616,7716.891,0.0,0.0,-0.03642000636597076,0.0,0.0,0.0,-0.6638609066754704,-0.6490130335525994,-1.032868243136159,0.026412147176675973,0.007202218897078664,-0.06356256996538724
3643,2.0,299.96328,7699.7973,0.0,0.0,-0.03643001078634489,0.0,0.0,0.0,-0.6629810712161374,-0.6464993931020224,-1.0310656712082589,0.0091501926196287,0.006354141229004914,-0.06991304606613044
3644,2.0,299.9923,7698.5004,0.0,0.0,-0.03644001520671891,0.0,0.0,0.0,-0.6697932529634474,-0.6498262883478614,-1.0205323284686991,0.004425692734556866,-0.023073791058955878,-0.06949515031413733
3645,2.0,300.21545,7698.3012,0.0,0.0,-0.03644998671781552,0.0,0.0,0.0,-0.6441713294072604,-0.6628483354530373,-1.033071703756239,-0.01101382897673029,-0.013695048834846088,-0.07902253734116722
3646,2.0,300.60452000000004,7659.253000000001,0.0,0.0,-0.03645999113818976,0.0,0.0,0.0,-0.6314966649663685,-0.6532693831151684,-1.0434555921060489,-0.008710467610131221,0.0004982864373745425,-0.08355951969118251
3647,2.0,299.92242000000005,7717.859,0.0,0.0,-0.036469995558563895,0.0,0.0,0.0,-0.6419479749778324,-0.6522336287304473,-1.051854827484989,-0.009723114319696672,0.004352980286180706,-0.07378440517370384
3648,2.0,299.38097999999997,7841.149,0.0,0.0,-0.03647999997893803,0.0,0.0,0.0,-0.6737443913308944,-0.6414507427562595,-1.0683183177598092,-0.007746016040247263,-0.0029206491342206272,-0.06902878878336102
3649,2.0,299.51363,7810.6449,0.0,0.0,-0.03649000439931216,0.0,0.0,0.0,-0.6813419938932193,-0.6370985194692284,-1.0558005246993991,-0.004375561679234316,0.015289707921726686,-0.07127518249356284
3650,2.0,300.04082999999997,7748.0594,0.0,0.0,-0.036500008819686514,0.0,0.0,0.0,-0.6731153960663173,-0.6547967360509064,-1.027304486837059,0.015650329711817283,-0.007794997765981382,-0.08835724270268092
3651,2.0,299.6181,7742.6598,0.0,0.0,-0.036510013240060535,0.0,0.0,0.0,-0.6498329757985214,-0.6511808720090484,-1.052561366779719,0.002864844688938157,-0.013274993846889885,-0.08355779412626221
3652,2.0,299.45727999999997,7728.4743,0.0,0.0,-0.03651998475115714,0.0,0.0,0.0,-0.6374650930904063,-0.6584125392977583,-1.053385544411059,-0.006867893176233283,-0.025447644538986975,-0.08284302318771983
3653,2.0,300.11163,7690.5607,0.0,0.0,-0.036529989171531385,0.0,0.0,0.0,-0.6370258086420524,-0.6632125279364804,-1.037500113318289,0.0009649037226085831,-0.010416271823005991,-0.06676829873776803
3654,2.0,300.55405,7672.4292,0.0,0.0,-0.03653999359190552,0.0,0.0,0.0,-0.6630272044931903,-0.6384701561295983,-1.030729474825079,-0.007170974215670054,0.0030941835139221374,-0.05758476319842364
3655,2.0,300.80211,7631.4972,0.0,0.0,-0.03654999801227965,0.0,0.0,0.0,-0.6626192092079243,-0.6524196715813084,-1.004745709525681,0.004015064518906016,0.0097152568691462,-0.07189660675339263
3656,2.0,300.11585,7731.0504,0.0,0.0,-0.03656000243265378,0.0,0.0,0.0,-0.6619167127810934,-0.6587392313950003,-1.029390363492919,-0.0063678619525840445,-0.007899603781130193,-0.07784750767720083
3657,2.0,299.90962,7953.7255,0.0,0.0,-0.036570006853027914,0.0,0.0,0.0,-0.6611572919636444,-0.6829648456508823,-1.0736118402572388,-0.002249449875153418,0.007350543715617183,-0.1048061219110589
3658,2.0,299.07202,8005.1567,0.0,0.0,-0.03658001127340216,0.0,0.0,0.0,-0.6751189056215484,-0.6815838465595884,-1.0766649654585592,-0.01052029815777259,-0.007360966310120813,-0.08569587140077402
3659,2.0,299.87111,7744.3819,0.0,0.0,-0.03659001569377629,0.0,0.0,0.0,-0.6359132498997514,-0.6605756965387454,-1.057609784077959,0.002414320763849908,5.256020895328875e-06,-0.096491068363677
3660,2.0,300.23874,7477.1409,0.0,0.0,-0.03659998720487301,0.0,0.0,0.0,-0.6406187934966524,-0.6152847342938754,-1.016960621866199,-0.008625960626616034,-0.015144539579899684,-0.06417093849767853
3661,2.0,300.09024,7582.8409,0.0,0.0,-0.03660999162524692,0.0,0.0,0.0,-0.6643227663360524,-0.6301325263567383,-1.0105389973699341,0.009111857923295361,0.0014841158314458285,-0.07817148325092473
3662,2.0,300.24,7767.5246,0.0,0.0,-0.03661999604562105,0.0,0.0,0.0,-0.6715355770404013,-0.6417528027435704,-1.047845194189269,0.008928617519560941,0.010803286751701389,-0.06628125170620024
3663,2.0,300.70308,7733.7738,0.0,0.0,-0.036630000465995405,0.0,0.0,0.0,-0.6324831247337245,-0.6791082029877614,-1.039282825544229,-0.0011624302029479287,-0.0029259011134639577,-0.09492603063021982
3664,2.0,300.24602000000004,7741.3374,0.0,0.0,-0.03664000488636954,0.0,0.0,0.0,-0.6522233645069344,-0.6548832676094464,-1.046066636288739,0.0023640978067432875,-0.018119995108054284,-0.07063018902315693
3665,2.0,300.59377,7860.0846,0.0,0.0,-0.03665000930674356,0.0,0.0,0.0,-0.6597435446291183,-0.6690190589595404,-1.060506868763879,-0.011229364498251989,-0.0045049439898033556,-0.07805991630891393
3666,2.0,299.88539,7882.3546,0.0,0.0,-0.03666001372711791,0.0,0.0,0.0,-0.6906981730641023,-0.6684112608870554,-1.036929552186979,0.011748452524481989,-0.0018812539392403084,-0.06854378851699523
3667,2.0,299.39137999999997,7903.8637,0.0,0.0,-0.03666998523821463,0.0,0.0,0.0,-0.6912495736360214,-0.6587421900852923,-1.052585482132099,-0.015801032425690486,0.01065120601769219,-0.07309395730381194
3668,2.0,299.90708,7786.8378,0.0,0.0,-0.03667998965858876,0.0,0.0,0.0,-0.6551566120889234,-0.6614225507073234,-1.0504250302688791,-0.006526001010266153,0.01236565457114509,-0.07918376367057901
3669,2.0,300.13842,7534.8542,0.0,0.0,-0.03668999407896267,0.0,0.0,0.0,-0.6201290120944684,-0.6265132881920474,-1.043765241336609,-0.013863981944518487,0.016133746268276784,-0.08278581711357401
3670,2.0,300.07402,7622.1984,0.0,0.0,-0.03669999849933692,0.0,0.0,0.0,-0.6495154130846804,-0.6271703504843944,-1.040272264266879,-0.015126707391389787,0.005779106801153434,-0.07367645046829953
3671,2.0,300.18619,7803.9076,0.0,0.0,-0.03671000291971105,0.0,0.0,0.0,-0.6664235985633883,-0.6518518259602664,-1.053917602038569,-0.010929645118671989,-0.007956180322988863,-0.07479181084712702
3672,2.0,299.67062000000004,7737.8616,0.0,0.0,-0.0367200073400854,0.0,0.0,0.0,-0.6771944268613864,-0.6423663662091245,-1.0325558581303291,-0.012762287269789688,-0.021772375670266183,-0.06076905261193853
3673,2.0,300.20425,7854.0387,0.0,0.0,-0.036730011760459536,0.0,0.0,0.0,-0.6864641859312404,-0.6719952379482663,-1.028972195176649,-0.006257646584881634,0.01030985928425389,-0.07883222465438483
3674,2.0,299.80508,8021.4867,0.0,0.0,-0.03674001618083367,0.0,0.0,0.0,-0.6720989542285024,-0.6956557322258753,-1.070576953557719,-0.0033040716860114868,-1.5879645434698985e-05,-0.08647266540443761
3675,2.0,299.82645,7929.1666,0.0,0.0,-0.036749987691930164,0.0,0.0,0.0,-0.6492633671223054,-0.6878086472239283,-1.073196610366259,-0.005858775515441125,0.007138889651253554,-0.08972482534940081
3676,2.0,299.87952,7814.4533,0.0,0.0,-0.036759992112304296,0.0,0.0,0.0,-0.6512988041881874,-0.6708327969035424,-1.053267095474369,-0.002350285282705098,-0.0045579342342580865,-0.07975288497349692
3677,2.0,300.07566,7757.0818,0.0,0.0,-0.03676999653267854,0.0,0.0,0.0,-0.6575107264437563,-0.6510393615000825,-1.0494090443936088,0.010511075555362391,-0.0018565116890234383,-0.07755479492206233
3678,2.0,299.90468,7656.2655,0.0,0.0,-0.03678000095305267,0.0,0.0,0.0,-0.6727925340544533,-0.6340767239610003,-1.020444277035009,0.013888172277405885,0.00904395081351845,-0.06367279029801513
3679,2.0,299.70718999999997,7660.6084,0.0,0.0,-0.036790005373426804,0.0,0.0,0.0,-0.6567559969742703,-0.6366626699387133,-1.035215031692769,0.004253583491121006,-0.0022841658500796177,-0.08829917131294973
3680,2.0,299.52872,7785.9163,0.0,0.0,-0.036800009793800936,0.0,0.0,0.0,-0.6530186138479194,-0.6530897136074364,-1.060615793149629,0.006461242271199963,0.0014966263291055185,-0.08183223021921233
3681,2.0,300.00786,7797.7818,0.0,0.0,-0.03681001421417529,0.0,0.0,0.0,-0.6464508077597273,-0.6623331687046944,-1.061546969991529,-0.012474229385610588,0.02334509991898198,-0.08399186540285171
3682,2.0,300.21999,7778.0735,0.0,0.0,-0.03681998572527179,0.0,0.0,0.0,-0.6596644097963084,-0.6544959426262204,-1.050179722419669,-0.014608812973777587,0.02158317857184388,-0.06951176254952683
3683,2.0,300.49065,7911.8730000000005,0.0,0.0,-0.03682999014564592,0.0,0.0,0.0,-0.6704291889912094,-0.6694222818368354,-1.0651603211731389,-0.005865607860865425,-0.006619396324983554,-0.08177910551646933
3684,2.0,299.76127,7955.7155,0.0,0.0,-0.03683999456602016,0.0,0.0,0.0,-0.7010155314123463,-0.6731734958270514,-1.0441498710745691,-0.0040204677763892764,-0.015369790143380184,-0.07176488424039264
3685,2.0,299.57445,7799.4609,0.0,0.0,-0.036849998986394294,0.0,0.0,0.0,-0.6661249126989104,-0.6626963175405344,-1.042020120689379,0.014619220065554687,-0.01057005684368339,-0.08664464738366091
3686,2.0,299.79663999999997,7772.7256,0.0,0.0,-0.03686000340676843,0.0,0.0,0.0,-0.6593401089693024,-0.6624497025986954,-1.040924696006269,0.007588678058094212,-0.011024189459002789,-0.09203363526576261
3687,2.0,300.29715,7786.4128,0.0,0.0,-0.03687000782714256,0.0,0.0,0.0,-0.6565583321447624,-0.6611964946100134,-1.049120268115109,0.011926257652029988,-0.01094128026957029,-0.08329732704230612
3688,2.0,299.40532,7682.7822,0.0,0.0,-0.03688001224751669,0.0,0.0,0.0,-0.6447398336408674,-0.6312255800346145,-1.0594085056554792,-0.0076894992801444925,-0.023185820043012277,-0.06918318074084834
3689,2.0,300.73824,7767.465999999999,0.0,0.0,-0.03688998375861341,0.0,0.0,0.0,-0.6523466871766054,-0.6522476318468294,-1.056521350820539,0.006598155259162224,0.008888842893510492,-0.06197279879698903
3690,2.0,300.11022,7861.0474,0.0,0.0,-0.03689998817898754,0.0,0.0,0.0,-0.6996614442437084,-0.6463238880522013,-1.0435767768180089,-0.013777709778004087,0.007608634728088783,-0.05129849371676715
3691,2.0,300.4899,7867.8043,0.0,0.0,-0.036909992599361785,0.0,0.0,0.0,-0.6615097510109295,-0.6785695693671023,-1.051536768278599,-0.01147706868394849,0.004415755689501155,-0.0937601404821554
3692,2.0,299.95814,7926.5866,0.0,0.0,-0.036919997019735695,0.0,0.0,0.0,-0.6685101540968154,-0.6797814468842054,-1.061192839081579,-0.014305115574304986,-0.0002976184966901587,-0.0853900178050886
3693,2.0,300.72011000000003,7972.9901,0.0,0.0,-0.03693000144010983,0.0,0.0,0.0,-0.6645985831457734,-0.6774984120238873,-1.0814928995350388,0.000849148197201902,-0.002319276283269748,-0.10103573925545109
3694,2.0,299.97038,7913.901,0.0,0.0,-0.03694000586048418,0.0,0.0,0.0,-0.6658601099177763,-0.6748812579430944,-1.0648869462961592,0.012522803582154489,0.011333385766768091,-0.07761367387212322
3695,2.0,300.32697,7772.0398,0.0,0.0,-0.036950010280858314,0.0,0.0,0.0,-0.6657739633942743,-0.6540015272399253,-1.042730510334489,0.006124437532659925,-0.007833961994601853,-0.08110730144841742
3696,2.0,299.90237,7710.0676,0.0,0.0,-0.03696001470123256,0.0,0.0,0.0,-0.6772327378476674,-0.6436387448896984,-1.022796537142159,0.024321007699796577,0.0008560165636672571,-0.06353115414603674
3697,2.0,300.27302000000003,7712.6672,0.0,0.0,-0.03696998621232905,0.0,0.0,0.0,-0.6446197837690193,-0.6574422510019984,-1.042396239126499,0.010561523251341189,-0.002919327248140167,-0.08567811925902201
3698,2.0,299.80309,7805.4451,0.0,0.0,-0.03697999063270341,0.0,0.0,0.0,-0.6609235959605804,-0.6514560200737034,-1.0602808126665688,0.021617416292722878,-0.00024063940069925975,-0.07433859522314813
3699,2.0,300.11755,7975.1436,0.0,0.0,-0.03698999505307754,0.0,0.0,0.0,-0.6723953602802554,-0.6863377019212573,-1.065511513657799,-0.007925974222932753,-0.026070087115167274,-0.08134343837097233
3700,2.0,299.86645,7950.7055,0.0,0.0,-0.03699999947345145,0.0,0.0,0.0,-0.6803152574343884,-0.6558667788190115,-1.0806338661002592,-0.006162259321792644,0.002808116564864528,-0.07105369716745394
3701,2.0,299.41177000000005,7870.6494,0.0,0.0,-0.037010003893825694,0.0,0.0,0.0,-0.6673535189751644,-0.6681413918554213,-1.056986027316399,-0.006471852823597145,0.0045209014629782355,-0.07313440118155343
3702,2.0,299.79499,7934.6542,0.0,0.0,-0.037020008314199826,0.0,0.0,0.0,-0.6972458864028114,-0.6669732462126343,-1.047717626001679,-0.0099407374403994,0.004742993117946975,-0.07693636177652773
3703,2.0,300.49622999999997,7939.2832,0.0,0.0,-0.03703001273457418,0.0,0.0,0.0,-0.6736485074739315,-0.6721484413633864,-1.067546930458679,-0.01929843030560678,-0.006414862673047654,-0.08995890638750281
3704,2.0,300.2406,7760.9403,0.0,0.0,-0.037039984245670676,0.0,0.0,0.0,-0.6567746610411124,-0.6674434955840444,-1.034913893763049,-0.021990050162748978,-0.006353109436428084,-0.08062643625570971
3705,2.0,300.81822999999997,7709.0006,0.0,0.0,-0.03704998866604481,0.0,0.0,0.0,-0.6260948665632524,-0.6624250299587604,-1.054823751602999,0.003034250277132187,0.01160114419844379,-0.08714158778920511
3706,2.0,300.93662,7824.1644,0.0,0.0,-0.03705999308641894,0.0,0.0,0.0,-0.6607799880239074,-0.6602807394346354,-1.0572899010213892,0.002851933957488967,0.0022674323286531474,-0.06672664301290694
3707,2.0,300.52248,7943.4232,0.0,0.0,-0.03706999750679307,0.0,0.0,0.0,-0.6865076644930314,-0.6808294818601384,-1.047265108507019,0.008829622275515871,-0.012667692266953887,-0.07790569559069352
3708,2.0,300.76718,7971.7803,0.0,0.0,-0.037080001927167316,0.0,0.0,0.0,-0.6970266190811713,-0.6562652596858384,-1.0699302973438989,-0.003211868764011767,-0.007665104068086874,-0.06758896444426143
3709,2.0,300.74131,7878.7972,0.0,0.0,-0.03709000634754145,0.0,0.0,0.0,-0.6484448434265234,-0.6825790202778044,-1.0639337819270889,0.011515079748199888,-0.001098933973506339,-0.08945844291136092
3710,2.0,300.11093999999997,7862.9345,0.0,0.0,-0.03710001076791558,0.0,0.0,0.0,-0.6627451257978514,-0.6602444245510514,-1.067146190044129,0.00969252997337823,0.01143640189118499,-0.08496369383876372
3711,2.0,300.43922000000003,8004.9512,0.0,0.0,-0.03711001518828971,0.0,0.0,0.0,-0.6643898941551774,-0.6740393889650084,-1.0948760081808488,-0.004183672273971306,-0.0048192648099494055,-0.09324580662539461
3712,2.0,300.35219,7979.8188,0.0,0.0,-0.03711998669938643,0.0,0.0,0.0,-0.6906660834334354,-0.6656937646488593,-1.069305831307269,0.007141853205146034,-6.369074711628734e-05,-0.06922639889736364
3713,2.0,299.75047,7744.6177,0.0,0.0,-0.037129991119760564,0.0,0.0,0.0,-0.6723475551405373,-0.6359184884027684,-1.0459043136227189,-0.0007862632210156383,0.00935032228132996,-0.06575692112395284
3714,2.0,299.5964,7767.2821,0.0,0.0,-0.037139995540134696,0.0,0.0,0.0,-0.6607774954286614,-0.6619969317915104,-1.038285382145789,-0.007569230140974852,0.00992227561827736,-0.07741331075759893
3715,2.0,299.78586,7991.3731,0.0,0.0,-0.03714999996050894,0.0,0.0,0.0,-0.6763434791624043,-0.6838208798653663,-1.069013508653419,-0.005470164109888166,-0.012079342516888289,-0.08527553067628961
3716,2.0,299.97154,8067.2801,0.0,0.0,-0.03716000438088307,0.0,0.0,0.0,-0.6813972464211724,-0.6835121121623934,-1.0873423923623389,-0.013698363175923186,0.01706312661774948,-0.06649338878688653
3717,2.0,300.34,7907.3935,0.0,0.0,-0.037170008801257204,0.0,0.0,0.0,-0.6436158353049374,-0.6802236900228513,-1.079810701719019,0.005497544052765355,0.01117947003682779,-0.08653911941224611
3718,2.0,300.21107,7782.9315,0.0,0.0,-0.037180013221631336,0.0,0.0,0.0,-0.6609604174692144,-0.6541642653384864,-1.0506921229952388,-0.017383531498120983,0.015169086576822286,-0.062384931182413346
3719,2.0,300.76625,7796.5723,0.0,0.0,-0.03718998473272783,0.0,0.0,0.0,-0.6689613543663454,-0.6555475847725094,-1.045454329253309,-0.0026852576597642974,0.0003583810482894556,-0.08080198791503533
3720,2.0,300.36922000000004,7922.3194,0.0,0.0,-0.037199989153102186,0.0,0.0,0.0,-0.6842516935428843,-0.6614771446227113,-1.0624584897814888,-0.0075012134988621335,-0.008233951084202702,-0.07715529067263432
3721,2.0,299.98258,7961.2526,0.0,0.0,-0.03720999357347632,0.0,0.0,0.0,-0.6845320699780553,-0.6601957885462514,-1.075294139398269,0.01241325706084309,-0.0015235823281408685,-0.09083501916596841
3722,2.0,298.95838,7892.1049,0.0,0.0,-0.03721999799385056,0.0,0.0,0.0,-0.6607527923912234,-0.6727765145703724,-1.065473516779049,0.007238385947473073,0.0030499031673270074,-0.08535231983511811
3723,2.0,299.71911,7925.7322,0.0,0.0,-0.03723000241422447,0.0,0.0,0.0,-0.6549345076670033,-0.6713170696563364,-1.082973055281119,-0.0008737044957604201,-0.002317367016106318,-0.0912308899005378
3724,2.0,300.0062,8020.9138,0.0,0.0,-0.037240006834598605,0.0,0.0,0.0,-0.6996738362924313,-0.6774239482740384,-1.061059698018439,-0.004709823666648405,0.006219990563465274,-0.06395758855662254
3725,2.0,300.49247,8024.8112,0.0,0.0,-0.03725001125497296,0.0,0.0,0.0,-0.7007282446114934,-0.6731177873365534,-1.0654962135812889,-0.007890510773407784,0.006257989975340524,-0.05588718424588565
3726,2.0,300.44338,7909.5786,0.0,0.0,-0.03726001567534709,0.0,0.0,0.0,-0.6766406958142374,-0.6679690988084174,-1.059704577334699,0.0007623116807793052,0.015040321740864185,-0.07339264012853963
3727,2.0,300.19847999999996,7774.6263,0.0,0.0,-0.0372699871864437,0.0,0.0,0.0,-0.6562033602372295,-0.6672144503989393,-1.0398744622776188,-0.0017614031710369584,0.00024137501013935878,-0.08047242224050973
3728,2.0,300.23107000000005,7885.9554,0.0,0.0,-0.03727999160681783,0.0,0.0,0.0,-0.6558142114038235,-0.6642767647815124,-1.077042603770829,0.012952317259794188,0.004654481770036586,-0.08526067946957391
3729,2.0,300.52873,8032.8703,0.0,0.0,-0.037289996027192185,0.0,0.0,0.0,-0.6825942696918094,-0.6666361986993704,-1.092561542302429,0.013637485083414986,0.0005236287343006325,-0.07347427160959602
3730,2.0,299.51981,7901.0791,0.0,0.0,-0.03730000044756632,0.0,0.0,0.0,-0.6843308486406964,-0.6663085946770384,-1.051091343534639,0.01053284928676129,-0.0034212856734796068,-0.08708815404518161
3731,2.0,299.50097999999997,7766.0168,0.0,0.0,-0.03731000486794023,0.0,0.0,0.0,-0.6617721523893264,-0.6402057420933874,-1.058697305410289,0.01968541281029898,-0.017638094373744383,-0.07821500436921992
3732,2.0,300.07005,7852.085,0.0,0.0,-0.03732000928831447,0.0,0.0,0.0,-0.6756158845305963,-0.6602558844096824,-1.0509660044972688,0.008162472977098363,-0.005690400605248815,-0.09043175778516961
3733,2.0,299.28151,8023.8330000000005,0.0,0.0,-0.0373300137086886,0.0,0.0,0.0,-0.6894127335897393,-0.6784914477843923,-1.0711407259133592,0.0038571574954968063,-0.005228218528484995,-0.07304196642793083
3734,2.0,299.53614,8059.4007,0.0,0.0,-0.03733998521978532,0.0,0.0,0.0,-0.6782303028361193,-0.6809598060880004,-1.090666460640399,-0.0019618916245986284,-0.0014188497580545686,-0.08712003494632801
3735,2.0,300.17323,7933.8024,0.0,0.0,-0.03734998964015945,0.0,0.0,0.0,-0.6642758224589194,-0.6822860694088924,-1.065115940818759,-0.0074677363235081924,0.0032322230333455774,-0.07603315063738773
3736,2.0,299.82367,7744.6502,0.0,0.0,-0.037359994060533586,0.0,0.0,0.0,-0.6723289518687013,-0.6436998742682314,-1.038151430482569,-0.013276866333074686,0.0036903889920130366,-0.08133388950202992
3737,2.0,299.74149,7833.6716,0.0,0.0,-0.03736999848090772,0.0,0.0,0.0,-0.6532374454720163,-0.6713426035588563,-1.056660470059269,-0.00931815736618053,-0.008982050149009331,-0.07529848757288213
3738,2.0,299.85154,8015.6394,0.0,0.0,-0.03738000290128185,0.0,0.0,0.0,-0.6908892416354593,-0.6837760232834393,-1.061888941900279,-0.003478962604946877,-0.0023904249827665777,-0.09032441102982532
3739,2.0,299.8584,8018.8785,0.0,0.0,-0.037390007321656094,0.0,0.0,0.0,-0.6698123729928344,-0.6736303702971413,-1.094096109578879,0.009154155136794772,-0.00893742256160493,-0.08119934407425132
3740,2.0,300.15873,7752.2466,0.0,0.0,-0.037400011742030226,0.0,0.0,0.0,-0.6369669286787414,-0.6727364303964164,-1.046786043859739,0.021090921408261878,0.0028482853452038775,-0.1001311825201783
3741,2.0,300.38903999999997,7854.7459,0.0,0.0,-0.03741001616240436,0.0,0.0,0.0,-0.6737184217308314,-0.6363465561725153,-1.077581652824029,0.01051590875833939,-0.0012944394657262287,-0.06752921409911454
3742,2.0,300.71907999999996,8118.0311,0.0,0.0,-0.037419987673501076,0.0,0.0,0.0,-0.7104680909327413,-0.6801828053813164,-1.077027911644379,0.016636036634348983,-0.002191868999795628,-0.07483149377404343
3743,2.0,300.45686,8083.1432,0.0,0.0,-0.03742999209387521,0.0,0.0,0.0,-0.6845537130001913,-0.6882688552868473,-1.084251168957259,0.009832248245567351,0.0012294538599626488,-0.06560171046038474
3744,2.0,300.3451,7972.5668,0.0,0.0,-0.03743999651424934,0.0,0.0,0.0,-0.6657409111760124,-0.6770591883705394,-1.080661122527949,-0.002059348349691858,0.013774898008976588,-0.07006650684677584
3745,2.0,300.25441,8014.8098,0.0,0.0,-0.03745000093462347,0.0,0.0,0.0,-0.6608303972163824,-0.6791687852112404,-1.096302866971669,-0.00969934093922542,0.005563639572688474,-0.08055278817219122
3746,2.0,300.18477,8078.9932,0.0,0.0,-0.037460005354997716,0.0,0.0,0.0,-0.6740007436061943,-0.6917126390642223,-1.090098837934379,-0.018926868454186483,-0.0006434955929155704,-0.0923716301678701
3747,2.0,299.96393,7950.8242,0.0,0.0,-0.03747000977537185,0.0,0.0,0.0,-0.6969413844827593,-0.6579126726259253,-1.061997967611039,-0.0095165220475326,0.0055686715753350945,-0.07845234908589402
3748,2.0,299.79554,7833.0854,0.0,0.0,-0.03748001419574598,0.0,0.0,0.0,-0.6715805653448413,-0.6680980652811453,-1.041383698301569,-0.0003180899787955367,-0.0002590166671004548,-0.09032489840312342
3749,2.0,299.31254,7721.9637,0.0,0.0,-0.03748998570684248,0.0,0.0,0.0,-0.6458070291761914,-0.6500374395362004,-1.051439698919019,0.006780829458740764,-0.0013286171008742985,-0.07672419936458892
3750,2.0,300.11633,7834.8892,0.0,0.0,-0.03749999012721661,0.0,0.0,0.0,-0.6586314418493624,-0.6609588469315594,-1.062020360438249,0.007175447512211533,-0.010252939959886392,-0.07968162106746372
3751,2.0,300.28977000000003,8086.5317,0.0,0.0,-0.037509994547590964,0.0,0.0,0.0,-0.6701651664126523,-0.6912068144818013,-1.096731775738999,0.01189064495076529,-0.007511345898537123,-0.07745216484593352
3752,2.0,300.83431,8054.8891,0.0,0.0,-0.037519998967965096,0.0,0.0,0.0,-0.6840796132784013,-0.6744859890790843,-1.089919593991689,0.013183983722907888,-0.002438861073321848,-0.07188734868722893
3753,2.0,300.64833,7995.2326,0.0,0.0,-0.03753000338833934,0.0,0.0,0.0,-0.6918578884660573,-0.6812829619423934,-1.057210259563529,-0.009727669689496251,-0.0018488620560684781,-0.08292138288420332
3754,2.0,300.40075,8103.0301,0.0,0.0,-0.03754000780871325,0.0,0.0,0.0,-0.7014966022948244,-0.6856978040856043,-1.0759243809604688,-0.00984941199298628,-0.0034886141161244067,-0.08182579506782722
3755,2.0,300.21101,8146.2289,0.0,0.0,-0.03755001222908738,0.0,0.0,0.0,-0.6945486652991163,-0.6906057241249783,-1.091095774707769,-0.008613914501477173,-0.0014218562737512886,-0.08946858959786232
3756,2.0,299.74297,7948.2275,0.0,0.0,-0.0375599837401841,0.0,0.0,0.0,-0.6559950866791743,-0.6888397001281853,-1.0712278654219591,-0.006936997947628394,0.00864754315772106,-0.07982148403176713
3757,2.0,299.44064,7781.2104,0.0,0.0,-0.03756998816055823,0.0,0.0,0.0,-0.6322511917858343,-0.6651651318066875,-1.067877351316289,-0.003011588634670657,0.01035527214048579,-0.08759201697540901
3758,2.0,299.86177999999995,7805.1764,0.0,0.0,-0.037579992580932475,0.0,0.0,0.0,-0.6630684843022644,-0.6614731929473214,-1.048037002433199,-0.011031728039746789,-0.004243086524060035,-0.08237005830604183
3759,2.0,299.58767,7864.108,0.0,0.0,-0.03758999700130661,0.0,0.0,0.0,-0.6994203413824133,-0.6500176608942484,-1.041054493344079,-0.0012722777608640387,-0.00015115876761070883,-0.07575756687518972
3760,2.0,299.66647,8021.951,0.0,0.0,-0.03760000142168096,0.0,0.0,0.0,-0.6837690217252483,-0.6783009567655923,-1.0764028376576888,0.006142846969751795,-0.009486081278753332,-0.07254020193866054
3761,2.0,300.1459,8162.3009999999995,0.0,0.0,-0.03761000584205487,0.0,0.0,0.0,-0.6921024363776923,-0.6936789015457774,-1.095354363553059,0.010889225558932888,-0.0016672587605206285,-0.06751136367210284
3762,2.0,300.39059,8170.0511,0.0,0.0,-0.037620010262429004,0.0,0.0,0.0,-0.6832827022072524,-0.6913501589734483,-1.108858656910829,-0.002059930259224288,-0.0015767285117859883,-0.07973464343194663
3763,2.0,300.39426000000003,8106.5844,0.0,0.0,-0.03763001468280325,0.0,0.0,0.0,-0.6795306776169564,-0.6817330881668174,-1.102935500801259,0.0001783599529052568,0.010112664096167241,-0.07410012782536322
3764,2.0,300.2755,8100.7882,0.0,0.0,-0.037639986193899855,0.0,0.0,0.0,-0.7084648448225364,-0.6811896112106804,-1.072782900350429,0.007149568395382462,0.008357776731223343,-0.0923900084981839
3765,2.0,299.89516000000003,7984.3246,0.0,0.0,-0.0376499906142741,0.0,0.0,0.0,-0.6879558521984563,-0.6696914821234033,-1.069388005890379,-0.006922235704271474,-0.002131456799683408,-0.07425829920572352
3766,2.0,300.10983,7859.2321,0.0,0.0,-0.03765999503464823,0.0,0.0,0.0,-0.6561188957088934,-0.6918827840210143,-1.041008593114549,0.001120147884224989,-0.011891135363813688,-0.1061972636358539
3767,2.0,299.42156,7836.1963,0.0,0.0,-0.03766999945502236,0.0,0.0,0.0,-0.6442087183359504,-0.6705019707458924,-1.067297366959049,-0.024571736437041577,-0.005610201251883755,-0.07521322764321763
3768,2.0,299.99106,7841.9382,0.0,0.0,-0.037680003875396495,0.0,0.0,0.0,-0.6604718485359964,-0.6564422643458073,-1.0668392765888388,0.0011841161868881688,0.017295043353637882,-0.08851382328038422
3769,2.0,299.29606,7947.6732,0.0,0.0,-0.03769000829577063,0.0,0.0,0.0,-0.6476903267395584,-0.6822068028535694,-1.085997100204569,-0.01144923571695159,0.007403428278086483,-0.07552170049041153
3770,2.0,299.17248,8011.6958,0.0,0.0,-0.03770001271614487,0.0,0.0,0.0,-0.7017397113913173,-0.6676923396761033,-1.065923399823449,0.004761641580737435,0.015763663762002486,-0.08253988003605192
3771,2.0,299.44308,8122.49,0.0,0.0,-0.03770998422724148,0.0,0.0,0.0,-0.6883403603464043,-0.6906968558389723,-1.0899969049743188,-0.012345132203619687,4.603854120840025e-06,-0.08161642314666383
3772,2.0,299.92809,8114.5287,0.0,0.0,-0.0377199886476155,0.0,0.0,0.0,-0.6962030797973943,-0.6835579819944204,-1.0868529925640389,0.014885483953332885,-0.005586037466148975,-0.08515489919888422
3773,2.0,299.32853,8067.1324,0.0,0.0,-0.03772999306798985,0.0,0.0,0.0,-0.6721475699683004,-0.6851516521492034,-1.0949076215839688,0.01089957286895409,-0.01324802214247799,-0.08791038117007911
3774,2.0,300.23388,8012.6105,0.0,0.0,-0.037739997488363985,0.0,0.0,0.0,-0.6637097804230553,-0.6920875314687214,-1.0798362356215387,0.002805915279022278,-0.006012844752771574,-0.08753262430754741
3775,2.0,300.08792,7919.7513,0.0,0.0,-0.03775000190873812,0.0,0.0,0.0,-0.6593561993808904,-0.6641144927779974,-1.083935946851149,-0.0023705849378585176,0.014333106608317487,-0.07639422129727262
3776,2.0,300.21575,7860.4946,0.0,0.0,-0.03776000632911225,0.0,0.0,0.0,-0.6781064127463924,-0.6631157220219264,-1.048171967346519,-0.0019087303435270182,0.01174264761465909,-0.08097586365869551
3777,2.0,299.52538,7934.2584,0.0,0.0,-0.03777001074948649,0.0,0.0,0.0,-0.6739329875720074,-0.6760497278259133,-1.061833719769829,0.0025320643771452973,0.005785460081930454,-0.07806698170186123
3778,2.0,299.89451,8034.2902,0.0,0.0,-0.037780015169860626,0.0,0.0,0.0,-0.6869616208028334,-0.6830709228038513,-1.0721910609670189,0.0018156440700901181,-0.007515159670588513,-0.08507144488089792
3779,2.0,299.67262,8067.8004,0.0,0.0,-0.03778998668095712,0.0,0.0,0.0,-0.6728973851748014,-0.6869049193272373,-1.092607543856969,-0.008927257839251752,-0.0011318836508582189,-0.07619590697445053
3780,2.0,300.40735,8098.9404,0.0,0.0,-0.037799991101331254,0.0,0.0,0.0,-0.6724431552874723,-0.6812199985811794,-1.108212507322059,0.004596788423917696,0.0024431341516435675,-0.0892415638202066
3781,2.0,300.54803,8078.1682,0.0,0.0,-0.037809995521705386,0.0,0.0,0.0,-0.6921808011404263,-0.6692707502843804,-1.0941098897802388,0.0003136102379834207,0.006466931771836474,-0.07247446733842303
3782,2.0,300.31152000000003,8066.1191,0.0,0.0,-0.03781999994207974,0.0,0.0,0.0,-0.6947853301249733,-0.6816503866936554,-1.0754630481899388,0.0065489369395297535,0.0031793968340820366,-0.09039305365784982
3783,2.0,299.93858,7978.1293,0.0,0.0,-0.03783000436245387,0.0,0.0,0.0,-0.6927761058391784,-0.6658186477236844,-1.066557289086009,0.01041895997552129,-0.009492094208821761,-0.08900863180771801
3784,2.0,300.02535,7986.0469,0.0,0.0,-0.037840008782828116,0.0,0.0,0.0,-0.6881398381516144,-0.6728481310874403,-1.066570866637349,0.008003287941338023,-0.007511131697465982,-0.07607392990091233
3785,2.0,299.73882000000003,7974.6901,0.0,0.0,-0.037850013203202026,0.0,0.0,0.0,-0.6733318566851804,-0.6762821673988534,-1.074492658569169,0.007193931727160784,-0.033876794100629264,-0.09328119235863691
3786,2.0,299.51696,7924.2701,0.0,0.0,-0.037859984714298744,0.0,0.0,0.0,-0.6504757107344543,-0.6702785389663414,-1.0880260322048092,0.015729263921107486,-0.017834357878364085,-0.08186104401230601
3787,2.0,299.4621,7985.9868,0.0,0.0,-0.03786998913467288,0.0,0.0,0.0,-0.6739218418209073,-0.6879960782274264,-1.065622667193769,0.004561843150493866,2.2811687576088278e-05,-0.09307829915861292
3788,2.0,299.39345,8134.2067,0.0,0.0,-0.03787999355504701,0.0,0.0,0.0,-0.6976445192571533,-0.6832273280892873,-1.091723888444759,-0.013801737990875486,0.010341924596918491,-0.059706435953816445
3789,2.0,300.37164,8164.3808,0.0,0.0,-0.03788999797542125,0.0,0.0,0.0,-0.7006605392398113,-0.7050291670459613,-1.076078192325649,-0.015544694335891885,0.016412595735547087,-0.09316989291465251
3790,2.0,300.43908,8102.2085,0.0,0.0,-0.037900002395795385,0.0,0.0,0.0,-0.6906138807882833,-0.6888744242091123,-1.083380787121359,-0.03380502559604626,-0.0017765578461576082,-0.06366701071944474
3791,2.0,300.51559,8153.5359,0.0,0.0,-0.03791000681616974,0.0,0.0,0.0,-0.6815029790691073,-0.6954690712924533,-1.101499218784509,0.005089036873548836,-0.0015027474742846285,-0.0969729863232386
3792,2.0,300.30019,8198.4379,0.0,0.0,-0.03792001123654365,0.0,0.0,0.0,-0.6854546949891113,-0.6987814162668563,-1.1078843156146687,-0.019362538639433782,-0.00934082032586719,-0.07943998321011593
3793,2.0,300.05248,8091.2915,0.0,0.0,-0.03793001565691778,0.0,0.0,0.0,-0.6930287394866113,-0.6758057675993363,-1.090716109895299,0.012130277586165188,-0.011909328269359188,-0.08830877287089732
3794,2.0,300.45049,8073.795999999999,0.0,0.0,-0.0379399871680145,0.0,0.0,0.0,-0.6836166086452063,-0.6920859609310663,-1.078529852267609,0.014427056170839586,0.002220963057866988,-0.08609296208846383
3795,2.0,300.42037,8043.3869,0.0,0.0,-0.03794999158838863,0.0,0.0,0.0,-0.6858626396118723,-0.6886919986611083,-1.070434186618629,0.02225341412874098,0.007345265391871253,-0.08133020431141622
3796,2.0,299.98581,8045.9356,0.0,0.0,-0.037959996008762875,0.0,0.0,0.0,-0.6933339304167313,-0.6701897275950763,-1.082239867508759,0.024210854241675274,0.003336983265159607,-0.07134420002412434
3797,2.0,299.70725,8122.2480000000005,0.0,0.0,-0.03797000042913701,0.0,0.0,0.0,-0.6857544650311964,-0.6848661790660293,-1.098339904972709,-0.0036111939721470967,-0.0003893345722818306,-0.07380353229584152
3798,2.0,300.16225,8134.6698,0.0,0.0,-0.03798000484951114,0.0,0.0,0.0,-0.6868506091218773,-0.6895272511160413,-1.0963585957271689,0.0002396048318171558,0.004803827843350896,-0.0881194298644606
3799,2.0,300.19211,8084.0098,0.0,0.0,-0.03799000926988527,0.0,0.0,0.0,-0.6869033589220834,-0.6874862918371144,-1.082947521378599,-0.018645742213941482,-0.0002082336866635648,-0.07763031853151593
3800,2.0,299.92188,8144.7425,0.0,0.0,-0.038000013690259404,0.0,0.0,0.0,-0.6886266845596624,-0.7010165649274483,-1.086155065895159,-0.013718779152188087,0.006392885177053644,-0.08762014074518461
3801,2.0,299.83564,8209.9969,0.0,0.0,-0.03800998520135612,0.0,0.0,0.0,-0.7102950278156613,-0.6953377135494894,-1.090001363274759,-0.026341797222232975,-0.004479039947021826,-0.08295819223383612
3802,2.0,299.56271,8165.2481,0.0,0.0,-0.038019989621730255,0.0,0.0,0.0,-0.7086747091832483,-0.6844831705282294,-1.088873615913459,-0.004420440451338506,0.02408246329500408,-0.08229828372195822
3803,2.0,299.79053,7995.5709,0.0,0.0,-0.038029994042104276,0.0,0.0,0.0,-0.6586936452730013,-0.6708852123312155,-1.100875056722909,-0.00810408261623568,0.01721137726638068,-0.09199557252575612
3804,2.0,300.10745,7926.3117,0.0,0.0,-0.03803999846247863,0.0,0.0,0.0,-0.6734814225324414,-0.6594449600896504,-1.076474474439759,0.02103744206798388,-0.003338280123962596,-0.08925088876087692
3805,2.0,300.25217999999995,8086.5364,0.0,0.0,-0.03805000288285276,0.0,0.0,0.0,-0.6695639544658174,-0.6918783054555724,-1.096662874732199,-0.0009521329817932092,-0.01072930632215009,-0.10111972147673949
3806,2.0,300.37192999999996,8120.4254,0.0,0.0,-0.038060007303226895,0.0,0.0,0.0,-0.6958440346244593,-0.6782082139839394,-1.094354285704359,0.016667311611935583,-0.012071887022652487,-0.08223533454624563
3807,2.0,300.23267000000004,8076.9551,0.0,0.0,-0.03807001172360103,0.0,0.0,0.0,-0.6808862036007364,-0.6915164231823574,-1.082790062313059,0.0022760133411000275,-0.0091081417272286,-0.08428870917864792
3808,2.0,300.65215,8066.066,0.0,0.0,-0.03808001614397505,0.0,0.0,0.0,-0.6938521977103803,-0.6729504794800414,-1.085080007539059,-0.002184407122084198,0.00014035457298691785,-0.05942893512242924
3809,2.0,300.20568,8085.1207,0.0,0.0,-0.03808998765507188,0.0,0.0,0.0,-0.6711648490938134,-0.6804588552385603,-1.1060510422087388,-0.01142198435551209,-0.0013676444549759988,-0.08497023740790952
3810,2.0,300.09557,8213.2207,0.0,0.0,-0.0380999920754459,0.0,0.0,0.0,-0.7116165896560893,-0.6919559406782344,-1.0930415188747988,-0.01045219863180169,0.024833761899651474,-0.08294821881310183
3811,2.0,300.12585,8198.1846,0.0,0.0,-0.03810999649582003,0.0,0.0,0.0,-0.7080531309094034,-0.6779449006804523,-1.106045368008179,-0.009267549981985972,0.013099180769038488,-0.0969177874975409
3812,2.0,300.02672,8072.0537,0.0,0.0,-0.03812000091619416,0.0,0.0,0.0,-0.6858261423432704,-0.6798069807867253,-1.088069601959109,-0.0015018883395248384,-0.005341146569355125,-0.09101651049738022
3813,2.0,299.74241,7994.0501,0.0,0.0,-0.03813000533656852,0.0,0.0,0.0,-0.6913914590475243,-0.6663756920986604,-1.0722244982203188,-0.004498698822812006,-0.009719760461865672,-0.08782681539458181
3814,2.0,300.52443,8064.3434,0.0,0.0,-0.03814000975694265,0.0,0.0,0.0,-0.6850723754613794,-0.6665494746233114,-1.099737176860609,0.01841992321715488,0.006228833906363045,-0.07132230166296313
3815,2.0,300.17727,8108.5162,0.0,0.0,-0.03815001417731689,0.0,0.0,0.0,-0.6921161861815494,-0.6724492043905693,-1.100221105108369,0.018573630217574584,0.008635663914873672,-0.07517199849664863
3816,2.0,300.23141,8143.3965,0.0,0.0,-0.03815998568841339,0.0,0.0,0.0,-0.6823270857729403,-0.6807048115678344,-1.1123573081811189,0.002739357615728547,-0.007567657576819653,-0.08380310602847262
3817,2.0,300.18936,8140.9038,0.0,0.0,-0.03816999010878752,0.0,0.0,0.0,-0.6840234893553623,-0.6992953671150794,-1.0913126102291688,0.011569729392343388,-0.02258821931953368,-0.09159326258680121
3818,2.0,300.39316,8303.7978,0.0,0.0,-0.038179994529161654,0.0,0.0,0.0,-0.7043981452811843,-0.7228997881321544,-1.096849312750599,-0.005190395624777165,-0.005049546565476445,-0.08919133397299932
3819,2.0,300.72366,8272.6939,0.0,0.0,-0.038189998949535786,0.0,0.0,0.0,-0.7261493825278643,-0.6872411461079203,-1.101301837665029,0.018539237469430283,-0.0019205005606636482,-0.06368705280642274
3820,2.0,300.76579,8094.2017,0.0,0.0,-0.03820000336991003,0.0,0.0,0.0,-0.6811834101200683,-0.6878902442544813,-1.0913615502089988,-0.01943904104848398,-0.0036785147140911364,-0.06620626511929964
3821,2.0,300.65072999999995,8033.9425,0.0,0.0,-0.03821000779028416,0.0,0.0,0.0,-0.6747785042504534,-0.6719363174549514,-1.095403100882869,-0.016394601427021184,0.004777309365708725,-0.07864648476530373
3822,2.0,300.61024,8200.6663,0.0,0.0,-0.038220012210658516,0.0,0.0,0.0,-0.6928773497891703,-0.6823241980101553,-1.117596216498159,-0.015131491958361984,0.023977253484120678,-0.07962374320850163
3823,2.0,300.19305,8243.8116,0.0,0.0,-0.03822998372175501,0.0,0.0,0.0,-0.7033212124123993,-0.7040694672137464,-1.0985221886656988,-0.0035702947398106558,0.022404134067865875,-0.11833386187614288
3824,2.0,299.89689,8108.474,0.0,0.0,-0.038239988142129144,0.0,0.0,0.0,-0.7092691323544132,-0.6700919489604263,-1.085412556221879,-0.0034919074829244364,-0.007239682400976023,-0.07888602924794492
3825,2.0,299.7669,8068.9955,0.0,0.0,-0.03824999256250328,0.0,0.0,0.0,-0.6967061280745414,-0.6831946203760594,-1.072872370334259,-0.0027018555070023775,-0.025545255987370476,-0.0914124724244586
3826,2.0,299.48595,8086.5001,0.0,0.0,-0.03825999698287741,0.0,0.0,0.0,-0.6804247593726953,-0.6780027369961604,-1.0996666546536489,0.004200336185115906,0.002253947084397258,-0.05475441116408965
3827,2.0,300.02706,8204.5914,0.0,0.0,-0.03827000140325165,0.0,0.0,0.0,-0.6932589499093313,-0.6824679174043393,-1.1182640496390688,0.018143760889149783,0.01056512839519699,-0.06526768141916864
3828,2.0,300.28089,8281.5198,0.0,0.0,-0.038280005823625785,0.0,0.0,0.0,-0.6962535295198733,-0.7049242753956093,-1.116197424735109,0.013599935047959087,0.007884843158973432,-0.06550788856737523
3829,2.0,300.11273,8122.3157,0.0,0.0,-0.03829001024399992,0.0,0.0,0.0,-0.6807786065726174,-0.7022066373023993,-1.085995884304449,0.001012319277795634,-0.011636775138210289,-0.08700629154310242
3830,2.0,300.16219,8158.8928,0.0,0.0,-0.03830001466437405,0.0,0.0,0.0,-0.7001311565925653,-0.6961339457430713,-1.083834621841149,-0.006836658526000663,-0.005550203065762395,-0.08664862641680361
3831,2.0,300.44052,8251.614,0.0,0.0,-0.03830998617547077,0.0,0.0,0.0,-0.7154098433929543,-0.6940647066538533,-1.098810053019109,-0.01199092631316229,-0.006044943300039454,-0.07275196209030964
3832,2.0,300.5748,8237.2031,0.0,0.0,-0.0383199905958449,0.0,0.0,0.0,-0.7006677029180184,-0.6871065864946404,-1.116129739628429,-0.008994850132222591,-0.014733103297294088,-0.07849196209855352
3833,2.0,300.61104,8093.0991,0.0,0.0,-0.03832999501621892,0.0,0.0,0.0,-0.6719929176055374,-0.6924390684584153,-1.095668065784019,-0.01949519638227608,0.003980036260298996,-0.08512830442350951
3834,2.0,300.43974,8032.6339,0.0,0.0,-0.03833999943659305,0.0,0.0,0.0,-0.6682665282427714,-0.6768486451322604,-1.096604916826479,-0.012527802958147887,0.02090390381080468,-0.1069386384690219
3835,2.0,300.12329,8217.702,0.0,0.0,-0.03835000385696741,0.0,0.0,0.0,-0.6914451005078184,-0.7033346683737274,-1.103196412702009,0.00016287649839215885,0.025460233158229373,-0.1007510484013543
3836,2.0,299.28296,8253.6039,0.0,0.0,-0.03836000827734154,0.0,0.0,0.0,-0.7171040380901583,-0.7042814188696643,-1.087504005753289,0.007026930480129044,-0.0018464247842779383,-0.10194882755656591
3837,2.0,300.15617000000003,8190.4808,0.0,0.0,-0.03837001269771567,0.0,0.0,0.0,-0.6948855202948614,-0.6979043064502923,-1.0969118302817689,0.019248998899478283,-0.023175760496019476,-0.07459987189393413
3838,2.0,299.67188,8169.1557,0.0,0.0,-0.03837998420881217,0.0,0.0,0.0,-0.6816446618305904,-0.7035963098145493,-1.097978377337029,0.00991226855763974,-0.02015735126962568,-0.07785182614912703
3839,2.0,299.56357,8170.3501,0.0,0.0,-0.03838998862918652,0.0,0.0,0.0,-0.6879940314622244,-0.6902141029613283,-1.105374292466949,0.006858675032123523,-0.014581330591315287,-0.06125264446066535
3840,2.0,299.8769,8254.0551,0.0,0.0,-0.038399993049560655,0.0,0.0,0.0,-0.6900464911297863,-0.7102964463658014,-1.108683668618559,0.012636353454610989,-0.006362042249309683,-0.08380047563121301
3841,2.0,299.7807,8313.3356,0.0,0.0,-0.038409997469934676,0.0,0.0,0.0,-0.7052301148057933,-0.7213485224940563,-1.1004678315077188,-0.015235700678146587,-0.0025711071326485176,-0.09067465815214201
3842,2.0,299.62045,8136.5678,0.0,0.0,-0.03842000189030881,0.0,0.0,0.0,-0.7010584121565784,-0.6765038361232303,-1.095751152292219,-0.00039771038131845865,0.006073385027696433,-0.08546567009730492
3843,2.0,300.39997999999997,8035.9926,0.0,0.0,-0.03843000631068294,0.0,0.0,0.0,-0.6775431267508004,-0.6871768553890752,-1.0780210993923989,-0.022185979294835678,-0.008557677702377033,-0.07689169467236942
3844,2.0,300.03315,8080.0341,0.0,0.0,-0.038440010731057295,0.0,0.0,0.0,-0.6907274255944894,-0.6663452641981574,-1.099055968818379,-0.009276908765209611,-0.008504681885046751,-0.08776560799579111
3845,2.0,300.55768,8247.2126,0.0,0.0,-0.03845001515143143,0.0,0.0,0.0,-0.6973273821083543,-0.6852879140226513,-1.124331391237869,-0.005806597897566595,0.0026888973554485074,-0.08641891451313281
3846,2.0,300.90475,8243.6713,0.0,0.0,-0.03845998666252792,0.0,0.0,0.0,-0.6949454945682804,-0.7057063727502964,-1.105218353276559,0.00949451111428529,0.023154258315647377,-0.1029947752372929
3847,2.0,300.02588,8199.3922,0.0,0.0,-0.038469991082902166,0.0,0.0,0.0,-0.7026920752928083,-0.6895378395795864,-1.100180575104369,0.006856095601343953,0.013627406284670287,-0.08625070790378211
3848,2.0,299.95752999999996,8321.5653,0.0,0.0,-0.0384799955032763,0.0,0.0,0.0,-0.7260718688952142,-0.7083878986099423,-1.095088284076799,0.0014223810359780785,-0.008274342576914033,-0.09273198040693391
3849,2.0,299.62511,8349.11,0.0,0.0,-0.03848999992365043,0.0,0.0,0.0,-0.7141825036793253,-0.6965488412615183,-1.127189567119949,0.001923663015550758,-0.014331280731637286,-0.06668056039835894
3850,2.0,299.59128,8269.5612,0.0,0.0,-0.03850000434402456,0.0,0.0,0.0,-0.7009893794272654,-0.6981715005016623,-1.114579264325409,0.012300309058945988,-0.016096433333344286,-0.07953849746433851
3851,2.0,299.7333,8132.6114,0.0,0.0,-0.038510008764398806,0.0,0.0,0.0,-0.6717826175472823,-0.6933455017328733,-1.106982624350679,0.014151659859910086,0.012959880158540589,-0.07945821157941492
3852,2.0,299.82478,8018.2331,0.0,0.0,-0.03852001318477294,0.0,0.0,0.0,-0.6577963008519403,-0.6827717505793254,-1.096774636218229,-0.011170560528698489,0.0021722470063090878,-0.10162740435984391
3853,2.0,300.00396,7994.6024,0.0,0.0,-0.03852998469586966,0.0,0.0,0.0,-0.6849010956644754,-0.6709830314958694,-1.0742754177477292,-0.01266938844762129,0.015376684297060588,-0.1039999396014949
3854,2.0,300.25039,8119.3618,0.0,0.0,-0.03853998911624379,0.0,0.0,0.0,-0.6975711295524104,-0.6742832782640784,-1.096228798389359,-0.012819911816226789,0.01932850964807538,-0.08604097425233301
3855,2.0,299.96355,8108.0262,0.0,0.0,-0.03854999353661792,0.0,0.0,0.0,-0.7074352206009203,-0.6615002568574924,-1.0957020096623689,-0.0035332053278502164,0.007814605168666482,-0.07448461368180903
3856,2.0,299.40322000000003,8130.7191,0.0,0.0,-0.038559997956992054,0.0,0.0,0.0,-0.6954635592119093,-0.6738914747154104,-1.102180528151749,-0.007731290476543962,-0.008562659143843661,-0.07257857979944814
3857,2.0,299.74552,8368.306,0.0,0.0,-0.038570002377366186,0.0,0.0,0.0,-0.7268931790287713,-0.6972595247491573,-1.119603363621249,-0.0013339261260982588,-0.015988567793948784,-0.08562983485200673
3858,2.0,299.84495,8536.8103,0.0,0.0,-0.03858000679774043,0.0,0.0,0.0,-0.7256833989393753,-0.7180342118144593,-1.1512595258954688,0.02035631609901198,0.0034677756145678066,-0.08219322589858982
3859,2.0,300.05717000000004,8390.3283,0.0,0.0,-0.03859001121811456,0.0,0.0,0.0,-0.7312575309194993,-0.7172903342535444,-1.1019023909992989,0.006912990607709054,0.005301916463908415,-0.07948310308137152
3860,2.0,300.74225,8168.4097,0.0,0.0,-0.038600015638488694,0.0,0.0,0.0,-0.6870607774576193,-0.6975692753047273,-1.0983625004499389,-0.0016771440284962286,-0.008900173866728771,-0.08131643018955682
3861,2.0,300.76161,8086.6231,0.0,0.0,-0.03860998714958541,0.0,0.0,0.0,-0.6986761902439713,-0.6785643511290874,-1.0808909276506289,0.0023198525186016177,-0.007152675425489102,-0.06513078829090833
3862,2.0,299.78551,8073.356,0.0,0.0,-0.038619991569959544,0.0,0.0,0.0,-0.6787932240616753,-0.6730342347333074,-1.102271214035699,0.0051171492949233155,0.018095985133684683,-0.07097835492976823
3863,2.0,299.96935,8196.2422,0.0,0.0,-0.038629995990333676,0.0,0.0,0.0,-0.6698933924708304,-0.6926745173841523,-1.128885038512279,0.011938950636032687,0.0053254841546093645,-0.07454241048076313
3864,2.0,299.59763,8203.5824,0.0,0.0,-0.0386400004107077,0.0,0.0,0.0,-0.6785961469172254,-0.7005787598242403,-1.114509350068509,-0.026381000881852076,-0.01019292515646339,-0.0999769820669599
3865,2.0,299.43511,8156.9713,0.0,0.0,-0.03865000483108183,0.0,0.0,0.0,-0.7039834625452583,-0.6747199586596754,-1.100812235216709,-0.018585816576527282,-0.010585372118944891,-0.09678815126649681
3866,2.0,299.95906,8311.4461,0.0,0.0,-0.038660009251456184,0.0,0.0,0.0,-0.7127607820665124,-0.7022281789995253,-1.1114830759948389,-0.005784141235600295,0.008938474619183762,-0.08580805439884562
3867,2.0,299.60978,8367.7564,0.0,0.0,-0.03867001367183032,0.0,0.0,0.0,-0.7383801218349443,-0.6859960745175414,-1.119212857032709,0.0045409620924330655,0.016220011342040486,-0.07583722758480163
3868,2.0,300.19793,8393.643,0.0,0.0,-0.03867998518292681,0.0,0.0,0.0,-0.7106111922443643,-0.7079079321700734,-1.132938748187349,0.016956633018989385,-0.016144467467584883,-0.08026197728749042
3869,2.0,300.84007,8278.4073,0.0,0.0,-0.038689989603300945,0.0,0.0,0.0,-0.6970002441810683,-0.7174544605047423,-1.1019744330814092,0.021986420700890776,-0.023600860456223578,-0.10010278517287571
3870,2.0,301.00628,8197.7084,0.0,0.0,-0.0386999940236753,0.0,0.0,0.0,-0.6951874586921603,-0.6927553240796274,-1.103955944976969,0.01829737365731018,0.002828461613622427,-0.07973243252022842
3871,2.0,300.31235,8238.279,0.0,0.0,-0.03870999844404943,0.0,0.0,0.0,-0.6992709173901663,-0.7044619395074803,-1.100498229010719,0.011658915666145388,-0.007872558920061072,-0.07708886199607833
3872,2.0,299.88695,8226.5776,0.0,0.0,-0.03872000286442345,0.0,0.0,0.0,-0.6790780587972863,-0.7081618830426364,-1.113434190387399,-0.0068010306259844635,-0.0019213270687702183,-0.07715850470195153
3873,2.0,299.59575,8191.0321,0.0,0.0,-0.038730007284797585,0.0,0.0,0.0,-0.6971656369948913,-0.6810850843303644,-1.1116185475332092,-0.006713262294372404,0.00023788911568782772,-0.07244852813586303
3874,2.0,300.07667999999995,8195.7079,0.0,0.0,-0.03874001170517172,0.0,0.0,0.0,-0.6865008351873574,-0.6859103130290773,-1.118879396424799,-0.00010871222131156091,0.022744286179436277,-0.09335230630365532
3875,2.0,300.05528,8287.1788,0.0,0.0,-0.03875001612554607,0.0,0.0,0.0,-0.6919757801151923,-0.7085618027246053,-1.1185578921680688,-0.013328766016446787,0.006120377743484255,-0.08307204405482242
3876,2.0,300.18106,8450.444,0.0,0.0,-0.03875998763664257,0.0,0.0,0.0,-0.7344776194722973,-0.7145601419915953,-1.1196862474794291,-0.01012355481221707,-0.006017210746127464,-0.09721641155376282
3877,2.0,299.90361,8492.1245,0.0,0.0,-0.0387699920570167,0.0,0.0,0.0,-0.7413214754177333,-0.7181326895916783,-1.1219396143768188,-0.004727794670422006,0.0018882600570567583,-0.08052191444164422
3878,2.0,299.46962,8272.2788,0.0,0.0,-0.03877999647739094,0.0,0.0,0.0,-0.7206171383068743,-0.6815406517078253,-1.1124083759861592,-0.0043980420512529554,0.025233537700106272,-0.07366653581607104
3879,2.0,299.41652999999997,8199.7047,0.0,0.0,-0.038790000897765076,0.0,0.0,0.0,-0.7055658856239314,-0.6946598897625933,-1.0922797574496188,0.0045429767376068955,0.01193125905452359,-0.06625329106969073
3880,2.0,299.2103,8225.9653,0.0,0.0,-0.03880000531813921,0.0,0.0,0.0,-0.6726229362527154,-0.7012290637384203,-1.1266360285903187,-0.014543255692307588,-0.008440086988521733,-0.08868519123004691
3881,2.0,299.29525,8327.6742,0.0,0.0,-0.03881000973851334,0.0,0.0,0.0,-0.7082593577022563,-0.7190897448411323,-1.1040559527618388,0.014250422360407185,-0.01847455360954648,-0.09887827445352591
3882,2.0,298.98246,8162.9148,0.0,0.0,-0.038820014158887584,0.0,0.0,0.0,-0.6804581256984884,-0.7074416040765503,-1.093422500912399,0.016031468803182784,0.005569734677340015,-0.09182811470822932
3883,2.0,299.69749,8130.147,0.0,0.0,-0.03882998566998419,0.0,0.0,0.0,-0.6957123019789584,-0.6887975083940214,-1.086851877988929,0.008085778151854173,-0.0010561400648079092,-0.08663814434451911
3884,2.0,300.0897,8301.8763,0.0,0.0,-0.038839990090358434,0.0,0.0,0.0,-0.6875620525470914,-0.7174191892687612,-1.1185818048704288,0.004624413066694036,0.003619396839656656,-0.06910475518310834
3885,2.0,300.3157,8411.0196,0.0,0.0,-0.038849994510732566,0.0,0.0,0.0,-0.7188461899145954,-0.7107741937879513,-1.1271195515380388,-0.017872158186594683,0.01813868247964858,-0.07767694222161733
3886,2.0,300.09092999999996,8498.3134,0.0,0.0,-0.0388599989311067,0.0,0.0,0.0,-0.7087148034897053,-0.7095389203260394,-1.165021387428659,-0.0048844349285561955,0.04542090143769396,-0.07041320556724234
3887,2.0,299.83286,8354.1246,0.0,0.0,-0.03887000335148083,0.0,0.0,0.0,-0.7328370155728823,-0.7038740112694564,-1.1027342693313988,-0.015244719617286684,0.015300794904320883,-0.0978182689409115
3888,2.0,299.58412000000004,8222.8695,0.0,0.0,-0.03888000777185496,0.0,0.0,0.0,-0.7013607457214164,-0.6840212196751383,-1.114165047684529,-0.014114843417526586,-0.020157736304663682,-0.08663563249752122
3889,2.0,299.40484,8315.106,0.0,0.0,-0.038890012192229206,0.0,0.0,0.0,-0.7182645336946903,-0.7017598750683073,-1.107560176907679,-0.0017964301124188484,-0.02829134411688827,-0.09798116105348773
3890,2.0,299.63631000000004,8377.9934,0.0,0.0,-0.0388999837033257,0.0,0.0,0.0,-0.7232485386840733,-0.6897073259238133,-1.133744889966909,0.0004519664993881205,0.005466208178847745,-0.06969957048206203
3891,2.0,299.07556,8186.5066,0.0,0.0,-0.038909988123699835,0.0,0.0,0.0,-0.6967127445976944,-0.6838812695713263,-1.107899615691179,0.009396378247400331,-0.006074953640176245,-0.08617745296130243
3892,2.0,299.59472,8122.3519,0.0,0.0,-0.03891999254407419,0.0,0.0,0.0,-0.6487799252345934,-0.7079293421446864,-1.1122829356237791,-0.001190709202638849,-0.022991140248298878,-0.09348897145064311
3893,2.0,300.32516,8256.431,0.0,0.0,-0.03892999696444832,0.0,0.0,0.0,-0.7043034671918403,-0.7064101458722534,-1.0990352985163387,0.012831624987382788,0.002687362382872018,-0.10582568455918191
3894,2.0,300.84171000000003,8418.2682,0.0,0.0,-0.038940001384822454,0.0,0.0,0.0,-0.7094394799612253,-0.7135403564284503,-1.135963502385869,0.012401582393190887,0.008419544862619383,-0.07952076457433843
3895,2.0,300.59771,8382.7896,0.0,0.0,-0.038950005805196475,0.0,0.0,0.0,-0.7200261905835523,-0.7048442083727073,-1.123288351584929,0.008421758814087882,0.00035706019572409766,-0.09018672655323692
3896,2.0,300.20392000000004,8249.28,0.0,0.0,-0.03896001022557061,0.0,0.0,0.0,-0.6934125890219943,-0.6773923855334234,-1.136770150790479,-0.01129233799196699,-0.02023843154262768,-0.05525547245779054
3897,2.0,299.862,8262.1459,0.0,0.0,-0.03897001464594496,0.0,0.0,0.0,-0.6965144110231204,-0.7002246593117933,-1.114746957216959,-0.012313656602513288,0.0037603204741647367,-0.08783386862852792
3898,2.0,300.43856,8474.3547,0.0,0.0,-0.03897998615704168,0.0,0.0,0.0,-0.7190574829579484,-0.6969846097320253,-1.1599501720031689,-0.02160624723687058,0.03186302336163557,-0.06922106616208734
3899,2.0,300.14894,8484.8808,0.0,0.0,-0.03898999057741559,0.0,0.0,0.0,-0.7573417700988133,-0.7020450036464473,-1.1198051017161592,-0.008907607576087422,0.007487716906205123,-0.1015464152793509
3900,2.0,299.40758999999997,8312.8888,0.0,0.0,-0.03899999499778972,0.0,0.0,0.0,-0.7125019574609682,-0.7099096685376294,-1.104498945705559,-0.0034547558574078564,-0.00920076261489457,-0.09975963384100932
3901,2.0,299.69677,8096.2754,0.0,0.0,-0.039009999418164076,0.0,0.0,0.0,-0.6906772393170364,-0.6787749855598754,-1.091613342858849,0.009260881985727892,-0.008153496898437492,-0.09921770817077541
3902,2.0,299.78059,8188.2799,0.0,0.0,-0.03902000383853821,0.0,0.0,0.0,-0.6744975907927294,-0.6928434565733254,-1.1216915707523387,0.019319774418963282,0.009325826858837451,-0.06801377360168684
3903,2.0,300.33165,8408.3251,0.0,0.0,-0.03903000825891223,0.0,0.0,0.0,-0.6951611547195644,-0.7130577454058202,-1.147702004794369,0.015150289774217184,-0.002236521107852448,-0.07163285876561273
3904,2.0,300.67386,8380.7886,0.0,0.0,-0.03904001267928636,0.0,0.0,0.0,-0.6934150309547353,-0.7160688815229963,-1.138066604293429,0.006559092238657003,-0.00943565668487681,-0.08879196347258451
3905,2.0,300.23781,8243.4915,0.0,0.0,-0.03904998419038308,0.0,0.0,0.0,-0.6954048515011153,-0.7104060901591224,-1.1000046748870091,0.007245819150206674,0.007120056675619884,-0.0986038447831918
3906,2.0,300.64898,8441.4711,0.0,0.0,-0.03905998861075721,0.0,0.0,0.0,-0.7165119656592253,-0.7053632153389293,-1.1441212802659788,-0.008682520652498072,0.023488658206400077,-0.08838204605187883
3907,2.0,300.43827999999996,8595.0439,0.0,0.0,-0.039069993031131345,0.0,0.0,0.0,-0.7564159533499423,-0.7089080708137794,-1.147354763985099,-0.013484167171033687,0.0029843901648863775,-0.07396535238981193
3908,2.0,299.81122999999997,8485.1137,0.0,0.0,-0.03907999745150548,0.0,0.0,0.0,-0.7305841958305462,-0.7034732911199083,-1.1452051538979489,-0.026862718217893877,-0.014174454947409787,-0.07091662064092553
3909,2.0,299.91107999999997,8339.7223,0.0,0.0,-0.03909000187187972,0.0,0.0,0.0,-0.7111488835424303,-0.7001276102172154,-1.1237908223095188,-0.01140528599386409,0.001111929615313909,-0.07299269106231772
3910,2.0,299.529,8183.557,0.0,0.0,-0.03910000629225385,0.0,0.0,0.0,-0.6992124832568993,-0.6851083154424263,-1.1032761554848791,0.003943834860726196,0.018482350569065983,-0.08971216681590151
3911,2.0,299.64612999999997,8382.1817,0.0,0.0,-0.039110010712627985,0.0,0.0,0.0,-0.7304344374657663,-0.7067012222284803,-1.110838243631199,-0.00037211755830514364,-0.0006623612559974664,-0.08802291373943523
3912,2.0,299.99505,8512.7131,0.0,0.0,-0.03912001513300212,0.0,0.0,0.0,-0.7233790452969533,-0.7285822973429743,-1.1356909381089688,0.01095818026798819,-0.020780696651645083,-0.1070149868640569
3913,2.0,299.90144,8344.837,0.0,0.0,-0.03912998664409861,0.0,0.0,0.0,-0.7105330909266563,-0.7100681408532693,-1.116020815242679,0.015169383459101586,-0.018965155122465084,-0.08366222272131851
3914,2.0,300.47854,8131.1062,0.0,0.0,-0.03913999106447297,0.0,0.0,0.0,-0.6645914498650694,-0.6898615527215344,-1.1172002383590791,0.031368281708808364,0.00016796476681683184,-0.07956295934825272
3915,2.0,300.64121,8266.3323,0.0,0.0,-0.03914999548484721,0.0,0.0,0.0,-0.6816452799131514,-0.7043722972711334,-1.1267410013006791,0.013177593154527188,-0.0014458669573959586,-0.06842593942436444
3916,2.0,300.63499,8518.2527,0.0,0.0,-0.03915999990522134,0.0,0.0,0.0,-0.7222701849175173,-0.7213349956052213,-1.1457309293748388,0.0032096132692891665,-0.015724423625379787,-0.08815611053133073
3917,2.0,301.08911,8566.4308,0.0,0.0,-0.039170004325595476,0.0,0.0,0.0,-0.7352127425523484,-0.7297767064283534,-1.138991600309719,-0.0008441272389813721,-0.0037617143010022966,-0.08677906007567641
3918,2.0,300.51361,8409.0465,0.0,0.0,-0.03918000874596961,0.0,0.0,0.0,-0.7168088783360284,-0.7230985979342753,-1.1162326858385887,-0.006483129891910104,0.016941436293989583,-0.1011033959911283
3919,2.0,299.96513999999996,8386.1077,0.0,0.0,-0.03919001316634374,0.0,0.0,0.0,-0.7372081562392803,-0.6896187273350693,-1.122340456116379,-0.017772345958993983,0.007843138494132502,-0.07316262019683843
3920,2.0,300.13687999999996,8456.919,0.0,0.0,-0.039199984677440236,0.0,0.0,0.0,-0.7078593974902834,-0.7231259252894723,-1.139706853555309,-0.03077659937916387,-0.01139967461481029,-0.08998479290105761
3921,2.0,299.91772000000003,8485.0403,0.0,0.0,-0.03920998909781448,0.0,0.0,0.0,-0.7173785782047534,-0.7118087930675583,-1.150053049001399,-0.013877533151355887,0.004105965414527236,-0.07146945597498613
3922,2.0,300.07347000000004,8397.545,0.0,0.0,-0.03921999351818861,0.0,0.0,0.0,-0.7132668092989534,-0.6967875629850783,-1.1425896514148188,0.0032143825361848565,0.005308013392410135,-0.0862215009696496
3923,2.0,299.88786,8286.6032,0.0,0.0,-0.039229997938562966,0.0,0.0,0.0,-0.6988872907698053,-0.7117204579238403,-1.108312717756949,0.01183451089522529,-0.00019386413851540084,-0.08616006356308623
3924,2.0,299.71166,8343.2703,0.0,0.0,-0.0392400023589371,0.0,0.0,0.0,-0.6994223780151143,-0.7090609297238653,-1.127662552266629,-0.0017572947458564883,-0.015408125447663585,-0.0995503936423589
3925,2.0,300.26238,8567.3488,0.0,0.0,-0.03925000677931123,0.0,0.0,0.0,-0.7388008536739673,-0.7195777159567913,-1.1458814983396988,0.011723122285232089,0.0006594924308568354,-0.08764451244983991
3926,2.0,299.11478999999997,8467.9494,0.0,0.0,-0.03926001119968525,0.0,0.0,0.0,-0.6933438400027093,-0.7323488215422013,-1.1483525113585689,0.00956083370355582,0.017839174869339485,-0.08205845147628862
3927,2.0,299.56408,8277.4781,0.0,0.0,-0.039270015620059384,0.0,0.0,0.0,-0.7171778938899473,-0.6870180487009023,-1.1119506909159889,0.003010482672186507,0.01024737620358729,-0.06516094362713444
3928,2.0,299.52855,8290.1661,0.0,0.0,-0.0392799871311561,0.0,0.0,0.0,-0.7061873929702692,-0.6997707435319953,-1.1140453828477188,-0.01240976641424859,-0.014419754690618987,-0.07591323552780302
3929,2.0,300.06726000000003,8451.1502,0.0,0.0,-0.039289991551530234,0.0,0.0,0.0,-0.7423694090686563,-0.6929920800979933,-1.133577197075359,-0.011824081511945988,-0.008481300632364202,-0.08322103538927672
3930,2.0,300.12703999999997,8486.4233,0.0,0.0,-0.03929999597190437,0.0,0.0,0.0,-0.7270115266404512,-0.7026479583834544,-1.1500012719212889,-0.003918024442253906,0.0027334570550962074,-0.095896564132504
3931,2.0,300.24202,8375.1967,0.0,0.0,-0.0393100003922785,0.0,0.0,0.0,-0.7147883461791174,-0.6994712571999384,-1.1315910242293388,-0.0050456223491641555,0.01109705227369379,-0.09671246249727691
3932,2.0,299.78244,8284.3333,0.0,0.0,-0.03932000481265285,0.0,0.0,0.0,-0.6752225712392794,-0.7115870432831733,-1.1314208995375488,-0.014224528754101686,-0.008981211076601521,-0.1019087535151109
3933,2.0,300.31729,8274.5002,0.0,0.0,-0.039330009233026986,0.0,0.0,0.0,-0.7188295219504504,-0.6869284165970564,-1.1094835282474989,0.0024452561000029875,0.003723443034125216,-0.0919910463375594
3934,2.0,300.59155,8439.2179,0.0,0.0,-0.03934001365340101,0.0,0.0,0.0,-0.6990417100850453,-0.7229405613161783,-1.143329222662809,0.006054656518148074,0.00896288472601785,-0.08336337372357441
3935,2.0,300.33561000000003,8436.9815,0.0,0.0,-0.039349985164497725,0.0,0.0,0.0,-0.7135992870542663,-0.7224772729729554,-1.128555124279719,0.015792902106888086,0.0015956639270047683,-0.07080938230334194
3936,2.0,300.02902,8307.8311,0.0,0.0,-0.03935998958487186,0.0,0.0,0.0,-0.6836113397446864,-0.7143174280626413,-1.127444399520099,-0.0037479211300410166,-0.013908855751697187,-0.08407980132603032
3937,2.0,300.22486000000004,8430.2481,0.0,0.0,-0.03936999400524599,0.0,0.0,0.0,-0.7207815786656033,-0.7130393853140082,-1.128763955125329,-0.005482990032303984,-0.00010812717070382093,-0.07545305076963632
3938,2.0,300.19689,8636.9931,0.0,0.0,-0.03937999842562012,0.0,0.0,0.0,-0.7373956075077803,-0.7213314289648692,-1.1667031799446388,0.0024798331583404777,0.015636109759913884,-0.06390245356568114
3939,2.0,298.87852999999996,8580.401,0.0,0.0,-0.039390002845994365,0.0,0.0,0.0,-0.7663523296605862,-0.7061882238353514,-1.1356870877585887,-0.008591964971185922,0.008071006485271322,-0.07039866745480754
3940,2.0,299.47725,8483.9488,0.0,0.0,-0.0394000072663685,0.0,0.0,0.0,-0.7113501960722983,-0.7151134069436983,-1.1524450285124688,-0.0007350846880047103,-0.029517126465113574,-0.09338670209154991
3941,2.0,299.47447,8441.4145,0.0,0.0,-0.03941001168674263,0.0,0.0,0.0,-0.7334146187923873,-0.7058841069503373,-1.126680510269709,-0.010001512282722412,-0.018338040450073683,-0.08791689839472232
3942,2.0,299.85402,8414.3731,0.0,0.0,-0.03942001610711676,0.0,0.0,0.0,-0.7106326224839793,-0.7112597331033703,-1.1358669396513388,0.0002214135069418118,-0.002016206592234098,-0.1081940249454189
3943,2.0,299.72544,8496.7622,0.0,0.0,-0.03942998761821348,0.0,0.0,0.0,-0.7200958515279273,-0.7271421447108424,-1.135565599071599,-0.012282650136203188,-0.0012384815130536088,-0.08962764554555992
3944,2.0,299.93773999999996,8453.5159,0.0,0.0,-0.03943999203858739,0.0,0.0,0.0,-0.7069872019367044,-0.7222031786884043,-1.1404673990803689,-0.006729048021655333,-0.01020446202210199,-0.09600288142574671
3945,2.0,299.89133,8289.1523,0.0,0.0,-0.039449996458961745,0.0,0.0,0.0,-0.7125258904283303,-0.7026771805163383,-1.1044922582548988,0.003543018351093687,0.013541999433741288,-0.06363900144693044
3946,2.0,300.86225,8444.345,0.0,0.0,-0.03946000087933599,0.0,0.0,0.0,-0.7033381539540713,-0.7284787735802574,-1.1350530971710189,0.01207293371000579,0.017439406161635383,-0.08975609019448642
3947,2.0,300.26648,8661.3515,0.0,0.0,-0.03947000529971012,0.0,0.0,0.0,-0.7509748003129423,-0.7295883128372603,-1.1522714587703389,0.016001309413956288,0.01061283220990499,-0.06316029549018584
3948,2.0,299.89581,8605.3327,0.0,0.0,-0.03948000972008425,0.0,0.0,0.0,-0.7180292164914663,-0.7400267444399533,-1.157750304711059,0.004742175627766295,-0.014090002578074986,-0.09023207253496222
3949,2.0,300.07769,8457.8055,0.0,0.0,-0.039490014140458385,0.0,0.0,0.0,-0.7191722233992723,-0.7201082942391553,-1.1316812034882389,0.016069720007707886,0.0009765621275966781,-0.09045738591994891
3950,2.0,299.80537999999996,8353.2269,0.0,0.0,-0.0394999856515551,0.0,0.0,0.0,-0.7180288618539313,-0.6920982313897773,-1.1290453346780989,0.0021155805891665477,-0.0044857362129576955,-0.09291739402948282
3951,2.0,299.71457000000004,8407.639000000001,0.0,0.0,-0.03950999007192901,0.0,0.0,0.0,-0.7234180452933022,-0.7089245361279043,-1.123369715567959,-0.01075690320187369,-0.007928659437022763,-0.096283514213193
3952,2.0,299.53434,8438.0686,0.0,0.0,-0.039519994492303256,0.0,0.0,0.0,-0.7100542897244023,-0.7037388741036192,-1.1511690426615389,-0.016636942479938382,-0.021171369413201482,-0.09380535271486751
3953,2.0,299.79141,8439.8958,0.0,0.0,-0.03952999891267739,0.0,0.0,0.0,-0.7219461475355373,-0.7127067961011843,-1.1308646252326489,-0.002089434278286108,-0.004842659032233235,-0.097056178209449
3954,2.0,300.50559,8438.0881,0.0,0.0,-0.03954000333305174,0.0,0.0,0.0,-0.7033975912049374,-0.7163433101800804,-1.1452271414251187,-0.0007574383936283494,0.0076536230325287835,-0.07647753781324533
3955,2.0,300.60472999999996,8430.653,0.0,0.0,-0.039550007753425875,0.0,0.0,0.0,-0.7090740310476583,-0.7160033850365323,-1.137630602775399,-0.008878462044910981,0.007697290464138424,-0.08910842174381652
3956,2.0,300.35999,8508.9595,0.0,0.0,-0.03956001217380001,0.0,0.0,0.0,-0.7272463777486293,-0.7229359712932254,-1.1363288803719291,0.006037996761328885,0.003141641412830867,-0.07453163861895001
3957,2.0,300.41081,8638.0533,0.0,0.0,-0.039569983684896504,0.0,0.0,0.0,-0.7516305149826563,-0.7314828372117353,-1.1426391993447091,0.0010798704834749189,0.01183109826888849,-0.06605269186789314
3958,2.0,300.43536,8539.5204,0.0,0.0,-0.03957998810527086,0.0,0.0,0.0,-0.7371503097910713,-0.7150106228535543,-1.1436400877934887,0.01143340368413909,0.013671616413033487,-0.07505695002729422
3959,2.0,299.74585,8416.8029,0.0,0.0,-0.03958999252564488,0.0,0.0,0.0,-0.7130455154771134,-0.7149696470195104,-1.130482731269959,0.004831036850936215,-0.0034049641395437966,-0.08647432713460161
3960,2.0,300.29301,8482.0591,0.0,0.0,-0.03959999694601901,0.0,0.0,0.0,-0.6879072668561614,-0.7298326783638773,-1.160594193766729,-0.006904495822845682,-0.017715658668899383,-0.09650099517490672
3961,2.0,299.41519,8388.4479,0.0,0.0,-0.039610001366393144,0.0,0.0,0.0,-0.7138949838309493,-0.7019245890045633,-1.1340590988229189,0.003914411597697346,-0.004140732355933465,-0.09750115914986522
3962,2.0,299.55624,8348.8684,0.0,0.0,-0.039620005786767276,0.0,0.0,0.0,-0.7032298780483853,-0.7105120761195823,-1.124105537790579,-0.012350200480619888,-0.006289921235016894,-0.09326996453427883
3963,2.0,300.21254,8395.5653,0.0,0.0,-0.03963001020714163,0.0,0.0,0.0,-0.7344155275061692,-0.6975154311944133,-1.120111305896379,-0.0009690197876948072,0.008796786082175191,-0.0936983190538041
3964,2.0,299.75911,8401.5947,0.0,0.0,-0.03964001462751576,0.0,0.0,0.0,-0.7051749737353513,-0.7122646441550473,-1.1364353729574388,-0.027748691946332674,-0.002522725858923658,-0.08480314334716862
3965,2.0,299.50041,8449.7386,0.0,0.0,-0.03964998613861226,0.0,0.0,0.0,-0.7145169370073313,-0.7232641731331163,-1.130728444419209,0.020085576685542082,0.01893835668382028,-0.08794482559397851
3966,2.0,299.68635,8665.8465,0.0,0.0,-0.0396599905589865,0.0,0.0,0.0,-0.7110734470724853,-0.7414961597349733,-1.1816313936679388,-0.0051272402526692145,0.008059956283655752,-0.07215737882562884
3967,2.0,299.99084,8621.2994,0.0,0.0,-0.039669994979360634,0.0,0.0,0.0,-0.7338750295053262,-0.7382783813924033,-1.1485063227237489,0.02150257351313878,-0.006467573868424844,-0.07504788447864952
3968,2.0,300.75901,8500.8864,0.0,0.0,-0.03967999939973477,0.0,0.0,0.0,-0.7150423173166823,-0.7248093288731113,-1.144205582674299,0.0058147026824664745,-0.023788055372448276,-0.06683840247243673
3969,2.0,300.4051,8510.9989,0.0,0.0,-0.0396900038201089,0.0,0.0,0.0,-0.7365825654950393,-0.7193015951720403,-1.1312470258203888,0.01848513700684098,-0.01231889713203049,-0.08263652079083962
3970,2.0,299.65932000000004,8556.4751,0.0,0.0,-0.03970000824048314,0.0,0.0,0.0,-0.7551851989834764,-0.7057147523286234,-1.140054803639649,0.0001997818230744308,0.0006551641810671703,-0.07632169690811502
3971,2.0,300.04712,8518.6509,0.0,0.0,-0.039710012660857275,0.0,0.0,0.0,-0.7217336385920643,-0.7164326281763954,-1.1512908353235591,-0.0016437562218011082,0.0006315484521789795,-0.10528848975366491
3972,2.0,299.95934,8343.8557,0.0,0.0,-0.03971998417195388,0.0,0.0,0.0,-0.6876673089674794,-0.7153431614038733,-1.1333133467493188,-0.02270431447624138,0.0063181702425048536,-0.10555814600277791
3973,2.0,300.21628,8402.3907,0.0,0.0,-0.039729988592328125,0.0,0.0,0.0,-0.7140867414123744,-0.7009293747563433,-1.1391008286704989,-0.023924146006629374,0.011014238329770689,-0.09409871293681991
3974,2.0,300.05618,8570.5749,0.0,0.0,-0.03973999301270226,0.0,0.0,0.0,-0.7336816203262383,-0.7204778164181244,-1.151081295202879,-0.018236182470521084,0.009184286762968532,-0.08783282295442472
3975,2.0,299.34637999999995,8603.8759,0.0,0.0,-0.03974999743307617,0.0,0.0,0.0,-0.7427025758340373,-0.7339958595797513,-1.138665029802489,-0.01072530702400539,-0.010539702910437689,-0.08494809080047382
3976,2.0,300.02133,8645.9189,0.0,0.0,-0.03976000185345052,0.0,0.0,0.0,-0.7397137818815662,-0.7310961100460682,-1.1573335549449288,0.010319040343409991,-0.008263959499164301,-0.07313991832834793
3977,2.0,299.82178,8590.7337,0.0,0.0,-0.039770006273824765,0.0,0.0,0.0,-0.7220915387923863,-0.7308656057808193,-1.1584113490762988,0.024998490021408876,0.014979809431642087,-0.07291941889458634
3978,2.0,299.30253,8421.0425,0.0,0.0,-0.0397800106941989,0.0,0.0,0.0,-0.6981748746244953,-0.7206415880317872,-1.1409701737799889,0.014427941751426985,0.012919117107017588,-0.09150551107514082
3979,2.0,299.49917,8473.155,0.0,0.0,-0.03979001511457303,0.0,0.0,0.0,-0.7181475742356473,-0.7203955810400083,-1.1370843596464888,0.0008765221315059993,0.001010184278774926,-0.06882030649578542
3980,2.0,300.12142,8533.7781,0.0,0.0,-0.03979998662566975,0.0,0.0,0.0,-0.7210696456690333,-0.7260162921272294,-1.146969526297079,-0.0008314684217720443,-0.005300128178806925,-0.09886667273988091
3981,2.0,299.92467,8307.6984,0.0,0.0,-0.03980999104604388,0.0,0.0,0.0,-0.7220396097247613,-0.6894225823807114,-1.113870698530479,0.003285701056398447,-0.0007590624612861322,-0.08535344960897961
3982,2.0,299.87422999999995,8280.0557,0.0,0.0,-0.03981999546641779,0.0,0.0,0.0,-0.7054465450271533,-0.7001887193307463,-1.111294915451269,-0.012716142846985589,0.00938545642457243,-0.11708171780006588
3983,2.0,300.35578,8495.7987,0.0,0.0,-0.039829999886792034,0.0,0.0,0.0,-0.7067315690689754,-0.7140833672895414,-1.161695697950439,-0.013172793388803486,-0.012257246942946089,-0.10400697155718891
3984,2.0,300.24036,8556.4994,0.0,0.0,-0.039840004307166166,0.0,0.0,0.0,-0.7207930486567353,-0.7243762252503673,-1.155792908167879,-0.014247027972572185,0.01060038949867699,-0.10651265799448091
3985,2.0,300.12136,8660.3993,0.0,0.0,-0.03985000872754052,0.0,0.0,0.0,-0.7296603650518714,-0.7397536228754983,-1.163131169367109,-0.008306108474174081,0.017810476586757183,-0.06999028713450353
3986,2.0,300.31027,8623.0903,0.0,0.0,-0.03986001314791465,0.0,0.0,0.0,-0.7389101833597573,-0.7185850550988233,-1.163708924574129,-0.0027967461762173572,0.02238850265857318,-0.07309718349213033
3987,2.0,299.81307999999996,8569.5921,0.0,0.0,-0.03986998465901115,0.0,0.0,0.0,-0.7378422481518603,-0.7279477190703463,-1.139152099125559,-0.0016425235017294485,-0.013513027573631988,-0.05760246467767065
3988,2.0,299.91609,8703.0353,0.0,0.0,-0.03987998907938528,0.0,0.0,0.0,-0.7427225976560132,-0.7420113872783223,-1.1607714112092187,0.005762561845570574,-0.012235238137523988,-0.07737907708972033
3989,2.0,299.97992,8815.5375,0.0,0.0,-0.039889993499759635,0.0,0.0,0.0,-0.7501208229961613,-0.7403803281948492,-1.189202094440109,0.03121551500448147,-0.017978758176615282,-0.08907945089695732
3990,2.0,299.74564,8468.956,0.0,0.0,-0.039899997920133656,0.0,0.0,0.0,-0.7136113649954583,-0.7283874696137463,-1.1323522790294689,0.00972434329074296,-0.003548307820590716,-0.1031201953346709
3991,2.0,299.8909,8296.7084,0.0,0.0,-0.03991000234050779,0.0,0.0,0.0,-0.6952042989088224,-0.7043434905707904,-1.1224444155766389,0.001997041777192678,-0.007648915776539213,-0.10098063972826321
3992,2.0,300.01251,8453.2458,0.0,0.0,-0.03992000676088192,0.0,0.0,0.0,-0.7143713937629673,-0.7091468330673434,-1.146057398557059,-0.012184830971549189,-0.012299515684117688,-0.07527494774655892
3993,2.0,300.31772,8547.6638,0.0,0.0,-0.03993001118125605,0.0,0.0,0.0,-0.7407735705586593,-0.7121318678619434,-1.1453709216143089,0.0003673839983429776,-0.007119884220452863,-0.090838541223316
3994,2.0,300.77859,8535.1859,0.0,0.0,-0.03994001560163041,0.0,0.0,0.0,-0.7130425162568174,-0.7072669298918113,-1.1741739742569488,-0.01057106401428279,-0.013413156577525488,-0.07233570577697834
3995,2.0,300.644,8527.0651,0.0,0.0,-0.039949987112726904,0.0,0.0,0.0,-0.7178249148738033,-0.7231874599680453,-1.151002464345099,0.0006425600388332384,-0.008034299372573613,-0.1055559472500609
3996,2.0,300.08767,8695.4357,0.0,0.0,-0.039959991533101036,0.0,0.0,0.0,-0.7430657348023783,-0.7312661942078543,-1.1688634291578388,-0.005918140116274954,0.013310324864626789,-0.07026323847294173
3997,2.0,300.13341,8835.6108,0.0,0.0,-0.03996999595347528,0.0,0.0,0.0,-0.7573728262143783,-0.7569335215010222,-1.1714986900179187,-0.000983152741944621,0.016870343627223283,-0.08091516389820493
3998,2.0,299.82705,8737.146999999999,0.0,0.0,-0.03998000037384941,0.0,0.0,0.0,-0.7365621181080213,-0.7490776617532092,-1.170234761843179,-0.004432772819630616,0.02933230660712327,-0.06063011474497645
3999,2.0,299.8578,8482.6507,0.0,0.0,-0.039990004794223544,0.0,0.0,0.0,-0.7310122534677923,-0.7093120738936514,-1.138189714180579,0.006055642613145395,-0.003760142446122166,-0.08117735654708132
4000,2.0,299.97477000000003,8348.4326,0.0,0.0,-0.040000009214597676,0.0,0.0,0.0,-0.6835150911176874,-0.7189401992588733,-1.135259698866409,0.013643785472536788,-0.017117026456818986,-0.100730202807047
4001,2.0,299.60152,8431.1903,0.0,0.0,-0.04001001363497192,0.0,0.0,0.0,-0.7191289373550004,-0.7201886145745824,-1.123553721786119,0.024631494888189272,-0.03616058383227176,-0.1135699854709849
4002,2.0,299.59962,8643.0465,0.0,0.0,-0.040019985146068526,0.0,0.0,0.0,-0.7428940902354383,-0.7210661499561883,-1.1633101093347689,0.011976380094726688,-0.02156812674160838,-0.1151235309218079
4003,2.0,300.32707999999997,8533.5907,0.0,0.0,-0.04002998956644266,0.0,0.0,0.0,-0.7255377138399973,-0.7249371503732263,-1.143523665356999,0.007828434512656333,-0.014472195449544487,-0.09835893615452122
4004,2.0,300.49924,8394.5985,0.0,0.0,-0.0400399939868169,0.0,0.0,0.0,-0.7113259895274093,-0.6987667950679134,-1.141655536147629,-0.02001594715192018,0.0020237754691560883,-0.06698739583339124
4005,2.0,300.90514,8639.7577,0.0,0.0,-0.040049998407191034,0.0,0.0,0.0,-0.7390643088324683,-0.7188084260833684,-1.1683978407368887,-0.01134471390288609,0.009360530370787422,-0.06991901917546993
4006,2.0,300.50489,8902.7257,0.0,0.0,-0.040060002827564944,0.0,0.0,0.0,-0.7442430604910714,-0.7601471252531803,-1.201816146260019,-0.02920647209045437,0.004387180719456026,-0.060031988144695944
4007,2.0,300.09604,8878.8636,0.0,0.0,-0.0400700072479393,0.0,0.0,0.0,-0.7664634224015503,-0.7514396895913233,-1.181049686785529,-0.0026078429203240574,0.012442307954460188,-0.09294762231971611
4008,2.0,299.68901,8780.0647,0.0,0.0,-0.04008001166831354,0.0,0.0,0.0,-0.7448066707266953,-0.7456732326097183,-1.178440567778029,-0.010055767569926991,0.017365196737561484,-0.08341550645446952
4009,2.0,300.24886000000004,8512.1793,0.0,0.0,-0.040090016088687674,0.0,0.0,0.0,-0.7244564847907884,-0.7265190769593503,-1.1365144064652388,-0.005193432639301895,0.015861752451183087,-0.09917658541546691
4010,2.0,300.45502999999997,8404.3996,0.0,0.0,-0.04009998759978417,0.0,0.0,0.0,-0.7259787613435253,-0.6910817084919543,-1.137667181104009,-0.001035606146231369,0.00934178027901193,-0.07026085632195662
4011,2.0,300.27386,8520.7036,0.0,0.0,-0.040109992020158525,0.0,0.0,0.0,-0.7093582882307122,-0.7186538649131143,-1.162068979287279,0.002105580215979588,0.0013800180625471786,-0.09372875506030791
4012,2.0,299.25286,8509.1133,0.0,0.0,-0.04011999644053266,0.0,0.0,0.0,-0.7116149887209313,-0.7138342698849572,-1.161108722167509,0.030934857899032768,0.004015638322437646,-0.08846429156249583
4013,2.0,299.33083999999997,8466.8533,0.0,0.0,-0.04013000086090657,0.0,0.0,0.0,-0.7078598838503313,-0.7257967309630603,-1.140055411589709,0.006563904771331964,-0.024241038962154276,-0.1060509300564119
4014,2.0,299.71984,8671.9916,0.0,0.0,-0.04014000528128081,0.0,0.0,0.0,-0.7451332716314283,-0.7376894196392774,-1.1532462053665387,0.01163854325963479,-0.02319223087639498,-0.1085397458795389
4015,2.0,299.85964,8837.7354,0.0,0.0,-0.04015000970165494,0.0,0.0,0.0,-0.7627500026400643,-0.7459034936949432,-1.1777973566145488,-0.011948176278193189,-0.016186041119187883,-0.08039719753983562
4016,2.0,300.26063,8735.3681,0.0,0.0,-0.0401600141220293,0.0,0.0,0.0,-0.7579617474375003,-0.7392945192551883,-1.158077483168349,0.001064616003219419,0.012005918361641887,-0.07716056666590503
4017,2.0,300.38857,8613.3001,0.0,0.0,-0.04016998563312579,0.0,0.0,0.0,-0.7069162035021973,-0.7328131028705224,-1.1784988296587788,-0.016367709769367186,0.0036343413667065667,-0.060568807034425846
4018,2.0,300.26641,8536.8565,0.0,0.0,-0.040179990053499925,0.0,0.0,0.0,-0.7138604725325433,-0.7247533468050863,-1.156377350825559,-0.006329210210294415,0.013935580223084686,-0.08829766967630151
4019,2.0,300.46279,8603.7335,0.0,0.0,-0.04018999447387406,0.0,0.0,0.0,-0.7317880281418553,-0.7296749153233073,-1.1538571951768388,-0.0058124231737165044,0.022515297736336877,-0.08866369614242552
4020,2.0,299.68966,8601.1384,0.0,0.0,-0.04019999889424819,0.0,0.0,0.0,-0.7330051846919793,-0.7269327869751804,-1.1545933213744888,0.008917741191662533,0.013681193652978684,-0.11713664608798689
4021,2.0,299.79036,8645.0451,0.0,0.0,-0.04021000331462243,0.0,0.0,0.0,-0.7523940191980083,-0.7351820714718214,-1.140301732689019,-0.003944892288530556,0.0007898164358038132,-0.09166663000004201
4022,2.0,299.62739,8602.6104,0.0,0.0,-0.040220007734996566,0.0,0.0,0.0,-0.7362778609249673,-0.7121372684849763,-1.166563655405869,-0.017938700347161884,-0.021886448379774277,-0.0968429143946515
4023,2.0,299.39031,8642.7977,0.0,0.0,-0.0402300121553707,0.0,0.0,0.0,-0.7146128309967954,-0.7365778944120783,-1.176004005262559,-0.01096420302658259,-0.015441154361173286,-0.08375876215109622
4024,2.0,300.18297,8811.1935,0.0,0.0,-0.040239983666467416,0.0,0.0,0.0,-0.7424887901954382,-0.7505879211597603,-1.185306147805609,0.015729623624892983,-0.016272047814176085,-0.0965061191806624
4025,2.0,300.3908,8830.2151,0.0,0.0,-0.04024998808684155,0.0,0.0,0.0,-0.7577482657739313,-0.7456942879467963,-1.1807223056782188,0.008775743512048451,-0.02106988937593618,-0.08226125956330421
4026,2.0,300.50563999999997,8650.9784,0.0,0.0,-0.04025999250721568,0.0,0.0,0.0,-0.7498958510764583,-0.7363643823510063,-1.1434212257718888,0.008719640968586562,-0.026831932640105575,-0.1061531264614979
4027,2.0,300.68424,8609.9679,0.0,0.0,-0.04026999692758981,0.0,0.0,0.0,-0.7538666464958453,-0.7117138616656894,-1.151634732407499,-0.017270757775241084,-0.004275129646547446,-0.07810470905608463
4028,2.0,299.81309,8558.2774,0.0,0.0,-0.040280001347964056,0.0,0.0,0.0,-0.7236295713841784,-0.7195930464308044,-1.1582800318633388,0.003596402445862286,0.015227779088864787,-0.07426106841824684
4029,2.0,299.5901,8511.4932,0.0,0.0,-0.04029000576833819,0.0,0.0,0.0,-0.6978045621104483,-0.7154238262443343,-1.174052992195009,-0.02298567579050958,0.01908426875122068,-0.0887231029957885
4030,2.0,299.75582,8727.6078,0.0,0.0,-0.04030001018871232,0.0,0.0,0.0,-0.7173545439123813,-0.7569371084063763,-1.178683241176979,0.0001962360658069918,0.02110278048743228,-0.08621277992603892
4031,2.0,299.13362,8728.9119,0.0,0.0,-0.04031001460908645,0.0,0.0,0.0,-0.7447921609852632,-0.7417691495769153,-1.166809976505179,-0.0016923649701734186,0.014676656147473186,-0.10629219503772291
4032,2.0,299.39961,8657.1806,0.0,0.0,-0.04031998612018295,0.0,0.0,0.0,-0.7358819233158913,-0.7341153116340403,-1.1615695483129889,0.00985893127502576,-0.0006214559745579294,-0.0964313230847806
4033,2.0,300.01939,8645.5122,0.0,0.0,-0.0403299905405573,0.0,0.0,0.0,-0.7576154388183223,-0.7215045022144503,-1.1488998690625887,0.016974229120225986,-0.022529513635239876,-0.09273722600270161
4034,2.0,299.55489,8706.8194,0.0,0.0,-0.04033999496093155,0.0,0.0,0.0,-0.7332247559886493,-0.7378152146391923,-1.1756157278242387,-0.003169945034499217,-0.033427595000046766,-0.08053552948323793
4035,2.0,300.09857999999997,8738.4716,0.0,0.0,-0.04034999938130568,0.0,0.0,0.0,-0.7295864180595734,-0.7349896147478273,-1.1917010731617388,0.010769847471901189,0.0011708411920280288,-0.08173628252749301
4036,2.0,300.64161,8687.5136,0.0,0.0,-0.04036000380167981,0.0,0.0,0.0,-0.7254012695815313,-0.7388972340234794,-1.176488744110399,0.0006800442636951434,-0.006994573452760654,-0.0943547875815925
4037,2.0,300.19049,8648.3918,0.0,0.0,-0.04037000822205372,0.0,0.0,0.0,-0.7419274901700422,-0.7272048851570343,-1.159762822059679,0.003823065074682147,0.005132397290378175,-0.08802862846999922
4038,2.0,300.02351,8664.1103,0.0,0.0,-0.040380012642428076,0.0,0.0,0.0,-0.7431334300415593,-0.7307472176391353,-1.159792510287609,-0.025491300419545476,-0.015768001485680586,-0.09431016100743822
4039,2.0,299.79087999999996,8554.0845,0.0,0.0,-0.04038998415352457,0.0,0.0,0.0,-0.7228755106597583,-0.7306963828816183,-1.146656229366159,0.004446976660857426,0.014903008113812384,-0.07940185359560283
4040,2.0,299.63954,8744.3919,0.0,0.0,-0.040399988573898815,0.0,0.0,0.0,-0.7217569838743683,-0.7451144049145663,-1.1912053912128189,0.002404609166941448,0.007972045083779591,-0.07724884810736772
4041,2.0,299.87822,8942.6913,0.0,0.0,-0.04040999299427295,0.0,0.0,0.0,-0.7501197692160573,-0.7567969860500473,-1.2114380705346288,0.01066188972674659,0.014758007971501987,-0.07527629739569212
4042,2.0,299.6323,8779.1861,0.0,0.0,-0.0404199974146473,0.0,0.0,0.0,-0.7391708622129843,-0.7564414568549593,-1.1730410593201388,0.014239781207856985,-0.0016641038036842584,-0.09491596500372641
4043,2.0,299.45532000000003,8652.4503,0.0,0.0,-0.040430001835021434,0.0,0.0,0.0,-0.7401294981325943,-0.7302298014755703,-1.1597695095103389,-0.008791245124003342,0.012757570590574188,-0.0919927506242276
4044,2.0,299.78099,8730.3169,0.0,0.0,-0.040440006255395344,0.0,0.0,0.0,-0.7674358385225203,-0.7318563617285992,-1.1545060805408789,0.02085086624757028,0.0010446343059473792,-0.08108270885524033
4045,2.0,299.82187000000005,8640.9592,0.0,0.0,-0.04045001067576959,0.0,0.0,0.0,-0.7305878840609102,-0.7286696091040913,-1.167378308486269,-0.015603884353733484,-0.011178751642506889,-0.08022278882662283
4046,2.0,300.44505,8575.494,0.0,0.0,-0.04046001509614372,0.0,0.0,0.0,-0.7147512510929563,-0.7245086063759324,-1.167476188445929,0.004016004814998816,-0.010744847552183889,-0.09348912951765873
4047,2.0,300.27362,8571.72,0.0,0.0,-0.04046998660724044,0.0,0.0,0.0,-0.7083334668145703,-0.7227013937625743,-1.174553943044449,-0.013505418065380985,0.008464739971404792,-0.08808716899452672
4048,2.0,300.43102999999996,8561.264000000001,0.0,0.0,-0.04047999102761457,0.0,0.0,0.0,-0.7181660964474753,-0.7345930083936852,-1.149651396661759,0.00999645434087323,0.0037980818735914965,-0.1012221924726026
4049,2.0,300.05818999999997,8696.9597,0.0,0.0,-0.0404899954479887,0.0,0.0,0.0,-0.7445894603027583,-0.7415508853728743,-1.157518270438159,0.0019830482866866283,0.0018054494568589881,-0.1099251424762669
4050,2.0,299.54703,8862.1941,0.0,0.0,-0.040499999868362835,0.0,0.0,0.0,-0.7826278417768542,-0.7465726237959813,-1.164685292370489,0.006902258262649853,-0.00965071070995099,-0.08964936050845301
4051,2.0,299.23807999999997,8772.3172,0.0,0.0,-0.04051000428873697,0.0,0.0,0.0,-0.7404440008311333,-0.7473633641740214,-1.178758019034359,0.0029091696185376873,0.013420277699228288,-0.07493338924384974
4052,2.0,299.46576,8583.95,0.0,0.0,-0.04052000870911121,0.0,0.0,0.0,-0.7114395039361123,-0.7289022918570554,-1.168964652842829,0.00988072527142666,-0.012400982549131688,-0.0880444240258081
4053,2.0,299.84322000000003,8731.4251,0.0,0.0,-0.04053001312948534,0.0,0.0,0.0,-0.7299491717278743,-0.7403638628807243,-1.183822141709149,-0.008555119448524552,-0.005296696300718225,-0.07125358101468093
4054,2.0,299.61264,8778.8227,0.0,0.0,-0.04053998464058184,0.0,0.0,0.0,-0.7598214869360422,-0.7322579634057343,-1.176463412857899,0.003446655125508377,-0.012068335581051989,-0.1017612344330519
4055,2.0,299.66517999999996,8637.1336,0.0,0.0,-0.04054998906095619,0.0,0.0,0.0,-0.7448985826432662,-0.7313962752556923,-1.149178107540049,-0.0027539325091419774,0.015050994304167486,-0.10251059367700789
4056,2.0,300.08965,8573.832,0.0,0.0,-0.040559993481330325,0.0,0.0,0.0,-0.7508426826324033,-0.7188920800116243,-1.136496066638429,-0.0024179760635856576,0.004225808482029826,-0.1028636302768499
4057,2.0,300.50527999999997,8760.8843,0.0,0.0,-0.04056999790170446,0.0,0.0,0.0,-0.7300046167733464,-0.7376812123134673,-1.195404198302209,-0.01639411506697318,-0.004142047858538296,-0.08128906737060633
4058,2.0,300.09135,8816.6788,0.0,0.0,-0.04058000232207859,0.0,0.0,0.0,-0.7322763336300473,-0.7581409609826872,-1.189632928382629,-0.006163775346592264,-0.008380234913064792,-0.09475544896263471
4059,2.0,299.90475,8797.3338,0.0,0.0,-0.04059000674245283,0.0,0.0,0.0,-0.7369990214186403,-0.7509927652372153,-1.186178049516659,-0.014199493370630884,0.008511458907015592,-0.07887282761239202
4060,2.0,299.81869,8803.2115,0.0,0.0,-0.040600011162826966,0.0,0.0,0.0,-0.7491479205151433,-0.7411207100429192,-1.185687839118279,-0.0038622149307209366,0.012248359726318988,-0.08298977321295292
4061,2.0,299.53738,8697.1477,0.0,0.0,-0.0406100155832011,0.0,0.0,0.0,-0.7396715192198953,-0.7411486352156753,-1.162895588718859,-0.0012962093096758986,0.006141740297992573,-0.09996417357244582
4062,2.0,299.91185,8648.3586,0.0,0.0,-0.040619987094297594,0.0,0.0,0.0,-0.7372420393226243,-0.7274099771097753,-1.164233078850859,0.015189754852362087,0.010702715599775791,-0.07393544226011003
4063,2.0,299.522,8760.1498,0.0,0.0,-0.040629991514671726,0.0,0.0,0.0,-0.7235050429468883,-0.7459586752953894,-1.1934031306797188,0.005196082186988385,0.015205873634952885,-0.09640418115435191
4064,2.0,299.01542,8765.601999999999,0.0,0.0,-0.04063999593504608,0.0,0.0,0.0,-0.7396413344994164,-0.7378624523588543,-1.1870203643247887,0.0027134841731000373,-0.01148327078781059,-0.07031230105603384
4065,2.0,299.72452999999996,8649.0094,0.0,0.0,-0.040650000355420324,0.0,0.0,0.0,-0.7389977990959044,-0.7253852804949533,-1.1646997818469187,-0.007604717097902143,-0.014936486910366486,-0.1018866646629309
4066,2.0,300.08432999999997,8734.9806,0.0,0.0,-0.040660004775794456,0.0,0.0,0.0,-0.7513113513336572,-0.7497700966065474,-1.154134521729209,-0.015796069526700686,-0.009827168822816052,-0.09718693610835381
4067,2.0,299.80415,8792.1888,0.0,0.0,-0.040670009196168366,0.0,0.0,0.0,-0.7577772649917933,-0.7360620285211663,-1.1787665303351988,0.0044179800774456855,0.01082374731097069,-0.1119773994938089
4068,2.0,300.10395,8830.7655,0.0,0.0,-0.0406800136165425,0.0,0.0,0.0,-0.7490770335381473,-0.7545860135368413,-1.1806692113729789,-0.017247286849924683,0.013776143293349486,-0.09463468069646581
4069,2.0,300.09148999999996,8747.4056,0.0,0.0,-0.04068998512763922,0.0,0.0,0.0,-0.7150098122534743,-0.7464449340183793,-1.197538103012809,-0.004390017617086006,0.015656891519464883,-0.096931335664628
4070,2.0,300.56652,8663.6852,0.0,0.0,-0.04069998954801335,0.0,0.0,0.0,-0.7271438064410063,-0.7236040476141593,-1.1827961246578889,-0.01031280480229459,0.004816197904546725,-0.07779788780655372
4071,2.0,300.52711,8586.6459,0.0,0.0,-0.04070999396838759,0.0,0.0,0.0,-0.7163904060447283,-0.7364142646534294,-1.1573212946187188,0.014952395950186588,0.01374443464472009,-0.08523168126496201
4072,2.0,299.73548,8742.5061,0.0,0.0,-0.040719998388761725,0.0,0.0,0.0,-0.7572646921637063,-0.7287606597580772,-1.1714782223658988,0.008265118555953691,-0.01028906941870209,-0.07941647276804563
4073,2.0,299.73113,8911.7631,0.0,0.0,-0.04073000280913608,0.0,0.0,0.0,-0.7768561057622282,-0.7465565131193913,-1.1855408165287689,0.005237958901696295,-0.029061639134410473,-0.08768082632017382
4074,2.0,299.69277999999997,8798.1704,0.0,0.0,-0.04074000722951021,0.0,0.0,0.0,-0.7371538359014193,-0.7527069006963872,-1.1845633341572988,-0.01045848686192229,-0.024631477662937575,-0.08880694944156352
4075,2.0,299.47701,8770.3059,0.0,0.0,-0.04075001164988412,0.0,0.0,0.0,-0.7285015615750062,-0.7410824497191433,-1.196370028297529,0.004502131106200746,-0.003753694426460796,-0.0914678009461691
4076,2.0,300.0184,8972.8331,0.0,0.0,-0.040760016070258365,0.0,0.0,0.0,-0.7793066308640763,-0.7562996930334682,-1.191910917257449,0.0048849630345083155,0.007136184476136573,-0.07198497026811343
4077,2.0,300.14898,8799.1522,0.0,0.0,-0.04076998758135497,0.0,0.0,0.0,-0.7629926355090103,-0.7276862802795443,-1.1840436381810089,-0.0016067577996996484,-0.014389584155641386,-0.10487604630045991
4078,2.0,300.18012000000004,8589.8067,0.0,0.0,-0.040779992001729215,0.0,0.0,0.0,-0.7549330922260953,-0.7100398914404813,-1.1461137352626187,-0.0015576778900308385,-0.011435496045595591,-0.09107564377321622
4079,2.0,300.40306,8691.2367,0.0,0.0,-0.04078999642210335,0.0,0.0,0.0,-0.7369236862737053,-0.7451272630583353,-1.159867997420059,0.0098524701844381,0.014281222123696884,-0.1092918712962679
4080,2.0,300.14986,8756.7615,0.0,0.0,-0.04080000084247748,0.0,0.0,0.0,-0.7266991821646253,-0.7473044335482053,-1.1878331935550088,0.0027457254873070073,0.014683549287903485,-0.08529209326242423
4081,2.0,300.15316,8753.7835,0.0,0.0,-0.04081000526285161,0.0,0.0,0.0,-0.7123781281662472,-0.7565824506063743,-1.1919710029883788,-0.015715089565458588,0.007319908301493703,-0.08494380880555122
4082,2.0,299.90511000000004,8799.0455,0.0,0.0,-0.040820009683225744,0.0,0.0,0.0,-0.7551650251739853,-0.7482542643244463,-1.1712708100704288,-0.028309736632703475,0.0011591845602276088,-0.07822212650417283
4083,2.0,299.47922,8742.5829,0.0,0.0,-0.04083001410359999,0.0,0.0,0.0,-0.7328804941346734,-0.7464933065781534,-1.1781531087246588,-0.005117823410214844,0.00018223835004802484,-0.07262469078499893
4084,2.0,299.27192,8833.9082,0.0,0.0,-0.040839985614696594,0.0,0.0,0.0,-0.7823902751584083,-0.7424840177874673,-1.1604132272988688,0.01125561882159309,-0.006667425899598703,-0.08867406067769842
4085,2.0,299.60798,8974.4547,0.0,0.0,-0.040849990035070616,0.0,0.0,0.0,-0.7702113534614422,-0.7649899034436253,-1.1928088594960689,0.016573607255937685,-0.036364198466366966,-0.08503027146308442
4086,2.0,299.6632,8895.6531,0.0,0.0,-0.04085999445544497,0.0,0.0,0.0,-0.7603199654552383,-0.7444796341244192,-1.1992567778324288,0.009572665728948552,-0.03135726261397087,-0.09304287593511691
4087,2.0,299.67708999999996,8685.7885,0.0,0.0,-0.0408699988758191,0.0,0.0,0.0,-0.7117155841908592,-0.7384475536290993,-1.1900997327036988,0.014219043018060287,-0.003671166016415877,-0.08339469835041592
4088,2.0,299.68605,8691.0068,0.0,0.0,-0.040880003296193235,0.0,0.0,0.0,-0.7503688666206413,-0.7219991303832662,-1.1694811064187989,0.016436224727879086,0.014171919795659587,-0.08807675075699851
4089,2.0,300.58033,9021.0774,0.0,0.0,-0.04089000771656737,0.0,0.0,0.0,-0.7723220040822473,-0.7662321075362213,-1.2036281414138488,0.0017110385615663583,-0.009669527980208112,-0.08330090178865893
4090,2.0,300.5525,8918.5607,0.0,0.0,-0.04090001213694161,0.0,0.0,0.0,-0.7849638290873983,-0.7493411270442113,-1.176714800207709,-0.010460212426842589,0.001316575130060849,-0.0927846461073816
4091,2.0,300.20927,8769.5301,0.0,0.0,-0.04090998364803822,0.0,0.0,0.0,-0.7231267865520573,-0.7557456884087922,-1.1868456800075489,-0.009666332392042731,-0.0022671354463738476,-0.08999313600238101
4092,2.0,299.98503999999997,8855.4534,0.0,0.0,-0.04091998806841224,0.0,0.0,0.0,-0.7349188290958413,-0.7488505620082964,-1.208067291426959,-0.007518745461367404,0.021670700075731582,-0.07791836526994393
4093,2.0,300.18211,8928.1261,0.0,0.0,-0.04092999248878637,0.0,0.0,0.0,-0.7469643462846414,-0.7561556493992523,-1.2108074236723887,-0.005291135381519404,0.009110645873525742,-0.07478762308446373
4094,2.0,299.70207,8838.4591,0.0,0.0,-0.0409399969091605,0.0,0.0,0.0,-0.7561370866574203,-0.7523625071198983,-1.1781712459014488,-0.007155962104838473,0.014861243971190586,-0.07890604296392013
4095,2.0,300.01612,8718.8223,0.0,0.0,-0.04095000132953486,0.0,0.0,0.0,-0.7402391317934144,-0.7426286592392423,-1.167436469042009,0.001967090610861728,0.011052384156285388,-0.09335836047300282
4096,2.0,300.01416,8694.6657,0.0,0.0,-0.0409600057499091,0.0,0.0,0.0,-0.7586449819799302,-0.7305075738579843,-1.153808660497049,0.007315975979180613,-0.008909996009223141,-0.0951265609310106
4097,2.0,299.63164,8759.7601,0.0,0.0,-0.04097001017028323,0.0,0.0,0.0,-0.7239445604427653,-0.7423666124983803,-1.1964372067791589,0.005860096894896535,-0.04113377035033706,-0.11756053926732188
4098,2.0,299.79568,8911.1703,0.0,0.0,-0.04098001459065714,0.0,0.0,0.0,-0.7460241920468552,-0.7588279648154893,-1.203921072017759,0.0042398403747146655,-0.011590306475374188,-0.11113253129542688
4099,2.0,299.31813,8779.8518,0.0,0.0,-0.04098998610175408,0.0,0.0,0.0,-0.7367116028952743,-0.7345945586663383,-1.1975495527389386,0.008175883139521842,0.01064280110811269,-0.0947640149789801
4100,2.0,299.2076,8655.1311,0.0,0.0,-0.040999990522127994,0.0,0.0,0.0,-0.7377421086444773,-0.7168983280548563,-1.1763033193420989,-0.0027032634180163273,0.027436962513317377,-0.08696869489814192
4101,2.0,299.36088,8856.0525,0.0,0.0,-0.041009994942502126,0.0,0.0,0.0,-0.7605452818799753,-0.7518039732672753,-1.1796695388243188,-0.00938907433537949,0.0035177219543971266,-0.08705280580219302
4102,2.0,299.7279,9030.1713,0.0,0.0,-0.04101999936287637,0.0,0.0,0.0,-0.7906538971439643,-0.7547603330840452,-1.1995323818596288,-0.011522945608726189,0.01107652180016759,-0.08274571672761642
4103,2.0,300.0242,8959.4508,0.0,0.0,-0.0410300037832505,0.0,0.0,0.0,-0.7450532350060293,-0.7624304032935222,-1.2159656772814686,-0.0008487999127450292,0.017612638491482084,-0.09442404626567781
4104,2.0,300.21042,8844.5659,0.0,0.0,-0.041040008203624856,0.0,0.0,0.0,-0.7420694059790484,-0.7515652819412183,-1.194892507001709,-0.0024414222655996178,0.017059465745138183,-0.08062933617749592
4105,2.0,299.46197,8656.0758,0.0,0.0,-0.04105001262399899,0.0,0.0,0.0,-0.7338074558561573,-0.7237912759676373,-1.173632189428479,-0.008631143299552523,-0.009490952883909122,-0.09379157352675761
4106,2.0,300.11415,8786.655,0.0,0.0,-0.041059984135095484,0.0,0.0,0.0,-0.7485023484789303,-0.7504724815758673,-1.171948877037349,-0.008381712637010631,0.0040370220538730565,-0.08954318810997461
4107,2.0,299.95781,8906.9848,0.0,0.0,-0.041069988555469616,0.0,0.0,0.0,-0.7839061074405091,-0.7520093894600482,-1.1715855255514889,0.006804951295921405,0.004336584582337576,-0.11174253825312991
4108,2.0,300.37667000000005,8935.6033,0.0,0.0,-0.04107999297584375,0.0,0.0,0.0,-0.7809822628194483,-0.7398809884130683,-1.195337019820579,0.0036329987089990566,0.004540698140782016,-0.09193455663123432
4109,2.0,300.25638,8796.4249,0.0,0.0,-0.04108999739621799,0.0,0.0,0.0,-0.7329024107343363,-0.7509412212046284,-1.190049880798779,0.005393883501284855,-0.02378534594168088,-0.11908827723809788
4110,2.0,300.08196,8767.2369,0.0,0.0,-0.041100001816592124,0.0,0.0,0.0,-0.7327280405246274,-0.7459390182434493,-1.186354051059029,-0.0018512339732275683,-0.01134190213385859,-0.08366961944704852
4111,2.0,300.25923,9005.5492,0.0,0.0,-0.04111000623696626,0.0,0.0,0.0,-0.7658470522332191,-0.7609862584559962,-1.210628787679759,0.007274325117919993,0.015982038410304385,-0.08895365285729201
4112,2.0,300.47166,9097.7937,0.0,0.0,-0.04112001065734039,0.0,0.0,0.0,-0.7838875446986773,-0.7668842454330822,-1.2147303227595487,-0.012243969313635687,0.02158591536036398,-0.06587604691170965
4113,2.0,299.52153,8754.9939,0.0,0.0,-0.04113001507771452,0.0,0.0,0.0,-0.7518564190924513,-0.7323108550609544,-1.177132259248909,-0.015050274896596485,0.0046210885931159355,-0.0913324104678071
4114,2.0,299.45511,8737.8967,0.0,0.0,-0.04113998658881124,0.0,0.0,0.0,-0.7220852566417663,-0.7636782511891752,-1.170338923953459,-0.014355820635809185,0.019774840237624783,-0.08874931374937532
4115,2.0,299.91887,8895.5739,0.0,0.0,-0.04114999100918537,0.0,0.0,0.0,-0.7324986103044844,-0.7635725388062423,-1.2079612041414889,0.017207899792037486,0.01998018752939098,-0.1029449233323729
4116,2.0,299.8754,8928.8767,0.0,0.0,-0.04115999542955939,0.0,0.0,0.0,-0.7595472203989743,-0.7495891098736852,-1.2050192324761388,0.005999645346368895,-0.008665224270641052,-0.08599356630665422
4117,2.0,300.24786,8858.6161,0.0,0.0,-0.04116999984993375,0.0,0.0,0.0,-0.7413811862461263,-0.7555135325458803,-1.1959033253014688,-0.005937854720820634,-0.03618586442226676,-0.09500519383403261
4118,2.0,300.21486,8726.0099,0.0,0.0,-0.04118000427030788,0.0,0.0,0.0,-0.7577332392749483,-0.7150111598761073,-1.1797447219817387,0.00037392973584399165,-0.023010023177162477,-0.07980810609069683
4119,2.0,300.36208999999997,8845.4681,0.0,0.0,-0.04119000869068201,0.0,0.0,0.0,-0.7706110704933913,-0.7316869260468772,-1.186503404123769,0.01147827445156749,0.002080454551924878,-0.08915297840371392
4120,2.0,300.68564,9155.5034,0.0,0.0,-0.041200013111056255,0.0,0.0,0.0,-0.7916521815399873,-0.7601223918182394,-1.2312698067918688,0.005902929307098765,0.00010217911903929391,-0.08758381066284911
4121,2.0,300.56955,9205.3884,0.0,0.0,-0.04120998462215286,0.0,0.0,0.0,-0.7760210356923132,-0.7723923337716883,-1.2497948557201488,-0.0005458068031519375,-0.019758586692770683,-0.08652946009904282
4122,2.0,299.72695,8850.7681,0.0,0.0,-0.041219989042526994,0.0,0.0,0.0,-0.7620569395716643,-0.7445745351287852,-1.1837810037550887,-0.01028245998829979,-0.0028202102114330777,-0.08717823197907161
4123,2.0,299.84609,8676.543,0.0,0.0,-0.041229993462901016,0.0,0.0,0.0,-0.7136147087207884,-0.7468513587659903,-1.176986351234509,-0.002384929215549188,0.01877730767317598,-0.08193059755217041
4124,2.0,299.97004,8876.5692,0.0,0.0,-0.04123999788327515,0.0,0.0,0.0,-0.7797965474199272,-0.7433184191123163,-1.1751404122023288,-0.007257342742268963,0.006011345142623574,-0.07660889251645901
4125,2.0,299.64236,9056.3744,0.0,0.0,-0.04125000230364928,0.0,0.0,0.0,-0.7791044976016273,-0.7709551398298483,-1.2028520931622588,-0.017011025297607483,-0.002019036194463358,-0.08128509846996462
4126,2.0,299.85922999999997,8822.3997,0.0,0.0,-0.041260006724023635,0.0,0.0,0.0,-0.7445360620224882,-0.7537293308422933,-1.183523840879709,-0.0004098768400391946,0.010739806632936388,-0.10948526021035389
4127,2.0,299.84604,8690.1514,0.0,0.0,-0.04127001114439788,0.0,0.0,0.0,-0.7036571960130583,-0.7460913907934873,-1.1918404963754987,-0.002089054512148628,0.016923270746196782,-0.10481702448213491
4128,2.0,300.1022,8856.1986,0.0,0.0,-0.04128001556477201,0.0,0.0,0.0,-0.7584531129409943,-0.7340553576256232,-1.1995547746868387,0.007946149552298902,-0.008330507536582082,-0.0967035823734005
4129,2.0,300.39321,9103.7655,0.0,0.0,-0.041289987075868506,0.0,0.0,0.0,-0.7619943004504823,-0.7777247549404572,-1.2275982950545188,-0.014067805308134288,-0.03793030619192976,-0.0919858088477925
4130,2.0,300.69944,9077.1017,0.0,0.0,-0.04129999149624286,0.0,0.0,0.0,-0.8068986469871962,-0.7507057621463903,-1.201607822039459,0.018086931744041183,-0.0058411938023559444,-0.08558530858961232
4131,2.0,300.15862000000004,8817.4978,0.0,0.0,-0.04130999591661677,0.0,0.0,0.0,-0.7612936278738313,-0.7380735326196863,-1.180931947123909,0.015780751211688884,0.01952102818032548,-0.08484635035793282
4132,2.0,300.97478,8755.3477,0.0,0.0,-0.0413200003369909,0.0,0.0,0.0,-0.7384593782577663,-0.7452533924307834,-1.177694309079379,0.02069042721348618,0.01018677574160649,-0.09091687356204682
4133,2.0,299.96282,8953.2189,0.0,0.0,-0.041330004757365146,0.0,0.0,0.0,-0.7447324906868743,-0.7638195793131233,-1.2130029339890687,-0.008894321638126201,-0.011584430638044289,-0.09719796432244222
4134,2.0,299.58466,9182.6914,0.0,0.0,-0.04134000917773928,0.0,0.0,0.0,-0.7864208928636992,-0.7761734690373573,-1.2287144913646788,0.004915949337141425,-0.005793688989967584,-0.0883297755189701
4135,2.0,299.15852,8963.2536,0.0,0.0,-0.04135001359811363,0.0,0.0,0.0,-0.7510516755980293,-0.7688494642670343,-1.2047041116950388,-0.006473033969238713,0.008838079975425581,-0.09050072667972632
4136,2.0,299.84995,8666.1679,0.0,0.0,-0.04135998510921013,0.0,0.0,0.0,-0.7447755740811263,-0.7218436066254174,-1.1676794464159888,-0.01064526330585569,-0.012872158031133089,-0.07359657190991613
4137,2.0,299.78542999999996,8802.64,0.0,0.0,-0.04136998952958426,0.0,0.0,0.0,-0.7503797894567192,-0.7371306324741294,-1.1882723361483487,-0.023407400614630577,-0.018814359189582682,-0.08711969348104431
4138,2.0,300.44917000000004,9101.6456,0.0,0.0,-0.041379993949958394,0.0,0.0,0.0,-0.7656678792180364,-0.7594225703716723,-1.2415825649846588,-0.0035461609462788366,0.00885401606902335,-0.07886870368448502
4139,2.0,300.53031,8960.7351,0.0,0.0,-0.041389998370332526,0.0,0.0,0.0,-0.7529426738621563,-0.7562813228091553,-1.2146157241732387,0.008309005660185012,0.03534859255988446,-0.0997924955682525
4140,2.0,300.20239,8739.0419,0.0,0.0,-0.04140000279070677,0.0,0.0,0.0,-0.7422593397102933,-0.7233757623666294,-1.190815391249329,-0.00019670409616068282,-0.0005519388002396186,-0.08360929762884522
4141,2.0,299.57952,8732.9598,0.0,0.0,-0.0414100072110809,0.0,0.0,0.0,-0.7514503287173733,-0.7225896626740473,-1.1805617055373687,-0.005097500348984115,-0.023206431576546477,-0.1065225675804589
4142,2.0,299.66607999999997,9001.237,0.0,0.0,-0.041420011631455034,0.0,0.0,0.0,-0.7881078428226882,-0.7584422407674213,-1.189601213654499,0.003485365129678757,-0.016825275276025384,-0.08869567735533182
4143,2.0,299.76791000000003,9174.3561,0.0,0.0,-0.041430016051829166,0.0,0.0,0.0,-0.7920931175860042,-0.7750789461468363,-1.2216030968628389,0.02175546756584748,0.01159160242225209,-0.1084250054382149
4144,2.0,300.11753999999996,8968.8569,0.0,0.0,-0.041439987562925884,0.0,0.0,0.0,-0.7536496488544293,-0.7675545813017393,-1.205104345484539,0.004443611454625305,-0.01054989823294389,-0.09131281522412323
4145,2.0,300.35936,8600.0638,0.0,0.0,-0.041449991983300016,0.0,0.0,0.0,-0.7055442729992983,-0.7427630871300093,-1.1658973421401089,-0.00913128922311308,-0.011723769752045988,-0.11051246276423089
4146,2.0,300.55602000000005,8702.1522,0.0,0.0,-0.04145999640367415,0.0,0.0,0.0,-0.7252262407592573,-0.7318886438767853,-1.1881220711585188,-0.01904856080444658,0.00011714816674162388,-0.08236152471369962
4147,2.0,300.92852999999997,9028.7392,0.0,0.0,-0.04147000082404817,0.0,0.0,0.0,-0.7699550822461503,-0.7673491549764653,-1.2072070420920589,0.0009859359069217981,0.03448513831491817,-0.08794254882100382
4148,2.0,300.23731000000004,8974.4122,0.0,0.0,-0.041480005244422524,0.0,0.0,0.0,-0.7737795035560913,-0.7462901195356002,-1.2079275642381688,0.002876890408776977,0.0011786299442217189,-0.06988742097110143
4149,2.0,299.69246,8811.291,0.0,0.0,-0.041490009664796657,0.0,0.0,0.0,-0.7367179458409003,-0.7333259492761363,-1.208368530681689,-0.0024982303351061374,-0.014551657562136788,-0.0996237894266025
4150,2.0,299.98598,9101.028,0.0,0.0,-0.04150001408517079,0.0,0.0,0.0,-0.7671554924848523,-0.7855393855417012,-1.2137904319667887,-0.004824492673840356,-0.006905196282639812,-0.0948471217521821
4151,2.0,299.81721,9231.6774,0.0,0.0,-0.041509985596267285,0.0,0.0,0.0,-0.7938010316895622,-0.7619120853373683,-1.2504862975883888,0.0002164850989854158,0.029086807253644372,-0.09371044461775081
4152,2.0,300.20737,9284.5192,0.0,0.0,-0.04151999001664164,0.0,0.0,0.0,-0.8003756974809313,-0.7954056550779263,-1.2264806801942187,0.006043080237080584,0.007734320600968013,-0.09553563127463272
4153,2.0,300.14946000000003,9107.3972,0.0,0.0,-0.04152999443701577,0.0,0.0,0.0,-0.7907702486529472,-0.7684388345315082,-1.209212264039959,-0.0057734072693409345,-0.007657189672880783,-0.07216274702465864
4154,2.0,300.32106,8740.4435,0.0,0.0,-0.04153999885738979,0.0,0.0,0.0,-0.7597901876404533,-0.7306944982364323,-1.1663919095139188,-0.003110172600500137,-0.01031568141932849,-0.0986175854677979
4155,2.0,300.55981,8756.8337,0.0,0.0,-0.041550003277763925,0.0,0.0,0.0,-0.7157228566138463,-0.7625959379623592,-1.1835399515562988,0.009062563103280342,0.01974482574316258,-0.08310105137868522
4156,2.0,300.63757000000004,8962.411,0.0,0.0,-0.04156000769813806,0.0,0.0,0.0,-0.7626258389728103,-0.7502938151857343,-1.211429457908779,0.006105156700482055,-0.004090550536780906,-0.09811530219447641
4157,2.0,299.14834,9004.7024,0.0,0.0,-0.04157001211851241,0.0,0.0,0.0,-0.7393344919716334,-0.7633878638430163,-1.234482316233919,-0.013889218964759186,-0.007930546615334013,-0.08237856251413113
4158,2.0,299.98528,8810.2312,0.0,0.0,-0.04157998362960891,0.0,0.0,0.0,-0.7433594557413663,-0.7544065770766323,-1.1803243010389388,-0.0025287722262453878,-0.005502840007063025,-0.10723165013293988
4159,2.0,300.03755,8893.8119,0.0,0.0,-0.04158998804998315,0.0,0.0,0.0,-0.7595622874279613,-0.7324180873190373,-1.2115163947673588,-0.003953046621360327,0.02369770183453108,-0.06904303609301714
4160,2.0,299.83325,9196.4139,0.0,0.0,-0.04159999247035728,0.0,0.0,0.0,-0.8025421376522422,-0.7759763817604062,-1.2169617021297687,0.001902581029995128,0.0007537332318551783,-0.1075341154202909
4161,2.0,299.90195,9285.2562,0.0,0.0,-0.04160999689073164,0.0,0.0,0.0,-0.7953221430046843,-0.7849120520072883,-1.242251816675709,-0.006846752827471894,-0.01890865933663938,-0.08116448827081132
4162,2.0,299.92671,9017.2534,0.0,0.0,-0.04162000131110555,0.0,0.0,0.0,-0.7822656251311063,-0.7544657002199673,-1.2042885778290289,0.007313584100994554,-0.006252715805920004,-0.10983561169743089
4163,2.0,299.77497999999997,8869.5272,0.0,0.0,-0.04163000573147968,0.0,0.0,0.0,-0.7314451645730173,-0.7613808788399423,-1.2032888039553589,0.00023628210102922777,0.026269176574315878,-0.0940610159800995
4164,2.0,299.88717,8763.7927,0.0,0.0,-0.04164001015185392,0.0,0.0,0.0,-0.7487140468223232,-0.7289138327756942,-1.186346249033259,0.008299648802136562,0.006206423853901344,-0.0927568313788865
4165,2.0,299.7124,8952.8575,0.0,0.0,-0.041650014572228056,0.0,0.0,0.0,-0.7688954962190773,-0.7553996229696383,-1.1971500282245089,-0.018042922239197783,-0.004245668082664816,-0.07494636289813014
4166,2.0,300.07504,9111.3069,0.0,0.0,-0.041659986083324774,0.0,0.0,0.0,-0.7828518409764613,-0.7734964217431533,-1.2132615154145887,0.005894567156673485,-0.007750420030481903,-0.08626603736454502
4167,2.0,300.21637999999996,8932.4514,0.0,0.0,-0.041669990503698906,0.0,0.0,0.0,-0.7409049789641283,-0.7553854070707352,-1.218951826651179,-0.009070474661386153,-0.003551898170995056,-0.07964265045536763
4168,2.0,300.33085,8937.2047,0.0,0.0,-0.04167999492407304,0.0,0.0,0.0,-0.7329056430021553,-0.7750861604875483,-1.2086953038389388,-0.007727595558729304,-0.03325446298195996,-0.0995857378323471
4169,2.0,300.40013999999996,9312.3162,0.0,0.0,-0.04168999934444717,0.0,0.0,0.0,-0.7789992411812392,-0.7807016330717522,-1.2710106916139887,-0.011998569258666589,-0.034640239547475464,-0.08406835869265102
4170,2.0,300.66303,9436.7608,0.0,0.0,-0.0417000037648213,0.0,0.0,0.0,-0.8228797998169132,-0.7992453258018722,-1.2464145520615386,0.005775459506093475,0.000901944900755031,-0.08449973675047472
4171,2.0,300.08872,9094.8201,0.0,0.0,-0.041710008185195546,0.0,0.0,0.0,-0.7852483497154782,-0.7583986811456223,-1.2209511717484989,0.011019730145312689,0.03225169596749457,-0.07957167836536322
4172,2.0,299.72102,8862.8063,0.0,0.0,-0.04172001260556968,0.0,0.0,0.0,-0.7563961544429882,-0.7306374826533053,-1.2070381333003888,0.003922171674913206,0.008377780719997582,-0.0919993144583754
4173,2.0,299.15542999999997,8904.0787,0.0,0.0,-0.041729984116666174,0.0,0.0,0.0,-0.7489791130484833,-0.7522340067422163,-1.2054044701641589,-0.005825859781967594,0.0027670310971597075,-0.08956812419493561
4174,2.0,299.81864,9021.1834,0.0,0.0,-0.04173998853704053,0.0,0.0,0.0,-0.7686166801890603,-0.7538855132127074,-1.219712270851229,0.006284317050038805,0.0026801307155833076,-0.09891699377959721
4175,2.0,299.4263,9110.7352,0.0,0.0,-0.04174999295741466,0.0,0.0,0.0,-0.7711258927367003,-0.7761888096438713,-1.222121272963979,0.005213189091076705,0.019283628748145983,-0.1000087494840951
4176,2.0,299.98982,8949.6459,0.0,0.0,-0.04175999737778879,0.0,0.0,0.0,-0.7747161823460342,-0.7515317433629083,-1.1942209248354287,-0.02039071999290738,-0.01274103232244199,-0.09103465679342111
4177,2.0,300.21905,8816.1463,0.0,0.0,-0.041770001798162926,0.0,0.0,0.0,-0.7541319153720253,-0.7389345317596603,-1.186821868630199,-0.0031869023828727775,-0.02387637329091458,-0.08726411911054802
4178,2.0,300.34366,9131.3369,0.0,0.0,-0.04178000621853695,0.0,0.0,0.0,-0.7560428442656193,-0.7961049901644452,-1.2235505635550388,-0.0042378568363189055,-0.011550209129166888,-0.0875390959359361
4179,2.0,300.57316000000003,9327.8378,0.0,0.0,-0.0417900106389113,0.0,0.0,0.0,-0.8010954900869691,-0.7834945961773963,-1.2508397192232688,0.024245671541611478,0.005753385042064895,-0.090440536584036
4180,2.0,300.18852999999996,9090.7208,0.0,0.0,-0.041800015059285434,0.0,0.0,0.0,-0.7561740601535692,-0.7777191820649072,-1.2294589262131488,-0.000977482634915025,-0.01002435732345204,-0.08440920285403972
4181,2.0,299.38992,8848.6217,0.0,0.0,-0.04180998657038193,0.0,0.0,0.0,-0.7457379387611043,-0.7522307035468903,-1.191791455070659,0.005636227999252395,-0.009253960575619802,-0.1064262480259529
4182,2.0,299.49998,9058.8541,0.0,0.0,-0.04181999099075606,0.0,0.0,0.0,-0.7894742207150393,-0.7518938890811493,-1.212297306619429,-0.006711121499561124,0.01107086786460959,-0.0866241361618866
4183,2.0,299.1069,9123.3398,0.0,0.0,-0.041829995411130416,0.0,0.0,0.0,-0.7936910940537122,-0.7661775034883322,-1.213398912128149,-0.004624892333991336,0.01834502883601338,-0.0935412115860488
4184,2.0,299.59345,8942.1275,0.0,0.0,-0.04183999983150455,0.0,0.0,0.0,-0.7500283233945323,-0.7560684186981433,-1.2120867532486488,-0.011672174043703888,-0.0028510015647469473,-0.1006978862083576
4185,2.0,300.81689,8882.2466,0.0,0.0,-0.04185000425187857,0.0,0.0,0.0,-0.7433032608908202,-0.7502249648414393,-1.2064529813676388,-0.005852952873741474,-0.013035110938715289,-0.09691487744325372
4186,2.0,300.23956,8931.1702,0.0,0.0,-0.0418600086722527,0.0,0.0,0.0,-0.7408426640829783,-0.7732536875491972,-1.2007563879804288,0.007108526396106933,0.004197963761331767,-0.11467116541466289
4187,2.0,300.27957999999995,9171.5998,0.0,0.0,-0.041870013092626834,0.0,0.0,0.0,-0.7755183623177033,-0.7841166304137863,-1.2283023012239989,0.008149948091287253,0.004572734575818766,-0.09501131487788672
4188,2.0,300.12772,9300.9292,0.0,0.0,-0.04187998460372355,0.0,0.0,0.0,-0.7977581178350962,-0.8009362780987562,-1.228555816399019,-0.0069513088893907735,-0.01062905029100559,-0.08931305469426223
4189,2.0,299.53791,9134.2937,0.0,0.0,-0.041889989024097685,0.0,0.0,0.0,-0.7652600257877843,-0.7788482466513372,-1.2324889493121887,-0.0011293083744040588,-0.0077854799024920434,-0.06943773044422044
4190,2.0,299.84452999999996,8999.3684,0.0,0.0,-0.04189999344447193,0.0,0.0,0.0,-0.7507280333835883,-0.7591570684479693,-1.2256981471419888,-0.0037525386120717263,0.015490685065811588,-0.08939609560620772
4191,2.0,299.40785,9087.8762,0.0,0.0,-0.04190999786484606,0.0,0.0,0.0,-0.7623209114877163,-0.7736419548550162,-1.2265245539235488,-0.005203214150467255,0.011985866142162887,-0.08695042093258842
4192,2.0,299.66237,9148.1891,0.0,0.0,-0.041920002285220415,0.0,0.0,0.0,-0.7703262661552833,-0.7711948444060053,-1.2392999151593789,-0.012509917067382687,-0.014717166899721286,-0.1026684175125839
4193,2.0,300.13783,9011.43,0.0,0.0,-0.041930006705594325,0.0,0.0,0.0,-0.7701050635259523,-0.7603034900086122,-1.2088412118533387,-0.007436341377109752,-0.015304490227435586,-0.1004528195126714
4194,2.0,299.96002999999996,8877.9688,0.0,0.0,-0.04194001112596846,0.0,0.0,0.0,-0.7667223787296072,-0.7559996190163533,-1.1759588143080988,0.01206101586232959,0.005234366322141735,-0.11488365409313389
4195,2.0,300.11567,9029.1057,0.0,0.0,-0.0419500155463427,0.0,0.0,0.0,-0.7661170225898633,-0.7526282522236253,-1.225877391084679,0.014810258239408684,0.004816252924027155,-0.08473353813154912
4196,2.0,299.96832,9116.4291,0.0,0.0,-0.04195998705743931,0.0,0.0,0.0,-0.7737439688750842,-0.7831355003419562,-1.214287329815829,0.009431187542660742,-0.004426560076642465,-0.0974579774703535
4197,2.0,300.17336,9188.6784,0.0,0.0,-0.04196999147781355,0.0,0.0,0.0,-0.7694742849411993,-0.7753171916428493,-1.2483372954512988,0.003684331782915236,-0.010788632115505091,-0.08067933297718022
4198,2.0,300.17872,9104.5307,0.0,0.0,-0.04197999589818768,0.0,0.0,0.0,-0.7693685725582662,-0.7729141575731883,-1.225267313199469,-0.005568486353216814,0.011862791718766388,-0.1035765226497069
4199,2.0,299.41345,8953.442,0.0,0.0,-0.041990000318561815,0.0,0.0,0.0,-0.7575935627486633,-0.7609007097500533,-1.2031285077895388,-0.02029024915274168,-0.005670757941460235,-0.07998271340092922
4200,2.0,299.35867,9069.7557,0.0,0.0,-0.04200000473893595,0.0,0.0,0.0,-0.7841673030512873,-0.7666114177111563,-1.2062004794427188,-0.01985382409616988,-0.0014907968986301989,-0.0982434651598751
4201,2.0,299.89711,9305.7895,0.0,0.0,-0.04201000915931008,0.0,0.0,0.0,-0.7875375350039032,-0.7922819367421392,-1.2489081605576386,-0.017048880321343485,-0.002315317515129048,-0.07375777088157522
4202,2.0,299.29451,9122.8186,0.0,0.0,-0.04202001357968432,0.0,0.0,0.0,-0.7869748974883752,-0.7655118893651413,-1.2206222707660388,0.010526796130663891,0.023226654022042274,-0.08715658794368551
4203,2.0,299.68663,8986.6806,0.0,0.0,-0.04202998509078082,0.0,0.0,0.0,-0.7393279058459833,-0.7677233786358982,-1.2246752711660387,0.004162642673445846,-0.0007801832036580873,-0.0990896100533831
4204,2.0,299.71432000000004,9016.9222,0.0,0.0,-0.04203998951115495,0.0,0.0,0.0,-0.7658382572223513,-0.7778050752758843,-1.197275873886929,0.01011767208478649,-0.005010084425756835,-0.1092384628834969
4205,2.0,299.96521,9180.0368,0.0,0.0,-0.042049993931529306,0.0,0.0,0.0,-0.8106966731320322,-0.7572689579466273,-1.2225363002049388,0.007960145170630163,-0.02270829350938408,-0.09781603371119091
4206,2.0,300.38237999999996,9214.5139,0.0,0.0,-0.04205999835190344,0.0,0.0,0.0,-0.7885298918868412,-0.7899169704787352,-1.2225352869548387,0.015916881362623883,-0.005832535884226474,-0.1095495002666939
4207,2.0,300.01521,8973.4024,0.0,0.0,-0.04207000277227757,0.0,0.0,0.0,-0.7542355911222572,-0.7595770504819183,-1.2138775714753887,0.005575796750038295,-0.017378389253863483,-0.0967152783193048
4208,2.0,300.08699,9019.8628,0.0,0.0,-0.0420800071926517,0.0,0.0,0.0,-0.7445316341195514,-0.7651034989123362,-1.2321779828564987,-0.008021871049497033,-0.00029885801566998976,-0.08462658654374382
4209,2.0,300.48555,9206.4561,0.0,0.0,-0.042090011613025724,0.0,0.0,0.0,-0.7603848641241432,-0.7959179543284862,-1.2422299304735487,-0.016454586846191287,0.007989064240409252,-0.0894326425240646
4210,2.0,300.09846,9304.9198,0.0,0.0,-0.04210001603340008,0.0,0.0,0.0,-0.7911829150211743,-0.7773238118758873,-1.259956538323029,-0.011656650038921789,0.02044157400217628,-0.08531300877098842
4211,2.0,299.9937,9189.4969,0.0,0.0,-0.042109987544496574,0.0,0.0,0.0,-0.8049390719563012,-0.7725888637610843,-1.2158496601450188,0.0002027839513982178,0.01954942856737838,-0.08818203960138972
4212,2.0,299.38888,8956.1733,0.0,0.0,-0.04211999196487071,0.0,0.0,0.0,-0.7420018120648773,-0.7703584165809563,-1.210092778376859,-0.004663469703723626,0.010263254845904391,-0.0983042905633781
4213,2.0,299.43565,9016.2377,0.0,0.0,-0.04212999638524484,0.0,0.0,0.0,-0.7723129253613512,-0.7564810141388633,-1.211917135181909,0.00862293455519238,0.0009749523568978059,-0.1030526723480069
4214,2.0,299.91022999999996,9294.1789,0.0,0.0,-0.04214000080561919,0.0,0.0,0.0,-0.7922683186607953,-0.7778390495517372,-1.255090911342829,-0.0029336739576310772,0.005838232376288675,-0.08335919710666222
4215,2.0,299.80793,9226.7696,0.0,0.0,-0.042150005225993326,0.0,0.0,0.0,-0.7950487883927062,-0.7683150457667912,-1.2413437419360887,-0.0008076838347546882,-0.009126751585190251,-0.1046921211423079
4216,2.0,300.04102,8968.6015,0.0,0.0,-0.04216000964636735,0.0,0.0,0.0,-0.7681894128868922,-0.7400235729671403,-1.218017914034009,-0.0055447839002525645,-0.011146824131855889,-0.09286978242053391
4217,2.0,300.62671,9032.0521,0.0,0.0,-0.04217001406674148,0.0,0.0,0.0,-0.7915271464776472,-0.7586736468252593,-1.1953174640936488,0.016314606344876286,-0.022334024253696582,-0.0993970949817295
4218,2.0,299.81224,9242.7878,0.0,0.0,-0.0421799855778382,0.0,0.0,0.0,-0.7813501334007542,-0.7781294875604013,-1.2500971082249788,0.00886545201495199,-0.012241915455682987,-0.08500198456004272
4219,2.0,300.30294,9238.8272,0.0,0.0,-0.04218998999821233,0.0,0.0,0.0,-0.7885377952376212,-0.7860653940661142,-1.2337695961135788,0.008115839863771032,-0.016502576397427485,-0.09137402262291391
4220,2.0,300.07707,9118.9624,0.0,0.0,-0.04219999441858646,0.0,0.0,0.0,-0.7429730224182283,-0.7857999225399143,-1.2431639444157287,-0.0075105867715622035,0.002219845139031658,-0.08474542051547182
4221,2.0,299.09122,9027.4913,0.0,0.0,-0.042209998838960705,0.0,0.0,0.0,-0.7358100028237933,-0.7775211828628662,-1.230800773320579,-0.013233160803261288,0.018324001869938183,-0.09297795700120992
4222,2.0,299.02322999999996,9128.7712,0.0,0.0,-0.04222000325933484,0.0,0.0,0.0,-0.7659993741207524,-0.7874922933869383,-1.2214267913454389,-0.023816062618462374,0.022055197077928478,-0.09516063957162392
4223,2.0,298.76816,9308.1056,0.0,0.0,-0.04223000767970919,0.0,0.0,0.0,-0.8116937416279352,-0.7810228941484583,-1.2367150128292688,-0.01198927978174979,0.015959873564366883,-0.09910309438571391
4224,2.0,299.5632,9266.4464,0.0,0.0,-0.0422400121000831,0.0,0.0,0.0,-0.7927688135476902,-0.7787333744875002,-1.2452661343981988,-0.017742690155067183,0.0016831006218590984,-0.0970527088411066
4225,2.0,299.91167,8949.7972,0.0,0.0,-0.04224998361117982,0.0,0.0,0.0,-0.7529645701968173,-0.7668847520581322,-1.2006656007714687,0.012061676501394789,-0.012182527854071886,-0.1054462021317299
4226,2.0,299.72726,8970.9488,0.0,0.0,-0.04225998803155384,0.0,0.0,0.0,-0.7425652905779883,-0.7591685789691053,-1.2252105711938688,0.015117394609720685,-0.01755244940904188,-0.0968631581183994
4227,2.0,299.74712999999997,9296.3835,0.0,0.0,-0.042269992451928085,0.0,0.0,0.0,-0.7950572186335383,-0.7817842198760953,-1.2490270147943687,0.02652063890463327,-0.02025276497854228,-0.0955883121738319
4228,2.0,300.33783999999997,9334.1015,0.0,0.0,-0.04227999687230233,0.0,0.0,0.0,-0.8233305745214012,-0.7779014758903983,-1.2361016925437387,0.007350767137264233,-0.03168913951197457,-0.08477039307743642
4229,2.0,300.19979,9134.4639,0.0,0.0,-0.04229000129267646,0.0,0.0,0.0,-0.7749252665041692,-0.7784799302399873,-1.223243751424759,0.015214923984846087,-0.018391977779396884,-0.08773531485755141
4230,2.0,300.21136,9135.994,0.0,0.0,-0.04230000571305059,0.0,0.0,0.0,-0.7776107541717062,-0.7705210837520103,-1.2289821920410988,-0.008580894301918331,-0.01165321410783269,-0.08165508471747941
4231,2.0,300.46692,9336.9936,0.0,0.0,-0.042310010133424725,0.0,0.0,0.0,-0.7875149395266733,-0.7944904774551053,-1.2562075129530288,-0.0033080887160329368,-0.002735941544341407,-0.08103229459651483
4232,2.0,300.15842000000004,9297.489,0.0,0.0,-0.04232001455379886,0.0,0.0,0.0,-0.7765144986235142,-0.7836718642823912,-1.2660181043962588,-0.018693587883663484,0.0017691807774795484,-0.08657174809196633
4233,2.0,299.95524,9229.5546,0.0,0.0,-0.042329986064895575,0.0,0.0,0.0,-0.7886630836124863,-0.7851595991392192,-1.231731443537429,-0.012967548435297387,0.02611073465617887,-0.09881563431909382
4234,2.0,299.13208,9070.6556,0.0,0.0,-0.042339990485269596,0.0,0.0,0.0,-0.7897413033088982,-0.7642726844928412,-1.2032388507254288,-0.01014004768674479,0.03615000955422817,-0.0988713580083433
4235,2.0,299.32381000000004,8942.4001,0.0,0.0,-0.04234999490564373,0.0,0.0,0.0,-0.7646369681687932,-0.7697263106385722,-1.1839029990671288,-0.012684527417365388,0.016494366031867186,-0.11951933409563988
4236,2.0,299.84672,9161.6621,0.0,0.0,-0.04235999932601808,0.0,0.0,0.0,-0.7818429681168932,-0.7715158319051842,-1.2315577724702886,0.00039866349502502363,-0.0018056933461580583,-0.1068337164211669
4237,2.0,300.26228,9236.7202,0.0,0.0,-0.042370003746392215,0.0,0.0,0.0,-0.7778162311594853,-0.7763135609961833,-1.2536025482709388,-0.0007681769296456602,-0.006539777766575813,-0.09665567793517273
4238,2.0,299.62961,8972.405999999999,0.0,0.0,-0.04238000816676635,0.0,0.0,0.0,-0.7250733109216644,-0.7642028006334443,-1.2381112714670688,0.021316315853256582,-0.012620896324335487,-0.1026951571827229
4239,2.0,299.78394,8950.085,0.0,0.0,-0.04239001258714048,0.0,0.0,0.0,-0.7628759698924963,-0.7466952067930794,-1.2110311492944688,0.006361560955512184,-0.020230220163817283,-0.09881522800580371
4240,2.0,300.654,9396.8268,0.0,0.0,-0.0423999840982372,0.0,0.0,0.0,-0.8037237595213592,-0.7927290333487643,-1.2599479256971788,0.020217768333338382,-0.019059906165816282,-0.08961462730827512
4241,2.0,301.11838,9446.9508,0.0,0.0,-0.04240998851861122,0.0,0.0,0.0,-0.8244724567215962,-0.7989478862350172,-1.2482168200144088,-0.0009926313318600849,-0.008149570351649971,-0.10026534493941909
4242,2.0,300.42912,9172.3397,0.0,0.0,-0.04241999293898535,0.0,0.0,0.0,-0.7642435332874643,-0.7795026035659173,-1.2444161188893088,0.01051499581999929,0.006985758379540673,-0.07627256339751594
4243,2.0,299.82846,9080.5185,0.0,0.0,-0.042429997359359484,0.0,0.0,0.0,-0.7714065326168973,-0.7654906617755463,-1.223353689060609,-0.013092635173392486,0.011245813600375389,-0.08310984031005263
4244,2.0,299.87861000000004,9202.7796,0.0,0.0,-0.042440001779733616,0.0,0.0,0.0,-0.7663473242050922,-0.7691674626784183,-1.261900458639879,-0.003995589649333996,0.008659736609424462,-0.07677606459745763
4245,2.0,299.60194,9225.5756,0.0,0.0,-0.04245000620010797,0.0,0.0,0.0,-0.8157085019691612,-0.7700368008667152,-1.2185993169413887,-0.017322780061875286,0.02112869942499028,-0.10869584718994489
4246,2.0,299.77301,9302.3701,0.0,0.0,-0.042460010620482214,0.0,0.0,0.0,-0.8058048637692482,-0.7730053703471903,-1.248877965704659,-0.014019737736640385,0.013479564989079488,-0.092345082002
4247,2.0,299.55481000000003,9149.354,0.0,0.0,-0.042470015040856124,0.0,0.0,0.0,-0.7930506085330012,-0.7759275532380873,-1.212196994859529,-0.022434409980853876,0.012483276695753488,-0.12030955771612889
4248,2.0,299.23131,9046.5607,0.0,0.0,-0.04247998655195284,0.0,0.0,0.0,-0.7604933730773523,-0.7541979792785453,-1.2352371875584187,-0.018341058922121584,-0.01123784134858859,-0.08303027687245032
4249,2.0,299.52423,9430.2021,0.0,0.0,-0.042489990972326974,0.0,0.0,0.0,-0.7871239567105862,-0.8060665761375773,-1.2733554536703988,0.013481634045783687,0.002222158692984988,-0.09829857279306381
4250,2.0,299.91332,9523.3765,0.0,0.0,-0.042499995392701106,0.0,0.0,0.0,-0.7889981147580513,-0.8041780806011972,-1.3016925125920487,0.026597776621496174,-0.009475957187729162,-0.07111152132416072
4251,2.0,300.22466000000003,9209.5926,0.0,0.0,-0.04250999981307524,0.0,0.0,0.0,-0.7909034707760952,-0.7788808530395552,-1.2297019035871288,0.030078746677541172,-0.005229472830783784,-0.10487458722031591
4252,2.0,300.09317000000004,9146.7056,0.0,0.0,-0.04252000423344948,0.0,0.0,0.0,-0.7742792993004173,-0.7857820488081503,-1.2203087711850988,-0.0026367498311019475,-0.029356146355476075,-0.09324290974335872
4253,2.0,300.09141,9162.2527,0.0,0.0,-0.042530008653823614,0.0,0.0,0.0,-0.7973021958201003,-0.7740345791362653,-1.2137593251887189,0.003122575693649227,-0.0004990133429962825,-0.11646613796681289
4254,2.0,299.97979,9232.1282,0.0,0.0,-0.04254001307419775,0.0,0.0,0.0,-0.7799688202019293,-0.7865223293312102,-1.2398452463631988,-0.014666360513207086,0.009091819686667741,-0.09054859666745073
4255,2.0,299.91812000000004,9191.2745,0.0,0.0,-0.042549984585294465,0.0,0.0,0.0,-0.7585800529135223,-0.7846773731516272,-1.250660475280579,-0.015211005746709385,0.01915803133200048,-0.1021472421911479
4256,2.0,300.04152999999997,9102.3208,0.0,0.0,-0.0425599890056686,0.0,0.0,0.0,-0.7589826982382603,-0.7726612199507253,-1.2352343504581387,-0.015846515196179287,0.009250611682714292,-0.07776274322683523
4257,2.0,300.12176,9015.5019,0.0,0.0,-0.04256999342604262,0.0,0.0,0.0,-0.7834989531528262,-0.7436315336582183,-1.213356963574009,0.001166315206481349,0.018539487742204982,-0.1020796280119749
4258,2.0,299.83077000000003,9313.8973,0.0,0.0,-0.04257999784641686,0.0,0.0,0.0,-0.7993389703761142,-0.7842701378039362,-1.2475831334018688,0.007322114045636394,0.003650995044025156,-0.1018751136117909
4259,2.0,299.53829,9547.5011,0.0,0.0,-0.042590002266791105,0.0,0.0,0.0,-0.8353839545309771,-0.8050947578341662,-1.2617232411973887,0.0009723193049229442,0.004687216435717245,-0.0985400941266501
4260,2.0,299.66901,9404.2576,0.0,0.0,-0.04260000668716524,0.0,0.0,0.0,-0.7995125097207413,-0.7882792948721091,-1.270867722024879,-0.000916518314823315,-0.014608183745465486,-0.07562949712880022
4261,2.0,299.72596,9150.8129,0.0,0.0,-0.04261001110753937,0.0,0.0,0.0,-0.7597523427492183,-0.7826565775496903,-1.2392097359004788,0.005817101552078224,0.005590049227269905,-0.08089695782040812
4262,2.0,299.66652,9231.2592,0.0,0.0,-0.0426200155279135,0.0,0.0,0.0,-0.7805943400186632,-0.7729402588957642,-1.2525377237408488,-0.0013008773528865988,-0.012297026128621989,-0.07535496410695593
4263,2.0,299.8567,9345.6609,0.0,0.0,-0.04262998703901022,0.0,0.0,0.0,-0.8031059404053852,-0.7896435348067493,-1.2480980671026887,0.011149074560327989,-0.007279184462749572,-0.08740757201995573
4264,2.0,299.79032,9124.8952,0.0,0.0,-0.04263999145938435,0.0,0.0,0.0,-0.7774028960461923,-0.7699714563677663,-1.226365980282899,-0.012270950137298488,-0.021104493893351377,-0.10838352297912089
4265,2.0,300.04398,9053.1583,0.0,0.0,-0.04264999587975837,0.0,0.0,0.0,-0.7764055539727623,-0.7656318176469773,-1.2098967144825088,0.004440972444739856,0.021942062638012978,-0.11776042311454889
4266,2.0,300.39392000000004,9124.902,0.0,0.0,-0.042660000300132506,0.0,0.0,0.0,-0.7652716781639343,-0.7733778714814533,-1.2350927994191687,-0.0003415968643579857,0.001980129721098588,-0.1150815013076599
4267,2.0,300.48787000000004,9254.4946,0.0,0.0,-0.04267000472050686,0.0,0.0,0.0,-0.7633630898780713,-0.8003677536001472,-1.2494044504566189,0.0032658877612930268,0.017943924664677483,-0.11283836823627988
4268,2.0,300.42078,9415.8784,0.0,0.0,-0.04268000914088099,0.0,0.0,0.0,-0.7876163354641802,-0.7958404609608382,-1.2787351024263287,-0.009035194508804271,-0.0024487670115994876,-0.09023799599504681
4269,2.0,300.74644,9407.763,0.0,0.0,-0.042690013561255125,0.0,0.0,0.0,-0.8044855310790402,-0.8032011555172822,-1.2520383940915687,0.0012883297702732488,0.004223654920267285,-0.09112186925602832
4270,2.0,300.42346000000003,9178.9735,0.0,0.0,-0.04269998507235162,0.0,0.0,0.0,-0.7710764866618243,-0.7735030078688032,-1.245599291031079,-0.008464029683084691,-0.012824468401926487,-0.08008402929167832
4271,2.0,300.43073,9296.0717,0.0,0.0,-0.042709989492725975,0.0,0.0,0.0,-0.7989514731403712,-0.7960459886111222,-1.230776252668159,-0.013359116909942188,-0.010633135715408791,-0.08876023151920283
4272,2.0,300.23983,9383.4993,0.0,0.0,-0.042719993913099996,0.0,0.0,0.0,-0.7890327679114713,-0.7905119306724532,-1.2728047522410488,0.017531200541194784,-0.006801526611908414,-0.08818840078551751
4273,2.0,299.91657000000004,9220.9332,0.0,0.0,-0.04272999833347413,0.0,0.0,0.0,-0.7878348833782493,-0.7605012156331263,-1.254597357219119,0.0015823371550645184,0.017195951546858285,-0.09161423078437061
4274,2.0,299.87697000000003,9193.4707,0.0,0.0,-0.04274000275384826,0.0,0.0,0.0,-0.7733252230062573,-0.7815898582419132,-1.2396704607209488,0.03289505810523947,-0.0048473413622703455,-0.1039013706317669
4275,2.0,300.35627999999997,9225.8299,0.0,0.0,-0.04275000717422239,0.0,0.0,0.0,-0.8096220504734752,-0.7654877030852543,-1.2293122075986689,-0.008454432887412561,-0.012574790405035187,-0.09589194067229771
4276,2.0,299.92736,9274.0117,0.0,0.0,-0.04276001159459675,0.0,0.0,0.0,-0.7871902536646294,-0.7948275249683692,-1.2370501959623488,0.006798073151592583,-0.01099402095052539,-0.11585341549884189
4277,2.0,300.34727000000004,9488.9534,0.0,0.0,-0.04277001601497099,0.0,0.0,0.0,-0.8257911206667382,-0.8142030656330862,-1.244410748663779,-0.018190324797495282,0.003110621672944457,-0.1018533895296469
4278,2.0,300.55206,9456.8323,0.0,0.0,-0.04277998752606749,0.0,0.0,0.0,-0.7981735098460923,-0.7905104614598082,-1.2859569411890688,-0.003844769094474166,-0.007317066540263243,-0.1004871291743075
4279,2.0,300.36614,9248.4571,0.0,0.0,-0.04278999194644162,0.0,0.0,0.0,-0.7895039190754702,-0.7838937559217903,-1.2379023392964488,-0.014923699694104486,-0.007943096123122552,-0.08184344385806902
4280,2.0,299.90655,9219.0979,0.0,0.0,-0.04279999636681575,0.0,0.0,0.0,-0.7651295597049083,-0.7776945398224753,-1.2595514409330488,0.004278719186351706,-0.006768475001596474,-0.08285613464401383
4281,2.0,299.48751,9401.1399,0.0,0.0,-0.042810000787189884,0.0,0.0,0.0,-0.8007586046937212,-0.7950171851220873,-1.2619359223933788,0.009143409315509242,0.013329683007787288,-0.08881409589451883
4282,2.0,299.77058999999997,9498.1782,0.0,0.0,-0.042820005207564016,0.0,0.0,0.0,-0.7999163810781003,-0.8112438484510343,-1.276048773761209,0.007672977629313933,-0.004713036885365526,-0.08508702968068602
4283,2.0,299.88992,9299.6693,0.0,0.0,-0.04283000962793826,0.0,0.0,0.0,-0.7879307064402062,-0.7896693220217943,-1.249267256393079,0.008038355108748884,-5.8890104931250836e-05,-0.1057109947803629
4284,2.0,299.24915,9132.4851,0.0,0.0,-0.04284001404831239,0.0,0.0,0.0,-0.7384040345373043,-0.7929184807199612,-1.2447249575197887,-0.0026451904070849673,0.0007425684316532983,-0.1106280948656429
4285,2.0,300.08234,9268.6613,0.0,0.0,-0.04284998555940911,0.0,0.0,0.0,-0.7872968982376543,-0.7903579977172612,-1.239786680507419,-0.003819184529449166,0.01036384423633179,-0.11117861390997488
4286,2.0,300.31563,9355.6502,0.0,0.0,-0.04285998997978324,0.0,0.0,0.0,-0.7960178911858492,-0.7881906861508643,-1.2596754627452886,-0.012493315977744288,-0.013247692836195488,-0.0985843812620209
4287,2.0,300.33512,9313.6643,0.0,0.0,-0.042869994400157374,0.0,0.0,0.0,-0.8130533712746202,-0.7892204319624923,-1.2288475311028089,-0.00966304064644286,0.0022492435774330577,-0.1049327072460519
4288,2.0,300.47224,9283.6989,0.0,0.0,-0.042879998820531395,0.0,0.0,0.0,-0.7959771686643302,-0.7729378372280252,-1.253097645746109,0.002966769036372307,0.00911018281823004,-0.08598582406264012
4289,2.0,299.87447000000003,9216.1266,0.0,0.0,-0.04289000324090564,0.0,0.0,0.0,-0.7909069158264352,-0.7680711969977253,-1.2424942874246387,0.00971686722753013,0.003783826255284576,-0.09453248631788
4290,2.0,300.26448,9408.7276,0.0,0.0,-0.04290000766127988,0.0,0.0,0.0,-0.7861402124534983,-0.7922098743950272,-1.2816681574907989,-0.007633109581604263,-0.02069843391577638,-0.08551451483162552
4291,2.0,300.93202,9481.2316,0.0,0.0,-0.042910012081654014,0.0,0.0,0.0,-0.8337240380846562,-0.7663826765010813,-1.281950955593709,0.0077358749266214135,-0.022536512153680577,-0.06381705583400303
4292,2.0,300.58963,9305.8254,0.0,0.0,-0.04291998359275051,0.0,0.0,0.0,-0.7771263091663954,-0.7878138381736722,-1.2637983774021888,0.01182757317179059,-0.0036554553709653563,-0.09012266178916423
4293,2.0,300.88046,9310.7481,0.0,0.0,-0.042929988013124865,0.0,0.0,0.0,-0.7960449854935232,-0.7901716002288652,-1.2440183169000487,0.004017265399448226,0.016874597251143084,-0.07936787830649973
4294,2.0,300.66233,9479.0872,0.0,0.0,-0.042939992433499,0.0,0.0,0.0,-0.8033597899529382,-0.8092146428732672,-1.268831393298909,-0.01045309029188969,0.007261768720030774,-0.1018695812662449
4295,2.0,299.82023,9463.9696,0.0,0.0,-0.04294999685387313,0.0,0.0,0.0,-0.8113094665275102,-0.8050389581511592,-1.2604620487979188,-0.00028995140543597574,0.009768280550854231,-0.09145305613071392
4296,2.0,300.16182000000003,9245.3693,0.0,0.0,-0.04296000127424715,0.0,0.0,0.0,-0.7607845710235913,-0.7946663675399642,-1.254910451500019,-0.0011562978106927089,0.02046285326752638,-0.13177353014253487
4297,2.0,299.81543999999997,9172.2666,0.0,0.0,-0.04297000569462128,0.0,0.0,0.0,-0.7855147838292732,-0.7777770386456173,-1.2248481316330988,0.013142215527285686,0.01886314718189768,-0.093972929082656
4298,2.0,299.65555,9232.6399,0.0,0.0,-0.04298001011499564,0.0,0.0,0.0,-0.7746804146175043,-0.7801795356927252,-1.2516320808014687,-0.014862489255563487,-0.012534487369057589,-0.11702278717424988
4299,2.0,300.1531,9285.8726,0.0,0.0,-0.04299001453536977,0.0,0.0,0.0,-0.8087006616275413,-0.7717244702332752,-1.2422482703003588,0.004312286540964546,-0.015156063273286986,-0.08487643577990202
4300,2.0,300.05439,9313.639000000001,0.0,0.0,-0.042999986046466265,0.0,0.0,0.0,-0.7901123352305163,-0.7911110654565833,-1.2498903038795688,-0.017568797186155286,-0.003322936275048277,-0.1039785194943809
4301,2.0,300.3876,9440.9003,0.0,0.0,-0.0430099904668404,0.0,0.0,0.0,-0.7902911130781602,-0.7937513013746542,-1.2857555070691888,0.009094503279557591,-0.004883033806317915,-0.07201846628991923
4302,2.0,300.8947,9408.0257,0.0,0.0,-0.04301999488721475,0.0,0.0,0.0,-0.7742822782557113,-0.8109446154315022,-1.274578041241059,-0.016160505190167686,-0.010763731494297591,-0.10349957643711291
4303,2.0,300.62354,9576.1283,0.0,0.0,-0.04302999930758877,0.0,0.0,0.0,-0.8164522174100601,-0.8176802663987592,-1.276771423732529,0.004967925014271025,-0.014006390193073088,-0.07276660760725502
4304,2.0,300.31552999999997,9552.9963,0.0,0.0,-0.043040003727962906,0.0,0.0,0.0,-0.8119321999064693,-0.8136239628034332,-1.2783162248349889,0.02126426215586928,0.016159818206599882,-0.10472780781082991
4305,2.0,299.78639,9337.2546,0.0,0.0,-0.04305000814833704,0.0,0.0,0.0,-0.8047031062730132,-0.7925235766259873,-1.2410656047836388,0.012557547928083489,0.024103782077108078,-0.08031527221625022
4306,2.0,299.4495,9142.9914,0.0,0.0,-0.04306001256871117,0.0,0.0,0.0,-0.7706319029154473,-0.7744634777710943,-1.2341457145506989,-0.003979052090476866,-0.0005764038252291284,-0.10563872978323091
4307,2.0,299.76456,9266.6985,0.0,0.0,-0.04306998407980789,0.0,0.0,0.0,-0.7911907271794453,-0.7718139908796103,-1.253840256744399,-0.014704001741171986,-0.0088089097209467,-0.08040426191953283
4308,2.0,299.98837000000003,9302.8968,0.0,0.0,-0.04307998850018202,0.0,0.0,0.0,-0.7893895738016853,-0.7833793592435232,-1.2550793602916888,-0.002010988860844148,0.019255488766368782,-0.10785583245954189
4309,2.0,299.8453,9246.5229,0.0,0.0,-0.043089992920556264,0.0,0.0,0.0,-0.7986728800253762,-0.7705924874865573,-1.241446688146249,0.005470770945373056,-0.005190317705844475,-0.07455206574096603
4310,2.0,299.81068999999997,9391.5745,0.0,0.0,-0.043099997340930396,0.0,0.0,0.0,-0.7954907174238213,-0.8051351865131563,-1.254178276977759,-0.0002789729723249887,-0.008289124072022853,-0.11294232769653989
4311,2.0,299.9546,9525.3402,0.0,0.0,-0.04311000176130453,0.0,0.0,0.0,-0.8308719923656812,-0.7967401966521352,-1.2678534043023888,-0.012565364139354888,-0.009454281133639901,-0.08404876446221722
4312,2.0,300.39634,9454.4145,0.0,0.0,-0.04312000618167866,0.0,0.0,0.0,-0.7743263445025602,-0.8290401983048973,-1.2705394289924787,0.005919935392802135,0.014890950437622385,-0.13059227304345386
4313,2.0,300.49057,9353.7949,0.0,0.0,-0.04313001060205279,0.0,0.0,0.0,-0.7728802643573432,-0.8073000764118142,-1.2631397648371887,-0.00017451493222078284,0.015286583058418285,-0.1017604035679699
4314,2.0,300.53911,9292.4239,0.0,0.0,-0.043140015022427036,0.0,0.0,0.0,-0.7686668056715074,-0.7987627249117433,-1.2572353538544687,0.008222566408729122,-0.005541005186654635,-0.11483640624097088
4315,2.0,299.69489,9206.5406,0.0,0.0,-0.04314998653352364,0.0,0.0,0.0,-0.7823463710315752,-0.7906887630799052,-1.2255232601747288,-0.002137155318245808,-0.01881876885401788,-0.09748155478693041
4316,2.0,298.45679,9168.4034,0.0,0.0,-0.04315999095389789,0.0,0.0,0.0,-0.7780001867151403,-0.7721604312213012,-1.236805090763159,0.005555513408211484,0.013713236674141087,-0.10493831051910489
4317,2.0,299.21796,9353.3371,0.0,0.0,-0.04316999537427202,0.0,0.0,0.0,-0.8199597447512262,-0.7783310534027942,-1.2448901172860887,0.010825418160385592,-0.00993318913245444,-0.08239935237968292
4318,2.0,299.57597999999996,9363.6178,0.0,0.0,-0.04317999979464615,0.0,0.0,0.0,-0.7758008868430862,-0.8033523932272083,-1.2671527418582387,0.003409592159375547,0.0011467671802521087,-0.09763459000253381
4319,2.0,299.09087999999997,9383.4013,0.0,0.0,-0.04319000421502017,0.0,0.0,0.0,-0.7969271108980822,-0.7772118578723383,-1.2781807532966187,-0.005073547521920155,-0.007627638132389273,-0.08247970615236322
4320,2.0,299.48798999999997,9592.9196,0.0,0.0,-0.043200008635394416,0.0,0.0,0.0,-0.8167143148134273,-0.8169530568019893,-1.2823406515821687,-0.009093063856465532,0.023654429975760477,-0.08599232304878152
4321,2.0,299.43112,9560.3147,0.0,0.0,-0.04321001305576866,0.0,0.0,0.0,-0.8300684647713793,-0.7947638725970873,-1.2812645799759688,-0.017886814849291183,0.008239955401645281,-0.08331076577838242
4322,2.0,299.5234,9394.6715,0.0,0.0,-0.043219984566865155,0.0,0.0,0.0,-0.8026862724789673,-0.7902387179154893,-1.2628205910556887,-0.014015309833703386,0.002275297986529428,-0.0954344471063966
4323,2.0,300.32117999999997,9391.3647,0.0,0.0,-0.04322998898723929,0.0,0.0,0.0,-0.8127641187685732,-0.7962635334075923,-1.2457126737172688,-0.0034666760355592866,-0.01967571398034178,-0.08926727402824401
4324,2.0,300.01724,9350.5109,0.0,0.0,-0.04323999340761364,0.0,0.0,0.0,-0.7567179930722513,-0.7946965015979383,-1.2909073772026387,0.009414156024379861,-0.0031081905819795273,-0.1060758458763709
4325,2.0,299.85536,9265.4817,0.0,0.0,-0.043249997827987774,0.0,0.0,0.0,-0.7903609868050562,-0.7835175969546663,-1.2425965243597288,0.016363467291198485,-0.015381616798547383,-0.0914220577704046
4326,2.0,300.3352,9426.6656,0.0,0.0,-0.043260002248361795,0.0,0.0,0.0,-0.7911974956901133,-0.8101697324175272,-1.2641037709823288,0.007780629068963303,-0.01926022469733618,-0.1030842553536239
4327,2.0,300.192,9450.2976,0.0,0.0,-0.04327000666873593,0.0,0.0,0.0,-0.8231257156161832,-0.7876865739611122,-1.261842196759129,0.017020090846252185,-0.016153869415262784,-0.07874308397683732
4328,2.0,300.75491,9410.26,0.0,0.0,-0.04328001108911006,0.0,0.0,0.0,-0.8073061255149113,-0.8074493788140492,-1.2457285817438386,0.014286181982936387,0.014089371323262686,-0.1041670042779829
4329,2.0,299.77828,9466.9709,0.0,0.0,-0.043290015509484414,0.0,0.0,0.0,-0.8092404706183162,-0.7973042324528012,-1.2711780805305088,-0.006926721970414234,0.013405575440277286,-0.08107025094526082
4330,2.0,299.73912,9514.627,0.0,0.0,-0.04329998702058091,0.0,0.0,0.0,-0.7699444836501043,-0.8131599043901342,-1.3091046397235688,-0.03425016359022797,0.005917830264394374,-0.11672645205000388
4331,2.0,300.08344,9397.5103,0.0,0.0,-0.04330999144095504,0.0,0.0,0.0,-0.7860148328861243,-0.7986937428449352,-1.2718999199017487,-0.029262840206767476,0.0037699837390434265,-0.09876932372327331
4332,2.0,299.96595,9243.4217,0.0,0.0,-0.043319995861329175,0.0,0.0,0.0,-0.7698401188898042,-0.7776543847210123,-1.262274854551829,-0.008770085827465081,0.01004972809270594,-0.11329589118643388
4333,2.0,299.57743,9349.548,0.0,0.0,-0.04333000028170353,0.0,0.0,0.0,-0.8159689883048692,-0.7851435391251342,-1.2409165556939288,0.008383857180847283,-0.008399569650147983,-0.0906763766243116
4334,2.0,300.35376,9336.211,0.0,0.0,-0.04334000470207755,0.0,0.0,0.0,-0.8186039553224203,-0.7717256456033913,-1.2476454482830188,-0.001189346077279319,-0.01807658747377028,-0.09683607900947691
4335,2.0,299.56307999999996,9311.3914,0.0,0.0,-0.04335000912245168,0.0,0.0,0.0,-0.7884158505880862,-0.7841833428003702,-1.257831246238279,0.021294425598096182,-0.011523558625036689,-0.08628473993489083
4336,2.0,299.91935,9444.6212,0.0,0.0,-0.043360013542825815,0.0,0.0,0.0,-0.7835476499526323,-0.8091399764733982,-1.2782413456525987,0.014402054224622087,0.017098506271491183,-0.10528372747819491
4337,2.0,299.74487999999997,9581.6317,0.0,0.0,-0.04336998505392253,0.0,0.0,0.0,-0.8225934756036553,-0.7967069012538492,-1.2932764572614488,0.013982863539001186,-0.008061746291282413,-0.07468591709242613
4338,2.0,299.72191000000004,9564.5364,0.0,0.0,-0.043379989474296665,0.0,0.0,0.0,-0.8251689243103322,-0.8062966751027862,-1.2759146194479687,-0.02050586370777118,-0.01064036930787269,-0.0980528870015665
4339,2.0,300.13941,9594.6253,0.0,0.0,-0.0433899938946708,0.0,0.0,0.0,-0.8469546221929132,-0.7991569906581542,-1.2704149005551886,-0.015455961998134685,-0.003948379287424696,-0.07370619138523472
4340,2.0,300.78893999999997,9478.356,0.0,0.0,-0.04339999831504504,0.0,0.0,0.0,-0.8227322604698523,-0.7871996971555613,-1.271251541162759,0.0028883855285114575,0.017547546291807985,-0.08117992209633453
4341,2.0,300.51833,9437.4798,0.0,0.0,-0.04341000273541917,0.0,0.0,0.0,-0.7909956056076882,-0.7960970766811643,-1.2816655230405387,0.004337403693718415,0.004510683139694766,-0.08406342517791413
4342,2.0,299.47317999999996,9559.518,0.0,0.0,-0.043420007155793305,0.0,0.0,0.0,-0.7885427702956123,-0.8074173398458873,-1.3098946708265387,-0.0008538934196727192,0.00996559580907773,-0.1037474174115729
4343,2.0,299.50605,9507.883,0.0,0.0,-0.04343001157616744,0.0,0.0,0.0,-0.7987526937357532,-0.7992579103681142,-1.2921484059251187,-0.008861737440085391,0.004461697259635236,-0.09798939675030051
4344,2.0,300.17825,9327.4709,0.0,0.0,-0.04344001599654157,0.0,0.0,0.0,-0.7726783742749183,-0.8100195282227033,-1.252620404949009,0.011089385010187091,0.02112971166184018,-0.11542900556195589
4345,2.0,300.10393,9389.811,0.0,0.0,-0.04344998750763818,0.0,0.0,0.0,-0.8185007760647371,-0.7962381008300823,-1.2395292136570089,-0.008418924246933131,-0.001117662584379709,-0.09560674521965111
4346,2.0,300.62566,9511.2747,0.0,0.0,-0.04345999192801242,0.0,0.0,0.0,-0.8214195443027973,-0.8204169333288472,-1.249353585301599,0.01113645757008279,-0.006887755816618573,-0.1046688873175149
4347,2.0,300.27373,9445.1362,0.0,0.0,-0.043469996348386664,0.0,0.0,0.0,-0.8002109227496692,-0.8053502184493783,-1.2655244489475388,-0.0037668417518083364,0.0016446040081597784,-0.10264411977518591
4348,2.0,300.3538,9424.627,0.0,0.0,-0.043480000768760796,0.0,0.0,0.0,-0.7627225840923583,-0.8184150956362812,-1.2837136054676688,0.018750629811293083,0.00866448358481795,-0.1090580739681939
4349,2.0,300.26296,9539.1712,0.0,0.0,-0.04349000518913493,0.0,0.0,0.0,-0.8072556352624283,-0.8161085837711463,-1.276305632661559,-0.0014563153897771389,-0.016988712517155384,-0.0932216558092611
4350,2.0,300.22787,9523.0261,0.0,0.0,-0.04350000960950895,0.0,0.0,0.0,-0.8082260856782042,-0.7905377077549972,-1.2959983510050788,0.02111186934082928,-0.0059916320579530445,-0.09443781025503621
4351,2.0,299.62667999999996,9415.0403,0.0,0.0,-0.04351001402988319,0.0,0.0,0.0,-0.8257746756176152,-0.7948458546626782,-1.2413165868334088,0.004819472019594855,0.0024680621306037674,-0.0944960447780335
4352,2.0,299.47247000000004,9353.4995,0.0,0.0,-0.0435199855409798,0.0,0.0,0.0,-0.7951461211973123,-0.7809819588444182,-1.2671021806782488,0.005684094541926454,0.020612365412532082,-0.08954068639547773
4353,2.0,299.43627000000004,9415.7335,0.0,0.0,-0.04352998996135393,0.0,0.0,0.0,-0.7972456665970212,-0.7840139375161512,-1.2808882588888288,-0.028151261277313173,-0.005432712866317015,-0.09461558295858101
4354,2.0,300.03715,9484.0043,0.0,0.0,-0.043539994381728064,0.0,0.0,0.0,-0.7863190713611502,-0.8058257569863102,-1.2907556936626687,-0.014512136755236386,0.0008830517583304231,-0.08977264264812
4355,2.0,299.82777999999996,9543.6359,0.0,0.0,-0.04354999880210242,0.0,0.0,0.0,-0.8175690318027812,-0.7971768973127342,-1.2862810798960589,-0.019328546125078984,-0.005714382107290604,-0.0997111832609776
4356,2.0,300.18436,9527.8063,0.0,0.0,-0.04356000322247655,0.0,0.0,0.0,-0.8115958211382712,-0.8085970264073132,-1.276022327933599,0.005685385321228845,0.0026539039526449273,-0.08215296035286593
4357,2.0,300.69725,9437.5462,0.0,0.0,-0.04357000764285057,0.0,0.0,0.0,-0.8351888836217252,-0.7946942116527123,-1.2388953243944487,-0.00895814129699971,-0.012039396144945888,-0.08622611531060502
4358,2.0,300.46969,9519.2866,0.0,0.0,-0.043580012063224705,0.0,0.0,0.0,-0.8132927212132423,-0.8066958449796813,-1.2736368332231687,0.016567741551108784,-0.008115699528632182,-0.08272639100845912
4359,2.0,300.57232,9607.1424,0.0,0.0,-0.04358998357432142,0.0,0.0,0.0,-0.8147362378357063,-0.8121151422120243,-1.2934800192065385,0.03022603372532727,0.008026793519807842,-0.1045813830388789
4360,2.0,300.49012999999997,9496.9797,0.0,0.0,-0.043599987994695555,0.0,0.0,0.0,-0.7827666165105502,-0.8035214236088902,-1.300556659229949,0.024369558591588177,0.007763514768149253,-0.1041102318748799
4361,2.0,299.72275,9470.425,0.0,0.0,-0.04360999241506969,0.0,0.0,0.0,-0.7859092116957003,-0.8075443710109242,-1.2853191002511186,-0.0033071362609389367,-0.0053487823207837145,-0.11957190151082787
4362,2.0,299.94662999999997,9521.648000000001,0.0,0.0,-0.04361999683544382,0.0,0.0,0.0,-0.8008100068712942,-0.8145086213332422,-1.2790245879798987,-0.016754964838336283,-0.015951277150518486,-0.09970058263843141
4363,2.0,300.14099999999996,9381.9641,0.0,0.0,-0.04363000125581795,0.0,0.0,0.0,-0.8080734192856373,-0.7972340142208713,-1.246575354852409,-0.009110619427698132,0.003969220626081576,-0.10837950037622389
4364,2.0,299.64276,9331.4724,0.0,0.0,-0.043640005676192306,0.0,0.0,0.0,-0.7729851458751943,-0.8107032693901832,-1.2528461570712888,-0.010686199623145789,0.0017501199218983886,-0.1029570924660739
4365,2.0,299.71133,9475.0605,0.0,0.0,-0.04365001009656633,0.0,0.0,0.0,-0.7949138032143843,-0.8029904501589872,-1.2822775261009387,-0.023298392129122276,0.006733143375909514,-0.09846274869351672
4366,2.0,300.04297,9531.6016,0.0,0.0,-0.04366001451694046,0.0,0.0,0.0,-0.7993369540084152,-0.8149636618206513,-1.283068266478979,-0.007677054643741303,-0.014474091240481587,-0.09973340079592032
4367,2.0,300.1706,9539.3264,0.0,0.0,-0.04366998602803718,0.0,0.0,0.0,-0.8142488240076022,-0.8234609291467662,-1.2620072552004187,0.006664675128227223,0.014685815928377184,-0.1173719531587099
4368,2.0,300.05061,9601.9199,0.0,0.0,-0.04367999044841131,0.0,0.0,0.0,-0.8405909252048652,-0.8009626529988592,-1.2771903013238686,0.028302390569478475,0.01025173824526779,-0.08185686131589322
4369,2.0,299.93249,9581.4137,0.0,0.0,-0.04368999486878544,0.0,0.0,0.0,-0.8510003069271912,-0.7978158224282913,-1.263694417941929,0.018122744055575582,-0.0073205241549044835,-0.09340264558187342
4370,2.0,300.42449,9602.2399,0.0,0.0,-0.043699999289159575,0.0,0.0,0.0,-0.8129775396371363,-0.8101104370216752,-1.2957531444808787,0.007397154030817263,-0.02206558289145348,-0.08211966900758032
4371,2.0,300.43997,9613.8431,0.0,0.0,-0.04371000370953382,0.0,0.0,0.0,-0.8118354345219191,-0.8072884949631712,-1.3032443051201987,-0.0005037004657063654,-0.008274538438158362,-0.0997184675159465
4372,2.0,299.97033999999996,9551.3473,0.0,0.0,-0.04372000812990795,0.0,0.0,0.0,-0.8134602722497782,-0.7924065057094333,-1.297504344628709,0.0035758743028113165,-0.004300796082180526,-0.09767745960101472
4373,2.0,300.00527,9409.8788,0.0,0.0,-0.04373001255028208,0.0,0.0,0.0,-0.7955089255281182,-0.7893849939112333,-1.2754742609545089,-0.008008860208937962,0.0028581513614275773,-0.1044269941211419
4374,2.0,300.22047000000003,9418.9928,0.0,0.0,-0.0437399840613788,0.0,0.0,0.0,-0.8216375855918162,-0.7957918350885392,-1.245709228666929,-0.02076649595149358,-0.004734380796072006,-0.09619356496206571
4375,2.0,300.4082,9592.2868,0.0,0.0,-0.04374998848175271,0.0,0.0,0.0,-0.8188885063480033,-0.8297611257510472,-1.2671660154345488,-0.005846701019299464,0.009052808645892653,-0.10668463693395391
4376,2.0,300.29936000000004,9667.1094,0.0,0.0,-0.043759992902126954,0.0,0.0,0.0,-0.8107161275339523,-0.8327928409777542,-1.2950508608365687,-0.0036089524602758763,0.008715036658807152,-0.08611883239001701
4377,2.0,299.70881,9585.7317,0.0,0.0,-0.0437699973225012,0.0,0.0,0.0,-0.7973142737612922,-0.8291837657115662,-1.2873250314740887,0.008006813342410952,0.004281310269507426,-0.1035032950649799
4378,2.0,299.77341,9616.3973,0.0,0.0,-0.04378000174287544,0.0,0.0,0.0,-0.8017377386628542,-0.8149576532475582,-1.306449316511509,-0.004151558223976896,-0.011883843002843989,-0.08742344964902272
4379,2.0,299.82052000000004,9594.7209,0.0,0.0,-0.04379000616324957,0.0,0.0,0.0,-0.7974800313451512,-0.8380951382210503,-1.2809804646479288,-0.005521096139414765,0.008724172527008791,-0.1164956438097249
4380,2.0,300.00747,9455.5232,0.0,0.0,-0.043800010583623705,0.0,0.0,0.0,-0.8196536013660123,-0.7905118901424493,-1.2640774264797288,0.0098422667559311,0.0007628674180616522,-0.08750520677309151
4381,2.0,299.82187999999996,9536.8119,0.0,0.0,-0.043810015003997727,0.0,0.0,0.0,-0.8240954567568892,-0.7896637998087492,-1.2851934572387187,0.004641048809485855,0.003059585379982567,-0.09665449952530641
4382,2.0,299.9429,9545.5788,0.0,0.0,-0.043819986515094334,0.0,0.0,0.0,-0.8068541146453012,-0.8021656341800842,-1.2925978836694787,0.014261893364789287,-0.004643792488106636,-0.094639414600933
4383,2.0,300.16135,9424.462,0.0,0.0,-0.04382999093546858,0.0,0.0,0.0,-0.7890760438232423,-0.7942817681995072,-1.2814433172936088,-0.004385593260524356,0.0008971010485194802,-0.1164500475552249
4384,2.0,300.21481,9618.4026,0.0,0.0,-0.04383999535584271,0.0,0.0,0.0,-0.8096201759607902,-0.8158909072521633,-1.2982431052766188,0.003967495061161276,0.0009341407301650121,-0.09686261805609611
4385,2.0,299.72283999999996,9748.5353,0.0,0.0,-0.04384999977621684,0.0,0.0,0.0,-0.8436844689526742,-0.8384094078720663,-1.2812174638463187,-0.02125507805696288,-0.004636382995425376,-0.1050450665496409
4386,2.0,300.19282999999996,9617.6929,0.0,0.0,-0.043860004196591196,0.0,0.0,0.0,-0.8423964862205602,-0.8053669674735312,-1.2757749935841887,0.0025759327362497677,-0.004395730929099865,-0.08792441063096372
4387,2.0,300.11966,9521.030999999999,0.0,0.0,-0.04387000861696533,0.0,0.0,0.0,-0.8089540146825452,-0.8130820665174522,-1.2721195925234288,-0.013871475942258087,0.005685851416274844,-0.1008129002272086
4388,2.0,300.37753,9561.3928,0.0,0.0,-0.04388001303733935,0.0,0.0,0.0,-0.8026693208047943,-0.8029803075254862,-1.3007750146264987,0.0034499990534883973,2.9200106853326173e-05,-0.08546586970757461
4389,2.0,300.29427999999996,9577.7425,0.0,0.0,-0.043889984548435956,0.0,0.0,0.0,-0.8107987479471062,-0.8015709880938973,-1.2990248277287688,0.003270750551172947,9.619880650483301e-05,-0.10234035752770691
4390,2.0,300.18519,9601.35,0.0,0.0,-0.0438999889688102,0.0,0.0,0.0,-0.8142553696032482,-0.8122946495997403,-1.2920206350875088,0.019236893600533583,0.003158136111208767,-0.09782524922085041
4391,2.0,299.85342,9538.3585,0.0,0.0,-0.04390999338918433,0.0,0.0,0.0,-0.8274626996217102,-0.7928091409016702,-1.2791509402673686,0.0099473570033027,0.002363844190243258,-0.12241047100347287
4392,2.0,300.01037,9478.8858,0.0,0.0,-0.043919997809558464,0.0,0.0,0.0,-0.8162650295865862,-0.8015063731350202,-1.2635732332299687,0.002368866364363908,-0.005864444649750625,-0.09413821854496882
4393,2.0,300.38707999999997,9594.0755,0.0,0.0,-0.043930002229932597,0.0,0.0,0.0,-0.8082016156882893,-0.8189501018215822,-1.2892076501598888,0.0014932879740010485,-0.002914879890801247,-0.10286984149996291
4394,2.0,300.38761,9736.3573,0.0,0.0,-0.04394000665030673,0.0,0.0,0.0,-0.8193059856542052,-0.8119864493168232,-1.3283170775196886,-0.016181309241220885,-0.0047728470122683254,-0.07369590284371934
4395,2.0,299.9964,9549.5052,0.0,0.0,-0.04395001107068108,0.0,0.0,0.0,-0.7931515586404643,-0.8347463061105462,-1.2749132243741386,0.00014984969914401384,0.005219864889360555,-0.12223035566569689
4396,2.0,299.66416,9432.216999999999,0.0,0.0,-0.043960015491055104,0.0,0.0,0.0,-0.7934779670276783,-0.8051880781683762,-1.2684923598154487,-0.015726983095132385,0.003205820775489877,-0.0904768778121226
4397,2.0,299.8962,9638.436,0.0,0.0,-0.04396998700215182,0.0,0.0,0.0,-0.8339440248138672,-0.8215856970541953,-1.2743141909150189,-0.0047121677194297456,0.013736216173158986,-0.11497559640720789
4398,2.0,299.30654,9752.591,0.0,0.0,-0.04397999142252573,0.0,0.0,0.0,-0.8490169407839481,-0.8282675748386452,-1.2872595755176288,-0.003674272539897466,0.013365104204783087,-0.08251770201786313
4399,2.0,300.36652999999995,9619.7703,0.0,0.0,-0.04398999584290009,0.0,0.0,0.0,-0.8102361509615822,-0.8167729414642132,-1.2971608528448089,0.007625485989176873,0.008034640432557272,-0.0995103996476618
4400,2.0,299.93584,9472.065,0.0,0.0,-0.04400000026327422,0.0,0.0,0.0,-0.7963096160221402,-0.7900229057766902,-1.2929387410031188,-0.00047403652538126253,-0.004465118903897926,-0.08768434128477072
4401,2.0,300.30539,9590.4665,0.0,0.0,-0.04401000468364835,0.0,0.0,0.0,-0.8188373980129592,-0.8002331737218652,-1.2961917804491687,0.007080385806379675,-0.012138821311008388,-0.09655857817808972
4402,2.0,300.37691,9734.317,0.0,0.0,-0.044020009104022595,0.0,0.0,0.0,-0.8437307947472462,-0.8160805572733802,-1.2991779298188788,-0.0033593059754626867,-0.012877632621423387,-0.0945674485125805
4403,2.0,300.18598,9721.7565,0.0,0.0,-0.04403001352439673,0.0,0.0,0.0,-0.8470853213233122,-0.8231465176407362,-1.2849394354386487,0.027681158827167675,-0.005647511349715975,-0.1046378818644549
4404,2.0,299.88731,9642.4634,0.0,0.0,-0.044039985035493445,0.0,0.0,0.0,-0.8192959342132132,-0.8176226833955762,-1.294149473547609,0.005718787617400395,-0.006533598460840963,-0.09364576481086742
4405,2.0,300.48716,9449.3117,0.0,0.0,-0.04404998945586758,0.0,0.0,0.0,-0.7868708468356063,-0.7916372057035093,-1.2938467144177288,0.012599858212509188,0.004269941096760376,-0.08779017221796542
4406,2.0,300.09423,9552.8588,0.0,0.0,-0.04405999387624149,0.0,0.0,0.0,-0.8090418938637183,-0.8054868856228662,-1.2893017810941787,-0.006772906045608784,0.008305230087662391,-0.0963286798364005
4407,2.0,299.9486,9764.4149,0.0,0.0,-0.04406999829661573,0.0,0.0,0.0,-0.8326796305440812,-0.8197269100107473,-1.3157318020026185,0.0015406657248268683,0.015682484190490686,-0.09861184641923151
4408,2.0,299.70946000000004,9608.1923,0.0,0.0,-0.044080002716989974,0.0,0.0,0.0,-0.8276702233746912,-0.8149176096036063,-1.2780627096599688,-0.030713180055404868,-0.01130457602667479,-0.11527935865468689
4409,2.0,299.10252,9425.9246,0.0,0.0,-0.04409000713736422,0.0,0.0,0.0,-0.8040902824800322,-0.8016186108485972,-1.2595368501316089,-0.01114193418687329,-0.013331726733238989,-0.10711634227155989
4410,2.0,299.6016,9548.955,0.0,0.0,-0.04410001155773835,0.0,0.0,0.0,-0.8147159221712013,-0.8010972328771413,-1.2868307680753088,-0.006833638432752604,0.001737743781201958,-0.10736629080622791
4411,2.0,299.43773,9660.3222,0.0,0.0,-0.04411001597811248,0.0,0.0,0.0,-0.8005128003519622,-0.8264751556767472,-1.3095088251884588,0.017397077638707882,0.005784890230074214,-0.1005532447565826
4412,2.0,299.6292,9690.8621,0.0,0.0,-0.0441199874892092,0.0,0.0,0.0,-0.8215471023578862,-0.8113895436829133,-1.312843431267559,0.004272845882147056,-0.003967357765772726,-0.08783267704641032
4413,2.0,300.4549,9757.1025,0.0,0.0,-0.04412999190958311,0.0,0.0,0.0,-0.8082844590164653,-0.8386265777659992,-1.3190044985006089,0.01009455498640501,-0.00961601945832723,-0.1076366259329079
4414,2.0,300.31088,9629.704,0.0,0.0,-0.044139996329957354,0.0,0.0,0.0,-0.8296805115730912,-0.8116763339912172,-1.2858327167268089,0.005468666830215395,0.01091439165166659,-0.11232878449598789
4415,2.0,300.11365,9675.0601,0.0,0.0,-0.044150000750331486,0.0,0.0,0.0,-0.8281081298029093,-0.8263774277046022,-1.2864911266417887,-0.0017454099301335482,-0.0017502814339643282,-0.1127803900655579
4416,2.0,300.11591,9793.1465,0.0,0.0,-0.04416000517070562,0.0,0.0,0.0,-0.8308635722573502,-0.8336580147081402,-1.3123503837688988,-0.013379217765425987,-0.006530665304451483,-0.09001253872854592
4417,2.0,299.64905,9672.1455,0.0,0.0,-0.04417000959107997,0.0,0.0,0.0,-0.7947166855399302,-0.8218850921937432,-1.3234889407931887,-0.013623369496271888,-0.013220115208223788,-0.07521675780656602
4418,2.0,299.64102,9505.8408,0.0,0.0,-0.044180014011454105,0.0,0.0,0.0,-0.7922584698698232,-0.8102299093409663,-1.2870498327469289,0.0005481114709018904,0.009852547596745741,-0.09416763420862191
4419,2.0,299.0719,9587.0917,0.0,0.0,-0.0441899855225506,0.0,0.0,0.0,-0.8005872641018112,-0.8186464105016102,-1.2950028327818288,0.0036591802809829766,0.005371487836974574,-0.09418632968621701
4420,2.0,299.00028,9682.5616,0.0,0.0,-0.04419998994292473,0.0,0.0,0.0,-0.8474441435812252,-0.8138260454033772,-1.2819867233222386,-0.007204823963085763,-0.003498909953040527,-0.1106337791987039
4421,2.0,299.55532999999997,9767.4873,0.0,0.0,-0.04420999436329898,0.0,0.0,0.0,-0.8472212488242272,-0.8177475462053992,-1.3041034398799887,-0.004215973673909206,-0.01282422623515259,-0.09389711568367382
4422,2.0,299.16521,9736.0526,0.0,0.0,-0.04421999878367311,0.0,0.0,0.0,-0.8306693119481782,-0.8287207408133692,-1.3001268385375289,-0.0015269075109940386,0.01875838421430838,-0.1104906981520829
4423,2.0,299.5067,9636.8842,0.0,0.0,-0.04423000320404724,0.0,0.0,0.0,-0.8143259222077113,-0.8007503872354103,-1.3142958239608988,0.001142437663899819,-0.005373287673127205,-0.08329079360566133
4424,2.0,300.18205,9588.7863,0.0,0.0,-0.044240007624421374,0.0,0.0,0.0,-0.8007406195044462,-0.8076276905666472,-1.3063832526049888,0.0029815527606313467,-0.014870362208840486,-0.0999459218983945
4425,2.0,299.9457,9657.6748,0.0,0.0,-0.044250012044795506,0.0,0.0,0.0,-0.8251062750566492,-0.8225293774023292,-1.2880562940712588,-0.012672063427885289,-0.01212368538101459,-0.1022942445156559
4426,2.0,300.16983999999997,9767.0945,0.0,0.0,-0.044259983555892224,0.0,0.0,0.0,-0.8454726324641523,-0.8406003788282983,-1.2828798019603789,0.006905252720670384,0.01038423893434459,-0.1131704710890559
4427,2.0,299.70703,9537.8808,0.0,0.0,-0.044269987976266356,0.0,0.0,0.0,-0.8141155917519531,-0.8102333949213102,-1.274928625775659,-0.0099919369679524,0.002955179988353557,-0.1117327401246629
4428,2.0,299.71772999999996,9467.324,0.0,0.0,-0.0442799923966406,0.0,0.0,0.0,-0.7903008605441223,-0.8086672649042452,-1.2788619613388488,-0.0012018427947376488,0.0045605198458632664,-0.10054720781248681
4429,2.0,300.4462,9718.3503,0.0,0.0,-0.04428999681701451,0.0,0.0,0.0,-0.8022945195928042,-0.8229067421370723,-1.3289345521306288,0.0006254867239857335,-0.007991202096795243,-0.08731233765630682
4430,2.0,300.35405,9780.9947,0.0,0.0,-0.044300001237388864,0.0,0.0,0.0,-0.8132041327569992,-0.8326199501131912,-1.3273540846246488,-0.0037327258235913562,0.025325645173946577,-0.090394312114474
4431,2.0,300.17509,9717.2424,0.0,0.0,-0.044310005657762996,0.0,0.0,0.0,-0.8187714050339462,-0.8350183232323921,-1.3000093015259289,-0.0027995741572464576,-0.012174791689558389,-0.1103395516346659
4432,2.0,299.91372,9625.9216,0.0,0.0,-0.04432001007813713,0.0,0.0,0.0,-0.8391967335972691,-0.8051420766138363,-1.2817009867940385,-0.011570968597215688,-0.012121698397568489,-0.09999853693633722
4433,2.0,299.60882999999995,9611.6627,0.0,0.0,-0.04433001449851137,0.0,0.0,0.0,-0.8283970479364232,-0.8081266047833863,-1.2851818048625687,0.005816526127346434,-0.012944927626814887,-0.10015773676554901
4434,2.0,300.05028,9701.5567,0.0,0.0,-0.04433998600960798,0.0,0.0,0.0,-0.8243626913382632,-0.8288931453178842,-1.2957751320080488,0.00887179111022761,-0.0023009371657348177,-0.1001255093328684
4435,2.0,299.62552999999997,9818.0437,0.0,0.0,-0.04434999042998222,0.0,0.0,0.0,-0.8261419382488612,-0.8233062767840033,-1.3349919638784487,0.013885437515385988,-0.005491932673711555,-0.07773041548239472
4436,2.0,299.91815,9749.4922,0.0,0.0,-0.044359994850356355,0.0,0.0,0.0,-0.8217771101305862,-0.8283929949360231,-1.3134321295756588,-0.01015649476236799,-0.007045923549278513,-0.1012107630114746
4437,2.0,300.39783,9637.7407,0.0,0.0,-0.044369999270730265,0.0,0.0,0.0,-0.8350551650060282,-0.8078403514976352,-1.286737042441059,0.014220327819187088,-0.013722423812797787,-0.07830427474278023
4438,2.0,300.37836,9785.1614,0.0,0.0,-0.04438000369110451,0.0,0.0,0.0,-0.8543718662374381,-0.8408055315760452,-1.2792673627038589,-0.018513975117937086,0.012874744858638387,-0.12067321317701889
4439,2.0,300.0153,9896.15,0.0,0.0,-0.04439000811147875,0.0,0.0,0.0,-0.8631865746873822,-0.8341651767806932,-1.3108307112689188,-0.0033739401440069663,0.0026340697845874477,-0.08595174238227651
4440,2.0,300.81154,9833.9249,0.0,0.0,-0.044400012531852995,0.0,0.0,0.0,-0.8265869576927812,-0.8286733004436873,-1.334007388756279,-0.01149030882300519,-0.003081747490144797,-0.10333289679566289
4441,2.0,300.07039,9629.8264,0.0,0.0,-0.04440998404294949,0.0,0.0,0.0,-0.7890251280057172,-0.8124139395340132,-1.325787701295059,0.0026815345735968577,0.0066608497037996825,-0.08636904132996073
4442,2.0,300.01772,9559.9201,0.0,0.0,-0.04441998846332362,0.0,0.0,0.0,-0.7863424673059592,-0.8171361308300572,-1.3024984517215887,0.013045177578458788,0.007078062423900374,-0.12392501645794687
4443,2.0,299.86958,9699.971,0.0,0.0,-0.04442999288369798,0.0,0.0,0.0,-0.8271102101769222,-0.8214230501481432,-1.300015685001559,0.002859106552296847,-0.007327831815950693,-0.1028041727609819
4444,2.0,300.06916,9730.6842,0.0,0.0,-0.04443999730407189,0.0,0.0,0.0,-0.8436560472873691,-0.8377014094971923,-1.276527534433459,0.013442175047139387,-0.013023731126842188,-0.13635972301015686
4445,2.0,300.16053,9746.129,0.0,0.0,-0.04445000172444613,0.0,0.0,0.0,-0.8341364004778533,-0.8230002549888011,-1.3054431591622089,0.004724538895200686,-0.003228358193489147,-0.09884298497904309
4446,2.0,300.02963,9663.7117,0.0,0.0,-0.04446000614482026,0.0,0.0,0.0,-0.8118623869745792,-0.8278871602211012,-1.2977775168556687,-0.00045886666164161356,0.018508082055355483,-0.1097052368070639
4447,2.0,300.16014,9668.9724,0.0,0.0,-0.044470010565194396,0.0,0.0,0.0,-0.7877414921165322,-0.8276447502671772,-1.3237399228429587,-0.005712790595358536,-0.01119649871800839,-0.09092434020203373
4448,2.0,299.45142000000004,9771.2213,0.0,0.0,-0.04448001498556875,0.0,0.0,0.0,-0.8371161461069312,-0.8193990121458863,-1.3136921295513186,-0.008324694419433372,-0.01946663184870698,-0.098697238071409
4449,2.0,299.80298,9901.6156,0.0,0.0,-0.044489986496665246,0.0,0.0,0.0,-0.8577757786233783,-0.8259127512087423,-1.3261553084313387,-0.0028831576646205074,-0.014787234157386385,-0.08641789619678232
4450,2.0,299.8728,9690.1887,0.0,0.0,-0.04449999091703938,0.0,0.0,0.0,-0.8501956140952742,-0.8066142276841263,-1.2887655691412587,0.007946913542874303,0.008025521992257352,-0.10612430962865389
4451,2.0,299.17329,9547.1746,0.0,0.0,-0.04450999533741351,0.0,0.0,0.0,-0.8017288929894812,-0.7963056136842452,-1.304068178776509,-0.012631260859608388,0.006203901367777395,-0.08689893668175733
4452,2.0,299.8293,9726.8091,0.0,0.0,-0.044519999757787754,0.0,0.0,0.0,-0.8149193929237822,-0.8211682582779972,-1.3206194165099887,0.003308586120507027,0.015885043017981684,-0.0984671340399495
4453,2.0,300.12692000000004,9883.1049,0.0,0.0,-0.044530004178161886,0.0,0.0,0.0,-0.8227808458121472,-0.8185860309281512,-1.3628502621278487,0.002290644773869038,0.00985854411216255,-0.07654453998935792
4454,2.0,300.17059,9783.476999999999,0.0,0.0,-0.04454000859853602,0.0,0.0,0.0,-0.8339191089939082,-0.8328963343429682,-1.3071172509774287,0.016610628374841382,0.015558646789768885,-0.10569212806350091
4455,2.0,300.98475,9699.3307,0.0,0.0,-0.04455001301891015,0.0,0.0,0.0,-0.8491484505144272,-0.8155883507723033,-1.2836175493581887,-0.012865407758966886,-0.022398469999806877,-0.08831836936259442
4456,2.0,300.60059,9744.7615,0.0,0.0,-0.04455998453000687,0.0,0.0,0.0,-0.8456681188059453,-0.8318563749703322,-1.2846397160590688,0.0008713446565425221,-0.01993855510928218,-0.12149845472096388
4457,2.0,299.66856,9847.6015,0.0,0.0,-0.044569988950381,0.0,0.0,0.0,-0.8368751243056443,-0.8468762472976783,-1.3096735796547188,-0.0008338602594281001,0.0003311526977597267,-0.09373285872321291
4458,2.0,300.39284,9883.1479,0.0,0.0,-0.04457999337075513,0.0,0.0,0.0,-0.8243379883008252,-0.8361373262453293,-1.343754854718279,0.022532169363751978,0.021754734986025183,-0.10672977722590889
4459,2.0,299.76467,9562.8618,0.0,0.0,-0.04458999779112938,0.0,0.0,0.0,-0.7700722544877142,-0.8211790189940592,-1.3156199391915788,-0.012104088110830488,0.003284358601340957,-0.09230752284729322
4460,2.0,299.68085,9458.9082,0.0,0.0,-0.04460000221150329,0.0,0.0,0.0,-0.7955178421289982,-0.8013091034730512,-1.2784449075976887,0.005535043223066235,-0.002398743563437558,-0.10775395016198688
4461,2.0,299.16507,9818.7586,0.0,0.0,-0.04461000663187764,0.0,0.0,0.0,-0.8476461653861632,-0.8324827459171501,-1.3045284982969387,-0.016675860403029284,-0.003138793166799767,-0.1016729094218349
4462,2.0,299.07596,9970.7163,0.0,0.0,-0.04462001105225177,0.0,0.0,0.0,-0.8734835464436143,-0.8450383332062902,-1.312326876366579,-0.0023505588602320978,0.007489196352676133,-0.11861624454651189
4463,2.0,300.25479,9759.2075,0.0,0.0,-0.044630015472625906,0.0,0.0,0.0,-0.8174234074984091,-0.8316208855145911,-1.3175110691782188,-0.012114949138652388,0.0012276227143819287,-0.1158700631979849
4464,2.0,300.58852,9564.2834,0.0,0.0,-0.04463998698372251,0.0,0.0,0.0,-0.7942609459099522,-0.8054909588882683,-1.3075514286452787,-0.01090605462984379,-0.0048935446549052556,-0.08667146102105723
4465,2.0,300.07721000000004,9753.7391,0.0,0.0,-0.044649991404096756,0.0,0.0,0.0,-0.8063691832799422,-0.8385339059118533,-1.3199900868728789,0.007126952146525413,-0.0008212212613907282,-0.09146182682357952
4466,2.0,300.08547000000004,9946.3638,0.0,0.0,-0.044659995824471,0.0,0.0,0.0,-0.8768326622641461,-0.8281210386091832,-1.3184925032250787,0.016349483426568383,-0.015156496944329785,-0.07034141983740763
4467,2.0,299.86179,9906.1531,0.0,0.0,-0.04467000024484491,0.0,0.0,0.0,-0.8707705490358623,-0.8352081455061262,-1.3052444608175988,0.004888994148706156,-0.013478613547235587,-0.09414803187218732
4468,2.0,299.84807,9719.2674,0.0,0.0,-0.04468000466521904,0.0,0.0,0.0,-0.8434529210398222,-0.8178569265536942,-1.293104711369499,0.0043770172130029655,-0.013751233552891087,-0.08358154268210602
4469,2.0,299.84557,9580.4913,0.0,0.0,-0.044690009085593285,0.0,0.0,0.0,-0.8115078001020842,-0.8011150559464002,-1.2996072438862487,0.000985262693422857,0.005581077302934444,-0.11035809411149589
4470,2.0,299.50737000000004,9826.1489,0.0,0.0,-0.04470001350596753,0.0,0.0,0.0,-0.8116916036702242,-0.8396440429864153,-1.335568300535329,0.005856702101761494,0.008221634421287143,-0.1078199634060019
4471,2.0,299.76863,9943.2925,0.0,0.0,-0.044709985017064136,0.0,0.0,0.0,-0.8454108748705572,-0.8309425652351462,-1.3461591958805685,-0.003676433701035757,0.005117588842816695,-0.1042770736363459
4472,2.0,300.23419,9700.6922,0.0,0.0,-0.04471998943743827,0.0,0.0,0.0,-0.8335594356059113,-0.8214502863108312,-1.2937584603340189,-0.0016131594125064384,-0.007766634463882143,-0.10998596787976989
4473,2.0,300.05494,9493.1383,0.0,0.0,-0.0447299938578124,0.0,0.0,0.0,-0.8062565301338243,-0.8141142441293202,-1.265306194875999,-0.008442040129414493,-0.0015101066084359186,-0.11057628738802991
4474,2.0,300.34097,9797.3569,0.0,0.0,-0.044739998278186754,0.0,0.0,0.0,-0.8425558096662843,-0.8326250163636911,-1.3029710315682288,0.003268688688544457,-0.002195182631597658,-0.11506936257146189
4475,2.0,300.42572,10067.049,0.0,0.0,-0.044750002698560665,0.0,0.0,0.0,-0.8472575535753102,-0.8618212303101331,-1.3510527885635288,0.001928223451600838,0.0046870143936473055,-0.1020873996402419
4476,2.0,300.09619,9872.9084,0.0,0.0,-0.04476000711893491,0.0,0.0,0.0,-0.8036733097988803,-0.8540094064116661,-1.3434349716617087,0.008769669584324001,0.006325634450691515,-0.1056096697703629
4477,2.0,300.02474,9686.7954,0.0,0.0,-0.04477001153930904,0.0,0.0,0.0,-0.8025472950952512,-0.8206467485840282,-1.3213498685070788,-0.0017406384340876385,-0.002034879069051928,-0.0865383726469224
4478,2.0,300.59952000000004,9789.7782,0.0,0.0,-0.04478001595968317,0.0,0.0,0.0,-0.8531843067227353,-0.8288262404137812,-1.2938375951668288,0.006792490548841624,-0.009237098270105621,-0.08886734320052392
4479,2.0,300.50458,10017.539,0.0,0.0,-0.04478998747077989,0.0,0.0,0.0,-0.8658885175365432,-0.8551167469159523,-1.3240764232011688,-0.0043263674749542255,0.010932581517461789,-0.09476665550874071
4480,2.0,299.65558,10022.495,0.0,0.0,-0.04479999189115402,0.0,0.0,0.0,-0.8783085724923071,-0.8288143043276032,-1.3394654630699487,0.006946086294400342,-0.008221459534319882,-0.08455105482828941
4481,2.0,299.49412,9794.5623,0.0,0.0,-0.044809996311528155,0.0,0.0,0.0,-0.8027392147966922,-0.8362017081566833,-1.3383614257609886,-0.006874537867739064,0.005113602818248305,-0.12083947738592787
4482,2.0,299.32799,9602.748,0.0,0.0,-0.04482000073190229,0.0,0.0,0.0,-0.7909847334341152,-0.8063975137527383,-1.3216134148580887,-0.007082973039185014,-0.01032120768537389,-0.0974894449654591
4483,2.0,300.04357999999996,9840.6766,0.0,0.0,-0.04483000515227653,0.0,0.0,0.0,-0.8346101050321041,-0.8276279809780223,-1.3290818786951688,0.0055021871700235946,-0.007170523826000603,-0.11339004238572589
4484,2.0,299.60988,10070.723,0.0,0.0,-0.04484000957265066,0.0,0.0,0.0,-0.9008165251786692,-0.8350650340620023,-1.3253667972035186,0.007335334628966164,-0.007932181595695371,-0.07441598827903623
4485,2.0,299.49793,9862.3741,0.0,0.0,-0.044850013993024795,0.0,0.0,0.0,-0.8499407614301222,-0.8379789589645843,-1.309995691861509,-0.009681040629169321,-0.0017576234441889283,-0.10399877436387989
4486,2.0,300.18242999999995,9669.0026,0.0,0.0,-0.04485998550412129,0.0,0.0,0.0,-0.8330091394766013,-0.8177699592976112,-1.2883563174258688,0.008246139874955642,0.004559448637857546,-0.09269233699677142
4487,2.0,300.7476,9775.058,0.0,0.0,-0.044869989924495646,0.0,0.0,0.0,-0.7879510828997173,-0.8370080323212613,-1.3464144335807589,-0.014508603552137686,0.021126948528817482,-0.1117267923465759
4488,2.0,300.61492000000004,9978.223,0.0,0.0,-0.04487999434486978,0.0,0.0,0.0,-0.8356902904337102,-0.8497261550589422,-1.3477142308090386,0.010348370894054689,0.006667123545768863,-0.1013670598791499
4489,2.0,300.22002000000003,9975.8686,0.0,0.0,-0.04488999876524391,0.0,0.0,0.0,-0.8440996684461513,-0.8505359040088581,-1.3377794149035487,-0.0014882111857000087,0.003652296665103616,-0.1097705103785059
4490,2.0,300.31543,9772.3579,0.0,0.0,-0.044900003185618154,0.0,0.0,0.0,-0.8509666974213743,-0.8194345772243962,-1.3001515618399686,0.003011547091416557,0.0025137736929651475,-0.10743187848520089
4491,2.0,299.95092,9535.3231,0.0,0.0,-0.044910007605992064,0.0,0.0,0.0,-0.8018780231391992,-0.8190280612842762,-1.2775940814887188,0.00042935722169175865,-0.015019453855054685,-0.11851162647368689
4492,2.0,300.43781,9675.975,0.0,0.0,-0.04492001202636642,0.0,0.0,0.0,-0.8145895090887252,-0.8107493925347352,-1.3159159095457886,0.006122171601461295,-0.0034444884928195468,-0.0989397929200973
4493,2.0,299.82206,9998.1879,0.0,0.0,-0.04493001644674055,0.0,0.0,0.0,-0.8251049780965213,-0.8563391622340952,-1.3577553366500188,0.001769374916198708,-0.015558177654972588,-0.10912285104708688
4494,2.0,300.04461000000003,9961.6781,0.0,0.0,-0.044939987957837046,0.0,0.0,0.0,-0.8439508625364652,-0.8433185742090632,-1.3408319321548088,0.007356779256732582,-0.00954618200578481,-0.09599748586896421
4495,2.0,300.0986,9703.572,0.0,0.0,-0.04494999237821129,0.0,0.0,0.0,-0.8421156943528483,-0.8159922930571691,-1.2915355922646388,-0.0064229031165661836,0.013168416148371487,-0.10601538524290391
4496,2.0,300.53002999999995,9930.8954,0.0,0.0,-0.04495999679858553,0.0,0.0,0.0,-0.8826982455030341,-0.8356845047756393,-1.3003615072606887,0.00887462020583182,-0.0013708460213169686,-0.07894827928108852
4497,2.0,300.21201,10152.094000000001,0.0,0.0,-0.044970001218959776,0.0,0.0,0.0,-0.8952543090197211,-0.8493024037346212,-1.3414263046634687,0.006204311328767854,0.005202264836448565,-0.0998803646169245
4498,2.0,299.57947,10063.376,0.0,0.0,-0.04498000563933391,0.0,0.0,0.0,-0.8627444632712492,-0.8361271532143252,-1.3601433644856986,-0.003202977190409237,0.0019179981368916783,-0.07455506394801192
4499,2.0,299.35044,9841.0024,0.0,0.0,-0.04499001005970782,0.0,0.0,0.0,-0.7980959455509372,-0.8369589606189183,-1.3563640429377088,0.003079628986835717,0.007327227918891093,-0.11886197796076388
4500,2.0,299.68008,9690.8129,0.0,0.0,-0.04500001448008206,0.0,0.0,0.0,-0.8151842463674212,-0.8005259726032622,-1.3300549027661988,-0.006023118804810545,0.0029309635136135774,-0.07829027973239902
4501,2.0,300.33601,9745.5952,0.0,0.0,-0.04500998599117867,0.0,0.0,0.0,-0.8312517382381591,-0.8291656690647803,-1.3020002366474188,-0.005950271898146115,-0.0018751994659177782,-0.11357331906381389
4502,2.0,300.45963,10015.229,0.0,0.0,-0.04501999041155291,0.0,0.0,0.0,-0.8765598446747211,-0.8399178636934393,-1.3279019489537187,-0.0004537526465318996,0.0019485604956829483,-0.08497574543545311
4503,2.0,300.66981,9929.0524,0.0,0.0,-0.045029994831927045,0.0,0.0,0.0,-0.8530371625432133,-0.8442036684364153,-1.3209431499169386,-0.005394652355460734,0.01035094657580889,-0.1151745784618459
4504,2.0,300.63966,9780.1868,0.0,0.0,-0.04503999925230118,0.0,0.0,0.0,-0.8140337718063781,-0.8372716799972811,-1.3216270937344388,-0.0037889772134929367,-0.002898801840864467,-0.09427199694242172
4505,2.0,300.49844,9882.9166,0.0,0.0,-0.04505000367267553,0.0,0.0,0.0,-0.7958236612741802,-0.8490545931576642,-1.3592815952756487,-0.0017991849367907282,-0.007931783084431043,-0.12555456579877086
4506,2.0,299.56228,10131.794,0.0,0.0,-0.04506000809304944,0.0,0.0,0.0,-0.8679210263096362,-0.8648077647148812,-1.3470835839467987,0.007042730696888404,-8.633097555020391e-05,-0.09487832174926132
4507,2.0,299.23543,10071.466,0.0,0.0,-0.045070012513423685,0.0,0.0,0.0,-0.8743980654538701,-0.8603383995837892,-1.3267378259138287,0.00922290689185504,-0.004531227798722366,-0.1100906163500979
4508,2.0,299.76637999999997,9733.9928,0.0,0.0,-0.04507998402452029,0.0,0.0,0.0,-0.8452518756648653,-0.8219948575770762,-1.2916440100253388,-0.008551512683468591,0.0031187922177758273,-0.1068487935826549
4509,2.0,300.02808999999996,9627.9702,0.0,0.0,-0.045089988444894535,0.0,0.0,0.0,-0.8122933526396122,-0.8210056721669512,-1.2933634954450386,0.0028902738213978174,-0.0012818331146070788,-0.11991522104221089
4510,2.0,300.05655,9802.5557,0.0,0.0,-0.04509999286526867,0.0,0.0,0.0,-0.8131014195943622,-0.8209757914215022,-1.3456549013057988,-0.014565247272477988,0.013461584866054989,-0.1011019784542384
4511,2.0,300.02576,9884.6703,0.0,0.0,-0.0451099972856428,0.0,0.0,0.0,-0.8007210637775162,-0.8528479786170421,-1.3511239187205488,0.0033526742535581865,0.013288885505760885,-0.10938380347784091
4512,2.0,299.8516,9896.7901,0.0,0.0,-0.04512000170601693,0.0,0.0,0.0,-0.8495051652121322,-0.8283216621289832,-1.3305502807400886,-0.008821263164840892,0.003912212135705277,-0.08305445301983633
4513,2.0,300.05196,9897.5679,0.0,0.0,-0.045130006126391065,0.0,0.0,0.0,-0.8488990086048092,-0.8420880326251181,-1.3176264783646088,-0.013372196955483088,-0.006209188912099234,-0.09172887800668542
4514,2.0,299.32295,9944.4168,0.0,0.0,-0.04514001054676531,0.0,0.0,0.0,-0.8776591602382151,-0.8418445283610863,-1.3033506963806987,-0.004458815171050796,-0.011463873127896188,-0.0959606309230769
4515,2.0,299.11633,10193.078000000001,0.0,0.0,-0.04515001496713944,0.0,0.0,0.0,-0.8764572328370942,-0.8579384863244361,-1.3640454919458087,0.007188295928779572,-0.005510209982990385,-0.09117841874410931
4516,2.0,299.47177999999997,10216.586,0.0,0.0,-0.045159986478235936,0.0,0.0,0.0,-0.8674312820063023,-0.8678551346556331,-1.3703004874631286,0.0060260843852032245,0.006758950754631504,-0.09006623794409561
4517,2.0,299.84103,9755.6083,0.0,0.0,-0.04516999089861007,0.0,0.0,0.0,-0.7979233991914083,-0.8195156169673942,-1.3480223601644488,0.009458604874466621,-0.009236255651322462,-0.09269689459572122
4518,2.0,299.56669,9647.322,0.0,0.0,-0.04517999531898442,0.0,0.0,0.0,-0.8332693319697803,-0.8042900447372472,-1.294985607530129,-3.649897694166857e-06,-0.002014224877688518,-0.0954133289478124
4519,2.0,300.48402999999996,9923.2947,0.0,0.0,-0.045189999739358555,0.0,0.0,0.0,-0.8490600748407051,-0.8483544778685682,-1.3190192919520687,0.009390554288475551,-0.0018538377220095384,-0.1052139246788059
4520,2.0,300.04761,9928.9998,0.0,0.0,-0.04520000415973269,0.0,0.0,0.0,-0.8696566021409242,-0.8233280616611531,-1.3251833989354187,0.006514366973942964,-0.0074459138547794835,-0.1028022881157959
4521,2.0,300.83734,9881.5648,0.0,0.0,-0.04521000858010693,0.0,0.0,0.0,-0.8110256247769972,-0.8556038567690263,-1.3371194851134185,-0.0072737190930351825,-0.014725628551306385,-0.12968179690109688
4522,2.0,300.46082,9786.7032,0.0,0.0,-0.04522001300048084,0.0,0.0,0.0,-0.8027477767600373,-0.8369399013845371,-1.3352257206765188,-0.01039420019607769,0.008151481240013561,-0.11552041085347689
4523,2.0,299.94359,9865.5989,0.0,0.0,-0.04522998451157778,0.0,0.0,0.0,-0.8046782411155592,-0.8427535656883012,-1.3514638641290988,-0.005983435776569135,0.0095155807381897,-0.1123989723304149
4524,2.0,299.74072,9977.5998,0.0,0.0,-0.04523998893195169,0.0,0.0,0.0,-0.8617570409162981,-0.8429822866333742,-1.3282018709833188,-0.003517401666040517,0.011861300214619189,-0.1054065333903149
4525,2.0,299.66584,9999.8557,0.0,0.0,-0.045249993352325824,0.0,0.0,0.0,-0.8728633360574042,-0.8374203947144583,-1.329422736028809,0.004369581578469126,-0.014685314369577686,-0.09213012301978522
4526,2.0,299.47806,9861.9957,0.0,0.0,-0.04525999777270007,0.0,0.0,0.0,-0.8567027265024761,-0.8380041990245751,-1.3030935335053186,-0.0036033797873758966,-0.012631422979624387,-0.09104291376848601
4527,2.0,299.82058,9785.6455,0.0,0.0,-0.04527000219307431,0.0,0.0,0.0,-0.8221311599805282,-0.8375979971919862,-1.3148627373918487,0.0012203444375886187,0.005287596098920105,-0.1002537938882791
4528,2.0,299.59546,10001.47,0.0,0.0,-0.045280006613448553,0.0,0.0,0.0,-0.8229717421309872,-0.8455023308245831,-1.3717231919285386,0.003021858735034237,0.006020212195573684,-0.099070002650698
4529,2.0,300.06757000000005,10089.793,0.0,0.0,-0.045290011033822686,0.0,0.0,0.0,-0.8563269728353923,-0.8522931025972802,-1.3584248923160989,0.007728891809582232,-0.014618421624475884,-0.0950864666245536
4530,2.0,299.59979,9916.5479,0.0,0.0,-0.045300015454196596,0.0,0.0,0.0,-0.8584309258730363,-0.8348842601116612,-1.3210677796792387,0.00013863354742706588,0.004547420143270426,-0.1016518743497589
4531,2.0,300.6202,9815.1439,0.0,0.0,-0.045309986965293314,0.0,0.0,0.0,-0.8418511144867361,-0.8285062458997001,-1.3132013112028789,0.0015752870621937286,-0.004362556614200816,-0.11118256558536489
4532,2.0,300.87503,9973.6996,0.0,0.0,-0.045319991385667446,0.0,0.0,0.0,-0.8506619725863003,-0.8477712308460063,-1.3333224316886787,-0.0002207121656200948,-0.007038236527394863,-0.10853372717394491
4533,2.0,300.39074,10102.685,0.0,0.0,-0.04532999580604169,0.0,0.0,0.0,-0.8489455573144031,-0.8517965492532741,-1.3702218592553688,-0.00875167649169822,-0.01053613829658589,-0.1160627428370009
4534,2.0,300.13792,10064.888,0.0,0.0,-0.04534000022641582,0.0,0.0,0.0,-0.8333521449004533,-0.8651258239212712,-1.3609968250449287,0.0018560414396520284,0.004364319669374816,-0.1052562380029819
4535,2.0,300.20735,9920.8227,0.0,0.0,-0.045350004646789954,0.0,0.0,0.0,-0.8370333838387631,-0.8425594371016423,-1.3360895163867688,-0.0025307470506902873,0.02027115242810698,-0.1016307886151779
4536,2.0,299.39804,9897.6114,0.0,0.0,-0.04536000906716431,0.0,0.0,0.0,-0.8550154523034552,-0.8278335896883142,-1.3257776701190687,-0.014011607417837989,0.012787558740533788,-0.07949476356352232
4537,2.0,300.14903,10072.259,0.0,0.0,-0.04537001348753822,0.0,0.0,0.0,-0.8618908304595022,-0.8685758695842641,-1.3312486127090088,0.00036821880496786663,-0.01969992457823118,-0.1055590173978639
4538,2.0,299.86832000000004,10161.209,0.0,0.0,-0.04537998499863494,0.0,0.0,0.0,-0.8803175029355731,-0.8541805038235522,-1.3542556721296286,-0.008486449361422342,-0.009037609691742632,-0.08411632392588482
4539,2.0,300.23486,9956.5114,0.0,0.0,-0.04538998941900907,0.0,0.0,0.0,-0.8280029949725332,-0.8496116881951452,-1.3489161480776588,0.02110354447800768,0.008995700755681542,-0.1199815281287549
4540,2.0,299.76954,9732.7869,0.0,0.0,-0.04539999383938331,0.0,0.0,0.0,-0.7932096685336992,-0.8313521614555702,-1.3339624004518387,-0.004048590735564796,-0.0019473693188653883,-0.11632765707564588
4541,2.0,299.85686,9948.6605,0.0,0.0,-0.045409998259757445,0.0,0.0,0.0,-0.8296218342598002,-0.8448778951854563,-1.3496446748995587,0.007624134617518502,0.00019018476395727484,-0.1098348720248579
4542,2.0,299.87095,10146.748,0.0,0.0,-0.04542000268013158,0.0,0.0,0.0,-0.8793320969483213,-0.8543780875930522,-1.350647792498559,-0.003257073397348117,-0.013794212582382788,-0.10499237754444089
4543,2.0,299.8599,9925.1109,0.0,0.0,-0.04543000710050571,0.0,0.0,0.0,-0.8503041838434892,-0.8319823118252613,-1.3346993372495688,0.01781578601728118,-0.007967517983657803,-0.0946932242607436
4544,2.0,299.41115,9780.4441,0.0,0.0,-0.04544001152087984,0.0,0.0,0.0,-0.8367274431035692,-0.8202457345919513,-1.3160376008827988,-0.01174008611840629,0.00030268508156269173,-0.10551407975592891
4545,2.0,299.9192,10014.447,0.0,0.0,-0.045450015941254085,0.0,0.0,0.0,-0.8453880868758082,-0.8454367330131092,-1.3533169972369885,-0.005297823237479445,-0.015267805507565086,-0.09188662888825422
4546,2.0,299.79385,10197.108,0.0,0.0,-0.04545998745235069,0.0,0.0,0.0,-0.8739503912946881,-0.8647948863061102,-1.3609208312874288,-0.006521914673937864,0.010232602003879189,-0.11347008914362589
4547,2.0,300.42925,10102.453000000001,0.0,0.0,-0.04546999187272471,0.0,0.0,0.0,-0.8671775439162601,-0.8575556095091492,-1.3461602091306686,-0.00943685789287036,0.025932131087552077,-0.08714343494413743
4548,2.0,299.88702,9925.1248,0.0,0.0,-0.045479996293098846,0.0,0.0,0.0,-0.8537192926430341,-0.8444592810391423,-1.3188115756815686,0.009625650501852741,0.013943388328355288,-0.10597024495094891
4549,2.0,299.79287,9828.5497,0.0,0.0,-0.0454900007134732,0.0,0.0,0.0,-0.8307292355590922,-0.8299587601830523,-1.3269457448343487,-0.003931033458962796,-0.0030521153962703375,-0.1057435606385769
4550,2.0,299.8757,9983.9538,0.0,0.0,-0.04550000513384733,0.0,0.0,0.0,-0.8460753338886341,-0.8448304041532692,-1.3439669279642088,0.008204233775994831,-0.0025440640954295774,-0.11251391542175888
4551,2.0,300.52734,10134.254,0.0,0.0,-0.045510009554221464,0.0,0.0,0.0,-0.8399689416309801,-0.8462726440806071,-1.3943185678335288,0.004359331033832475,0.008859569794146462,-0.11647013017220689
4552,2.0,300.25246,9906.3166,0.0,0.0,-0.04552001397459571,0.0,0.0,0.0,-0.8227281264094441,-0.8379763751768293,-1.3505683536907187,-0.006692669911265093,-0.002165713468339278,-0.1081082229269509
4553,2.0,299.87626,9755.357,0.0,0.0,-0.045529985485692315,0.0,0.0,0.0,-0.7983184755378993,-0.8398257693918503,-1.3272407019384589,-0.009567076641396952,-0.011386652324525091,-0.11331506187832589
4554,2.0,299.73406,10047.07,0.0,0.0,-0.04553998990606656,0.0,0.0,0.0,-0.8743810124546872,-0.8409736500326372,-1.3387039042947886,-0.01081921099027299,-0.0057737575499005045,-0.0928780464883495
4555,2.0,301.10131,10382.324,0.0,0.0,-0.04554999432644047,0.0,0.0,0.0,-0.9091189039805501,-0.8789114259043042,-1.3679368789548587,0.005666296297294905,0.013576139882610685,-0.095581169773877
4556,2.0,300.62323,10178.001,0.0,0.0,-0.0455599987468146,0.0,0.0,0.0,-0.8848555664234452,-0.8595295321614602,-1.3494731316576287,0.007023779170993034,0.008356597916057003,-0.09286674874973451
4557,2.0,300.28355,9955.7558,0.0,0.0,-0.045570003167188844,0.0,0.0,0.0,-0.8257179842745203,-0.8539399785148142,-1.3466432254533387,0.004674475828959845,0.017353391360646384,-0.09469233361390572
4558,2.0,300.08052999999995,10038.654,0.0,0.0,-0.04558000758756309,0.0,0.0,0.0,-0.8514424284758252,-0.8552674273383232,-1.3447901936704587,0.0031981672921845366,0.00953650881105514,-0.10021973044641731
4559,2.0,299.88894,10173.839,0.0,0.0,-0.04559001200793733,0.0,0.0,0.0,-0.8805464974581731,-0.8549917118536122,-1.3570546742058687,-0.006954664773721973,-0.002101820348833518,-0.09326430553247031
4560,2.0,300.02482000000003,10098.492,0.0,0.0,-0.04560001642831124,0.0,0.0,0.0,-0.8778220401917901,-0.8578541028561082,-1.3340133669318688,0.005691285679211165,-0.0018524785483253984,-0.11126873237386889
4561,2.0,300.45312,9985.9687,0.0,0.0,-0.04560998793940796,0.0,0.0,0.0,-0.8607829124026591,-0.8314477717350063,-1.3432544104938886,-0.002165230148041578,-0.02077073032366148,-0.1025018189311419
4562,2.0,299.324,9799.4919,0.0,0.0,-0.04561999235978209,0.0,0.0,0.0,-0.8107690901166793,-0.8386645442472462,-1.3293672099233287,-0.0033632699111788974,-0.007274960121757664,-0.1279372335414219
4563,2.0,299.48532,9966.6877,0.0,0.0,-0.04562999678015622,0.0,0.0,0.0,-0.8330301644161763,-0.8536458725407883,-1.3429482063136688,-0.008951872521281032,-0.007051189106073183,-0.1063245379809149
4564,2.0,299.59538,10275.806999999999,0.0,0.0,-0.04564000120053047,0.0,0.0,0.0,-0.8680754658898782,-0.8641506213625261,-1.3913626133167987,0.014782092926378986,0.005311290547208565,-0.09966548669471771
4565,2.0,300.84491,10105.976999999999,0.0,0.0,-0.0456500056209046,0.0,0.0,0.0,-0.8614586995568542,-0.8663198885016162,-1.3441859926358288,0.002665778737191877,0.0019106676777182184,-0.1032878983587219
4566,2.0,300.52582,9874.1227,0.0,0.0,-0.04566001004127873,0.0,0.0,0.0,-0.8381981452262162,-0.8455243487492562,-1.317764280378209,0.007973242745397792,-0.008867852201788873,-0.1108472507297719
4567,2.0,300.1741,10028.201,0.0,0.0,-0.045670014461653086,0.0,0.0,0.0,-0.8693598617166381,-0.8406136017421032,-1.3383492667597887,-0.01277656295044859,0.011586344667483189,-0.1012147582566189
4568,2.0,299.55824,10226.958,0.0,0.0,-0.04567998597274958,0.0,0.0,0.0,-0.8716503946276962,-0.8701206402892213,-1.3669688198093186,-0.005342679110131375,0.007875425607243993,-0.11187409864611389
4569,2.0,299.80566,10127.261999999999,0.0,0.0,-0.045689990393123714,0.0,0.0,0.0,-0.8518984822133343,-0.8412653546039263,-1.3852710550406089,0.0014099778415039789,-0.004513886124585876,-0.11708637875052588
4570,2.0,299.32384,9998.9097,0.0,0.0,-0.045699994813497846,0.0,0.0,0.0,-0.8405623718170472,-0.8532648702381862,-1.3455916744995586,-0.0014708459028361885,-0.017193052638322184,-0.11430519974354489
4571,2.0,300.08779,9984.574,0.0,0.0,-0.04570999923387209,0.0,0.0,0.0,-0.8410748534526252,-0.8511007808071073,-1.3428855874574888,0.005131237017688665,-0.011011636303513888,-0.11218637219443288
4572,2.0,300.14024,10050.655,0.0,0.0,-0.04572000365424622,0.0,0.0,0.0,-0.875493054439437,-0.8332433117072121,-1.3464116978054885,0.005838112204826814,-0.013560151809282788,-0.08852819724630281
4573,2.0,299.75345,10158.440999999999,0.0,0.0,-0.045730008074620354,0.0,0.0,0.0,-0.8683244822344541,-0.8602313091807201,-1.3593566771080587,0.010701583799414091,0.001047036823259489,-0.08849025305655801
4574,2.0,299.76582,10173.675,0.0,0.0,-0.045740012494994486,0.0,0.0,0.0,-0.8581079321386592,-0.8616919193323711,-1.3727433321292186,0.002948823161201187,-0.00835325733180231,-0.08871816542805122
4575,2.0,300.54895,10019.709,0.0,0.0,-0.045749984006091204,0.0,0.0,0.0,-0.8432104806883951,-0.8480839198268663,-1.3544469737485088,-0.012685365375198088,0.003097178782542747,-0.08901820398141272
4576,2.0,299.99037000000004,10051.771,0.0,0.0,-0.04575998842646534,0.0,0.0,0.0,-0.8407019470183222,-0.8580406624645203,-1.3567447210002788,-0.0062639268103264435,0.01172690069485499,-0.1079760039214019
4577,2.0,300.27652,10332.815,0.0,0.0,-0.04576999284683947,0.0,0.0,0.0,-0.8906405456168782,-0.8546207103294973,-1.3956564632655686,-0.005504573576659115,-0.006901020071027653,-0.0870580858484641
4578,2.0,299.79531000000003,10235.595,0.0,0.0,-0.04577999726721349,0.0,0.0,0.0,-0.8790233697753521,-0.8638664249744781,-1.3684755227080188,-0.00937585527192487,-0.020013118157640983,-0.11623155030366089
4579,2.0,299.87782000000004,9946.7978,0.0,0.0,-0.04579000168758762,0.0,0.0,0.0,-0.8524783753780651,-0.8266803084244941,-1.3444194454588685,0.0025392895596333676,0.0013140679440134088,-0.09546997266815273
4580,2.0,299.97455,9958.7834,0.0,0.0,-0.04580000610796198,0.0,0.0,0.0,-0.8430649577090331,-0.8249391495851552,-1.3592173552193088,0.004190598547679876,0.00832295760743696,-0.12827548682230486
4581,2.0,300.17001,10154.678,0.0,0.0,-0.04581001052833611,0.0,0.0,0.0,-0.8692920550199461,-0.8658501761527592,-1.3516261867951187,-0.004106170496347475,0.015036603112997185,-0.10467139004526191
4582,2.0,299.15088,10147.142,0.0,0.0,-0.04582001494871024,0.0,0.0,0.0,-0.8653825308341062,-0.8610276933618172,-1.3580675190058287,-0.010523518266590391,-0.01139288887889059,-0.13283279192957587
4583,2.0,299.67762999999997,10083.33,0.0,0.0,-0.04582998645980674,0.0,0.0,0.0,-0.8519502288959412,-0.8675405306320843,-1.3455898506493786,-0.008281820970602092,0.002008804597603578,-0.0961304283350846
4584,2.0,299.49543,9867.4355,0.0,0.0,-0.04583999088018109,0.0,0.0,0.0,-0.8390971412449402,-0.8437676973158883,-1.3165892142372386,-0.0015372815708178786,-0.0003469319807720207,-0.1075992370042179
4585,2.0,299.57523,9950.9395,0.0,0.0,-0.04584999530055511,0.0,0.0,0.0,-0.8287162521154262,-0.8451181165191641,-1.3510027340085886,0.004352876833345496,0.0054473361930852246,-0.08230596415771621
4586,2.0,299.96249,10307.063,0.0,0.0,-0.045859999720929245,0.0,0.0,0.0,-0.8728305371516673,-0.8811972877324011,-1.3790619597528186,0.0027639057272262576,-0.006147189557030374,-0.11300996214071489
4587,2.0,300.03302,10331.937,0.0,0.0,-0.04587000414130338,0.0,0.0,0.0,-0.881586679745831,-0.8631943969781543,-1.3958697524116186,0.014492836367331587,0.013357762194558488,-0.09474488177734182
4588,2.0,300.25535,9925.9172,0.0,0.0,-0.04588000856167762,0.0,0.0,0.0,-0.8463782754035323,-0.8344667706729582,-1.3363858920410185,0.008476895730204471,0.0025677799232951474,-0.1145594545911379
4589,2.0,300.61431,9882.5041,0.0,0.0,-0.045890012982051864,0.0,0.0,0.0,-0.8392493922049662,-0.8350174417048053,-1.3297676463628487,-0.018217047242382583,0.006849548587147813,-0.1135448366035029
4590,2.0,300.39333999999997,10178.796,0.0,0.0,-0.04589998449314847,0.0,0.0,0.0,-0.8858579950123773,-0.8483478106829102,-1.3598940036360885,-0.01938397293204918,-0.012722085558822089,-0.1067008185380509
4591,2.0,300.4022,10307.304,0.0,0.0,-0.045909988913522604,0.0,0.0,0.0,-0.8799752675817971,-0.8769025461235432,-1.3762853505037886,-0.024431729591223975,0.004413000865129276,-0.1023128984499969
4592,2.0,299.70499,10084.857,0.0,0.0,-0.045919993333896736,0.0,0.0,0.0,-0.8467058996908662,-0.8679187971594161,-1.3509200528004286,0.007915410887990233,0.005874090588052604,-0.1099471705334409
4593,2.0,299.51315,9974.7887,0.0,0.0,-0.04592999775427087,0.0,0.0,0.0,-0.8418605478451672,-0.8457582474023402,-1.3444678788136486,-0.0005001785603462805,0.000980167889535039,-0.09932697706155941
4594,2.0,299.79767000000004,10218.619,0.0,0.0,-0.045940002174645,0.0,0.0,0.0,-0.8681429280815363,-0.8797405076661282,-1.3583217434559185,-0.005651581575367675,-0.013375151592774685,-0.1228308380724599
4595,2.0,299.74944,10414.266,0.0,0.0,-0.045950006595019244,0.0,0.0,0.0,-0.9120320385480541,-0.8710678163502001,-1.3825769243497186,-0.005936058836343395,0.0036017440977394667,-0.09093758439409082
4596,2.0,299.63895,10160.093,0.0,0.0,-0.045960011015393376,0.0,0.0,0.0,-0.8602211158847142,-0.8742114653154542,-1.3539818919526088,0.003527819396943666,-0.0012162154434311187,-0.1068971560099279
4597,2.0,300.22938,9859.4816,0.0,0.0,-0.04597001543576751,0.0,0.0,0.0,-0.8206772474120383,-0.8262742991094242,-1.3500847294179885,0.006818402393648924,0.003233723352768647,-0.08473985169292222
4598,2.0,299.88838,9864.4842,0.0,0.0,-0.045979986946864226,0.0,0.0,0.0,-0.8107275468625793,-0.8307474740608922,-1.3570818293085487,-0.0020633389338856984,-0.004339764566451416,-0.11491685829891089
4599,2.0,299.64867000000004,10203.771999999999,0.0,0.0,-0.04598999136723836,0.0,0.0,0.0,-0.8684530738046451,-0.8712028319260252,-1.3620361156724987,-0.008231796002565012,0.0074474118437273225,-0.1021691385258089
4600,2.0,300.13282000000004,10353.383,0.0,0.0,-0.04599999578761249,0.0,0.0,0.0,-0.8877083518149932,-0.8770382811069392,-1.3824231129845386,-0.01150990305343899,-0.002330830374160048,-0.12349536801804388
4601,2.0,299.67822,10047.059000000001,0.0,0.0,-0.04601000020798662,0.0,0.0,0.0,-0.8677694136971731,-0.8505276156230401,-1.335758082279059,-0.016895134817419985,0.00018304377242001383,-0.11600281922608689
4602,2.0,299.45994,9996.4467,0.0,0.0,-0.04602000462836087,0.0,0.0,0.0,-0.8423481035282853,-0.8624355942432661,-1.3338865080193487,0.00922578219166381,-0.006064136790058704,-0.1142538482284769
4603,2.0,299.71961,10281.456,0.0,0.0,-0.046030009048735,0.0,0.0,0.0,-0.8654650803197531,-0.8616376901870191,-1.3982030647418988,0.0036870665449351366,0.005190664237378675,-0.0971321020526921
4604,2.0,299.96329,10344.407,0.0,0.0,-0.04604001346910913,0.0,0.0,0.0,-0.8653180172002392,-0.883913790985499,-1.3952095186464588,0.015404115003767786,0.001065309674237879,-0.09027475873517501
4605,2.0,300.00399,10174.688,0.0,0.0,-0.04604998498020563,0.0,0.0,0.0,-0.8596702827328512,-0.8567630959434342,-1.3764176809668487,-0.004842582633175695,-0.015892295862197484,-0.096927272531727
4606,2.0,300.56914,10015.315,0.0,0.0,-0.04605998940057998,0.0,0.0,0.0,-0.8596160029249942,-0.8296790930229512,-1.3551106525640089,0.0020939961328863277,0.0008965034032129972,-0.08630371506951351
4607,2.0,300.00191,10038.171,0.0,0.0,-0.046069993820954114,0.0,0.0,0.0,-0.8802142730153851,-0.8493183117611911,-1.3218207258285486,-0.01126826924909159,0.005618659357093505,-0.11864132248648689
4608,2.0,300.37953,10281.696,0.0,0.0,-0.046079998241328246,0.0,0.0,0.0,-0.8816782775548712,-0.8602306809656581,-1.3834700029878586,-0.0014623833393259988,0.0017576455330411082,-0.1123847564315119
4609,2.0,300.637,10348.505,0.0,0.0,-0.04609000266170227,0.0,0.0,0.0,-0.8807062667339413,-0.8720813805577311,-1.3928993084184589,-0.014429727098103185,-0.012346395726494387,-0.11655240608032688
4610,2.0,300.058,10156.345,0.0,0.0,-0.0461000070820764,0.0,0.0,0.0,-0.8393651357638893,-0.8632388685250432,-1.3846712109814088,-0.0002610318087668337,-0.007462230119814773,-0.11335597691736389
4611,2.0,299.6196,10065.372,0.0,0.0,-0.046110011502450754,0.0,0.0,0.0,-0.8513231689390552,-0.8501440194001821,-1.3581546585144288,0.015838149803353685,0.008732794880059751,-0.11880366541750889
4612,2.0,299.40974,10248.175,0.0,0.0,-0.046120015922824886,0.0,0.0,0.0,-0.8721109370631481,-0.8768519950760542,-1.3662265127860589,-0.0097578782213526,0.005738545589050355,-0.12695897096737488
4613,2.0,298.92536,10344.273000000001,0.0,0.0,-0.04612998743392138,0.0,0.0,0.0,-0.89642156300242,-0.8680133232612451,-1.379965880167029,-0.021570751059367378,-0.0033232469375289366,-0.10057189666442341
4614,2.0,299.30014,10179.716999999999,0.0,0.0,-0.046139991854295515,0.0,0.0,0.0,-0.8438499022965013,-0.8768873777695462,-1.3736424902679587,-0.03057534257805137,-0.01058760633541539,-0.10918600692581988
4615,2.0,298.98838,9967.6114,0.0,0.0,-0.04614999627466987,0.0,0.0,0.0,-0.8216584180138723,-0.8508318946280702,-1.3574146819663986,0.015104062264904884,0.005655342151788814,-0.09228967242028151
4616,2.0,299.52172,10040.654,0.0,0.0,-0.04616000069504389,0.0,0.0,0.0,-0.8195638071421503,-0.8513261276293472,-1.3812183586156386,0.014546777749655185,-0.009209541819061012,-0.096782935054982
4617,2.0,300.13402,10173.635,0.0,0.0,-0.04617000511541802,0.0,0.0,0.0,-0.8637196658299942,-0.8685555539197592,-1.3602557339217884,0.009350386318736283,-0.02144052309026488,-0.1023111961898289
4618,2.0,300.03862000000004,10353.179,0.0,0.0,-0.046180009535792155,0.0,0.0,0.0,-0.9042695599294571,-0.8695453067499401,-1.3732929189834588,-0.0003236219595715007,-0.0028504185406394073,-0.1177065182092289
4619,2.0,299.63924,10300.356,0.0,0.0,-0.0461900139561664,0.0,0.0,0.0,-0.9036507174308821,-0.8730604435993571,-1.3543397718879286,0.004235235862285236,0.016746898354290184,-0.13308739128220287
4620,2.0,300.50497,10135.595,0.0,0.0,-0.046199985467263005,0.0,0.0,0.0,-0.8527024252401771,-0.8729066524991791,-1.3553586961884885,0.00968997891360146,0.011118314313792189,-0.13385521194298086
4621,2.0,300.81206000000003,10219.292,0.0,0.0,-0.04620998988763725,0.0,0.0,0.0,-0.8626883190832082,-0.8517051135642503,-1.3920162609563087,-0.016131396541294883,-0.01804617071901838,-0.10914296406157191
4622,2.0,300.48117,10348.027,0.0,0.0,-0.04621999430801138,0.0,0.0,0.0,-0.8830989757850832,-0.8631794718041812,-1.3992633296465384,-0.02108847643577058,-0.009004144574064881,-0.07588760435327344
4623,2.0,300.14209,10203.242,0.0,0.0,-0.04622999872838551,0.0,0.0,0.0,-0.8804686494529902,-0.8581176998696232,-1.3629444943871487,-0.007773340051718932,0.002150685145506098,-0.08359622670255522
4624,2.0,300.44635,9971.385,0.0,0.0,-0.046240003148759645,0.0,0.0,0.0,-0.8517021042114531,-0.8330704613726533,-1.3462794686674386,0.008151383866678952,0.01241502416901749,-0.07862844688702351
4625,2.0,299.66247999999996,10173.157,0.0,0.0,-0.04625000756913378,0.0,0.0,0.0,-0.8644158598412032,-0.8772894455417272,-1.3506805204767884,-0.0020815486593828577,-0.012642055012923687,-0.0935206557812701
4626,2.0,299.61292000000003,10417.413,0.0,0.0,-0.04626001198950802,0.0,0.0,0.0,-0.8822636220051402,-0.8818433765261651,-1.4025262989435687,0.0029594480004247773,-0.006280801578816854,-0.09091765984412442
4627,2.0,299.40214,10254.527,0.0,0.0,-0.04627001640988215,0.0,0.0,0.0,-0.8667232734989271,-0.8900860343671522,-1.3603108547272287,0.01159842666167559,0.025059384325918678,-0.1136046082269019
4628,2.0,299.27766,10076.291,0.0,0.0,-0.04627998792097887,0.0,0.0,0.0,-0.8426807434036143,-0.8620837532785423,-1.3581763420665687,0.000982459040528658,0.0009150741497207871,-0.1141898513521609
4629,2.0,299.96077,10080.836,0.0,0.0,-0.046289992341353,0.0,0.0,0.0,-0.8623201951893772,-0.8544619745688312,-1.3475403570918787,0.002933581751871977,-0.02108875913254848,-0.11510789647276488
4630,2.0,300.19422000000003,10109.369,0.0,0.0,-0.046299996761727136,0.0,0.0,0.0,-0.8671846467994612,-0.8631733619060783,-1.3426376451580186,-0.022377241396961775,-0.017266559880076783,-0.12384605387765388
4631,2.0,300.19219,10169.681,0.0,0.0,-0.04631000118210127,0.0,0.0,0.0,-0.8737867311385361,-0.8528252615498002,-1.3647169727870787,0.008800132340630441,0.004269945149760776,-0.12836441978358187
4632,2.0,299.94751,10219.515,0.0,0.0,-0.04632000560247529,0.0,0.0,0.0,-0.8546167890516101,-0.8683711322690582,-1.3834894573897787,-0.007416372041488933,0.013547389924273288,-0.11775592428410489
4633,2.0,299.80321000000004,10131.586,0.0,0.0,-0.046330010022849644,0.0,0.0,0.0,-0.8518877012322702,-0.8596680130526272,-1.3681935352051886,0.0012225054974018988,-0.0038060705400299166,-0.1052283938902339
4634,2.0,299.79027,10238.991,0.0,0.0,-0.046340014443223776,0.0,0.0,0.0,-0.8539075849091172,-0.8553546175094282,-1.4031353635786787,0.014229364996828985,-0.003116520207076597,-0.07874401718017943
4635,2.0,299.83707999999996,10459.198,0.0,0.0,-0.04634998595432027,0.0,0.0,0.0,-0.9051902901628261,-0.8905254606705202,-1.3836192547275885,0.0024734511012606177,0.02188209343084448,-0.08832777029702223
4636,2.0,300.42757,10326.616,0.0,0.0,-0.046359990374694404,0.0,0.0,0.0,-0.8725598980499573,-0.8781903870006431,-1.3882831436128786,-0.012188759342186887,0.014658026531134587,-0.08851777191602392
4637,2.0,300.34689,10131.776,0.0,0.0,-0.04636999479506876,0.0,0.0,0.0,-0.8523475850551571,-0.871553497520633,-1.3559057499174787,-0.023261825959513475,-0.014813341559462987,-0.11313406501296289
4638,2.0,300.61688,10288.313,0.0,0.0,-0.04637999921544289,0.0,0.0,0.0,-0.8674450824726642,-0.8869646971691001,-1.3729805339776289,0.0005260198728141196,0.008492489547918461,-0.10825284411372389
4639,2.0,300.44031,10371.738000000001,0.0,0.0,-0.04639000363581702,0.0,0.0,0.0,-0.8973083493574392,-0.8718608669384682,-1.3835801432737287,0.022043988505322278,0.0023532083065935776,-0.11847482523005488
4640,2.0,301.04264,10277.190999999999,0.0,0.0,-0.046400008056191044,0.0,0.0,0.0,-0.8699618943960541,-0.870952478091317,-1.3830948978008386,0.027055985541967875,-0.006475386634645904,-0.1106792842606949
4641,2.0,299.81647000000004,10231.639000000001,0.0,0.0,-0.04641001247656518,0.0,0.0,0.0,-0.8874371858232313,-0.8523076427362152,-1.3704180244747286,-0.006588167348951494,-0.03298499519736557,-0.10433947971000491
4642,2.0,299.69975,10221.955,0.0,0.0,-0.046419983987661895,0.0,0.0,0.0,-0.8676200201024292,-0.8411438963144392,-1.3984552626917885,0.013049165730852387,-0.018603145179737483,-0.0997917569089296
4643,2.0,299.68336,10259.063,0.0,0.0,-0.04642998840803603,0.0,0.0,0.0,-0.8709847399745011,-0.8702183581288652,-1.377295966153529,-0.003245688417899507,0.014098002187614487,-0.11965841280436589
4644,2.0,299.98917,10350.505,0.0,0.0,-0.04643999282841016,0.0,0.0,0.0,-0.8715993774851611,-0.8688024424391252,-1.4058931263758485,-0.019818694715202877,0.011664698284466089,-0.1080330195045289
4645,2.0,299.86302,10306.834,0.0,0.0,-0.0464499972487844,0.0,0.0,0.0,-0.8788950517826881,-0.8783150674254483,-1.3758101362068886,-0.024677514681231076,-0.007436198306195634,-0.1075258270344729
4646,2.0,300.34295,10280.98,0.0,0.0,-0.046460001669158646,0.0,0.0,0.0,-0.8555287850691172,-0.8894826338001012,-1.3801497850601787,-0.008035065997599273,0.013072862610941089,-0.10123442037480941
4647,2.0,300.29443,10243.312,0.0,0.0,-0.04647000608953267,0.0,0.0,0.0,-0.8771914541245562,-0.8626734141742373,-1.3738463561880787,0.016593997900950085,0.018858895584478085,-0.1017601705204469
4648,2.0,300.03006,10318.558,0.0,0.0,-0.0464800105099068,0.0,0.0,0.0,-0.8563328192884692,-0.8977914771376201,-1.3824597926381588,0.007584567099788492,0.004926443973727165,-0.11448499084128888
4649,2.0,300.53182000000004,10332.239,0.0,0.0,-0.04649001493028093,0.0,0.0,0.0,-0.8729139884299032,-0.8765098306497852,-1.3913187395874687,0.00943595478305623,-0.01089751597125109,-0.1031186247970159
4650,2.0,300.40387999999996,10243.72,0.0,0.0,-0.04649998644137765,0.0,0.0,0.0,-0.8544977828273652,-0.8716525123204052,-1.3876848194288287,0.008888162800043372,0.0047619323835161355,-0.10902087755702289
4651,2.0,300.85544,10339.094000000001,0.0,0.0,-0.04650999086175178,0.0,0.0,0.0,-0.8921402165598841,-0.8647257319867852,-1.3859604704086486,0.020718275379234583,0.025749783559805773,-0.1046610650267429
4652,2.0,300.71305,10332.276,0.0,0.0,-0.046519995282126025,0.0,0.0,0.0,-0.9021601252087722,-0.8470048793978732,-1.3915889733891385,-0.008154963577957242,0.012031855537701688,-0.0984848010686931
4653,2.0,300.38501,10238.296,0.0,0.0,-0.04652999970250016,0.0,0.0,0.0,-0.8921120684721061,-0.8561534942857711,-1.3639209635085185,-0.016690825093756183,-0.017928959973950585,-0.09550757235286352
4654,2.0,300.24164,10361.478000000001,0.0,0.0,-0.04654000412287429,0.0,0.0,0.0,-0.8796697422791443,-0.8729124280247492,-1.3970483649279386,-0.018820485299687283,0.0022663311284444676,-0.09910634489203472
4655,2.0,299.76752,10287.208,0.0,0.0,-0.04655000854324842,0.0,0.0,0.0,-0.8736251988075941,-0.8673567473289463,-1.3860723332196887,0.015853873418405485,0.009878704242777201,-0.1013625610487059
4656,2.0,299.71704,10166.504,0.0,0.0,-0.046560012963622555,0.0,0.0,0.0,-0.8494162119858532,-0.873849805957261,-1.3670972999219988,0.006363815234334665,0.0023108031819585174,-0.11647045441223888
4657,2.0,300.17377,10255.704,0.0,0.0,-0.04656998447471905,0.0,0.0,0.0,-0.8771367284866551,-0.8709963619531481,-1.3693449926188286,0.015363859590544886,-0.017845551252218782,-0.1036307619275599
4658,2.0,299.79483,10245.371,0.0,0.0,-0.046579988895093294,0.0,0.0,0.0,-0.8841641650852092,-0.8701926722388301,-1.3599801298945886,-0.009086697099462181,-0.0022918566209886382,-0.10530515771780989
4659,2.0,299.6091,10259.913,0.0,0.0,-0.04658999331546765,0.0,0.0,0.0,-0.8796547968401691,-0.8747785104689171,-1.3643239330732886,-0.014064359244544185,0.008763534861593552,-0.10638568762444989
4660,2.0,299.87254,10334.345,0.0,0.0,-0.04659999773584178,0.0,0.0,0.0,-0.8806132503747611,-0.8704116761154441,-1.3903579758426485,-0.019357891874475182,-0.011236810873236889,-0.1185074518832749
4661,2.0,299.5744,10344.865,0.0,0.0,-0.04661000215621591,0.0,0.0,0.0,-0.8796829854579512,-0.876937037156947,-1.3879605247810387,-0.0031224300896098567,-0.011750146678649188,-0.10952495934927191
4662,2.0,299.80715,10247.629,0.0,0.0,-0.046620006576590045,0.0,0.0,0.0,-0.8563048535857092,-0.8695155678595052,-1.3892027694036386,0.0021835319779728276,0.006288206207897634,-0.1315689245498419
4663,2.0,300.69121,10368.924,0.0,0.0,-0.046630010996964066,0.0,0.0,0.0,-0.8843506638986152,-0.8758853848781571,-1.3916577730709287,0.017734005588460083,0.007845659359056293,-0.1067087218888309
4664,2.0,300.19189,10336.578000000001,0.0,0.0,-0.04664001541733842,0.0,0.0,0.0,-0.8938842124995031,-0.8656565035286452,-1.3825207902941787,0.0005726218692308784,-0.014813706329498987,-0.12099167768344889
4665,2.0,300.67078,10256.925,0.0,0.0,-0.04664998692843492,0.0,0.0,0.0,-0.8855732109392712,-0.8527332381757182,-1.3795425442752487,0.007687047518877524,-0.015062140055267485,-0.08399347039101011
4666,2.0,300.45757000000003,10295.791,0.0,0.0,-0.04665999134880905,0.0,0.0,0.0,-0.8594065033343181,-0.8815303531727722,-1.3887266431816487,0.009698861975903151,-0.0009467545793349022,-0.11517470005185788
4667,2.0,300.02941,10427.206,0.0,0.0,-0.04666999576918318,0.0,0.0,0.0,-0.8804818419692921,-0.8938413824177762,-1.3952871336041186,-0.0006864887268486623,0.01127173152468329,-0.08053460641239683
4668,2.0,300.00492,10420.178,0.0,0.0,-0.046680000189557536,0.0,0.0,0.0,-0.8713978217752691,-0.8865160806873251,-1.4095600784877487,-0.022647402244624578,-0.010894692043222388,-0.10814716212829391
4669,2.0,299.95431,10387.894,0.0,0.0,-0.04669000460993167,0.0,0.0,0.0,-0.8931286622974363,-0.8624351788107252,-1.4020966809011688,-0.005122031640530165,-0.009529556800794032,-0.08268772741114332
4670,2.0,299.64606000000003,10380.71,0.0,0.0,-0.0467000090303058,0.0,0.0,0.0,-0.9003039422180811,-0.8582231792050331,-1.3969494717181787,0.0067865776265580635,0.008340408611259242,-0.0932338604067156
4671,2.0,299.92251,10332.603000000001,0.0,0.0,-0.04671001345067982,0.0,0.0,0.0,-0.8909711792570091,-0.8627142076232631,-1.3871678592278087,0.01014559725754249,0.009180385547433511,-0.09912287606741621
4672,2.0,299.89807,10349.664,0.0,0.0,-0.04671998496177654,0.0,0.0,0.0,-0.8721046751775302,-0.8594549569541001,-1.4144799143482987,-0.004007837715217786,-0.011209417656783389,-0.1118968157133559
4673,2.0,299.7256,10422.68,0.0,0.0,-0.04672998938215067,0.0,0.0,0.0,-0.8859719856486272,-0.8647870741478392,-1.4174754869439385,-0.0005373775755700375,-0.010573537357776889,-0.11808153220373989
4674,2.0,300.10483999999997,10359.583,0.0,0.0,-0.046739993802524804,0.0,0.0,0.0,-0.8725267141091821,-0.8721029729173623,-1.4044248256559386,0.015910802875273983,0.01152806353498129,-0.11304581092925291
4675,2.0,299.92632000000003,10195.722,0.0,0.0,-0.046749998222898936,0.0,0.0,0.0,-0.8636889136894592,-0.8592211089635211,-1.3763347971086688,-0.0015867438810744285,0.0034937838194596164,-0.11922263420135788
4676,2.0,300.46307,10326.545,0.0,0.0,-0.04676000264327318,0.0,0.0,0.0,-0.8686107152552032,-0.8828812080735913,-1.3875198623125486,-0.02031383761506968,-0.02334731285720038,-0.09585317271022159
4677,2.0,300.54368,10446.726,0.0,0.0,-0.04677000706364742,0.0,0.0,0.0,-0.8912464894416803,-0.8892944631240302,-1.3950027143010486,-0.024255016747283777,-0.019739799009416484,-0.09444499419824522
4678,2.0,300.30725,10365.409,0.0,0.0,-0.046780011484021444,0.0,0.0,0.0,-0.8618371180717013,-0.8862606909996202,-1.4027275304134288,0.012326861277816488,0.00976707680973543,-0.1083481605506309
4679,2.0,300.04082,10392.73,0.0,0.0,-0.04679001590439558,0.0,0.0,0.0,-0.8736048020830811,-0.8886219791651612,-1.3969035714886486,0.01277222624002059,0.02253053904434108,-0.1095956335437469
4680,2.0,300.232,10422.853000000001,0.0,0.0,-0.046799987415492295,0.0,0.0,0.0,-0.8711800540637772,-0.8841641853502111,-1.4129429152716086,-0.000924449428656055,0.006329162182239675,-0.11213971202732789
4681,2.0,299.87801,10337.128,0.0,0.0,-0.04680999183586643,0.0,0.0,0.0,-0.898052885530919,-0.8649393251078651,-1.3792365427450486,-0.012304319502841788,0.004527814361785485,-0.09924626865134409
4682,2.0,299.45083,10363.408000000001,0.0,0.0,-0.04681999625624056,0.0,0.0,0.0,-0.8854295928700971,-0.8744284730893712,-1.3903592930677786,-0.0025327645329643977,0.0051028250795846245,-0.1186784479701509
4683,2.0,299.54449,10415.876,0.0,0.0,-0.0468300006766148,0.0,0.0,0.0,-0.9073441761653981,-0.8648772331417373,-1.3939448811966488,6.923366998008123e-05,0.009268500106604741,-0.09765444767799361
4684,2.0,299.8048,10341.009,0.0,0.0,-0.046840005096988935,0.0,0.0,0.0,-0.8625811678851332,-0.891857246204457,-1.3889701271806787,0.0016761577308488883,-0.012551776455513886,-0.1219405762695979
4685,2.0,300.38492,10365.93,0.0,0.0,-0.04685000951736307,0.0,0.0,0.0,-0.8824104216796282,-0.8703797992672982,-1.3981936415159686,-0.0015391653040787885,-0.003189100730289737,-0.0974398443465639
4686,2.0,300.02167000000003,10436.804,0.0,0.0,-0.0468600139377372,0.0,0.0,0.0,-0.88145616300045,-0.8919564129917441,-1.3991152938069287,0.001030872140439159,-0.001063059752390829,-0.1080035339266189
4687,2.0,300.45102,10406.644,0.0,0.0,-0.04686998544883392,0.0,0.0,0.0,-0.909818776089622,-0.8780062085299661,-1.3755350388047385,0.012977961606575088,0.014953035310999686,-0.08230115831249192
4688,2.0,300.2406,10356.907,0.0,0.0,-0.04687998986920783,0.0,0.0,0.0,-0.8779620206931052,-0.8842033677315781,-1.3860757782700288,0.0035047850810953564,-0.006120891562609964,-0.09865188702343322
4689,2.0,300.63946,10442.408000000001,0.0,0.0,-0.04688999428958207,0.0,0.0,0.0,-0.8970556549150001,-0.8918858806522831,-1.3852896988424488,0.0005765802118065364,0.00046755733814681655,-0.1021092453123979
4690,2.0,300.26476,10406.976999999999,0.0,0.0,-0.046899998709956425,0.0,0.0,0.0,-0.8834814473003302,-0.8743798370845712,-1.4055997904718986,-0.014887079822240384,0.004178790434989506,-0.1210648951356749
4691,2.0,299.379,10287.576,0.0,0.0,-0.04691000313033056,0.0,0.0,0.0,-0.8669281222716443,-0.8794920283441051,-1.3807459814190186,-2.7723768020372873e-05,0.0026786966627167777,-0.14067784029882185
4692,2.0,299.53918,10256.625,0.0,0.0,-0.04692000755070469,0.0,0.0,0.0,-0.8700152318813182,-0.8677456529823283,-1.3799968856200886,3.208492412028547e-05,-0.005438612413699254,-0.13965288716016686
4693,2.0,300.32922,10272.063,0.0,0.0,-0.04693001197107882,0.0,0.0,0.0,-0.8842521050613882,-0.8629168779082652,-1.3752815236297187,0.008455926722034993,-0.0008221079261557351,-0.11274068079413889
4694,2.0,299.95038999999997,10151.76,0.0,0.0,-0.04694001639145284,0.0,0.0,0.0,-0.8562629354290723,-0.8661140974063062,-1.3635046190424287,0.008576210857306112,-0.008654953055702363,-0.1126757719927329
4695,2.0,299.9123,10365.579,0.0,0.0,-0.04694998790254967,0.0,0.0,0.0,-0.8781531601919692,-0.8768380527546781,-1.3958859644132187,-0.0016345652327940286,-0.001034616707508719,-0.09826351839260421
4696,2.0,300.39387,10520.83,0.0,0.0,-0.046959992322923694,0.0,0.0,0.0,-0.8918263522089082,-0.8872391764886892,-1.4190041773698088,0.009826806180605262,-0.01146720570747509,-0.1069929284093799
4697,2.0,300.37792,10457.946,0.0,0.0,-0.046969996743297826,0.0,0.0,0.0,-0.8744589009898741,-0.9040142513017602,-1.4004812562667386,0.01173359625151579,0.0016768762264947983,-0.1075772393445469
4698,2.0,300.30554,10471.453000000001,0.0,0.0,-0.04698000116367196,0.0,0.0,0.0,-0.8908481301648652,-0.8857932584634882,-1.4064190031777486,-0.009435530433914352,0.0016940533488150483,-0.11669558845195789
4699,2.0,300.22367,10559.784,0.0,0.0,-0.04699000558404631,0.0,0.0,0.0,-0.9349027145052142,-0.8932563419425372,-1.3817515308182589,-0.018354868507734483,0.003620389723429647,-0.08849083972836591
4700,2.0,299.76887999999997,10370.034,0.0,0.0,-0.047000010004420445,0.0,0.0,0.0,-0.8793390579765082,-0.8759094900980362,-1.3969828076464685,-0.015583519039973586,-0.003899070991183346,-0.1042390159625899
4701,2.0,300.15853,10257.558,0.0,0.0,-0.04701001442479458,0.0,0.0,0.0,-0.8779331734627582,-0.8496364216300862,-1.3904718651538885,0.01059303127645079,0.009473072059394422,-0.08921354137544102
4702,2.0,299.77411,10339.996,0.0,0.0,-0.04701998593589107,0.0,0.0,0.0,-0.8516734191011223,-0.8857872296253931,-1.4056399151758587,0.025650076710215474,0.00016220280866567085,-0.12252834238760589
4703,2.0,300.55289,10368.699,0.0,0.0,-0.04702999035626532,0.0,0.0,0.0,-0.8856416458510252,-0.8533339941600081,-1.4128498989124287,0.005622679224215234,0.0015626986456013486,-0.1058070610223439
4704,2.0,300.36611,10409.426,0.0,0.0,-0.04703999477663945,0.0,0.0,0.0,-0.8812256992652051,-0.8861134657600901,-1.3968662838849686,0.003378870315018537,-0.014954332271127687,-0.12590397496325487
4705,2.0,300.1557,10562.651000000002,0.0,0.0,-0.04704999919701358,0.0,0.0,0.0,-0.9138405987840451,-0.887665238023238,-1.4092762671347385,-0.003629804742033837,0.01081002587811649,-0.09564258488893822
4706,2.0,299.85433,10587.831,0.0,0.0,-0.04706000361738771,0.0,0.0,0.0,-0.8904564076762052,-0.8930349670606891,-1.4349447292680186,-0.0028015967057710674,0.0022958968544373776,-0.08806306174814751
4707,2.0,300.46448,10454.299,0.0,0.0,-0.04707000803776196,0.0,0.0,0.0,-0.8823464248033122,-0.8950925031112521,-1.4004069850344087,-0.017042955848008787,-0.002117152342721668,-0.11093104651304189
4708,2.0,300.09989,10480.567,0.0,0.0,-0.0470800124581362,0.0,0.0,0.0,-0.8765443115506882,-0.8919440006780192,-1.4173423458807985,-0.01015872188608779,0.006782223184253313,-0.0999372190932856
4709,2.0,300.06132,10528.64,0.0,0.0,-0.047089983969232696,0.0,0.0,0.0,-0.8934023512819471,-0.9005804581703712,-1.4064607490818686,0.0017161635805721582,0.00042031735893709356,-0.12134492706581189
4710,2.0,299.81388,10339.791,0.0,0.0,-0.04709998838960694,0.0,0.0,0.0,-0.879072684657719,-0.8913256040094881,-1.3726400819440288,0.016509016615063085,0.0035271546035530563,-0.1155856438949149
4711,2.0,300.6708,10312.341999999999,0.0,0.0,-0.04710999280998107,0.0,0.0,0.0,-0.8829420841395991,-0.8690229357933862,-1.3827296211397886,-0.007126308124761853,0.0031497731501834068,-0.11783876761228089
4712,2.0,300.94272,10401.373,0.0,0.0,-0.047119997230355204,0.0,0.0,0.0,-0.8919505260086632,-0.8702697299089351,-1.3995373124735786,-0.005806171521924515,0.002843447481276417,-0.0957623216665053
4713,2.0,300.86565,10362.556,0.0,0.0,-0.047130001650729336,0.0,0.0,0.0,-0.8795288295877373,-0.8657820249510332,-1.4046473353778988,-0.017926816949989082,0.020051746291203282,-0.10708394866586289
4714,2.0,299.96768,10445.958,0.0,0.0,-0.04714000607110358,0.0,0.0,0.0,-0.8767258251736022,-0.8720537796250072,-1.4265307004376184,-0.003950428383101927,0.004454756091150196,-0.10598607191751089
4715,2.0,300.09943,10680.979,0.0,0.0,-0.04715001049147771,0.0,0.0,0.0,-0.918540488445388,-0.9079570100908803,-1.4202534134180986,0.002954938024229677,-0.014883870859173686,-0.1101479156432529
4716,2.0,300.47156,10609.011,0.0,0.0,-0.047160014911851844,0.0,0.0,0.0,-0.9166661682779071,-0.8856890152932002,-1.4225191419667087,-0.004400903469535355,-0.02042519177455948,-0.11737685728919389
4717,2.0,299.8352,10431.615,0.0,0.0,-0.04716998642294856,0.0,0.0,0.0,-0.8879198373758652,-0.8929718719769622,-1.3900588644131286,0.0059930261887656345,-0.007978819268648152,-0.1095367130504319
4718,2.0,299.18546000000003,10479.218,0.0,0.0,-0.047179990843322694,0.0,0.0,0.0,-0.8882317461541481,-0.8929901611412672,-1.4041985669086088,0.006537465327197593,-0.0016724848005613983,-0.1024999342859559
4719,2.0,300.35287,10506.695,0.0,0.0,-0.047189995263696605,0.0,0.0,0.0,-0.9013133521002021,-0.8869337119810422,-1.4055259245396088,0.0018599357650863682,0.012601685102439487,-0.08275682701496292
4720,2.0,300.10457,10366.648000000001,0.0,0.0,-0.04719999968407085,0.0,0.0,0.0,-0.8724495753790691,-0.8953995786865582,-1.3833528712762986,0.013883796050223987,0.0057810421088444345,-0.1241663321017629
4721,2.0,300.34803,10363.916,0.0,0.0,-0.0472100041044452,0.0,0.0,0.0,-0.8985578387182542,-0.8732563149761882,-1.3785576651780487,-0.00983128535399732,0.016286199878322784,-0.1149019128599359
4722,2.0,300.61936000000003,10490.284,0.0,0.0,-0.047220008524819335,0.0,0.0,0.0,-0.8858072109173651,-0.8991261909643461,-1.4038508194742885,-0.005682718852265684,0.005196561251635664,-0.12635008871728287
4723,2.0,301.2679,10535.766000000001,0.0,0.0,-0.04723001294519347,0.0,0.0,0.0,-0.8922085704116302,-0.8990187864537462,-1.4113824087925986,-0.012847332390432988,-0.023629066299257276,-0.1121805764038609
4724,2.0,300.98679,10548.45,0.0,0.0,-0.04723998445628996,0.0,0.0,0.0,-0.8903848722191452,-0.8863388328473322,-1.4297417913295287,0.006650623983790484,-0.0018780454827986583,-0.09721129464075781
4725,2.0,300.61884,10439.196,0.0,0.0,-0.04724998887666432,0.0,0.0,0.0,-0.8785526745738982,-0.8851122024087731,-1.4095898680406886,0.004215481943635677,0.0037408008189382964,-0.09510150933553821
4726,2.0,299.96697,10323.796,0.0,0.0,-0.04725999329703845,0.0,0.0,0.0,-0.8636633493894361,-0.8872210089143963,-1.3872917797150386,-0.0045802607949115455,-0.0009605981898861601,-0.10469611334770189
4727,2.0,300.43063,10501.338,0.0,0.0,-0.04726999771741247,0.0,0.0,0.0,-0.8973022293268351,-0.9014725640884151,-1.3933697604398887,-0.014195765623512987,-0.012351369771235288,-0.1121767767159859
4728,2.0,300.41607999999997,10618.718,0.0,0.0,-0.0472800021377866,0.0,0.0,0.0,-0.926710729301728,-0.8959973962455581,-1.4051169767992486,0.0007683455040647972,-0.02058449394203138,-0.12058515161082788
4729,2.0,300.49768,10549.518,0.0,0.0,-0.047290006558160735,0.0,0.0,0.0,-0.9089070232521391,-0.8943493956204132,-1.4035336721929885,0.013564432790955287,-0.002979983438876467,-0.1051581756583039
4730,2.0,299.68208,10393.219000000001,0.0,0.0,-0.04730001097853509,0.0,0.0,0.0,-0.8821960584884722,-0.8808303696061892,-1.3962525582993988,-0.012358252779164589,0.0038355330158376362,-0.11142514779180589
4731,2.0,299.85555,10516.743,0.0,0.0,-0.04731001539890922,0.0,0.0,0.0,-0.8992633951603872,-0.8842120411524342,-1.4133519643369787,-0.005503572586885324,0.004511209624446726,-0.08178041868859892
4732,2.0,299.98942999999997,10530.95,0.0,0.0,-0.04731998691000572,0.0,0.0,0.0,-0.8999272968909092,-0.8866595265039823,-1.4145588465310885,0.008526664244641241,0.006748960007320494,-0.1135439145459119
4733,2.0,300.05096000000003,10456.742,0.0,0.0,-0.04732999133037985,0.0,0.0,0.0,-0.896189782042045,-0.877089024671947,-1.4053097982932787,0.025146512688767577,0.017356448336198083,-0.10051170251573271
4734,2.0,299.67037999999997,10490.701000000001,0.0,0.0,-0.047339995750754094,0.0,0.0,0.0,-0.887506451600067,-0.8851217573572162,-1.4162828915762387,0.0020743076701932282,-0.0029351995069816375,-0.12670390551970187
4735,2.0,300.32248,10469.155999999999,0.0,0.0,-0.047350000171128226,0.0,0.0,0.0,-0.8938534198289643,-0.8759797691249722,-1.4125286986307286,-0.015011934526062585,-0.016702808802688884,-0.09736863110303572
4736,2.0,300.47411,10378.329,0.0,0.0,-0.04736000459150236,0.0,0.0,0.0,-0.8786857244445293,-0.8730102471894031,-1.4030567353709185,-0.006355416404255764,-0.00920887732964543,-0.11989767155047888
4737,2.0,300.51452,10543.758999999998,0.0,0.0,-0.04737000901187649,0.0,0.0,0.0,-0.9000313171461751,-0.880468325212958,-1.4245399679661486,0.014524200510926987,-0.004187058251830476,-0.08239785175628482
4738,2.0,300.43866,10600.901000000002,0.0,0.0,-0.047380013432250734,0.0,0.0,0.0,-0.9065195932340182,-0.8989085347103651,-1.4169809195701288,0.02370490604274208,0.009212424819570542,-0.1091021706125459
4739,2.0,300.67472000000004,10479.718,0.0,0.0,-0.04738998494334734,0.0,0.0,0.0,-0.9047782317446592,-0.8919042812740992,-1.3888901817477886,-0.007888953813304123,-0.005564074662281415,-0.1108280091103729
4740,2.0,300.23599,10541.143999999998,0.0,0.0,-0.047399989363721584,0.0,0.0,0.0,-0.9019749841505001,-0.9040299364133082,-1.3982397443955186,0.004125590042464036,0.01018131736331779,-0.12634402948168488
4741,2.0,300.03027000000003,10496.633999999998,0.0,0.0,-0.047409993784095716,0.0,0.0,0.0,-0.8927814417531681,-0.8818192105112802,-1.4161139827845688,0.004821896625759146,0.001969608740010248,-0.1083495689682699
4742,2.0,300.47469,10428.74,0.0,0.0,-0.04741999820446985,0.0,0.0,0.0,-0.8805148941875541,-0.8702082560253681,-1.4193532420292587,0.001204914766390829,-0.001103352757192439,-0.10653605393928989
4743,2.0,300.02187999999995,10506.481000000002,0.0,0.0,-0.04743000262484398,0.0,0.0,0.0,-0.8747002368986923,-0.8913637731407552,-1.4276439583224887,-0.004459344492903036,-0.012946526535472687,-0.1079989439036659
4744,2.0,299.95183,10582.08,0.0,0.0,-0.04744000704521811,0.0,0.0,0.0,-0.9113639318296171,-0.8834977403619382,-1.4218262815483287,-0.02282854603125208,0.008872674360339781,-0.10109072428537771
4745,2.0,299.61393,10497.412,0.0,0.0,-0.04745001146559236,0.0,0.0,0.0,-0.8966498482499502,-0.8842377067774673,-1.4100636637874486,-0.0034522081413564166,0.009746863382165521,-0.12306619580568788
4746,2.0,299.59873,10521.139,0.0,0.0,-0.04746001588596649,0.0,0.0,0.0,-0.8938079046344721,-0.8897793336943831,-1.4145763757578185,0.0014071060880705586,0.017445128998200183,-0.1084898635771159
4747,2.0,299.1383,10640.171999999999,0.0,0.0,-0.04746998739706321,0.0,0.0,0.0,-0.9129238202260661,-0.8992341932925051,-1.4221887211090987,0.016030447447081986,0.001066150063870819,-0.1130468343118539
4748,2.0,300.03327,10542.583999999999,0.0,0.0,-0.04747999181743734,0.0,0.0,0.0,-0.8974556961869812,-0.8952131710656611,-1.4120133596298685,0.002956784064586867,0.002504591012608888,-0.1062421911452879
4749,2.0,300.41562000000005,10389.315999999999,0.0,0.0,-0.04748999623781147,0.0,0.0,0.0,-0.8892893867410292,-0.8787449489128742,-1.3900582564630686,0.0019302445815753083,0.00045295175338785757,-0.1024304759916009
4750,2.0,300.78625,10545.948999999999,0.0,0.0,-0.04750000065818538,0.0,0.0,0.0,-0.9111503488410382,-0.8771838344838041,-1.4173710208586288,0.0006946642366055223,-0.007349046537269423,-0.08813035878003922
4751,2.0,300.7625,10759.098,0.0,0.0,-0.047510005078559625,0.0,0.0,0.0,-0.9274563699178172,-0.9101126186186222,-1.4329279562689787,0.004166019025429066,-0.011978258660412088,-0.10058205247017571
4752,2.0,300.50338999999997,10695.171999999999,0.0,0.0,-0.04752000949893398,0.0,0.0,0.0,-0.9014283863840551,-0.9081711706320161,-1.4414657029365885,9.353565188275011e-05,0.004556293883671196,-0.1086277466507239
4753,2.0,299.5733,10613.089,0.0,0.0,-0.04753001391930811,0.0,0.0,0.0,-0.8939845546569061,-0.8984595737235561,-1.4336697566671885,-0.009851975515739282,-0.005346115547845525,-0.1069278878854609
4754,2.0,300.10247000000004,10644.371000000001,0.0,0.0,-0.04753998543040461,0.0,0.0,0.0,-0.9001645696668261,-0.900495547811991,-1.4349627651197987,-0.0009876739348183279,-0.0025344128882270776,-0.1077641839879969
4755,2.0,299.72137999999995,10561.228000000001,0.0,0.0,-0.04754998985077874,0.0,0.0,0.0,-0.9035422287426751,-0.8865930066349171,-1.4202144032892485,-0.0014119352380471586,-0.01929037395406168,-0.10757296342912488
4756,2.0,299.46581000000003,10539.44,0.0,0.0,-0.047559994271153094,0.0,0.0,0.0,-0.9099889717089191,-0.9028843862477511,-1.3908532524915287,0.01175075057570879,-0.006001205244897844,-0.1112195086840109
4757,2.0,299.25493,10453.889000000001,0.0,0.0,-0.04756999869152723,0.0,0.0,0.0,-0.8858097035126112,-0.8836104644355631,-1.4083011152384988,-0.012910621004929089,0.005466551366656615,-0.11092566615501089
4758,2.0,299.96772000000004,10317.006,0.0,0.0,-0.04758000311190125,0.0,0.0,0.0,-0.8650323819970491,-0.8846798485911032,-1.3863999169770187,-0.01981839580642338,0.006586938175255182,-0.10894755877978689
4759,2.0,300.64477,10482.778,0.0,0.0,-0.04759000753227538,0.0,0.0,0.0,-0.8770288984110132,-0.8995191698831301,-1.4099546380766887,-0.005684456677512194,0.003384570860081137,-0.11255425290823988
4760,2.0,300.88946,10799.391000000001,0.0,0.0,-0.04760001195264951,0.0,0.0,0.0,-0.9212247095503001,-0.908845579766075,-1.4526749848178586,0.007568051832433562,0.004081500693512756,-0.08701592147205282
4761,2.0,300.24793,10741.151000000002,0.0,0.0,-0.04761001637302387,0.0,0.0,0.0,-0.9207370525421722,-0.9109245865862571,-1.4333799671385885,0.022616705832845082,-0.004905471824482375,-0.11050701147869291
4762,2.0,300.59859,10592.87,0.0,0.0,-0.04761998788412036,0.0,0.0,0.0,-0.9223950336808021,-0.8848907565994182,-1.4126822060208786,-0.005834977006367394,-0.0026774650572202272,-0.0969189294304036
4763,2.0,299.83883,10645.93,0.0,0.0,-0.047629992304494495,0.0,0.0,0.0,-0.9034398904825752,-0.9067392151931931,-1.4259177854521286,0.004981849603770275,-0.005664149625633045,-0.12131126689748989
4764,2.0,300.04807,10617.566,0.0,0.0,-0.04763999672486863,0.0,0.0,0.0,-0.9036397034022952,-0.8991592026526042,-1.4246759461295686,0.001081286095189629,0.008787931796176342,-0.11842010972465489
4765,2.0,300.44147000000004,10520.391000000001,0.0,0.0,-0.04765000114524287,0.0,0.0,0.0,-0.8640571085107971,-0.90360033863591,-1.4302787125575187,0.00038733004947649963,0.010038789449926382,-0.11783518070692689
4766,2.0,300.06201,10400.918,0.0,0.0,-0.047660005565617,0.0,0.0,0.0,-0.8889259744601632,-0.8762700551461211,-1.3964232909412486,-0.014113427907136886,-0.0070938850334869435,-0.0984181727818674
4767,2.0,299.72905,10377.48,0.0,0.0,-0.047670009985991135,0.0,0.0,0.0,-0.8919861924121831,-0.8680930153816101,-1.3944157385181186,-0.024792198380549475,-0.016765692117144983,-0.10790620112201289
4768,2.0,300.48177000000004,10576.048999999999,0.0,0.0,-0.04768001440636527,0.0,0.0,0.0,-0.9259845836175632,-0.8871120338661411,-1.4017581540427588,-0.008300532558873783,-0.011910931231017389,-0.1087325369760659
4769,2.0,300.36518,10873.318000000001,0.0,0.0,-0.047689985917461986,0.0,0.0,0.0,-0.9155543390756782,-0.9443478165048731,-1.4453151413914986,0.014037949893937786,-0.012033482817362289,-0.12754579476278988
4770,2.0,300.69259,10864.688,0.0,0.0,-0.04769999033783612,0.0,0.0,0.0,-0.9326534816682321,-0.9205813160018022,-1.4493590225405986,0.0030285168014413375,0.015531886854627886,-0.11389370874543389
4771,2.0,300.40099,10570.291000000001,0.0,0.0,-0.04770999475821036,0.0,0.0,0.0,-0.8776959108193423,-0.9103163832137321,-1.4250923919206686,0.004863261243866516,0.015990948931683784,-0.11199198016274789
4772,2.0,300.22686,10437.061,0.0,0.0,-0.047719999178584493,0.0,0.0,0.0,-0.8865144594871651,-0.8828692415899101,-1.4032220977872385,-0.002150892861776598,0.005148135496231414,-0.1127126644288739
4773,2.0,299.87959,10597.176000000001,0.0,0.0,-0.047730003598958626,0.0,0.0,0.0,-0.9109327027195582,-0.8927102710661441,-1.4176339592595788,0.009370072146979122,-0.01023472476283869,-0.1001326334943215
4774,2.0,300.39243999999997,10629.946000000002,0.0,0.0,-0.04774000801933276,0.0,0.0,0.0,-0.9021834806235771,-0.9090470949459631,-1.4200074976188286,0.0024181391968517577,-0.015695507494025984,-0.11151459751063389
4775,2.0,299.66042000000004,10451.928,0.0,0.0,-0.04775001243970689,0.0,0.0,0.0,-0.8696826629334963,-0.8885335021664291,-1.4189090331854186,-0.005225924732908615,-0.013928430730379089,-0.12780001921287987
4776,2.0,299.62982,10420.08,0.0,0.0,-0.047759983950803386,0.0,0.0,0.0,-0.8768673154175661,-0.8723423025909821,-1.4182345125938487,-0.01087869485064359,-0.0069786901494930925,-0.11009010972504789
4777,2.0,299.77099,10508.458,0.0,0.0,-0.04776998837117763,0.0,0.0,0.0,-0.8855798882574302,-0.8799796245572271,-1.4287493128565787,0.002229691700853438,0.003043262832796657,-0.1278118337090459
4778,2.0,299.95242,10709.186000000002,0.0,0.0,-0.047779992791551984,0.0,0.0,0.0,-0.9341796896313571,-0.8852804728528801,-1.4358648616838285,0.00988374668189985,0.013153640935413286,-0.08342600879175602
4779,2.0,299.5917,10815.628,0.0,0.0,-0.047789997211926116,0.0,0.0,0.0,-0.9485961613916521,-0.8999292625961031,-1.4391554927085886,0.005941912078196064,0.005254963062224475,-0.1059083961648449
4780,2.0,300.27036,10706.698,0.0,0.0,-0.04780000163230025,0.0,0.0,0.0,-0.925640544678609,-0.8981745160729232,-1.4307538255294088,-0.006980999447796004,-0.008144007608600972,-0.09280169100056382
4781,2.0,300.13606,10599.993,0.0,0.0,-0.04781000605267416,0.0,0.0,0.0,-0.8914087614451951,-0.8992449236110641,-1.4314796165760386,-0.008404761239685352,-0.012468289713524388,-0.12441109279591887
4782,2.0,300.47432000000003,10769.442,0.0,0.0,-0.0478200104730484,0.0,0.0,0.0,-0.9305974857578211,-0.9003431651294521,-1.4427009561334987,-0.002592910957575388,0.0006129426066877253,-0.09689311789735622
4783,2.0,300.45547999999997,10784.486,0.0,0.0,-0.047830014893422756,0.0,0.0,0.0,-0.9109056084118842,-0.911584901411425,-1.4557238543687587,0.004561424475552546,-0.0015028310674178786,-0.0970296928650851
4784,2.0,300.363,10414.828000000001,0.0,0.0,-0.04783998640451925,0.0,0.0,0.0,-0.8987644708111471,-0.8725986346012802,-1.3944844368748988,-0.002078951294076518,0.0008894104093329732,-0.08309406603249583
4785,2.0,300.41619,10438.940999999999,0.0,0.0,-0.047849990824893385,0.0,0.0,0.0,-0.8906091956587843,-0.883442376376474,-1.3991257302829587,-0.0015126867484905584,-0.005277847417057985,-0.10488848901168789
4786,2.0,299.54052,10682.045,0.0,0.0,-0.04785999524526752,0.0,0.0,0.0,-0.9065495246419721,-0.8991464458338451,-1.4413789687280285,-0.007099681432009002,-0.01079737342411779,-0.11193262397188988
4787,2.0,299.04435,10752.9,0.0,0.0,-0.04786999966564187,0.0,0.0,0.0,-0.8949192170791501,-0.9288946683022661,-1.4447992957655886,0.006045481639817584,-0.015862444501001386,-0.13293886908254487
4788,2.0,299.90792999999996,10719.373,0.0,0.0,-0.047880004086016004,0.0,0.0,0.0,-0.9017201416178491,-0.9060510866527801,-1.4506505111180588,-0.006132998888054864,-0.010086145415875051,-0.13088607504244987
4789,2.0,299.58101,10584.788,0.0,0.0,-0.047890008506390025,0.0,0.0,0.0,-0.8802743182163112,-0.9005924651840561,-1.4366444563107685,-0.008153504295163223,0.003016971829801937,-0.12141552020027889
4790,2.0,300.38423,10503.88,0.0,0.0,-0.04790001292676416,0.0,0.0,0.0,-0.89894567032653,-0.8931607721931052,-1.4008108665242687,-0.01111836801604749,0.01118323628744949,-0.09154612213914883
4791,2.0,300.56108,10674.955,0.0,0.0,-0.047909984437860875,0.0,0.0,0.0,-0.9011861689476502,-0.909336803414555,-1.4343966622889286,-0.00018082509920604783,0.011790610821392688,-0.1085674684022749
4792,2.0,300.65819,10819.36,0.0,0.0,-0.04791998885823501,0.0,0.0,0.0,-0.932612678086705,-0.917940512663675,-1.4382621100954185,0.02160093172684598,0.006994291566582833,-0.10244618136815091
4793,2.0,300.73376,10611.591999999999,0.0,0.0,-0.04792999327860914,0.0,0.0,0.0,-0.8916725205787261,-0.9033587392820662,-1.4306277772169687,0.004544718413203785,-0.0021656664535346383,-0.12949476106513788
4794,2.0,300.92643,10546.465,0.0,0.0,-0.04793999769898327,0.0,0.0,0.0,-0.8949294306401582,-0.8950547190150231,-1.4158777941862586,-0.004513294690502506,-0.002672873007767028,-0.10742637653715789
4795,2.0,299.92702,10704.889,0.0,0.0,-0.047950002119357404,0.0,0.0,0.0,-0.9047715848240032,-0.9058751155079131,-1.4433722343247486,-0.007317858192566373,0.004719602543363506,-0.1089590591684219
4796,2.0,300.03762,10822.021999999999,0.0,0.0,-0.04796000653973165,0.0,0.0,0.0,-0.9537030736181651,-0.905401623736183,-1.4305197647563088,-0.006246149134671924,0.003186819093714557,-0.08467779620379783
4797,2.0,299.8641,10596.152,0.0,0.0,-0.04797001096010578,0.0,0.0,0.0,-0.8874576636077521,-0.9007848813780462,-1.4327229757737487,-0.006391918131158204,0.006798471358881885,-0.11733929610798689
4798,2.0,299.71522999999996,10534.413999999999,0.0,0.0,-0.04798001538047991,0.0,0.0,0.0,-0.9062148683989442,-0.8939681298727851,-1.4020158235431885,-0.01982155917323558,0.0022254529717101075,-0.1142783790133979
4799,2.0,299.88245,10642.764,0.0,0.0,-0.04798998689157641,0.0,0.0,0.0,-0.8946009450902391,-0.8973994506739301,-1.4431341205512487,0.0008412524863276562,0.003051659028425297,-0.12994428947200287
4800,2.0,300.42528,10675.226,0.0,0.0,-0.04799999131195076,0.0,0.0,0.0,-0.9212620376839841,-0.9039104032990112,-1.4198296722262786,0.0021195427010325778,-0.010785367423682888,-0.12367875615364288
4801,2.0,299.92232,10768.646,0.0,0.0,-0.048009995732324895,0.0,0.0,0.0,-0.918217616301023,-0.9138545411054211,-1.4413272929729286,0.024029157220493178,-0.005018849343096865,-0.1091506039673259
4802,2.0,299.73545,10637.972,0.0,0.0,-0.04802000015269914,0.0,0.0,0.0,-0.9241764793441171,-0.8953440120510742,-1.4141572955164587,0.002072488176988658,-0.005770685274272295,-0.09279401056480582
4803,2.0,300.31897999999995,10489.361,0.0,0.0,-0.04803000457307327,0.0,0.0,0.0,-0.8663831659703612,-0.9073940483353202,-1.4147266407476486,0.0012743627255948089,0.010782478647647791,-0.10592696903917789
4804,2.0,300.42554,10708.507,0.0,0.0,-0.0480400089934474,0.0,0.0,0.0,-0.9024720947820611,-0.9140323259679671,-1.4386142145051686,-0.014479445254009987,-0.005409089446860565,-0.13055498543977387
4805,2.0,300.54499,10938.238000000001,0.0,0.0,-0.048050013413821535,0.0,0.0,0.0,-0.912544773496157,-0.9509689904758322,-1.4614375716826589,0.0005806659300522654,0.004075128768933896,-0.12307648029420289
4806,2.0,300.89194,10740.348999999998,0.0,0.0,-0.04805998492491803,0.0,0.0,0.0,-0.9032167829430562,-0.9113205951228402,-1.4502605111545686,-0.007895006057476433,0.0035866404904238564,-0.12146972908062888
4807,2.0,300.18856,10459.757,0.0,0.0,-0.04806998934529216,0.0,0.0,0.0,-0.8776884127686022,-0.8776292186977601,-1.4241874582563587,-0.008931139397734832,0.0021943937150697974,-0.10122170408605441
4808,2.0,300.57963,10635.101999999999,0.0,0.0,-0.04807999376566641,0.0,0.0,0.0,-0.913124058710828,-0.9010476373939781,-1.4186338344582587,-0.0063931132596511545,-0.002003619796841878,-0.09656966516068391
4809,2.0,300.03163,10883.28,0.0,0.0,-0.04808999818604076,0.0,0.0,0.0,-0.9271409856916911,-0.9157620452136771,-1.4653422322680185,-0.0012569921738304689,-0.0010696835709445491,-0.09421711526400531
4810,2.0,299.71561,10785.525,0.0,0.0,-0.04810000260641489,0.0,0.0,0.0,-0.926911950639087,-0.9111941009803561,-1.4404241831587985,0.01832804068483678,0.00968754711336146,-0.11089939257991789
4811,2.0,299.80579,10710.616000000002,0.0,0.0,-0.048110007026789026,0.0,0.0,0.0,-0.9083374652384281,-0.9115453745250242,-1.4358771220100386,0.0025914707238832474,0.01071910492014329,-0.11448708826899588
4812,2.0,300.10302,10688.146999999999,0.0,0.0,-0.048120011447162936,0.0,0.0,0.0,-0.9038834103163471,-0.9055542495987462,-1.4394919930667986,0.01063362916820749,-0.015133347219295086,-0.1103353061167469
4813,2.0,300.11657,10646.239,0.0,0.0,-0.04813001586753718,0.0,0.0,0.0,-0.9087518136018211,-0.8968510189248041,-1.4305879564880384,0.0009471277998767361,-0.0070705981143887025,-0.10724864233711691
4814,2.0,300.50743,10747.491000000002,0.0,0.0,-0.048139987378633786,0.0,0.0,0.0,-0.9304190625477121,-0.8993412229005681,-1.4372085326414386,0.01110976856244879,-0.01031928656318429,-0.091561140532131
4815,2.0,300.03192,10650.892,0.0,0.0,-0.04814999179900803,0.0,0.0,0.0,-0.9019029319358891,-0.8939204767205822,-1.4417817356427787,0.004121523768487726,-0.001974800734847658,-0.1068728177425259
4816,2.0,299.9584,10537.889,0.0,0.0,-0.04815999621938216,0.0,0.0,0.0,-0.8911535946725121,-0.9004437099368751,-1.4116579114947887,-0.00994582071350108,-0.007468847960192903,-0.12737523437345688
4817,2.0,299.62326,10756.222,0.0,0.0,-0.048170000639756294,0.0,0.0,0.0,-0.8864151103148602,-0.9223528926091431,-1.4608549528751587,-0.005202809154402285,0.0066784540123620935,-0.13946432131655687
4818,2.0,299.40263999999996,10928.712,0.0,0.0,-0.04818000506013065,0.0,0.0,0.0,-0.9411685821961071,-0.920086272400445,-1.4608006426697986,-0.00945148182758863,0.0015459263166960485,-0.11606341158206689
4819,2.0,299.28627,10728.412,0.0,0.0,-0.04819000948050456,0.0,0.0,0.0,-0.911880902163138,-0.901460871182261,-1.4478276976644686,-0.012132675949151886,0.006259448852834504,-0.1100738166634399
4820,2.0,299.79818,10560.683,0.0,0.0,-0.0482000139008788,0.0,0.0,0.0,-0.9033823480093962,-0.8903366111168821,-1.4164648712941987,-0.006429552975647473,-0.02045731585572988,-0.1034717728543689
4821,2.0,300.4627,10674.708999999999,0.0,0.0,-0.04820998541197541,0.0,0.0,0.0,-0.8984260756752502,-0.9115792069458631,-1.4348397565576587,-0.005991530226317994,-0.006823586991760603,-0.1108374323363029
4822,2.0,300.48181,10772.286,0.0,0.0,-0.04821998983234965,0.0,0.0,0.0,-0.936112930292153,-0.8961929535148581,-1.4422002079340788,0.0066260176104120235,-0.00048798882727074753,-0.10514019046902891
4823,2.0,300.36231000000004,10851.05,0.0,0.0,-0.048229994252723785,0.0,0.0,0.0,-0.9124639668006822,-0.9297059877898372,-1.4562784061484884,0.02089190591637058,0.0025976390865170176,-0.11945374641666688
4824,2.0,300.21266,10820.045,0.0,0.0,-0.04823999867309792,0.0,0.0,0.0,-0.942086353739184,-0.9102780114324451,-1.4366591484372186,0.010758535547784791,0.010487054435241689,-0.1149712090342749
4825,2.0,299.63768,10687.646,0.0,0.0,-0.04825000309347205,0.0,0.0,0.0,-0.9055734101581371,-0.8981993710978762,-1.4450047828858685,0.014297874889090385,0.0026925214470811774,-0.09935365998969281
4826,2.0,300.22782,10820.725,0.0,0.0,-0.04826000751384629,0.0,0.0,0.0,-0.9286237454905282,-0.9115680611947631,-1.4490385315339684,0.0020321047902781284,-0.014252619086623985,-0.10543439776806489
4827,2.0,299.45097000000004,10958.927,0.0,0.0,-0.048270011934220425,0.0,0.0,0.0,-0.9332145385136041,-0.9151706111303072,-1.4828551456714087,-0.007170979180595544,-0.012807827795534188,-0.09048972278364033
4828,2.0,299.27803,10826.181,0.0,0.0,-0.04828001635459456,0.0,0.0,0.0,-0.9285701040302341,-0.9135981077701131,-1.4487203710025687,-0.006281387845324714,-0.025115901389996476,-0.1044568951315929
4829,2.0,300.11576,10604.156,0.0,0.0,-0.048289987865691275,0.0,0.0,0.0,-0.8729434030803062,-0.914268392976265,-1.4361867712405987,-0.0012734318527279388,0.008317398512088322,-0.12080485463001088
4830,2.0,300.57603,10701.958,0.0,0.0,-0.048299992286065185,0.0,0.0,0.0,-0.9245598323869512,-0.8975470204184942,-1.4310211209057886,-0.0033769286238519063,0.022590475827506378,-0.1013381923838009
4831,2.0,300.50764,10963.543,0.0,0.0,-0.04830999670643954,0.0,0.0,0.0,-0.9355400792156171,-0.9333808533850181,-1.4637224506581588,0.0014975136322180884,0.008087839102557571,-0.1034793215676139
4832,2.0,300.56397999999996,10927.563,0.0,0.0,-0.04832000112681367,0.0,0.0,0.0,-0.942919792476438,-0.9242561917294841,-1.4545303470759685,-0.006917709516074774,-0.005669601012496055,-0.09935631470495482
4833,2.0,300.14181,10774.47,0.0,0.0,-0.048330005547187915,0.0,0.0,0.0,-0.9006495111646861,-0.9250390591542472,-1.4494812205026588,0.0016557207803069185,-0.005081868230416345,-0.12222118575229188
4834,2.0,299.91662,10757.351,0.0,0.0,-0.04834000996756205,0.0,0.0,0.0,-0.909878274135494,-0.9232423640769272,-1.4368453838055986,-0.006907788379045634,-0.01141094803542289,-0.10924313396645789
4835,2.0,300.22969,10823.525,0.0,0.0,-0.04835001438793618,0.0,0.0,0.0,-0.9065213461566911,-0.9202955186785962,-1.4632645629379684,-0.005368871422566354,-0.005160699594821396,-0.1266852313203589
4836,2.0,299.85978,10920.84,0.0,0.0,-0.0483599858990329,0.0,0.0,0.0,-0.9475891123822642,-0.9221732433664132,-1.4499001994190088,-0.0038705260133411763,-0.006886510937545714,-0.11847702398277189
4837,2.0,299.99652000000003,10878.671999999999,0.0,0.0,-0.04836999031940681,0.0,0.0,0.0,-0.916924425463395,-0.929859312794969,-1.4600608687717884,-0.0014778625584536784,0.004103747207408317,-0.11837902243309988
4838,2.0,300.28339,10563.56,0.0,0.0,-0.04837999473978094,0.0,0.0,0.0,-0.8998918939324151,-0.888615737544545,-1.4225508566948386,0.00847155569952745,0.014754122157368486,-0.100981478699346
4839,2.0,299.86672000000004,10551.003999999999,0.0,0.0,-0.048389999160155184,0.0,0.0,0.0,-0.8784897618751892,-0.8964041351007003,-1.4323477692617186,0.00998168024249014,0.012421355968892387,-0.11006018844959489
4840,2.0,299.69835,10915.576000000001,0.0,0.0,-0.04840000358052954,0.0,0.0,0.0,-0.9348392039889462,-0.9192325686611911,-1.4639908606096486,-4.222839253936786e-05,-0.005153988535434065,-0.11733088613215689
4841,2.0,300.06646,10988.862,0.0,0.0,-0.04841000800090367,0.0,0.0,0.0,-0.9347989475624732,-0.9415326733545402,-1.4640080858613487,-0.012201532372947488,-0.005261325056952355,-0.1141700220477039
4842,2.0,300.19237999999996,10662.344,0.0,0.0,-0.0484200124212778,0.0,0.0,0.0,-0.9108022771666862,-0.910995321575738,-1.4192889006479088,-0.006470352301524054,0.017115583588676583,-0.12540440213395088
4843,2.0,299.83212000000003,10620.752,0.0,0.0,-0.0484299839323743,0.0,0.0,0.0,-0.8949812077202682,-0.8973735925313782,-1.4360886886309185,-0.013385712698566987,0.017825885081027882,-0.100898007156108
4844,2.0,300.29733,10890.62,0.0,0.0,-0.04843998835274843,0.0,0.0,0.0,-0.948113499706517,-0.9208789784836792,-1.4414840427633986,-0.005128816363199765,-0.004384461764137686,-0.101201465428557
4845,2.0,299.94109,10928.407,0.0,0.0,-0.04844999277312256,0.0,0.0,0.0,-0.9256883295533251,-0.9300112597799651,-1.4662632766089185,-0.00025012939981084977,-0.009549508607188121,-0.11361015070494888
4846,2.0,300.08827,10898.247,0.0,0.0,-0.04845999719349681,0.0,0.0,0.0,-0.9274159412388271,-0.9242930233706191,-1.4610859738979587,0.028835078438550675,0.003035486138279157,-0.1066207312501469
4847,2.0,299.97459,10825.794,0.0,0.0,-0.04847000161387094,0.0,0.0,0.0,-0.902962264650437,-0.9264689171653632,-1.4613397930480088,0.01940946731781528,-0.0010628056292657489,-0.1272009553562569
4848,2.0,299.92589,10713.212,0.0,0.0,-0.04848000603424507,0.0,0.0,0.0,-0.9076205806601771,-0.9047309940249971,-1.4441974252061884,0.010063027912193531,-0.01105845048463409,-0.12223818808896987
4849,2.0,300.11914,10851.92,0.0,0.0,-0.048490010454619425,0.0,0.0,0.0,-0.8963457212324352,-0.9310623953012042,-1.4713047024814685,-0.008804112488348252,-0.008741439321962892,-0.13921083653903987
4850,2.0,299.94927,10942.408000000001,0.0,0.0,-0.048500014874993336,0.0,0.0,0.0,-0.9597834253482491,-0.9062076439257312,-1.4602276497382487,-0.002047203027368208,0.017328581931947883,-0.09538026862354959
4851,2.0,300.14404,10623.053,0.0,0.0,-0.048509986386090054,0.0,0.0,0.0,-0.8764609615974622,-0.9024327908106822,-1.4502489601034287,-0.008832312758506402,0.014652515463840686,-0.11844146903676289
4852,2.0,300.05959,10513.553,0.0,0.0,-0.048519990806464186,0.0,0.0,0.0,-0.894918345684064,-0.8965855372661031,-1.4043535941739087,-0.01013602812359809,-0.001966234313202218,-0.10696740463936089
4853,2.0,300.03836,10867.186000000002,0.0,0.0,-0.04852999522683843,0.0,0.0,0.0,-0.9163010740018751,-0.9215750711698781,-1.4654768932063087,-0.012603675125635887,-0.005167563047023766,-0.1274177300826509
4854,2.0,299.68591000000004,11099.166000000001,0.0,0.0,-0.04853999964721256,0.0,0.0,0.0,-0.9634060984307792,-0.9344660645071202,-1.4759970636945687,-0.005643507289295805,0.014307530149293287,-0.0971932446034764
4855,2.0,299.70063999999996,10891.868999999999,0.0,0.0,-0.048550004067586694,0.0,0.0,0.0,-0.9141797842550201,-0.9201039029521851,-1.4765723871013485,0.007787989824314752,0.002236911411790968,-0.10945362654223188
4856,2.0,299.38866,10742.058,0.0,0.0,-0.048560008487960826,0.0,0.0,0.0,-0.9252157091766812,-0.8973430734383662,-1.4427586100641887,-0.006354412374731674,-0.002915531917240597,-0.10442482576592789
4857,2.0,299.63093,10807.653,0.0,0.0,-0.04857001290833507,0.0,0.0,0.0,-0.9077587778413161,-0.9223859650924071,-1.4551119526333687,0.011692180666928387,-0.017269530729369986,-0.11600384260868789
4858,2.0,299.68363,10918.933,0.0,0.0,-0.04857998441943168,0.0,0.0,0.0,-0.948672094354146,-0.908118532289321,-1.4622924507920287,0.008573238792112792,-0.011584982859348789,-0.10922932336759489
4859,2.0,299.88513,10903.627,0.0,0.0,-0.04858998883980581,0.0,0.0,0.0,-0.924182660169727,-0.9184409974180691,-1.4718065652559986,0.012915497777660387,-0.003115587003734497,-0.11762351276103687
4860,2.0,300.00378,10749.243,0.0,0.0,-0.04859999326018005,0.0,0.0,0.0,-0.9091402430276562,-0.9144130648255432,-1.4439481656815887,0.0009329474356547431,-0.016746492041000084,-0.11804637242526989
4861,2.0,300.46313,10582.527,0.0,0.0,-0.04860999768055396,0.0,0.0,0.0,-0.8835983459643671,-0.8972937078934942,-1.4359320401654587,0.0071625367807623425,-0.006190505897480364,-0.11791464991226987
4862,2.0,300.04582999999997,10813.025,0.0,0.0,-0.04862000210092832,0.0,0.0,0.0,-0.9326405525969561,-0.9070925051055602,-1.4471565207982287,-0.005504691214995724,0.02383552006013268,-0.0951371483813055
4863,2.0,299.91324,11172.423999999999,0.0,0.0,-0.04863000652130245,0.0,0.0,0.0,-0.963136340856656,-0.945064184325573,-1.4879373041979786,0.0029489600512896974,0.00922708979091786,-0.1036047517974929
4864,2.0,300.91089,11022.96,0.0,0.0,-0.04864001094167669,0.0,0.0,0.0,-0.9524711844115871,-0.9348984081922891,-1.4633350851449287,-0.011688706232335488,-0.004923446171981306,-0.09782154579173491
4865,2.0,300.39562,10682.508,0.0,0.0,-0.048650015362050825,0.0,0.0,0.0,-0.8827100093366951,-0.92681268252679,-1.4376928661892385,-0.0035534806650012367,-0.012415239991288789,-0.13119365724280588
4866,2.0,299.79103,10893.478000000001,0.0,0.0,-0.04865998687314754,0.0,0.0,0.0,-0.936072613070674,-0.908455316357559,-1.4668172204385885,4.289309473746886e-05,0.0038677450471167156,-0.09095629304393722
4867,2.0,300.58096,11114.825,0.0,0.0,-0.048669991293521675,0.0,0.0,0.0,-0.9451900502529951,-0.9408302073252122,-1.4926090964340486,0.01067539736382969,-0.001181160232371439,-0.1123983238503509
4868,2.0,299.90095,10831.278,0.0,0.0,-0.048679995713895585,0.0,0.0,0.0,-0.929894827210974,-0.9088997683814232,-1.4536433479384288,0.003509755376810887,-0.007227012012450553,-0.10556626213607889
4869,2.0,299.86798999999996,10668.883,0.0,0.0,-0.04869000013426972,0.0,0.0,0.0,-0.9000733264953211,-0.901411353649874,-1.4415894207737985,0.02407266111353668,-0.0017796138084592082,-0.1150084865054539
4870,2.0,299.66681,10638.965,0.0,0.0,-0.04870000455464396,0.0,0.0,0.0,-0.9124581304801062,-0.8902050203263951,-1.4313163819849286,0.00984563429263845,0.027387080210894376,-0.1013043538834613
4871,2.0,299.39918,10877.532,0.0,0.0,-0.048710008975018315,0.0,0.0,0.0,-0.9036247680958213,-0.9245549586539701,-1.4783185209986787,0.002169303210793558,0.005064691513396135,-0.11505714277525589
4872,2.0,299.90566,11199.233999999999,0.0,0.0,-0.04872001339539245,0.0,0.0,0.0,-0.9575771340505052,-0.9600928313987851,-1.4866176472677386,-0.022382355270216477,-0.017015042834253983,-0.1135516253791729
4873,2.0,300.29717999999997,11055.09,0.0,0.0,-0.04872998490648894,0.0,0.0,0.0,-0.9400295066986891,-0.9353979810215931,-1.4850438672124187,-0.014317206687748288,-0.008566540398351712,-0.1072020429650179
4874,2.0,299.95566,10592.643,0.0,0.0,-0.048739989326863076,0.0,0.0,0.0,-0.9047678965936391,-0.8900034544840021,-1.4251274503741287,0.0014151713562165387,0.008673691191126673,-0.10155541294023891
4875,2.0,300.58673,10765.363000000001,0.0,0.0,-0.04874999374723721,0.0,0.0,0.0,-0.9112859217044181,-0.9180616467131301,-1.4430539724683384,0.008529312171127571,0.003226117289567987,-0.10534177657642389
4876,2.0,300.22048,11202.878999999999,0.0,0.0,-0.04875999816761134,0.0,0.0,0.0,-0.975836397345054,-0.946327595742762,-1.4832313654335385,0.0036988975570777663,-0.014908749188878986,-0.1216890267997719
4877,2.0,300.05054,11069.218,0.0,0.0,-0.048770002587985584,0.0,0.0,0.0,-0.9296458919264061,-0.9471258037740391,-1.4879943501786086,0.009005153365864441,-0.012674820481407388,-0.12000215790079088
4878,2.0,300.09472999999997,10763.99,0.0,0.0,-0.048780007008359716,0.0,0.0,0.0,-0.9091082851195021,-0.9191352358565852,-1.4437407533861186,0.013528418842650986,0.02143921903738618,-0.11848285017084689
4879,2.0,299.70524,10756.66,0.0,0.0,-0.04879001142873385,0.0,0.0,0.0,-0.9031962342310281,-0.8982178933097041,-1.4683418578640588,0.004709398912206486,0.00941314601668018,-0.1060218700435439
4880,2.0,299.81537000000003,10909.483999999999,0.0,0.0,-0.0488000158491082,0.0,0.0,0.0,-0.9369026979500971,-0.9347815196607531,-1.4445265288386686,-0.006336962688134524,-0.0036376821536112766,-0.11436309685425888
4881,2.0,300.46013999999997,11037.472,0.0,0.0,-0.0488099873602047,0.0,0.0,0.0,-0.9422309850584581,-0.9271083691709721,-1.4857765483597285,-0.015431399802460586,-0.002192412507149268,-0.1082089703843939
4882,2.0,300.61007,10967.854,0.0,0.0,-0.04881999178057883,0.0,0.0,0.0,-0.955571648657579,-0.9177930442441212,-1.4605891773739286,-0.0010859445125243792,0.02146234849741888,-0.09471299479669482
4883,2.0,300.93417999999997,10655.586000000001,0.0,0.0,-0.04882999620095296,0.0,0.0,0.0,-0.8770109030892372,-0.9165378502852431,-1.4454834422331089,-0.007599043606617212,0.009478282596708661,-0.12246299788865689
4884,2.0,301.22716,10798.594,0.0,0.0,-0.048840000621327206,0.0,0.0,0.0,-0.9176938774568341,-0.9244548799415931,-1.4403541675768885,-0.01906629673419698,-0.0026799707233925176,-0.11598055812138988
4885,2.0,300.80311,11234.778,0.0,0.0,-0.04885000504170134,0.0,0.0,0.0,-0.9447801703225431,-0.962605995621815,-1.5077059149739884,-0.01181221635327499,-0.01989295885478218,-0.11898891793329187
4886,2.0,299.78373,11215.621000000001,0.0,0.0,-0.04886000946207547,0.0,0.0,0.0,-0.9788311492081131,-0.9375947072383932,-1.4928427519071088,0.004635187461632386,0.01047528046907969,-0.09411075845400872
4887,2.0,300.10582,10793.143,0.0,0.0,-0.0488700138824496,0.0,0.0,0.0,-0.9043914336514852,-0.9132494889407071,-1.4632050851570986,0.006312796774574535,0.014752048034413788,-0.1172704457636919
4888,2.0,300.10645,10684.851999999999,0.0,0.0,-0.04887998539354632,0.0,0.0,0.0,-0.9143642059057212,-0.904724012731808,-1.4288401000655384,-0.006733628216082363,-0.001094115462655789,-0.12671649008594388
4889,2.0,299.70927,10932.065,0.0,0.0,-0.048889989813920454,0.0,0.0,0.0,-0.9140602106107192,-0.930586046164192,-1.4784285599595386,-0.006008303771123415,-0.0012293991444572488,-0.1131722037467269
4890,2.0,299.89678,10966.893,0.0,0.0,-0.048899994234294586,0.0,0.0,0.0,-0.93824619665519,-0.932506428681219,-1.4629088108278585,-0.0100834810747371,0.01833477474500138,-0.1086939929422619
4891,2.0,300.20079,10830.978000000001,0.0,0.0,-0.04890999865466861,0.0,0.0,0.0,-0.9076479080153742,-0.9218394686509721,-1.4628593642229786,0.002869171266865157,0.015445809232132684,-0.1120053449315669
4892,2.0,299.54667,10807.177,0.0,0.0,-0.04892000307504274,0.0,0.0,0.0,-0.9240985300139241,-0.9170050396413512,-1.4440085553875486,-0.00042032632620047863,-0.009377974281859002,-0.12293686456292388
4893,2.0,300.00297,10907.731000000002,0.0,0.0,-0.048930007495417094,0.0,0.0,0.0,-0.9343392866546081,-0.9227525995085912,-1.4585860832512385,0.006669679671796133,-0.0003841077419059826,-0.1074001941545739
4894,2.0,299.62143,11148.844,0.0,0.0,-0.048940011915791226,0.0,0.0,0.0,-0.961271585770119,-0.9441582475436641,-1.4835404067140385,0.016777699130829982,0.013810935262033185,-0.12132208840855789
4895,2.0,300.4212,11245.091,0.0,0.0,-0.04895001633616547,0.0,0.0,0.0,-0.957506348398519,-0.952113314608768,-1.5086070996129286,-0.007246439157942862,0.004717223634778725,-0.11954206129538288
4896,2.0,300.95577000000003,10826.15,0.0,0.0,-0.048959987847261965,0.0,0.0,0.0,-0.9270841119635782,-0.9198839364879761,-1.4439111820529387,-0.015554082098068384,-0.022220173445960376,-0.13468152753203186
4897,2.0,300.62234,10548.966999999999,0.0,0.0,-0.04896999226763632,0.0,0.0,0.0,-0.8733100273639891,-0.8924713466925641,-1.4408412368999588,-0.00984394652194688,-0.012810966844343987,-0.1157811505017099
4898,2.0,300.49252,10879.93,0.0,0.0,-0.04897999668801045,0.0,0.0,0.0,-0.9488878355654382,-0.9035137969448691,-1.4548253041800785,0.0016093368251791785,0.007780477284098321,-0.0996183310483138
4899,2.0,300.2492,11173.715,0.0,0.0,-0.04899000110838436,0.0,0.0,0.0,-0.952193817329213,-0.9418604192318861,-1.5024760245828386,0.01700484852499788,0.0063106459485872644,-0.09997996304875409
4900,2.0,299.88718,10951.206,0.0,0.0,-0.049000005528758495,0.0,0.0,0.0,-0.9251556234457511,-0.9321568675292201,-1.4715806104836986,0.0012693759139026488,0.003497974925848247,-0.12325777100209488
4901,2.0,300.00703,10835.688,0.0,0.0,-0.04901000994913274,0.0,0.0,0.0,-0.8891812729553592,-0.9350389763786621,-1.4695581632840986,0.006381408903771024,0.005459476550483385,-0.12377797360343487
4902,2.0,299.43194,11072.747,0.0,0.0,-0.04902001436950709,0.0,0.0,0.0,-0.9581028892623932,-0.9275231937619122,-1.4802125894106088,-0.0030681957766823466,0.025588801423668074,-0.10030415343149922
4903,2.0,299.68967000000004,11193.541000000001,0.0,0.0,-0.04902998588060359,0.0,0.0,0.0,-0.938972048496826,-0.9567380312451921,-1.5068468815392086,0.004111146364938556,0.006825346601884264,-0.1252684239705309
4904,2.0,300.34573,11075.37,0.0,0.0,-0.04903999030097772,0.0,0.0,0.0,-0.9758812640594821,-0.9307806712434,-1.4599739319132088,-0.015012653933633586,-0.02944445920769187,-0.0865513898709571
4905,2.0,300.26307,10797.885,0.0,0.0,-0.04904999472135185,0.0,0.0,0.0,-0.9074779758411031,-0.9060500430051771,-1.4687593169052588,-0.008280460682342842,-0.012608227658335188,-0.11307276338191288
4906,2.0,300.04893,10752.765,0.0,0.0,-0.049059999141725985,0.0,0.0,0.0,-0.9153825019912191,-0.9109372420800061,-1.4422523903142288,0.0004892530492880165,0.005632106604470645,-0.09508593872125151
4907,2.0,300.70443,11024.678,0.0,0.0,-0.04907000356210012,0.0,0.0,0.0,-0.9183166311007951,-0.9492422400529151,-1.4836678735766187,-0.00991827054460709,0.004446387557249285,-0.13827226297140988
4908,2.0,300.06046000000003,11215.068000000001,0.0,0.0,-0.04908000798247436,0.0,0.0,0.0,-0.9709242216552599,-0.9524276957172951,-1.4857486839819787,-0.010686068913882888,-0.01031087658735429,-0.1027460831327489
4909,2.0,299.80746,11028.002,0.0,0.0,-0.04909001240284849,0.0,0.0,0.0,-0.9232908379617112,-0.9440714930701021,-1.4848750597457587,0.009012315422871281,-0.0004571701263366786,-0.12169422477278487
4910,2.0,299.76211,10914.071000000002,0.0,0.0,-0.04909998391394521,0.0,0.0,0.0,-0.9537331468811331,-0.9108397674203861,-1.4530321554781087,0.02395535208320918,0.013463015575196188,-0.08841061159869801
4911,2.0,300.00137,11156.732,0.0,0.0,-0.04910998833431934,0.0,0.0,0.0,-0.9365220300200281,-0.9487169104060691,-1.5061289938433586,0.021086355703311282,0.00944648802447078,-0.11322836819976988
4912,2.0,299.38461,11221.93,0.0,0.0,-0.049119992754693476,0.0,0.0,0.0,-0.9721238692436561,-0.9469140345031392,-1.4921486755886086,0.013148882712943689,-0.00971849096081538,-0.09536799411183822
4913,2.0,299.10542000000004,10840.995,0.0,0.0,-0.04912999717506761,0.0,0.0,0.0,-0.9055404693973861,-0.9182399685982292,-1.4716113119617287,-0.008264927051684794,0.008300425154363182,-0.11592778805618188
4914,2.0,298.80942000000005,10705.503,0.0,0.0,-0.04914000159544174,0.0,0.0,0.0,-0.9156534146704561,-0.9053034499339941,-1.4332486499256287,0.0034474258035344365,0.013305447078645387,-0.1124970954700989
4915,2.0,299.40525,10861.55,0.0,0.0,-0.049150006015815983,0.0,0.0,0.0,-0.9099919607967142,-0.9279755592690572,-1.4636723961032185,-0.0076369526365835435,0.0035655619499185666,-0.12937415390573487
4916,2.0,299.50195,11027.61,0.0,0.0,-0.049160010436190116,0.0,0.0,0.0,-0.9434775359939831,-0.9450921196308301,-1.4635483742909785,0.0019393696080008784,-0.011361612888053887,-0.11132983135489889
4917,2.0,299.50484,11166.82,0.0,0.0,-0.04917001485656425,0.0,0.0,0.0,-0.9248026071109112,-0.9638734093768991,-1.5057585496067987,-0.013021252717097588,-0.017980497927036983,-0.1203327003484129
4918,2.0,299.18432,11082.755,0.0,0.0,-0.049179986367660744,0.0,0.0,0.0,-0.9470892457104311,-0.9279576348747881,-1.4938340144799385,0.001004571582495996,0.004879907321809355,-0.10463629106179789
4919,2.0,299.97651,10955.166000000001,0.0,0.0,-0.0491899907880351,0.0,0.0,0.0,-0.9127303502519721,-0.9481187787395381,-1.4692477034534588,-0.008980269463283591,-0.0015108039271547384,-0.13985359173997486
4920,2.0,300.54332,11099.948,0.0,0.0,-0.04919999520840923,0.0,0.0,0.0,-0.955525474850522,-0.934174197815815,-1.4844074448246087,0.006430361346577255,-0.0009204953619958192,-0.1109924393366009
4921,2.0,300.06585,11150.131000000001,0.0,0.0,-0.04920999962878336,0.0,0.0,0.0,-0.9621805420373262,-0.9337977247411601,-1.4933830168604285,-0.008743807186121581,0.009024235195722671,-0.11257585540037189
4922,2.0,299.87462,10910.951000000001,0.0,0.0,-0.049220004049157384,0.0,0.0,0.0,-0.9554166821872851,-0.9024467128670561,-1.4587932928966887,0.013500633498408788,0.024496000045066975,-0.08234349392817011
4923,2.0,300.07977999999997,10819.597,0.0,0.0,-0.04923000846953152,0.0,0.0,0.0,-0.8881086463994993,-0.9201843043476201,-1.4805944833732987,-0.003568733625381587,-0.0002954738920585027,-0.12479282463859288
4924,2.0,299.68634,11023.9,0.0,0.0,-0.04924001288990587,0.0,0.0,0.0,-0.9510586935071851,-0.9326377357616782,-1.4672938532856286,0.007918230864343543,-0.015227278543315383,-0.1077909337906369
4925,2.0,299.4354,11300.409,0.0,0.0,-0.04924998440100237,0.0,0.0,0.0,-0.946048202160188,-0.974297240045651,-1.5146966313889185,-0.010675890816628389,0.0017343212250141783,-0.13031900962398488
4926,2.0,299.2459,11177.514,0.0,0.0,-0.0492599888213765,0.0,0.0,0.0,-0.9715019971272821,-0.9464817718779781,-1.4797015060601686,-0.006737269532966734,0.002858642179776017,-0.11428006100856387
4927,2.0,299.07459,11012.13,0.0,0.0,-0.04926999324175074,0.0,0.0,0.0,-0.9291686409968051,-0.9409626188482801,-1.4772812568713087,-0.010070432946574349,-0.0028236602266985674,-0.12052683906757289
4928,2.0,299.81796,10978.409,0.0,0.0,-0.0492799976621251,0.0,0.0,0.0,-0.9483003024949531,-0.9122483674444042,-1.4766135250554087,0.0015098423528098386,-0.020579569546545377,-0.09153457007475872
4929,2.0,300.04278999999997,10934.506000000001,0.0,0.0,-0.04929000208249923,0.0,0.0,0.0,-0.8911321036378911,-0.9305298715786482,-1.5021547229761287,0.0022203656456080277,0.00924637072442074,-0.1054176690089139
4930,2.0,300.67919,11057.598,0.0,0.0,-0.04930000650287314,0.0,0.0,0.0,-0.9607745055360611,-0.93055542574617,-1.4699037828932087,0.007850587199592633,0.011978285004914688,-0.1016088314855109
4931,2.0,300.99248,11106.32,0.0,0.0,-0.04931001092324727,0.0,0.0,0.0,-0.933637053672803,-0.9401504887606291,-1.5022563519611587,0.0022295104304105476,0.016617886285307682,-0.1268215438563119
4932,2.0,299.9637,10949.105,0.0,0.0,-0.049320015343621515,0.0,0.0,0.0,-0.9434553559492941,-0.9418186429302632,-1.4429804105110786,0.0014516518048668786,0.00903122712803772,-0.13440027970177487
4933,2.0,300.32353,11072.798999999999,0.0,0.0,-0.04932998685471812,0.0,0.0,0.0,-0.9473225972084611,-0.9381304328312651,-1.4804013579042385,0.012429515671947689,0.01878344290253148,-0.1176573046518719
4934,2.0,300.3742,11353.302,0.0,0.0,-0.049339991275092365,0.0,0.0,0.0,-0.984308161166152,-0.9630150345546842,-1.5037971000632187,0.005112165320331435,0.007188190246794144,-0.10929567098414289
4935,2.0,299.65381,11183.226,0.0,0.0,-0.0493499956954665,0.0,0.0,0.0,-0.9182636685180681,-0.9683655321052371,-1.5127922278259684,-0.013731907833733787,-0.0007754072189142343,-0.11436235718168589
4936,2.0,299.76092,10919.366000000002,0.0,0.0,-0.04936000011584063,0.0,0.0,0.0,-0.9327370950664841,-0.9156188121795411,-1.4708585684624385,-0.022669093902765378,-0.02072445823134478,-0.11147413843414089
4937,2.0,300.18878,11016.788999999999,0.0,0.0,-0.04937000453621476,0.0,0.0,0.0,-0.9179132461034841,-0.9412871223253061,-1.4896284186148787,-0.006423286530404024,0.0006920186101969193,-0.1059396346654279
4938,2.0,299.68451,11037.94,0.0,0.0,-0.049380008956588894,0.0,0.0,0.0,-0.9784245927379892,-0.9137658817216712,-1.4630677897685485,-0.0090801456269656,0.006041812863855504,-0.1103200668352429
4939,2.0,300.057,11076.761,0.0,0.0,-0.04939001337696314,0.0,0.0,0.0,-0.9438472506904712,-0.9243031761366212,-1.4989084723057486,-0.0014187727510469688,0.00820359441518173,-0.10964182761580589
4940,2.0,299.9801,11100.261,0.0,0.0,-0.049399984888059634,0.0,0.0,0.0,-0.961713808643763,-0.9348682234718101,-1.4776201890297587,-0.0002108299880572998,3.540384610108756e-05,-0.10803185426691389
4941,2.0,299.5498,11024.844,0.0,0.0,-0.04940998930843399,0.0,0.0,0.0,-0.9229784225583781,-0.9231166805345231,-1.5051821116249087,0.015486467918895385,0.01043471094832579,-0.1028646131294469
4942,2.0,300.32352000000003,11092.381000000001,0.0,0.0,-0.04941999372880812,0.0,0.0,0.0,-0.9636726642670871,-0.9406969548045612,-1.4674371268497686,0.01062851934795319,-0.0012789572068482489,-0.1305160563709319
4943,2.0,300.12456000000003,11308.041000000001,0.0,0.0,-0.04942999814918225,0.0,0.0,0.0,-0.9522725367294821,-0.9652527062080252,-1.5198368491462184,-0.0005082123366791525,-0.001849743077030428,-0.13865714602189486
4944,2.0,300.31246,11205.535,0.0,0.0,-0.049440002569556385,0.0,0.0,0.0,-0.9866000720973461,-0.9487436196787051,-1.4708591764124985,-0.0016651678176142686,-0.010227336143109491,-0.12901951637073486
4945,2.0,300.54924,10907.546,0.0,0.0,-0.04945000698993052,0.0,0.0,0.0,-0.9114570495138072,-0.9265140067948132,-1.4776504852077486,0.006163870389451645,0.0026443413035011675,-0.11565896267215088
4946,2.0,300.94744,10856.893,0.0,0.0,-0.04946001141030476,0.0,0.0,0.0,-0.9182397355507061,-0.9166062851969972,-1.4653783039715786,0.0016421634939689184,0.008181097628511472,-0.1134908911681789
4947,2.0,300.42307,11092.327,0.0,0.0,-0.04947001583067889,0.0,0.0,0.0,-0.927358469693155,-0.9351332187704631,-1.5092988454561986,-0.005190417612304335,-0.01004928023616174,-0.09473085535620751
4948,2.0,300.06655,11190.653,0.0,0.0,-0.04947998734177539,0.0,0.0,0.0,-0.9460457703599481,-0.950658925812731,-1.5049744966794185,-0.01185240793174159,-0.01869995109429148,-0.1149711887692729
4949,2.0,299.27387999999996,11106.225,0.0,0.0,-0.04948999176214952,0.0,0.0,0.0,-0.9364296013459061,-0.941790221264958,-1.4977951130958684,-0.013274591586600187,-0.003069960047756467,-0.1150695550889809
4950,2.0,299.35451,11097.184,0.0,0.0,-0.049499996182523875,0.0,0.0,0.0,-0.9619118483758081,-0.9465131117035711,-1.4648418893686386,0.012973260126111089,-0.003265821089436447,-0.13628921093569787
4951,2.0,299.68358,11145.475,0.0,0.0,-0.04951000060289801,0.0,0.0,0.0,-0.945481055681715,-0.939317151348385,-1.5031480120491587,-0.004968157048543925,-0.0014039324874323487,-0.11982147514295889
4952,2.0,299.95277000000004,11147.436000000002,0.0,0.0,-0.04952000502327225,0.0,0.0,0.0,-0.9488365853753801,-0.947518691500314,-1.4921868751173788,0.01000760120654834,-0.00994673679291649,-0.1288146979955209
4953,2.0,300.10757,11045.528999999999,0.0,0.0,-0.04953000944364616,0.0,0.0,0.0,-0.9350834884555551,-0.9154111263065442,-1.5070703031862587,-0.0031519991593280967,0.0049969562508361855,-0.08758222188669232
4954,2.0,300.09951,10914.3,0.0,0.0,-0.049540013864020294,0.0,0.0,0.0,-0.9291606160560131,-0.9211120158741781,-1.4674020683963087,0.01104110668267239,0.006655622042558754,-0.11872035599428687
4955,2.0,300.52099,10957.6,0.0,0.0,-0.04954998537511701,0.0,0.0,0.0,-0.9243560677918411,-0.9346684713470961,-1.4718123407815684,-0.012538885887741687,-0.012014065905695988,-0.11259342515710591
4956,2.0,300.30121,11218.943000000001,0.0,0.0,-0.049559989795491144,0.0,0.0,0.0,-0.992813554758069,-0.9428734970793691,-1.4745915844808588,0.00986977781337123,-0.004802435536388486,-0.1202601820387559
4957,2.0,300.17884,11351.381000000001,0.0,0.0,-0.049569994215865276,0.0,0.0,0.0,-0.9698774735069541,-0.9535371640467911,-1.5271219147151986,-0.008661794723027581,-0.01178913552924709,-0.09405665191191881
4958,2.0,299.55454,11103.476,0.0,0.0,-0.04957999863623952,0.0,0.0,0.0,-0.9552352698893811,-0.9385260563328102,-1.4814182557045985,0.01094625532756129,-0.012230008753757887,-0.10786022996497589
4959,2.0,299.59119,11052.253999999999,0.0,0.0,-0.049590003056613874,0.0,0.0,0.0,-0.9194220869598952,-0.929130573190548,-1.5110566317296787,-0.014050711778947287,-0.0038849113276608963,-0.09674298665653941
4960,2.0,299.80733,11263.056999999999,0.0,0.0,-0.049600007476988006,0.0,0.0,0.0,-0.977093962309166,-0.9583779056045352,-1.4882161506254985,-0.005447978492323615,-0.0025549769003315875,-0.11194932233353791
4961,2.0,300.40043,11273.595,0.0,0.0,-0.049610011897361916,0.0,0.0,0.0,-0.9594654978643721,-0.9494041067563901,-1.5180218142420885,-0.015457266051013384,0.0065891582062242845,-0.1132980291441449
4962,2.0,299.23958999999996,11088.195,0.0,0.0,-0.04962001631773605,0.0,0.0,0.0,-0.964951801325828,-0.9465764904973262,-1.4590061767426987,-0.0076645060478778525,0.02160779345652318,-0.13328289788899786
4963,2.0,298.95224,10980.848,0.0,0.0,-0.04962998782883277,0.0,0.0,0.0,-0.903608606756726,-0.9403705970798522,-1.4939243963888587,0.007462793182895343,0.012181526762973089,-0.12942481641073486
4964,2.0,299.29143999999997,10961.028,0.0,0.0,-0.0496399922492069,0.0,0.0,0.0,-0.9399581434941461,-0.9232644022666021,-1.4686562693700884,0.0002653818231686467,0.008354689864793692,-0.11529945140416988
4965,2.0,299.42561,11088.288999999999,0.0,0.0,-0.04964999666958114,0.0,0.0,0.0,-0.915741830874182,-0.9487165152385302,-1.5061047771659686,0.00934714766744165,-0.0009229787974609151,-0.10506655758426191
4966,2.0,299.57117999999997,11180.527,0.0,0.0,-0.049660001089955275,0.0,0.0,0.0,-0.9699678959458781,-0.9520491150824321,-1.4765841408025087,-0.010791122684250889,-0.01045694368201999,-0.12519984720376287
4967,2.0,299.8966,11114.268,0.0,0.0,-0.04967000551032941,0.0,0.0,0.0,-0.9392109627379052,-0.9480661302643422,-1.4911829469182987,-0.0028583905897761872,-0.0003764396779317036,-0.1079164450805239
4968,2.0,299.81652,11051.718,0.0,0.0,-0.04968000993070354,0.0,0.0,0.0,-0.957996801976923,-0.9507888751380562,-1.4506607449440685,-0.013415420178248887,0.003119339879454877,-0.13224436719900287
4969,2.0,300.26729,11204.236,0.0,0.0,-0.04969001435107767,0.0,0.0,0.0,-0.9406969345395592,-0.941046505824059,-1.5240646351884686,0.005255184052071285,-0.0008627075505701061,-0.0908859866592485
4970,2.0,300.02722,11230.396,0.0,0.0,-0.04969998586217439,0.0,0.0,0.0,-0.9709338171337072,-0.9508562765347082,-1.4919699382709686,-0.016937189762820482,0.0017523314415666482,-0.11504171097623289
4971,2.0,299.76591,11112.678,0.0,0.0,-0.04970999028254841,0.0,0.0,0.0,-0.9369528842275502,-0.9310744225798911,-1.5099493520203986,0.01908900873518848,-0.001049473689749989,-0.08986849509432991
4972,2.0,299.86936000000003,11097.581,0.0,0.0,-0.049719994702922765,0.0,0.0,0.0,-0.963008934789082,-0.928936576326402,-1.4814420670819486,-0.008271148913923842,0.013885473992389588,-0.11784733970812689
4973,2.0,299.78975,11148.677,0.0,0.0,-0.0497299991232969,0.0,0.0,0.0,-0.9636927266190671,-0.9364894641618142,-1.4887371638269185,0.01100657410601429,0.0024953565551725176,-0.1062915870876629
4974,2.0,299.7549,11220.425,0.0,0.0,-0.04974000354367103,0.0,0.0,0.0,-0.9667129110596361,-0.9393352783926741,-1.5046809581254486,-0.00996532638587614,0.0028741987098863274,-0.12582098978006487
4975,2.0,299.78469,11211.777,0.0,0.0,-0.04975000796404516,0.0,0.0,0.0,-0.9388005052548961,-0.9601684502537482,-1.5091314565396787,0.012071210171585687,0.012587783311067488,-0.11487405861468689
4976,2.0,299.41933,11055.895,0.0,0.0,-0.049760012384419294,0.0,0.0,0.0,-0.9443550916405911,-0.9262309857768811,-1.4901298760893686,-0.007723165831942122,0.0075317217500980626,-0.1117282311617179
4977,2.0,299.66759,11074.837,0.0,0.0,-0.04976998389551601,0.0,0.0,0.0,-0.924692183115013,-0.9379155528825581,-1.5038661023950286,-0.0025526615225280776,-0.004317980094601456,-0.1069241084625879
4978,2.0,299.88334,11115.311000000002,0.0,0.0,-0.049779988315890034,0.0,0.0,0.0,-0.9568666126828821,-0.9475852822968862,-1.4743252010295687,-0.021897081426323683,-0.0007478863633456371,-0.11600393380119689
4979,2.0,299.32771,11199.486,0.0,0.0,-0.049789992736264166,0.0,0.0,0.0,-0.9576703023972001,-0.9514592211392141,-1.4952346300931685,-0.001259606156438449,0.0024132441856186578,-0.1184919592892459
4980,2.0,299.53067999999996,11274.696000000002,0.0,0.0,-0.0497999971566383,0.0,0.0,0.0,-0.964621897225769,-0.957062210482186,-1.5055419167354185,0.008278593769033593,0.013055618107489187,-0.1160909922497889
4981,2.0,299.59836,11129.365,0.0,0.0,-0.04981000157701265,0.0,0.0,0.0,-0.9230355394665151,-0.9514212445254662,-1.5085923061614686,0.014682463083796286,-0.0004703009559725905,-0.12249276717659488
4982,2.0,300.11056,11169.833999999999,0.0,0.0,-0.049820005997386785,0.0,0.0,0.0,-0.9447499653370621,-0.9409149251660732,-1.5096858056693885,-0.002960185849147597,-0.015973391333950985,-0.11153755775789989
4983,2.0,300.3559,11181.378,0.0,0.0,-0.04983001041776103,0.0,0.0,0.0,-0.9342210707654411,-0.9477105098767451,-1.5169281120841487,-0.0016377693322602485,-0.012945169793588788,-0.12908395907709488
4984,2.0,300.67466,11082.704,0.0,0.0,-0.04984001483813494,0.0,0.0,0.0,-0.96999537528859,-0.92371416372099,-1.4751557621365385,-0.008528931189089971,0.008996379835898561,-0.1105239226228619
4985,2.0,300.91296,11114.163,0.0,0.0,-0.04984998634923177,0.0,0.0,0.0,-0.9440434665723362,-0.9375573487072061,-1.4968272566003487,-0.007335422275099813,-0.0028352775443951073,-0.12025363644310991
4986,2.0,300.17259,11159.739,0.0,0.0,-0.04985999076960579,0.0,0.0,0.0,-0.9550821070042652,-0.9469447461136701,-1.4902552151267385,-0.006311329487104724,0.011458251616341389,-0.11360250066669389
4987,2.0,299.97929,11168.553,0.0,0.0,-0.04986999518997992,0.0,0.0,0.0,-0.9386113010637231,-0.9393437694285122,-1.5170060310168385,0.0005316271786025174,0.015496098861095884,-0.1137529784390449
4988,2.0,299.69705,11288.826000000001,0.0,0.0,-0.04987999961035405,0.0,0.0,0.0,-0.9583558775473611,-0.9554377375243631,-1.5177274650880384,0.016179577596799985,0.01709813846170488,-0.09637724491369351
4989,2.0,299.82941,11378.59,0.0,0.0,-0.0498900040307283,0.0,0.0,0.0,-0.973044873054552,-0.9559964537620042,-1.5297659908511485,-0.0072805375569331135,-0.015224657265306687,-0.09701176137806541
4990,2.0,299.26122000000004,11290.56,0.0,0.0,-0.04990000845110265,0.0,0.0,0.0,-0.9808999222022851,-0.9492252174512352,-1.5019231953282788,-0.002093792672266248,-0.018105515764125283,-0.10522164564456789
4991,2.0,299.87142,11151.101999999999,0.0,0.0,-0.04991001287147678,0.0,0.0,0.0,-0.9431853551951472,-0.9407835370256061,-1.5056877234248087,-0.012628845271369989,-0.010177470052688091,-0.1130641203585599
4992,2.0,299.79717999999997,11140.589,0.0,0.0,-0.04991998438257328,0.0,0.0,0.0,-0.949628318738518,-0.9361708679328712,-1.5006618002787884,0.002901835916963907,0.006230660694968334,-0.11596915905776488
4993,2.0,299.69607,11110.764,0.0,0.0,-0.04992998880294741,0.0,0.0,0.0,-0.9267386240769812,-0.9425217270421521,-1.5081345197662885,-0.007503307684168812,-0.010830633358650291,-0.12423828299136389
4994,2.0,300.18223,11187.497,0.0,0.0,-0.049939993223321544,0.0,0.0,0.0,-0.954211218543315,-0.9547644834954181,-1.4917441861486884,0.0045823241774151854,0.0093412095152306,-0.12481972642874789
4995,2.0,300.44646,11152.253,0.0,0.0,-0.049949997643695676,0.0,0.0,0.0,-0.939582339164557,-0.950996186108516,-1.4994279656320184,0.01120718040056259,0.01060557835243909,-0.1257409227571629
4996,2.0,300.25607,11170.032,0.0,0.0,-0.04996000206406992,0.0,0.0,0.0,-0.97735592799002,-0.9432318329772341,-1.4748230108036986,0.01886645240372388,0.002050369535255718,-0.1019985376064719
4997,2.0,299.832,11236.806,0.0,0.0,-0.04997000648444405,0.0,0.0,0.0,-0.944644475869151,-0.9644484389411502,-1.5066153538913587,-0.012043322489083387,-0.01913820405404368,-0.13104191290782988
4998,2.0,299.96123,11296.188,0.0,0.0,-0.049980010904818184,0.0,0.0,0.0,-0.9653122650489031,-0.9625447750507731,-1.5059020258209588,-0.003853477472458616,-0.014372928350497586,-0.1092644932785659
4999,2.0,299.50934,11208.731000000002,0.0,0.0,-0.049990015325192316,0.0,0.0,0.0,-0.9332984356218841,-0.9605672249631041,-1.5133085800769286,0.002837165431981427,0.00978778662852933,-0.12993177583326787
5000,2.0,300.16206,11102.704,0.0,0.0,-0.049999986836289034,0.0,0.0,0.0,-0.9449404968858661,-0.9328253086201901,-1.4971789557100588,0.005044852279088155,-5.773224073722855e-05,-0.1027018952958879
5001,2.0,300.02736,11102.657,0.0,0.0,-0.05000999125666317,0.0,0.0,0.0,-0.9465641085811042,-0.9466655754461181,-1.4817008511574885,-0.002287304392264368,-0.025822286670711275,-0.12310726283224087
5002,2.0,299.62075,11292.098,0.0,0.0,-0.05001999567703719,0.0,0.0,0.0,-0.993209776077173,-0.9379973120331271,-1.5013086591426286,-0.009213151421217251,-0.014736794567408383,-0.10899700538466689
5003,2.0,300.10241,11364.67,0.0,0.0,-0.05003000009741154,0.0,0.0,0.0,-0.9741593063095381,-0.9631913704695871,-1.5172250956884588,0.020246241674398483,0.0073150631421655225,-0.11944610651091289
5004,2.0,300.52012,11196.418,0.0,0.0,-0.050040004517785674,0.0,0.0,0.0,-0.958700737218896,-0.9396547054866992,-1.5050761256644485,0.0007997791262195542,0.008724980492638533,-0.1133965373188669
5005,2.0,300.57849,11281.937,0.0,0.0,-0.05005000893815981,0.0,0.0,0.0,-0.9523581664954331,-0.9651096352939051,-1.5119593362437687,-0.011086510419653388,0.0018921737355680082,-0.11527062443882488
5006,2.0,300.13007000000005,11372.156,0.0,0.0,-0.05006001335853394,0.0,0.0,0.0,-0.97435934214428,-0.970133086109681,-1.5123590634082185,-0.014292375980797686,-0.003978388107686337,-0.12262553333719789
5007,2.0,300.00572999999997,11304.792,0.0,0.0,-0.05006998486963066,0.0,0.0,0.0,-0.983495970283495,-0.9635310321681091,-1.4893474443621486,-0.001027597721415999,0.01844603467223188,-0.09898933173073642
5008,2.0,299.94588,11225.55,0.0,0.0,-0.05007998929000479,0.0,0.0,0.0,-0.9677664074536081,-0.952406285742682,-1.4921142250852086,-0.008349846022690642,-0.003908759992614577,-0.10496310474905189
5009,2.0,300.00572999999997,11159.916000000001,0.0,0.0,-0.05008999371037881,0.0,0.0,0.0,-0.9388383096161271,-0.9530262934788721,-1.5004713092599886,0.0009292288280527451,-0.017866118202748582,-0.11318854747083988
5010,2.0,299.43121,11272.561000000002,0.0,0.0,-0.05009999813075294,0.0,0.0,0.0,-0.9481055558257331,-0.9639617242556152,-1.5145098893954885,-0.0019454690696278482,0.004490499603002805,-0.12619917524738888
5011,2.0,299.21831000000003,11436.237,0.0,0.0,-0.050110002551127075,0.0,0.0,0.0,-0.9603838469600061,-0.974797917317564,-1.5411488424745485,0.014571088659304487,0.02431224815268208,-0.12581533584450688
5012,2.0,299.59911,11306.88,0.0,0.0,-0.05012000697150143,0.0,0.0,0.0,-0.9619015841522951,-0.9502058206330132,-1.5249016810960785,0.0039079349030581466,0.009295667165635922,-0.1106591003187029
5013,2.0,299.47476,11133.236,0.0,0.0,-0.05013001139187556,0.0,0.0,0.0,-0.9526615133103712,-0.9400174692875012,-1.4915469063542184,-0.013490079485367186,-0.006114085055063214,-0.12788431148869886
5014,2.0,299.91892,11204.988000000001,0.0,0.0,-0.050140015812249805,0.0,0.0,0.0,-0.9580887645559991,-0.9416844379545181,-1.5062633508066186,-0.014141367265394288,-0.005902446290776094,-0.1070819829606689
5015,2.0,300.00136000000003,11352.946000000002,0.0,0.0,-0.0501499873233463,0.0,0.0,0.0,-0.9535510455731611,-0.9711410369116581,-1.5263199272610486,-0.01104267012757669,0.015795589246153284,-0.13623966300580787
5016,2.0,300.20794,11282.687,0.0,0.0,-0.050159991743720544,0.0,0.0,0.0,-0.954617369713399,-0.941673869755975,-1.5333640419562486,-0.0013331921277258188,0.004052213408647326,-0.09144802331746722
5017,2.0,300.09221,11108.813999999998,0.0,0.0,-0.050169996164094566,0.0,0.0,0.0,-0.9178411432263681,-0.953820934869797,-1.5051398590957383,0.0018093914050480281,-0.0007391184873153153,-0.13191356130635487
5018,2.0,300.24483,11200.075,0.0,0.0,-0.0501800005844687,0.0,0.0,0.0,-0.9690729225300511,-0.93453861321428,-1.5009317301054286,0.015146121263305785,0.005283191500735404,-0.0863141576250441
5019,2.0,299.93667,11394.871000000001,0.0,0.0,-0.05019000500484283,0.0,0.0,0.0,-0.99003786756663,-0.9491410265004261,-1.5245774410640787,0.009909104886852512,0.00887955027551838,-0.12628851350870587
5020,2.0,299.85083,11476.65,0.0,0.0,-0.050200009425217074,0.0,0.0,0.0,-0.996208428953117,-0.962868457795218,-1.5295380095786486,0.007554968747142362,-0.01113002849819829,-0.097726534343108
5021,2.0,299.66688,11339.046999999999,0.0,0.0,-0.05021001384559143,0.0,0.0,0.0,-0.9576599064511742,-0.9492858098072152,-1.5398413445455086,0.002785378219370427,-0.019453343073645483,-0.12989643366977988
5022,2.0,299.38881000000003,11186.386999999999,0.0,0.0,-0.050219985356687924,0.0,0.0,0.0,-0.934765966271718,-0.9437262787610322,-1.5218902004738684,0.006432888594976674,0.0027182531360206976,-0.11278430121094389
5023,2.0,299.28812,11184.181999999999,0.0,0.0,-0.050229989777062056,0.0,0.0,0.0,-0.9300204195608691,-0.949277673408912,-1.5204138950781685,-0.0016747638026863186,0.014070303982880887,-0.12583448627139687
5024,2.0,299.26532000000003,11362.736,0.0,0.0,-0.05023999419743619,0.0,0.0,0.0,-0.990494904156736,-0.9470355434551311,-1.5164576600627184,0.01129223666695699,0.01027706544476739,-0.1035958453291139
5025,2.0,300.0417,11324.525,0.0,0.0,-0.05024999861781032,0.0,0.0,0.0,-0.9855043434392061,-0.960519044920849,-1.4963493065281788,-0.01029377596541659,0.000880461364184771,-0.12432688158010788
5026,2.0,299.9851,11146.628,0.0,0.0,-0.05026000303818445,0.0,0.0,0.0,-0.9398481754607931,-0.9538360626937901,-1.4946122918817486,0.016452807579015682,0.014536479075638788,-0.12033805030894089
5027,2.0,300.13072,11205.305,0.0,0.0,-0.050270007458558696,0.0,0.0,0.0,-0.954997966715961,-0.9499109851189151,-1.5012238501092587,-0.002218657204614418,0.0038648352968045463,-0.12794357648704788
5028,2.0,299.5905,11476.282,0.0,0.0,-0.05028001187893283,0.0,0.0,0.0,-0.9542188787140711,-0.9774810137148651,-1.5568033538695287,0.011036940198261189,-0.014127133127989485,-0.1198712966503759
5029,2.0,299.925,11448.571000000002,0.0,0.0,-0.05029001629930696,0.0,0.0,0.0,-0.9787423581018502,-0.9691389560390681,-1.5321985003662184,-0.014534053354899384,-0.024947547859381275,-0.13368646527132688
5030,2.0,299.42192,11198.2,0.0,0.0,-0.05029998781040368,0.0,0.0,0.0,-0.9678214877290441,-0.9382828053813032,-1.4978687763781384,0.008731361131168252,0.00027944737602180874,-0.1175641464376779
5031,2.0,300.11465,11158.277,0.0,0.0,-0.05030999223077781,0.0,0.0,0.0,-0.972799879312873,-0.938427213785555,-1.4806104927248787,-0.004157437202382106,0.018647642057878982,-0.11516983645137789
5032,2.0,299.66798,11174.246000000001,0.0,0.0,-0.050319996651151944,0.0,0.0,0.0,-0.9611463683227611,-0.9359440620304872,-1.4996013327241287,0.0026538175224113977,0.00946069206834761,-0.09785051359884381
5033,2.0,299.27412000000004,11379.428999999998,0.0,0.0,-0.050330001071525965,0.0,0.0,0.0,-0.9750952454269081,-0.9639444382089091,-1.5200225778895486,-0.006542094056304414,-0.0015488772049622784,-0.11290069324993088
5034,2.0,299.34351000000004,11404.248,0.0,0.0,-0.05034000549190032,0.0,0.0,0.0,-0.954057741550668,-0.9617996714572371,-1.5507491845220287,0.004718256541930666,-0.0012704870439623089,-0.10922070060924391
5035,2.0,299.72579,11300.277,0.0,0.0,-0.05035000991227445,0.0,0.0,0.0,-0.953797295744964,-0.9702317564044189,-1.5109730385964286,0.013290031491623987,-0.0017261498695827287,-0.11737941067944589
5036,2.0,299.71741000000003,11227.572,0.0,0.0,-0.050360014332648584,0.0,0.0,0.0,-0.9737334980875141,-0.948449432644671,-1.4907187770474886,-0.005676286537980865,-0.03020564409356497,-0.11318050226504589
5037,2.0,299.47262,11430.81,0.0,0.0,-0.05036998584374508,0.0,0.0,0.0,-0.9861064166486261,-0.962133851472718,-1.5264406053479587,-0.012262774222241589,-0.014163279812056886,-0.1169144403410569
5038,2.0,300.04711000000003,11450.498,0.0,0.0,-0.050379990264119434,0.0,0.0,0.0,-0.9940519794277921,-0.9753047348850832,-1.5113088296795687,-0.006902726384196053,0.006804708014572394,-0.11266583200925188
5039,2.0,299.94718,11164.771999999999,0.0,0.0,-0.050389994684493566,0.0,0.0,0.0,-0.9293572271054172,-0.942669367714223,-1.5217853290885184,0.013007545469744789,0.03106054650768727,-0.1062526681513219
5040,2.0,300.401,11128.688,0.0,0.0,-0.05039999910486759,0.0,0.0,0.0,-0.9126754422290531,-0.952913022250193,-1.5172548852413985,-0.002932169483882597,0.000976949452579904,-0.12438854798119389
5041,2.0,300.3439,11354.086000000001,0.0,0.0,-0.05041000352524172,0.0,0.0,0.0,-0.9610636263195951,-0.9581816593251671,-1.5321133873578185,-0.004160546866939006,-0.005181615002060585,-0.11227621708079989
5042,2.0,300.45124,11495.106000000002,0.0,0.0,-0.05042000794561585,0.0,0.0,0.0,-0.995824984717774,-0.9658713460565801,-1.5325288198988185,0.0025893756266514778,0.007936980753469013,-0.11797871771609289
5043,2.0,300.02443999999997,11370.713,0.0,0.0,-0.05043001236599021,0.0,0.0,0.0,-0.9737537934870172,-0.972545887910306,-1.5101130932365587,0.0029020286371329272,0.018770727627026584,-0.12687352358644188
5044,2.0,300.02972,11236.185,0.0,0.0,-0.0504399838770867,0.0,0.0,0.0,-0.9543309239101292,-0.952200666899889,-1.5089880816505286,-0.007710796074721323,0.0006894570126191093,-0.12049340181427289
5045,2.0,299.57662,11218.792,0.0,0.0,-0.050449988297460835,0.0,0.0,0.0,-0.9265749537883281,-0.9688117066542711,-1.5148458831286484,-0.0096893551568399,-0.00899194960248633,-0.13060044997176087
5046,2.0,300.22491,11401.323,0.0,0.0,-0.05045999271783508,0.0,0.0,0.0,-0.9425327512032401,-0.9871321905198621,-1.5360525997715886,0.004605756497902775,0.0016206693182726083,-0.1312818403990089
5047,2.0,300.03776,11429.518999999998,0.0,0.0,-0.05046999713820943,0.0,0.0,0.0,-0.9714832621329331,-0.9725094109067062,-1.5302958193284384,0.01026433699701119,0.001067523727031389,-0.11293819363613189
5048,2.0,299.79636,11274.239,0.0,0.0,-0.05048000155858334,0.0,0.0,0.0,-0.967310110536075,-0.957798093499812,-1.5019789240837786,0.006873618241948304,-0.015578307894709287,-0.11407364169819188
5049,2.0,299.73645,11270.341999999999,0.0,0.0,-0.050490005978957475,0.0,0.0,0.0,-0.959910517308292,-0.9541940743516231,-1.5117979255028384,-0.0007360994782448623,-0.007818120842538452,-0.1010842303654868
5050,2.0,299.72963,11411.298,0.0,0.0,-0.05050001039933161,0.0,0.0,0.0,-0.9888938879387281,-0.9541586612606282,-1.5256971837495885,-0.0050616344365194245,0.013298261108936187,-0.1077185978659979
5051,2.0,299.76804,11582.652,0.0,0.0,-0.05051001481970585,0.0,0.0,0.0,-0.9815213180911121,-0.9813725831089332,-1.5579431589070185,-0.009102969288118122,0.02130551764694088,-0.1077017779143379
5052,2.0,299.90797000000003,11461.688,0.0,0.0,-0.05051998633080246,0.0,0.0,0.0,-0.9653016360553541,-0.966371810545972,-1.5523935881093185,-0.006379416043474344,-0.01786905966778888,-0.11664913093487289
5053,2.0,300.00395,11217.399,0.0,0.0,-0.0505299907511767,0.0,0.0,0.0,-0.9591266265009281,-0.9538171858444272,-1.4968654561291186,-0.009414840373497402,-0.015458262075861685,-0.12243225588062288
5054,2.0,300.40087,11309.739,0.0,0.0,-0.05053999517155083,0.0,0.0,0.0,-0.965486159031065,-0.9606648313452372,-1.5117273019708686,0.008610844353674173,-0.004338846561860816,-0.12065689985040888
5055,2.0,300.81261,11450.812,0.0,0.0,-0.050549999591924966,0.0,0.0,0.0,-1.014819320429869,-0.956731151277013,-1.5092105913724885,0.00995170252900657,0.015551632059326586,-0.11655737100581688
5056,2.0,300.20496,11441.958999999999,0.0,0.0,-0.0505600040122991,0.0,0.0,0.0,-0.9742856180670042,-0.9846835297981981,-1.5191007229485685,0.003621660035080017,0.015078996483931087,-0.11915125073181289
5057,2.0,300.49588,11363.506000000001,0.0,0.0,-0.05057000843267323,0.0,0.0,0.0,-0.9638432347889211,-0.9696090838204662,-1.5207697485132885,-0.006772801782173493,0.009349588586932552,-0.12560469128121787
5058,2.0,299.92944,11368.29,0.0,0.0,-0.050580012853047474,0.0,0.0,0.0,-0.9327769360604161,-0.977425386284375,-1.5454740018514086,0.00047148679296212355,0.02358962351261458,-0.1253672969152889
5059,2.0,299.67598,11500.243,0.0,0.0,-0.05058998436414397,0.0,0.0,0.0,-0.9985176461960189,-0.9623615591676912,-1.5349076271585884,-0.0033713995207062266,0.016963227250640183,-0.1108671610942369
5060,2.0,299.84397,11592.867,0.0,0.0,-0.050599988784518324,0.0,0.0,0.0,-0.986696857746898,-0.9811553118899902,-1.5560899244741186,0.00026666624939290974,-0.01217120883720479,-0.1123886675768979
5061,2.0,299.79925,11349.684,0.0,0.0,-0.050609993204892456,0.0,0.0,0.0,-0.988164793696772,-0.9519620059713351,-1.5098939272399285,-0.005515551634867564,-0.012023356395862888,-0.1122141251146719
5062,2.0,299.88656000000003,11198.118,0.0,0.0,-0.050619997625266366,0.0,0.0,0.0,-0.9307136852792891,-0.9531067658018142,-1.5201278545749384,0.014181782772132986,0.01200666917996599,-0.12932153582804187
5063,2.0,299.99874,11402.39,0.0,0.0,-0.05063000204564072,0.0,0.0,0.0,-0.9664921238628461,-0.966838878312068,-1.5327106982917684,0.004986932674221936,0.02051472255339548,-0.12169162072002788
5064,2.0,300.19569,11544.816,0.0,0.0,-0.05064000646601474,0.0,0.0,0.0,-0.9771021696349761,-0.9848693902640412,-1.5473641185879485,-0.003158073897652627,-0.006354875632677394,-0.14111759084222186
5065,2.0,300.11961,11370.411,0.0,0.0,-0.050650010886389096,0.0,0.0,0.0,-0.9659237817492551,-0.96582027825154,-1.5245770357640385,-0.007473939339295383,-0.0067230966971929835,-0.11764534830069188
5066,2.0,300.40827,11239.403999999999,0.0,0.0,-0.05066001530676323,0.0,0.0,0.0,-0.9549418022629181,-0.9559881147136812,-1.5055683625630285,0.00980825934679983,-0.0024420910106656177,-0.1280597152135099
5067,2.0,300.04771,11405.534,0.0,0.0,-0.050669986817859725,0.0,0.0,0.0,-1.0010377511822341,-0.9386078256158802,-1.5273520238129086,-0.002771920130217217,0.012566270998194387,-0.0996949601136265
5068,2.0,300.22664,11567.953000000001,0.0,0.0,-0.05067999123823386,0.0,0.0,0.0,-0.9987124029977401,-0.965357648520882,-1.5522987478999586,0.0014097496575814585,-0.01001280049678647,-0.10831775291512989
5069,2.0,300.04274,11603.348999999998,0.0,0.0,-0.05068999565860821,0.0,0.0,0.0,-0.9934365718470561,-0.9772350979155952,-1.5564565183602985,-0.009750540264128402,-0.007439487316020232,-0.1050197251646399
5070,2.0,299.60079,11489.243999999999,0.0,0.0,-0.050700000078982344,0.0,0.0,0.0,-0.984619897691918,-0.951219212588027,-1.5566041488998685,0.009620559224075271,0.002373587400554838,-0.1070940912993639
5071,2.0,299.82272,11359.06,0.0,0.0,-0.050710004499356365,0.0,0.0,0.0,-0.967945296758763,-0.963275014265342,-1.5216503641751986,0.014570733008519385,0.007888559861665242,-0.10509399639696988
5072,2.0,299.8864,11401.788,0.0,0.0,-0.0507200089197305,0.0,0.0,0.0,-0.9747849274512821,-0.9611359217142301,-1.5299379393931185,0.004048682941323897,-0.0065728129622361344,-0.1010104698112072
5073,2.0,299.72536,11511.083999999999,0.0,0.0,-0.05073001334010463,0.0,0.0,0.0,-0.978184087694253,-0.9789323931581051,-1.5419657247051686,-0.006651225449049843,-0.008048543237179373,-0.11977536213090788
5074,2.0,299.61185,11546.111,0.0,0.0,-0.05073998485120135,0.0,0.0,0.0,-0.9685868259270771,-0.9964012909771511,-1.5447412193790886,-0.0073808232763055434,0.005380422068406315,-0.14028284501233887
5075,2.0,300.05431,11366.357,0.0,0.0,-0.05074998927157548,0.0,0.0,0.0,-0.956910030449667,-0.9618001071547801,-1.5363785623287585,0.005708578616017844,0.01791988935905538,-0.13506822430019588
5076,2.0,299.9157,11240.883,0.0,0.0,-0.05075999369194961,0.0,0.0,0.0,-0.9422912835719089,-0.9601040278123901,-1.5145523445746787,-0.012772476512795288,-0.01218973408878309,-0.14218786665784988
5077,2.0,300.00405,11336.336000000001,0.0,0.0,-0.050769998112323855,0.0,0.0,0.0,-0.9629157461773852,-0.9509420278906711,-1.5321051800320087,0.016312226220391385,-0.015341585313596586,-0.1105139319768759
5078,2.0,300.28786,11422.955,0.0,0.0,-0.05078000253269799,0.0,0.0,0.0,-0.9834865065275611,-0.9632343930688332,-1.5255722500122586,0.010678737036159291,-0.004619606917494705,-0.1182040442733309
5079,2.0,300.03762,11456.844,0.0,0.0,-0.05079000695307212,0.0,0.0,0.0,-0.979700325276394,-0.9619916722186862,-1.5409025213752385,0.026701685419251175,0.016424153879437787,-0.1002070171974126
5080,2.0,300.79101,11501.972,0.0,0.0,-0.05080001137344625,0.0,0.0,0.0,-0.9729616750888411,-0.9767238321801371,-1.5466267764901784,-0.005072481076189904,-0.004860416746860785,-0.11553208349462889
5081,2.0,300.82721000000004,11524.373,0.0,0.0,-0.050810015793820384,0.0,0.0,0.0,-0.972538562112083,-0.983152508897098,-1.5474304864694985,-0.008371835677685853,-0.002166772719993818,-0.10498248822346491
5082,2.0,300.21583,11632.419,0.0,0.0,-0.0508199873049171,0.0,0.0,0.0,-0.976904737852991,-1.0035183495470499,-1.5555418574950286,-0.013962859955526985,0.005719643915059905,-0.12192607666066689
5083,2.0,299.72506,11669.571000000002,0.0,0.0,-0.050829991725291235,0.0,0.0,0.0,-1.009293145576978,-0.9833180638309371,-1.5546470563317183,-0.004104858945418036,0.007401271980548674,-0.1096785477994299
5084,2.0,300.30007,11465.045,0.0,0.0,-0.05083999614566548,0.0,0.0,0.0,-0.9744123148595081,-0.972612235526854,-1.5380627866449785,0.008191251813063613,0.003422324052182087,-0.11569537888074488
5085,2.0,299.73353,11273.245,0.0,0.0,-0.05085000056603961,0.0,0.0,0.0,-0.968302578876524,-0.9437184159402561,-1.5147638098705485,0.008035019388094674,-0.002002094855441378,-0.1254229040807769
5086,2.0,300.12257999999997,11322.252,0.0,0.0,-0.05086000498641374,0.0,0.0,0.0,-0.9424886342938861,-0.95256372454322,-1.5466295122654485,0.024539862628645874,0.016409685681259882,-0.11323084053001391
5087,2.0,299.91655,11465.13,0.0,0.0,-0.050870009406787875,0.0,0.0,0.0,-0.9984823850925392,-0.9613400612118771,-1.5252907691344786,0.004000356079129406,0.005139354974839845,-0.12414489172964688
5088,2.0,300.07043999999996,11538.285,0.0,0.0,-0.05088001382716201,0.0,0.0,0.0,-0.985242833720897,-0.9571344957443201,-1.5649733920758484,0.0024150284177197477,-0.007468962254804183,-0.10443840331726789
5089,2.0,300.34301,11546.909,0.0,0.0,-0.050889985338258614,0.0,0.0,0.0,-1.012986857624019,-0.979836880992371,-1.5171481900058685,-0.006400470164652223,-0.011081049001614388,-0.11708424079281489
5090,2.0,299.84708,11611.159,0.0,0.0,-0.05089998975863275,0.0,0.0,0.0,-0.9827682236641719,-0.9855947760106311,-1.5611394563474685,-0.008377767142446242,0.02230765948609458,-0.1011378779052814
5091,2.0,299.00106,11695.555,0.0,0.0,-0.0509099941790071,0.0,0.0,0.0,-1.004762955042383,-0.996311800728319,-1.5540819667509485,-0.008966286713228602,0.016090932398551385,-0.11061198418905288
5092,2.0,298.89872,11627.168,0.0,0.0,-0.05091999859938123,0.0,0.0,0.0,-0.962073188189231,-1.017636054382859,-1.5546596206329586,-0.011957254999089187,0.002401472853906918,-0.13102976403913089
5093,2.0,298.82624,11359.214,0.0,0.0,-0.050930003019755365,0.0,0.0,0.0,-0.962642979250465,-0.9597611946410551,-1.5305133641249087,0.009107639155179002,0.0005811999229874664,-0.12710919542720087
5094,2.0,299.62737000000004,11174.738000000001,0.0,0.0,-0.0509400074401295,0.0,0.0,0.0,-0.9151120250095252,-0.9711842418959221,-1.5105450417541886,0.013970724802803185,-0.002299395809682698,-0.14459874328328487
5095,2.0,299.63816,11207.32,0.0,0.0,-0.05095001186050352,0.0,0.0,0.0,-0.9570978768857061,-0.9417655080950191,-1.5078820178413685,0.026396960584177176,-0.00929482920780322,-0.12161591067255588
5096,2.0,299.61892,11464.282,0.0,0.0,-0.05096001628087787,0.0,0.0,0.0,-0.9725847055216371,-0.9600065835502731,-1.5522639934215285,-0.0037037583204574866,-0.02140954904795798,-0.1183965820573329
5097,2.0,299.65895,11492.091999999999,0.0,0.0,-0.05096998779197437,0.0,0.0,0.0,-0.987656415724099,-0.97258098689377,-1.5330716179773884,0.005269979428706475,-0.021201385934163878,-0.1212776472591719
5098,2.0,300.34783999999996,11503.768999999998,0.0,0.0,-0.0509799922123485,0.0,0.0,0.0,-0.9695772475023241,-0.971042295689413,-1.5562389735638285,-0.0007701693238472943,0.011656732112179888,-0.12137784756156088
5099,2.0,300.29735,11655.561000000002,0.0,0.0,-0.050989996632722634,0.0,0.0,0.0,-1.003903921607603,-0.9942384883736991,-1.5448570338655185,-0.005008145065065435,0.0033742757324400872,-0.1170550693224359
5100,2.0,299.98309,11822.986,0.0,0.0,-0.05100000105309699,0.0,0.0,0.0,-1.017305734850259,-1.008226932894251,-1.5683597752350587,-0.00878343681608272,0.0017712742535111582,-0.11106810885406888
5101,2.0,300.04898,11727.573999999999,0.0,0.0,-0.05101000547347112,0.0,0.0,0.0,-1.018884783806099,-0.9777074447147119,-1.5682975616789185,-0.0012990439781556586,-0.01037910479608789,-0.11495921215309088
5102,2.0,300.5134,11479.133999999998,0.0,0.0,-0.05102000989384514,0.0,0.0,0.0,-0.977649638796507,-0.9699491102890241,-1.5417714846609987,0.015163164129987788,0.022524630783007978,-0.1050183572770049
5103,2.0,300.37439,11335.821000000002,0.0,0.0,-0.051030014314219274,0.0,0.0,0.0,-0.9452643012203231,-0.961619252144431,-1.5389231373048884,0.01061208037833079,0.006926341393676674,-0.1161499026106029
5104,2.0,300.0997,11360.173999999999,0.0,0.0,-0.05103998582531599,0.0,0.0,0.0,-0.9616933815217471,-0.9438223652680152,-1.5476934248704486,0.0013347234526019489,0.0031676038188181567,-0.11371984516077491
5105,2.0,298.87515,11489.036,0.0,0.0,-0.051049990245690124,0.0,0.0,0.0,-0.9774881773930721,-0.9832780100544841,-1.5316137537335086,-0.01027908586546679,0.002218088366008278,-0.13043990049341586
5106,2.0,299.50397999999996,11461.108999999999,0.0,0.0,-0.05105999466606426,0.0,0.0,0.0,-0.9895963843655591,-0.9446107143758191,-1.5496839546918986,-0.002675577676258958,0.01875464430818928,-0.12319767513866389
5107,2.0,299.68889,11429.131000000001,0.0,0.0,-0.05106999908643839,0.0,0.0,0.0,-0.967419045054326,-0.971195792947062,-1.5355557019225485,0.001929418073468738,0.000886019375355804,-0.12187097612022887
5108,2.0,300.03351000000004,11596.537,0.0,0.0,-0.05108000350681263,0.0,0.0,0.0,-0.980801262040048,-0.9948627821578121,-1.5493936585382486,-0.009173011822480781,-0.008250499079535862,-0.1266547628898519
5109,2.0,299.70017,11792.421999999999,0.0,0.0,-0.051090007927186765,0.0,0.0,0.0,-1.015661533912989,-0.9870347158602419,-1.5819057131719385,0.014696133854145485,-0.001060327016871129,-0.1044191920953719
5110,2.0,300.295,11733.1,0.0,0.0,-0.0511000123475609,0.0,0.0,0.0,-1.005122689225386,-1.006415758473002,-1.5550308754695985,0.0008543293401307412,0.0068441684317668335,-0.12971549759942286
5111,2.0,300.30409,11466.415,0.0,0.0,-0.051109983858657615,0.0,0.0,0.0,-0.9913506039986871,-0.9557889908040291,-1.5383644311997486,0.02008136561812648,-0.013615319224227386,-0.10991104816737589
5112,2.0,300.77421,11378.701000000001,0.0,0.0,-0.051119988279031525,0.0,0.0,0.0,-0.9587680980855441,-0.968481052749138,-1.5315917662063383,-0.006574572065734744,-0.015956932099326585,-0.12956033861160987
5113,2.0,300.24142,11518.466,0.0,0.0,-0.05112999269940588,0.0,0.0,0.0,-0.993433045736708,-0.9767645952316601,-1.5311285082606185,0.0073672554521665035,-0.002192800987237608,-0.1067241030253489
5114,2.0,299.72944,11563.232,0.0,0.0,-0.05113999711978001,0.0,0.0,0.0,-0.9794910486007401,-0.967734672460476,-1.5677080527707383,-0.004569532401527736,0.027681216582423375,-0.11697823456735289
5115,2.0,299.70667000000003,11597.025,0.0,0.0,-0.051150001540154255,0.0,0.0,0.0,-0.9998857162160372,-0.9843818548459251,-1.5409382891037686,-0.0056992942053515445,0.008725244646939603,-0.11184830129856789
5116,2.0,299.8187,11483.767,0.0,0.0,-0.05116000596052839,0.0,0.0,0.0,-0.9714383954185051,-0.962685961319707,-1.5566541021297984,-0.006240006812565724,-0.0011275163402771988,-0.1138924117853059
5117,2.0,299.97315,11491.698999999999,0.0,0.0,-0.05117001038090252,0.0,0.0,0.0,-0.9929125391603381,-0.9731508995450161,-1.5271259677155984,0.004225936556842466,-0.022196496830873682,-0.1151204202440009
5118,2.0,300.37708,11772.246000000001,0.0,0.0,-0.05118001480127665,0.0,0.0,0.0,-1.012013691697975,-0.9865908008589311,-1.5798643181954684,0.0018514472623736183,-0.0003336395580101607,-0.1108284144104129
5119,2.0,299.66776,11830.381000000001,0.0,0.0,-0.05118998631237337,0.0,0.0,0.0,-1.034948445591459,-0.9749657824616311,-1.5862260089483184,-0.001006376920596669,-0.009357108827849741,-0.10882914024059989
5120,2.0,299.66107,11508.163999999999,0.0,0.0,-0.05119999073274739,0.0,0.0,0.0,-0.9715693377289282,-0.98182608345619,-1.5447989746347885,0.008858555936096402,0.0011672788073264489,-0.12075182111977688
5121,2.0,299.92002,11373.901000000002,0.0,0.0,-0.051209995153121524,0.0,0.0,0.0,-0.974047028065957,-0.9503432882740801,-1.5329914698944787,0.0069177538964291544,0.007385254218992843,-0.10885945668359191
5122,2.0,299.99711,11510.408000000001,0.0,0.0,-0.05121999957349588,0.0,0.0,0.0,-0.976165673230051,-0.97204801734117,-1.5506628556135085,0.004194656107705326,0.014931010293575984,-0.11742451044139689
5123,2.0,298.98717999999997,11587.071000000002,0.0,0.0,-0.05123000399387001,0.0,0.0,0.0,-0.983111877568088,-0.9921974480347642,-1.5468708684392685,-0.007210116877633134,-0.001042978655283979,-0.12060404872519288
5124,2.0,299.39521,11520.242,0.0,0.0,-0.05124000841424414,0.0,0.0,0.0,-0.963013727462055,-0.983240773113309,-1.5556114677768986,-0.0026951319846388174,-0.012921430356995887,-0.13088753412259388
5125,2.0,299.37887,11409.326000000001,0.0,0.0,-0.051250012834618164,0.0,0.0,0.0,-0.959294775355023,-0.984520609314619,-1.5243349703151485,0.007557467928514013,-0.008217236713203123,-0.12936389981472288
5126,2.0,299.57407,11497.485,0.0,0.0,-0.05125998434571499,0.0,0.0,0.0,-0.9518272437080351,-0.9950199068508191,-1.5481011567106884,0.004049287952958606,0.0021265199412211777,-0.12530145592379088
5127,2.0,300.02716000000004,11654.838,0.0,0.0,-0.051269988766089014,0.0,0.0,0.0,-1.005971245654132,-0.9787703744671151,-1.5580381004413884,-0.01073548309475969,-0.008736472876597741,-0.12061289439856589
5128,2.0,300.12068999999997,11771.036,0.0,0.0,-0.051279993186463146,0.0,0.0,0.0,-0.990851416204421,-1.019542383120999,-1.5677073434956683,-0.01184609943661899,-0.002086059547503048,-0.1185951892094339
5129,2.0,300.18166,11516.02,0.0,0.0,-0.05128999760683728,0.0,0.0,0.0,-0.9873778631391081,-0.9605652693904111,-1.5526394025835786,0.00034076406396829466,0.0015168245579239284,-0.12024335195459487
5130,2.0,300.13676,11462.421,0.0,0.0,-0.05130000202721141,0.0,0.0,0.0,-0.9640631100606211,-0.9772793769449651,-1.5429472600770384,0.002162203164692838,0.007162644691897994,-0.1312638754747359
5131,2.0,299.82726,11636.778999999999,0.0,0.0,-0.051310006447585765,0.0,0.0,0.0,-1.0047048958116531,-0.961862351108423,-1.5707229784432886,0.00835403378535394,0.008099594222267711,-0.11516519576591988
5132,2.0,299.75558,11734.305,0.0,0.0,-0.0513200108679599,0.0,0.0,0.0,-1.014935438891329,-0.9807595566659321,-1.5712406479193786,0.00012710632792941787,0.0005818382502854643,-0.11960676744676887
5133,2.0,299.97875,11550.798,0.0,0.0,-0.05133001528833392,0.0,0.0,0.0,-0.9899456516750291,-0.9806213898822961,-1.5405869952940985,0.002358007768342248,0.006960908116863143,-0.11329103771845488
5134,2.0,300.3058,11440.73,0.0,0.0,-0.05133998679943064,0.0,0.0,0.0,-0.9809384358385861,-0.9531629099898551,-1.5435948282159484,-0.00024895096967954776,0.007688397370660742,-0.1118571672369429
5135,2.0,300.07489,11649.132,0.0,0.0,-0.05134999121980477,0.0,0.0,0.0,-0.983579826861771,-1.000293002226233,-1.5571723795559484,-0.009787441819520301,-0.007619171009253633,-0.11137319845917888
5136,2.0,299.51047,11747.855,0.0,0.0,-0.0513599956401789,0.0,0.0,0.0,-1.0061644319181982,-0.993061537587543,-1.5718285356273984,-0.01155208972135249,-0.01116715904811279,-0.11419369157003988
5137,2.0,299.8186,11749.653,0.0,0.0,-0.051370000060553034,0.0,0.0,0.0,-1.005894593284067,-0.992862119835362,-1.5728444201776586,-0.004586930716344816,-0.003740502416783846,-0.10418262859452491
5138,2.0,300.02017,11490.492,0.0,0.0,-0.051380004480927166,0.0,0.0,0.0,-0.9866798047477151,-0.97445651282887,-1.5316863024406684,0.009064874934708502,0.013021490830871089,-0.11421908361754589
5139,2.0,300.52661,11451.683,0.0,0.0,-0.05139000890130141,0.0,0.0,0.0,-0.982559757588598,-0.9565563555022621,-1.5419096919746385,0.001984831910837658,0.014368072856018385,-0.1112223559167919
5140,2.0,300.21816,11604.58,0.0,0.0,-0.05140001332167554,0.0,0.0,0.0,-0.9797203774958732,-0.9847935788915589,-1.5629886377799684,0.0004398673103415236,0.008451457174518883,-0.13227322456185087
5141,2.0,299.91857000000005,11791.207,0.0,0.0,-0.05140998483277226,0.0,0.0,0.0,-1.010010070685233,-0.9972438692303071,-1.5769784805856586,-0.0014663632843937887,0.011157133951623389,-0.12912347583099487
5142,2.0,299.7383,11626.123,0.0,0.0,-0.05141998925314639,0.0,0.0,0.0,-0.9735985838366991,-0.992317730954135,-1.5681347323878485,0.004724555917802365,0.002203103106304348,-0.14159601714193887
5143,2.0,299.87607,11369.107,0.0,0.0,-0.0514299936735203,0.0,0.0,0.0,-0.9724089978217961,-0.974609543991473,-1.5089060083924286,-0.0006311265854998443,-0.006214685489916704,-0.12840856709043888
5144,2.0,299.68441,11501.163999999999,0.0,0.0,-0.05143999809389466,0.0,0.0,0.0,-0.9627315069117021,-0.991758599283953,-1.5415765353417588,-0.0036464693624535063,-0.00995196881113285,-0.13311981528540287
5145,2.0,299.8171,11709.735,0.0,0.0,-0.05145000251426879,0.0,0.0,0.0,-1.000744587530801,-0.992791080870851,-1.5659314200453986,-0.006239633429903874,-0.00999080861264104,-0.11038216893387189
5146,2.0,299.10244,11638.275,0.0,0.0,-0.05146000693464303,0.0,0.0,0.0,-0.976822411282366,-0.997351010295881,-1.5635714592374885,0.000947479093686406,-0.008091940434987342,-0.13385988302594187
5147,2.0,299.2608,11500.468,0.0,0.0,-0.051470011355017165,0.0,0.0,0.0,-0.9744233086230931,-0.9715098700805591,-1.5499218658153786,0.0012593308563862789,0.002169482657386268,-0.11198248600931089
5148,2.0,300.10877,11506.631000000001,0.0,0.0,-0.0514800157753913,0.0,0.0,0.0,-0.986421851537257,-0.9627000556285981,-1.5486067685105884,0.005490635206958505,-0.0007252323911873643,-0.12272794252480487
5149,2.0,300.02471,11751.44,0.0,0.0,-0.051489987286488015,0.0,0.0,0.0,-1.017678408237039,-0.986874662874446,-1.5675912250342086,0.006311867218932794,0.0006919547146456134,-0.1034045842402379
5150,2.0,300.04616,11864.944,0.0,0.0,-0.051499991706861925,0.0,0.0,0.0,-1.035161532087489,-0.9715025949448411,-1.5999827029059985,0.008993111496376001,0.011426306880438688,-0.10257447909581291
5151,2.0,299.8909,11728.818000000001,0.0,0.0,-0.05150999612723617,0.0,0.0,0.0,-1.0062212651163072,-0.994402867937422,-1.5646434778432885,0.0015782716916882887,0.008389971233275692,-0.1079012868590279
5152,2.0,299.93682,11496.952,0.0,0.0,-0.0515200005476103,0.0,0.0,0.0,-0.9718214140888061,-0.968043612415966,-1.5549212418087786,-0.0032849296690973173,-0.0003458894274791287,-0.11373051468432789
5153,2.0,300.42354,11655.014,0.0,0.0,-0.051530004967984655,0.0,0.0,0.0,-0.9826758760500581,-0.9973868996144231,-1.5627703837084286,-0.004600928462501285,0.006920785439403343,-0.13321651987494687
5154,2.0,300.57957000000005,11765.168,0.0,0.0,-0.05154000938835879,0.0,0.0,0.0,-1.004842900475273,-1.004235649557842,-1.5672387153244185,0.0024772685210123677,0.001953462903641778,-0.12264212024133488
5155,2.0,299.90713,11622.622,0.0,0.0,-0.05155001380873292,0.0,0.0,0.0,-0.9997499103051339,-0.974716837044562,-1.5585201035139586,0.004238988434030587,-0.01015494752946529,-0.11325595899999288
5156,2.0,299.37622000000005,11432.958999999999,0.0,0.0,-0.051559985319829416,0.0,0.0,0.0,-0.9576360849413231,-0.973204814582837,-1.5444930744295984,0.007938168890536274,-0.005729206766853684,-0.11487387622966888
5157,2.0,299.17768,11492.625,0.0,0.0,-0.05156998974020377,0.0,0.0,0.0,-0.974565325757109,-0.9713961428893351,-1.5475095199772986,0.006998001581823983,-0.007894811513457231,-0.11642642869539388
5158,2.0,299.76212999999996,11868.895,0.0,0.0,-0.05157999416057779,0.0,0.0,0.0,-0.994854169531962,-1.020344978525209,-1.5926485960321786,-0.003537572942406267,-0.0033127144053894573,-0.1079685565331669
5159,2.0,299.94221,11870.594,0.0,0.0,-0.051589998580951923,0.0,0.0,0.0,-1.0074006477027029,-1.017228018567589,-1.5837356428525384,-0.006417673834125093,0.004909787965933345,-0.12585750731366888
5160,2.0,299.69916,11720.631000000001,0.0,0.0,-0.051600003001326056,0.0,0.0,0.0,-0.997308433526679,-0.990696064699089,-1.5747747629431683,0.00913444286272432,-0.002947315749027417,-0.12711036066481587
5161,2.0,300.01234,11517.706,0.0,0.0,-0.05161000742170019,0.0,0.0,0.0,-0.982958826140483,-0.965657580682983,-1.5524787011177184,0.01123302334436309,0.008844752733959132,-0.12787944788821887
5162,2.0,300.28212,11598.692,0.0,0.0,-0.05162001184207454,0.0,0.0,0.0,-0.9833979889988251,-0.9886519947423551,-1.5536628865095885,0.01115011415493059,-0.0040092523136823965,-0.13447679021682588
5163,2.0,299.91239,11704.663999999999,0.0,0.0,-0.051630016262448675,0.0,0.0,0.0,-1.0042283440246211,-0.9793114094905111,-1.5743858775547885,0.014329918923502886,0.0051671356581315855,-0.11538582084269389
5164,2.0,299.75563999999997,11638.013,0.0,0.0,-0.05163998777354517,0.0,0.0,0.0,-0.985992689457402,-0.9969870812574639,-1.5546855598355185,-0.001151156174385269,0.007845406451831332,-0.12781122575898587
5165,2.0,299.42424,11533.235,0.0,0.0,-0.051649992193919414,0.0,0.0,0.0,-0.982020262705354,-0.9759871486949321,-1.5478081247817685,-0.0024157176304377675,0.02006735034274328,-0.12866027868028088
5166,2.0,299.62687999999997,11700.714,0.0,0.0,-0.051659996614293546,0.0,0.0,0.0,-0.993202379351443,-0.996821830298655,-1.5667006795213185,-0.016096301610831285,-0.001991981200893238,-0.11421635797477689
5167,2.0,299.92591,11993.973999999998,0.0,0.0,-0.05167000103466768,0.0,0.0,0.0,-1.030805164607549,-1.023200317307009,-1.5918632258796683,-0.011850220324775689,0.00924621002295488,-0.11669227512413088
5168,2.0,300.2918,11960.752,0.0,0.0,-0.05168000545504181,0.0,0.0,0.0,-1.0326077365354491,-0.9935564089363831,-1.6096057417557186,0.0005463287992059546,-0.014141161575623987,-0.0979677841256675
5169,2.0,299.79275,11733.603000000001,0.0,0.0,-0.05169000987541594,0.0,0.0,0.0,-1.004281488992366,-0.986788698735962,-1.5756520348797485,0.004058318544474857,-0.013815031832187488,-0.11080396468549988
5170,2.0,299.97578,11610.231000000002,0.0,0.0,-0.051700014295790186,0.0,0.0,0.0,-0.9833640147229721,-0.9712585739232581,-1.5745977481506985,0.014753555750562588,-0.01277614245165709,-0.11154831847396189
5171,2.0,300.14222,11744.758,0.0,0.0,-0.05170998580688679,0.0,0.0,0.0,-1.007043477042453,-0.99066821045384,-1.5724013259089284,0.005742330686123915,0.007631740984694192,-0.12064461925919688
5172,2.0,300.39282000000003,11757.22,0.0,0.0,-0.05171999022726104,0.0,0.0,0.0,-0.997728982980684,-1.009489280398835,-1.5666831502945884,0.018763959116358583,0.012659947996439588,-0.14251045509218685
5173,2.0,299.5303,11585.208,0.0,0.0,-0.05172999464763517,0.0,0.0,0.0,-0.9928320871023981,-0.9729889923115371,-1.5557930421948185,0.006909741925238433,0.02075256882886908,-0.1339234442047149
5174,2.0,299.73565,11440.803,0.0,0.0,-0.05173999906800908,0.0,0.0,0.0,-0.972190520835234,-0.9835787021541601,-1.5219492729546984,-0.005155556641288825,0.004364322607800106,-0.14618016324435887
5175,2.0,299.5278,11558.962,0.0,0.0,-0.051750003488383434,0.0,0.0,0.0,-0.9731789969702891,-0.988423425784797,-1.5520334790237786,-0.016639556665196384,0.01040943947758169,-0.12388176081117788
5176,2.0,299.96581000000003,11809.684,0.0,0.0,-0.051760007908757566,0.0,0.0,0.0,-0.9982985004643912,-1.013014863856783,-1.5785356433393385,-0.009198586052354761,-0.0036248296840428367,-0.13104645226827788
5177,2.0,299.65257,11824.785,0.0,0.0,-0.05177001232913181,0.0,0.0,0.0,-1.0094893918563461,-1.006547926816046,-1.5784019956511486,-0.013538652668660986,0.0008603368797086392,-0.11082930607050089
5178,2.0,299.39468,11642.242,0.0,0.0,-0.051779983840228305,0.0,0.0,0.0,-0.9792386682658321,-0.98904701029384,-1.5706652231875884,0.010234691325585389,-0.0072922877117177634,-0.12234831824233888
5179,2.0,298.8238,11554.036,0.0,0.0,-0.05178998826060266,0.0,0.0,0.0,-0.978421015965136,-0.969587126690799,-1.5641302666676384,0.006664006079186193,0.006947497853114654,-0.11085831542086388
5180,2.0,299.5357,11881.521,0.0,0.0,-0.05179999268097679,0.0,0.0,0.0,-1.022340777247179,-0.9937398679994891,-1.5956049558489485,0.02151277288864538,-0.0043840442037714755,-0.1140725777855869
5181,2.0,299.54972000000004,11916.437,0.0,0.0,-0.0518099971013507,0.0,0.0,0.0,-1.0271498648717992,-0.9857124143472411,-1.6094369342890587,0.006587122282798353,0.0015399453040057685,-0.1070679393142829
5182,2.0,299.33425,11587.83,0.0,0.0,-0.051820001521724945,0.0,0.0,0.0,-0.9968580641222311,-0.9750042657004291,-1.5505487636522486,0.0037970634559159866,-0.003394585216119477,-0.12550941537431487
5183,2.0,299.97683,11602.552,0.0,0.0,-0.05183000594209908,0.0,0.0,0.0,-0.995249570118485,-0.9667322033415401,-1.5649043897440384,0.0014399546430624586,0.016963665987933484,-0.12069057015123189
5184,2.0,300.06571,11770.223,0.0,0.0,-0.05184001036247343,0.0,0.0,0.0,-1.0124737376408781,-0.9942974189995151,-1.5710828848788085,-0.0072036232617172635,0.0007967291522260452,-0.12847421556441788
5185,2.0,300.50899,11950.773000000001,0.0,0.0,-0.051850014782847564,0.0,0.0,0.0,-1.0334917972476991,-1.013607371985259,-1.5856375132902385,-0.011889506057652889,0.005739067919476905,-0.1209116309255489
5186,2.0,300.21096,11885.385,0.0,0.0,-0.05185998629394406,0.0,0.0,0.0,-1.030521657229569,-0.99696768765055,-1.5853708258639185,-0.012703244173212589,0.004589111027909996,-0.10838457675922489
5187,2.0,300.20847000000003,11746.346000000001,0.0,0.0,-0.05186999071431819,0.0,0.0,0.0,-0.986986424360476,-0.998844510545778,-1.5847649023041186,-0.005016053482095935,0.008105729654273234,-0.1163196017373509
5188,2.0,300.00554,11814.521,0.0,0.0,-0.05187999513469255,0.0,0.0,0.0,-1.0029520541986612,-0.997723531695146,-1.5906437793843184,-0.004268696319012526,-0.006612956917948033,-0.1145813205282959
5189,2.0,299.54514,11958.964,0.0,0.0,-0.05188999955506657,0.0,0.0,0.0,-1.0123097025821892,-1.008499446508646,-1.6144173625055884,0.006898399806269054,-0.009078047489983532,-0.12132103462845388
5190,2.0,299.10436,11820.05,0.0,0.0,-0.0519000039754407,0.0,0.0,0.0,-1.001748941294923,-1.005687566023635,-1.5855634447079285,0.007387870633401062,-0.0001180652290096309,-0.12690254306930587
5191,2.0,299.8429,11576.34,0.0,0.0,-0.05191000839581483,0.0,0.0,0.0,-0.971856827179801,-0.970017757983299,-1.5770438352171086,0.011675223926504889,0.016838961245126086,-0.11928692492020287
5192,2.0,299.53447,11558.503999999999,0.0,0.0,-0.051920012816188965,0.0,0.0,0.0,-0.9576598456561681,-0.9907619968830961,-1.5650747170858483,0.013883394803184387,0.008095078571872052,-0.13294990337613388
5193,2.0,299.87602000000004,11796.571000000002,0.0,0.0,-0.05192998432728568,0.0,0.0,0.0,-1.010375884368836,-1.002452015274311,-1.5730350125214685,0.009610299357537702,0.0027555531013519173,-0.13150443118097688
5194,2.0,300.46813,11938.531,0.0,0.0,-0.051939988747659815,0.0,0.0,0.0,-1.031982561223749,-1.001734087048457,-1.5952987516687285,-0.006246505697382114,-0.01202134205466409,-0.12393762128919089
5195,2.0,300.06253,11739.601,0.0,0.0,-0.05194999316803395,0.0,0.0,0.0,-1.006820916657988,-1.000453703692093,-1.5612709762104484,0.01050095723986379,0.0032333009288019574,-0.13202853479520188
5196,2.0,299.93875,11739.853000000001,0.0,0.0,-0.05195999758840819,0.0,0.0,0.0,-0.9933642359224171,-0.9887671708812221,-1.5864907711994485,-0.008882856814569712,-0.012790965287369989,-0.1151569580426069
5197,2.0,300.33772999999997,11913.506000000001,0.0,0.0,-0.05197000200878232,0.0,0.0,0.0,-1.022654986103189,-1.007820832386672,-1.5909325556628184,-0.013127257929309487,-0.014495130365557987,-0.10758215360753191
5198,2.0,300.01723,11913.663999999999,0.0,0.0,-0.051980006429156456,0.0,0.0,0.0,-1.012747994045445,-1.004595768775883,-1.6041127103135986,-0.025482719204448577,-0.01090619547160769,-0.1015203848842819
5199,2.0,299.9056,11844.35,0.0,0.0,-0.05199001084953059,0.0,0.0,0.0,-1.024980293757679,-0.980890397651345,-1.5945158133164585,0.0008067274482503002,0.025300391941704276,-0.10504628244976091
5200,2.0,299.51571,11662.873,0.0,0.0,-0.05200001526990472,0.0,0.0,0.0,-0.9825526749703991,-0.996443827216349,-1.5662255665494287,0.0012157933234394588,0.011226116018431388,-0.1138762707112129
5201,2.0,299.01542,11603.096000000001,0.0,0.0,-0.05200998678100144,0.0,0.0,0.0,-0.9808869931310091,-0.988383777308384,-1.5577807349159885,0.003491859961494747,-0.0020674910301454784,-0.1411758932529759
5202,2.0,299.7323,11850.458,0.0,0.0,-0.05201999120137557,0.0,0.0,0.0,-1.013337746133649,-1.000023254784611,-1.5888825480604984,0.014539862317722686,-0.006717900649355174,-0.12376648334730088
5203,2.0,300.22234,11967.935,0.0,0.0,-0.052029995621749814,0.0,0.0,0.0,-1.034722794794189,-1.021477082861939,-1.5817534216819085,0.017163370489892787,-0.00047933611724679156,-0.14022474525160486
5204,2.0,299.86232,11721.906,0.0,0.0,-0.052040000042123946,0.0,0.0,0.0,-0.997226005631044,-0.992470559466718,-1.5734701021144086,0.01985499034703498,-0.007340600692385883,-0.11679226264399888
5205,2.0,299.98392,11554.014,0.0,0.0,-0.052050004462497856,0.0,0.0,0.0,-0.98277022989937,-0.9824665993744042,-1.5468947811416285,-0.01120911165525319,-0.023741656623869078,-0.13194451609690988
5206,2.0,299.96977000000004,11717.787,0.0,0.0,-0.05206000888287221,0.0,0.0,0.0,-1.001095861075469,-0.9938909233243971,-1.5669279515187484,-0.0025562758869597875,-0.023259184416502775,-0.1217765513434099
5207,2.0,300.02701,11912.219,0.0,0.0,-0.05207001330324634,0.0,0.0,0.0,-1.019958930237109,-1.006924673468228,-1.5941335140537285,-0.005364824400341944,0.016569372883769785,-0.12460092520215389
5208,2.0,299.87957,11912.561000000002,0.0,0.0,-0.05207998481434295,0.0,0.0,0.0,-1.000952780028848,-1.029559170959579,-1.5906091262308986,0.011654939672752988,0.01262440318293159,-0.12466051444053489
5209,2.0,299.99874,11728.023000000001,0.0,0.0,-0.05208998923471708,0.0,0.0,0.0,-0.98207372178063,-0.9963333018954411,-1.5866191499871185,-0.010068347272568511,-0.0016007653372832383,-0.11848429911848989
5210,2.0,300.72972999999996,11722.265,0.0,0.0,-0.05209999365509144,0.0,0.0,0.0,-0.978104476633896,-1.0002659687135649,-1.5849054400929885,-0.004603728680477646,0.00992859343530088,-0.11483343741817789
5211,2.0,300.60075,11870.979,0.0,0.0,-0.05210999807546557,0.0,0.0,0.0,-1.01265806809907,-1.014019055500889,-1.5818039828618986,-0.0039547517186286065,0.02038971991505868,-0.12416046538368389
5212,2.0,299.87757,11991.508,0.0,0.0,-0.05212000249583948,0.0,0.0,0.0,-1.033510542374549,-0.9967776424617941,-1.6148306672213786,0.0034479513763613066,0.001897540921347708,-0.11086194285622189
5213,2.0,300.02905,11879.073,0.0,0.0,-0.05213000691621372,0.0,0.0,0.0,-1.021826248846399,-1.013226511537671,-1.5758889327531285,-0.00969652177347219,-0.020813891738171178,-0.13586058587839586
5214,2.0,300.31305,11818.523000000001,0.0,0.0,-0.052140011336587855,0.0,0.0,0.0,-1.0100453419212139,-1.005274241042843,-1.5772161890591185,0.003034455460277437,-0.006065713305889294,-0.12915893958449487
5215,2.0,300.16727000000003,11889.91,0.0,0.0,-0.05215001575696221,0.0,0.0,0.0,-1.017920980310979,-1.011483934148192,-1.5848306622356085,0.008697471259048581,0.02140499854175888,-0.1291612700597249
5216,2.0,299.67406,11904.858999999999,0.0,0.0,-0.052159987268058705,0.0,0.0,0.0,-1.024567596991949,-1.015088844956469,-1.5791236323723683,0.006140328131328203,0.003262881650896347,-0.1167678635815909
5217,2.0,299.709,11807.413999999999,0.0,0.0,-0.05216999168843284,0.0,0.0,0.0,-1.0110580853961642,-0.989159329067425,-1.5889416205413285,0.004275666162475396,-0.018169554183695383,-0.1048961795799469
5218,2.0,299.92339,11756.403999999999,0.0,0.0,-0.05217999610880697,0.0,0.0,0.0,-0.9933362398221541,-1.003094729945242,-1.5772222685597184,-0.007215430057182504,0.00931864798187895,-0.1088971901173159
5219,2.0,299.66164,11796.168,0.0,0.0,-0.052190000529181324,0.0,0.0,0.0,-0.9943272288174572,-1.010451969318845,-1.5809614654037485,0.0006248026991082253,0.025687743269432874,-0.11981362245468388
5220,2.0,299.5033,11889.649,0.0,0.0,-0.052200004949555345,0.0,0.0,0.0,-1.0049259261884669,-0.9987645043178821,-1.6104658897656086,-0.010767014424621591,0.008688599849123043,-0.12261105399326888
5221,2.0,299.52797999999996,11887.868,0.0,0.0,-0.05221000936992948,0.0,0.0,0.0,-0.9981096610432542,-1.022403902728409,-1.5931013161768586,-0.005440421267777776,-0.006547019566365523,-0.13989993779954887
5222,2.0,299.67922999999996,11775.313,0.0,0.0,-0.05222001379030361,0.0,0.0,0.0,-1.000385978055409,-0.9874484664060761,-1.5915665462503883,-0.007853842366863893,-0.005659052977630045,-0.12269248890380588
5223,2.0,300.36122,11655.069,0.0,0.0,-0.05222998530140033,0.0,0.0,0.0,-0.988854361052327,-0.984166518934673,-1.5698289878800586,0.013014340324915387,0.018254797901358283,-0.1295462037727149
5224,2.0,300.33862,11771.841,0.0,0.0,-0.05223998972177446,0.0,0.0,0.0,-1.006932718674022,-0.988849152946813,-1.5825639204368986,-0.005578576905662675,0.01211919566982149,-0.13742999882578488
5225,2.0,300.26144,11967.99,0.0,0.0,-0.05224999414214859,0.0,0.0,0.0,-1.043172084728069,-1.0020011088473102,-1.5927968345218084,0.01131880104482869,-0.013959028856898885,-0.11983796072208588
5226,2.0,300.60187,11938.409,0.0,0.0,-0.052259998562522725,0.0,0.0,0.0,-1.0216215723261992,-1.021122141351909,-1.5862345202491586,0.00882100600196551,-0.006975967141174354,-0.13134147016739386
5227,2.0,300.38176,11853.072,0.0,0.0,-0.05227000298289697,0.0,0.0,0.0,-1.015432944690429,-1.001488292839199,-1.5861165779375186,0.014099541314516385,0.0020412643685321077,-0.1180631518469259
5228,2.0,299.61502,11902.077,0.0,0.0,-0.0522800074032711,0.0,0.0,0.0,-1.021782476442079,-1.003025170325877,-1.5931266474293586,-0.013884141568508087,-0.01089924558917179,-0.1075013165145539
5229,2.0,299.84707000000003,11993.858,0.0,0.0,-0.05229001182364523,0.0,0.0,0.0,-1.025781065311709,-1.017997582018539,-1.6020546980354884,-0.02211057322239368,-0.026698030626140477,-0.1062474093833029
5230,2.0,299.88782000000003,11891.011,0.0,0.0,-0.052300016244019365,0.0,0.0,0.0,-1.004045695561595,-0.994499329346942,-1.6160254917392984,-0.00943284451054927,0.005422783825937094,-0.1129959387593309
5231,2.0,299.61981000000003,11793.493,0.0,0.0,-0.05230998775511586,0.0,0.0,0.0,-0.9906274575348182,-1.0127497469681181,-1.5815501637118485,0.010103526404115422,0.032153125984516466,-0.13005382180781289
5232,2.0,299.63276,11781.918,0.0,0.0,-0.052319992175490215,0.0,0.0,0.0,-0.98091851534162,-1.0016058197182982,-1.5988846437726285,9.68488449474868e-05,0.019293583930378482,-0.13500604114155887
5233,2.0,300.20017,11865.391000000001,0.0,0.0,-0.05232999659586435,0.0,0.0,0.0,-1.021494004138609,-0.99882426580878,-1.5864643253718385,2.937872359420427e-05,0.0001972433681289048,-0.12861257486557287
5234,2.0,299.79233999999997,11857.595,0.0,0.0,-0.05234000101623859,0.0,0.0,0.0,-1.01081040654172,-1.01087839562343,-1.5827239126276884,0.0017967702604774185,0.00978686538153841,-0.1232379720951409
5235,2.0,300.11451,11859.57,0.0,0.0,-0.05235000543661272,0.0,0.0,0.0,-1.015152882362789,-1.007482872948318,-1.5823773810934882,0.014516068165624386,0.004445984081059466,-0.11954957961112488
5236,2.0,300.43498999999997,11905.09,0.0,0.0,-0.05236000985698663,0.0,0.0,0.0,-1.016862336606499,-1.0154949555965491,-1.5864928990246585,0.0013424947768939188,-0.013349457596738886,-0.12321219501259689
5237,2.0,300.33029,12058.358,0.0,0.0,-0.05237001427736099,0.0,0.0,0.0,-1.028602966840209,-1.029243746203449,-1.6075931230820883,-0.004996541932870295,-0.017406310373619085,-0.11868204500800589
5238,2.0,300.08056,12093.573,0.0,0.0,-0.052379985788457484,0.0,0.0,0.0,-1.025275960136859,-1.0416801752808291,-1.6091880800644986,0.008600731611051123,-0.001136773393190799,-0.11482183570453287
5239,2.0,300.27215,11905.255,0.0,0.0,-0.05238999020883173,0.0,0.0,0.0,-1.023984268909379,-1.0071209906751029,-1.5877948240781485,0.01296574383686929,0.012206975552484688,-0.11766349560998289
5240,2.0,300.85331,11847.368999999999,0.0,0.0,-0.05239999462920586,0.0,0.0,0.0,-1.001253168153494,-1.000578900874449,-1.5994722275056186,0.003195792639250177,-0.0038578717354922965,-0.1129403822563479
5241,2.0,300.87559,11791.136,0.0,0.0,-0.052409999049580214,0.0,0.0,0.0,-0.9989041301816621,-0.990667379588758,-1.5946393285036484,-0.0049057184495567155,-0.013567131075971588,-0.11302248591195088
5242,2.0,300.97709,11890.388,0.0,0.0,-0.052420003469954346,0.0,0.0,0.0,-0.9949713012435221,-1.0093641946739902,-1.6100455936241285,0.0027690316581571476,0.012654704427172089,-0.12552073337793188
5243,2.0,300.12066,11963.567,0.0,0.0,-0.052430007890328256,0.0,0.0,0.0,-1.004073955106884,-1.018639779931919,-1.6139120546807184,0.000986367987161941,0.015792590025857287,-0.13356682069951886
5244,2.0,299.46983,11941.365,0.0,0.0,-0.0524400123107025,0.0,0.0,0.0,-1.013290832654019,-1.020099670675999,-1.5964863821109383,0.006727143111467333,-0.0063325434991483845,-0.12874414539105788
5245,2.0,299.72541,11908.456,0.0,0.0,-0.05244998382179911,0.0,0.0,0.0,-1.032347331259749,-1.001974946729728,-1.5855509817316984,-0.011979857569069888,-0.014913423311590287,-0.11562676158397289
5246,2.0,299.89767,11940.358999999999,0.0,0.0,-0.05245998824217335,0.0,0.0,0.0,-1.020241424364989,-1.0122074757796,-1.5971219938986685,0.004784921812385016,0.004388938607054516,-0.1102592920942449
5247,2.0,299.7218,11977.67,0.0,0.0,-0.05246999266254748,0.0,0.0,0.0,-1.025509919584949,-1.012886110166576,-1.6025165374310684,0.0014831999546804386,-0.0033910743045229767,-0.11875742068294488
5248,2.0,300.06827999999996,11965.101,0.0,0.0,-0.052479997082921614,0.0,0.0,0.0,-1.019479358964779,-1.00695083558581,-1.6106617510099384,0.013290288857149387,-0.006705819972387904,-0.11231052572918589
5249,2.0,300.89706,11904.761,0.0,0.0,-0.05249000150329575,0.0,0.0,0.0,-1.006811777142086,-1.011945266918722,-1.5999930380570184,0.00939132375060149,-0.013938516621874487,-0.13879878825337386
5250,2.0,300.89799,11897.903999999999,0.0,0.0,-0.0525000059236701,0.0,0.0,0.0,-1.0173983459093991,-1.002563341062798,-1.5967041295574285,0.013305021513603387,0.014650398784381785,-0.1284073815878219
5251,2.0,300.52689,11927.278,0.0,0.0,-0.05251001034404412,0.0,0.0,0.0,-1.013537863028399,-1.007932056850149,-1.6041247679897883,-0.007436782242228264,0.0027029312746335472,-0.13253186678237686
5252,2.0,300.30728999999997,11881.59,0.0,0.0,-0.052520014764418255,0.0,0.0,0.0,-0.9965941226036821,-1.0122025412516131,-1.6029098811198885,-0.010808588076224592,-0.01108344939110129,-0.1278243372152799
5253,2.0,300.15684,11984.563,0.0,0.0,-0.05252998627551475,0.0,0.0,0.0,-1.0181575742093292,-1.003974291827048,-1.6208759199679983,-0.0041858798419641755,-0.014443382669700884,-0.11790478085629588
5254,2.0,299.92863,11975.357,0.0,0.0,-0.052539990695889105,0.0,0.0,0.0,-1.017496631169099,-1.018439055087109,-1.6042737157544884,0.0064185782611643535,0.0003927278050117167,-0.12101346256059888
5255,2.0,299.76936,11832.765,0.0,0.0,-0.05254999511626324,0.0,0.0,0.0,-1.018096981853349,-0.9999905065413791,-1.5787776074632185,0.011539464625106488,-0.003713188740463197,-0.1276950363700189
5256,2.0,299.88957,11943.46,0.0,0.0,-0.05255999953663737,0.0,0.0,0.0,-1.038893028230759,-1.0060140554708572,-1.5856064065121684,-0.0020407408222054384,-0.013476782604304885,-0.12979540250230887
5257,2.0,299.89709,12026.809,0.0,0.0,-0.0525700039570115,0.0,0.0,0.0,-1.039507361766389,-1.022123232450709,-1.5942189310371586,0.0012486712626842587,-0.012060848676063088,-0.11223666992939689
5258,2.0,300.29693,11896.521999999999,0.0,0.0,-0.052580008377385745,0.0,0.0,0.0,-1.008901169775793,-0.9985809337972651,-1.6087636295976084,-0.007126861156666432,0.0005703173129384365,-0.12085487878744788
5259,2.0,300.28855,11936.026000000002,0.0,0.0,-0.05259001279775988,0.0,0.0,0.0,-1.009133264843699,-1.01053176276422,-1.6085886413053385,-0.003187670730423607,0.008421362329323752,-0.11873728740345789
5260,2.0,300.19375,12031.627,0.0,0.0,-0.052599984308856595,0.0,0.0,0.0,-1.012248745456173,-1.021808111669609,-1.6232572603530184,-0.016110463807478985,-0.004667888892709766,-0.13768204478815987
5261,2.0,300.48991,11929.528999999999,0.0,0.0,-0.052609988729230506,0.0,0.0,0.0,-1.011905284069776,-0.9961557703454201,-1.6182179623056785,0.004059547616846156,0.0046327344844652955,-0.13022406808961487
5262,2.0,300.80418,11806.646,0.0,0.0,-0.05261999314960464,0.0,0.0,0.0,-1.009839327910882,-1.003146902192891,-1.5759392912830985,0.0017478749649768282,0.015703719886086487,-0.14519137300177287
5263,2.0,299.86727,11874.22,0.0,0.0,-0.05262999756997899,0.0,0.0,0.0,-1.0011692203827092,-1.0059772846247281,-1.6023199669116683,0.0008258060863707153,0.017301187702244286,-0.12332551690378088
5264,2.0,299.77133,11969.357,0.0,0.0,-0.052640001990353125,0.0,0.0,0.0,-1.020220956712969,-1.010643200010218,-1.6075215876250286,-0.0038434437633433666,-0.0074796412015831135,-0.11693709661329289
5265,2.0,299.47668999999996,12030.52,0.0,0.0,-0.05265000641072737,0.0,0.0,0.0,-1.0262299351060091,-1.0247781503627291,-1.6059695924468587,-0.006794840985098594,0.0014466391552971688,-0.11000998190713988
5266,2.0,299.17072,12076.681,0.0,0.0,-0.0526600108311015,0.0,0.0,0.0,-1.034072896180049,-1.010224839176429,-1.6267117339189485,0.0023804182261039876,0.008171932376056932,-0.10802974670670588
5267,2.0,299.85434,12065.867,0.0,0.0,-0.05267001525147541,0.0,0.0,0.0,-1.042974399633559,-1.020695259084779,-1.6040526245826685,0.0037871686633894467,0.005480318497090324,-0.12370787696151687
5268,2.0,299.93007,12076.747,0.0,0.0,-0.05267998676257213,0.0,0.0,0.0,-1.048441390548109,-1.017895547733469,-1.6046926946708384,-0.007751628128576133,-0.013838401432493886,-0.13216750204641686
5269,2.0,299.8139,12079.158000000001,0.0,0.0,-0.05268999118294626,0.0,0.0,0.0,-1.033081734932229,-1.014655072588659,-1.6240256079038484,-0.0039762000954203965,-0.006287568164309664,-0.12264584900170289
5270,2.0,300.32295,12002.702,0.0,0.0,-0.052699995603320504,0.0,0.0,0.0,-1.013839710233189,-1.016087098954989,-1.6185947900178685,0.01159475363006309,0.0024132841076725977,-0.1168224676294799
5271,2.0,300.62972,11774.606000000002,0.0,0.0,-0.052710000023694636,0.0,0.0,0.0,-0.978119959095424,-0.9858328087241229,-1.6152333328111184,0.01785812973896018,0.007856848781235602,-0.10884253540692189
5272,2.0,299.92073999999997,11763.678,0.0,0.0,-0.05272000444406899,0.0,0.0,0.0,-0.9727400266294661,-1.0027343979446801,-1.6003901307712085,-0.0021212996767059782,-0.01102883723721149,-0.13304656743567386
5273,2.0,299.74462,11990.556,0.0,0.0,-0.05273000886444312,0.0,0.0,0.0,-1.0360955460296688,-1.009577635807555,-1.5991563974494485,-0.01118051267118069,0.001139792473188759,-0.1197091361043719
5274,2.0,299.20464,12049.173,0.0,0.0,-0.05274001328481703,0.0,0.0,0.0,-1.042528974889599,-1.016167551012929,-1.6039510969226485,-0.026774139894151873,0.014683092312108384,-0.13281680284299788
5275,2.0,299.53565,12030.669,0.0,0.0,-0.05274998479591375,0.0,0.0,0.0,-1.033987377871609,-1.029756146779019,-1.5932793442194286,-0.021669845905897277,0.017203992699651883,-0.13295368279900688
5276,2.0,300.32151,12139.505,0.0,0.0,-0.052759989216287884,0.0,0.0,0.0,-1.054513291772359,-1.021290948818569,-1.6143021559692183,-0.009296497220117841,-0.010032649052995371,-0.1096039827245709
5277,2.0,299.63608999999997,12059.252,0.0,0.0,-0.05276999363666213,0.0,0.0,0.0,-1.035710207016639,-1.01237922167155,-1.6176221712468786,-0.004909884326017856,0.00025998530379855176,-0.12160782493675788
5278,2.0,299.487,11963.874,0.0,0.0,-0.05277999805703626,0.0,0.0,0.0,-1.016883513533589,-1.011332676173264,-1.6085028190218684,0.021087216965896282,0.00018200178654717783,-0.1177678401052809
5279,2.0,300.06699,12020.571000000002,0.0,0.0,-0.05279000247741039,0.0,0.0,0.0,-1.034674969389469,-1.000185982750671,-1.6190922958169685,0.014294268731984488,0.0037472987918295963,-0.12649390943647687
5280,2.0,300.40915,12031.105,0.0,0.0,-0.052800006897784524,0.0,0.0,0.0,-1.007713377213567,-1.032286130953709,-1.6171561775258885,0.023485220248810775,-0.013293602184976385,-0.12431791431672287
5281,2.0,300.11652000000004,11875.684,0.0,0.0,-0.052810011318158656,0.0,0.0,0.0,-0.99909166251017,-1.019993684715539,-1.5908259617522984,0.0054903932428346245,-0.003796591990644457,-0.14008190738500786
5282,2.0,300.06999,11949.063,0.0,0.0,-0.0528200157385329,0.0,0.0,0.0,-1.001137850159613,-1.0109218843177221,-1.6201572216720685,-0.0009304290633261991,0.012459338662140988,-0.1144413501594819
5283,2.0,299.9349,12219.862,0.0,0.0,-0.052829987249629506,0.0,0.0,0.0,-1.037885047031279,-1.043703737055539,-1.6329441339590383,-0.022426535001076678,0.0093720295435223,-0.12897988815932387
5284,2.0,300.57407,12238.098,0.0,0.0,-0.05283999167000353,0.0,0.0,0.0,-1.037200191288689,-1.0349023427119088,-1.6479735713673285,4.784629591056175e-05,-0.014861076784924088,-0.11348028243963189
5285,2.0,300.40393,12037.669,0.0,0.0,-0.05284999609037788,0.0,0.0,0.0,-1.043090315444999,-1.0260620395644389,-1.5899984403956284,-0.005011560123202475,-0.0022481502805751577,-0.12490286359945289
5286,2.0,299.56905,12033.999,0.0,0.0,-0.052860000510752014,0.0,0.0,0.0,-1.023688906505229,-1.012575204505892,-1.6217711264313486,0.01323705371014549,0.011445029715786488,-0.1269052281820709
5287,2.0,299.5202,12058.112,0.0,0.0,-0.05287000493112615,0.0,0.0,0.0,-1.046626659619009,-1.0117322817477021,-1.6070059446491383,-0.004880345147177566,0.004642467460950865,-0.12980634560338888
5288,2.0,299.58245,11994.014,0.0,0.0,-0.05288000935150028,0.0,0.0,0.0,-1.014377442061259,-1.018347963903119,-1.6131554608310483,0.0022475417225650976,-0.014271850573521988,-0.1271301291742669
5289,2.0,299.74104,11934.341,0.0,0.0,-0.05289001377187452,0.0,0.0,0.0,-1.003302517143249,-1.011817850718647,-1.6126213767033384,0.001010389360595166,-0.016759228594757085,-0.1311675761852319
5290,2.0,299.36185,11823.241000000002,0.0,0.0,-0.05289998528297113,0.0,0.0,0.0,-0.9960687220293292,-0.9987724684636682,-1.5991287357217183,0.016131759284830682,0.0006174342227910134,-0.1285877603706239
5291,2.0,299.79319,11969.973,0.0,0.0,-0.05290998970334537,0.0,0.0,0.0,-1.008943655352486,-1.024042530790129,-1.6055865839090586,-0.002084301862554578,0.009076361441817131,-0.13961217477114887
5292,2.0,300.15148999999997,12175.988000000001,0.0,0.0,-0.05291999412371928,0.0,0.0,0.0,-1.0464408295506689,-1.023062920593449,-1.6316925674355185,-0.012257811323251789,-0.017219214755904183,-0.12186574774971287
5293,2.0,300.49194,12122.683,0.0,0.0,-0.052929998544093415,0.0,0.0,0.0,-1.0339757254954591,-1.037848063402629,-1.6131692410324086,0.005229202698307125,-0.0045167922271976855,-0.1319449517944529
5294,2.0,300.31872999999996,11952.014,0.0,0.0,-0.05294000296446777,0.0,0.0,0.0,-1.0072037124132671,-1.0067793430063852,-1.6191307993207684,0.02300295271796468,0.01946553652534888,-0.11746643873053489
5295,2.0,300.4521,12006.438,0.0,0.0,-0.0529500073848419,0.0,0.0,0.0,-1.019057238973119,-1.014262539499919,-1.6163374714450882,0.013380220883024988,0.012461651912119289,-0.12334892298109087
5296,2.0,300.18422000000004,12162.253,0.0,0.0,-0.052960011805216145,0.0,0.0,0.0,-1.062828731368029,-1.014455664968979,-1.6197368242055785,-0.018668310333418783,-0.026455653096219674,-0.1022374923775549
5297,2.0,300.48615,12204.413999999999,0.0,0.0,-0.05297001622559028,0.0,0.0,0.0,-1.048347259613819,-1.0281351492690392,-1.6333546015745484,-0.0027077544464345574,-0.008425499936107101,-0.1285442615438309
5298,2.0,300.17278,12102.742,0.0,0.0,-0.052979987736686995,0.0,0.0,0.0,-1.0379007524078292,-1.0279007845209092,-1.6131298256035183,-0.006138810282678405,0.008590767816192772,-0.1233718730958559
5299,2.0,299.73672999999997,12061.127,0.0,0.0,-0.052989992157060906,0.0,0.0,0.0,-1.0174908556435291,-1.0280825615888491,-1.6207079231014185,0.00984294553217309,0.02082703865821868,-0.12692368959889289
5300,2.0,299.92167,12106.499,0.0,0.0,-0.05299999657743504,0.0,0.0,0.0,-1.018329928051339,-1.030174821720339,-1.6315685456232787,-0.005847506755778984,-0.012156584598511488,-0.13306661965515287
5301,2.0,299.75625,12098.806,0.0,0.0,-0.05301000099780928,0.0,0.0,0.0,-1.021991003312659,-1.030728258924959,-1.6250157559015683,0.01005317891857151,-0.0008544388623340502,-0.12207262302262988
5302,2.0,299.87352999999996,11968.013,0.0,0.0,-0.053020005418183414,0.0,0.0,0.0,-1.027462351202639,-1.0065811411543242,-1.6039335676959183,0.02149563072345358,-0.006130236869607274,-0.12687785016436887
5303,2.0,299.89796,11869.362,0.0,0.0,-0.05303000983855777,0.0,0.0,0.0,-0.9933619054471872,-1.020799522520069,-1.5938283231236086,0.02031275951696328,-0.012496912002349187,-0.12316634544557188
5304,2.0,299.66641,11940.67,0.0,0.0,-0.0530400142589319,0.0,0.0,0.0,-1.016996288269719,-1.014115010285359,-1.5985543242400286,-0.012113895358548387,-0.03395435738253417,-0.12859060760340488
5305,2.0,300.55451,12271.851,0.0,0.0,-0.053049985770028396,0.0,0.0,0.0,-1.0547884904995188,-1.0345204487492188,-1.6410273366317882,-0.020052250889753084,-0.007645154186867972,-0.11599946536825588
5306,2.0,301.03219,12305.487,0.0,0.0,-0.05305999019040253,0.0,0.0,0.0,-1.044442801678479,-1.049710182323329,-1.6464076946627884,-0.01241855129261559,0.015713925341093685,-0.13256737106588087
5307,2.0,300.26063,12017.106000000002,0.0,0.0,-0.05306999461077666,0.0,0.0,0.0,-1.044108733120509,-1.00809621349885,-1.6006952203763185,-0.008729821598966311,0.016002903256363585,-0.12437845601019788
5308,2.0,300.26252999999997,12106.902,0.0,0.0,-0.053079999031150904,0.0,0.0,0.0,-1.0331301682870089,-1.027060496212979,-1.6200052341570685,-0.008081324208389603,-0.015841495555183886,-0.13187385203493587
5309,2.0,300.1351,12228.934,0.0,0.0,-0.053090003451525036,0.0,0.0,0.0,-1.056542223772599,-1.033934283566369,-1.6268140721790485,-0.004967834227062065,-0.0016928049233668383,-0.13700270112611387
5310,2.0,299.59251,12070.098999999998,0.0,0.0,-0.05310000787189917,0.0,0.0,0.0,-1.021313037670749,-1.027277129084359,-1.6204185388728585,0.01000567876713361,0.007595248073067624,-0.13287741546397985
5311,2.0,300.28218,11996.942,0.0,0.0,-0.0531100122922733,0.0,0.0,0.0,-1.008666034957587,-1.022919849679329,-1.6151847981313285,0.002268899210822918,0.006509042445992474,-0.13034117953617286
5312,2.0,299.9815,11941.652,0.0,0.0,-0.05311998380337002,0.0,0.0,0.0,-0.992787980325545,-1.01075386718614,-1.6264222483653785,0.004397226891547507,-0.00998187154410902,-0.11448541640633089
5313,2.0,299.24221,11919.969,0.0,0.0,-0.05312998822374415,0.0,0.0,0.0,-1.0269953442315491,-1.000544197058524,-1.5958333424214883,0.007826833172198294,-0.0035191127414843865,-0.1154275160843089
5314,2.0,300.1851,12273.903,0.0,0.0,-0.053139992644118283,0.0,0.0,0.0,-1.059686744132939,-1.037279731421539,-1.6339936584126182,0.0027326255820641476,0.013548167087099989,-0.1103389740821089
5315,2.0,299.9222,12481.642,0.0,0.0,-0.053149997064492305,0.0,0.0,0.0,-1.079134863902319,-1.060556011393729,-1.6544165247781983,-0.005785141516099015,0.0024539519136861977,-0.12490645050480689
5316,2.0,299.93484,12276.203000000001,0.0,0.0,-0.05316000148486666,0.0,0.0,0.0,-1.051279909378249,-1.040726706936729,-1.6396525588961086,-0.0015775425569163283,-0.02145013579396358,-0.11786897259776188
5317,2.0,300.57353,12139.038999999999,0.0,0.0,-0.05317000590524079,0.0,0.0,0.0,-1.0298803712412792,-1.027870184367889,-1.6322142899120085,0.007877695996743062,0.003216971390190357,-0.14081520661487887
5318,2.0,300.46734,12190.266000000001,0.0,0.0,-0.053180010325614924,0.0,0.0,0.0,-1.035991079944359,-1.020207784461669,-1.6493377099769586,0.006211179644570703,0.019700319745770183,-0.11883398186050088
5319,2.0,300.45992,12096.643,0.0,0.0,-0.053190014745989056,0.0,0.0,0.0,-1.0496874855210891,-1.0187067557635292,-1.6086832788646785,-0.02056489768509738,0.015151929212878987,-0.1290473706159839
5320,2.0,300.6459,12026.153999999999,0.0,0.0,-0.053199986257085774,0.0,0.0,0.0,-1.020272125843019,-1.011720092348999,-1.6236585073926184,-0.017057738153717684,-0.0004388634024074456,-0.12429210683667588
5321,2.0,300.33437000000004,12045.75,0.0,0.0,-0.053209990677459906,0.0,0.0,0.0,-1.029903878643599,-1.011873944244183,-1.6198292326146984,-0.016546598061272084,0.0003580910763758376,-0.13069734707882388
5322,2.0,299.97976,12154.627,0.0,0.0,-0.05321999509783415,0.0,0.0,0.0,-1.019385734655539,-1.040248351564519,-1.6350688180937285,0.007491007334579863,4.7929877898060655e-06,-0.12351465016744688
5323,2.0,300.1256,12312.021999999999,0.0,0.0,-0.05322999951820806,0.0,0.0,0.0,-1.0304832550507792,-1.052371179735949,-1.6596928220239284,-0.0030846406231553273,-0.001247204785814529,-0.11160374325443188
5324,2.0,299.9347,12460.421999999999,0.0,0.0,-0.05324000393858219,0.0,0.0,0.0,-1.063739643207929,-1.069207546047569,-1.6547097593571385,0.015309053905885987,-0.007563244872634153,-0.11810731941878488
5325,2.0,299.9559,12299.843,0.0,0.0,-0.053250008358956546,0.0,0.0,0.0,-1.068380328665929,-1.033526957026169,-1.6369378592281885,0.01998131730325248,0.006071585698168854,-0.1026391751146979
5326,2.0,299.81449,12090.353000000001,0.0,0.0,-0.05326001277933068,0.0,0.0,0.0,-1.031714252597269,-1.030883792815309,-1.6125671678229885,0.017062709158708285,0.019772439848137882,-0.13487501777112787
5327,2.0,299.90131,12084.78,0.0,0.0,-0.053269984290427286,0.0,0.0,0.0,-1.021263895040899,-1.029973184950439,-1.6222342830520584,0.000894638202296416,0.005084763187277056,-0.13951355513891586
5328,2.0,300.29814,12173.716999999999,0.0,0.0,-0.05327998871080142,0.0,0.0,0.0,-1.030167222344589,-1.020900847530069,-1.6494380217368585,-0.015716552698602986,-0.006658285573096624,-0.14125637570841887
5329,2.0,300.89218,12046.072,0.0,0.0,-0.05328999313117577,0.0,0.0,0.0,-1.004081453157624,-1.0301931615471491,-1.6274304322148785,-0.0026406500333868675,-0.0003508815080718087,-0.13958670166363485
5330,2.0,300.68003,11871.923,0.0,0.0,-0.05329999755154968,0.0,0.0,0.0,-1.024204042856069,-0.981497040618716,-1.6030671375354086,-0.009007816389777261,0.008852837557832042,-0.12457672878976588
5331,2.0,300.42355,12097.466999999999,0.0,0.0,-0.053310001971923815,0.0,0.0,0.0,-1.0194259606845089,-1.0364864579182491,-1.6214155769712584,0.0009269693512572523,0.012379888708549888,-0.12785153284796388
5332,2.0,300.06117,12331.581,0.0,0.0,-0.05332000639229806,0.0,0.0,0.0,-1.0580536889467689,-1.044741406482949,-1.6456974063426884,-0.005528334696804155,-0.009067368036579553,-0.11879370516902588
5333,2.0,299.74461,12424.068000000001,0.0,0.0,-0.05333001081267219,0.0,0.0,0.0,-1.0503027309818092,-1.0655811239396689,-1.6607225881005585,0.012022432311771688,-0.004582252236658086,-0.13014411252422387
5334,2.0,299.70545,12244.128,0.0,0.0,-0.053340015233046545,0.0,0.0,0.0,-1.038668694658619,-1.048701694498799,-1.6345387869664185,0.01911150390065858,-0.003184010972387417,-0.12977983898077286
5335,2.0,299.5306,11984.421,0.0,0.0,-0.05334998674414304,0.0,0.0,0.0,-1.005138597251956,-1.016649452760489,-1.6211766525976785,0.01985337623962568,-0.011596578493493189,-0.12643666080582688
5336,2.0,299.94905,12052.123,0.0,0.0,-0.05335999116451717,0.0,0.0,0.0,-1.038382248855349,-1.016246787170749,-1.6089154144625883,-0.004844176779558025,-0.01973393127808738,-0.12152192159327989
5337,2.0,300.21475,12260.903999999999,0.0,0.0,-0.053369995584891305,0.0,0.0,0.0,-1.067625862641469,-1.018350699678389,-1.6410322002322684,-0.016295919986532084,-0.006554469893025813,-0.11553962207537288
5338,2.0,299.91281000000004,12181.033000000001,0.0,0.0,-0.05338000000526544,0.0,0.0,0.0,-1.057427703034989,-1.020580457848449,-1.6247215080725286,-0.013215677172785788,0.008876531904795492,-0.13629068014834286
5339,2.0,299.62521,11988.401000000002,0.0,0.0,-0.05339000442563968,0.0,0.0,0.0,-1.028376505442859,-1.006503201956632,-1.6092946739750185,-0.001105784152132399,0.0076240969246147835,-0.13514527183779987
5340,2.0,299.09809,12199.321000000002,0.0,0.0,-0.05340000884601381,0.0,0.0,0.0,-1.023557994592309,-1.048064258860889,-1.6366666121764184,-0.0032482912547563874,0.0052029520226663855,-0.16124377757852185
5341,2.0,299.11617,12433.204,0.0,0.0,-0.053410013266387946,0.0,0.0,0.0,-1.064188816977259,-1.0509373295194389,-1.6642575137244284,-0.001194582655121129,-0.003453724571456077,-0.11387813509139688
5342,2.0,299.11149,12284.806999999999,0.0,0.0,-0.053419984777484664,0.0,0.0,0.0,-1.0425116483128891,-1.044762076784989,-1.6470007499463184,-0.003859849599687496,0.0019851650674705384,-0.12698890237532887
5343,2.0,299.14887999999996,12083.839,0.0,0.0,-0.053429989197858796,0.0,0.0,0.0,-1.016217605567869,-1.0390719681984188,-1.6178958500988885,0.013011850769419686,-0.0004226078411856466,-0.1057316549499019
5344,2.0,299.62292,12068.326000000001,0.0,0.0,-0.05343999361823293,0.0,0.0,0.0,-1.0201024064512692,-1.029807011934039,-1.6185602381894586,-0.002253335081336858,-0.002245314700170308,-0.12544646214560187
5345,2.0,300.07059,12227.423,0.0,0.0,-0.05344999803860706,0.0,0.0,0.0,-1.041305374068839,-1.035456995816649,-1.6400688020371883,0.012598939194668488,-1.8758497698319585e-05,-0.1135992481338729
5346,2.0,300.24874,12358.287,0.0,0.0,-0.05346000245898108,0.0,0.0,0.0,-1.045376410320619,-1.056171070260969,-1.6550630796670085,-0.009154752143753692,0.0029775433299856473,-0.13568135206820686
5347,2.0,300.15891,12298.858999999999,0.0,0.0,-0.053470006879355436,0.0,0.0,0.0,-1.066964210326169,-1.028885055668049,-1.6426967674965485,0.017250226288464784,-0.002011221401742098,-0.11279276184927889
5348,2.0,299.77827,12061.408000000001,0.0,0.0,-0.05348001129972957,0.0,0.0,0.0,-1.031703816121239,-1.008635992092122,-1.6260269795013684,0.006132462473451924,-0.0024849691204473574,-0.12621234749868887
5349,2.0,299.37729,12187.192,0.0,0.0,-0.0534900157201037,0.0,0.0,0.0,-1.044494274783559,-1.026166201674719,-1.6339415773574784,-0.004000762088444476,-0.012823208932052186,-0.13682023504810586
5350,2.0,300.33609,12511.319,0.0,0.0,-0.0534999872312002,0.0,0.0,0.0,-1.082427318777259,-1.049828225959979,-1.6708729223023184,-0.015398140881178184,0.006311533555674864,-0.13703483128678487
5351,2.0,299.68158999999997,12379.903,0.0,0.0,-0.05350999165157455,0.0,0.0,0.0,-1.058211046687299,-1.050864375512239,-1.6541060649475585,-0.02319362004228208,0.008466016058580732,-0.14673025672364887
5352,2.0,300.08054,12116.293,0.0,0.0,-0.05351999607194868,0.0,0.0,0.0,-1.016792017049559,-1.040078328197739,-1.6261802842414985,-0.00024749380457823677,0.007842495080319003,-0.14414716811121786
5353,2.0,300.14507000000003,12083.946000000002,0.0,0.0,-0.05353000049232293,0.0,0.0,0.0,-1.043675872677789,-1.003199358150568,-1.6263427082325286,-0.007371500260810432,-0.008336280630351842,-0.1115778344493749
5354,2.0,300.26855,12328.239,0.0,0.0,-0.05354000491269684,0.0,0.0,0.0,-1.054806931651339,-1.054940072714479,-1.6377298155063484,-0.0006406977459444443,-0.004840854332480125,-0.1023053902667559
5355,2.0,300.37414,12384.813999999998,0.0,0.0,-0.05355000933307097,0.0,0.0,0.0,-1.059141412929119,-1.0269292803250292,-1.6786035139402682,0.0011342068306874988,-0.012406172416143887,-0.0997922321232265
5356,2.0,300.41175,12345.686000000002,0.0,0.0,-0.053560013753445324,0.0,0.0,0.0,-1.047458436626099,-1.056550937723459,-1.6487708978710183,0.014450474407150787,0.002138372636915948,-0.10925097652223188
5357,2.0,299.92764,12173.421,0.0,0.0,-0.05356998526454182,0.0,0.0,0.0,-1.015372554984469,-1.032047713205179,-1.6529958468129884,0.0074054851757894835,0.01839177310287668,-0.12894116174050188
5358,2.0,300.134,12195.784,0.0,0.0,-0.05357998968491606,0.0,0.0,0.0,-1.0284936371544189,-1.034615795583629,-1.6441042732104585,0.007790324251220143,0.009458854133991222,-0.14967742636201187
5359,2.0,300.34157999999996,12338.596000000001,0.0,0.0,-0.053589994105290195,0.0,0.0,0.0,-1.063638318197929,-1.044821554565859,-1.6421654191441084,0.0017700469036650284,0.0028737574394677775,-0.14401358121803387
5360,2.0,299.76401,12344.53,0.0,0.0,-0.05359999852566455,0.0,0.0,0.0,-1.0672083022752592,-1.035918125937159,-1.6493024488734784,-0.006896348380116594,-0.009849549794999881,-0.13560766852093487
5361,2.0,299.91501,12142.716,0.0,0.0,-0.05361000294603846,0.0,0.0,0.0,-1.0398105261963089,-1.0203639263020792,-1.6309078052330683,-0.006007741619967934,-0.014917935314285587,-0.12967214062764387
5362,2.0,299.82036,12081.208999999999,0.0,0.0,-0.05362000736641259,0.0,0.0,0.0,-1.016773778547759,-1.033129965636989,-1.6224821240265184,-0.007318788356158173,-0.005995916586000895,-0.13054444763873388
5363,2.0,300.15101,12438.918,0.0,0.0,-0.053630011786786835,0.0,0.0,0.0,-1.043097712170729,-1.065690453625459,-1.6723324077463586,-0.0070420064257169235,0.001975078770675098,-0.1129581850606049
5364,2.0,300.55953,12552.097,0.0,0.0,-0.05364001620716097,0.0,0.0,0.0,-1.077254677016759,-1.063561007215299,-1.6747084792308584,-0.006294781491771563,0.007711283346694413,-0.11728160164729289
5365,2.0,300.18835,12267.803,0.0,0.0,-0.053649987718257686,0.0,0.0,0.0,-1.050771156503039,-1.038350534127219,-1.6399840943288284,0.005581415424492814,0.0009854047814843799,-0.1022023427315859
5366,2.0,300.49099,12074.848,0.0,0.0,-0.05365999213863182,0.0,0.0,0.0,-1.028951119574569,-1.0234862564852292,-1.6180150083106486,0.012962452800544488,0.01007246836337523,-0.1278291096232509
5367,2.0,300.81426,12249.153999999999,0.0,0.0,-0.05366999655900595,0.0,0.0,0.0,-1.046681071149379,-1.044810814114799,-1.6319449680354283,0.0027043306743466575,-0.008531963137364202,-0.12054096377396689
5368,2.0,300.31989,12328.473999999998,0.0,0.0,-0.05368000097938008,0.0,0.0,0.0,-1.0453018351132588,-1.054119340133479,-1.6481268761074586,0.003274161961609627,-0.013155297599326788,-0.14898891278656085
5369,2.0,299.77202,12326.333,0.0,0.0,-0.053690005399754215,0.0,0.0,0.0,-1.043478390233299,-1.038900120981459,-1.6645189322502285,-0.002403847202866248,-0.003079964879243867,-0.1365405577555039
5370,2.0,299.51686,12106.306,0.0,0.0,-0.05370000982012846,0.0,0.0,0.0,-1.028107791516339,-1.025654307724199,-1.6262525289736285,-0.005375085888079676,0.02228981716508368,-0.15562572120656287
5371,2.0,298.98239,11965.551000000001,0.0,0.0,-0.05371001424050259,0.0,0.0,0.0,-1.0209167555566392,-1.0094102874210389,-1.6069015798888382,0.007194788227470312,0.026746801393203772,-0.14257959927901087
5372,2.0,300.06085,12357.085,0.0,0.0,-0.053719985751599086,0.0,0.0,0.0,-1.068471115874889,-1.039956231560689,-1.6478181388019884,-0.013133476245173189,-0.005463960891450954,-0.13648385627990786
5373,2.0,299.93679,12609.778999999999,0.0,0.0,-0.05372999017197344,0.0,0.0,0.0,-1.1033811281952388,-1.059166440206589,-1.6705104827415482,-0.003509679180403366,-0.01185220224197129,-0.10841358610958791
5374,2.0,299.78425,12290.868,0.0,0.0,-0.05373999459234757,0.0,0.0,0.0,-1.040537330493039,-1.058444499510339,-1.6371352403476684,0.00864709732767706,0.0037255210074302963,-0.12932750387113087
5375,2.0,300.36863999999997,12067.266000000001,0.0,0.0,-0.053749999012721705,0.0,0.0,0.0,-0.9954664056398851,-1.038770222318639,-1.6339109772044587,0.0031664137565757073,0.02286322958217508,-0.12325414356673689
5376,2.0,300.71321,12399.615,0.0,0.0,-0.05376000343309584,0.0,0.0,0.0,-1.056982379616039,-1.0649346703758689,-1.6472564942715586,-0.001198804969612839,0.001758282360728958,-0.11300425754265189
5377,2.0,300.26264,12660.323999999999,0.0,0.0,-0.05377000785346986,0.0,0.0,0.0,-1.0749512555644292,-1.075880405906129,-1.6975908075641686,0.006355586731597573,0.0031575398135249167,-0.12168324114170088
5378,2.0,300.1675,12419.392,0.0,0.0,-0.05378001227384421,0.0,0.0,0.0,-1.075326158101429,-1.043390034824579,-1.6564687615307383,0.014470651256392086,0.004227834070304736,-0.12533723378482187
5379,2.0,299.69622000000004,12207.23,0.0,0.0,-0.05378998378494071,0.0,0.0,0.0,-1.039249894915979,-1.0409846804121892,-1.6304583274887086,0.011489854886960388,-0.011946136605741887,-0.12788573003883888
5380,2.0,299.53122,12127.705,0.0,0.0,-0.05379998820531484,0.0,0.0,0.0,-1.0389797624393189,-1.014638252636999,-1.6329013748048185,0.002086928814763838,-0.022368791904377877,-0.13989041324860885
5381,2.0,299.88869,12331.249,0.0,0.0,-0.053809992625688974,0.0,0.0,0.0,-1.046968732852769,-1.045018125085259,-1.6564048254494286,-0.005825233998705834,-0.016501816459852485,-0.13558787974648187
5382,2.0,300.35437,12479.71,0.0,0.0,-0.05381999704606333,0.0,0.0,0.0,-1.075635908656999,-1.0428029577166391,-1.6750813552676584,0.006292351515381744,0.025458198552028577,-0.13509709179554485
5383,2.0,300.24227,12267.47,0.0,0.0,-0.05383000146643746,0.0,0.0,0.0,-1.034886434685339,-1.033625140960859,-1.6604929856278985,-0.0004935919078062286,0.014065065479863885,-0.12707554539137986
5384,2.0,300.45906,12134.806999999999,0.0,0.0,-0.05384000588681148,0.0,0.0,0.0,-1.0233810811248492,-1.037503761018649,-1.6277933784006984,-0.0004515907862510406,-0.015807123072041587,-0.14050128146889687
5385,2.0,300.16656,12452.653999999999,0.0,0.0,-0.053850010307185614,0.0,0.0,0.0,-1.066169214297709,-1.053556277052909,-1.6655702805539883,-0.005423648330922415,-0.013454749480880386,-0.11966321560983988
5386,2.0,299.57706,12677.261999999999,0.0,0.0,-0.053860014727559746,0.0,0.0,0.0,-1.0792473346634188,-1.0792480439384888,-1.6950755155159285,0.006005413981838214,0.0007128897485392403,-0.13304313251783487
5387,2.0,299.91084,12335.548,0.0,0.0,-0.053869986238656464,0.0,0.0,0.0,-1.043797867989829,-1.042918366903029,-1.6629823384735785,0.013518026949625384,0.00920802670618648,-0.12247159024950488
5388,2.0,299.97968,12009.031,0.0,0.0,-0.0538799906590306,0.0,0.0,0.0,-1.000625449584043,-1.020450255210599,-1.6293698942312884,-0.004810048287039805,0.005158791948858125,-0.12825606281788787
5389,2.0,299.64884,12151.872,0.0,0.0,-0.05388999507940484,0.0,0.0,0.0,-1.0279660378273492,-1.027415133747979,-1.6384845855058383,0.006531458476629764,0.013488079329669788,-0.13239663842403088
5390,2.0,299.8859,12532.033000000001,0.0,0.0,-0.05389999949977897,0.0,0.0,0.0,-1.089467380472059,-1.052456698044389,-1.6675010286195382,-0.0006303875816719103,0.007686890971737073,-0.12671494994579188
5391,2.0,300.35459,12546.886,0.0,0.0,-0.05391000392015333,0.0,0.0,0.0,-1.0941515343593489,-1.044455467304729,-1.6753330465924985,-0.006904696041065443,-0.007795470041852992,-0.13914060817460888
5392,2.0,300.71467,12392.032,0.0,0.0,-0.05392000834052724,0.0,0.0,0.0,-1.0703473510850592,-1.0438676809217189,-1.6526533682791884,-0.0052540312774325155,-0.035030245590466066,-0.1124861422365179
5393,2.0,300.81703999999996,12267.114,0.0,0.0,-0.05393001276090137,0.0,0.0,0.0,-1.0481447109188289,-1.022756007138159,-1.6579957294314382,-0.01247441886337929,-0.014706823642700486,-0.12388345293884487
5394,2.0,299.92188,12502.381000000001,0.0,0.0,-0.05393998427199809,0.0,0.0,0.0,-1.062496182685209,-1.051797173554299,-1.6861182833069184,0.01011826301224481,0.01041031593891819,-0.1019501650466979
5395,2.0,299.52789,12735.416000000001,0.0,0.0,-0.05394998869237222,0.0,0.0,0.0,-1.089050428055909,-1.083202455103759,-1.6989954761777983,-0.0046125263257959055,0.016813775900640485,-0.1261290583404689
5396,2.0,299.93616000000003,12436.832,0.0,0.0,-0.05395999311274646,0.0,0.0,0.0,-1.076975121314169,-1.032737837848289,-1.6707733198174883,-0.005057436845330155,0.01156160008679109,-0.09566569205746872
5397,2.0,299.5768,11960.171999999999,0.0,0.0,-0.053969997533120595,0.0,0.0,0.0,-1.001889266301272,-1.029018500706219,-1.6046860072201785,-0.010982286501117289,0.00030322317816079767,-0.14355477144025286
5398,2.0,300.42548,12051.091,0.0,0.0,-0.05398000195349473,0.0,0.0,0.0,-1.016962851016419,-1.022971728084449,-1.6232959665068383,0.01110777651275219,0.008115167167029643,-0.1288791508343819
5399,2.0,299.96875,12459.346000000001,0.0,0.0,-0.05399000637386886,0.0,0.0,0.0,-1.069558231907179,-1.052379995011819,-1.6653917458863683,0.012375095022326789,-0.01918550864821228,-0.13431740597609587
5400,2.0,300.19995,12476.293,0.0,0.0,-0.05400001079424299,0.0,0.0,0.0,-1.050920104267739,-1.070191107919639,-1.6713704281014183,0.013527118842772684,-0.015339017737843186,-0.13752084682975088
5401,2.0,301.10668,12356.363000000001,0.0,0.0,-0.054010015214617235,0.0,0.0,0.0,-1.054712395417009,-1.0409846804121892,-1.6603288391116982,-0.0016296713361360386,-0.004312480983658736,-0.12956470571954087
5402,2.0,300.77533999999997,12327.323,0.0,0.0,-0.05401998672571373,0.0,0.0,0.0,-1.041907852578299,-1.051209083196259,-1.6540814429701285,-0.00993355937404098,0.010944780035415689,-0.14408333335491785
5403,2.0,300.03215,12423.667,0.0,0.0,-0.05402999114608786,0.0,0.0,0.0,-1.073884404534139,-1.050264227478009,-1.6523358156978485,-0.015342348290921883,0.013403996796621487,-0.13039899558687887
5404,2.0,300.10766,12599.777,0.0,0.0,-0.05403999556646222,0.0,0.0,0.0,-1.085614395641799,-1.0506611175421792,-1.6937420783843284,-0.00023316778565436876,0.0024936812474571773,-0.13534875272288185
5405,2.0,299.92436000000004,12358.972,0.0,0.0,-0.05404999998683635,0.0,0.0,0.0,-1.067298582859169,-1.050045568106429,-1.6394746321785485,0.004543802637763405,-0.0021899923592854182,-0.12059984373727788
5406,2.0,300.04278999999997,11953.532,0.0,0.0,-0.05406000440721048,0.0,0.0,0.0,-0.986008891326501,-1.0195252591943091,-1.6280412193751586,0.003834782501488566,-0.004669848721053186,-0.13122064009296888
5407,2.0,299.74463,12130.332,0.0,0.0,-0.054070008827584615,0.0,0.0,0.0,-1.024186817604369,-1.032373270462309,-1.6307580468682885,0.0010715720664809289,-0.0027698097329089373,-0.12577841301086287
5408,2.0,299.71924,12695.024,0.0,0.0,-0.054080013247958636,0.0,0.0,0.0,-1.0931563201111292,-1.079050460168989,-1.6867636222956086,0.005607991049440625,-0.003478754888676377,-0.11262145165487189
5409,2.0,300.21657000000005,12692.274,0.0,0.0,-0.054089984759055354,0.0,0.0,0.0,-1.1053123828858389,-1.066757709955789,-1.6860641757515784,0.002030721298591588,0.01166595471459009,-0.12530152685129786
5410,2.0,300.17474,12431.729,0.0,0.0,-0.054099989179429486,0.0,0.0,0.0,-1.074623671807099,-1.055517523946469,-1.6487939999732983,0.01069885916989519,0.0048294118004258355,-0.12263886770851389
5411,2.0,299.84555,12350.181999999999,0.0,0.0,-0.05410999359980362,0.0,0.0,0.0,-1.045006776684139,-1.050397165891129,-1.6587427987301684,0.00035285857179942964,-0.004785603831027325,-0.14473809556953787
5412,2.0,299.99413,12545.094,0.0,0.0,-0.05411999802017775,0.0,0.0,0.0,-1.076171107359819,-1.0434414066046491,-1.6937828110383484,0.006491985191159054,-0.015454862621776184,-0.10519267682420891
5413,2.0,300.26865,12639.837,0.0,0.0,-0.054130002440552105,0.0,0.0,0.0,-1.0747169921413091,-1.081906508225859,-1.685571330902938,0.004243159376742226,-0.0021456600329601582,-0.14945394391995587
5414,2.0,300.81227,12307.076000000001,0.0,0.0,-0.05414000686092624,0.0,0.0,0.0,-1.054057633202389,-1.0218199666957792,-1.6651659937640884,-0.004983176860076265,0.0014271593207996586,-0.1103663014373059
5415,2.0,300.42509,12037.948,0.0,0.0,-0.05415001128130026,0.0,0.0,0.0,-1.006918127872582,-1.035198617041149,-1.6171189912472184,-0.0004143835333039706,0.0038274317773131067,-0.15766873738319287
5416,2.0,300.20165,12175.513,0.0,0.0,-0.05416001570167439,0.0,0.0,0.0,-1.037973301114989,-1.023096763146789,-1.6399818651786084,0.005269061018815835,0.0016905773943469984,-0.13671551565027087
5417,2.0,299.58317,12648.59,0.0,0.0,-0.05416998721277111,0.0,0.0,0.0,-1.0633333299178291,-1.0900437171289388,-1.6914782750109085,0.01184216903948109,0.014583295283259185,-0.15597587004361985
5418,2.0,300.01229,12653.475,0.0,0.0,-0.05417999163314524,0.0,0.0,0.0,-1.061510594312939,-1.092989539144669,-1.6918403092716385,-0.0004029635561969066,0.0014071946461292986,-0.13784996059473187
5419,2.0,299.62092,12144.0,0.0,0.0,-0.054189996053519374,0.0,0.0,0.0,-1.00726413251673,-1.0393708769779189,-1.6448378662828584,0.0006650919042219604,-0.008419183436308712,-0.13093168142945086
5420,2.0,299.75597,12135.192,0.0,0.0,-0.05420000047389362,0.0,0.0,0.0,-1.012779708773575,-1.042490370060789,-1.6335253342163985,-0.006701917034327713,0.003759485758732356,-0.1242075409833299
5421,2.0,300.07756,12527.969,0.0,0.0,-0.05421000489426775,0.0,0.0,0.0,-1.093385821258779,-1.037844314377259,-1.6769597183030385,-0.0019767959256195683,0.025325172999399976,-0.11679194853646789
5422,2.0,299.74697000000003,12708.711000000001,0.0,0.0,-0.054220009314642104,0.0,0.0,0.0,-1.0972299908131689,-1.0602273130612891,-1.7056735036118682,0.001147450820094579,0.01992840943603088,-0.12371832357004788
5423,2.0,299.84132,12475.309,0.0,0.0,-0.054230013735016014,0.0,0.0,0.0,-1.0831990100534188,-1.044097080744359,-1.6648863367364881,-0.002269913170197988,-0.008624003534047882,-0.13013126451295587
5424,2.0,300.5357,12425.82,0.0,0.0,-0.05423998524611273,0.0,0.0,0.0,-1.066937055223489,-1.0289057259700891,-1.6812963274060284,0.01090633530012149,-0.02001741535131508,-0.11813728122424189
5425,2.0,300.32453,12494.921999999999,0.0,0.0,-0.054249989666486864,0.0,0.0,0.0,-1.0858338656134592,-1.043305327116219,-1.6690050970679784,0.011414914909564387,-0.01012390407952654,-0.1260937567069849
5426,2.0,300.01686,12671.947,0.0,0.0,-0.054259994086860996,0.0,0.0,0.0,-1.076535776070809,-1.059489464338469,-1.7159303303991384,0.014061839291545487,-0.01246032962073879,-0.11933947207038889
5427,2.0,300.19755,12560.511999999999,0.0,0.0,-0.05426999850723524,0.0,0.0,0.0,-1.076217919514439,-1.060766868739539,-1.6810972237613784,-0.009671210583324171,-0.009482551115404931,-0.12323395962474488
5428,2.0,299.71931,12167.585,0.0,0.0,-0.05428000292760937,0.0,0.0,0.0,-1.014302258903839,-1.033361290634819,-1.6509786685139085,-0.005730967998177505,-0.0041719369126381155,-0.1267802133847329
5429,2.0,300.36106,12217.966999999999,0.0,0.0,-0.054290007347983504,0.0,0.0,0.0,-1.017269460496679,-1.0504069944170988,-1.6462806331002484,-0.008887685761896292,0.025876823844093677,-0.15093445430357086
5430,2.0,300.23339,12519.211000000001,0.0,0.0,-0.05430001176835764,0.0,0.0,0.0,-1.065003064757619,-1.064368770195019,-1.6761558056736983,-0.0033194911233832666,0.013266375141539288,-0.12045518202050087
5431,2.0,299.59437,12669.578000000001,0.0,0.0,-0.05431001618873177,0.0,0.0,0.0,-1.068181326346289,-1.080568612793819,-1.7024855148222382,-0.001277102655190219,-0.004413333109837066,-0.12388899541689188
5432,2.0,299.81883,12413.16,0.0,0.0,-0.05431998769982849,0.0,0.0,0.0,-1.0641757460509689,-1.042880167374259,-1.6662347699695683,0.0045375969875259565,-0.013223097203268088,-0.10766748953095388
5433,2.0,299.56314,12323.828000000001,0.0,0.0,-0.05432999212020251,0.0,0.0,0.0,-1.0461450618464792,-1.051866479861139,-1.6481245456322284,0.004019287441347786,0.0060344932464581145,-0.13299410134549589
5434,2.0,299.48921,12523.545,0.0,0.0,-0.05433999654057664,0.0,0.0,0.0,-1.085092673165309,-1.042163495578529,-1.6795888996625183,0.00868267182941299,0.017946721234953483,-0.1275507090257749
5435,2.0,299.88165,12715.936000000002,0.0,0.0,-0.054350000960950995,0.0,0.0,0.0,-1.0951604274839188,-1.078185853858659,-1.6919806444104883,-0.003242133936548707,-0.004632825170349246,-0.15588316779197087
5436,2.0,299.80349,12506.06,0.0,0.0,-0.05436000538132513,0.0,0.0,0.0,-1.071577639356479,-1.074092323454659,-1.6558597982206382,0.005356914362111285,-0.006671542734755004,-0.15065732026871986
5437,2.0,300.06313,12205.156,0.0,0.0,-0.05437000980169926,0.0,0.0,0.0,-1.0409339165821792,-1.021317191996159,-1.6478115526763382,-0.0051405950916372355,-0.006994191153497923,-0.14685524112348386
5438,2.0,300.50554,12293.617,0.0,0.0,-0.05438001422207339,0.0,0.0,0.0,-1.0328071441551292,-1.0536377423609489,-1.6505076085424184,0.010312335667498292,0.002119956512373418,-0.12999458720696688
5439,2.0,300.16958999999997,12552.067,0.0,0.0,-0.05438998573317011,0.0,0.0,0.0,-1.076304147097949,-1.057318373349199,-1.6818923211148484,-0.014677480933054588,-0.011855818531578188,-0.11090428657790088
5440,2.0,300.06267,12882.578000000001,0.0,0.0,-0.05439999015354413,0.0,0.0,0.0,-1.091306429403559,-1.092562150252489,-1.7321134543712884,-0.007973608933983932,0.006913083016118174,-0.1077746609940309
5441,2.0,299.79849,12671.856000000002,0.0,0.0,-0.05440999457391826,0.0,0.0,0.0,-1.083499033408029,-1.080325027469779,-1.6881036455528584,0.006388514421422285,0.013509855087568886,-0.11535991203763689
5442,2.0,299.69867999999997,12396.698999999999,0.0,0.0,-0.054419998994292396,0.0,0.0,0.0,-1.0642192144802591,-1.038903363381779,-1.6651645752139486,0.008556203524806542,0.012882312823635288,-0.12492937022206888
5443,2.0,299.65945,12555.521,0.0,0.0,-0.05443000341466653,0.0,0.0,0.0,-1.073582658654359,-1.0650404536863092,-1.6779417602999582,0.0034075875453777067,-0.008489100631634001,-0.12033549691868888
5444,2.0,299.54143999999997,12534.207,0.0,0.0,-0.05444000783504088,0.0,0.0,0.0,-1.0825099999854189,-1.052782457951539,-1.6747933895892384,-0.005026946123320955,-0.03198847892276707,-0.12343899078247988
5445,2.0,299.44906000000003,12387.569,0.0,0.0,-0.054450012255415015,0.0,0.0,0.0,-1.051381437038269,-1.048868272815239,-1.6652619485485585,0.014082350513319786,-0.01083095658543219,-0.13683779467233886
5446,2.0,299.92312999999996,12255.745,0.0,0.0,-0.05445998376651151,0.0,0.0,0.0,-1.031768866777659,-1.0451236044206689,-1.6485480841740285,0.008003240014608294,5.241953538890534e-05,-0.15628579285170685
5447,2.0,298.94692000000003,12224.784,0.0,0.0,-0.054469988186885754,0.0,0.0,0.0,-1.0363489598796791,-1.038138663531309,-1.6415415610575383,0.01059759698140139,0.022580109265733277,-0.17066655767847783
5448,2.0,299.72312999999997,12541.829,0.0,0.0,-0.054479992607259886,0.0,0.0,0.0,-1.0659962525056388,-1.076741871141149,-1.6696646215580684,-0.018540567866811585,0.015929789155647786,-0.16244844075491283
5449,2.0,299.48273,12710.826000000001,0.0,0.0,-0.05448999702763402,0.0,0.0,0.0,-1.077358231176979,-1.100901806525549,-1.6855136769722483,0.005479667382576064,0.004515417652112026,-0.15609207969758884
5450,2.0,299.81302,12474.819,0.0,0.0,-0.05450000144800815,0.0,0.0,0.0,-1.059507500190249,-1.049141141067169,-1.6833847371871384,-0.001794213121200048,-0.0008709966456631761,-0.09371070198327622
5451,2.0,300.26835,12325.255,0.0,0.0,-0.054510005868382394,0.0,0.0,0.0,-1.021499880989189,-1.0649117709236091,-1.6601581064698485,0.01303060501552059,-0.016900717825470982,-0.12507199530614488
5452,2.0,300.21719,12519.663,0.0,0.0,-0.054520010288756526,0.0,0.0,0.0,-1.043332583543909,-1.0638407655679092,-1.6984914855780584,-0.014907598136765383,-0.0077096595120841535,-0.10157294216696891
5453,2.0,299.39805,12745.83,0.0,0.0,-0.05453001470913088,0.0,0.0,0.0,-1.098843388947399,-1.0733176937532092,-1.7022528725992783,0.00014077217388313185,0.0023744354908885375,-0.12652439813198588
5454,2.0,300.40559,12633.287,0.0,0.0,-0.05453998622022738,0.0,0.0,0.0,-1.0874521273481688,-1.061800079866509,-1.6909515876089285,-0.008760152024809691,0.016220975956135687,-0.13351215585662388
5455,2.0,299.9964,12315.368999999999,0.0,0.0,-0.05454999064060151,0.0,0.0,0.0,-1.0678405703376592,-1.0247399508339592,-1.6509840387394383,0.0003654821887002836,-0.0002178645376715558,-0.13660129196649787
5456,2.0,300.05675,12499.77,0.0,0.0,-0.05455999506097542,0.0,0.0,0.0,-1.083917201724299,-1.050784531404359,-1.6649161262894283,-8.734903554842861e-05,-0.018031397532560382,-0.1252400631002319
5457,2.0,299.55491,12770.909,0.0,0.0,-0.054569999481349774,0.0,0.0,0.0,-1.091898370111979,-1.0862029926248888,-1.7039360836653985,0.005030506380197326,-0.013630586876734185,-0.13544477843485886
5458,2.0,299.96687000000003,12748.133999999998,0.0,0.0,-0.05458000390172402,0.0,0.0,0.0,-1.087834426610899,-1.0658759797187691,-1.7214039074393381,0.005932161065858714,-0.005128560112249475,-0.1265726997642529
5459,2.0,300.59622,12511.448999999999,0.0,0.0,-0.05459000832209815,0.0,0.0,0.0,-1.074704529165079,-1.0604737354856089,-1.6679897191427682,0.01029663130419839,0.008204675046413382,-0.12114346254842889
5460,2.0,300.86314,12333.901000000002,0.0,0.0,-0.05460001274247228,0.0,0.0,0.0,-1.041447837032899,-1.048673526146019,-1.6590765633131086,-0.0007907060085966072,0.01166594052908869,-0.14340067636504486
5461,2.0,300.26976,12446.951000000001,0.0,0.0,-0.054609984253569,0.0,0.0,0.0,-1.064696252627339,-1.0622774219886189,-1.6565886290175684,-0.015510897378806385,0.007154402206309523,-0.1261209726046709
5462,2.0,300.60983999999996,12817.712,0.0,0.0,-0.05461998867394313,0.0,0.0,0.0,-1.0937516045448792,-1.101573591341849,-1.7009389911946082,-0.0038684685076881163,-0.008814758301848913,-0.10904097030650589
5463,2.0,299.8201,12780.412,0.0,0.0,-0.054629993094317264,0.0,0.0,0.0,-1.070285441503949,-1.085876320792649,-1.7287644601407686,-0.003134709363596727,-0.013959973205992088,-0.11841563115921289
5464,2.0,300.19447,12391.3,0.0,0.0,-0.054639997514691285,0.0,0.0,0.0,-1.035713145441929,-1.063725964331579,-1.6672066794654883,0.007300370306440452,-0.003550472933404397,-0.13087589187894488
5465,2.0,300.50465,12376.9,0.0,0.0,-0.05465000193506542,0.0,0.0,0.0,-1.050045568106429,-1.0565706961004089,-1.6556520819501384,-0.0021791316354385477,0.004814507702054916,-0.15679980449493586
5466,2.0,300.0418,12634.198,0.0,0.0,-0.05466000635543977,0.0,0.0,0.0,-1.0964135138825888,-1.056273104546039,-1.6877940976473085,-0.0039255445818460865,0.014236134520747089,-0.14828774371736086
5467,2.0,300.16402,12618.413999999999,0.0,0.0,-0.054670010775813904,0.0,0.0,0.0,-1.105293739083999,-1.0608976793274492,-1.6694912544659586,-0.0029512909318197373,0.008243010452021792,-0.15273552662132286
5468,2.0,299.86544,12436.026000000002,0.0,0.0,-0.054680015196188037,0.0,0.0,0.0,-1.068820585834379,-1.031473099073469,-1.6799476915229286,0.005426644410143105,0.012627858365772588,-0.13106072896218687
5469,2.0,299.50988,12321.49,0.0,0.0,-0.05468998670728453,0.0,0.0,0.0,-1.024581275868299,-1.037933277736039,-1.6829107387903584,0.001109842016132879,-0.0027458089791152474,-0.12093312196016989
5470,2.0,299.74622,12478.956,0.0,0.0,-0.05469999112765889,0.0,0.0,0.0,-1.057762582193039,-1.053803611402319,-1.6817247295483086,-0.006672388595938484,-0.01138278677539359,-0.1068976828999799
5471,2.0,299.85535,12824.089,0.0,0.0,-0.05470999554803291,0.0,0.0,0.0,-1.0899006462148189,-1.0819709509322188,-1.7263312413506287,-0.0038856338763072064,-0.015283992177912585,-0.09990306952516531
5472,2.0,300.22972000000004,12905.742,0.0,0.0,-0.05471999996840704,0.0,0.0,0.0,-1.1249827084021489,-1.103404838247579,-1.6946355623225084,-0.014331942383952589,-0.0015335842212029786,-0.13087349047620786
5473,2.0,300.58742,12599.778999999999,0.0,0.0,-0.05473000438878117,0.0,0.0,0.0,-1.099547091141849,-1.057908895507479,-1.6725622128690383,0.0018322490100788982,0.013108131820421887,-0.1214872785723609
5474,2.0,300.33087,12380.888,0.0,0.0,-0.054740008809155305,0.0,0.0,0.0,-1.055737703193199,-1.050490283575319,-1.6572528144581185,-0.006443236512947934,0.013248999928824489,-0.14255140052872786
5475,2.0,300.04152,12614.518999999998,0.0,0.0,-0.05475001322952966,0.0,0.0,0.0,-1.0679353092220092,-1.071076181881989,-1.6954874016815784,0.016287382341189486,-0.016678756271815087,-0.12427977558295888
5476,2.0,299.76243,12727.733999999999,0.0,0.0,-0.054759984740626155,0.0,0.0,0.0,-1.085164005972349,-1.0764428610366388,-1.7073065587980383,0.0055061487752645745,-0.017015831142831783,-0.14553197702288787
5477,2.0,299.75345,12396.225,0.0,0.0,-0.0547699891610004,0.0,0.0,0.0,-1.030682257370419,-1.048310377310179,-1.6891502315811486,0.012901750000303589,-0.006070252767662304,-0.13932306412011586
5478,2.0,300.00006,12212.845,0.0,0.0,-0.05477999358137453,0.0,0.0,0.0,-1.0212524453147689,-1.039681539458579,-1.6514659404869985,0.0012991050771366888,0.006250179640919703,-0.15701560650123383
5479,2.0,299.57755,12594.263,0.0,0.0,-0.05478999800174866,0.0,0.0,0.0,-1.072649050012219,-1.066013072457299,-1.6896793507833683,-0.009511592889771131,0.016615397743062085,-0.12771937463742086
5480,2.0,299.65682999999996,13007.813999999998,0.0,0.0,-0.054800002422122795,0.0,0.0,0.0,-1.1147022728875489,-1.1135250789213689,-1.7258231977504883,-0.0002529050768697877,0.02945722514570177,-0.13946683417680486
5481,2.0,300.00624,12973.068000000001,0.0,0.0,-0.05481000684249693,0.0,0.0,0.0,-1.1142314155660789,-1.1037478234064289,-1.7255095968445382,0.010297605037544491,0.004943986068733435,-0.11682078563431389
5482,2.0,300.38759,12473.152,0.0,0.0,-0.05482001126287117,0.0,0.0,0.0,-1.044998772008349,-1.070863804661029,-1.6756641767251783,-0.007130752239700453,-0.00039711617092981467,-0.12066955534415788
5483,2.0,300.14489,12315.34,0.0,0.0,-0.0548300156832453,0.0,0.0,0.0,-1.032552717055019,-1.059991529763019,-1.6510114978171484,-0.0064951738892237544,-0.023661800356987877,-0.11918838634797789
5484,2.0,299.99961,12742.488000000001,0.0,0.0,-0.05483998719434202,0.0,0.0,0.0,-1.087844255136869,-1.085056398811729,-1.7004974168010283,-0.019469539876493983,-0.017249146163858184,-0.13303112550414986
5485,2.0,300.14347999999995,12892.987,0.0,0.0,-0.054849991614716154,0.0,0.0,0.0,-1.120737494458179,-1.084137684946059,-1.7142708293853584,0.0068210119179564635,-0.004036532046124697,-0.12966812815724787
5486,2.0,300.02471,12521.308,0.0,0.0,-0.054859996035090286,0.0,0.0,0.0,-1.0598645695254891,-1.054969862267419,-1.6913305431463286,0.0028280164928534976,0.00035920452677822663,-0.14261185102969387
5487,2.0,298.99348,12322.562,0.0,0.0,-0.054870000455464196,0.0,0.0,0.0,-1.042671741828689,-1.033523511975829,-1.6695557984973284,0.017679178625549085,3.5888340755653464e-05,-0.14033472341745887
5488,2.0,299.38566000000003,12652.948,0.0,0.0,-0.05488000487583855,0.0,0.0,0.0,-1.079507233314069,-1.073441816890459,-1.6932314003339284,0.002387585855986378,-0.002224862956176878,-0.13899725355046086
5489,2.0,299.49225,12927.886,0.0,0.0,-0.054890009296212794,0.0,0.0,0.0,-1.1068246586600887,-1.0917475984970988,-1.7311823788543983,0.00822960049224833,-0.00027180538297260276,-0.11944888281618689
5490,2.0,299.59177,12743.693000000001,0.0,0.0,-0.054900013716586926,0.0,0.0,0.0,-1.086099337139659,-1.087321620735289,-1.7003435041108383,-0.0049818031969156955,-0.004853378509016165,-0.12357328695073388
5491,2.0,299.97032,12502.247,0.0,0.0,-0.05490998522768342,0.0,0.0,0.0,-1.056004187969499,-1.064676190275359,-1.6796904273225386,0.0017410360334268783,0.002291654072293648,-0.1153907857681839
5492,2.0,299.96982,12466.742,0.0,0.0,-0.054919989648057776,0.0,0.0,0.0,-1.044041048013829,-1.071306493629719,-1.6742307318087084,0.0004445954392831536,0.007939830620700273,-0.13777424041475886
5493,2.0,299.60379,12675.718,0.0,0.0,-0.05492999406843191,0.0,0.0,0.0,-1.073109369532649,-1.0877096955235888,-1.6922827955903086,-0.0013310314732125786,0.0032727723904224866,-0.13798740797079687
5494,2.0,299.86118,12854.656,0.0,0.0,-0.05493999848880604,0.0,0.0,0.0,-1.096440567660259,-1.103704557627159,-1.7073493179522585,0.002358262398092378,-0.0010649233219747491,-0.14502833092818185
5495,2.0,299.8229,12508.936000000002,0.0,0.0,-0.05495000290918006,0.0,0.0,0.0,-1.053698233391919,-1.0775044431664091,-1.6712017219597683,-0.001054771062597799,-0.02339594480899998,-0.13863531048223987
5496,2.0,299.89871,12241.951000000001,0.0,0.0,-0.054960007329554195,0.0,0.0,0.0,-1.0188896474065792,-1.052994024572419,-1.6493636491795183,0.019679408290206382,-0.025799038660416874,-0.15317308854450687
5497,2.0,299.99212,12555.048999999999,0.0,0.0,-0.05497001174992855,0.0,0.0,0.0,-1.058393026405259,-1.050390073140429,-1.7076382968807786,-0.004937678485535926,-0.006613317128358584,-0.14150581761803685
5498,2.0,300.51088,12905.358999999999,0.0,0.0,-0.05498001617030268,0.0,0.0,0.0,-1.099125579100249,-1.1084884153242889,-1.7152929960862384,-6.391855410977015e-05,0.012623301780072886,-0.14291073954419187
5499,2.0,300.3508,12730.101,0.0,0.0,-0.05498998768139918,0.0,0.0,0.0,-1.103282640285519,-1.065860375667229,-1.7004900200752984,-0.01123971484802349,0.011736334053285988,-0.13116163853964588
5500,2.0,300.26837,12534.915,0.0,0.0,-0.05499999210177331,0.0,0.0,0.0,-1.0889245823934888,-1.060370789275449,-1.6610057915035086,-6.130980595180675e-05,0.012309919736144488,-0.13957055045704087
5501,2.0,300.11146,12604.367,0.0,0.0,-0.055009996522147664,0.0,0.0,0.0,-1.0868830860920091,-1.069956135221449,-1.6745736156425486,0.01042727571909199,0.0013958188872565988,-0.11088513615101091
5502,2.0,299.87106,12838.676000000001,0.0,0.0,-0.055020000942521685,0.0,0.0,0.0,-1.106062998559919,-1.0701628382418489,-1.7264109841334982,-0.00040733042094788264,-0.003923250380969666,-0.11466263384882089
5503,2.0,299.40783999999996,12975.008,0.0,0.0,-0.05503000536289582,0.0,0.0,0.0,-1.095834846750479,-1.0989089462288688,-1.7493346530708884,0.002726675980126967,-0.0071364199554598134,-0.09926457605415091
5504,2.0,299.62066,12774.636,0.0,0.0,-0.05504000978326995,0.0,0.0,0.0,-1.0836338969963388,-1.081428051528639,-1.7181086154641183,-0.004029406364796446,-0.0006517929561294564,-0.12609242934935389
5505,2.0,299.72067000000004,12420.453000000001,0.0,0.0,-0.05505001420364408,0.0,0.0,0.0,-1.0589972274398889,-1.040730253312079,-1.6757800925366184,0.0028501236848603073,0.013809383976130088,-0.12267281158686388
5506,2.0,300.00753,12513.319,0.0,0.0,-0.0550599857147408,0.0,0.0,0.0,-1.062479869358599,-1.0723786135605289,-1.6688780355054382,-0.023136135324358775,0.02047617446659108,-0.15922345820413183
5507,2.0,300.39666,12903.97,0.0,0.0,-0.05506999013511493,0.0,0.0,0.0,-1.1115024290717488,-1.089211230846779,-1.721771210600588,-0.025004409428493076,0.0016137390928886483,-0.12433304214071587
5508,2.0,300.35759,12764.247,0.0,0.0,-0.055079994555489176,0.0,0.0,0.0,-1.093821721451799,-1.077243936565699,-1.7089467067349084,-0.019502323583479482,-0.014426504962785186,-0.1408297062238099
5509,2.0,300.44793,12482.749,0.0,0.0,-0.05508999897586331,0.0,0.0,0.0,-1.042127221224949,-1.064282339961489,-1.6880343392460182,0.013636520469319789,-0.009421393061894101,-0.12074053351366287
5510,2.0,299.90307,12556.66,0.0,0.0,-0.05510000339623744,0.0,0.0,0.0,-1.063447523204099,-1.057051483272859,-1.6964120937228384,0.019596871976810683,0.0013023954041864187,-0.13909499165510686
5511,2.0,299.70648,12976.458999999999,0.0,0.0,-0.05511000781661157,0.0,0.0,0.0,-1.1106608235386888,-1.1133533330294187,-1.7205054585756683,0.00986096567857654,0.0015787249184580183,-0.1348318938468719
5512,2.0,299.65766,13054.983,0.0,0.0,-0.055120012236985705,0.0,0.0,0.0,-1.1276553581909188,-1.1071911512212589,-1.7335424409873184,0.0005379498693590185,0.008864308156914101,-0.14343039499047786
5513,2.0,299.61368,12755.493,0.0,0.0,-0.0551299837480822,0.0,0.0,0.0,-1.0902089782202489,-1.080653523152199,-1.7064889672923484,0.0004652592362575116,0.024158479344006275,-0.12864120931339887
5514,2.0,300.22086,12432.309,0.0,0.0,-0.055139988168456555,0.0,0.0,0.0,-1.044459520305129,-1.055669612786479,-1.6789823681526583,-0.01060486401111859,0.014327676601031588,-0.13520912685910189
5515,2.0,300.76706,12403.192,0.0,0.0,-0.0551499925888308,0.0,0.0,0.0,-1.027708976276979,-1.0362704329969292,-1.7062813523468585,-0.02422178113075368,-0.005319518441995594,-0.12310583414959989
5516,2.0,300.42201,12762.11,0.0,0.0,-0.05515999700920493,0.0,0.0,0.0,-1.0890651201823591,-1.0823435229939888,-1.7079541269369483,-0.01897770523820368,-0.01191209849513259,-0.12478514420283489
5517,2.0,300.31523,12920.242,0.0,0.0,-0.05517000142957906,0.0,0.0,0.0,-1.117777385616039,-1.074071551827609,-1.7355820121136085,0.0003168083896715537,-0.0028529063736099374,-0.12405674910344788
5518,2.0,299.96251,12570.212,0.0,0.0,-0.05518000584995297,0.0,0.0,0.0,-1.0808383399704389,-1.0474177039720791,-1.6927745258638383,0.0015316777911398285,0.0005252206312677405,-0.13410829142045788
5519,2.0,299.36591,12609.55,0.0,0.0,-0.05519001027032733,0.0,0.0,0.0,-1.084944333350669,-1.070085628584229,-1.6779581749515784,0.007772656310551452,-0.003010221557635737,-0.13786986082669586
5520,2.0,299.79806,13104.528999999999,0.0,0.0,-0.05520001469070157,0.0,0.0,0.0,-1.140967235354699,-1.0852818469589791,-1.7572006149221984,-0.004285776371973196,-0.010465483353862791,-0.1108422351417769
5521,2.0,299.62446,13119.491000000002,0.0,0.0,-0.05520998620179807,0.0,0.0,0.0,-1.127876348037729,-1.115815530772419,-1.7443056901745682,0.005946237034922905,-0.0068275595401026635,-0.12346374448242287
5522,2.0,300.22201,12693.872,0.0,0.0,-0.0552199906221722,0.0,0.0,0.0,-1.072215682944449,-1.0793346768220389,-1.7070697622496684,0.007448140978499283,-0.007890111451543372,-0.12359512249038888
5523,2.0,300.18587,12495.233999999999,0.0,0.0,-0.055229995042546554,0.0,0.0,0.0,-1.049050455183219,-1.058922044282469,-1.6902666305413285,0.002915740950736227,-0.0034785069463769067,-0.14957213954412085
5524,2.0,300.05781,12593.956,0.0,0.0,-0.055239999462920686,0.0,0.0,0.0,-1.0605558087437088,-1.0952918460218888,-1.6724005994780882,-0.004975463595015026,0.0010322065908208592,-0.14300419160091488
5525,2.0,299.93422000000004,12733.604,0.0,0.0,-0.05525000388329482,0.0,0.0,0.0,-1.089140505989799,-1.091358814433729,-1.6901981348345683,-0.01060459955284249,0.01011530442327782,-0.15961057040483684
5526,2.0,299.99291,12752.317,0.0,0.0,-0.05526000830366884,0.0,0.0,0.0,-1.072083048506359,-1.0892405137746688,-1.7150623803634786,-0.0014359410580913486,0.015406762626279085,-0.14115140299805887
5527,2.0,299.6458,12472.598999999998,0.0,0.0,-0.05527001272404297,0.0,0.0,0.0,-1.037267167120299,-1.0791488467536992,-1.6749424386789484,0.007742703928320383,-0.008865954283026561,-0.14813877568765887
5528,2.0,299.89157,12491.943000000001,0.0,0.0,-0.05527998423513969,0.0,0.0,0.0,-1.039147455330869,-1.0670770863873091,-1.6910141051400982,0.003359275983259727,-0.003752758892643466,-0.12112303542641288
5529,2.0,299.73472999999996,12899.868,0.0,0.0,-0.05528998865551382,0.0,0.0,0.0,-1.093546320074619,-1.1054517047745889,-1.7222397374468283,-0.0006277402732681414,-0.005242080093828025,-0.14556460367610785
5530,2.0,300.65291,13109.017,0.0,0.0,-0.055299993075887954,0.0,0.0,0.0,-1.136004235039889,-1.1072006757721988,-1.7416089250334184,-0.0026519169691988274,0.0012762768563587188,-0.1114540051546539
5531,2.0,300.5011,12754.865,0.0,0.0,-0.05530999749626209,0.0,0.0,0.0,-1.102136654422419,-1.0713859324375592,-1.703637884160968,-0.004996889984279646,0.01054019534998629,-0.14635828247943786
5532,2.0,299.87711,12652.726999999999,0.0,0.0,-0.05532000191663644,0.0,0.0,0.0,-1.084986991179879,-1.077183952159779,-1.6839422273921585,-0.00044667884360876953,-0.0007840559468652972,-0.13027399092204187
5533,2.0,299.77053,12844.983,0.0,0.0,-0.05533000633701046,0.0,0.0,0.0,-1.115127027329469,-1.0814416290799789,-1.7079854363650384,0.004097665781633126,-0.004910575463911065,-0.14083777169460587
5534,2.0,299.70747,12837.743,0.0,0.0,-0.055340010757384595,0.0,0.0,0.0,-1.098726662535879,-1.070005277851299,-1.7336213731701087,0.0092468100696641,-0.018905466585574283,-0.11661090100859987
5535,2.0,298.73138,12654.633999999998,0.0,0.0,-0.05535001517775873,0.0,0.0,0.0,-1.0716901101175789,-1.0735644201525592,-1.7014382195188782,0.020584220364504382,-0.017017045016451585,-0.14571012665546987
5536,2.0,299.17862,12595.146999999999,0.0,0.0,-0.055359986688855445,0.0,0.0,0.0,-1.0850266092587888,-1.047478093678039,-1.6961054842425785,-0.006680301775244453,-0.011014485562795091,-0.1098418837155499
5537,2.0,299.39437000000004,12634.614,0.0,0.0,-0.05536999110922958,0.0,0.0,0.0,-1.0742384341190792,-1.078960078260069,-1.6874086573092684,-0.02153444428178418,-0.012592392585772388,-0.14789098537570386
5538,2.0,299.79507,12829.546,0.0,0.0,-0.05537999552960371,0.0,0.0,0.0,-1.093663857086219,-1.073330258054449,-1.7328675150957082,-0.02302686035407418,0.006587806935890924,-0.11837277067998288
5539,2.0,299.87224,12995.95,0.0,0.0,-0.05538999994997795,0.0,0.0,0.0,-1.104678594948289,-1.1031820245505888,-1.7425836716296184,-0.012363865171468489,0.0063168552465250735,-0.12687375663396488
5540,2.0,299.49233,12796.345,0.0,0.0,-0.055400004370352085,0.0,0.0,0.0,-1.087025143756029,-1.085032384784359,-1.7177119280499682,0.012890634646706589,0.005438148345153455,-0.12357084501799287
5541,2.0,299.90991,12621.448999999999,0.0,0.0,-0.05541000879072622,0.0,0.0,0.0,-1.056884195681349,-1.078913266105449,-1.7008078766316685,0.0015252569265811386,-0.01223458965745999,-0.14154629695953186
5542,2.0,300.47047000000003,12754.966,0.0,0.0,-0.05542001321110035,0.0,0.0,0.0,-1.096551822521239,-1.083730257080849,-1.6969089915718787,0.015306108387845284,-0.0034103343650737964,-0.1321080445305489
5543,2.0,299.7499,12923.386999999999,0.0,0.0,-0.055429984722196846,0.0,0.0,0.0,-1.1075891558605389,-1.098171401481079,-1.7226261910349683,0.008251277660912701,0.01219747531954709,-0.14420204573663387
5544,2.0,300.19656000000003,12785.458,0.0,0.0,-0.05543998914257098,0.0,0.0,0.0,-1.0899571855703991,-1.088848183335949,-1.7076547115323986,-0.001125923409794989,0.01002551688686648,-0.14767059334645286
5545,2.0,299.80107999999996,12625.96,0.0,0.0,-0.05544999356294533,0.0,0.0,0.0,-1.066169619597749,-1.084001808107649,-1.6878051420733984,-0.01055869324381189,-0.0017144661840046386,-0.14868066184113887
5546,2.0,300.57837,12758.938999999998,0.0,0.0,-0.055459997983319576,0.0,0.0,0.0,-1.080659906627829,-1.066764498731459,-1.7309745612588883,-0.00958818031050472,-0.014589990839919988,-0.1190792390472059
5547,2.0,300.09877,12855.204,0.0,0.0,-0.05547000240369371,0.0,0.0,0.0,-1.0872562661038387,-1.097945750683809,-1.7224592074184881,-0.006717312761647155,-0.02134895973172828,-0.13137786611098587
5548,2.0,299.19385,12965.515,0.0,0.0,-0.05548000682406784,0.0,0.0,0.0,-1.126522848554149,-1.0852385811797092,-1.7294311787065684,0.008451443596967543,-0.024431511742452477,-0.1101049133090089
5549,2.0,299.35249,12938.378,0.0,0.0,-0.05549001124444175,0.0,0.0,0.0,-1.1171611269052188,-1.087396803892709,-1.7283860112284184,-0.008582584605735152,0.0016486916617131986,-0.13070306180938787
5550,2.0,300.17335,12741.388,0.0,0.0,-0.055500015664816105,0.0,0.0,0.0,-1.0958046518974989,-1.0746267115573989,-1.7026323347617283,-0.0024169944268887774,0.011916195065286888,-0.11877788833496489
5551,2.0,299.22075,12713.261999999999,0.0,0.0,-0.0555099871759126,0.0,0.0,0.0,-1.080346001746849,-1.068310211759009,-1.7158578830169884,-0.01067964085524849,0.031279628404558966,-0.13508944175728987
5552,2.0,299.71051,13057.813999999998,0.0,0.0,-0.055519991596286844,0.0,0.0,0.0,-1.136927103230969,-1.0907532961739688,-1.7415691043044883,-0.007570136695839323,0.023501251891892977,-0.11741925167337788
5553,2.0,300.14803,12968.783000000001,0.0,0.0,-0.055529996016660976,0.0,0.0,0.0,-1.110880293510349,-1.093419967787149,-1.737885940190988,-0.0007287723627967321,0.0033040364249080074,-0.1426870949821199
5554,2.0,300.3381,12624.931999999999,0.0,0.0,-0.05554000043703533,0.0,0.0,0.0,-1.0768661969284188,-1.0572403530914989,-1.7035574321030285,-0.003779974182379406,-0.015325118986221485,-0.12433045835296089
5555,2.0,300.30318,12676.243999999999,0.0,0.0,-0.05555000485740946,0.0,0.0,0.0,-1.0658353483897591,-1.087621846739919,-1.6998042524076182,0.004955719403566425,-0.015629443587505985,-0.15478049837064584
5556,2.0,299.84051,12887.026000000002,0.0,0.0,-0.055560009277783595,0.0,0.0,0.0,-1.1079275813939389,-1.084218643629049,-1.7251878899377882,0.007692007783417062,-0.01014363155234849,-0.13847546014646386
5557,2.0,300.11086,12889.249,0.0,0.0,-0.055570013698157616,0.0,0.0,0.0,-1.080776126414299,-1.119394735425659,-1.7178388882874984,0.003620556504396106,0.0017289801810870583,-0.16306127468039486
5558,2.0,300.20808999999997,12841.833999999999,0.0,0.0,-0.055579985209254223,0.0,0.0,0.0,-1.0852941072851887,-1.1029033807730888,-1.7153994886717483,-0.007043027579167703,0.004129582450508056,-0.13082670871909088
5559,2.0,299.38665,12753.264,0.0,0.0,-0.05558998962962847,0.0,0.0,0.0,-1.0819144115766388,-1.0801999924074388,-1.7145594030138382,-0.005128575614976006,-0.0007599851572246952,-0.13253468361765486
5560,2.0,299.58652,12778.236,0.0,0.0,-0.0555999940500026,0.0,0.0,0.0,-1.078988347937859,-1.101011338861359,-1.7042648833228484,-0.0033112286767678265,-0.0014105753550879487,-0.1330080537993729
5561,2.0,299.82006,12975.233999999999,0.0,0.0,-0.05560999847037673,0.0,0.0,0.0,-1.113321314326259,-1.1006997644556091,-1.7301261669501584,0.012533684874978386,0.006127513253338474,-0.13374828365992786
5562,2.0,300.28907000000004,13006.729,0.0,0.0,-0.055620002890750864,0.0,0.0,0.0,-1.118195655257319,-1.0953565927032791,-1.7401685900162684,-0.005068671762438955,0.01028379038568109,-0.12345414900397589
5563,2.0,299.80852999999996,12697.823999999999,0.0,0.0,-0.05563000731112522,0.0,0.0,0.0,-1.071146298788909,-1.094606078354209,-1.6940691555166083,0.0054682685216010845,0.016503225890741584,-0.14632322402597786
5564,2.0,299.39562,12715.063,0.0,0.0,-0.05564001173149924,0.0,0.0,0.0,-1.078582946572849,-1.070194248994949,-1.7162845626340983,0.002210745139883558,0.012114294579087788,-0.12266172663076988
5565,2.0,299.87117,13034.947,0.0,0.0,-0.05565001615187337,0.0,0.0,0.0,-1.119005242087219,-1.1167565361402887,-1.7265365258208885,0.014597265975637985,0.01092725992793659,-0.13643025534961786
5566,2.0,300.11256000000003,12989.413,0.0,0.0,-0.05565998766297009,0.0,0.0,0.0,-1.106059249534549,-1.092008915697889,-1.7503889397999381,0.01128473658971679,-0.011045311670587388,-0.11513847636078288
5567,2.0,299.90817999999996,12762.781,0.0,0.0,-0.05566999208334422,0.0,0.0,0.0,-1.078777591917059,-1.080879275274479,-1.7199097688418785,-0.0029562818978373074,-0.02033965624086778,-0.14623481795475288
5568,2.0,300.0719,12888.575,0.0,0.0,-0.055679996503718354,0.0,0.0,0.0,-1.097901775629469,-1.1048437547145888,-1.7150594419381884,-0.011891504186850088,-0.014878608038154285,-0.13268745133523188
5569,2.0,299.94806,12885.24,0.0,0.0,-0.055690000924092486,0.0,0.0,0.0,-1.087564902084299,-1.089564551156649,-1.7396618636412584,-0.00971728985414684,0.004913640038838516,-0.14691519513190085
5570,2.0,300.25612,12790.993999999999,0.0,0.0,-0.05570000534446673,0.0,0.0,0.0,-1.0945197494456889,-1.092684652189579,-1.7009382819195382,-0.0015554719432381286,0.01176848245245879,-0.13192426122741088
5571,2.0,300.3751,12886.826000000001,0.0,0.0,-0.05571000976484086,0.0,0.0,0.0,-1.107676092719119,-1.085818058911899,-1.7237790669987483,0.005699041703426624,0.005494014497367015,-0.13052885371969486
5572,2.0,300.13826,12843.42,0.0,0.0,-0.055720014185214994,0.0,0.0,0.0,-1.093817263151359,-1.0925743092536888,-1.7176874073975485,0.018368078249288183,0.004944519950211126,-0.12685008711162887
5573,2.0,299.82985,12675.345,0.0,0.0,-0.05572998569631171,0.0,0.0,0.0,-1.061065980169059,-1.096802703245999,-1.6951196932202883,0.015001521354784884,0.0003189903123043927,-0.15856790565443385
5574,2.0,299.45038999999997,12861.896999999999,0.0,0.0,-0.05573999011668562,0.0,0.0,0.0,-1.0808319564948092,-1.094075337951829,-1.7347881306602586,-0.005053003572167625,0.002215573377935068,-0.14306387203180485
5575,2.0,299.44622999999996,13049.178999999998,0.0,0.0,-0.055749994537059755,0.0,0.0,0.0,-1.1027102553040289,-1.120495125034259,-1.7434192989870883,-0.01211484680039229,0.004594897192606045,-0.14296996401253687
5576,2.0,299.87032999999997,12921.55,0.0,0.0,-0.05575999895743411,0.0,0.0,0.0,-1.1035868179655388,-1.104943255874409,-1.7192983737315382,-0.009392136681156722,0.01039395600280359,-0.15130093673223985
5577,2.0,300.05884,12869.265,0.0,0.0,-0.05577000337780835,0.0,0.0,0.0,-1.1073246975844389,-1.0822603351607791,-1.7223501817077285,-0.0031525914040115466,0.02332674590667058,-0.12865798873505488
5578,2.0,300.04949,12861.317,0.0,0.0,-0.055780007798182485,0.0,0.0,0.0,-1.0882958607064388,-1.100447566505719,-1.7207756923773383,-0.001963367322044268,0.0005714392037141585,-0.13888712339709186
5579,2.0,300.4329,12924.143,0.0,0.0,-0.05579001221855662,0.0,0.0,0.0,-1.110881813385499,-1.084322603089309,-1.7334124409994884,-0.004563935410625356,-0.013080458946940786,-0.10051462472902109
5580,2.0,300.56845,12973.458999999999,0.0,0.0,-0.055799983729653335,0.0,0.0,0.0,-1.106690301696829,-1.106856677363249,-1.7300605083436786,-0.0011653593063370089,-0.016922990075919082,-0.14164183631146085
5581,2.0,300.36751,12985.056,0.0,0.0,-0.05580998815002747,0.0,0.0,0.0,-1.1097264042964687,-1.108631182263379,-1.7287753019168381,0.013174188634191186,-0.0046715783389738854,-0.12113605569019789
5582,2.0,299.96472,12843.764,0.0,0.0,-0.05581999257040138,0.0,0.0,0.0,-1.1107350947710188,-1.072665363338829,-1.7207829877780585,0.013289621125333488,0.0054651792233711945,-0.13563651575128188
5583,2.0,299.80897999999996,12892.517,0.0,0.0,-0.05582999699077562,0.0,0.0,0.0,-1.1007155711571688,-1.104901611295299,-1.7133859580730284,-0.007969906315468513,-0.0029060291511777475,-0.1310153150927049
5584,2.0,299.8469,13110.225,0.0,0.0,-0.05584000141114975,0.0,0.0,0.0,-1.134562177497569,-1.1103255390805988,-1.7402932197785683,0.003326946313644037,0.0015783367423447083,-0.14454615560309486
5585,2.0,299.98053,12922.585,0.0,0.0,-0.05585000583152411,0.0,0.0,0.0,-1.087286359631809,-1.087563179559129,-1.7532936238616084,0.0035640540311197466,0.005545506651548895,-0.13158114434604787
5586,2.0,299.98194,12652.278999999999,0.0,0.0,-0.05586001025189824,0.0,0.0,0.0,-1.045591016691799,-1.086697965298739,-1.7136878052778184,0.003158245643544577,-0.006615032155477844,-0.14215668895227287
5587,2.0,299.98847,12906.293,0.0,0.0,-0.05587001467227237,0.0,0.0,0.0,-1.086564317610549,-1.069618824263159,-1.7670075586650682,-0.00981658451359646,-0.019350710971016483,-0.12465813330279987
5588,2.0,299.46246,13079.128,0.0,0.0,-0.05587998618336887,0.0,0.0,0.0,-1.137754320612609,-1.108588828409199,-1.7293851771520286,-0.017684257035050284,0.0018889873679785382,-0.12491495167314587
5589,2.0,299.34097,12861.768,0.0,0.0,-0.055889990603743,0.0,0.0,0.0,-1.102617644244889,-1.083858433218499,-1.7231802361896484,-0.009216013042149671,0.01021990901987649,-0.14184590488160087
5590,2.0,299.28734,12805.678999999998,0.0,0.0,-0.055899995024117244,0.0,0.0,0.0,-1.0960965692513092,-1.078166095481709,-1.7183440947873585,-0.004449568858588256,0.005477748388211675,-0.12098642904793089
5591,2.0,299.89581,12944.788999999999,0.0,0.0,-0.055909999444491376,0.0,0.0,0.0,-1.101254721535379,-1.107295110681519,-1.7263426910767583,-0.008789413370472562,-0.00904889446075635,-0.14266407393984787
5592,2.0,299.92123,12990.073999999999,0.0,0.0,-0.05592000386486551,0.0,0.0,0.0,-1.1042819075341388,-1.098652593953569,-1.7457237336895184,0.0012271482093600989,-0.021767675203052277,-0.13922013817495785
5593,2.0,300.44136000000003,13022.601,0.0,0.0,-0.05593000828523964,0.0,0.0,0.0,-1.114397993882519,-1.117538461242459,-1.7266090745280485,0.013802125052413685,-0.012899184451050387,-0.14627851943156586
5594,2.0,299.99694,13033.354,0.0,0.0,-0.055940012705613995,0.0,0.0,0.0,-1.1170628416455188,-1.1096336919123189,-1.7351177409177883,0.018400243873712682,-0.004664691784669235,-0.13279918242375888
5595,2.0,300.70041000000003,12946.306,0.0,0.0,-0.05594998421671049,0.0,0.0,0.0,-1.1076940272458888,-1.0764691042142291,-1.7511905219540482,0.017320567123656882,0.002264016865216068,-0.1271832336120079
5596,2.0,300.37273999999996,12995.87,0.0,0.0,-0.05595998863708462,0.0,0.0,0.0,-1.1050091171309089,-1.111281945849989,-1.7341289101451984,-0.006550152738324744,0.02016716155709388,-0.14744836733452085
5597,2.0,300.02936,13121.571000000002,0.0,0.0,-0.05596999305745887,0.0,0.0,0.0,-1.120157814075969,-1.099983092659879,-1.7684892342862983,-0.01155418714905949,0.01602852632489238,-0.11599044744236589
5598,2.0,299.1498,12929.095,0.0,0.0,-0.055979997477833,0.0,0.0,0.0,-1.075959236763909,-1.1044326791490189,-1.7497301245849182,-0.023385361411705476,-0.0008479513259187802,-0.12668056023739788
5599,2.0,299.46767,12814.198999999999,0.0,0.0,-0.05599000189820713,0.0,0.0,0.0,-1.090891199512579,-1.095308767298559,-1.7089966599648385,-0.010936691259867388,-0.014735635409293985,-0.11356072436507089
5600,2.0,299.4634,12974.583999999999,0.0,0.0,-0.056000006318581264,0.0,0.0,0.0,-1.107112725663519,-1.086702524924189,-1.7501342087247982,-0.005768490777205714,-0.006070771551713505,-0.13592672071242287
5601,2.0,299.82236,12968.115,0.0,0.0,-0.05601001073895551,0.0,0.0,0.0,-1.1194654602826388,-1.102914931824229,-1.7196028553865883,0.0052606592503116455,0.004572246797220626,-0.12378083096871688
5602,2.0,299.52782,12860.827,0.0,0.0,-0.05602001515932964,0.0,0.0,0.0,-1.088683023569649,-1.093141526659669,-1.7275456215954783,-0.003939877916435676,0.004523153310000476,-0.14379673556413286
5603,2.0,300.1555,13021.931,0.0,0.0,-0.05602998667042636,0.0,0.0,0.0,-1.103766771183299,-1.1067192806496888,-1.7478559158749483,-0.0025384106664966275,0.009168190069229913,-0.14514705344239887
5604,2.0,300.24832000000004,13113.37,0.0,0.0,-0.05603999109080049,0.0,0.0,0.0,-1.1163909555042089,-1.1323854123077388,-1.7373607726641584,0.0023792334327620577,0.014386713618108088,-0.14833920668993986
5605,2.0,301.09299,13041.99,0.0,0.0,-0.0560499955111744,0.0,0.0,0.0,-1.114748983717159,-1.1074092026427789,-1.7422810138247482,0.008483108067892582,0.006193231438924354,-0.14641813516284485
5606,2.0,300.5608,12962.858999999999,0.0,0.0,-0.05605999993154853,0.0,0.0,0.0,-1.097912820055559,-1.111965990992499,-1.7305067436877184,0.0009381524203584352,-0.014104813254786686,-0.13814368153371986
5607,2.0,300.03018,12846.3,0.0,0.0,-0.056070004351922886,0.0,0.0,0.0,-1.0869264531962888,-1.0860001399548689,-1.7320280373878583,-0.002132469948458398,-0.02237139393063468,-0.14201940369622387
5608,2.0,300.01302999999996,12869.362,0.0,0.0,-0.05608000877229713,0.0,0.0,0.0,-1.090250217499319,-1.083978098055309,-1.7377363844762284,0.009044366347384461,-0.006932080340918063,-0.13538568568902687
5609,2.0,300.32727,12930.847,0.0,0.0,-0.05609001319267126,0.0,0.0,0.0,-1.094233303642419,-1.101397285824449,-1.7350239139585282,-0.006451548203518234,0.008815733251095132,-0.14870343970338687
5610,2.0,299.68807000000004,12990.55,0.0,0.0,-0.05609998470376776,0.0,0.0,0.0,-1.126512006778079,-1.090948448143229,-1.7313423710451883,0.006919738549400023,0.008329941129776182,-0.12969840407023586
5611,2.0,300.00847000000005,12992.076000000001,0.0,0.0,-0.05610998912414211,0.0,0.0,0.0,-1.1116051726318887,-1.112573839727489,-1.7250875781778885,-0.01160966461853469,-0.00941349305483943,-0.13416780973133188
5612,2.0,299.14123,13046.361,0.0,0.0,-0.056119993544516245,0.0,0.0,0.0,-1.1227219447790289,-1.1149281263348387,-1.7281179052519584,0.013658357022224885,0.005649923391579025,-0.13916960739247086
5613,2.0,299.34394,13194.955,0.0,0.0,-0.056129997964890155,0.0,0.0,0.0,-1.134967072237529,-1.103535142210439,-1.7724345262006682,0.0051783521340885656,0.014737168456695288,-0.12431293925873188
5614,2.0,300.2842,13029.318000000001,0.0,0.0,-0.0561400023852644,0.0,0.0,0.0,-1.109438539943059,-1.104080676064279,-1.747068012597188,0.005023519210157745,0.014949345054135484,-0.14493337926131086
5615,2.0,301.20401,12825.9,0.0,0.0,-0.05615000680563853,0.0,0.0,0.0,-1.081637692974329,-1.082177248652579,-1.7349384969750983,0.0003745427318894896,0.0008904073055763592,-0.14336294293132087
5616,2.0,300.03096,12871.421999999999,0.0,0.0,-0.056160011226012885,0.0,0.0,0.0,-1.093477824367859,-1.085970046426899,-1.7331430177978984,0.006765581564610915,-0.002906878356086557,-0.14809238909808087
5617,2.0,299.98409,13105.992,0.0,0.0,-0.05617001564638702,0.0,0.0,0.0,-1.1251191931906188,-1.1160715790726887,-1.7427035391164485,0.007436216038072384,-0.008524287970506722,-0.1261108806336749
5618,2.0,300.38716,13062.643999999998,0.0,0.0,-0.05617998715748351,0.0,0.0,0.0,-1.1056467554188387,-1.1037927103858591,-1.7612782372996283,-0.006725706626800563,-0.023798163555445877,-0.12353183488914288
5619,2.0,299.94786,13004.871000000001,0.0,0.0,-0.056189991577857645,0.0,0.0,0.0,-1.1007404971096288,-1.115321571348669,-1.7370940852378383,-0.002397633851928038,-0.023439417291290378,-0.11770292117137389
5620,2.0,299.7181,13138.231000000002,0.0,0.0,-0.05619999599823178,0.0,0.0,0.0,-1.106492920577349,-1.1198157408422091,-1.7673857036023881,-0.0012361360417221289,-0.0030522063861293173,-0.12587273646267189
5621,2.0,300.06777,13236.952,0.0,0.0,-0.05621000041860602,0.0,0.0,0.0,-1.1286098397851188,-1.123272139583329,-1.7718208006150982,-0.00012569132416476788,0.013367875443806588,-0.13235107256703388
5622,2.0,300.38259,13248.015,0.0,0.0,-0.05622000483898015,0.0,0.0,0.0,-1.1398312806675888,-1.1286990057939188,-1.7585355719289484,-0.01867991610006418,0.01291868343597479,-0.13512053840285887
5623,2.0,300.99498,13086.066,0.0,0.0,-0.056230009259354286,0.0,0.0,0.0,-1.1299723571945888,-1.093811487625789,-1.7540534601115982,-0.012711283299505988,-0.0014735384123269186,-0.13833135571724187
5624,2.0,300.80307,12804.867,0.0,0.0,-0.05624001367972842,0.0,0.0,0.0,-1.092556172076899,-1.079067381445659,-1.720736175623438,0.01030868695388819,0.017406473506885185,-0.1278780090730769
5625,2.0,299.34871,12863.595,0.0,0.0,-0.056249985190825136,0.0,0.0,0.0,-1.085671644272449,-1.081716219857079,-1.7428238119033181,0.007647797249753822,0.01125015740355409,-0.14373370127541185
5626,2.0,299.62293,13251.183,0.0,0.0,-0.05625998961119927,0.0,0.0,0.0,-1.1253659195899688,-1.1233021317862888,-1.7793605972592181,0.0023996318798002276,0.0033523488989510766,-0.11681137254088489
5627,2.0,299.13826,13159.793,0.0,0.0,-0.0562699940315734,0.0,0.0,0.0,-1.1136195138306888,-1.125538273431979,-1.7610905833811084,-0.013595426085014087,-0.01213773510690119,-0.15906203733070085
5628,2.0,299.57525,12955.205,0.0,0.0,-0.056279998451947644,0.0,0.0,0.0,-1.114253099118219,-1.0944882373675788,-1.7293173907203383,0.001953375865458188,0.0045731424089840165,-0.12777886255079188
5629,2.0,300.0952,12990.315,0.0,0.0,-0.056290002872321776,0.0,0.0,0.0,-1.1263248594846091,-1.1002715649633488,-1.722134967386488,0.01043263986512139,0.002575341403491408,-0.14039927758132983
5630,2.0,300.16359,13105.556999999999,0.0,0.0,-0.05630000729269591,0.0,0.0,0.0,-1.128650572439139,-1.102605991868739,-1.7525055179338285,0.0077739015949243526,-0.014185004907450987,-0.11418881783705888
5631,2.0,300.70501,13135.911,0.0,0.0,-0.05631001171307004,0.0,0.0,0.0,-1.123056621287059,-1.1073949158163687,-1.7625373018738884,0.01126815069882989,-0.022658035291173977,-0.13181245921137688
5632,2.0,301.14935,13034.847,0.0,0.0,-0.056320016133444284,0.0,0.0,0.0,-1.0981978473086889,-1.109465087095679,-1.7546049721410282,0.0035566806101420463,-0.014526687026672385,-0.12879024827060787
5633,2.0,299.78821,12924.303999999998,0.0,0.0,-0.05632998764454089,0.0,0.0,0.0,-1.1025927182924289,-1.094441323887949,-1.7316314512987183,0.003331355370129177,0.0057035200662186045,-0.14515706435338685
5634,2.0,299.99638,12999.633999999998,0.0,0.0,-0.056339992064915134,0.0,0.0,0.0,-1.098183560482279,-1.1096210262860688,-1.7437596496956782,-0.015317639173983285,-0.0013705939246920888,-0.16024153137460787
5635,2.0,299.39741000000004,13206.663999999999,0.0,0.0,-0.056349996485289267,0.0,0.0,0.0,-1.134293970196099,-1.128827181931569,-1.7513750347972585,-0.01105033536458319,0.013050741334757886,-0.15082642157790885
5636,2.0,299.64785,13177.591,0.0,0.0,-0.05636000090566318,0.0,0.0,0.0,-1.1181480325026187,-1.1110798024550388,-1.7764305819450483,-0.007987610226515751,0.006095900458168535,-0.14097317230546888
5637,2.0,300.16746,12822.965,0.0,0.0,-0.05637000532603731,0.0,0.0,0.0,-1.066491123854479,-1.104494386080109,-1.7268756606293585,0.003738264957913027,0.011068394521115488,-0.1290818008543819
5638,2.0,300.45808,12837.056999999999,0.0,0.0,-0.05638000974641166,0.0,0.0,0.0,-1.076404661507869,-1.099580021770099,-1.7261602047337483,-0.01163721995500419,-0.004674161721428845,-0.13511085173190288
5639,2.0,300.07439,13236.823,0.0,0.0,-0.05639001416678591,0.0,0.0,0.0,-1.138339573870369,-1.119723636408119,-1.7656004582511982,-0.006965993619115044,-0.011885719542029188,-0.13057091373134588
5640,2.0,300.40851000000004,13327.116000000002,0.0,0.0,-0.0563999856778824,0.0,0.0,0.0,-1.1615790728639288,-1.130747290871069,-1.7587841221784786,-0.013392204591957687,0.004826261909839965,-0.13340645360619188
5641,2.0,300.35152,13063.235,0.0,0.0,-0.056409990098256535,0.0,0.0,0.0,-1.118120472099899,-1.0998013155919388,-1.7529753620051984,-0.0028802801356615174,0.006323239735405175,-0.14283584009679987
5642,2.0,300.89537,13002.902,0.0,0.0,-0.05641999451863089,0.0,0.0,0.0,-1.116130246253479,-1.103358431392999,-1.7330688478905785,0.008268078360820802,0.004421056406074295,-0.13683198874926586
5643,2.0,300.41098,13050.767,0.0,0.0,-0.0564299989390048,0.0,0.0,0.0,-1.0918179180540388,-1.113117347081129,-1.7621720252128383,0.012903951792770887,-0.01246471699367179,-0.15137713313975987
5644,2.0,300.29728,13183.688999999998,0.0,0.0,-0.05644000335937893,0.0,0.0,0.0,-1.131954173065179,-1.110773496949809,-1.7647846905956883,0.007819153445715363,-0.013593593115583188,-0.11902297326915287
5645,2.0,300.33173999999997,13234.798999999999,0.0,0.0,-0.056450007779753175,0.0,0.0,0.0,-1.1254955142777592,-1.1298706268845489,-1.7676823832316684,-0.0004161923265874846,-0.01017518416046249,-0.13786740876145387
5646,2.0,300.16454,12976.919,0.0,0.0,-0.05646001220012731,0.0,0.0,0.0,-1.1222739869098188,-1.0875960088623688,-1.7347892452353684,9.156834980659251e-05,-0.007283395935465214,-0.1306349815351689
5647,2.0,299.92845,12909.372,0.0,0.0,-0.056469983711224025,0.0,0.0,0.0,-1.081808425616179,-1.1036641289481688,-1.7386543890668285,0.001209775225795519,-0.0012879827321139988,-0.14904000085660285
5648,2.0,299.70754,13263.361,0.0,0.0,-0.05647998813159816,0.0,0.0,0.0,-1.1431751073225989,-1.126466613173599,-1.7620887360546182,0.008298500992423281,0.004314687538401506,-0.1288961227735569
5649,2.0,299.77216,13418.006000000001,0.0,0.0,-0.05648999255197229,0.0,0.0,0.0,-1.146107554437009,-1.1276629575666688,-1.8049682643864984,0.002087490661944288,-0.0016315500031464484,-0.1255372290895599
5650,2.0,300.3835,13052.198,0.0,0.0,-0.05649999697234642,0.0,0.0,0.0,-1.1053415644887188,-1.123689294649499,-1.7385114194777185,-0.005077575697692706,-0.0020777600159339483,-0.14955105380953984
5651,2.0,300.22715,12935.475,0.0,0.0,-0.056510001392720555,0.0,0.0,0.0,-1.096752344716029,-1.094461386239929,-1.7408476702332882,-0.008476123025678212,-0.00925878628054606,-0.12087064495900389
5652,2.0,300.75526,13166.065,0.0,0.0,-0.0565200058130948,0.0,0.0,0.0,-1.1216575255489791,-1.113551322098959,-1.7669461557090085,0.001054608233306729,0.002254066546584048,-0.14406143702025687
5653,2.0,300.49509,13185.476,0.0,0.0,-0.05653001023346893,0.0,0.0,0.0,-1.123051149736519,-1.118890136875859,-1.7661141760518981,-0.007424308018922153,0.004938734596115155,-0.12492882306701487
5654,2.0,300.30498,13087.98,0.0,0.0,-0.05654001465384306,0.0,0.0,0.0,-1.102253583483959,-1.094353475104279,-1.7818121558761681,0.006944448274288683,-0.0004895242051472775,-0.15704924640455387
5655,2.0,300.20347999999996,13067.131000000001,0.0,0.0,-0.05654998616493978,0.0,0.0,0.0,-1.103052429862799,-1.1090485399795689,-1.7599805678965585,-0.0022033539870291077,-0.0064136955102574635,-0.13343461182647087
5656,2.0,300.04816,12998.374,0.0,0.0,-0.05655999058531391,0.0,0.0,0.0,-1.107496544801399,-1.104763809281699,-1.7389208738431285,0.005372017260151824,5.626270689194685e-05,-0.15084741611998087
5657,2.0,299.75747,13120.979,0.0,0.0,-0.056569995005688045,0.0,0.0,0.0,-1.120990199033119,-1.108998384099619,-1.7584615033466384,0.0017556583469449884,-0.0037033331607155264,-0.12108695359035189
5658,2.0,300.08215,13396.438999999998,0.0,0.0,-0.05657999942606229,0.0,0.0,0.0,-1.149409432537879,-1.1446416855173387,-1.7781319301879586,-0.004497586679502246,0.008520028976361392,-0.13799507827405388
5659,2.0,299.69552000000004,13250.383999999998,0.0,0.0,-0.05659000384643642,0.0,0.0,0.0,-1.128704983969509,-1.1223363017909689,-1.7767445881510382,2.8939279052334475e-05,0.00951269408997981,-0.13191407806390587
5660,2.0,299.91717,13001.987,0.0,0.0,-0.05660000826681055,0.0,0.0,0.0,-1.106538618156859,-1.097911401505419,-1.7478293687223283,-0.0032022747041149068,0.004574712743988995,-0.12591110824395887
5661,2.0,300.46945,13181.249,0.0,0.0,-0.056610012687184685,0.0,0.0,0.0,-1.116315974996809,-1.121039442987979,-1.7694151422276783,0.004903138512152095,-0.0049671289036674554,-0.14393305823258687
5662,2.0,300.34427999999997,13321.143,0.0,0.0,-0.05661998419828118,0.0,0.0,0.0,-1.160627934995059,-1.115656247856699,-1.7730106602075284,-0.006376635482549925,-0.004199974150855176,-0.12407472416022189
5663,2.0,300.80706000000004,13180.499,0.0,0.0,-0.056629988618655314,0.0,0.0,0.0,-1.127952544445249,-1.120776301937009,-1.7578136312326984,0.0036380027459429164,0.005281728468916015,-0.15750228065676486
5664,2.0,300.90844,13086.755,0.0,0.0,-0.05663999303902967,0.0,0.0,0.0,-1.119563846867349,-1.1054471451491388,-1.7530356503861484,-0.0038788086236336066,0.015476862307947384,-0.12575190638824688
5665,2.0,300.79278999999997,12982.79,0.0,0.0,-0.05664999745940391,0.0,0.0,0.0,-1.092015805798569,-1.103040878811659,-1.7513872951234681,-0.004493423032191326,0.005581122595213915,-0.15069476999241585
5666,2.0,300.09447,13004.455,0.0,0.0,-0.056660001879778044,0.0,0.0,0.0,-1.091485875996269,-1.115108484852639,-1.7464353392347483,-0.007560405137903893,0.01034835772180339,-0.13866467447013786
5667,2.0,300.22819,13320.692,0.0,0.0,-0.056670006300151954,0.0,0.0,0.0,-1.129127509261209,-1.132927906411279,-1.7871022333232585,-0.004175781386167536,0.0015372997079946685,-0.14912803202529085
5668,2.0,299.50248999999997,13303.818000000001,0.0,0.0,-0.056680010720526086,0.0,0.0,0.0,-1.168210085493359,-1.120873573946609,-1.7549448162245682,0.0011700612934260589,-0.010026952054308121,-0.1375959286621609
5669,2.0,299.96417,12935.079,0.0,0.0,-0.05669001514090044,0.0,0.0,0.0,-1.110803489152769,-1.096146826456269,-1.7249907114683283,-0.004989001426951105,-0.008839800068795341,-0.13529019699960287
5670,2.0,299.93872000000005,12963.76,0.0,0.0,-0.056699986651996936,0.0,0.0,0.0,-1.099137839426459,-1.109793886753129,-1.7317276087332083,0.0013932935640323686,-0.006077411379618805,-0.13612417275940988
5671,2.0,299.52667,13334.161,0.0,0.0,-0.05670999107237118,0.0,0.0,0.0,-1.138492777285489,-1.1380028708621388,-1.7767565445022182,0.002379122076576068,0.0054300269429519345,-0.12020010644032689
5672,2.0,299.40655,13364.898000000001,0.0,0.0,-0.05671999549274531,0.0,0.0,0.0,-1.138699480305889,-1.127821227232289,-1.7960744616337483,-0.006752278908023044,-0.0014023729942034386,-0.13406248238343685
5673,2.0,299.85732,13042.614,0.0,0.0,-0.056729999913119666,0.0,0.0,0.0,-1.094954535063599,-1.112356396256029,-1.7573181519337984,-0.012581820334228987,-0.00012821235120857386,-0.14127659004791387
5674,2.0,300.15116,13022.087,0.0,0.0,-0.05674000433349358,0.0,0.0,0.0,-1.111201291142029,-1.115544587695679,-1.7316434076498985,-0.004343873802231966,-0.008165851760881823,-0.15748694005025085
5675,2.0,300.21787,13199.219,0.0,0.0,-0.05675000875386771,0.0,0.0,0.0,-1.126001835352729,-1.123509746731779,-1.7627213080920485,0.0038694975644896767,0.011054674101511388,-0.14303089074104985
5676,2.0,299.64134,13259.228000000001,0.0,0.0,-0.05676001317424195,0.0,0.0,0.0,-1.1375224889897289,-1.128196535069329,-1.764755306342788,0.008177756537631732,-0.005576072860690545,-0.13840191845420585
5677,2.0,300.39493999999996,13272.44,0.0,0.0,-0.05676998468533856,0.0,0.0,0.0,-1.123882318793549,-1.119142436150759,-1.7914657948789083,0.0025359233401511475,-0.009174136428766771,-0.12881753509580088
5678,2.0,300.79825,13053.975,0.0,0.0,-0.0567799891057128,0.0,0.0,0.0,-1.094268159445859,-1.110909373788219,-1.7629049090101683,0.0013991039454058086,-0.004196437097406096,-0.13262165087373787
5679,2.0,299.84386,12949.653999999999,0.0,0.0,-0.056789993526086935,0.0,0.0,0.0,-1.0924449172159187,-1.113438851337859,-1.7304876945858383,0.01052270969301059,0.0013458022278703386,-0.14419264277570587
5680,2.0,299.52481,13315.043,0.0,0.0,-0.05679999794646107,0.0,0.0,0.0,-1.1661241075124888,-1.114240737466999,-1.7670757503967984,0.01309609136948359,0.0018853724969217784,-0.13459177383817386
5681,2.0,299.50023,13491.215,0.0,0.0,-0.0568100023668352,0.0,0.0,0.0,-1.1719234444598388,-1.1434416934239091,-1.7856274478027083,-0.002338481223015128,-0.01007961572825562,-0.13949589418967287
5682,2.0,299.64243,13158.784,0.0,0.0,-0.05682000678720933,0.0,0.0,0.0,-1.127290892129949,-1.1167765984922688,-1.7558741692162885,0.00813090628480797,-0.004839440240640566,-0.13492635915369489
5683,2.0,300.25627000000003,13058.671999999999,0.0,0.0,-0.056830011207583575,0.0,0.0,0.0,-1.086511831255369,-1.109858734759529,-1.7731396469452585,-0.008303361654477991,-0.008510855415256032,-0.13839063084809186
5684,2.0,300.03932000000003,13286.798999999999,0.0,0.0,-0.05684001562795771,0.0,0.0,0.0,-1.1300783431550487,-1.124432716247869,-1.7843439639010383,0.0047437938895010055,-0.009755409032183911,-0.12816517428391788
5685,2.0,300.2641,13370.746000000001,0.0,0.0,-0.0568499871390542,0.0,0.0,0.0,-1.1567509361374289,-1.1188123192681791,-1.7888095597417581,-0.008439958812384081,-0.008592392360078102,-0.13273581376250487
5686,2.0,300.45649,13217.073999999999,0.0,0.0,-0.05685999155942856,0.0,0.0,0.0,-1.1426980691755189,-1.119963371381779,-1.7549989237799084,-0.006715440174137344,0.003314551326495747,-0.15594483419305685
5687,2.0,299.90611,13015.866000000002,0.0,0.0,-0.05686999597980269,0.0,0.0,0.0,-1.110389373836899,-1.0937516045448792,-1.7523572794441982,-0.01141859199417729,0.01032787588428199,-0.14558628722824787
5688,2.0,299.79225,13051.659,0.0,0.0,-0.05688000040017682,0.0,0.0,0.0,-1.119751095485829,-1.0936101548309187,-1.7540171857580182,-0.009986602003525882,0.0019114813175485181,-0.13544946978282188
5689,2.0,299.56919,13283.524,0.0,0.0,-0.056890004820551066,0.0,0.0,0.0,-1.1221850235510389,-1.124136847218669,-1.7915378369610182,-0.007504934051904322,0.006245757716158294,-0.13220230718735188
5690,2.0,299.46884,13438.319,0.0,0.0,-0.056900009240924976,0.0,0.0,0.0,-1.1478955355634688,-1.132928210386309,-1.8040897765497983,-0.003128219496706227,0.001977871085300678,-0.13184317082190788
5691,2.0,299.52842999999996,13214.857,0.0,0.0,-0.05691001366129933,0.0,0.0,0.0,-1.1253793958162988,-1.1166017115250089,-1.775005344354388,0.0006563331778400414,0.002881411733373197,-0.13070294021937587
5692,2.0,299.45096,13045.698999999999,0.0,0.0,-0.056919985172395826,0.0,0.0,0.0,-1.107601517511759,-1.116941859583579,-1.7410232664756182,0.005489603515706685,-0.0016380117016841684,-0.14753457465302885
5693,2.0,299.60438,13337.098,0.0,0.0,-0.05692998959276996,0.0,0.0,0.0,-1.147406541065209,-1.129200463268409,-1.7775376590043084,-0.0019675306653801584,-0.002751841971535657,-0.14320723678845385
5694,2.0,300.3063,13488.681,0.0,0.0,-0.05693999401314409,0.0,0.0,0.0,-1.1731348862793989,-1.130584056279959,-1.7965033704010782,0.008726782861916412,0.00027684482287495675,-0.13837543209659187
5695,2.0,300.68053,13079.51,0.0,0.0,-0.056949998433518445,0.0,0.0,0.0,-1.090963342919699,-1.1050614008360689,-1.7798199035295486,-0.0061119725299297245,-0.016077025540928883,-0.13583025930290285
5696,2.0,299.90724,12818.06,0.0,0.0,-0.05696000285389269,0.0,0.0,0.0,-1.079390506902549,-1.0773575219019091,-1.7396221442373383,0.0008264907394632851,0.0037519856814921563,-0.13105241017886587
5697,2.0,299.47154,13166.878,0.0,0.0,-0.05697000727426682,0.0,0.0,0.0,-1.123971788777379,-1.1200725997425591,-1.7583576452113883,0.0015715977172546186,0.007208808771754033,-0.13998188946763687
5698,2.0,299.84004,13440.681,0.0,0.0,-0.05698001169464073,0.0,0.0,0.0,-1.170836429752559,-1.1322039392148289,-1.7825911425530483,0.011548316377980091,0.02017122772974518,-0.13203919418625387
5699,2.0,299.66289,13396.148000000001,0.0,0.0,-0.05699001611501486,0.0,0.0,0.0,-1.1506264472329888,-1.1425951229653588,-1.7788728186610783,-0.0022846414696765576,0.015092747301038186,-0.14698088413588387
5700,2.0,300.35546,13327.958,0.0,0.0,-0.05699998762611158,0.0,0.0,0.0,-1.1395105870109388,-1.139474312657359,-1.7723814318954285,-0.0017648351504506686,-0.0013411933584654787,-0.12299482246864388
5701,2.0,300.07018,13163.706,0.0,0.0,-0.057009992046485714,0.0,0.0,0.0,-1.100375828398639,-1.1234541193012888,-1.7776078772362383,0.01029046770384009,-0.010986731629305989,-0.1329905043076409
5702,2.0,299.85317000000003,13278.865,0.0,0.0,-0.05701999646685996,0.0,0.0,0.0,-1.135523853167479,-1.134922793208159,-1.7659967403653085,-0.0009473357694597609,-0.019179037019823583,-0.12627462184983487
5703,2.0,300.69392,13473.303999999998,0.0,0.0,-0.05703000088723409,0.0,0.0,0.0,-1.162622213841879,-1.1269954284007888,-1.8059302440314382,0.015242680958085486,-0.005313941108145155,-0.1276048165811149
5704,2.0,301.28907999999996,13266.861,0.0,0.0,-0.05704000530760844,0.0,0.0,0.0,-1.1409826367562188,-1.1288135030552189,-1.762998431994398,-0.022330226592321777,-0.003569428613625176,-0.13580561706047087
5705,2.0,300.47042000000005,13030.438,0.0,0.0,-0.057050009727982354,0.0,0.0,0.0,-1.110044868802899,-1.116079279773449,-1.7348034307367683,0.00047969609460981856,0.012815253905517089,-0.16164338315295984
5706,2.0,300.13732000000005,13265.052,0.0,0.0,-0.057060014148356486,0.0,0.0,0.0,-1.128102404135039,-1.122564789688519,-1.7815773858279982,-0.01179187333101729,0.005402096399970405,-0.15217951576144886
5707,2.0,299.32578,13498.613000000001,0.0,0.0,-0.057069985659453204,0.0,0.0,0.0,-1.1525597284237887,-1.156410484103829,-1.7942711804307785,0.002335565494527368,0.010656102042175389,-0.13796018194060988
5708,2.0,300.04689,13385.54,0.0,0.0,-0.057079990079827336,0.0,0.0,0.0,-1.128571944231379,-1.137728482735059,-1.802569394774748,-0.0034644418190887863,-0.008709069527643241,-0.12938185460649487
5709,2.0,300.10571,13089.476999999999,0.0,0.0,-0.05708999450020158,0.0,0.0,0.0,-1.106889506666489,-1.116370893152229,-1.7556138652655984,-0.0031000449631006168,-0.0019458595762163883,-0.13261179195026487
5710,2.0,299.53202000000005,13180.661,0.0,0.0,-0.05709999892057571,0.0,0.0,0.0,-1.122623659519329,-1.1259946412770188,-1.7579735220984785,0.0043151760262747155,0.008135911841626983,-0.13655719532214589
5711,2.0,299.89116,13385.93,0.0,0.0,-0.057110003340949844,0.0,0.0,0.0,-1.1570748721943989,-1.127775428327769,-1.7841382741307383,0.006592147395344294,0.008023014603559893,-0.13852093481095187
5712,2.0,299.58558999999997,13397.594,0.0,0.0,-0.057120007761323977,0.0,0.0,0.0,-1.1440840939873091,-1.141807827637659,-1.7866420151278382,0.005892382184157844,0.02230952791927898,-0.14383534039294288
5713,2.0,299.70161,13271.185,0.0,0.0,-0.05713001218169822,0.0,0.0,0.0,-1.120189123504059,-1.137696869331939,-1.7762229669995586,-0.0008989270771871952,0.0017256938057127185,-0.13987938908752087
5714,2.0,300.00161,13049.448,0.0,0.0,-0.05713998369279483,0.0,0.0,0.0,-1.116238866664199,-1.097746444389139,-1.752720934905088,-0.0046905774876239556,0.003299086900819527,-0.13655610101203788
5715,2.0,299.96153,13246.503999999999,0.0,0.0,-0.05714998811316885,0.0,0.0,0.0,-1.134628241404089,-1.125816917209479,-1.7661612921815482,-0.01034672030964179,-0.01949745187699868,-0.14033156207714687
5716,2.0,299.70202,13601.785,0.0,0.0,-0.05715999253354298,0.0,0.0,0.0,-1.1949828889106289,-1.127313487607179,-1.8123065255857282,0.001025689872802709,-0.011723248941494591,-0.12442539988733087
5717,2.0,300.52296,13531.222,0.0,0.0,-0.057169996953917335,0.0,0.0,0.0,-1.155510718015029,-1.148184717142009,-1.8094581782296182,-0.012896037296239789,0.005743328838797425,-0.14800919113236988
5718,2.0,300.58681,13206.726,0.0,0.0,-0.05718000137429147,0.0,0.0,0.0,-1.119518047962829,-1.124647829244099,-1.7703489535198385,-0.003976950508444456,0.007839774402475493,-0.14527025452205786
5719,2.0,300.30361,13226.738000000001,0.0,0.0,-0.0571900057946656,0.0,0.0,0.0,-1.122428102250029,-1.107144339066639,-1.7910257403604781,-0.015888458684068785,0.005998139656720295,-0.13507237862560587
5720,2.0,299.74242999999996,13456.579,0.0,0.0,-0.05720001021503984,0.0,0.0,0.0,-1.158000881460789,-1.1334584441636388,-1.7990047809229481,0.009645047959117121,0.005264168642032995,-0.1338701269844529
5721,2.0,299.87694,13354.913999999999,0.0,0.0,-0.05721001463541375,0.0,0.0,0.0,-1.125700089472949,-1.1352969864700888,-1.7985633078543786,0.005418672158356306,0.005727283111538834,-0.13861222864496187
5722,2.0,299.89547999999996,13170.215,0.0,0.0,-0.05721998614651058,0.0,0.0,0.0,-1.114684844985829,-1.122502677457389,-1.7662289772882283,-0.005895008528417045,0.008544773861028521,-0.14697034633484388
5723,2.0,299.72392,13161.809,0.0,0.0,-0.0572299905668846,0.0,0.0,0.0,-1.118169412079729,-1.117470573485759,-1.7652211987387683,-0.011555856985224289,-0.009201632186130392,-0.14375646900515887
5724,2.0,299.49249,13273.091999999999,0.0,0.0,-0.057239994987258735,0.0,0.0,0.0,-1.131884562783309,-1.1202036129804889,-1.7826003631289584,-0.00032452488700061263,-0.00957997095819452,-0.15038271935911887
5725,2.0,299.14916,13463.291000000001,0.0,0.0,-0.05724999940763287,0.0,0.0,0.0,-1.162104747015809,-1.136608334749509,-1.7937912038584083,-0.00952752938866894,-0.005323416820430335,-0.13680342522894687
5726,2.0,300.02909,13525.886,0.0,0.0,-0.05726000382800722,0.0,0.0,0.0,-1.1650607015325387,-1.137757461687919,-1.8087135407311283,0.012924536981802489,-0.006932404479625054,-0.13763923497143485
5727,2.0,300.03438,13178.306999999999,0.0,0.0,-0.057270008248381465,0.0,0.0,0.0,-1.112380714258429,-1.108545258654899,-1.7849503940858884,-0.013850378048675886,-0.014656841028517586,-0.11411392852216788
5728,2.0,299.947,13075.188999999998,0.0,0.0,-0.0572800126687556,0.0,0.0,0.0,-1.113108937105299,-1.102641658272259,-1.7587804744781181,0.003613939981243106,-0.0037298540701579366,-0.14264290714525887
5729,2.0,299.56986,13476.034,0.0,0.0,-0.057289984179852094,0.0,0.0,0.0,-1.143246642779659,-1.134127999829719,-1.8190030954966283,0.008317318465330422,-0.008960916487698601,-0.13072807895435687
5730,2.0,300.1026,13580.833999999999,0.0,0.0,-0.057299988600226226,0.0,0.0,0.0,-1.174199406834459,-1.152359915504069,-1.8016749989114784,0.0014661811020258086,0.009178403123612861,-0.15372209784618984
5731,2.0,300.15405,13376.221000000001,0.0,0.0,-0.05730999302060036,0.0,0.0,0.0,-1.152624272455159,-1.1313701357075387,-1.7820426702739183,-0.007331768089939173,-5.454049278972755e-05,-0.14240176375395985
5732,2.0,300.41327,13207.764,0.0,0.0,-0.05731999744097449,0.0,0.0,0.0,-1.124752801954459,-1.1228826462448889,-1.7671951112585784,-0.009690091485687571,-0.0007971257383151852,-0.13260831650242186
5733,2.0,299.95928,13247.591,0.0,0.0,-0.057330001861348734,0.0,0.0,0.0,-1.121590752367389,-1.1420183810084388,-1.7633278396019085,0.014991777941823287,0.0025461372051341774,-0.14494531534748886
5734,2.0,300.19239,13479.287,0.0,0.0,-0.057340006281722866,0.0,0.0,0.0,-1.1450303682556988,-1.1389418497298092,-1.8133944522180985,0.007966753891757394,-0.015742070389121385,-0.12657553686453288
5735,2.0,300.232,13511.03,0.0,0.0,-0.05735001070209722,0.0,0.0,0.0,-1.1522163379648989,-1.1510652858512989,-1.8037342270897083,0.0016980768636371386,-0.01969003323075498,-0.14375075427459486
5736,2.0,300.52356000000003,13212.01,0.0,0.0,-0.05736001512247113,0.0,0.0,0.0,-1.1213286245665188,-1.119893254474859,-1.7748991557439082,-0.025694349660084874,-0.01085334738614199,-0.1313747149031749
5737,2.0,300.34279,13090.661,0.0,0.0,-0.05736998663356785,0.0,0.0,0.0,-1.109313606205729,-1.1086437465646188,-1.7612768187494883,0.0008746828292619743,-0.0089820994942892,-0.14432608781387588
5738,2.0,300.02595,13489.13,0.0,0.0,-0.05737999105394198,0.0,0.0,0.0,-1.143251101080099,-1.156016633789959,-1.8010909615538382,-0.00977451538269456,-0.01080041520091799,-0.1356470839498249
5739,2.0,299.73613,13712.655,0.0,0.0,-0.05738999547431611,0.0,0.0,0.0,-1.192770963942329,-1.146295411005549,-1.8292383400567682,0.007397074186709383,-0.005569120850429434,-0.1248872595479129
5740,2.0,299.41966,13364.399,0.0,0.0,-0.05739999989469036,0.0,0.0,0.0,-1.1332147575145888,-1.1429406412494592,-1.7862883908429381,0.0027425426660928876,-0.002447621633686448,-0.14200792357259087
5741,2.0,299.46412999999995,13100.788,0.0,0.0,-0.05741000431506449,0.0,0.0,0.0,-1.100344924270589,-1.1234225058981688,-1.758545096479888,0.0016216265356420784,0.002765085251667667,-0.14918343654075886
5742,2.0,300.00247,13341.091,0.0,0.0,-0.05742000873543862,0.0,0.0,0.0,-1.1321237911319189,-1.138166916053329,-1.7850678297724782,-0.004432106810339886,0.0028434627813529274,-0.15519264798132185
5743,2.0,299.69876,13556.642,0.0,0.0,-0.057430013155812754,0.0,0.0,0.0,-1.1626820969227887,-1.1672420263478187,-1.7909566367036585,0.005729500508057675,-0.004981823056617655,-0.14416600443057687
5744,2.0,299.83903,13388.365,0.0,0.0,-0.05743998466690947,0.0,0.0,0.0,-1.136134437677739,-1.135839480573629,-1.7977549369245982,-0.00980246071912755,0.006303130875245583,-0.14096778181493685
5745,2.0,300.28611,13209.811000000002,0.0,0.0,-0.057449989087283604,0.0,0.0,0.0,-1.130869488833129,-1.117776271040929,-1.7668068338202585,-0.004551114250485006,0.001055291670499179,-0.12851648835858986
5746,2.0,300.46234,13205.925,0.0,0.0,-0.057459993507657625,0.0,0.0,0.0,-1.1104269654156091,-1.134840111999999,-1.7690043706371383,-0.016209013525455087,2.839437037380617e-05,-0.13704982738826485
5747,2.0,300.35104,13454.505,0.0,0.0,-0.05746999792803176,0.0,0.0,0.0,-1.1442944447080687,-1.131261920596859,-1.8142771957052184,0.0016778939348952384,-0.0021254616014917283,-0.13623811273315486
5748,2.0,300.21856,13685.412,0.0,0.0,-0.05748000234840611,0.0,0.0,0.0,-1.1722744342944789,-1.1652729774284887,-1.8224760102143784,-0.0024951995014070175,0.004117223332413306,-0.13340867262391087
5749,2.0,300.12568999999996,13462.456,0.0,0.0,-0.057490006768780244,0.0,0.0,0.0,-1.1472207109968688,-1.1393611326211888,-1.805668622855618,-0.002105408571412648,0.003854927433351716,-0.14336227418625488
5750,2.0,300.29537999999997,13126.271999999999,0.0,0.0,-0.057500011189154376,0.0,0.0,0.0,-1.109252000599649,-1.115285702295129,-1.7655211207683683,-0.0017544000929708083,0.0007545206994353952,-0.13596384619608687
5751,2.0,300.26378,13301.719,0.0,0.0,-0.05751001560952862,0.0,0.0,0.0,-1.1318989509347288,-1.1321180156063488,-1.7793734655354883,0.008098504167810132,0.002786966286252157,-0.14049413805569186
5752,2.0,299.65595,13499.323,0.0,0.0,-0.05751998712062523,0.0,0.0,0.0,-1.156716282984009,-1.135852551499919,-1.8108881780957484,0.011469150134416989,0.008430486038524192,-0.13297099924321587
5753,2.0,299.42306,13439.844,0.0,0.0,-0.05752999154099936,0.0,0.0,0.0,-1.1396027927700387,-1.1572161192583388,-1.7885579697419283,-0.011568959322267388,-0.004191035967748046,-0.15308381107819585
5754,2.0,299.85111,13290.558,0.0,0.0,-0.05753999596137338,0.0,0.0,0.0,-1.133131063056329,-1.132268584571209,-1.7745982204642086,-0.006677670972684813,-0.005477965527708105,-0.14820268137146586
5755,2.0,299.23413,13233.226,0.0,0.0,-0.05755000038174751,0.0,0.0,0.0,-1.112486598893879,-1.115633652379469,-1.7944500190734283,-0.01207538881499809,0.0015646898846978685,-0.14167099764933885
5756,2.0,299.46199,13405.219,0.0,0.0,-0.057560004802121645,0.0,0.0,0.0,-1.1369051157037988,-1.150613173656679,-1.7873335583210883,0.005976526829437274,0.012495249258935089,-0.15656525736178784
5757,2.0,300.03507,13673.313999999998,0.0,0.0,-0.057570009222496,0.0,0.0,0.0,-1.1707288225919388,-1.142200462051409,-1.8434166473810583,-0.003934573146862136,-0.003325851800886017,-0.12568607552924987
5758,2.0,299.98019,13482.28,0.0,0.0,-0.05758001364287024,0.0,0.0,0.0,-1.149102215107559,-1.1375108366135789,-1.8116635170722681,-0.007289421936459932,0.0026557613414032373,-0.13755222718534785
5759,2.0,300.75207,13191.938999999998,0.0,0.0,-0.05758998515396674,0.0,0.0,0.0,-1.121318796040549,-1.105953871524149,-1.7827472843934584,-0.010050833751215061,0.0023475513312852777,-0.13114973285097087
5760,2.0,300.97583,13398.573999999999,0.0,0.0,-0.05759998957434087,0.0,0.0,0.0,-1.1467777180531489,-1.127620603712489,-1.7984334091915586,0.014866410533450485,-0.0013025877190553988,-0.12896544934539889
5761,2.0,300.34393,13732.192,0.0,0.0,-0.057609993994715,0.0,0.0,0.0,-1.191554962497319,-1.1607383792559591,-1.8219501334124781,0.007315003968359682,-0.007821257358223003,-0.13343623302663088
5762,2.0,300.29056,13672.656,0.0,0.0,-0.057619998415089135,0.0,0.0,0.0,-1.1907929984221188,-1.142478801853879,-1.8228742175036785,0.003514037574383507,-0.011604995562073887,-0.13033020603758988
5763,2.0,300.13515,13329.368999999999,0.0,0.0,-0.05763000283546327,0.0,0.0,0.0,-1.1441544135442487,-1.1254064495939688,-1.7822346811678684,-0.0005008066234207655,0.005321057163597455,-0.14140715745579985
5764,2.0,299.66523,13293.506000000001,0.0,0.0,-0.05764000725583751,0.0,0.0,0.0,-1.121256987784449,-1.144465177349919,-1.7751717200208086,-0.0008266819600221572,0.01003129291906153,-0.14693332217618985
5765,2.0,300.10646,13498.695,0.0,0.0,-0.05765001167621164,0.0,0.0,0.0,-1.1691927354403389,-1.1320839704029888,-1.8019894104175083,-0.009558958988220801,0.016038544328631086,-0.14044373899571785
5766,2.0,300.03907999999996,13475.76,0.0,0.0,-0.057660016096586,0.0,0.0,0.0,-1.151858154054549,-1.1455011242521589,-1.7989353732910984,-0.008656512447606261,-0.006439752857779124,-0.13234076781351686
5767,2.0,300.14445,13381.686000000002,0.0,0.0,-0.057669987607682494,0.0,0.0,0.0,-1.135683946683279,-1.139225965057849,-1.7927883902344381,-0.006027267354694974,-0.007993338433306083,-0.13520824533151488
5768,2.0,300.36385,13279.969,0.0,0.0,-0.057679992028056626,0.0,0.0,0.0,-1.1193864267748388,-1.115844712375299,-1.8015477346989182,-0.005085291191904165,-0.012449585116678387,-0.13676235820239385
5769,2.0,300.24532999999997,13439.454,0.0,0.0,-0.05768999644843076,0.0,0.0,0.0,-1.134678498609049,-1.172618128728399,-1.7779619068211785,0.0068959669927789536,-0.013773068079295986,-0.15144063352352685
5770,2.0,300.16275,13649.963,0.0,0.0,-0.05770000086880489,0.0,0.0,0.0,-1.1785144337103188,-1.144979503100679,-1.8257539756128884,0.004208186036290626,-0.007575715245589884,-0.14291458989457187
5771,2.0,299.74554,13555.84,0.0,0.0,-0.057710005289179134,0.0,0.0,0.0,-1.175778253140279,-1.149153080262579,-1.7957055372723383,-0.005391297585704645,0.009111840698043662,-0.13991432595096887
5772,2.0,299.82325,13185.505,0.0,0.0,-0.057720009709553266,0.0,0.0,0.0,-1.1030118998587988,-1.142486705204659,-1.7625657742016982,-0.0006180301861023304,-0.003173850910984697,-0.15267525850537483
5773,2.0,299.30781,13172.13,0.0,0.0,-0.0577300141299274,0.0,0.0,0.0,-1.117435109732259,-1.112107136731429,-1.7744562641251984,0.0020004125563003483,-0.013440479879722087,-0.14081543966240187
5774,2.0,299.33186,13569.073,0.0,0.0,-0.057739985641024116,0.0,0.0,0.0,-1.1625904991137488,-1.158816041166239,-1.8032528319671983,-0.0025401464652429376,-0.01323546898698909,-0.13842472671395686
5775,2.0,299.90935,13679.163,0.0,0.0,-0.05774999006139825,0.0,0.0,0.0,-1.1811562806960487,-1.1495179516235887,-1.8274497509802483,0.004957002786143086,-0.0013631288045803387,-0.12380348724095287
5776,2.0,300.2623,13498.611,0.0,0.0,-0.05775999448177238,0.0,0.0,0.0,-1.1397809221376187,-1.148079035156579,-1.8153808277141383,-0.01152834217875879,0.0030548740709925967,-0.1333741613255049
5777,2.0,299.87206000000003,13417.396999999999,0.0,0.0,-0.0577699989021464,0.0,0.0,0.0,-1.155486400012629,-1.130969597943009,-1.7920977589662783,-0.005266864292599035,-0.0072815760369606035,-0.12499475525102188
5778,2.0,300.05245,13613.146999999999,0.0,0.0,-0.057780003322520535,0.0,0.0,0.0,-1.1466332285888887,-1.146958988496039,-1.8444643479844582,-0.0014456166846212588,-0.0037038751481940167,-0.1035232662244509
5779,2.0,300.09463,13639.235,0.0,0.0,-0.05779000774289489,0.0,0.0,0.0,-1.1724559073873888,-1.1522823005464091,-1.8212485590432383,0.012915865587446687,0.005018747815436845,-0.13065935020007388
5780,2.0,299.96879,13619.687,0.0,0.0,-0.05780001216326902,0.0,0.0,0.0,-1.1593959241984688,-1.1537527290915288,-1.8268961111256083,0.008636626502468672,-0.016693134290734084,-0.13018280854554287
5781,2.0,300.01894,13378.083,0.0,0.0,-0.05780998367436552,0.0,0.0,0.0,-1.146950781170229,-1.1335253186702388,-1.7861269801020083,0.0021882952666929275,-0.015451228093667484,-0.16033505435883785
5782,2.0,300.0012,13228.446000000002,0.0,0.0,-0.05781998809473965,0.0,0.0,0.0,-1.135746261564429,-1.127323620108179,-1.7580474893557785,0.0015942827657934584,-0.0061252036510605345,-0.17006819296442383
5783,2.0,299.3287,13535.086000000001,0.0,0.0,-0.057829992515114004,0.0,0.0,0.0,-1.1660455806297387,-1.1415516780123791,-1.8067310155854681,0.004255802914140046,0.015870871702083088,-0.14300086814058688
5784,2.0,299.55785,13679.546999999999,0.0,0.0,-0.05783999693548825,0.0,0.0,0.0,-1.1638057912836888,-1.1710572169493487,-1.8233776001533581,-0.003721538529237257,0.015047102410533383,-0.14271310511218685
5785,2.0,299.3956,13443.055,0.0,0.0,-0.05785000135586216,0.0,0.0,0.0,-1.1226967148515388,-1.151170765186709,-1.8124856682034083,-0.005878120891650364,-0.00019950326035693877,-0.12896630047548288
5786,2.0,299.4468,13332.24,0.0,0.0,-0.05786000577623629,0.0,0.0,0.0,-1.1150491083967788,-1.132948576713319,-1.8046704701821081,-0.009248397731245792,-0.0072965264408610935,-0.13419718385173088
5787,2.0,300.01761,13607.993,0.0,0.0,-0.05787001019661042,0.0,0.0,0.0,-1.145754943402209,-1.1714710282901888,-1.8192640073973785,-0.0035739558150719762,0.007386380345153982,-0.14943032506012485
5788,2.0,300.42161,13679.83,0.0,0.0,-0.057880014616984776,0.0,0.0,0.0,-1.172833039074609,-1.1469964787497386,-1.8384971154955383,-0.0004044831071068746,-0.005549872847554806,-0.15497969320780486
5789,2.0,300.5253,13521.389,0.0,0.0,-0.05788998612808127,0.0,0.0,0.0,-1.1557791279665188,-1.162735799178089,-1.7916495984470484,-0.007967546354660602,-0.005953760619565425,-0.15087931323312884
5790,2.0,300.52407,13308.186000000002,0.0,0.0,-0.057899990548455516,0.0,0.0,0.0,-1.1216672527499387,-1.127053386306509,-1.7966355995391283,0.0020757636092619183,0.012201969083740589,-0.14180305453487188
5791,2.0,299.79733999999996,13262.676000000001,0.0,0.0,-0.05790999496882965,0.0,0.0,0.0,-1.138719643982879,-1.095040559997089,-1.7977621310003085,0.0003349160099561367,0.010855938266647689,-0.13099868765856387
5792,2.0,299.26257000000004,13613.382,0.0,0.0,-0.05791999938920378,0.0,0.0,0.0,-1.1480462058533387,-1.1737951200445589,-1.8162868759535582,0.004833185751748295,0.0001182289904907929,-0.14960516136487984
5793,2.0,299.95899,13823.921,0.0,0.0,-0.05793000380957791,0.0,0.0,0.0,-1.2115254126932489,-1.150559876701419,-1.840041409972948,0.0002862031704010537,0.002748805362310967,-0.1291485031084649
5794,2.0,299.68925,13550.559,0.0,0.0,-0.057940008229952045,0.0,0.0,0.0,-1.178145509348909,-1.141899932071749,-1.7989862384461184,0.006057269994131005,0.009377756635737521,-0.14616323183518787
5795,2.0,299.72956,13363.428,0.0,0.0,-0.05795001265032629,0.0,0.0,0.0,-1.156930281405129,-1.1315999408302189,-1.7736182049674882,-0.012726530687010788,0.007326615713180673,-0.13059830188154886
5796,2.0,300.13582,13570.268,0.0,0.0,-0.057959984161422895,0.0,0.0,0.0,-1.1632154717754288,-1.136377111076689,-1.8254300395559184,-0.004543642544247606,0.0010031680892524822,-0.12282763620214389
5797,2.0,300.04487,13760.705,0.0,0.0,-0.05796998858179714,0.0,0.0,0.0,-1.1848672078622888,-1.1712583470941988,-1.8267853628896784,-0.01043788647413919,0.007570816080031372,-0.11303861685354288
5798,2.0,300.15561,13570.19,0.0,0.0,-0.05797999300217127,0.0,0.0,0.0,-1.135600049574999,-1.151082105802959,-1.8383166556527284,0.0030965108480768273,0.007469965879028233,-0.14959547469392384
5799,2.0,300.50327000000004,13438.375,0.0,0.0,-0.0579899974225454,0.0,0.0,0.0,-1.143756206254949,-1.1398314833176089,-1.801342855528698,0.002383365264019838,-0.007298728841278452,-0.14190817923274684
5800,2.0,299.81086,13411.413,0.0,0.0,-0.058000001842919535,0.0,0.0,0.0,-1.148706135643469,-1.147951872269029,-1.7800765597798784,0.007136792426196573,-0.02188418579230098,-0.17337271564805481
5801,2.0,299.57982999999996,13605.497,0.0,0.0,-0.05801000626329367,0.0,0.0,0.0,-1.162892548968559,-1.1463687703127887,-1.8264701407835682,0.005746201706805954,-0.015947578787653485,-0.14533183986313586
5802,2.0,300.14513999999997,13632.395,0.0,0.0,-0.05802001068366791,0.0,0.0,0.0,-1.1599494627280988,-1.165779399828469,-1.8181786138902585,0.00953084616154628,0.003041553581202967,-0.15246099663922885
5803,2.0,300.07406000000003,13459.956,0.0,0.0,-0.05803001510404204,0.0,0.0,0.0,-1.132326238501899,-1.1541581304565387,-1.8050062612652484,0.003159605323853767,0.015721802347371087,-0.13697344859572685
5804,2.0,300.05908,13271.865,0.0,0.0,-0.05803998661513854,0.0,0.0,0.0,-1.107821798083499,-1.1293056386287887,-1.7971881248186585,-0.005966327251280655,0.008171345298948992,-0.13904845307801386
5805,2.0,300.12753,13599.231000000002,0.0,0.0,-0.05804999103551289,0.0,0.0,0.0,-1.1799636853283488,-1.171647739107629,-1.782215125440938,-0.0038757571196324464,0.007359879903363593,-0.14274351274768787
5806,2.0,299.68823,13933.117,0.0,0.0,-0.058059995455887026,0.0,0.0,0.0,-1.2131964647581688,-1.1640206003048887,-1.8581026943304584,-0.007294079543194602,0.0047371481847451255,-0.13178839452150187
5807,2.0,299.82991,13706.053999999998,0.0,0.0,-0.05806999987626116,0.0,0.0,0.0,-1.181316475536859,-1.1668730006613988,-1.8181086996333582,-0.009445100378458832,-0.0034542779073356866,-0.14696090284391186
5808,2.0,300.26929,13365.12,0.0,0.0,-0.05808000429663518,0.0,0.0,0.0,-1.1263482655619188,-1.1322327155176688,-1.804081873199018,-0.0017634071770847382,-0.015371396144788685,-0.13049429175878388
5809,2.0,299.50332000000003,13482.098999999998,0.0,0.0,-0.05809000871700931,0.0,0.0,0.0,-1.1483045846288387,-1.1106602155886292,-1.8392566477704981,-0.0018938649513099183,0.0017217964405280785,-0.1206022451400149
5810,2.0,299.47828,13745.761,0.0,0.0,-0.058100013137383666,0.0,0.0,0.0,-1.165239945475229,-1.1811702635474288,-1.8319579033251683,0.013639709167384486,0.007115155990186223,-0.14182297503183786
5811,2.0,299.91559,13614.06,0.0,0.0,-0.05810998464848016,0.0,0.0,0.0,-1.181081604163679,-1.1397231668819188,-1.817529525876198,0.0003249299438605887,0.003520609311882087,-0.13881716861018786
5812,2.0,300.72955,13436.126,0.0,0.0,-0.058119989068854294,0.0,0.0,0.0,-1.1397686618114091,-1.152944966111809,-1.7915331760105584,0.005283519489792775,-0.0037735697324723367,-0.15290922808596585
5813,2.0,300.81023,13370.864,0.0,0.0,-0.058129993489228426,0.0,0.0,0.0,-1.1368067291190889,-1.139051078090589,-1.7885509783162383,0.00019732152010911783,-0.002050679184486278,-0.13859402054066486
5814,2.0,300.78401,13624.277,0.0,0.0,-0.05813999790960278,0.0,0.0,0.0,-1.159839322442229,-1.1490782010801888,-1.8325223849558783,0.009510055384069393,0.003730360087257876,-0.13967889729023386
5815,2.0,299.89718999999997,13877.837,0.0,0.0,-0.058150002329977024,0.0,0.0,0.0,-1.178307629364909,-1.1995672376630688,-1.8406410513821283,-0.0025712788785404676,-0.0005033357767303735,-0.14605581719208685
5816,2.0,300.39516000000003,13736.896999999999,0.0,0.0,-0.058160006750350934,0.0,0.0,0.0,-1.1762414097609888,-1.157889525274799,-1.841542945296138,-0.006069496173812635,-0.01140901374098199,-0.14248018931169987
5817,2.0,299.75203,13358.483999999999,0.0,0.0,-0.05817001117072507,0.0,0.0,0.0,-1.1346175009530288,-1.139731576857749,-1.7862963955187283,-0.007976396385009034,0.00923289784181607,-0.13916957699496785
5818,2.0,299.52251,13405.098999999998,0.0,0.0,-0.0581800155910992,0.0,0.0,0.0,-1.1318894263837889,-1.155603734374209,-1.7873221085949582,-0.004169717084319035,0.0031961744318878566,-0.15402376266596185
5819,2.0,299.8748,13804.32,0.0,0.0,-0.05818998710219592,0.0,0.0,0.0,-1.196258368136509,-1.150513672496859,-1.8493966468212382,0.002288074158365338,2.5636679517393278e-05,-0.13416921814897087
5820,2.0,300.01477,13710.905,0.0,0.0,-0.05819999152257005,0.0,0.0,0.0,-1.1602219256799888,-1.167032587552149,-1.8405183467950184,-0.01049980213474979,-0.0006481416080690964,-0.14098542249917786
5821,2.0,300.01038,13433.971000000001,0.0,0.0,-0.05820999594294429,0.0,0.0,0.0,-1.142021015458699,-1.1346260122538687,-1.8069448113565683,0.005313516252378225,-0.003540626675557647,-0.12932909467378786
5822,2.0,299.9926,13494.346000000001,0.0,0.0,-0.058220000363318425,0.0,0.0,0.0,-1.150663532186649,-1.1345434323707189,-1.8167370629729882,0.00023875736969851773,0.0015445182030320785,-0.14104576154263287
5823,2.0,300.40185,13723.836000000001,0.0,0.0,-0.05823000478369256,0.0,0.0,0.0,-1.188244066470559,-1.170251784444859,-1.8132075075746483,0.008347746163183402,-0.005837691807360324,-0.13421966787144987
5824,2.0,300.92645,13921.614,0.0,0.0,-0.05824000920406669,0.0,0.0,0.0,-1.1924658743372187,-1.1830438643073387,-1.856313395978868,0.0075107343007767636,-0.016321311020787984,-0.14600062545913986
5825,2.0,300.69444,13817.714,0.0,0.0,-0.05825001362444082,0.0,0.0,0.0,-1.2012580481049386,-1.1633624943649388,-1.835619282561518,0.004335927692297746,-0.013992060810158887,-0.1217640782346789
5826,2.0,300.41647,13480.729,0.0,0.0,-0.05825998513553743,0.0,0.0,0.0,-1.1285425599784789,-1.167913101889049,-1.8013494416543485,0.015306332316117385,-0.004252599726598916,-0.15448023183601187
5827,2.0,300.11107999999996,13424.048,0.0,0.0,-0.05826998955591167,0.0,0.0,0.0,-1.139217960382059,-1.130723378168709,-1.8106341562956783,-0.0024720357935209374,0.0011544530875606488,-0.1251364684100079
5828,2.0,299.90719,13745.969,0.0,0.0,-0.058279993976285915,0.0,0.0,0.0,-1.174171745106729,-1.1871246277600789,-1.8171349662872585,-0.005934067293271844,-0.0007906138838975153,-0.14853593932935585
5829,2.0,299.71452,13791.226999999999,0.0,0.0,-0.05828999839666005,0.0,0.0,0.0,-1.1823804894668688,-1.166471854946809,-1.843336397973138,-0.007043155552655333,0.0036463646937181767,-0.13119799395323387
5830,2.0,299.61487,13416.812,0.0,0.0,-0.05830000281703418,0.0,0.0,0.0,-1.1320789041524888,-1.150237561844609,-1.796059161557238,-0.006472947133705144,0.01245939540414659,-0.16828139734058084
5831,2.0,299.62325,13379.803999999998,0.0,0.0,-0.05831000723740831,0.0,0.0,0.0,-1.132324921276769,-1.1407487786331387,-1.7940526223842086,0.002171061908992128,0.010318303710587291,-0.14619071117789986
5832,2.0,299.94739,13746.051000000001,0.0,0.0,-0.058320011657782445,0.0,0.0,0.0,-1.1712834756966788,-1.1597507643834888,-1.8474221263513682,-0.006679904479880243,-0.016491161121800883,-0.14109803511529187
5833,2.0,300.36191,13902.813,0.0,0.0,-0.05833001607815669,0.0,0.0,0.0,-1.193668399555899,-1.186809506978979,-1.8456300922245084,-0.010042056472223811,-0.017358170861368084,-0.1318120741763389
5834,2.0,300.59664,13724.003999999999,0.0,0.0,-0.058339987589253184,0.0,0.0,0.0,-1.1781718538515091,-1.161959548276479,-1.8316232268171382,0.01109272062951629,-0.01348191167631109,-0.15046247227448983
5835,2.0,300.67177000000004,13603.696000000002,0.0,0.0,-0.058349992009627316,0.0,0.0,0.0,-1.149669837813579,-1.1545082083660887,-1.8310057522061982,0.004817630538863115,0.0013961364398379387,-0.13205634851044687
5836,2.0,300.24411000000003,13503.155,0.0,0.0,-0.05835999643000167,0.0,0.0,0.0,-1.148928442715409,-1.146546798355359,-1.809146705148878,0.004683498111825276,0.003886877134179906,-0.14618706347753985
5837,2.0,299.88899,13764.108,0.0,0.0,-0.0583700008503758,0.0,0.0,0.0,-1.181278883958149,-1.1578316686940888,-1.8448344882459882,-0.001141647632796849,-0.0012159653733064388,-0.12427357449234688
5838,2.0,299.64662999999996,13869.878999999999,0.0,0.0,-0.058380005270749935,0.0,0.0,0.0,-1.1885045730712689,-1.1816251115173189,-1.8459670992077681,-0.013851196754756687,0.022220867522278878,-0.1362751267593079
5839,2.0,299.66829,13531.131000000001,0.0,0.0,-0.058390009691123956,0.0,0.0,0.0,-1.1684734291943488,-1.136156931829959,-1.8084955906346183,-0.014876154959662184,0.014656671815750883,-0.12987122400729187
5840,2.0,298.83437999999995,13414.646,0.0,0.0,-0.05840001411149809,0.0,0.0,0.0,-1.1342298314647687,-1.132454515964559,-1.8110329715350384,-0.01136570641845789,0.005399617078300715,-0.14521499186160386
5841,2.0,299.29193,13754.753,0.0,0.0,-0.05840998562259481,0.0,0.0,0.0,-1.177874363622149,-1.1633771864913889,-1.8398501083540681,-0.013528544485663386,-0.010221964904329391,-0.13095421611167488
5842,2.0,299.83799,13935.813999999998,0.0,0.0,-0.05841999004296894,0.0,0.0,0.0,-1.199942950800149,-1.1769153224024989,-1.8592812055217682,0.01327398262329009,0.011397636968859188,-0.15177581665660683
5843,2.0,300.27258,13663.29,0.0,0.0,-0.05842999446334307,0.0,0.0,0.0,-1.1793159145394188,-1.153430110259689,-1.820552861524578,0.01099704752857409,0.010759819335661489,-0.13897992697375086
5844,2.0,300.26052999999996,13468.878,0.0,0.0,-0.058439998883717204,0.0,0.0,0.0,-1.146483470224109,-1.1492020202424091,-1.7985172049748284,0.010901623687156489,-0.007781212295720862,-0.14758169078267885
5845,2.0,300.28857999999997,13562.045,0.0,0.0,-0.05845000330409156,0.0,0.0,0.0,-1.1638253470106188,-1.1427678821074092,-1.815929806618318,-0.0014675627698621685,-0.01093480458818119,-0.12603777463895988
5846,2.0,300.02254,13729.044,0.0,0.0,-0.0584600077244658,0.0,0.0,0.0,-1.1582930014646189,-1.1840625859578788,-1.830930974348818,-0.003962823876875267,0.011766353613998689,-0.15874168817908485
5847,2.0,300.35166,13939.098,0.0,0.0,-0.05847001214483971,0.0,0.0,0.0,-1.1826148542149988,-1.1863030845789988,-1.8682196926039283,0.0025119944257895473,0.016104167471357587,-0.14057127678580486
5848,2.0,299.90686,13795.176000000001,0.0,0.0,-0.05847998365593643,0.0,0.0,0.0,-1.166149337439979,-1.163124684566469,-1.8641150164488285,-0.006570796391887114,0.0011848798734885389,-0.1341504628896199
5849,2.0,300.1314,13490.591,0.0,0.0,-0.05848998807631056,0.0,0.0,0.0,-1.1467908903044488,-1.1495562524773688,-1.8044556611609084,-0.003672129617260977,0.002125160970187058,-0.15274524368978185
5850,2.0,301.32855,13658.488000000001,0.0,0.0,-0.058499992496684694,0.0,0.0,0.0,-1.1657432267998988,-1.148217039820199,-1.837879032934538,-0.011085639024567388,0.004085066928564716,-0.13176678189686886
5851,2.0,300.85794,13900.758999999998,0.0,0.0,-0.058509996917058826,0.0,0.0,0.0,-1.2185842195148988,-1.168614270958249,-1.8382851435746181,-0.005810152074942365,0.007273688391557154,-0.13941123714381787
5852,2.0,300.54985,13680.117,0.0,0.0,-0.05852000133743307,0.0,0.0,0.0,-1.1643109977835489,-1.151428333362129,-1.8426747456578383,-0.015286420938402285,-0.008592001144214491,-0.13105832755944988
5853,2.0,300.21737,13510.167,0.0,0.0,-0.0585300057578072,0.0,0.0,0.0,-1.148519596300059,-1.150325410628279,-1.8079084122016684,-0.003210866254362827,-0.00931558310297647,-0.15561973289847184
5854,2.0,300.1692,13680.999,0.0,0.0,-0.058540010178181334,0.0,0.0,0.0,-1.160436937351209,-1.163905191118499,-1.8343398516602485,-0.0057535860708847345,0.0077593928667424525,-0.14903422533103286
5855,2.0,299.68473,13815.885,0.0,0.0,-0.058550014598555467,0.0,0.0,0.0,-1.1986176196693488,-1.162085495263909,-1.8389809424182881,0.008898483157611912,0.014240892743216688,-0.14616171196003785
5856,2.0,300.05373,13830.233,0.0,0.0,-0.058559986109652185,0.0,0.0,0.0,-1.1877138326932288,-1.1782549403597091,-1.838076718029048,0.01010438158719982,-0.011490420280516188,-0.14121554172938888
5857,2.0,300.06196,13728.765,0.0,0.0,-0.058569990530026206,0.0,0.0,0.0,-1.192086817474809,-1.1519071953593887,-1.8292077399037483,0.02383797719162518,-0.026784341296158674,-0.13760728719578186
5858,2.0,300.13627,13637.091,0.0,0.0,-0.05857999495040045,0.0,0.0,0.0,-1.136448747858759,-1.1647293687498388,-1.8441569279041183,0.017130157164864882,-0.017764797245748986,-0.14420876358479687
5859,2.0,300.03087999999997,13673.999,0.0,0.0,-0.05858999937077469,0.0,0.0,0.0,-1.1634151833701387,-1.1705242473967488,-1.8226147241530684,0.017260727612501185,-0.0036810107543874763,-0.14714299401938286
5860,2.0,300.19554,13947.1,0.0,0.0,-0.058600003791148825,0.0,0.0,0.0,-1.1807539190813388,-1.177067917867559,-1.8817484052891083,-0.0012479341232365087,-0.004999335564721006,-0.12297889417707189
5861,2.0,300.449,13819.919,0.0,0.0,-0.05861000821152296,0.0,0.0,0.0,-1.191668953133569,-1.165213296997599,-1.8440280424913982,-0.007700412895646582,0.007158846929198182,-0.13110797681434988
5862,2.0,300.05081,13495.308,0.0,0.0,-0.05862001263189709,0.0,0.0,0.0,-1.145794561481119,-1.1475363384030188,-1.8089056529500882,-0.015380173930404986,0.012117771040180888,-0.14070048643855687
5863,2.0,300.08038999999997,13637.214,0.0,0.0,-0.05862998414299381,0.0,0.0,0.0,-1.159050811214409,-1.157080546394959,-1.829241075832038,-0.007796752917804602,0.01198646598622209,-0.14656868386270286
5864,2.0,299.74884,13926.91,0.0,0.0,-0.05863998856336783,0.0,0.0,0.0,-1.1789749558807687,-1.190589639127049,-1.8638681887244681,-0.006234733757720314,-0.009641094865176981,-0.14576375798326285
5865,2.0,300.17699,13846.405,0.0,0.0,-0.05864999298374196,0.0,0.0,0.0,-1.192478134663429,-1.165200935346379,-1.8512823052573382,-0.0018044822083135282,-0.017383480835615982,-0.15743472727259786
5866,2.0,300.37434,13691.778999999999,0.0,0.0,-0.05865999740411609,0.0,0.0,0.0,-1.164590756136159,-1.1644897351011887,-1.832878542366028,0.001046084773465529,-0.004612578204201026,-0.14650045160096886
5867,2.0,300.06125,13621.853000000001,0.0,0.0,-0.05867000182449045,0.0,0.0,0.0,-1.166355533835329,-1.1519454962131688,-1.822402245607098,0.016872434975429684,0.01989711824644268,-0.1389115123269989
5868,2.0,299.00358,13748.999,0.0,0.0,-0.05868000624486458,0.0,0.0,0.0,-1.1924804651386591,-1.1480020281489791,-1.8388698902073282,0.0061038216421502945,0.004936052421775446,-0.11428290824134488
5869,2.0,298.96894,13901.46,0.0,0.0,-0.05869001066523871,0.0,0.0,0.0,-1.1828858986167488,-1.183858922687779,-1.8589518992392682,0.002882110571967167,-0.012762148454525989,-0.13653019220698087
5870,2.0,299.1613,13896.253,0.0,0.0,-0.05870001508561273,0.0,0.0,0.0,-1.184164214942909,-1.1688336396048988,-1.871116068014778,-0.014934968048466585,-0.017309198457534883,-0.12251892929417688
5871,2.0,299.34297999999995,13684.511999999999,0.0,0.0,-0.05870998659670956,0.0,0.0,0.0,-1.1585075065107888,-1.166379547862699,-1.8348627900368584,-0.01059957079259619,-0.003669095237186507,-0.14297720875075187
5872,2.0,300.25882,13546.673,0.0,0.0,-0.058719991017083584,0.0,0.0,0.0,-1.1478602744599888,-1.150382963233959,-1.8196071952062483,-0.008290108039194962,-0.0014818990428770485,-0.14950767657275887
5873,2.0,300.77713,13842.333999999999,0.0,0.0,-0.058729995437457716,0.0,0.0,0.0,-1.1932033177599988,-1.164695728846519,-1.8498247449884881,-0.01055594632279079,0.0041588795638994565,-0.14362086574427585
5874,2.0,300.01268,13906.212,0.0,0.0,-0.05873999985783185,0.0,0.0,0.0,-1.207379497259079,-1.1764035297769888,-1.8433580815252784,-0.0019328650489839282,0.009057673563597782,-0.14648149369159785
5875,2.0,300.17387,13597.363000000001,0.0,0.0,-0.05875000427820598,0.0,0.0,0.0,-1.148217039820199,-1.1635586595842988,-1.8214830251163783,0.009454118912298892,0.0076225728951393725,-0.15400515939412587
5876,2.0,300.24815,13578.622,0.0,0.0,-0.058760008698580335,0.0,0.0,0.0,-1.135758927190679,-1.1577970155406687,-1.8340060870773083,0.005373618296634834,-0.003490666454201957,-0.14927910761520086
5877,2.0,300.19456,13834.409,0.0,0.0,-0.058770013118954356,0.0,0.0,0.0,-1.1820392268331887,-1.180209499802609,-1.8430661641714683,0.007589291682354773,-0.01965283580633388,-0.14098245367638487
5878,2.0,300.22266,13922.382,0.0,0.0,-0.058779984630051074,0.0,0.0,0.0,-1.187546950401759,-1.187582616805279,-1.8569269189144182,0.004833033561583276,-0.007691313301798523,-0.15575247879407286
5879,2.0,300.11585,13850.0,0.0,0.0,-0.058789989050425207,0.0,0.0,0.0,-1.2068048831273688,-1.173445751410079,-1.8298036322875584,-0.0019538238233273984,0.008312769985631522,-0.13851997222335688
5880,2.0,300.21457000000004,13694.844,0.0,0.0,-0.05879999347079934,0.0,0.0,0.0,-1.173734426363569,-1.159361068395029,-1.8297952223117282,-0.006025770176347214,0.0006504081472177864,-0.14201929223871287
5881,2.0,300.89681,13650.733999999999,0.0,0.0,-0.05880999789117347,0.0,0.0,0.0,-1.145916455468149,-1.161758620781649,-1.841807200922218,-0.006559986229220234,0.0037602194531297668,-0.13882704779866287
5882,2.0,300.01973,13784.525,0.0,0.0,-0.0588200023115476,0.0,0.0,0.0,-1.1640936556370989,-1.170234863168189,-1.8558227802804481,-0.006383612824063535,0.002402818652689738,-0.14904021363912384
5883,2.0,299.28166,13928.076000000001,0.0,0.0,-0.05883000673192185,0.0,0.0,0.0,-1.1922721409180987,-1.172374239429329,-1.8691409395948482,0.006572202681700905,0.013618152271506987,-0.14294720641529085
5884,2.0,299.73051,13709.083999999999,0.0,0.0,-0.05884001115229598,0.0,0.0,0.0,-1.150605574280929,-1.162339517063979,-1.8542741288276086,-0.0012742776125864088,-0.010647395184066091,-0.13922371494781086
5885,2.0,299.66911,13462.692,0.0,0.0,-0.05885001557267011,0.0,0.0,0.0,-1.154590180299179,-1.147888341487759,-1.7898437841188284,-0.004374050619360186,-0.0006362480378652923,-0.15193514010233083
5886,2.0,299.84936,13886.986,0.0,0.0,-0.05885998708376683,0.0,0.0,0.0,-1.197361797495409,-1.1650104443275788,-1.858924541486568,0.0017220707273301484,0.006795629091026374,-0.13052492230930687
5887,2.0,300.01333,14216.252,0.0,0.0,-0.05886999150414096,0.0,0.0,0.0,-1.2331502976524589,-1.2072278137191088,-1.881007618140998,0.007067227639256062,0.015190234119659383,-0.14134586595725088
5888,2.0,300.28567000000004,13962.503,0.0,0.0,-0.05887999592451498,0.0,0.0,0.0,-1.2003475415650788,-1.181479102177909,-1.862425624557098,-0.007206980361948583,-0.014841979047039286,-0.12064120460635988
5889,2.0,300.29629,13729.055,0.0,0.0,-0.058890000344889226,0.0,0.0,0.0,-1.164149384392599,-1.1613493690662589,-1.847791152037788,0.007481776322193832,-0.014593024510719386,-0.15142795776477586
5890,2.0,300.68116000000003,13680.811000000002,0.0,0.0,-0.05890000476526347,0.0,0.0,0.0,-1.158223188532729,-1.1629625645504686,-1.837439282391138,0.003226329464138927,-0.007911228090252423,-0.13271533597798385
5891,2.0,300.3693,13757.295,0.0,0.0,-0.0589100091856376,0.0,0.0,0.0,-1.1873131936036887,-1.1613751056187989,-1.8331859624463682,0.011576823156293489,0.00871285107834145,-0.15536698779352784
5892,2.0,300.31421,13816.576000000001,0.0,0.0,-0.058920013606011734,0.0,0.0,0.0,-1.1814267171477388,-1.1672979577533389,-1.8511692265461785,-0.017001420699909585,-0.007490072611362613,-0.13757060754216188
5893,2.0,299.96517,13685.438999999998,0.0,0.0,-0.05892998511710845,0.0,0.0,0.0,-1.1552856751678189,-1.1643338972358088,-1.8404120568595284,-0.008363309279419362,0.002627833230221948,-0.16051138014123986
5894,2.0,299.69316000000003,13571.323999999999,0.0,0.0,-0.058939989537482584,0.0,0.0,0.0,-1.130128499034999,-1.1602052070533388,-1.8350099139513782,-0.016459986455974185,0.007523062920043504,-0.15438244306886084
5895,2.0,299.97754,13796.676000000001,0.0,0.0,-0.058949993957856606,0.0,0.0,0.0,-1.155066711821209,-1.184248922651269,-1.8545293665277982,0.008619798444807873,0.01983825044213288,-0.15752893926689585
5896,2.0,299.82998,14172.545,0.0,0.0,-0.05895999837823074,0.0,0.0,0.0,-1.2155000888605187,-1.2043619371362688,-1.888237562904538,-0.0037963876180992858,-0.007893023228355743,-0.14065878106444085
5897,2.0,299.98729,13927.111,0.0,0.0,-0.05897000279860487,0.0,0.0,0.0,-1.1991808853999388,-1.1820383149080989,-1.8522747837302882,0.0031222512509672075,-0.006479100398912425,-0.14057805542897386
5898,2.0,300.52103,13661.306,0.0,0.0,-0.058980007218979225,0.0,0.0,0.0,-1.1580986600954388,-1.1638833049163386,-1.8307140375024085,0.0007354798859412134,-0.0056419679597438845,-0.15042486043077785
5899,2.0,300.35496,13830.723,0.0,0.0,-0.05899001163935336,0.0,0.0,0.0,-1.1987766999350489,-1.1597855188619188,-1.845632220049718,0.005424878619193834,0.010499021932172791,-0.13002466046993488
5900,2.0,300.17174,13882.208999999999,0.0,0.0,-0.05900001605972749,0.0,0.0,0.0,-1.2013941275933688,-1.170001511670159,-1.848449257977738,0.0017705849394681285,-0.008016906326657053,-0.14038535552495587
5901,2.0,300.73171,13878.151000000002,0.0,0.0,-0.059009987570823985,0.0,0.0,0.0,-1.1817613936557687,-1.1717028599130688,-1.8651471130006883,-0.015813695012190186,-0.023170076162958478,-0.14516869646453487
5902,2.0,300.99267000000003,13850.368999999999,0.0,0.0,-0.05901999199119823,0.0,0.0,0.0,-1.1765023216617387,-1.1779021266748888,-1.8557620865994582,0.006652954965645534,-0.006810411903360323,-0.14822209524338184
5903,2.0,301.13154,13762.99,0.0,0.0,-0.05902999641157236,0.0,0.0,0.0,-1.1719006463325887,-1.164574240159529,-1.8471305129725881,-0.0014684303145977887,0.010454705412549089,-0.14885209362555787
5904,2.0,300.3101,13875.883999999998,0.0,0.0,-0.05904000083194649,0.0,0.0,0.0,-1.1726943251359188,-1.1791945271774387,-1.8660334028631584,0.007172448291915534,-0.006531301017564223,-0.14145517537803887
5905,2.0,299.60736,14069.835,0.0,0.0,-0.059050005252320625,0.0,0.0,0.0,-1.2064166056890488,-1.194228321561159,-1.8762335889698383,-0.005186571821549785,-0.014954269449621487,-0.1378299691702589
5906,2.0,300.10184,13995.188,0.0,0.0,-0.05906000967269476,0.0,0.0,0.0,-1.188730831818599,-1.196815149066459,-1.8686416099455683,0.017570518698075185,0.006186493325759354,-0.13537061866003985
5907,2.0,300.15849,13756.015,0.0,0.0,-0.05907001409306911,0.0,0.0,0.0,-1.1558239136209387,-1.187023100100059,-1.8386381599094583,0.008386240243757472,0.013356584797942288,-0.15207694445382586
5908,2.0,299.63875,13699.141000000001,0.0,0.0,-0.05907998560416561,0.0,0.0,0.0,-1.1789700922802888,-1.1540993619507387,-1.831127139568178,0.01132098865179459,-0.00020379238856024282,-0.13271807175325387
5909,2.0,299.94163,13961.961000000001,0.0,0.0,-0.05908999002453985,0.0,0.0,0.0,-1.189269880871799,-1.1960029277862987,-1.8588147051757282,-0.0034311458128527266,-0.020420987799894583,-0.14042688864655486
5910,2.0,299.6943,13847.56,0.0,0.0,-0.059099994444913984,0.0,0.0,0.0,-1.1771482686004888,-1.173992197189009,-1.8581718993122882,0.003094106101614497,-0.016201145638428584,-0.15190799513215186
5911,2.0,300.30796000000004,13746.198999999999,0.0,0.0,-0.059109998865288116,0.0,0.0,0.0,-1.162178410298079,-1.1738896562788887,-1.842433085508988,0.0017106715623801387,0.011601637651242488,-0.14992951285439085
5912,2.0,299.71162000000004,13780.753,0.0,0.0,-0.05912000328566225,0.0,0.0,0.0,-1.168171784639579,-1.167787661526669,-1.853045461756348,0.004807528131391086,-0.0015588815298246286,-0.16318826531542785
5913,2.0,299.47612999999996,13740.445,0.0,0.0,-0.05913000770603638,0.0,0.0,0.0,-1.161924084522979,-1.1694495943406888,-1.845378603549688,-0.007845976101037553,-0.007701492209653103,-0.15825149804570685
5914,2.0,299.51392000000004,13923.018999999998,0.0,0.0,-0.059140012126410624,0.0,0.0,0.0,-1.192370730152829,-1.188899841935279,-1.8509794448024481,0.0018580041050957282,0.0027015612591733376,-0.15459506346984486
5915,2.0,301.23232,14093.981000000002,0.0,0.0,-0.05914998363750723,0.0,0.0,0.0,-1.2001431690199091,-1.1936343543525387,-1.8904408752469883,3.064108629753977e-05,0.015233802860709286,-0.1253452181956099
5916,2.0,300.51974,13760.923999999999,0.0,0.0,-0.059159988057881474,0.0,0.0,0.0,-1.167411137789509,-1.164293569881829,-1.851272679381388,-0.008793413073917303,0.004805662332656946,-0.13281198990502288
5917,2.0,300.67356,13738.104,0.0,0.0,-0.059169992478255606,0.0,0.0,0.0,-1.174328292247179,-1.1512005547396489,-1.8505116272312783,-0.023725558106280274,-0.0028739494503617273,-0.1110958820393099
5918,2.0,300.57582,14166.251,0.0,0.0,-0.05917999689862974,0.0,0.0,0.0,-1.2084934644190188,-1.2138137367190889,-1.8838793715744182,-0.0015860325795042287,0.0013063926758309188,-0.13678594666472185
5919,2.0,300.06357,14149.461000000001,0.0,0.0,-0.05919000131900376,0.0,0.0,0.0,-1.219691600549189,-1.203229022199459,-1.8781623105351883,0.01055740337643459,0.01981566003115338,-0.1291251983561649
5920,2.0,299.61602,13782.207,0.0,0.0,-0.059200005739378,0.0,0.0,0.0,-1.1790495310881288,-1.179444495977109,-1.830952961875988,0.005261353022655115,-0.014674920450051884,-0.15939908484396487
5921,2.0,299.74183999999997,13674.461000000001,0.0,0.0,-0.05921001015975225,0.0,0.0,0.0,-1.161407124321959,-1.154088621499679,-1.8411989468871879,0.008490066360304312,-0.03302821335388086,-0.15941501313553685
5922,2.0,299.53001,13793.645,0.0,0.0,-0.05922001458012638,0.0,0.0,0.0,-1.1781958678788789,-1.1594253084513688,-1.8553025776791083,0.00046166032388982666,-0.00936538961429199,-0.14622234484602187
5923,2.0,299.91704,13895.118999999999,0.0,0.0,-0.059229986091222875,0.0,0.0,0.0,-1.173707676560929,-1.174401144929369,-1.8756603933882683,0.014282168499290288,0.015328851799589885,-0.14801597990803986
5924,2.0,300.27342999999996,13950.632,0.0,0.0,-0.05923999051159723,0.0,0.0,0.0,-1.1741054785501888,-1.1917887192953887,-1.8747496841983882,-0.0008741029158322412,0.009254602976183201,-0.14760113505209788
5925,2.0,299.77724,13804.091,0.0,0.0,-0.05924999493197136,0.0,0.0,0.0,-1.1772393597844788,-1.170838557577769,-1.8480210584854782,-0.007032906325243813,0.003982329954550366,-0.15215060773609584
5926,2.0,300.58033,13848.408000000001,0.0,0.0,-0.05925999935234538,0.0,0.0,0.0,-1.1876133182833088,-1.1806818769992289,-1.841274940644688,-0.0025110592972722575,0.00990281463023171,-0.14867781460835786
5927,2.0,300.16292000000004,14147.963,0.0,0.0,-0.059270003772719515,0.0,0.0,0.0,-1.204301446105299,-1.2145169322884888,-1.881809098970098,-0.0005463139550919895,0.016476507498854685,-0.14465368170370685
5928,2.0,299.87169,14203.623,0.0,0.0,-0.05928000819309365,0.0,0.0,0.0,-1.2314482401344788,-1.2043582894359088,-1.881740096638288,0.0028135857849292973,-0.0034766323323668974,-0.12829511347674188
5929,2.0,300.05011,13804.396999999999,0.0,0.0,-0.059290012613468,0.0,0.0,0.0,-1.1663748869122388,-1.172380622904959,-1.8574364823897083,-0.006791674679861103,-0.017241529562856486,-0.15079288299959887
5930,2.0,299.66205,13577.846000000001,0.0,0.0,-0.0592999841245645,0.0,0.0,0.0,-1.147035691528609,-1.152405511758569,-1.8278848405731882,0.003162501192639567,-0.004566298715158595,-0.15268907923673886
5931,2.0,299.34854,13786.372,0.0,0.0,-0.05930998854493863,0.0,0.0,0.0,-1.191835430124999,-1.1514730176915389,-1.8474043944746181,0.0032582609264653166,0.0008350614775541513,-0.15542099402385787
5932,2.0,299.72697,14016.113000000001,0.0,0.0,-0.05931999296531276,0.0,0.0,0.0,-1.208938483862939,-1.1863978234633488,-1.8652121636571082,-0.0012448056122277488,0.00046076368874383556,-0.15932160160881786
5933,2.0,299.59328,13868.944,0.0,0.0,-0.059329997385687006,0.0,0.0,0.0,-1.183572476884509,-1.169062735452509,-1.8631775574563083,-0.002961189574696657,-0.01124812786360379,-0.15376999417841686
5934,2.0,299.63133999999997,13857.122,0.0,0.0,-0.05934000180606114,0.0,0.0,0.0,-1.189647924484109,-1.164301979857659,-1.8582691713218882,0.005847474230450775,-0.005395180360087845,-0.1371889060969909
5935,2.0,299.90459,13994.347,0.0,0.0,-0.05935000622643527,0.0,0.0,0.0,-1.182810208834279,-1.1781967798039688,-1.8929250605171581,0.0014667090053279085,0.0036975361542434066,-0.11849426949947389
5936,2.0,299.55585,14126.032,0.0,0.0,-0.0593600106468094,0.0,0.0,0.0,-1.1968690539717788,-1.2110143293428088,-1.886077718991378,0.005208442520983255,-0.0019325854932813382,-0.13393839977619088
5937,2.0,300.14261,14303.448999999999,0.0,0.0,-0.059370015067183535,0.0,0.0,0.0,-1.2378331343146187,-1.2271644213616988,-1.8828937832021482,-0.0032549833663668465,0.0003043899863134527,-0.13780279380257687
5938,2.0,300.03205,14017.354,0.0,0.0,-0.05937998657828025,0.0,0.0,0.0,-1.1985634107889989,-1.193670020756059,-1.8686922724505683,0.01077591987975049,0.01710459894434248,-0.14384445964384285
5939,2.0,300.05175,13646.616000000002,0.0,0.0,-0.059389990998654385,0.0,0.0,0.0,-1.1457613268778388,-1.1716103501789388,-1.8308589322667084,-0.012081099492561687,0.016838514401831983,-0.15285499894061386
5940,2.0,300.14921,13830.212,0.0,0.0,-0.05939999541902863,0.0,0.0,0.0,-1.168370179009159,-1.179133934821459,-1.8565349937757383,0.006467448934687514,0.0030144088136739872,-0.15216723517023686
5941,2.0,300.37245,14113.806999999999,0.0,0.0,-0.05940999983940276,0.0,0.0,0.0,-1.1885438871751488,-1.202478609175399,-1.8992224098886583,-0.0073280302103202735,-0.012494708183381689,-0.15406723109525186
5942,2.0,300.30561,13925.008999999998,0.0,0.0,-0.05942000425977689,0.0,0.0,0.0,-1.1953847439002887,-1.179518665884429,-1.8579517200655582,0.01128516924750949,0.0024261992974222274,-0.16040705591094384
5943,2.0,299.72057,13730.301000000001,0.0,0.0,-0.059430008680151025,0.0,0.0,0.0,-1.164740413175929,-1.163266134280429,-1.8456619082776482,-0.0004930675610119796,-0.0017712195380057583,-0.15024680199070486
5944,2.0,299.41963,13922.806999999999,0.0,0.0,-0.05944001310052516,0.0,0.0,0.0,-1.1799580111277888,-1.193024276467329,-1.8592034892390983,0.004023108407474886,-0.003944973956488616,-0.15264516497740488
5945,2.0,300.10252,14194.034,0.0,0.0,-0.059449984611621765,0.0,0.0,0.0,-1.197753621309079,-1.2172191689801788,-1.899659222006768,-0.0024653727621883476,-0.005981313828209714,-0.1300255521300229
5946,2.0,300.11975,14140.846000000001,0.0,0.0,-0.05945998903199601,0.0,0.0,0.0,-1.2125391694182988,-1.1940589061444389,-1.891865910187628,0.0036316000185610165,0.006950892544924682,-0.1191598430926609
5947,2.0,299.57253,13957.771,0.0,0.0,-0.05946999345237025,0.0,0.0,0.0,-1.178771799235719,-1.1855197409266889,-1.878522216970708,-0.006448849411876884,0.007213237890591153,-0.12203546714146289
5948,2.0,299.7983,13818.122,0.0,0.0,-0.05947999787274438,0.0,0.0,0.0,-1.196806029815559,-1.164128410115529,-1.839429812212588,-0.0010095506124273882,0.007835579648386503,-0.1268174097959039
5949,2.0,300.37201,13923.243999999999,0.0,0.0,-0.059490002293118294,0.0,0.0,0.0,-1.1851407853892888,-1.1897363812178388,-1.8574413459901882,-0.007978787756570042,0.01183615945313799,-0.15404749298330386
5950,2.0,300.03296,14172.303,0.0,0.0,-0.05950000671349254,0.0,0.0,0.0,-1.227008482171309,-1.2047115084207687,-1.8763062390020082,-0.004957651164882075,0.013845396911184287,-0.15972511832864184
5951,2.0,300.28333,14042.005,0.0,0.0,-0.05951001113386678,0.0,0.0,0.0,-1.203996761800229,-1.178293747838539,-1.8861285841463982,0.0002697852865132348,0.008627643533707121,-0.15244990155063384
5952,2.0,300.04669,13699.219,0.0,0.0,-0.059520015554241024,0.0,0.0,0.0,-1.1656301480887388,-1.163905799068559,-1.8346845593442682,-0.009265751665708491,-0.01046232505330109,-0.17114623027581782
5953,2.0,299.42033,13843.691,0.0,0.0,-0.05952998706533752,0.0,0.0,0.0,-1.159607085519309,-1.170523234146649,-1.878006067369768,0.007817215098274063,-0.024888859400339178,-0.16732364294855784
5954,2.0,299.12375,14190.747,0.0,0.0,-0.05953999148571165,0.0,0.0,0.0,-1.2312131661112788,-1.198866473893909,-1.8835530037172084,0.005269453551904575,-0.01048833518336809,-0.14646811879027788
5955,2.0,299.51496000000003,14171.294,0.0,0.0,-0.059549995906086006,0.0,0.0,0.0,-1.2039922021747789,-1.2120365973686988,-1.8916907192453383,0.008754740661325632,-0.007210307571301953,-0.14293576682166184
5956,2.0,299.90688,13892.152,0.0,0.0,-0.05956000032646014,0.0,0.0,0.0,-1.1889191950121887,-1.1731418777050886,-1.8608062482472782,-0.008895305199998272,-0.002068227257668138,-0.14501137925400887
5957,2.0,300.07502999999997,13889.146999999999,0.0,0.0,-0.05957000474683416,0.0,0.0,0.0,-1.170693764138479,-1.1897088208151188,-1.861551392370818,-0.01102296646613209,0.014712503922761086,-0.13296202184732986
5958,2.0,300.02285,14009.788,0.0,0.0,-0.05958000916720829,0.0,0.0,0.0,-1.1957816339644591,-1.1792300922559489,-1.8836140013732283,2.7544495706680072e-05,0.01126135280390899,-0.13199632357452287
5959,2.0,299.91508999999996,14125.178,0.0,0.0,-0.059590013587582424,0.0,0.0,0.0,-1.202153963843359,-1.1943263028458289,-1.8972211396161482,0.004217438326928756,0.012507867262430387,-0.13808409229533886
5960,2.0,300.25734,14038.237,0.0,0.0,-0.05959998509867914,0.0,0.0,0.0,-1.230241965890429,-1.1851822273183787,-1.8518493200132984,-0.0017103043605438985,0.004057970695715526,-0.14316277537406585
5961,2.0,299.91931,13760.343,0.0,0.0,-0.059609989519053275,0.0,0.0,0.0,-1.1583779118229989,-1.1739646367862888,-1.8504581276259982,0.0042569965227578456,-0.010485844614622292,-0.17728606991927284
5962,2.0,299.66487,13823.122,0.0,0.0,-0.05961999393942741,0.0,0.0,0.0,-1.1774780815080388,-1.179976958904659,-1.8444288842309584,-0.0032817669102351765,-6.131964055727735e-06,-0.15909019555097983
5963,2.0,299.39106,14250.143,0.0,0.0,-0.05962999835980154,0.0,0.0,0.0,-1.216417181526029,-1.2033751328638789,-1.911895432864388,0.004487713165227805,0.00023585985944755579,-0.15307982900530284
5964,2.0,300.20206,14263.963,0.0,0.0,-0.05964000278017578,0.0,0.0,0.0,-1.2146790523044888,-1.198011189484499,-1.9231983390548983,-0.01060861810273909,-0.01199897455870659,-0.14061375222999686
5965,2.0,300.16104,13855.621000000001,0.0,0.0,-0.059650007200549915,0.0,0.0,0.0,-1.166596282059089,-1.1857969661540488,-1.859369560930488,0.0031022531390435468,-0.0016898442065746385,-0.15046686977992388
5966,2.0,299.60452999999995,13812.987,0.0,0.0,-0.05966001162092405,0.0,0.0,0.0,-1.1843374807100089,-1.1576553631766888,-1.8568101925028984,-0.0035409531447398663,-0.01212352326099859,-0.12583411136885989
5967,2.0,298.77477999999996,14130.476999999999,0.0,0.0,-0.05967001604129818,0.0,0.0,0.0,-1.2044005419650787,-1.202102794713309,-1.8888089346359282,0.0035387681722242265,0.007345667854810973,-0.14248868034753787
5968,2.0,299.07038,14257.526000000002,0.0,0.0,-0.0596799875523949,0.0,0.0,0.0,-1.2223798543894988,-1.212440478858559,-1.8991115603277182,-0.0035575599085788264,0.0021656629071592883,-0.12812873781032189
5969,2.0,299.23716,14044.655,0.0,0.0,-0.05968999197276903,0.0,0.0,0.0,-1.1903028893487488,-1.182944059172489,-1.8959774764434083,0.0006371371344305394,0.004902780024266715,-0.14509382741464585
5970,2.0,300.17266,13901.66,0.0,0.0,-0.05969999639314316,0.0,0.0,0.0,-1.163617529415109,-1.1929762484125888,-1.8691637377220982,-0.009142578551752252,0.012637885488762188,-0.14763731821316886
5971,2.0,300.29085,13959.848999999998,0.0,0.0,-0.059710000813517405,0.0,0.0,0.0,-1.194002974738919,-1.1718953774320688,-1.8775471663994783,-0.0007908998433407372,0.006780585670766703,-0.15832182773514783
5972,2.0,300.2354,14316.965,0.0,0.0,-0.05972000523389154,0.0,0.0,0.0,-1.239931980571759,-1.2084095673107387,-1.9036583175014483,0.005084573304208315,0.0054773406563714344,-0.15443488889403686
5973,2.0,300.4588,14330.312,0.0,0.0,-0.05973000965426567,0.0,0.0,0.0,-1.2364069847988688,-1.208468234491529,-1.9111819021439682,0.001047604040665469,-0.0037926307907035165,-0.15483041107057186
5974,2.0,300.25437999999997,13824.787,0.0,0.0,-0.0597400140746398,0.0,0.0,0.0,-1.185279803303009,-1.148848902582559,-1.8682614385080483,0.009572685082025462,-0.014995098362400988,-0.13014946248475187
5975,2.0,300.09472999999997,13679.274,0.0,0.0,-0.0597499855857363,0.0,0.0,0.0,-1.1418246475893188,-1.1602989326875888,-1.856034245576318,-0.009561032199250412,-0.01952843199880618,-0.14835472968147187
5976,2.0,299.78679,14201.067,0.0,0.0,-0.05975999000611054,0.0,0.0,0.0,-1.2286163074299887,-1.1750380739422288,-1.9131154873097982,0.009166524286065512,-0.002313185130293598,-0.1250860896150359
5977,2.0,299.27142000000003,14354.912,0.0,0.0,-0.059769994426484785,0.0,0.0,0.0,-1.2447270853449988,-1.2013085079599188,-1.917499313867448,0.009235045526728032,0.0003123477283588207,-0.14535049379747686
5978,2.0,299.40849,14036.133,0.0,0.0,-0.05977999884685903,0.0,0.0,0.0,-1.204815771856059,-1.196907253500549,-1.864911025727388,-0.0034673683893526163,0.007823021426647103,-0.15027520339100786
5979,2.0,299.43851,13897.702,0.0,0.0,-0.05979000326723316,0.0,0.0,0.0,-1.165012369502769,-1.1940005429386789,-1.865541368614598,-0.0037230698541133866,0.01139618802121619,-0.15490743834317383
5980,2.0,299.39446,14089.899,0.0,0.0,-0.05980000768760707,0.0,0.0,0.0,-1.2155050537860088,-1.2067492556968789,-1.8607231617390783,-0.015148523679292885,0.007007960513081853,-0.13871036191714686
5981,2.0,300.04871,14353.072,0.0,0.0,-0.059810012107981314,0.0,0.0,0.0,-1.2061429268370387,-1.2332609445633789,-1.9235716203917381,0.0006962475209467804,0.006899554303432994,-0.14866616223220785
5982,2.0,300.05975,14192.737,0.0,0.0,-0.05981998361907792,0.0,0.0,0.0,-1.2189159575976387,-1.1939345803571688,-1.901387117402298,-0.005979771256257474,-0.011641777553953988,-0.12717467164866286
5983,2.0,300.52327,13889.233999999999,0.0,0.0,-0.059829988039452164,0.0,0.0,0.0,-1.167497669348049,-1.1909177295094289,-1.863564922969538,0.0071013957498531925,-0.015352283208152384,-0.15435890526903787
5984,2.0,300.61701,13878.43,0.0,0.0,-0.0598399924598263,0.0,0.0,0.0,-1.1842730380036488,-1.1782732801865188,-1.8561498574127284,0.0038739694424810163,-0.016364453183545784,-0.15956692972302983
5985,2.0,299.79902000000004,14214.473,0.0,0.0,-0.05984999688020043,0.0,0.0,0.0,-1.2180166981338887,-1.203175522594179,-1.8996525345561082,0.013656139017755987,-0.007293046636042664,-0.15860860791095086
5986,2.0,299.74112,14338.239,0.0,0.0,-0.05986000130057478,0.0,0.0,0.0,-1.245063079078159,-1.211930307433209,-1.9014733449858083,-0.0013206695723899386,0.0002993405051026077,-0.14877258389021086
5987,2.0,300.76932999999997,13988.253,0.0,0.0,-0.059870005720948916,0.0,0.0,0.0,-1.1662710287769888,-1.188934292438679,-1.8968745067569381,-0.0022207364951446276,0.01128951102418799,-0.14551510640872287
5988,2.0,299.78766,13779.213,0.0,0.0,-0.05988001014132294,0.0,0.0,0.0,-1.1640295169057688,-1.1934884463381388,-1.8310188231324882,-0.005234963835725705,0.015135213625979286,-0.14906051917112786
5989,2.0,299.97255,14230.605,0.0,0.0,-0.05989001456169707,0.0,0.0,0.0,-1.2149566828318887,-1.2205304703069788,-1.8902614286542783,-0.0014001901495130087,0.005883787290184594,-0.13902935331362887
5990,2.0,299.75892000000005,14492.628999999999,0.0,0.0,-0.05989998607279379,0.0,0.0,0.0,-1.2666635447099588,-1.2369046932479888,-1.9018289957709082,0.004372979614004486,0.004186896131814476,-0.14843413809180886
5991,2.0,299.50437,14212.218,0.0,0.0,-0.05990999049316792,0.0,0.0,0.0,-1.2205876176126187,-1.2158600966210489,-1.8837116786828683,-0.004125289917784416,-0.0012779997868287588,-0.15602067596304187
5992,2.0,299.57507999999996,13959.052,0.0,0.0,-0.05991999491354205,0.0,0.0,0.0,-1.1822872704576688,-1.1757006381826187,-1.8852153418312683,0.007296822005915263,0.004293694110904616,-0.14303418380387486
5993,2.0,299.8166,13878.333,0.0,0.0,-0.059929999333916184,0.0,0.0,0.0,-1.1434620597509189,-1.1876617516380887,-1.887542777310968,0.0001077456516436679,0.0001265777964122559,-0.14501007216137984
5994,2.0,299.45345,14038.024,0.0,0.0,-0.059940003754290316,0.0,0.0,0.0,-1.2007022804250886,-1.171405065708679,-1.895101420406948,0.0036455259252853966,-0.0032524653385433374,-0.14546348131612788
5995,2.0,300.52564,14430.333999999999,0.0,0.0,-0.05995000817466456,0.0,0.0,0.0,-1.228589152327309,-1.228117180430729,-1.9297548778019782,-0.0019484848059004782,0.0003354263536340037,-0.15628553953918187
5996,2.0,300.35569,14150.322,0.0,0.0,-0.05996001259503869,0.0,0.0,0.0,-1.2319743195863988,-1.2036874165446987,-1.8656826156785382,-0.005144456486443325,0.007500062244098513,-0.15897307397192084
5997,2.0,300.33047999999997,13866.702,0.0,0.0,-0.05996998410613541,0.0,0.0,0.0,-1.1893658356562689,-1.175097349073079,-1.8506680730467182,0.013190589100309787,0.004305329971077986,-0.16250298400779586
5998,2.0,300.18261,14234.434,0.0,0.0,-0.05997998852650932,0.0,0.0,0.0,-1.2190846637392887,-1.2137087640087287,-1.8941189731099881,3.6731052757822665e-05,-0.0006726359362514985,-0.14889542019983387
5999,2.0,300.07097000000005,14526.9,0.0,0.0,-0.059989992946883675,0.0,0.0,0.0,-1.231102215225329,-1.2422088548714687,-1.9425037932101983,0.01985251599029078,0.004361206053142526,-0.13712363252554888
6000,2.0,299.82491,14288.33,0.0,0.0,-0.05999999736725781,0.0,0.0,0.0,-1.2095920301774388,-1.2178865968210488,-1.915816913401408,0.0018679741821046984,0.0037046840257488464,-0.12412873039055189
6001,2.0,299.89869,13950.62,0.0,0.0,-0.06001000178763194,0.0,0.0,0.0,-1.161466602102829,-1.2053229035311088,-1.8738506273846582,-0.00997134823254545,-0.0002193394447821178,-0.15686860417672585
6002,2.0,299.87602999999996,13987.718,0.0,0.0,-0.06002000620800618,0.0,0.0,0.0,-1.2095786552761187,-1.1783287049669888,-1.8640096384384284,-0.01229941233260749,-0.011912132945635989,-0.13198172264058186
6003,2.0,300.89335,14149.85,0.0,0.0,-0.060030010628380315,0.0,0.0,0.0,-1.2152296524088289,-1.2000239094831386,-1.8859476176785381,-0.01111308189027579,0.006604883138501213,-0.16759019865236482
6004,2.0,300.60645,14265.889,0.0,0.0,-0.06004001504875445,0.0,0.0,0.0,-1.2139687639843888,-1.2102980628471187,-1.9122072099201581,-0.0014694292778713786,0.0017116731601039884,-0.15302401918979486
6005,2.0,300.36755,14131.253,0.0,0.0,-0.06004998655985094,0.0,0.0,0.0,-1.1856503488645789,-1.1910126710437987,-1.918885136029218,0.009365721251049721,-0.0018943803916357882,-0.16281167065076085
6006,2.0,300.38612,14026.068000000001,0.0,0.0,-0.060059990980225075,0.0,0.0,0.0,-1.201237479127909,-1.185081003633389,-1.8772557556707181,-0.0009605889693102499,-0.01206539310276159,-0.14563983749603285
6007,2.0,300.34668,14191.082,0.0,0.0,-0.06006999540059932,0.0,0.0,0.0,-1.2041202769874189,-1.2048450547839489,-1.9047692449110882,0.01902103485222998,-0.01938412998581468,-0.15649747093009786
6008,2.0,300.05095,14511.528999999999,0.0,0.0,-0.06007999982097356,0.0,0.0,0.0,-1.2766262249931988,-1.2268160659773188,-1.907700273475358,0.012510161260656788,0.004234739167086216,-0.13123176557906688
6009,2.0,300.24117,14323.733999999999,0.0,0.0,-0.060090004241347805,0.0,0.0,0.0,-1.2285188327703689,-1.2123499956246289,-1.9131887452920282,-0.0029991274822908373,-0.003243061263040227,-0.1379682879414099
6010,2.0,299.88145,13924.461000000001,0.0,0.0,-0.06010000866172194,0.0,0.0,0.0,-1.1913606211281387,-1.172698276811309,-1.868629653594388,-0.015903921893844885,-0.011500497052760688,-0.14259546677557688
6011,2.0,300.04913,14020.723999999998,0.0,0.0,-0.06011001308209585,0.0,0.0,0.0,-1.1737575284658488,-1.1885977920804687,-1.8995945766503883,-0.01771459070329398,0.013093474144475288,-0.14102743184832386
6012,2.0,299.99617,14357.818000000001,0.0,0.0,-0.06011998459319279,0.0,0.0,0.0,-1.2384207180476088,-1.2067438854713488,-1.9192536550905879,-0.005994036399115334,0.004638349713869476,-0.13734257560715687
6013,2.0,300.20617999999996,14341.858,0.0,0.0,-0.0601299890135667,0.0,0.0,0.0,-1.2122919363938989,-1.2280414906482588,-1.9192331874385682,-0.003637416884735096,0.002240228285993318,-0.14809685753102186
6014,2.0,299.38645,14064.443000000001,0.0,0.0,-0.06013999343394094,0.0,0.0,0.0,-1.221969285448979,-1.1870257345503188,-1.8662445641839984,0.004249344964627696,-0.01153465675338199,-0.15836696802710284
6015,2.0,299.34754,14032.028,0.0,0.0,-0.060149997854315074,0.0,0.0,0.0,-1.1885877609044788,-1.1869716269949788,-1.889826845686388,0.020175901852456483,0.0026557921442062773,-0.15325403709499585
6016,2.0,299.30076,14187.83,0.0,0.0,-0.060160002274689206,0.0,0.0,0.0,-1.2162625595607688,-1.2004574792009288,-1.8960260111231981,0.01905638613496888,0.00995903329215506,-0.15649320514717685
6017,2.0,299.31845,14378.975,0.0,0.0,-0.06017000669506356,0.0,0.0,0.0,-1.2166769788516687,-1.2247483264982488,-1.9294240516443282,0.0008249875221449292,-0.010424651401332991,-0.13465606455701887
6018,2.0,299.38689,14271.101,0.0,0.0,-0.06018001111543769,0.0,0.0,0.0,-1.236602947368209,-1.200324540787809,-1.9011307651269982,-0.008178473310752473,-0.02140798357655348,-0.13386543563648987
6019,2.0,300.08027000000004,14025.423999999999,0.0,0.0,-0.060190015535811825,0.0,0.0,0.0,-1.1872569582231387,-1.194321743220379,-1.881799979719198,-0.02123524976575598,0.005497970327082425,-0.14184621898913186
6020,2.0,299.85722000000004,14068.162,0.0,0.0,-0.06019998704690832,0.0,0.0,0.0,-1.2210866432868688,-1.1835256647298888,-1.871757556653088,0.006370388086408354,-0.0015974068185017785,-0.14996906000579385
6021,2.0,300.09974,14440.051000000001,0.0,0.0,-0.060209991467282564,0.0,0.0,0.0,-1.2176456459472687,-1.224900415338259,-1.946868773315988,-0.008702383900833423,0.0008731791863785761,-0.14145638114565787
6022,2.0,300.3457,14474.857,0.0,0.0,-0.0602199958876567,0.0,0.0,0.0,-1.2362120354796289,-1.234017133113009,-1.9297658209030581,0.006661937630432054,0.004232324389447896,-0.15661556522925285
6023,2.0,300.36352999999997,14181.073999999999,0.0,0.0,-0.06023000030803083,0.0,0.0,0.0,-1.1942117042595188,-1.200018032632559,-1.916462657690138,0.005373132037911845,-0.0006117799021979753,-0.14220349097439186
6024,2.0,299.42627999999996,14067.867,0.0,0.0,-0.06024000472840496,0.0,0.0,0.0,-1.2000715322378388,-1.197572553516209,-1.8786363089319682,0.007279838718339144,0.005040551032413655,-0.16144550554093084
6025,2.0,299.53281,14276.205,0.0,0.0,-0.06025000914877909,0.0,0.0,0.0,-1.223324710107749,-1.2041678997421188,-1.9121172333112781,-0.005197394852492935,-0.0016437242030979487,-0.13380799448832087
6026,2.0,299.93446,14436.045,0.0,0.0,-0.06026001356915334,0.0,0.0,0.0,-1.2459665941923288,-1.224730391971479,-1.9175003271175484,-0.002742416313805417,-0.016046110267127787,-0.15486208526869785
6027,2.0,300.03558,14298.851,0.0,0.0,-0.060269985080249944,0.0,0.0,0.0,-1.2090093100449288,-1.2162588105353989,-1.9212254397851882,0.0017736698807225882,0.008649593367973402,-0.13474388294318587
6028,2.0,300.18476,14077.788999999999,0.0,0.0,-0.06027998950062419,0.0,0.0,0.0,-1.2082188736419188,-1.180815626012429,-1.8902618339543182,0.004081153554028496,-0.007967171553448612,-0.14391686649598887
6029,2.0,300.2536,14132.466999999999,0.0,0.0,-0.0602899939209981,0.0,0.0,0.0,-1.195518898213529,-1.196581493593399,-1.903816587167068,0.004361867097507766,-0.023032303533611378,-0.13996464395093486
6030,2.0,300.55903,14434.229,0.0,0.0,-0.06029999834137245,0.0,0.0,0.0,-1.2386691669721288,-1.224656728689209,-1.9243191963155182,-0.00016131088513264484,-0.013464458443338587,-0.15232718683102286
6031,2.0,300.64011,14494.141000000001,0.0,0.0,-0.060310002761746584,0.0,0.0,0.0,-1.2426143575614887,-1.230269120993109,-1.9329733654196182,0.01045193214702539,0.011172542445894091,-0.14631669869533387
6032,2.0,300.46657999999996,14105.235,0.0,0.0,-0.060320007182120716,0.0,0.0,0.0,-1.2022600511288288,-1.2055800664064888,-1.8797990134217182,-0.005321181590709735,0.012368643658940089,-0.1728791412593428
6033,2.0,299.67676,13956.463,0.0,0.0,-0.06033001160249496,0.0,0.0,0.0,-1.1685966404065091,-1.1797376292310389,-1.8940818881563284,-0.019109104524421782,0.012041969800199889,-0.16228598636637984
6034,2.0,299.76367999999997,14315.678,0.0,0.0,-0.06034001602286909,0.0,0.0,0.0,-1.2294440314366788,-1.2197750923574289,-1.9023895257262282,-0.015696624095636186,0.013215111779229988,-0.14921936638930486
6035,2.0,300.08407,14369.722,0.0,0.0,-0.06034998753396581,0.0,0.0,0.0,-1.219377391693179,-1.2275616154008988,-1.9210976689475783,-0.014492998487347588,0.017280293471932183,-0.15386241272003784
6036,2.0,300.16307,14124.502,0.0,0.0,-0.06035999195433972,0.0,0.0,0.0,-1.2240132135506987,-1.189124175507419,-1.8803584288019282,-0.0024968445129443673,-0.005602112881635495,-0.14109615047010587
6037,2.0,300.10705,14133.435,0.0,0.0,-0.06036999637471385,0.0,0.0,0.0,-1.219010899132009,-1.1939970978883387,-1.8832033311076983,-0.0052804734573421545,-0.017116852177801786,-0.14651792003269284
6038,2.0,299.94068,14346.855,0.0,0.0,-0.060380000795088096,0.0,0.0,0.0,-1.2342892920898687,-1.2096560675837589,-1.9171403193570182,0.008568944030238931,-0.0019103096964578881,-0.13184787230237188
6039,2.0,299.84103999999996,14509.989,0.0,0.0,-0.06039000521546234,0.0,0.0,0.0,-1.2329208978298187,-1.2301344600548187,-1.9476190850150383,0.017152077817528283,0.004840871152431785,-0.14384386182628386
6040,2.0,300.43787000000003,14548.136999999999,0.0,0.0,-0.06040000963583658,0.0,0.0,0.0,-1.2514554713090387,-1.2399748410509885,-1.930840068659078,0.016595656591363785,-0.004987010897129655,-0.13475066158635488
6041,2.0,299.78381,14203.921,0.0,0.0,-0.060410014056210715,0.0,0.0,0.0,-1.2032729972537988,-1.203799178030729,-1.9105652381331084,-0.00087411536867597,-0.0026445576323975172,-0.15205563580422285
6042,2.0,299.94124,14005.338,0.0,0.0,-0.06041998556730721,0.0,0.0,0.0,-1.1854632015711088,-1.2124981327892488,-1.8593118056747882,-0.013402186118692788,0.0028510648928781975,-0.16389451076762884
6043,2.0,300.34251,14305.888,0.0,0.0,-0.060429989987681565,0.0,0.0,0.0,-1.2251791604407687,-1.2132682028652488,-1.9101852693456083,-0.01117679201681349,0.019306146205118283,-0.16081888128158783
6044,2.0,299.70712000000003,14419.22,0.0,0.0,-0.060439994408055475,0.0,0.0,0.0,-1.2347146544818488,-1.2252065181934688,-1.9231617607262883,-0.002034364743301168,0.005206589286550355,-0.14994582618100086
6045,2.0,299.70396,14022.355,0.0,0.0,-0.06044999882842972,0.0,0.0,0.0,-1.1862961944783188,-1.192702062935529,-1.8834474230567881,0.00914793185600558,0.0006452275210464984,-0.15116826176414586
6046,2.0,300.20877,13991.428,0.0,0.0,-0.06046000324880385,0.0,0.0,0.0,-1.191125445779929,-1.182111066265279,-1.8798080313476084,0.017376859246212482,-0.004917011932521295,-0.15035663830154486
6047,2.0,299.85856,14362.676000000001,0.0,0.0,-0.06047000766917798,0.0,0.0,0.0,-1.2276035639550387,-1.2248131745046489,-1.9134780281955783,0.011415599866631989,0.001986923664344098,-0.14969832971157487
6048,2.0,300.52125,14596.105,0.0,0.0,-0.06048001208955234,0.0,0.0,0.0,-1.2810419689289987,-1.231092386699359,-1.9247172009547981,0.02056227843358888,-0.007156680904459414,-0.14528712513622286
6049,2.0,300.79316,14469.798999999999,0.0,0.0,-0.06048998360064883,0.0,0.0,0.0,-1.2406457139421987,-1.2179802211302888,-1.9398315487214683,-0.009456666324375302,-0.007197241001987383,-0.13720037608812288
6050,2.0,300.13423,14163.623,0.0,0.0,-0.060499988021022966,0.0,0.0,0.0,-1.198526629810369,-1.209963994289149,-1.8968971022341683,0.005488139166662165,-0.0017121695513279786,-0.15170125158174785
6051,2.0,300.44547,14220.142,0.0,0.0,-0.0605099924413971,0.0,0.0,0.0,-1.2010265204570887,-1.1978834186468887,-1.923658050625268,-0.013066046477518387,0.009243565541518891,-0.14500633326851087
6052,2.0,299.95534,14437.085,0.0,0.0,-0.06051999686177134,0.0,0.0,0.0,-1.2374603596028289,-1.2274094252358787,-1.923643561148838,0.0007085910653874934,-0.005656814708159145,-0.15360928258005585
6053,2.0,299.59282,14456.64,0.0,0.0,-0.060530001282145474,0.0,0.0,0.0,-1.2456049652316388,-1.2297566190925289,-1.9190959933750282,-0.012186587947222589,-0.007738973040127173,-0.14275556029137687
6054,2.0,299.86323,14135.655,0.0,0.0,-0.060540005702519606,0.0,0.0,0.0,-1.226318458853209,-1.1781702326513488,-1.892397461190088,0.003451881064224137,0.012427418244240688,-0.15314934809466385
6055,2.0,299.61241,13947.543,0.0,0.0,-0.06055001012289374,0.0,0.0,0.0,-1.1721311607303389,-1.1937306131120389,-1.8738431293339182,0.0016770645896883886,0.02107519374020968,-0.15306995994932884
6056,2.0,299.86023,14330.211000000001,0.0,0.0,-0.06056001454326787,0.0,0.0,0.0,-1.2248456998328587,-1.207774968773109,-1.9234057513503682,-0.0016264197152401285,0.002258328175179638,-0.14493924597938984
6057,2.0,300.04749,14665.181999999999,0.0,0.0,-0.06056998605436459,0.0,0.0,0.0,-1.262286810903009,-1.2379283798240188,-1.9576338463534182,-0.0061552575609516245,-0.0005570953819860335,-0.12409779586499889
6058,2.0,300.02862000000005,14465.643999999998,0.0,0.0,-0.06057999047473872,0.0,0.0,0.0,-1.2457925178251488,-1.2293503058024289,-1.922051745241738,0.0005357618368280766,0.0034169673028784167,-0.16559826041327586
6059,2.0,300.30329,14300.481000000002,0.0,0.0,-0.060589994895112964,0.0,0.0,0.0,-1.2159832065081988,-1.2166213514211788,-1.9143844817350382,0.008149019447570603,0.01220479807801979,-0.15010186669640085
6060,2.0,300.60315,14365.636999999999,0.0,0.0,-0.060599999315486874,0.0,0.0,0.0,-1.2452997743015188,-1.223044141155059,-1.8984509212625182,-0.014243888923762384,0.0042697855628700265,-0.16175005812348783
6061,2.0,300.32099999999997,14443.875,0.0,0.0,-0.06061000373586123,0.0,0.0,0.0,-1.2070929501307988,-1.2314584739604888,-1.952026013674968,0.007473751178751813,-0.014699998390026885,-0.14647912268636387
6062,2.0,300.96575,14434.905,0.0,0.0,-0.06062000815623536,0.0,0.0,0.0,-1.2305450289953388,-1.2224909066004588,-1.934814744826348,0.0068506166540782225,0.0019541811966376685,-0.15499194340151384
6063,2.0,300.35947000000004,14230.806999999999,0.0,0.0,-0.06063001257660949,0.0,0.0,0.0,-1.1885080181216088,-1.2151303538990288,-1.9221716127285682,0.018310920811147182,-0.008378796199247803,-0.14429248844055986
6064,2.0,300.00121,14016.538999999999,0.0,0.0,-0.0606399840877061,0.0,0.0,0.0,-1.1870343471761688,-1.1910222969197488,-1.8826210162752284,-0.007401135191785173,-0.00981306711719932,-0.15430982343419386
6065,2.0,300.24343,14203.32,0.0,0.0,-0.060649988508080344,0.0,0.0,0.0,-1.200933200122879,-1.2092574549944188,-1.9072639679822982,-0.017165715150624185,-0.005703947759085814,-0.15977824303138485
6066,2.0,300.25567,14515.152,0.0,0.0,-0.06065999292845459,0.0,0.0,0.0,-1.2596657355443288,-1.2238995268894788,-1.9286784008957383,-0.01034812163453009,0.02057468872081368,-0.14938680596832984
6067,2.0,299.69827999999995,14443.354,0.0,0.0,-0.0606699973488285,0.0,0.0,0.0,-1.2163665190210289,-1.239545932283659,-1.9345065141459283,-0.017586097418362683,0.015696565327130384,-0.15348050862484686
6068,2.0,299.59675,14224.907,0.0,0.0,-0.06068000176920263,0.0,0.0,0.0,-1.2217457624769188,-1.2091961533633688,-1.8930745149069084,-0.0099007262204506,0.004009756810907187,-0.13582942843782086
6069,2.0,299.85961000000003,14379.576000000001,0.0,0.0,-0.06069000618957687,0.0,0.0,0.0,-1.221540984631709,-1.225327905555449,-1.9241630544751085,0.0025363050314638176,-0.024451060376631775,-0.14604677900119487
6070,2.0,300.1311,14595.487,0.0,0.0,-0.060700010609951116,0.0,0.0,0.0,-1.2588359850374387,-1.2395151294806188,-1.938312484171548,0.017291146393753284,-0.007930732749377382,-0.13128949043726387
6071,2.0,299.86028999999996,14468.841999999999,0.0,0.0,-0.06071001503032536,0.0,0.0,0.0,-1.2323737427758188,-1.2405556360083088,-1.9252372009061183,0.006228465691276703,-0.009107138812279623,-0.16367785763124684
6072,2.0,299.3156,14213.906,0.0,0.0,-0.060719986541421855,0.0,0.0,0.0,-1.2078087100014387,-1.2045672216065288,-1.908296469834198,-0.0017682825312658982,0.0012045423969790788,-0.14139615355971386
6073,2.0,299.79527,14083.945,0.0,0.0,-0.06072999096179599,0.0,0.0,0.0,-1.1726336314549288,-1.2093212897507188,-1.8992126826876983,-0.016481907108637586,0.013095463154421588,-0.17491762820802584
6074,2.0,300.83122000000003,14353.589,0.0,0.0,-0.06073999538217034,0.0,0.0,0.0,-1.223892738113809,-1.2194867213789686,-1.9197532887148983,-0.0009163580389224972,0.02168638417402948,-0.14021680137082088
6075,2.0,300.38297,14545.291000000001,0.0,0.0,-0.06074999980254425,0.0,0.0,0.0,-1.2408657918639188,-1.2341587854769887,-1.946380690742818,-0.008128005045796643,0.002013887870705258,-0.16002213233045484
6076,2.0,300.45332,14549.836000000001,0.0,0.0,-0.060760004222918496,0.0,0.0,0.0,-1.2523516910224888,-1.2386828458484789,-1.931752399049118,-0.0038774881561032862,-0.0033385860241677864,-0.1266619367005599
6077,2.0,300.03209,14246.81,0.0,0.0,-0.06077000864329263,0.0,0.0,0.0,-1.216443323378609,-1.201610861789759,-1.912620413310938,-0.014574841737674886,-0.019369062956827682,-0.15530030580444684
6078,2.0,299.94127000000003,14380.606000000002,0.0,0.0,-0.06078001306366676,0.0,0.0,0.0,-1.2268562920062887,-1.2315648652209887,-1.9129239830408982,0.006197797650500004,0.02124762053622688,-0.13869915537104088
6079,2.0,300.33103,14649.655,0.0,0.0,-0.06078998457476348,0.0,0.0,0.0,-1.2507219795616489,-1.245820483527909,-1.956586855025088,0.008341919367158342,0.007916442376592033,-0.15944305989830485
6080,2.0,300.17611,14629.136999999999,0.0,0.0,-0.06079998899513761,0.0,0.0,0.0,-1.269704814885109,-1.2311799315079988,-1.9460077133810083,0.003469228817861226,0.006096532219605885,-0.12637029292427687
6081,2.0,299.24705,14238.818000000001,0.0,0.0,-0.06080999341551174,0.0,0.0,0.0,-1.207344033505579,-1.218275988834479,-1.9026253090244982,0.004069985714076316,-0.017263333691758382,-0.16232287880252083
6082,2.0,299.65188,14128.941,0.0,0.0,-0.060819997835885875,0.0,0.0,0.0,-1.2121778444326388,-1.179783428135559,-1.9028840931000384,0.007031930768047533,0.0024505544861008976,-0.13240299150215787
6083,2.0,299.83456,14316.483999999999,0.0,0.0,-0.06083000225626012,0.0,0.0,0.0,-1.2161187793715789,-1.2033502069114188,-1.9323844644614983,0.013979391130908486,-0.0074009584809677335,-0.16057927803044086
6084,2.0,299.45442,14573.583,0.0,0.0,-0.06084000667663425,0.0,0.0,0.0,-1.2459306238137788,-1.2255478821521588,-1.958526722341538,-0.012064986789471488,-0.005314486439348975,-0.14502306202766185
6085,2.0,300.21736,14533.5,0.0,0.0,-0.06085001109700838,0.0,0.0,0.0,-1.233572518969129,-1.2355905078682887,-1.9486580716675783,0.0026084980878387175,0.003664551013138027,-0.15249610575519384
6086,2.0,299.58307,14193.556999999999,0.0,0.0,-0.060860015517382515,0.0,0.0,0.0,-1.2213727851151088,-1.2008616646658188,-1.8922524651007784,-0.00977029023110257,0.03113815031959617,-0.15071592665450384
6087,2.0,299.54746,14321.885,0.0,0.0,-0.06086998702847923,0.0,0.0,0.0,-1.2167875244375788,-1.2186150223179388,-1.9180929771010382,0.003210903947266547,0.018294195091746485,-0.14849487230280284
6088,2.0,300.03396000000004,14664.937,0.0,0.0,-0.060879991448853366,0.0,0.0,0.0,-1.2895580320444688,-1.229985410965109,-1.938231120188518,-0.023498685329389677,-0.004783050339450316,-0.14338308634330885
6089,2.0,300.14078,14675.89,0.0,0.0,-0.0608899958692275,0.0,0.0,0.0,-1.2519116365040588,-1.2551667024503088,-1.954025662747318,-0.0070655378420642935,-0.017407751215261284,-0.14126155341642985
6090,2.0,300.17692,14357.003,0.0,0.0,-0.06090000028960174,0.0,0.0,0.0,-1.2240072353751088,-1.2118404321493388,-1.928322851435648,-0.003086122197451547,0.006967805208968832,-0.16119662091886786
6091,2.0,300.67766,14283.161,0.0,0.0,-0.06091000470997565,0.0,0.0,0.0,-1.2040743767578888,-1.209420588260519,-1.9282291258013982,0.011390065964111988,-0.0008121192762724323,-0.14086321440461688
6092,2.0,300.34775,14539.221000000001,0.0,0.0,-0.060920009130350006,0.0,0.0,0.0,-1.2619440283941787,-1.226272761273699,-1.9313433499837482,0.018967957772241684,0.0027436756823547076,-0.15270626395843484
6093,2.0,299.84272000000004,14576.594,0.0,0.0,-0.06093001355072414,0.0,0.0,0.0,-1.235423726901829,-1.2318438129735187,-1.963653058572468,0.023162682476978776,-0.0014013880137812287,-0.14720637281313784
6094,2.0,299.65673,14327.181,0.0,0.0,-0.060939985061820634,0.0,0.0,0.0,-1.2293667204540488,-1.218769441633179,-1.9069692135282081,0.01807564211142698,0.008247266406416822,-0.16579760723794984
6095,2.0,299.92062000000004,14199.74,0.0,0.0,-0.06094998948219488,0.0,0.0,0.0,-1.177553771290509,-1.210076465050249,-1.9287362574764482,0.009679296319122172,-0.00927386881225959,-0.16066620475651985
6096,2.0,300.00664,14350.676000000001,0.0,0.0,-0.06095999390256912,0.0,0.0,0.0,-1.2156690989771988,-1.2241656063657387,-1.9224123609523283,-0.005959801717986634,-0.007038314041027514,-0.15888858917858287
6097,2.0,300.10425,14651.426000000001,0.0,0.0,-0.060969998322943364,0.0,0.0,0.0,-1.2362357455319688,-1.2521427588518688,-1.9652890521839281,-0.015511682647633886,-0.0069752260500512125,-0.15400648675175685
6098,2.0,300.44829,14754.461000000001,0.0,0.0,-0.060980002743317274,0.0,0.0,0.0,-1.2856212514309386,-1.2424280208680987,-1.956938250159768,-0.025397779461815678,0.008950650440335422,-0.1375581141684289
6099,2.0,300.37001000000004,14437.652,0.0,0.0,-0.060990007163691407,0.0,0.0,0.0,-1.2327691129648386,-1.2242057310696988,-1.9317108557950182,-0.01035843956029839,0.004491287607605576,-0.14151657833409886
6100,2.0,300.46449,14341.612,0.0,0.0,-0.06100001158406565,0.0,0.0,0.0,-1.248149844182799,-1.201077385612109,-1.910264606828438,-0.013818501200529885,0.009211858716739673,-0.14532843534279985
6101,2.0,300.33711,14538.757,0.0,0.0,-0.06101001600443989,0.0,0.0,0.0,-1.2279931586184887,-1.237580733714709,-1.9538453042295183,0.012496325330541288,-0.0009735270281146371,-0.15182304424376786
6102,2.0,300.16496,14561.465,0.0,0.0,-0.0610199875155365,0.0,0.0,0.0,-1.2506073809753389,-1.2362367587820688,-1.939477620461538,0.006960105926758974,0.0013094190512295987,-0.14858892217708486
6103,2.0,300.39775,14445.652,0.0,0.0,-0.06102999193591063,0.0,0.0,0.0,-1.222173657994149,-1.234989346583959,-1.9339544954914483,0.017506821743788786,-0.006078572868208434,-0.15366405888046186
6104,2.0,299.58184,14258.652,0.0,0.0,-0.061039996356284765,0.0,0.0,0.0,-1.218312769813109,-1.208846987378909,-1.9071145135925482,0.016534454258823585,-0.01071053282429729,-0.15451258491170486
6105,2.0,299.67877999999996,14331.446000000002,0.0,0.0,-0.06105000077665912,0.0,0.0,0.0,-1.2118782263780687,-1.232466353834959,-1.9120573502303682,0.004791806137539446,-0.0016756079413446285,-0.16181044782944784
6106,2.0,299.83812,14650.002,0.0,0.0,-0.06106000519703303,0.0,0.0,0.0,-1.2442775062756288,-1.2583491183643887,-1.9506081728100382,-0.013553405590116986,0.008065116867740061,-0.15993503335185885
6107,2.0,300.22157000000004,14707.985,0.0,0.0,-0.06107000961740727,0.0,0.0,0.0,-1.2483973811822289,-1.2592438182026886,-1.963218779579608,-0.016585594004620684,0.01158827085592329,-0.15244218058487186
6108,2.0,299.89187999999996,14485.242,0.0,0.0,-0.061080014037781405,0.0,0.0,0.0,-1.236692620002059,-1.2251381238117187,-1.941321229018488,-0.00959194808100157,0.01269279249843109,-0.14915499461045187
6109,2.0,300.44867999999997,14325.948999999999,0.0,0.0,-0.06108998554887812,0.0,0.0,0.0,-1.2238885837883988,-1.2126538693296187,-1.9181884252604584,-0.0013779637992944386,0.0027842284844819573,-0.14903361738097284
6110,2.0,300.25337,14499.916000000001,0.0,0.0,-0.061099989969252255,0.0,0.0,0.0,-1.2448838351354687,-1.2335339141403188,-1.9291945504966783,-0.011687571392223489,-0.003550859893617587,-0.14204384328863587
6111,2.0,300.72239,14682.163,0.0,0.0,-0.06110999438962639,0.0,0.0,0.0,-1.2828903397614189,-1.2309215527324988,-1.9491989445709583,0.002823395565772448,-0.009070900935703221,-0.1434041214153849
6112,2.0,300.62243,14590.768999999998,0.0,0.0,-0.06111999881000052,0.0,0.0,0.0,-1.240511053003909,-1.2449104836130989,-1.9498080092060681,0.01043946613104509,-0.005077145978325295,-0.15761659553304683
6113,2.0,300.2743,14389.546,0.0,0.0,-0.06113000323037465,0.0,0.0,0.0,-1.209110635054929,-1.2298220750489888,-1.935129966932458,0.02004620482640638,0.0015474433547457685,-0.16752126724806185
6114,2.0,299.6263,14440.628999999999,0.0,0.0,-0.061140007650748895,0.0,0.0,0.0,-1.2155756773179789,-1.231523017991859,-1.942492039509038,0.006729887499363183,-0.006268642172316814,-0.15830938502391986
6115,2.0,300.17593999999997,14676.78,0.0,0.0,-0.06115001207112303,0.0,0.0,0.0,-1.2632944881274588,-1.2362426356326488,-1.9618376183682984,0.0015175100216165784,-0.01087277037730889,-0.14715486931055485
6116,2.0,299.15518,14726.053,0.0,0.0,-0.061159983582219524,0.0,0.0,0.0,-1.2813806984374287,-1.241140179990999,-1.953831422703148,0.0015174233887330284,-0.0002356761673369268,-0.12978894809917188
6117,2.0,299.76134,14452.078000000001,0.0,0.0,-0.061169988002593656,0.0,0.0,0.0,-1.2511703427308989,-1.2115055529912888,-1.930395049215158,0.01271816124118479,0.011249762236015091,-0.13012714058504887
6118,2.0,299.78618,14373.703000000001,0.0,0.0,-0.06117999242296801,0.0,0.0,0.0,-1.2237360896483487,-1.221294967507429,-1.9242157434803084,-0.015606442810235984,0.007096627192232573,-0.14291760937986986
6119,2.0,299.59529,14622.195,0.0,0.0,-0.06118999684334214,0.0,0.0,0.0,-1.2436927596429188,-1.2410496967570688,-1.960039606065848,-0.013542867789076988,0.007909125190994883,-0.1386909581777319
6120,2.0,299.87151,14790.128,0.0,0.0,-0.061200001263716275,0.0,0.0,0.0,-1.2816377599877988,-1.2486532268324788,-1.965538717008568,-0.02261841923876418,-0.006298725061160765,-0.16215399027585284
6121,2.0,299.93175,14567.073,0.0,0.0,-0.06121000568409052,0.0,0.0,0.0,-1.242702611645199,-1.2364561274287187,-1.9488676117882582,0.004568044950380936,-0.002663613523053187,-0.15681340231127786
6122,2.0,299.59455,14241.176000000001,0.0,0.0,-0.06122001010446443,0.0,0.0,0.0,-1.2179950145817489,-1.2098252803504588,-1.9011416069030682,0.0036645335852363067,-0.015814407327010487,-0.18152302587492783
6123,2.0,300.00972,14372.219,0.0,0.0,-0.06123001452483878,0.0,0.0,0.0,-1.2182202600789789,-1.2188379373399387,-1.9317374029476382,0.01108005399001619,-0.004754329664040806,-0.14936689560386487
6124,2.0,299.58729,14565.418,0.0,0.0,-0.06123998603593528,0.0,0.0,0.0,-1.2380793540889188,-1.2409620506234187,-1.9484820701252081,-0.0025230659056572177,-0.004784427042361185,-0.17884361770799082
6125,2.0,299.95374,14504.926000000001,0.0,0.0,-0.06124999045630941,0.0,0.0,0.0,-1.2145643523931688,-1.2412195174738287,-1.9533515474557879,-0.0002057192052154048,0.00847012235593599,-0.15337581962451485
6126,2.0,300.4294,14309.712,0.0,0.0,-0.061259994876683654,0.0,0.0,0.0,-1.2067913055760289,-1.2206185217406686,-1.9223852058496482,0.013597935905511786,-0.0005179960161997265,-0.17155444847610585
6127,2.0,300.52185,14408.02,0.0,0.0,-0.0612699992970579,0.0,0.0,0.0,-1.215923526077309,-1.2219036268424988,-1.9418510574957784,0.009194273153304112,0.005910935300113895,-0.14127588077284386
6128,2.0,300.80592,14693.283000000001,0.0,0.0,-0.06128000371743214,0.0,0.0,0.0,-1.2924034409752887,-1.2385860804639288,-1.9354017206092782,-0.002147479627489738,-0.003731320547027666,-0.15749296888834585
6129,2.0,300.56077999999997,14856.671,0.0,0.0,-0.06129000813780605,0.0,0.0,0.0,-1.2835712438286186,-1.2481227904051289,-1.984362978691378,-0.008956645942502131,0.0021474125503331176,-0.1221043985457659
6130,2.0,299.92593999999997,14706.418,0.0,0.0,-0.061300012558180184,0.0,0.0,0.0,-1.268640091680029,-1.2521007089727187,-1.949643153414798,-0.01032295250204609,5.2358499229381544e-05,-0.16525950050734284
6131,2.0,299.7958,14594.827,0.0,0.0,-0.0613099840692769,0.0,0.0,0.0,-1.2302761124187986,-1.2400157763550288,-1.9661709850709679,-0.011596537963489188,0.01998958745056868,-0.1317452705972459
6132,2.0,299.83664,14611.715,0.0,0.0,-0.061319988489651034,0.0,0.0,0.0,-1.2665678939005187,-1.234739479109299,-1.9402891324666283,-0.009596623318287981,0.004986387849643165,-0.16889331934097282
6133,2.0,300.41112000000004,14692.284,0.0,0.0,-0.06132999291002528,0.0,0.0,0.0,-1.257325026488319,-1.2475400702726187,-1.961222271582568,-0.006789770884248213,0.0024912965633468276,-0.13727232697772387
6134,2.0,300.03399,14445.412,0.0,0.0,-0.06133999733039941,0.0,0.0,0.0,-1.251995634937349,-1.212405724380129,-1.9266430854198682,0.012785674095347789,-0.013568836375889886,-0.15811257132449585
6135,2.0,299.28545,14315.255,0.0,0.0,-0.06135000175077354,0.0,0.0,0.0,-1.2048652184609387,-1.219338685539359,-1.9272762654073583,0.018952989028514382,0.006027782997670864,-0.12685903411001187
6136,2.0,299.41545,14510.015,0.0,0.0,-0.061360006171147674,0.0,0.0,0.0,-1.2343967979254789,-1.2391547164200487,-1.9371306292549084,0.007801895668687153,-0.007800635286887763,-0.15581026444727586
6137,2.0,299.7237,14727.677,0.0,0.0,-0.061370010591521806,0.0,0.0,0.0,-1.246039345549509,-1.2505591502705788,-1.9802475620852182,9.784954391849811e-05,0.01120031968413549,-0.13555126088786787
6138,2.0,299.85219,14708.303,0.0,0.0,-0.06138001501189605,0.0,0.0,0.0,-1.255902625997939,-1.2630191880752886,-1.952034930275848,-0.002492705183635848,-0.004215176550055535,-0.16733629844230685
6139,2.0,299.65315,14592.975,0.0,0.0,-0.061389986522992546,0.0,0.0,0.0,-1.2376813494496388,-1.247385954932409,-1.9508327090321982,0.0020924622748849484,0.013396029611085186,-0.14859075615976586
6140,2.0,299.56051,14496.181,0.0,0.0,-0.0613999909433669,0.0,0.0,0.0,-1.2394943578535689,-1.234456883656409,-1.932525711525438,-0.0015774419411813984,0.00037983268774656763,-0.16524678421858785
6141,2.0,300.04769,14672.448999999999,0.0,0.0,-0.06140999536374103,0.0,0.0,0.0,-1.2455207641483288,-1.264606039056899,-1.9499313217432381,-0.00963944113968877,0.0016695661336483484,-0.15646550288944286
6142,2.0,300.18535,14646.409,0.0,0.0,-0.061419999784115165,0.0,0.0,0.0,-1.2525003348121588,-1.2350147791614687,-1.9646276025186482,-0.007822300600525963,-0.015147935994234887,-0.16396837669991884
6143,2.0,300.65033999999997,14413.472,0.0,0.0,-0.0614300042044893,0.0,0.0,0.0,-1.2259507503919187,-1.223815731106209,-1.931569000781018,-0.00017863597236499783,0.00928808906813802,-0.16160323818399783
6144,2.0,300.81732999999997,14331.587,0.0,0.0,-0.06144000862486343,0.0,0.0,0.0,-1.2069783515444887,-1.225605029457799,-1.9238611059453083,0.006466539340072744,-0.005043706597200086,-0.16641541622142283
6145,2.0,299.89656,14476.597,0.0,0.0,-0.06145001304523767,0.0,0.0,0.0,-1.2522245281349387,-1.210197649762209,-1.9381017281507482,0.009396451302732542,-0.0030047807085737672,-0.15789087220261586
6146,2.0,299.86149,14841.865,0.0,0.0,-0.06145998455633428,0.0,0.0,0.0,-1.2901676033046288,-1.2555721038153187,-1.9658167528360084,0.0078022182875189935,-0.021190492482338782,-0.14132444585013687
6147,2.0,299.73496,14809.486,0.0,0.0,-0.0614699889767083,0.0,0.0,0.0,-1.2703186417956887,-1.2475318629468088,-1.983863547717088,0.011812467639299789,-0.004096028673446556,-0.12794019223171388
6148,2.0,299.69947,14702.861,0.0,0.0,-0.06147999339708243,0.0,0.0,0.0,-1.2464705847920687,-1.2574975829803487,-1.9653345471134183,0.008609504634391951,0.0033348267649717773,-0.1286724275489799
6149,2.0,300.11374,14763.69,0.0,0.0,-0.06148999781745679,0.0,0.0,0.0,-1.2648121341272387,-1.2477300546663688,-1.975250921867088,-0.001876365108832818,0.017090974783497883,-0.14449942450848288
6150,2.0,299.75802999999996,14794.957,0.0,0.0,-0.06150000223783092,0.0,0.0,0.0,-1.2728543001709387,-1.2481370772315388,-1.9763059178712081,-0.007622344609891843,0.0058814574229046545,-0.13984485752411285
6151,2.0,299.77353,14759.048999999999,0.0,0.0,-0.06151000665820505,0.0,0.0,0.0,-1.2801824288691688,-1.2520735538700387,-1.954126278482248,-0.010226105044237991,0.017421630715131087,-0.15366149535770884
6152,2.0,300.04252,14592.386,0.0,0.0,-0.061520011078579295,0.0,0.0,0.0,-1.246358519331009,-1.2410126118034088,-1.9483499423121682,-0.013099383419058487,-0.0065332742208089635,-0.15483989509150783
6153,2.0,299.99474,14330.694,0.0,0.0,-0.061530015498953206,0.0,0.0,0.0,-1.2052292792218688,-1.2230766664832688,-1.927867192865678,-0.011615011539312388,-0.0019437725849854185,-0.17644177927344784
6154,2.0,300.25113999999996,14526.072,0.0,0.0,-0.061539987010049924,0.0,0.0,0.0,-1.2281002591540588,-1.2402950280825886,-1.9471677834204981,-0.007057930562963513,-0.01172611643927759,-0.16061039494101184
6155,2.0,299.45547999999997,14716.497,0.0,0.0,-0.061549991430424056,0.0,0.0,0.0,-1.2498753077780886,-1.250083733323659,-1.9734885759681584,0.01014779398375929,-7.314568980091754e-05,-0.17052931295243284
6156,2.0,299.72758999999996,14713.888,0.0,0.0,-0.06155999585079819,0.0,0.0,0.0,-1.244851816432309,-1.263708907418359,-1.9640937210409584,0.009798699028131302,-0.01818376400309778,-0.16238510249116184
6157,2.0,300.2911,14643.365,0.0,0.0,-0.06157000027117243,0.0,0.0,0.0,-1.2470649573007289,-1.248987194065439,-1.955165163809778,0.013337395867548488,-0.0029989467184729974,-0.16247811885034186
6158,2.0,300.01039,14673.026000000002,0.0,0.0,-0.061580004691546675,0.0,0.0,0.0,-1.2599348547708888,-1.2370354025108887,-1.9632631599339878,0.014956520891343684,-0.017977834092524084,-0.14746023249319185
6159,2.0,300.0778,14788.58,0.0,0.0,-0.06159000911192092,0.0,0.0,0.0,-1.2603034751572686,-1.246822081251759,-1.988233492748368,0.0016781440050199184,0.016120553751974787,-0.13656679080059286
6160,2.0,300.47229,14784.77,0.0,0.0,-0.06160001353229483,0.0,0.0,0.0,-1.2722921490154588,-1.2493074824220487,-1.9726013741805983,-0.001053906861587509,0.015360108538674684,-0.13914272586731788
6161,2.0,300.16371000000004,14595.858999999999,0.0,0.0,-0.061609985043391546,0.0,0.0,0.0,-1.2319869852126488,-1.2375501335616887,-1.967239457301418,-0.027642840748135975,0.010818885736990889,-0.15880007164984686
6162,2.0,300.20307,14452.348999999998,0.0,0.0,-0.06161998946376568,0.0,0.0,0.0,-1.2381973977255687,-1.2140551942179187,-1.9409007302269883,-0.015487950303791683,-0.0015458937913678385,-0.16697430471158084
6163,2.0,299.89064,14503.256000000001,0.0,0.0,-0.06162999388413981,0.0,0.0,0.0,-1.246875884832069,-1.2161782571524489,-1.9455735357131585,-0.015864764843730384,0.0022443978101548178,-0.16396311793189985
6164,2.0,299.31117,14715.604,0.0,0.0,-0.061639998304514054,0.0,0.0,0.0,-1.2671638876093387,-1.2432389249231288,-1.962773253510638,0.007813649471172163,0.0005569343968101454,-0.15497136429198285
6165,2.0,299.48047,14792.002,0.0,0.0,-0.06165000272488819,0.0,0.0,0.0,-1.2568819322195888,-1.253762540461729,-1.985754779028738,-0.008820966586536621,-0.00913755384450635,-0.15040110984843386
6166,2.0,299.71732000000003,14602.203000000001,0.0,0.0,-0.06166000714526232,0.0,0.0,0.0,-1.253327248218769,-1.2286701110102989,-1.9567079384120378,0.017207545154502485,-0.015054466712260186,-0.13301342402490288
6167,2.0,300.05407,14664.087,0.0,0.0,-0.06167001156563645,0.0,0.0,0.0,-1.242205916446179,-1.2544678638563387,-1.9608424041200783,0.00974653529178314,-0.0037246307658924368,-0.15229335441018385
6168,2.0,299.91471,14805.918,0.0,0.0,-0.06168001598601058,0.0,0.0,0.0,-1.2651888605144188,-1.2557924857120688,-1.979648123326058,0.02075159205577268,-0.004402316852099845,-0.14557509081464287
6169,2.0,300.60724,14818.665,0.0,0.0,-0.0616899874971073,0.0,0.0,0.0,-1.2591581985692386,-1.2814444318687188,-1.9639016088219983,0.00043635259905714865,0.004616939840581486,-0.16416003295633383
6170,2.0,300.82,14598.021,0.0,0.0,-0.06169999191748132,0.0,0.0,0.0,-1.2384234538228789,-1.2393770234919887,-1.9596333941007582,-0.004367424672981256,-0.0026828629444779575,-0.15057152838275287
6171,2.0,300.24166,14438.133999999998,0.0,0.0,-0.06170999633785568,0.0,0.0,0.0,-1.227634366758079,-1.2298595653026887,-1.9313381824082383,0.0013013966435628489,0.0033706427242065364,-0.16842561322731384
6172,2.0,299.80393,14498.916000000001,0.0,0.0,-0.06172000075822981,0.0,0.0,0.0,-1.2343983178006288,-1.2287770088958487,-1.944133099370998,-0.01084671971723789,0.0041919302622863055,-0.16575030872328184
6173,2.0,299.97091,14730.24,0.0,0.0,-0.06173000517860394,0.0,0.0,0.0,-1.2457057836165888,-1.2730149003117885,-1.9589045633038282,-0.003525501789989936,-0.0032879375020191666,-0.1826796609965788
6174,2.0,299.56932,14812.028999999999,0.0,0.0,-0.061740009598978074,0.0,0.0,0.0,-1.266146280533909,-1.2673017909479487,-1.9690388881540082,-0.028019947104103472,-0.005027673738217765,-0.15980791099431285
6175,2.0,299.67,14696.64,0.0,0.0,-0.061750014019352206,0.0,0.0,0.0,-1.2505120341409288,-1.2551372168723989,-1.9617622325608581,-0.0035742992055308666,0.002192469451804888,-0.15306487343382685
6176,2.0,299.50798,14555.09,0.0,0.0,-0.061759985530448924,0.0,0.0,0.0,-1.2284729325408388,-1.238548894185259,-1.9573618900265781,0.004684654635489415,0.022990372204723077,-0.13923055438598586
6177,2.0,299.81793,14712.428,0.0,0.0,-0.06176998995082306,0.0,0.0,0.0,-1.261584223283669,-1.248580171500269,-1.962046347888898,0.012833687964586386,0.01071652113238829,-0.14299700765770587
6178,2.0,299.88723999999996,14915.181,0.0,0.0,-0.06177999437119708,0.0,0.0,0.0,-1.2804516494207387,-1.2492618861675486,-2.004129056342138,-0.0028818418580406472,0.0022455306237666177,-0.11757265773851788
6179,2.0,300.33431,14812.056999999999,0.0,0.0,-0.06178999879157121,0.0,0.0,0.0,-1.2833784223345888,-1.2637147842689387,-1.955402163008168,0.011558521832987289,-0.015846899217967184,-0.16386225901694584
6180,2.0,300.30762000000004,14685.438,0.0,0.0,-0.061800003211945564,0.0,0.0,0.0,-1.2527550658872988,-1.2417858229547187,-1.9694656690961283,0.01196588890319129,-0.005139730080026865,-0.14493442290891387
6181,2.0,299.97634,14691.872,0.0,0.0,-0.0618100076323197,0.0,0.0,0.0,-1.261204153171159,-1.2513449257231288,-1.953413153061868,0.019192850658436882,-0.005680723458843755,-0.18796635418833482
6182,2.0,300.07259,14814.51,0.0,0.0,-0.06182001205269383,0.0,0.0,0.0,-1.264349990756629,-1.2515788851712188,-1.9873120431074283,-0.006767903933840113,-0.002480882176169008,-0.1361888586457939
6183,2.0,300.25982999999997,14740.536,0.0,0.0,-0.061829983563790436,0.0,0.0,0.0,-1.2702261320615589,-1.2335142570883788,-1.9770145849911482,-0.008042818880739423,0.003467679355808307,-0.17249614285404383
6184,2.0,299.901,14663.8,0.0,0.0,-0.06183998798416468,0.0,0.0,0.0,-1.2493459859258487,-1.2477965238729287,-1.9602864337902082,-0.01986327873285298,0.01217785879761109,-0.13626130602794387
6185,2.0,299.48607000000004,14525.496000000001,0.0,0.0,-0.0618499924045387,0.0,0.0,0.0,-1.2292792769704188,-1.2376467976212289,-1.9484619064482183,-0.0014397130842386187,-0.0015138181435522186,-0.18469887592835982
6186,2.0,299.58314,14729.846000000001,0.0,0.0,-0.06185999682491283,0.0,0.0,0.0,-1.2453909668105188,-1.258647925818879,-1.973466385790968,-0.010072898589367689,-0.0065573289808329846,-0.13528623519171187
6187,2.0,299.49877000000004,14919.688,0.0,0.0,-0.061870001245286965,0.0,0.0,0.0,-1.2605740129339686,-1.2812117896457589,-1.9934270074609282,-0.013338900543946987,-0.008001775057613713,-0.16140203711164083
6188,2.0,299.96136,14775.043,0.0,0.0,-0.06188000566566121,0.0,0.0,0.0,-1.2534914960599788,-1.2523994151021987,-1.9853533293391181,-0.0038444735294199963,0.013932419896022789,-0.13305141077115187
6189,2.0,299.74509,14491.796999999999,0.0,0.0,-0.06189001008603545,0.0,0.0,0.0,-1.2247954426278989,-1.2398335939870488,-1.9405152898889482,0.011458789652144488,0.0061393542966570935,-0.17083891152048783
6190,2.0,299.9311,14616.223999999998,0.0,0.0,-0.061900014506409695,0.0,0.0,0.0,-1.2375081850075487,-1.238531162308509,-1.966927680245648,0.005940119638769164,0.014219107866066687,-0.15771727206298283
6191,2.0,300.25045,14922.638,0.0,0.0,-0.06190998601750619,0.0,0.0,0.0,-1.2833387029306687,-1.2608734283385188,-1.991897202459948,0.0039676564719022065,-0.013737518199537488,-0.17283724336770784
6192,2.0,300.21467,14890.713,0.0,0.0,-0.06191999043788032,0.0,0.0,0.0,-1.2686583301818288,-1.2762156560526787,-1.9815309446618783,0.004431657129945506,-0.002101955111096818,-0.17882315005597083
6193,2.0,300.29733,14661.573,0.0,0.0,-0.061929994858254456,0.0,0.0,0.0,-1.251366913250299,-1.2425397823541289,-1.9628453969177584,0.002915807622592807,-0.013802646876215187,-0.16103803714571685
6194,2.0,299.9655,14659.501,0.0,0.0,-0.06193999927862859,0.0,0.0,0.0,-1.2487584021928588,-1.235589089318149,-1.9717748660740284,0.0037670294057268565,0.005021035024887576,-0.13200431811781185
6195,2.0,300.23216,14838.611,0.0,0.0,-0.06195000369900283,0.0,0.0,0.0,-1.2794395138958488,-1.2494882462398889,-1.981639565072598,-0.012565851512652987,0.003317858473497137,-0.12070099649476089
6196,2.0,300.34637999999995,14994.875,0.0,0.0,-0.061960008119376964,0.0,0.0,0.0,-1.2879968162903888,-1.258148393519579,-2.0119224694862883,-0.014016790192099485,0.016668873030339686,-0.12796445957160887
6197,2.0,300.12944,14891.091999999999,0.0,0.0,-0.061970012539751096,0.0,0.0,0.0,-1.2848260527524589,-1.2573270529885188,-1.984367031691778,-0.016808413781111285,-0.004950063644158245,-0.13740985541379686
6198,2.0,299.76919,14610.826000000001,0.0,0.0,-0.061979984050847814,0.0,0.0,0.0,-1.2444368905163588,-1.232515699114829,-1.9643737833685981,-0.011380347882402888,0.003244501395407357,-0.15931784245094685
6199,2.0,300.31606,14669.588,0.0,0.0,-0.061989988471221946,0.0,0.0,0.0,-1.2380719573631889,-1.2459987142204987,-1.9751176794789382,0.017566874037465485,-0.0013371846370948486,-0.15034692123308585
6200,2.0,300.03122,14850.143,0.0,0.0,-0.06199999289159608,0.0,0.0,0.0,-1.2853067385998989,-1.2529711921336288,-1.9757949358457783,0.010647945378870389,0.00958745137838278,-0.16534167509045283
6201,2.0,299.92625,14871.465,0.0,0.0,-0.0620099973119701,0.0,0.0,0.0,-1.2705001148885988,-1.261437200694159,-1.988616703936188,0.009156314676732901,-0.00866892840903162,-0.15904054629607983
6202,2.0,299.66344,14604.091,0.0,0.0,-0.062020001732344454,0.0,0.0,0.0,-1.2503217457721487,-1.247162735935379,-1.9417944168151882,0.009407349922133152,-0.006770924736363243,-0.17645649166489982
6203,2.0,299.5798,14625.363000000001,0.0,0.0,-0.062030006152718586,0.0,0.0,0.0,-1.2313125659460886,-1.2543001709647887,-1.960132419775008,0.01070517475776849,-0.012381701412978788,-0.16660079032721783
6204,2.0,300.21205,14882.032,0.0,0.0,-0.06204001057309272,0.0,0.0,0.0,-1.2743049703391087,-1.2650812533537987,-1.984379798643038,0.0017315576866914384,0.0013289239130045785,-0.17186950846219984
6205,2.0,300.57731,14950.166000000001,0.0,0.0,-0.06205001499346685,0.0,0.0,0.0,-1.2672188057647589,-1.2853461540287887,-1.9919120972364182,-0.013441820409604387,-0.006828040732575154,-0.14010321603461087
6206,2.0,300.11657,14694.676000000001,0.0,0.0,-0.06205998650456357,0.0,0.0,0.0,-1.2718931311260788,-1.2254908361715289,-1.969430610642668,-0.01874051250904458,-0.0008708162567478732,-0.14550771981549387
6207,2.0,300.34108,14683.319,0.0,0.0,-0.0620699909249377,0.0,0.0,0.0,-1.2548216907912588,-1.2457248327184687,-1.9628156073648182,-0.005185970457615435,-0.0018354944501491983,-0.13317264614561686
6208,2.0,300.07322,14774.552,0.0,0.0,-0.06207999534531172,0.0,0.0,0.0,-1.2798552504118788,-1.2541247773724788,-1.957115062302218,-0.0017167944300844184,0.012041195677123489,-0.16768646754436584
6209,2.0,300.27218,14989.961000000001,0.0,0.0,-0.062089999765685855,0.0,0.0,0.0,-1.2925423575639987,-1.274251268083809,-1.989780219026018,0.008472318575527741,-0.010915331947759389,-0.16140369884180483
6210,2.0,300.2931,14945.907,0.0,0.0,-0.06210000418605999,0.0,0.0,0.0,-1.2865889052764385,-1.270787472616959,-1.9858062521338178,-0.004190594596004486,-0.007377600431712472,-0.17000100435029283
6211,2.0,299.91688999999997,14678.741000000002,0.0,0.0,-0.06211000860643434,0.0,0.0,0.0,-1.2492875213950787,-1.2361324953467787,-1.9765506177703582,0.018375759698296284,-0.002371802560503688,-0.15278816496401787
6212,2.0,299.80368,14736.608999999999,0.0,0.0,-0.062120013026808474,0.0,0.0,0.0,-1.2626731631661388,-1.242067911782559,-1.9748199865995584,0.009352006100346142,0.006704004430858723,-0.14773967673827085
6213,2.0,300.23098999999996,14983.347,0.0,0.0,-0.06212998453790497,0.0,0.0,0.0,-1.292384594523429,-1.256934519899779,-2.005244340727208,0.006340506834334304,-0.0033504000137087367,-0.1308621319425869
6214,2.0,299.35865,14977.126,0.0,0.0,-0.06213998895827921,0.0,0.0,0.0,-1.284000963196029,-1.2729369813790987,-1.9957344819136582,-0.008075588706198553,-0.0070877902328104325,-0.13937279443502387
6215,2.0,300.05817,14757.521999999999,0.0,0.0,-0.062149993378653456,0.0,0.0,0.0,-1.242909415990609,-1.2581016826899687,-1.9849070939950784,-0.006862204587521864,-0.004605718602349035,-0.15698558390077086
6216,2.0,299.78686,14726.528999999999,0.0,0.0,-0.06215999779902748,0.0,0.0,0.0,-1.2534277626286887,-1.2608609653622886,-1.9622084679048983,-0.008137092176668472,0.01131927625912559,-0.15415621471903385
6217,2.0,300.14687000000004,14851.802,0.0,0.0,-0.06217000221940161,0.0,0.0,0.0,-1.2644415885656688,-1.265454230715609,-1.9846811392227783,0.00937028847587547,0.0008318667202538533,-0.16080300365252084
6218,2.0,301.17422,14891.446000000002,0.0,0.0,-0.06218000663977574,0.0,0.0,0.0,-1.2821638394397188,-1.2572435611802788,-1.987220242648368,-0.004254457723307285,0.00033155943661486865,-0.14078186055408787
6219,2.0,300.6443,14774.915,0.0,0.0,-0.062190011060149986,0.0,0.0,0.0,-1.247626297856129,-1.260136086240749,-1.9834429476005782,0.008814525153000902,-0.0048812460278414745,-0.16788534827399385
6220,2.0,299.95644,14655.544,0.0,0.0,-0.06220001548052423,0.0,0.0,0.0,-1.2362960339129188,-1.246377467107879,-1.972246027370528,-0.0013825890833509189,0.001155474038361409,-0.17017593184755683
6221,2.0,299.85977,14838.371000000001,0.0,0.0,-0.062209986991620836,0.0,0.0,0.0,-1.2516264066009088,-1.2749719928799386,-1.9838957690702679,0.0007218226019508443,-0.015849728212246384,-0.18307293375789183
6222,2.0,299.69907,15069.228000000001,0.0,0.0,-0.06221999141199497,0.0,0.0,0.0,-1.2871136675032289,-1.2843232780528386,-2.009231986495758,0.004333773218610116,0.003960132684609666,-0.15793654951712383
6223,2.0,299.87552,14881.8,0.0,0.0,-0.0622299958323691,0.0,0.0,0.0,-1.2838648837075988,-1.2526749178043886,-1.9871556986169983,1.078540288743639e-05,0.01913643390611898,-0.14427661081149287
6224,2.0,299.89316,14686.569,0.0,0.0,-0.06224000025274323,0.0,0.0,0.0,-1.2474079424595788,-1.2431283793372188,-1.9738138292502583,0.01298202676597629,0.03159646461807827,-0.13274072802548986
6225,2.0,299.93531,14777.266000000001,0.0,0.0,-0.062250004673117365,0.0,0.0,0.0,-1.2678872468557287,-1.2503067496706688,-1.973725777816568,-0.006082768736872534,0.007508054254262262,-0.12309237818827187
6226,2.0,300.28207000000003,15046.059,0.0,0.0,-0.06226000909349161,0.0,0.0,0.0,-1.2896399026525487,-1.2732557498605588,-2.010730380743638,-0.002405893360118188,-0.008461069776892571,-0.14878795489422786
6227,2.0,300.12545,15080.018,0.0,0.0,-0.06227001351386574,0.0,0.0,0.0,-1.2943078445382385,-1.2819422416428488,-2.007698736444438,-0.008102857394214761,-0.007179290871165843,-0.16957978615122185
6228,2.0,299.58512,14882.472,0.0,0.0,-0.06227998502496246,0.0,0.0,0.0,-1.2737636921356887,-1.2736016734446987,-1.976534507093768,0.0004286943129463346,0.006177654441162025,-0.17657239734383884
6229,2.0,299.39422,14736.389,0.0,0.0,-0.06228998944533659,0.0,0.0,0.0,-1.2708890002769788,-1.2426549888904987,-1.965950299199188,0.0016978967077693583,-0.0026525204609583876,-0.16473630881820783
6230,2.0,298.92748,14781.496000000001,0.0,0.0,-0.06229999386571072,0.0,0.0,0.0,-1.2649117366120688,-1.2606950963209187,-1.967598654461868,0.0061235697852742845,0.0042989913824274155,-0.15256732710472284
6231,2.0,299.90527000000003,14816.01,0.0,0.0,-0.062309998286084856,0.0,0.0,0.0,-1.2595629919841889,-1.2403702112400088,-2.003763982331108,0.01093047902350429,0.0005844196467702285,-0.14445138632124185
6232,2.0,299.80601,14859.053999999998,0.0,0.0,-0.06232000270645888,0.0,0.0,0.0,-1.262321768031459,-1.2664528900141687,-1.988006828700998,0.016340832297214586,-0.004187761650049897,-0.16046754694191384
6233,2.0,299.55817,14708.401000000002,0.0,0.0,-0.06233000712683323,0.0,0.0,0.0,-1.2345821213687689,-1.260625486039049,-1.975779230469228,0.012721662020280288,-0.004371351017118756,-0.16158899188759185
6234,2.0,299.63486,14728.646,0.0,0.0,-0.062340011547207363,0.0,0.0,0.0,-1.2714694912592688,-1.2395930484133089,-1.9660780700367981,0.0034160272094356367,0.0022806703398846376,-0.16662770224987383
6235,2.0,300.17967999999996,15113.476999999999,0.0,0.0,-0.062350015967581496,0.0,0.0,0.0,-1.2918700661226488,-1.2896117342997686,-2.012637925381898,-0.0014282396480562785,0.012320741247212488,-0.15036445045981586
6236,2.0,300.4826,15095.528999999999,0.0,0.0,-0.06235998747867799,0.0,0.0,0.0,-1.3081401269533788,-1.2733808862479088,-2.007142867439578,-0.013998664161060586,0.01976405520356038,-0.14702365342260487
6237,2.0,300.09596,14849.028,0.0,0.0,-0.062369991899052346,0.0,0.0,0.0,-1.2495903818499687,-1.2670570910487988,-1.997086258872068,-0.02119789123456898,0.007306780430548083,-0.13860881399212488
6238,2.0,299.50985,14749.025,0.0,0.0,-0.06237999631942648,0.0,0.0,0.0,-1.2630497882283087,-1.2543203346417788,-1.965964991325638,-0.020233213304612682,-0.016273054984775485,-0.16579645213283584
6239,2.0,299.65226,14878.58,0.0,0.0,-0.0623900007398005,0.0,0.0,0.0,-1.2665281744965988,-1.2569244887237887,-1.9992642399620182,-0.007839260887324812,0.004377935217593566,-0.16622342559247483
6240,2.0,299.98899,14948.79,0.0,0.0,-0.06240000516017463,0.0,0.0,0.0,-1.3056842113609988,-1.268566428397759,-1.9698081476299283,0.005593594488044795,0.008314590897386231,-0.17283012021950483
6241,2.0,300.45955,14868.915,0.0,0.0,-0.062410009580548764,0.0,0.0,0.0,-1.2690314088686487,-1.2540587134659589,-1.996688760857838,0.008243345939129901,0.0062666366463938845,-0.14279407392767787
6242,2.0,299.92995,14783.008999999998,0.0,0.0,-0.06242001400092312,0.0,0.0,0.0,-1.2811921325938187,-1.244487451696349,-1.9679859186500879,0.004945396918172675,4.808901287926605e-06,-0.14951305693078984
6243,2.0,299.90007,14915.998,0.0,0.0,-0.062429985512019615,0.0,0.0,0.0,-1.2735990389944387,-1.2498996257804886,-2.010592274755008,0.0015296256557122984,0.008142647826966772,-0.11656358222892989
6244,2.0,300.2231,15096.665,0.0,0.0,-0.06243998993239375,0.0,0.0,0.0,-1.2961152800666187,-1.285773441595959,-2.007120474612368,0.00914269081986333,-0.006655943344165464,-0.16661261495588484
6245,2.0,300.31581,15184.665,0.0,0.0,-0.06244999435276799,0.0,0.0,0.0,-1.3034740089178687,-1.2898755846258088,-2.0224094053712682,0.004522969202457305,-0.006441407393867415,-0.14059844202098587
6246,2.0,300.34715,14997.903,0.0,0.0,-0.062459998773142233,0.0,0.0,0.0,-1.2856643145601887,-1.2813611427104987,-1.991962455766388,0.0075296159124152336,-0.013211791358652287,-0.17529091967736682
6247,2.0,299.87695,14821.42,0.0,0.0,-0.062470003193516255,0.0,0.0,0.0,-1.2564877779306887,-1.2559642316040187,-1.992889478282878,0.0013813370102023488,0.01150501209520629,-0.15484446484945885
6248,2.0,299.435,14809.114,0.0,0.0,-0.06248000761389039,0.0,0.0,0.0,-1.2609952210005386,-1.2552420882577489,-1.985363563165128,0.002117412038722298,0.017413674675345884,-0.17304031895274985
6249,2.0,299.82965,14862.502,0.0,0.0,-0.06249001203426452,0.0,0.0,0.0,-1.2633379565567486,-1.2577376219290386,-1.9967539128392682,-0.0030399948985741373,0.015005446685672285,-0.15158840591811085
6250,2.0,299.8843,14786.048999999999,0.0,0.0,-0.06249998354536124,0.0,0.0,0.0,-1.2490334995950088,-1.2652182447673188,-1.9803378426691283,-0.021352013667529684,-0.004234015807839826,-0.16139974716641484
6251,2.0,299.4932,14757.578000000001,0.0,0.0,-0.06250998796573537,0.0,0.0,0.0,-1.242448893820159,-1.2611014096110187,-1.9823848105211483,-0.006963202317739564,0.009354118929454662,-0.17515268196622383
6252,2.0,299.50487000000004,14923.466999999999,0.0,0.0,-0.06251999238610961,0.0,0.0,0.0,-1.2696865763833087,-1.2734845417331386,-1.9931904135625782,0.003848226101165346,-0.0018333501089625682,-0.15890775987047484
6253,2.0,299.59932000000003,15198.851,0.0,0.0,-0.06252999680648375,0.0,0.0,0.0,-1.2987127466979687,-1.2903419836468386,-2.0310163570207083,0.020269159365160282,-0.019265256497332784,-0.15847840527310084
6254,2.0,300.89605,15243.593,0.0,0.0,-0.06254000122685788,0.0,0.0,0.0,-1.3155627918859387,-1.2882168942121088,-2.029892054709748,0.017570726414345685,-0.03982306244498026,-0.13695607135651186
6255,2.0,300.57995,14993.591999999999,0.0,0.0,-0.06255000564723201,0.0,0.0,0.0,-1.2876181647280187,-1.2717897796158788,-1.998269734988868,0.02159506804851728,-0.016526089879248085,-0.15012120964080988
6256,2.0,300.33963,14855.862,0.0,0.0,-0.06256001006760614,0.0,0.0,0.0,-1.2586815657221988,-1.258135221268279,-1.9989944114603881,0.014485420389849686,-0.01017366631181269,-0.14804324646823086
6257,2.0,299.78292000000005,14899.711000000001,0.0,0.0,-0.06257001448798039,0.0,0.0,0.0,-1.2705745887709488,-1.2676017129775488,-1.990963897792838,-0.007715481444508732,-0.0033286542480125965,-0.16529217782306785
6258,2.0,300.02475,14950.284,0.0,0.0,-0.06257998599907688,0.0,0.0,0.0,-1.274800449638009,-1.2728880413992687,-1.9968246376962482,-0.013871213510482188,-0.009446591983931042,-0.16337221073858182
6259,2.0,299.64425,14758.031,0.0,0.0,-0.06258999041945124,0.0,0.0,0.0,-1.2631922511923688,-1.2465578256256789,-1.9763229404728881,-0.02387688092921468,0.020915997963998283,-0.16656231722092085
6260,2.0,299.67447999999996,14699.993,0.0,0.0,-0.06259999483982537,0.0,0.0,0.0,-1.2458240299032588,-1.254241098483959,-1.9683657861125783,-0.011253803077413888,0.015111925085680886,-0.16439711321473183
6261,2.0,299.31921,14785.021999999999,0.0,0.0,-0.0626099992601995,0.0,0.0,0.0,-1.269656077555299,-1.2491602571825189,-1.975461171262838,-0.012604532335220487,-0.0010031236683680981,-0.15303930913380384
6262,2.0,299.89025,15148.751,0.0,0.0,-0.06262000368057363,0.0,0.0,0.0,-1.287607930902009,-1.2996161604871288,-2.017618049623398,0.00030530798077155175,-0.012241304465872687,-0.15645189494059986
6263,2.0,300.30717000000004,15233.331,0.0,0.0,-0.06263000810094765,0.0,0.0,0.0,-1.3113551695206789,-1.3055824810509589,-2.013614495828278,0.012087596452202887,-0.0006868564555749544,-0.15266416341677985
6264,2.0,300.13895,15005.965,0.0,0.0,-0.06264001252132201,0.0,0.0,0.0,-1.2694113776561489,-1.2776047206147687,-2.014422664108038,0.023022161913360477,0.0021562620740564983,-0.15408266289427486
6265,2.0,300.18174,14878.253,0.0,0.0,-0.0626499840324185,0.0,0.0,0.0,-1.2521893683564687,-1.2781638320199489,-1.9922641003211583,0.005503301339833556,-0.008752908097194772,-0.15547409846159888
6266,2.0,300.52862999999996,14935.823999999999,0.0,0.0,-0.06265998845279264,0.0,0.0,0.0,-1.2740009953091087,-1.2713592496483888,-1.994757303517218,-0.00045073797417187456,-0.01037369606705409,-0.15918562344539786
6267,2.0,300.09873999999996,15016.575,0.0,0.0,-0.06266999287316677,0.0,0.0,0.0,-1.286332755651159,-1.2787372302515387,-1.999593748894538,-0.008262613295081442,0.011293599488341488,-0.16537330875857484
6268,2.0,299.92807,14890.231000000002,0.0,0.0,-0.06267999729354112,0.0,0.0,0.0,-1.2808592799359688,-1.2710730064951388,-1.9743260271758083,-0.005525903909814255,0.018382494771710983,-0.17015759202074682
6269,2.0,299.56675,14748.626,0.0,0.0,-0.06269000171391526,0.0,0.0,0.0,-1.2527092669827788,-1.2500897114992486,-1.980414951001738,-0.020550093087886283,0.01097887184828029,-0.17151827544753584
6270,2.0,299.86987999999997,14970.82,0.0,0.0,-0.06270000613428928,0.0,0.0,0.0,-1.2768961548198385,-1.2796474328163687,-1.9942119723133982,-0.004909399485845006,0.0017107822092910583,-0.15970875433952686
6271,2.0,300.47224,15331.671999999999,0.0,0.0,-0.06271001055466341,0.0,0.0,0.0,-1.3056819822107788,-1.3042639386958288,-2.050499535243548,0.01083234575131929,0.009770268243575402,-0.14319244333699385
6272,2.0,300.60205,15397.107,0.0,0.0,-0.06272001497503754,0.0,0.0,0.0,-1.3429517526890187,-1.2960274312829487,-2.041356776941228,0.01064369580795099,0.01138088389170579,-0.12976591692439887
6273,2.0,300.29457,15139.048999999999,0.0,0.0,-0.06272998648613426,0.0,0.0,0.0,-1.2934149685501186,-1.2928504869194088,-2.015627317151928,-0.004058347118127676,-0.010981998738088888,-0.12406534146429588
6274,2.0,300.30955,14890.971000000001,0.0,0.0,-0.06273999090650839,0.0,0.0,0.0,-1.2869127400083988,-1.2570077778820088,-1.982562838563718,-0.013520433418612886,-0.013552368022014588,-0.14587902531463887
6275,2.0,299.6567,15017.301000000001,0.0,0.0,-0.06274999532688252,0.0,0.0,0.0,-1.2848395289787886,-1.2708704578001486,-2.0091743325650677,-0.0038834136426880864,0.02058848918717568,-0.14551085075830286
6276,2.0,299.67715,15157.726999999999,0.0,0.0,-0.06275999974725677,0.0,0.0,0.0,-1.295425662048559,-1.2874022411317088,-2.024742616376538,0.010952816121958791,0.02372143823137368,-0.16500881230010184
6277,2.0,299.65283999999997,14906.143,0.0,0.0,-0.06277000416763101,0.0,0.0,0.0,-1.2629285021913386,-1.2522456037370187,-2.0159209570309082,0.002951368749427417,0.016632549027504787,-0.14581140100296486
6278,2.0,299.2791,14655.778999999999,0.0,0.0,-0.06278000858800503,0.0,0.0,0.0,-1.2441037338834788,-1.2438291431063788,-1.967057781558488,-0.004918312337699636,-0.004236234926883836,-0.16829913934983182
6279,2.0,299.95617000000004,14799.931999999999,0.0,0.0,-0.06279001300837916,0.0,0.0,0.0,-1.2617678242017887,-1.2461711693875188,-1.9908708814336582,0.011918414083005887,0.006495544941410374,-0.16145656009952183
6280,2.0,300.70302999999996,15133.173999999999,0.0,0.0,-0.06279998451947566,0.0,0.0,0.0,-1.3042544141448886,-1.2722544561117386,-2.023598150388588,0.0032475591815591368,0.003286236660401307,-0.17090901829490684
6281,2.0,301.28879,15288.882,0.0,0.0,-0.06280998893985001,0.0,0.0,0.0,-1.306205629862459,-1.3059516080623887,-2.035281126691608,0.0026412113739422674,-0.006051216939358614,-0.15238256094898786
6282,2.0,300.84457000000003,15105.938999999998,0.0,0.0,-0.06281999336022415,0.0,0.0,0.0,-1.2804759674231385,-1.2783135903847287,-2.033038702895298,-0.02093374199974948,-0.006640069869423873,-0.16420419039569184
6283,2.0,299.74015,14966.461000000001,0.0,0.0,-0.06282999778059839,0.0,0.0,0.0,-1.267956451837559,-1.2823262634307488,-1.999147614875508,0.01021622180276259,0.017698519543457882,-0.14344168259659187
6284,2.0,299.16272000000004,15082.046999999999,0.0,0.0,-0.06284000220097252,0.0,0.0,0.0,-1.2961693876219589,-1.267241097266959,-2.0211553057224982,0.016149079782040086,0.017301603134785286,-0.15017374665849487
6285,2.0,299.65263999999996,15266.63,0.0,0.0,-0.06285000662134665,0.0,0.0,0.0,-1.310121334873909,-1.2886564421054887,-2.041896332619478,0.0028992133217300774,-0.007435123855789592,-0.14529913214990786
6286,2.0,299.1709,15053.391000000001,0.0,0.0,-0.06286001104172079,0.0,0.0,0.0,-1.2994935572250288,-1.263103997108659,-2.013257426493038,0.001129479917645989,-0.009314949720338962,-0.15046851124508584
6287,2.0,299.44066000000004,14841.133,0.0,0.0,-0.06287001546209492,0.0,0.0,0.0,-1.2529196177035387,-1.2641770289645589,-1.9942371009158781,0.012617922435291988,-0.00038869905168660964,-0.17740771059377783
6288,2.0,299.7159,14957.176000000001,0.0,0.0,-0.06287998697319142,0.0,0.0,0.0,-1.2583365540631488,-1.2602999287819188,-2.027971439145198,0.015952751429413985,0.01034089310831669,-0.15989569898297687
6289,2.0,300.16237,15227.702,0.0,0.0,-0.06288999139356566,0.0,0.0,0.0,-1.3116281390976186,-1.2841459592853388,-2.0330669725730877,-0.006901852455984804,-0.016890532635465784,-0.16463202511791583
6290,2.0,300.68945,15322.317,0.0,0.0,-0.06289999581394001,0.0,0.0,0.0,-1.3281152380997687,-1.2882897468942989,-2.041196683425428,-0.017736517435457986,-0.02217832723008048,-0.12393044747848289
6291,2.0,300.02038999999996,15110.419,0.0,0.0,-0.06291000023431415,0.0,0.0,0.0,-1.2982262853249589,-1.2830290537001088,-2.0119348311375083,-0.02234671014494858,0.007545510564083913,-0.15875113167001687
6292,2.0,299.98326000000003,15078.79,0.0,0.0,-0.06292000465468828,0.0,0.0,0.0,-1.2935540877888487,-1.2741415330979788,-2.0158799204018583,-0.005364391742549245,0.004921118837826615,-0.12949348437001187
6293,2.0,299.90504,15159.593,0.0,0.0,-0.06293000907506241,0.0,0.0,0.0,-1.2977253344755186,-1.288995070288909,-2.021417332198358,-0.011619011850707187,-0.003300790782187687,-0.17376588708435783
6294,2.0,299.91936,15274.55,0.0,0.0,-0.06294001349543643,0.0,0.0,0.0,-1.3006465345138187,-1.3041397142335687,-2.038295647064118,-0.0037930810790479563,-0.0004088410856544736,-0.15718979432592484
6295,2.0,300.46049,15075.645,0.0,0.0,-0.06294998500653304,0.0,0.0,0.0,-1.289995350787629,-1.2828077598782688,-2.0098166318034583,0.02101803427556848,0.01023330823919889,-0.17276714672578983
6296,2.0,300.09584,14776.808,0.0,0.0,-0.06295998942690728,0.0,0.0,0.0,-1.2500456351198987,-1.2635261171003187,-1.978209105534038,0.009772669544987391,0.002356062834775298,-0.15109188297160786
6297,2.0,300.0458,14755.853000000001,0.0,0.0,-0.06296999384728141,0.0,0.0,0.0,-1.246544957349409,-1.263358829508809,-1.9755070714923681,-0.0023301951676723575,-0.02329351130339058,-0.17657251893385084
6298,2.0,300.12233,15151.711000000001,0.0,0.0,-0.06297999826765555,0.0,0.0,0.0,-1.3044948583936187,-1.283289155000779,-2.017957691056918,0.0033877951232243464,-0.01120852194369499,-0.15483162697069183
6299,2.0,300.09153,15294.985,0.0,0.0,-0.0629900026880299,0.0,0.0,0.0,-1.3018721618347788,-1.3177630644780887,-2.0296582979116784,-0.004777829770960086,0.018200727836271982,-0.18101444525223484
6300,2.0,299.96058,15133.748,0.0,0.0,-0.06300000710840403,0.0,0.0,0.0,-1.2949117415978388,-1.2872287727145886,-2.0181409880000083,-0.0016590094861564882,0.02145143680709198,-0.16594075921207782
6301,2.0,300.24757,15033.225,0.0,0.0,-0.06301001152877805,0.0,0.0,0.0,-1.2925726537419886,-1.273319584616859,-2.0038326806878883,-0.011907368643665789,-0.014111268671173786,-0.16475349353990384
6302,2.0,299.89992,15142.653999999999,0.0,0.0,-0.06302001594915219,0.0,0.0,0.0,-1.302903650436579,-1.280206544221549,-2.019878610596498,0.0030210519853046173,0.0019793104070677282,-0.13238783328066187
6303,2.0,300.74893,15350.678,0.0,0.0,-0.0630299874602489,0.0,0.0,0.0,-1.326261902341859,-1.3041527851598589,-2.035808016743608,0.01072869330583959,0.0026776495700634377,-0.13630056946931887
6304,2.0,300.35947999999996,15299.921999999999,0.0,0.0,-0.06303999188062304,0.0,0.0,0.0,-1.3128570088188987,-1.2937016170034088,-2.0442356231253482,-2.6460601809708077e-06,0.014066921754047087,-0.11949599894583687
6305,2.0,300.60322,15081.5,0.0,0.0,-0.06304999630099717,0.0,0.0,0.0,-1.269216428336909,-1.294579294240029,-2.020603591043048,-0.014836514589249988,-0.015794428061538687,-0.16383135488889583
6306,2.0,300.54657000000003,15055.943000000001,0.0,0.0,-0.0630600007213713,0.0,0.0,0.0,-1.2978629338390988,-1.276839311489229,-2.001928479774958,0.001090927271216139,0.002993107763446737,-0.15535313666466086
6307,2.0,300.50581,15144.613000000001,0.0,0.0,-0.06307000514174554,0.0,0.0,0.0,-1.3047164561904887,-1.284117486957529,-2.0147504505153884,0.013089422157325387,0.014310364209822988,-0.1824673648356268
6308,2.0,301.03211,15183.723,0.0,0.0,-0.06308000956211979,0.0,0.0,0.0,-1.3048413899278186,-1.2870738467742988,-2.0235573164095584,0.002371650978288728,-0.007036739855672153,-0.14699870720514285
6309,2.0,300.76832,15055.288999999999,0.0,0.0,-0.06309001398249381,0.0,0.0,0.0,-1.274595266492759,-1.2759017511716988,-2.025935110419228,0.0006289830650457954,-0.026822154776640576,-0.16640141310504086
6310,2.0,300.18372999999997,14986.865,0.0,0.0,-0.06309998549359053,0.0,0.0,0.0,-1.280897175489709,-1.2589545352991387,-2.015781229842118,-0.0023236112711725776,0.005233289642585475,-0.16192215865297285
6311,2.0,300.44681,15301.35,0.0,0.0,-0.06310998991396444,0.0,0.0,0.0,-1.3044194725861789,-1.3015950379324288,-2.0452138147718877,0.017070230514200587,0.024514678297410376,-0.17032964188772684
6312,2.0,300.53266,15402.543,0.0,0.0,-0.06311999433433879,0.0,0.0,0.0,-1.3396083313340488,-1.3017357783713188,-2.040644259470908,-0.015303246969562884,0.009927937761161172,-0.15579496437076587
6313,2.0,300.05942000000005,15179.008999999998,0.0,0.0,-0.06312999875471292,0.0,0.0,0.0,-1.2907855845406189,-1.2990662696578588,-2.0241879632717983,-0.01290015615789629,-0.008340764869994402,-0.16276369325852583
6314,2.0,299.95428,15108.108999999999,0.0,0.0,-0.06314000317508717,0.0,0.0,0.0,-1.2900133866394088,-1.2812091551954987,-2.021265344683358,-0.012641610196129787,0.012037044391463789,-0.15300681420309686
6315,2.0,299.92582999999996,15057.201000000001,0.0,0.0,-0.0631500075954613,0.0,0.0,0.0,-1.2860955538027488,-1.2764925773050089,-2.014424994583268,0.012587678946307187,0.009153271684032582,-0.14799019269299488
6316,2.0,299.39746,14981.05,0.0,0.0,-0.06316001201583543,0.0,0.0,0.0,-1.255128198946509,-1.2791199348143087,-2.019616989420678,-0.007242020880881813,-0.007254785197691554,-0.15672643505519487
6317,2.0,299.80355,15087.798999999999,0.0,0.0,-0.06317001643620956,0.0,0.0,0.0,-1.2750268097103488,-1.2879829347640188,-2.023304409184598,0.005733932767970105,-0.028793855371482272,-0.15428492787923687
6318,2.0,299.81236,15182.451000000001,0.0,0.0,-0.06317998794730628,0.0,0.0,0.0,-1.3221903594650288,-1.2705804656215287,-2.022315274436978,0.014772749747206883,0.004038607891604566,-0.17508134915918383
6319,2.0,300.24023,15149.358,0.0,0.0,-0.06318999236768019,0.0,0.0,0.0,-1.2939772210306089,-1.2841513295108686,-2.026897900664248,0.02201067588178458,0.001054241639420549,-0.17157198783533684
6320,2.0,300.24359,15140.594,0.0,0.0,-0.06319999678805444,0.0,0.0,0.0,-1.2990521854814687,-1.2690363737941386,-2.034273854767198,0.0038560136374589165,-0.005582636492188324,-0.15267721407806786
6321,2.0,301.07698,15413.431999999999,0.0,0.0,-0.06321000120842879,0.0,0.0,0.0,-1.3230976236045688,-1.3050387710472988,-2.057162059951088,-0.013687238703075286,-0.017348991828712183,-0.14372379168943386
6322,2.0,299.98294,15399.698,0.0,0.0,-0.06322000562880292,0.0,0.0,0.0,-1.3156217630417588,-1.2946058413926487,-2.070896158431538,-0.008039665342453192,0.024339768025398077,-0.13388785886120289
6323,2.0,300.337,15147.908000000001,0.0,0.0,-0.06323001004917705,0.0,0.0,0.0,-1.2902273850605288,-1.2871742598592089,-2.027184245142508,-0.001882555256343738,0.03052052270789107,-0.16467498692215585
6324,2.0,300.29817,15134.954,0.0,0.0,-0.06324001446955119,0.0,0.0,0.0,-1.3031298078588986,-1.270855765673699,-2.026662623991028,-0.017021872139927983,0.015831384332435982,-0.14260686583920187
6325,2.0,300.2193,15222.386999999999,0.0,0.0,-0.0632499859806479,0.0,0.0,0.0,-1.2852241587167488,-1.3013728321854987,-2.040628452769348,-0.019497523817755782,-0.01859443021562738,-0.16912546507138385
6326,2.0,299.62677,15269.203000000001,0.0,0.0,-0.06325999040102182,0.0,0.0,0.0,-1.3105973597708886,-1.3015928087822088,-2.029266068797968,0.006312087499504535,0.009786455724522981,-0.13664255151056987
6327,2.0,300.25397999999996,15242.591999999999,0.0,0.0,-0.06326999482139606,0.0,0.0,0.0,-1.3008778595116488,-1.2903069251933788,-2.042182474447718,0.014240961644223485,0.005478230593934265,-0.15935893987500285
6328,2.0,299.78828,15096.668,0.0,0.0,-0.06327999924177019,0.0,0.0,0.0,-1.270787168641929,-1.2973804241414788,-2.020842515416628,0.005820762829989564,-0.016595262437074883,-0.15056495238960385
6329,2.0,299.78337,15033.711000000001,0.0,0.0,-0.06329000366214432,0.0,0.0,0.0,-1.2787877914315289,-1.274702265703319,-2.0163826951014783,-0.0060730731493156545,-0.02458074423043058,-0.16292976494991585
6330,2.0,299.29169,15274.588,0.0,0.0,-0.06330000808251868,0.0,0.0,0.0,-1.313309526313559,-1.300725973321659,-2.029057744577408,0.01154670531032109,0.006773164525709295,-0.15937974189955584
6331,2.0,299.29393999999996,15393.763,0.0,0.0,-0.06331001250289281,0.0,0.0,0.0,-1.3264694159623387,-1.3165431113576886,-2.036307042417858,0.010616895342805991,0.014522464813505685,-0.16360641336669585
6332,2.0,299.35549,15158.055,0.0,0.0,-0.0633199840139893,0.0,0.0,0.0,-1.3168402976120186,-1.277724385451579,-2.0131054389780383,-0.008530204945790681,-0.0017868342286718084,-0.16146028885988986
6333,2.0,299.97978,15049.645,0.0,0.0,-0.06332998843436344,0.0,0.0,0.0,-1.2828297474054389,-1.2862532155183088,-2.005633327440598,-0.015882184639449588,-0.007326940561162733,-0.15528392155032983
6334,2.0,299.83997999999997,15286.104,0.0,0.0,-0.06333999285473768,0.0,0.0,0.0,-1.3019467370421387,-1.3089098930543488,-2.035737291886628,-0.0025245646038801277,0.014067937030647288,-0.16241615860672684
6335,2.0,299.74798,15255.646,0.0,0.0,-0.06334999727511181,0.0,0.0,0.0,-1.3101412959008787,-1.2992910085300386,-2.027903146088458,-0.0011945168951896388,0.0023004880932904976,-0.15763112553948086
6336,2.0,300.12241,15099.79,0.0,0.0,-0.06336000169548595,0.0,0.0,0.0,-1.2776984462490188,-1.3087347021120588,-2.003526172532638,-0.0022158076413581877,-0.019663795119415482,-0.17965206969777883
6337,2.0,300.37517,15079.503999999999,0.0,0.0,-0.06337000611586008,0.0,0.0,0.0,-1.2816150631855587,-1.2818990771885885,-2.0202785404109678,-0.006521046419927175,-0.02129153682206108,-0.15541265497553486
6338,2.0,300.26775,15079.412,0.0,0.0,-0.06338001053623432,0.0,0.0,0.0,-1.2962486237797788,-1.2751668408741688,-2.012349047778388,0.013633689448540386,0.007569494903225983,-0.16719873960873086
6339,2.0,300.4624,15318.787,0.0,0.0,-0.06339001495660845,0.0,0.0,0.0,-1.2933562000443186,-1.3056309144057385,-2.057541522113538,0.007848697893456174,0.013285975451473687,-0.15577110233091085
6340,2.0,300.55384,15392.5,0.0,0.0,-0.06339998646770517,0.0,0.0,0.0,-1.3346491813696186,-1.2900250390155588,-2.054261428889818,0.0049509201444677756,-0.007008505337660624,-0.15048507788422086
6341,2.0,299.71501,15257.298999999999,0.0,0.0,-0.0634099908880793,0.0,0.0,0.0,-1.3071097529266889,-1.2864535350630788,-2.0442747345792083,0.01163115058690519,-0.016587870777595385,-0.15368911655543485
6342,2.0,299.35036,15152.864,0.0,0.0,-0.06341999530845321,0.0,0.0,0.0,-1.2965820843876885,-1.2782009169736088,-2.031309287624618,0.009369562684828841,0.0038971462212933866,-0.16031262100162383
6343,2.0,299.21349,15303.687,0.0,0.0,-0.06342999972882757,0.0,0.0,0.0,-1.3071935487099589,-1.2954171507477186,-2.0493280154779283,-0.0026096760924049773,-0.0062065397697127845,-0.15840068899043086
6344,2.0,299.91775,15330.431,0.0,0.0,-0.0634400041492017,0.0,0.0,0.0,-1.3215710610039089,-1.3044842192675687,-2.034012740216428,-0.01951023808001058,-0.01629108475705488,-0.15643844911177285
6345,2.0,299.51362,15095.075,0.0,0.0,-0.06345000856957594,0.0,0.0,0.0,-1.2745394364122489,-1.277061213261129,-2.0369252263038677,-0.02336134333133508,0.0005962470416100014,-0.15918452913528985
6346,2.0,299.66326000000004,15033.078000000001,0.0,0.0,-0.06346001298995008,0.0,0.0,0.0,-1.2828648058588987,-1.2800001451761789,-2.006815486332268,0.000982982688180338,0.015764894860873985,-0.16407851698578885
6347,2.0,299.80237999999997,15200.496000000001,0.0,0.0,-0.0634699845010468,0.0,0.0,0.0,-1.2931949919534087,-1.2875275801690789,-2.039848655492388,-0.0024470735667073574,0.006179958673214433,-0.15459054437439887
6348,2.0,300.07175,15298.413999999999,0.0,0.0,-0.06347998892142093,0.0,0.0,0.0,-1.3028745701587088,-1.304900563733659,-2.0425606193850383,0.0019801437039499684,-0.027062005260811976,-0.1760311394054208
6349,2.0,299.99934,15406.131000000001,0.0,0.0,-0.06348999334179506,0.0,0.0,0.0,-1.310651264676209,-1.3056821848607987,-2.0667455820469085,0.01028569225611879,-0.016162396928104384,-0.14002868135725488
6350,2.0,300.55604,15431.059,0.0,0.0,-0.06349999776216897,0.0,0.0,0.0,-1.316503493278779,-1.3103364478701387,-2.063816782632858,0.013741267224907486,0.015379499105838385,-0.15853504595369083
6351,2.0,300.11922999999996,15246.597,0.0,0.0,-0.06351000218254321,0.0,0.0,0.0,-1.2908205416690688,-1.285344330178609,-2.058419908625228,0.014863103285124087,0.009343670091773441,-0.14040644125953686
6352,2.0,300.55814,15266.123,0.0,0.0,-0.06352000660291757,0.0,0.0,0.0,-1.3190410768292187,-1.2839596225919487,-2.037519497487518,0.0016449601655699284,-0.011594248018263188,-0.16063456095589684
6353,2.0,300.37462999999997,15384.851999999999,0.0,0.0,-0.0635300110232917,0.0,0.0,0.0,-1.3260373661196987,-1.2894626852100588,-2.061110898240808,-0.004630233985868515,-0.0006035526660235104,-0.14563172136273186
6354,2.0,299.29102,15276.081,0.0,0.0,-0.06354001544366583,0.0,0.0,0.0,-1.3125799862415588,-1.3100636809432187,-2.020903513072648,0.0007909570413088822,-0.0005903280094283385,-0.16774052443720083
6355,2.0,299.40206,15157.873,0.0,0.0,-0.06354998695476233,0.0,0.0,0.0,-1.2838332703044788,-1.2956735030230186,-2.028108126583688,-0.020095921969063082,0.014372032637409184,-0.16325127933914685
6356,2.0,300.08599,15247.493999999999,0.0,0.0,-0.06355999137513668,0.0,0.0,0.0,-1.300185911018359,-1.296642575418659,-2.038028858312788,-0.014479154451231288,-0.0019237393132832885,-0.16057618761763584
6357,2.0,299.57425,15356.591999999999,0.0,0.0,-0.06356999579551059,0.0,0.0,0.0,-1.3073110857215589,-1.3051835644865888,-2.055525661039588,-0.013042219901416888,0.017041020540317784,-0.14733383967571786
6358,2.0,299.88439,15307.792,0.0,0.0,-0.06358000021588484,0.0,0.0,0.0,-1.3187501727255089,-1.2929632616555387,-2.041473199377718,0.006406198067467525,0.025922931789894178,-0.15385808614211086
6359,2.0,299.88392999999996,15412.041000000001,0.0,0.0,-0.06359000463625897,0.0,0.0,0.0,-1.3105481158160288,-1.3205843580565289,-2.0537430501386584,-0.001058114382627759,-0.0005106867339533565,-0.1769768361212538
6360,2.0,300.03187,15401.815,0.0,0.0,-0.0636000090566331,0.0,0.0,0.0,-1.328955830382729,-1.3060359104707089,-2.046775233175988,0.016749574347804285,-0.02051812403398118,-0.15140293048730585
6361,2.0,300.15407000000005,15317.458999999999,0.0,0.0,-0.06361001347700745,0.0,0.0,0.0,-1.3026960354910886,-1.3004074074902188,-2.053021818717478,0.010210157500914089,-0.008892930648388923,-0.16066218215362285
6362,2.0,299.91882999999996,15294.768,0.0,0.0,-0.06361998498810395,0.0,0.0,0.0,-1.2947148671034088,-1.3182642179775486,-2.0362483752370677,0.026624307562114573,0.008377607048930442,-0.15844174588448284
6363,2.0,300.24516,15229.399,0.0,0.0,-0.06362998940847808,0.0,0.0,0.0,-1.3054655519894187,-1.2814342993677186,-2.042457166549828,-0.0052049040489840345,0.016076246351601986,-0.16243009079560183
6364,2.0,300.70185,15126.37,0.0,0.0,-0.06363999382885233,0.0,0.0,0.0,-1.2916392477498686,-1.3001237987872287,-2.006275829329008,-0.0028354943799165076,0.00936608399458552,-0.17830836834266584
6365,2.0,300.10433,15170.031,0.0,0.0,-0.06364999824922646,0.0,0.0,0.0,-1.3005777348320289,-1.291934002203959,-2.018798891289938,-0.025609673362477978,0.015181419857039484,-0.17291520283040182
6366,2.0,300.01664,15501.052,0.0,0.0,-0.06366000266960059,0.0,0.0,0.0,-1.3353176224605887,-1.3263243185480187,-2.050290805722948,0.0051299304316847144,0.014659340716514287,-0.17385767741091682
6367,2.0,299.99697000000003,15476.081,0.0,0.0,-0.06367000708997472,0.0,0.0,0.0,-1.3179059327421887,-1.3300618941918885,-2.056374359323348,-0.010862656114810689,0.011201987493800091,-0.14971323462054584
6368,2.0,299.7466,15305.273000000001,0.0,0.0,-0.06368001151034886,0.0,0.0,0.0,-1.2831839796403988,-1.3100357152404587,-2.059201023127318,0.001045486145306449,-0.004447126419222206,-0.15285191866030984
6369,2.0,299.91598,15404.367,0.0,0.0,-0.0636900159307231,0.0,0.0,0.0,-1.3274184260059987,-1.2875330517196186,-2.067591341905378,-0.001054776838123369,0.004209457969141155,-0.12379656674276988
6370,2.0,300.1982,15511.37,0.0,0.0,-0.0636999874418197,0.0,0.0,0.0,-1.3344580824007588,-1.3152708745321287,-2.065340204158208,0.01115099466926749,0.003609347121189827,-0.16198010642619184
6371,2.0,300.29949,15359.125,0.0,0.0,-0.06370999186219395,0.0,0.0,0.0,-1.3267446146894988,-1.2965639472108987,-2.045482022073358,-0.0018335891346611584,-0.0024970789790175075,-0.15962334748859786
6372,2.0,300.90979,15280.19,0.0,0.0,-0.06371999628256808,0.0,0.0,0.0,-1.3112861671888687,-1.2975142744796886,-2.035995771987138,0.003627922427323067,-0.008292408724872023,-0.17782263650972782
6373,2.0,300.33099999999996,15336.123,0.0,0.0,-0.06373000070294199,0.0,0.0,0.0,-1.2946455607965688,-1.3043115614505287,-2.062841326761588,0.0007959665802007852,0.006604838656821823,-0.15280931149360485
6374,2.0,299.59783999999996,15236.376,0.0,0.0,-0.06374000512331635,0.0,0.0,0.0,-1.2910672680684185,-1.2897847974168488,-2.050625887531018,0.007200861952544743,-0.006976731334399773,-0.16960929199413383
6375,2.0,299.44689,15377.895,0.0,0.0,-0.06375000954369048,0.0,0.0,0.0,-1.296984040702359,-1.3211180368841988,-2.056394016375288,0.0007727435566538513,0.00094623557236868,-0.16285032614207584
6376,2.0,299.70849,15474.821000000002,0.0,0.0,-0.06376001396406472,0.0,0.0,0.0,-1.3207575224986186,-1.3117371648083787,-2.071464287762608,-0.0050497372591452655,-0.013969842261966087,-0.15658915993164685
6377,2.0,299.55331,15376.185,0.0,0.0,-0.06376998547516122,0.0,0.0,0.0,-1.3101395733757089,-1.3164852547769788,-2.047351569832868,-0.01194872444649729,-0.001859761283419148,-0.17055317499228784
6378,2.0,299.96977000000004,15364.578000000001,0.0,0.0,-0.06377998989553557,0.0,0.0,0.0,-1.3220496190261386,-1.3018811797606686,-2.046517158375518,-0.016555054646606684,-0.007831088721293282,-0.15489810630975287
6379,2.0,300.85758,15521.583,0.0,0.0,-0.0637899943159097,0.0,0.0,0.0,-1.3137293158299888,-1.3180359327300188,-2.086408308187468,0.007786225857215664,-0.008121436652023391,-0.15012397581358286
6380,2.0,300.77157,15357.173999999999,0.0,0.0,-0.06379999873628384,0.0,0.0,0.0,-1.3113329793434887,-1.2965943447138988,-2.060270001982818,0.008605508274672541,-0.005904287366207794,-0.13698347977171688
6381,2.0,300.63444,15245.184,0.0,0.0,-0.06381000315665775,0.0,0.0,0.0,-1.2879630750620588,-1.2884502457101388,-2.057742145633338,0.004791263947410935,-0.00033583140036147865,-0.15300081576250488
6382,2.0,300.3336,15459.85,0.0,0.0,-0.06382000757703199,0.0,0.0,0.0,-1.3403472946319788,-1.3104190277532888,-2.048642146485238,0.007884836572847782,-0.01684030684125888,-0.16825056414003783
6383,2.0,299.71322999999995,15451.391000000001,0.0,0.0,-0.06383001199740634,0.0,0.0,0.0,-1.3378386900343988,-1.3037848740485487,-2.055213478683778,-0.002175151285070718,-0.01824297023294098,-0.18315870537885684
6384,2.0,299.58292,15334.058,0.0,0.0,-0.06384001641778048,0.0,0.0,0.0,-1.3102580223123987,-1.3124297212517289,-2.038482895682598,0.004161991862906616,-0.013658808931769488,-0.19578644620761781
6385,2.0,300.43138999999996,15417.614,0.0,0.0,-0.06384998792887697,0.0,0.0,0.0,-1.3107417479101386,-1.3141735246738286,-2.061654506919458,0.003156129774685757,0.0012971480858935487,-0.15575039149886685
6386,2.0,300.01632,15429.517,0.0,0.0,-0.0638599923492511,0.0,0.0,0.0,-1.324703017063009,-1.3120022310345387,-2.053482847512978,-0.004645515823876715,-0.004656048457341206,-0.15015550815669484
6387,2.0,300.25203,15340.139,0.0,0.0,-0.06386999676962546,0.0,0.0,0.0,-1.3066751699587986,-1.3020778516050788,-2.0542661911652877,-0.00992356224325434,-0.0038095574375990467,-0.13908065416619186
6388,2.0,300.13687000000004,15486.983,0.0,0.0,-0.06388000118999937,0.0,0.0,0.0,-1.3320812003161788,-1.3138364163655587,-2.0617386066777583,-0.0031900469032331165,0.0014366249005838385,-0.14218734990029885
6389,2.0,299.61379,15574.476999999999,0.0,0.0,-0.06389000561037361,0.0,0.0,0.0,-1.337747497525399,-1.3231272105074887,-2.073377405276418,-0.005042991039979465,0.004953258320398535,-0.14705955287364786
6390,2.0,298.92025,15478.021,0.0,0.0,-0.06390001003074774,0.0,0.0,0.0,-1.3300681763425088,-1.3197697049761288,-2.055093813846968,-0.00963941945613663,0.0012972668388052688,-0.16731520257522484
6391,2.0,299.4061,15413.283000000001,0.0,0.0,-0.06391001445112188,0.0,0.0,0.0,-1.3191023784602687,-1.3038095973509887,-2.0623411865122283,-0.011284827782225788,0.0019307741060775683,-0.17253279211016084
6392,2.0,298.8793,15364.726,0.0,0.0,-0.0639199859622186,0.0,0.0,0.0,-1.3241531262337387,-1.2947089902528288,-2.051630828980198,0.00997426436633325,-0.005758337301928645,-0.14621210088751085
6393,2.0,300.0568,15273.113000000001,0.0,0.0,-0.06392999038259273,0.0,0.0,0.0,-1.284011602322079,-1.3081620131555385,-2.050471468215778,0.005295103775536055,0.010649086298482989,-0.17253389655276985
6394,2.0,300.73868999999996,15242.112,0.0,0.0,-0.06393999480296686,0.0,0.0,0.0,-1.303640080609259,-1.2848599966308087,-2.044721476548298,0.0031497089101270672,0.00027600962108252874,-0.15368713058523883
6395,2.0,300.8458,15499.845,0.0,0.0,-0.0639499992233411,0.0,0.0,0.0,-1.3335391658850686,-1.3275910838230385,-2.050435599162238,0.0014876911857486885,-0.005017801743818475,-0.17698831624488684
6396,2.0,300.13545,15574.718,0.0,0.0,-0.06396000364371524,0.0,0.0,0.0,-1.3478494996973887,-1.3147285830786088,-2.071747389840548,-0.002378537937893418,0.008534268483991723,-0.15224182051009785
6397,2.0,300.2623,15522.377,0.0,0.0,-0.06397000806408937,0.0,0.0,0.0,-1.324405628158659,-1.3321868823016088,-2.061822503786038,0.0016070116188496985,0.007635411584506452,-0.16670752609275186
6398,2.0,299.57262000000003,15553.448999999999,0.0,0.0,-0.0639800124844635,0.0,0.0,0.0,-1.3301046533461087,-1.3232774754973187,-2.074477997535038,-0.007251569952474233,0.007447775296538192,-0.1346685174007479
6399,2.0,299.67884,15547.893,0.0,0.0,-0.06398998399556,0.0,0.0,0.0,-1.3225790422033887,-1.311523673012309,-2.092068424571078,-0.022732710810293877,-0.005730352752716785,-0.13727908535589087
6400,2.0,299.76836000000003,15387.372,0.0,0.0,-0.06399998841593435,0.0,0.0,0.0,-1.3044739854415588,-1.3118169075912487,-2.061086073613358,0.0011668791814870088,-0.003879912660942567,-0.14040367508676388
6401,2.0,299.73702000000003,15342.405,0.0,0.0,-0.06400999283630848,0.0,0.0,0.0,-1.3037996675000088,-1.300803689604329,-2.0591046630428083,-0.0060988832638129145,-0.000934724635800139,-0.16326624504312384
6402,2.0,300.17593999999997,15371.875,0.0,0.0,-0.06401999725668273,0.0,0.0,0.0,-1.2953662855926988,-1.3089211401304588,-2.068378535908068,0.012715199511142488,0.000964302490396746,-0.18444388140819384
6403,2.0,300.57822000000004,15268.317,0.0,0.0,-0.06403000167705686,0.0,0.0,0.0,-1.3170271409304588,-1.2934088890495188,-2.030751189469538,0.0027544625402692873,-0.006875454352454513,-0.18370159464993582
6404,2.0,300.3841,15372.983999999999,0.0,0.0,-0.06404000609743077,0.0,0.0,0.0,-1.3254838275900687,-1.2915797699689988,-2.055939675030448,0.010165445813751391,0.0095093462103244,-0.16669219561873885
6405,2.0,300.77826,15549.986,0.0,0.0,-0.06405001051780512,0.0,0.0,0.0,-1.3365224781544989,-1.3239575689644387,-2.066327413730638,0.014581413677823486,0.0009154282603657351,-0.16270523886025684
6406,2.0,300.72604,15537.013,0.0,0.0,-0.06406001493817925,0.0,0.0,0.0,-1.3282167657597888,-1.3201978031433788,-2.074449322557208,0.0054683729876863945,0.0012107801672446988,-0.15816134918430985
6407,2.0,300.22686,15595.878999999999,0.0,0.0,-0.06406998644927575,0.0,0.0,0.0,-1.3302097273814788,-1.3405423452762286,-2.070005714243658,0.0002215899137842218,-0.0013515313465857588,-0.16367823253378386
6408,2.0,300.18956000000003,15642.617,0.0,0.0,-0.06407999086965,0.0,0.0,0.0,-1.3472867405918487,-1.3317420655077088,-2.075936267078958,-0.01919195697184868,0.0006925681159911514,-0.15150708246508485
6409,2.0,299.92519,15452.318000000001,0.0,0.0,-0.06408999529002435,0.0,0.0,0.0,-1.3242963997978787,-1.3153552782654587,-2.057467048231188,-0.003451393285625997,0.013541999433741288,-0.16412227925760783
6410,2.0,299.92143,15367.46,0.0,0.0,-0.06409999971039848,0.0,0.0,0.0,-1.3098929483013686,-1.3235255191217987,-2.0379057484256378,-0.015997051737036087,0.011811430071197388,-0.15656413265417685
6411,2.0,299.6929,15467.763,0.0,0.0,-0.06411000413077261,0.0,0.0,0.0,-1.3033436036299988,-1.3181142569627486,-2.080355861365138,-0.0019071888861498883,-0.006988018332563713,-0.16184299342265984
6412,2.0,299.75597,15471.982,0.0,0.0,-0.06412000855114652,0.0,0.0,0.0,-1.3186948492700488,-1.3040253182972787,-2.080376025042128,0.0002104742866096948,-0.005328484185505444,-0.14163977941375785
6413,2.0,299.19536,15361.728000000001,0.0,0.0,-0.06413001297152077,0.0,0.0,0.0,-1.280755320475709,-1.3175231268544088,-2.071303180996708,0.016796788762713986,-0.01066047826935729,-0.17641848465364884
6414,2.0,299.83657999999997,15482.909,0.0,0.0,-0.06413998448261737,0.0,0.0,0.0,-1.3294955887109987,-1.3005766202569187,-2.0763455187943483,0.026139163414234574,0.004158219026159266,-0.16500833607255483
6415,2.0,300.16027,15508.565,0.0,0.0,-0.06414998890299162,0.0,0.0,0.0,-1.3335971237907887,-1.3174080216430488,-2.063211264373098,0.011719139199088988,0.002086750786721268,-0.18125125193310582
6416,2.0,300.79549,15434.694,0.0,0.0,-0.06415999332336575,0.0,0.0,0.0,-1.3236784185618886,-1.3125604305146288,-2.055522621289288,0.0035530096050297466,0.01868350300541818,-0.15859613480221987
6417,2.0,300.52938,15488.753,0.0,0.0,-0.06416999774373988,0.0,0.0,0.0,-1.3264370932841487,-1.3164019656187587,-2.065355098934678,-0.013495188292371387,0.003240785604640637,-0.17089583591110583
6418,2.0,300.24739,15547.25,0.0,0.0,-0.06418000216411424,0.0,0.0,0.0,-1.3265328454185987,-1.3283663214745487,-2.071076719599358,-0.00880324291711243,0.02172332929917568,-0.14394298808356687
6419,2.0,299.67846000000003,15490.309,0.0,0.0,-0.06419000658448826,0.0,0.0,0.0,-1.3229954879944885,-1.3300325099389887,-2.0556390437257783,-0.012219910703261288,0.0037553300147722163,-0.15725272728963585
6420,2.0,299.81883,15529.028999999999,0.0,0.0,-0.06420001100486239,0.0,0.0,0.0,-1.3364938031766687,-1.3166053249138288,-2.067338029380378,-0.005560161591720224,0.01173343311824969,-0.15337401603933687
6421,2.0,299.58778,15488.815,0.0,0.0,-0.06421001542523652,0.0,0.0,0.0,-1.3343027511604286,-1.3187667900271487,-2.0551434631018677,-0.012117158023870388,-0.0007510054409959663,-0.16066091559099785
6422,2.0,299.56775,15483.941,0.0,0.0,-0.06421998693633324,0.0,0.0,0.0,-1.3152773593327687,-1.3188844283637589,-2.072569844946718,0.0006801740812979552,0.0009725377008494982,-0.16155718596695284
6423,2.0,300.13842,15499.785,0.0,0.0,-0.06422999135670737,0.0,0.0,0.0,-1.3325023070577386,-1.3152141325265287,-2.063831373434298,0.02342776086213998,-0.006383870898864004,-0.17656293358790484
6424,2.0,299.98317000000003,15542.947,0.0,0.0,-0.0642399957770815,0.0,0.0,0.0,-1.3279298133314685,-1.313444288576859,-2.0832935773800676,0.003698629349776296,-0.017310505550163884,-0.15337804877473485
6425,2.0,300.04685,15462.501,0.0,0.0,-0.06425000019745564,0.0,0.0,0.0,-1.3201401492126885,-1.3078899555036887,-2.072184100633648,0.016192571516082385,-0.002955907501925357,-0.16330172906162585
6426,2.0,300.3411,15540.0,0.0,0.0,-0.06426000461782988,0.0,0.0,0.0,-1.3273228765215686,-1.3267080363608887,-2.069741053317538,-0.002367539412032948,0.02115170729501098,-0.16089869499196485
6427,2.0,299.96501,15733.317,0.0,0.0,-0.06427000903820401,0.0,0.0,0.0,-1.3515812998156886,-1.3440559926479987,-2.0868982146108177,0.009462583097009241,0.016949252505260984,-0.16844841135456384
6428,2.0,299.91572,15622.832,0.0,0.0,-0.06428001345857814,0.0,0.0,0.0,-1.333971418377729,-1.3385605294056386,-2.076418979426598,-0.007926690084128404,0.006503579812053353,-0.16208692325173382
6429,2.0,299.82485,15425.678,0.0,0.0,-0.06428998496967464,0.0,0.0,0.0,-1.3133752862450487,-1.315754397479849,-2.059891249095438,-0.005137355224442485,-0.012341358860247289,-0.16630233751026285
6430,2.0,299.71371,15486.956,0.0,0.0,-0.06429998939004877,0.0,0.0,0.0,-1.3154480919746188,-1.3173348649858287,-2.0748647550982082,-0.00970672287150396,-0.012551835224019687,-0.14679064642960887
6431,2.0,299.79505,15571.175,0.0,0.0,-0.06430999381042313,0.0,0.0,0.0,-1.3308231489920186,-1.3293568747723088,-2.0730682626709083,-0.0025360533401389777,-0.016737664606128883,-0.15189693044105987
6432,2.0,299.92091,15561.702,0.0,0.0,-0.06431999823079726,0.0,0.0,0.0,-1.3403235845796386,-1.3069560428865188,-2.0830893061599083,0.005039461991206176,-0.004482588146222006,-0.14171686748136586
6433,2.0,299.39991000000003,15615.766000000001,0.0,0.0,-0.0643300026511715,0.0,0.0,0.0,-1.327939743182449,-1.3248766881301486,-2.093986405685368,0.005008395236515125,-0.012235841021333488,-0.16762560161085885
6434,2.0,299.47972000000004,15655.835,0.0,0.0,-0.06434000707154564,0.0,0.0,0.0,-1.3434760082907589,-1.3190410768292187,-2.096465727355058,0.006938281735505094,0.00027484243802733676,-0.16257231057963784
6435,2.0,299.77286000000004,15627.581,0.0,0.0,-0.06435001149191955,0.0,0.0,0.0,-1.3489250646785387,-1.3163513031137588,-2.085117934185118,0.0016605817463366584,-0.012933253972412788,-0.16423555048628685
6436,2.0,300.20057,15601.806,0.0,0.0,-0.0643600159122939,0.0,0.0,0.0,-1.3476803882556987,-1.3203439138077988,-2.0745349421906583,0.00974251623526149,-0.003300528857036837,-0.16958099191884085
6437,2.0,300.02957999999995,15464.52,0.0,0.0,-0.0643699874233904,0.0,0.0,0.0,-1.3246648175342386,-1.3125905240425988,-2.063572488033748,0.006975815761609414,-0.01960606722146818,-0.16315928636256785
6438,2.0,300.08988,15420.596000000001,0.0,0.0,-0.06437999184376453,0.0,0.0,0.0,-1.3287380829362387,-1.2960689745370488,-2.062669074244588,0.017246578588104786,0.0012405870467614088,-0.17102224899358182
6439,2.0,300.19612,15502.343,0.0,0.0,-0.06438999626413877,0.0,0.0,0.0,-1.3058845309057687,-1.3307340843082287,-2.075706461956278,0.004375723089975246,0.013973245769051987,-0.17160062228316283
6440,2.0,299.90213,15527.378,0.0,0.0,-0.06440000068451313,0.0,0.0,0.0,-1.3412442236204987,-1.305133611256659,-2.0735572571691683,-0.01048002957229839,0.005307533111862735,-0.15551436502057284
6441,2.0,300.13726,15423.295,0.0,0.0,-0.06441000510488726,0.0,0.0,0.0,-1.3134252394749788,-1.3107440783853688,-2.064127141138488,-0.017809830133193382,-0.01111908843686859,-0.15963234514948585
6442,2.0,300.01416,15495.51,0.0,0.0,-0.06442000952526117,0.0,0.0,0.0,-1.3127890197371888,-1.3229591123158988,-2.074499782412188,-0.02270673918373068,0.011446602279941688,-0.15398625214725986
6443,2.0,299.70514,15723.338,0.0,0.0,-0.0644300139456353,0.0,0.0,0.0,-1.3327861184107488,-1.333295884536059,-2.113420238628338,-0.003466037586671277,0.01892362098761598,-0.15290691787573785
6444,2.0,299.79895,15811.687,0.0,0.0,-0.06443998545673202,0.0,0.0,0.0,-1.3564541208715988,-1.3477991411674188,-2.102104869461598,-0.0034497215242860067,0.01859851969303098,-0.15676234463873887
6445,2.0,299.84268,15669.643999999998,0.0,0.0,-0.06444998987710615,0.0,0.0,0.0,-1.317411162718359,-1.3365203503292886,-2.109249093266678,0.018083499865952483,0.005788145802645515,-0.17210587944552783
6446,2.0,299.69715,15486.963,0.0,0.0,-0.0644599942974804,0.0,0.0,0.0,-1.3322462587574686,-1.3148912097196588,-2.060512371406738,0.02050209948364968,0.0005652888971971705,-0.17737488129053783
6447,2.0,300.6594,15613.514,0.0,0.0,-0.06446999871785453,0.0,0.0,0.0,-1.3358147229596486,-1.331941371802379,-2.078362393118398,0.03092337777539977,0.005286874766173915,-0.16293919830834686
6448,2.0,300.68697000000003,15704.921999999999,0.0,0.0,-0.06448000313822866,0.0,0.0,0.0,-1.3597626864231287,-1.338087037633909,-2.0760544120406177,0.009688014728282611,-0.0014273115109646787,-0.17446723853857585
6449,2.0,300.06528,15531.278999999999,0.0,0.0,-0.06449000755860301,0.0,0.0,0.0,-1.3232521442448186,-1.3242748175707488,-2.0735941394728084,-0.007599327113995192,-0.0013508993824983889,-0.16253206428566586
6450,2.0,300.03391,15528.93,0.0,0.0,-0.06450001197897703,0.0,0.0,0.0,-1.3187760106030588,-1.3265172413670587,-2.0751137106477784,-0.02053973463211398,0.01187948602741399,-0.16755389390128186
6451,2.0,300.45287,15602.706,0.0,0.0,-0.06451001639935117,0.0,0.0,0.0,-1.3133500563175589,-1.3295611459924688,-2.0999219234461584,-0.007053527788628993,0.013914778198531687,-0.15598987316000185
6452,2.0,300.18537000000003,15681.252,0.0,0.0,-0.06451998791044777,0.0,0.0,0.0,-1.3468386813976287,-1.3390659385555186,-2.0808044271844084,-0.02329769096005308,-0.0005174557107164025,-0.16217557250298284
6453,2.0,300.06187,15779.056999999999,0.0,0.0,-0.06452999233082202,0.0,0.0,0.0,-1.3498124691161186,-1.3433943403326987,-2.1032326168228983,-0.012505361494933089,-0.01954261040745548,-0.15152272704662886
6454,2.0,299.96672,15598.438,0.0,0.0,-0.06453999675119615,0.0,0.0,0.0,-1.3531300525935386,-1.3186517861407987,-2.0697539215938083,-0.0014128256822350388,0.008123965420297962,-0.16491171254301884
6455,2.0,300.05814,15506.725,0.0,0.0,-0.06455000117157028,0.0,0.0,0.0,-1.3276068905245986,-1.3203925498125988,-2.0656578580645584,0.02489253749820218,0.039703800881710063,-0.16003481822170684
6456,2.0,300.06483,15570.328000000001,0.0,0.0,-0.06456000559194441,0.0,0.0,0.0,-1.3297780828388788,-1.3251459086817186,-2.078066828064228,0.022831057878249978,0.014429094830040786,-0.18043876720791985
6457,2.0,300.21482000000003,15695.453000000001,0.0,0.0,-0.06457001001231866,0.0,0.0,0.0,-1.3445020253420186,-1.3391223765860887,-2.087401394610478,0.01165000717126619,-0.0018926291914879581,-0.17288506877242785
6458,2.0,299.69237999999996,15532.194,0.0,0.0,-0.06458001443269279,0.0,0.0,0.0,-1.3433320254515488,-1.3066850998097788,-2.071382011854488,9.181135859132561e-05,-0.005416438549835864,-0.17085596451967083
6459,2.0,299.73469,15484.698,0.0,0.0,-0.06458998594378929,0.0,0.0,0.0,-1.3309834451578386,-1.3116280377726088,-2.064350157485498,0.00915140537867339,-0.007097541042497764,-0.16237532462769685
6460,2.0,299.768,15586.633,0.0,0.0,-0.06459999036416342,0.0,0.0,0.0,-1.3482625004381488,-1.3271298523775188,-2.062554880958318,0.002170494691586148,-0.027099717416283874,-0.16528255194711786
6461,2.0,300.66783,15718.816,0.0,0.0,-0.06460999478453755,0.0,0.0,0.0,-1.348655742801959,-1.3257941860956988,-2.103677534941808,-0.002947148461435907,-0.017194495506464583,-0.15505076256981884
6462,2.0,300.71759,15763.454,0.0,0.0,-0.0646199992049119,0.0,0.0,0.0,-1.3369671936233887,-1.3500471378392787,-2.1046819697659376,-0.007477851193956453,-0.013107680924127387,-0.16490007029936984
6463,2.0,300.36025,15703.053999999998,0.0,0.0,-0.06463000362528604,0.0,0.0,0.0,-1.3345014495050387,-1.3208474991074988,-2.117987260804068,0.014373255630279884,0.013017653652742385,-0.14956543182845886
6464,2.0,299.95455,15668.661,0.0,0.0,-0.06464000804566028,0.0,0.0,0.0,-1.3340685890623187,-1.3354381992224886,-2.0933749092500182,-0.009402921613896111,0.0015450510712596687,-0.16327106811359984
6465,2.0,299.96416,15710.597,0.0,0.0,-0.06465001246603441,0.0,0.0,0.0,-1.3335823303393288,-1.3328987918218687,-2.1091481735567177,0.014126141156141588,0.006282868203720814,-0.14364495069915284
6466,2.0,299.99782999999996,15788.437,0.0,0.0,-0.06465998397713113,0.0,0.0,0.0,-1.3646045020259787,-1.3223766961584187,-2.1123093112186977,-0.004240827482962086,0.023821361916485376,-0.15064644809514685
6467,2.0,299.90732,15701.121000000001,0.0,0.0,-0.06466998839750504,0.0,0.0,0.0,-1.3415486039505387,-1.3233145604509788,-2.1078856639321177,0.01130277750774729,0.02770952577696727,-0.15059829845039485
6468,2.0,299.90232000000003,15609.043,0.0,0.0,-0.06467999281787917,0.0,0.0,0.0,-1.3272136481607888,-1.3302695091373788,-2.0872762582231283,0.006156304248304925,-0.005133340828871295,-0.16512978422954083
6469,2.0,299.77741000000003,15626.688,0.0,0.0,-0.0646899972382533,0.0,0.0,0.0,-1.3265268672430088,-1.3197466028738487,-2.103849382158768,0.004624428366770546,-0.007985532759835722,-0.16822707700271985
6470,2.0,299.92258,15821.666000000001,0.0,0.0,-0.06470000165862755,0.0,0.0,0.0,-1.3590429748770987,-1.3419245197376386,-2.108423801060228,0.007583572898790372,-0.014507706825799185,-0.16640177787507685
6471,2.0,300.14252999999997,15737.782,0.0,0.0,-0.0647100060790019,0.0,0.0,0.0,-1.3501441058738488,-1.3194606636956288,-2.114287884688968,-0.017401807490174684,-0.00980309166996482,-0.15247668175077686
6472,2.0,299.39948,15526.055,0.0,0.0,-0.06472001049937604,0.0,0.0,0.0,-1.3365383861810687,-1.3110610230166488,-2.071933625208928,-0.012763477838657188,-0.012490924707508289,-0.15916789156864786
6473,2.0,299.85007,15612.843,0.0,0.0,-0.06473001491974995,0.0,0.0,0.0,-1.3135095418832987,-1.3267937573193487,-2.1056111201076377,-0.00996373892694447,0.0014845622694398888,-0.16668729148825484
6474,2.0,300.38453,15718.09,0.0,0.0,-0.06473998643084666,0.0,0.0,0.0,-1.3432709264705187,-1.3263852148790287,-2.108250839268158,0.017774821328988284,0.017583778088883784,-0.16800815418611384
6475,2.0,300.3528,15751.458999999999,0.0,0.0,-0.0647499908512208,0.0,0.0,0.0,-1.3385314491277687,-1.3455686737222887,-2.103950099218708,3.5738383793853864e-06,5.573798215541054e-05,-0.16846312374601582
6476,2.0,300.52502000000004,15651.296,0.0,0.0,-0.06475999527159493,0.0,0.0,0.0,-1.3556142378637088,-1.3224184420625387,-2.079570491212628,0.0037477931565533867,-0.020715143423175483,-0.17429367892894684
6477,2.0,300.12561,15547.493999999999,0.0,0.0,-0.06476999969196917,0.0,0.0,0.0,-1.3311146610457887,-1.3318278877911787,-2.063107304912838,-0.004448620963119706,0.006319968660107344,-0.16628621670117183
6478,2.0,299.38827000000003,15614.202,0.0,0.0,-0.0647800041123433,0.0,0.0,0.0,-1.3433340519517487,-1.3164938674028288,-2.0864997033464876,0.023593887269035375,0.01096668852907789,-0.16657625954229685
6479,2.0,299.37113999999997,15877.85,0.0,0.0,-0.06479000853271744,0.0,0.0,0.0,-1.3489798815089487,-1.3452861795944089,-2.132203767657128,0.01041513090339339,0.0005150236267663745,-0.14546886167415884
6480,2.0,299.23964,15750.776000000002,0.0,0.0,-0.06480001295309179,0.0,0.0,0.0,-1.3380673805819687,-1.3501983147541987,-2.099577013112118,-0.011878167789033887,-0.021780101702278683,-0.17366729784962784
6481,2.0,299.44235,15551.016000000001,0.0,0.0,-0.06480998446418829,0.0,0.0,0.0,-1.3175357924806588,-1.3251061892777989,-2.084478573372018,-0.013810937288533385,-0.008453458546116403,-0.15931288765795787
6482,2.0,299.34276,15652.796,0.0,0.0,-0.06481998888456242,0.0,0.0,0.0,-1.3419402251141888,-1.3362917611067289,-2.079827147462958,-0.013266243419026286,-0.003909941138256146,-0.17138283430666884
6483,2.0,299.31317,15789.62,0.0,0.0,-0.06482999330493655,0.0,0.0,0.0,-1.3730354521330488,-1.333158082522459,-2.0934567798580983,-0.008699460674294923,0.014546448443372684,-0.14853610144937188
6484,2.0,299.86,15783.589,0.0,0.0,-0.0648399977253108,0.0,0.0,0.0,-1.3499025470500088,-1.3443910744560688,-2.103523216951578,-0.0099430182663745,-0.014870722925876085,-0.15441742046231285
6485,2.0,300.22353,15690.308,0.0,0.0,-0.06485000214568493,0.0,0.0,0.0,-1.3229217233872088,-1.3456285568031987,-2.100911666143838,0.008250845307095033,0.005699833254404744,-0.16169916257096487
6486,2.0,300.03361,15648.221000000001,0.0,0.0,-0.06486000656605906,0.0,0.0,0.0,-1.320421731415479,-1.3407528986470088,-2.095493716534128,0.010650858472907889,-0.0034765743744611765,-0.16825566078804086
6487,2.0,299.80728,15707.722,0.0,0.0,-0.06487001098643319,0.0,0.0,0.0,-1.3422563591453887,-1.3411575907369486,-2.091341417624328,0.013091340239764687,-0.01038701726611879,-0.17295129479896384
6488,2.0,299.7325,15882.907,0.0,0.0,-0.06488001540680743,0.0,0.0,0.0,-1.3736632618950086,-1.3517456489819089,-2.102598119610278,0.003740870125245136,-0.016715804748471483,-0.17167884519088283
6489,2.0,299.81229,15819.286,0.0,0.0,-0.06488998691790404,0.0,0.0,0.0,-1.3680041587614986,-1.3456476059050786,-2.095016273087008,0.006687196435549903,0.011767268578838988,-0.17321985673796883
6490,2.0,299.90539,15514.312,0.0,0.0,-0.06489999133827828,0.0,0.0,0.0,-1.3293779503743886,-1.3115524493151487,-2.075032954614808,0.001067207896975219,0.03292822380751267,-0.15107033114198087
6491,2.0,299.71486,15614.916000000001,0.0,0.0,-0.0649099957586522,0.0,0.0,0.0,-1.3190182787019689,-1.3322217381050487,-2.0953046440654677,-0.01103139062746349,0.014516792639445886,-0.16643604599345885
6492,2.0,299.7846,15846.419,0.0,0.0,-0.06492000017902633,0.0,0.0,0.0,-1.3639388980352887,-1.3295860719449288,-2.123390619612338,-0.007755083007442102,-0.003471894577549317,-0.15232101613791385
6493,2.0,299.47326,15886.273000000001,0.0,0.0,-0.06493000459940068,0.0,0.0,0.0,-1.3583055314543186,-1.3563627257125788,-2.114361953271278,-0.003979891770834736,0.01944232093905768,-0.17463783945791284
6494,2.0,299.68861,15716.856000000002,0.0,0.0,-0.06494000901977481,0.0,0.0,0.0,-1.3501129990957788,-1.3253641627532589,-2.102054510931628,0.004897968504841855,0.0046917997712195856,-0.15659120669684884
6495,2.0,299.36613,15677.265,0.0,0.0,-0.06495001344014906,0.0,0.0,0.0,-1.3357649723797385,-1.3317501715085087,-2.0979821574547177,-0.0027616538802040175,0.002658626103410967,-0.17671837628574583
6496,2.0,299.71072999999996,15840.37,0.0,0.0,-0.06495998495124555,0.0,0.0,0.0,-1.3542766464066986,-1.3443685803038488,-2.116431719250548,0.009160869134607392,-0.0016551193150475584,-0.16112683838448086
6497,2.0,299.8415,15859.548999999999,0.0,0.0,-0.06496998937161991,0.0,0.0,0.0,-1.3430867176023387,-1.3434898898171288,-2.134330275641998,0.02003005767281278,0.008135985302259232,-0.15551632059326587
6498,2.0,299.96382,15723.54,0.0,0.0,-0.06497999379199382,0.0,0.0,0.0,-1.3307577943605686,-1.3406719399640188,-2.108133910206618,0.0053914591990955945,-0.01048131639992539,-0.14759438680643186
6499,2.0,300.09817999999996,15607.516000000001,0.0,0.0,-0.06498999821236795,0.0,0.0,0.0,-1.3246667427094287,-1.3161084270647887,-2.103519974551258,-0.008141650991518392,-0.017121226378483484,-0.15250200287077587
6500,2.0,300.5618,15672.618999999999,0.0,0.0,-0.06500000263274208,0.0,0.0,0.0,-1.3537630299310088,-1.3250696109491886,-2.085252088498358,0.001917706928812938,-0.01870502241104198,-0.16402872587587486
6501,2.0,299.53742,15788.151000000002,0.0,0.0,-0.06501000705311633,0.0,0.0,0.0,-1.3477302401606186,-1.3444667642385386,-2.107006568145358,-0.001162882011167519,0.021483457536752182,-0.17220908910071384
6502,2.0,299.94435,15860.149,0.0,0.0,-0.06502001147349068,0.0,0.0,0.0,-1.3590069031735386,-1.3360876925365888,-2.125994672369338,0.00958249364696849,0.017715950484928182,-0.15965037086876485
6503,2.0,299.95842999999996,15698.46,0.0,0.0,-0.06503001589386481,0.0,0.0,0.0,-1.3293437025210089,-1.3411711682882888,-2.101425181294518,-0.017659463818353382,0.006488033009144004,-0.17044635816674583
6504,2.0,299.67864,15682.566,0.0,0.0,-0.06503998740496131,0.0,0.0,0.0,-1.344231588890329,-1.3320801870660788,-2.090796491720548,-0.004073251419148616,-0.0038151129865723363,-0.16206275723684885
6505,2.0,299.85409,15860.33,0.0,0.0,-0.06504999182533544,0.0,0.0,0.0,-1.3571132400616488,-1.3413040053763987,-2.122726940796838,-0.004634846502973735,-0.0016668068509760282,-0.16129352815843184
6506,2.0,300.36289,15938.243999999999,0.0,0.0,-0.06505999624570957,0.0,0.0,0.0,-1.3845072671152288,-1.3471830851066187,-2.113138048475488,0.007646510219476803,0.01075704809663799,-0.15752774363177785
6507,2.0,300.13915,15887.707,0.0,0.0,-0.0650700006660837,0.0,0.0,0.0,-1.3454868031142087,-1.3498337473682187,-2.134145560148768,-0.006845095555608333,-0.008213063541341263,-0.16595620114360185
6508,2.0,300.69543,15816.018999999998,0.0,0.0,-0.06508000508645795,0.0,0.0,0.0,-1.3706887649014488,-1.3290274671647986,-2.107958617939318,0.013990975619301788,-0.012651626173368288,-0.15306427561626784
6509,2.0,300.45519,15768.113000000001,0.0,0.0,-0.06509000950683208,0.0,0.0,0.0,-1.3494639110817186,-1.3452696636177788,-2.0983789461938778,0.018424570995363584,0.010065463866758939,-0.15697436722216385
6510,2.0,300.01784,15711.523000000001,0.0,0.0,-0.06510001392720621,0.0,0.0,0.0,-1.3636836603350988,-1.3237391122428788,-2.088488004017718,0.028172326746892174,-0.008131134874030534,-0.16005134433083787
6511,2.0,300.59974,15810.823,0.0,0.0,-0.06510998543830293,0.0,0.0,0.0,-1.3529514166009087,-1.3532871063590386,-2.099856670139718,0.009285401928872821,-0.03196484689068477,-0.16255088034002285
6512,2.0,300.17295,15726.818000000001,0.0,0.0,-0.06511998985867706,0.0,0.0,0.0,-1.3517339966057589,-1.3348518313896187,-2.093974246684168,-0.005528690651564285,-0.020968639346443583,-0.16751273568221986
6513,2.0,299.64943999999997,15704.556,0.0,0.0,-0.0651299942790512,0.0,0.0,0.0,-1.3278252459211488,-1.3425100769704288,-2.103457558345098,0.0036653906934958967,0.0006409613328254584,-0.17165035259807085
6514,2.0,300.02757,15861.341,0.0,0.0,-0.06513999869942522,0.0,0.0,0.0,-1.3462501857395488,-1.3525309178094087,-2.122670401441258,-0.0035428838928054165,0.0036199776346139763,-0.17121676261527885
6515,2.0,299.81832,15940.45,0.0,0.0,-0.06515000311979957,0.0,0.0,0.0,-1.3616829980126486,-1.3549544093985886,-2.1288613595522583,-0.016058955238645485,0.017096863793079085,-0.15359134805328586
6516,2.0,299.54769,15927.486,0.0,0.0,-0.0651600075401737,0.0,0.0,0.0,-1.3670824051455286,-1.3607846504739887,-2.1136911817050783,-0.02429568657979758,0.022695677532388978,-0.16538623782985085
6517,2.0,299.61749,15796.536,0.0,0.0,-0.06517001196054784,0.0,0.0,0.0,-1.3598310808048788,-1.3417192352673788,-2.100202087098808,-0.006720517469063433,0.025993598891618477,-0.14979444661606087
6518,2.0,299.70968999999997,15718.44,0.0,0.0,-0.06518001638092197,0.0,0.0,0.0,-1.3436352912064788,-1.3424372242882385,-2.091940653733468,0.006816838442119573,0.006557070804707504,-0.15919976841679384
6519,2.0,299.45398,15745.075,0.0,0.0,-0.06518998789201869,0.0,0.0,0.0,-1.3279901017124187,-1.3528299279139187,-2.105289615850908,0.018558270359308682,-0.02040132466845398,-0.16131374249792685
6520,2.0,299.31451,15830.458999999999,0.0,0.0,-0.06519999231239282,0.0,0.0,0.0,-1.3592125929438386,-1.3471577538541188,-2.105694105290828,0.015189852124371685,-0.018576256561833784,-0.16853742537584884
6521,2.0,299.11883,15757.85,0.0,0.0,-0.06520999673276706,0.0,0.0,0.0,-1.3447597961674589,-1.3422830076230188,-2.102950122695018,0.008206746940217863,-0.022951157399352877,-0.17181200651902484
6522,2.0,299.47014,15669.021,0.0,0.0,-0.06522000115314097,0.0,0.0,0.0,-1.3572858978786886,-1.3149563617010886,-2.0907488689658478,0.003313765956343237,-0.015807994467127585,-0.16978376352885283
6523,2.0,300.19494,15788.399,0.0,0.0,-0.0652300055735151,0.0,0.0,0.0,-1.3307755262373187,-1.3493079718913288,-2.119195561548318,0.004160973343906096,-0.011487140389942488,-0.1802350127453108
6524,2.0,300.24753,15871.438,0.0,0.0,-0.06524000999388946,0.0,0.0,0.0,-1.3545693743605887,-1.3458506612251186,-2.1241008066074283,0.0006016952367351964,0.007011748548580703,-0.15019572405316384
6525,2.0,299.91109,15888.535,0.0,0.0,-0.06525001441426359,0.0,0.0,0.0,-1.3390422285031789,-1.3502919390634387,-2.140383837039438,0.0017050110406964883,0.012416326195395988,-0.17256642188097984
6526,2.0,300.16029,15778.031,0.0,0.0,-0.06525998592536009,0.0,0.0,0.0,-1.3590880645065488,-1.332536960211159,-2.104502523173228,-0.026250301751453077,0.015957921031424183,-0.14457354375329787
6527,2.0,300.15803999999997,15745.739,0.0,0.0,-0.06526999034573433,0.0,0.0,0.0,-1.357891517463459,-1.3340357597590788,-2.094384106349618,0.005033635195181115,-0.0005982015605228974,-0.16643693765354686
6528,2.0,300.29564,15932.838,0.0,0.0,-0.06527999476610868,0.0,0.0,0.0,-1.3853737986007488,-1.3522180261785288,-2.105592982930848,0.007579292423742923,0.025039785029234374,-0.14627569246378685
6529,2.0,300.03828,15935.563,0.0,0.0,-0.0652899991864826,0.0,0.0,0.0,-1.3685687417172188,-1.3602503636962586,-2.115194135578408,-0.004925748174883495,0.012192591454065088,-0.17299208824798984
6530,2.0,300.06543,15910.282,0.0,0.0,-0.06530000360685673,0.0,0.0,0.0,-1.3545923751378588,-1.3509315025265587,-2.1308045705940377,-0.008018957448834482,-0.014166558689380488,-0.15328347201040085
6531,2.0,300.62799,15831.784,0.0,0.0,-0.06531000802723086,0.0,0.0,0.0,-1.336585907610759,-1.3505162726355788,-2.1253649374321877,-0.00031082843076137766,-0.0082868782031762,-0.17579262033188084
6532,2.0,300.20228,15797.05,0.0,0.0,-0.0653200124476051,0.0,0.0,0.0,-1.3333381370652289,-1.3432112460396286,-2.1253592632316276,0.009025121181610111,0.0024651195509883574,-0.16887023750369484
6533,2.0,299.61442,15747.436000000002,0.0,0.0,-0.06532998395870171,0.0,0.0,0.0,-1.346217356436309,-1.3258056358218289,-2.114804236939928,0.004917783725122465,-0.013395879650070386,-0.17960312971794884
6534,2.0,299.89607,15844.128,0.0,0.0,-0.06533998837907595,0.0,0.0,0.0,-1.3560362565303588,-1.3474685176597887,-2.1127145099336877,-0.011497762290740789,-0.0032968942276031268,-0.18260270465148384
6535,2.0,299.71021,15777.216999999999,0.0,0.0,-0.06534999279945009,0.0,0.0,0.0,-1.3481210507241888,-1.3313525721692687,-2.116406286673038,-0.0014618384134222186,0.007150792604153283,-0.16826800217425883
6536,2.0,299.52448,15886.412,0.0,0.0,-0.06535999721982422,0.0,0.0,0.0,-1.3480165846388787,-1.3600326162497687,-2.121023363403708,0.007242273686781764,0.024715782097757773,-0.15174602710366686
6537,2.0,300.62534,16042.507,0.0,0.0,-0.06537000164019835,0.0,0.0,0.0,-1.3667780248154886,-1.3596858820655486,-2.150057639719168,0.003804676611867346,0.01220585489787409,-0.14986728916574987
6538,2.0,300.06552999999997,15977.652,0.0,0.0,-0.06538000606057248,0.0,0.0,0.0,-1.3655274715420687,-1.3451728982332287,-2.1461069775792683,-0.018877679214831883,-0.0014975128216180085,-0.13327739594095486
6539,2.0,300.12179,15869.386999999999,0.0,0.0,-0.06539001048094673,0.0,0.0,0.0,-1.3672912359911387,-1.3469542932340386,-2.109651758856418,-0.016838107075291785,-0.0005967257617522474,-0.15662388401257385
6540,2.0,300.3609,15912.999,0.0,0.0,-0.06540001490132086,0.0,0.0,0.0,-1.3852313356366888,-1.3355778250862689,-2.116344985041988,-0.0036439539690802563,0.005272466552401935,-0.15470990523617884
6541,2.0,299.56945,15912.312,0.0,0.0,-0.06540998641241758,0.0,0.0,0.0,-1.3688615709961187,-1.3552393353267087,-2.1128447125715377,0.010296508700936291,0.005442073676040855,-0.18430557276954385
6542,2.0,299.58353999999997,15848.704,0.0,0.0,-0.06541999083279171,0.0,0.0,0.0,-1.3668534106229286,-1.3443092038479887,-2.106447558065188,-0.0033835646014068266,0.004665944668417886,-0.17630355169480585
6543,2.0,299.52646,15834.535,0.0,0.0,-0.06542999525316584,0.0,0.0,0.0,-1.3393408333076486,-1.3413172789527088,-2.132645038075678,0.023032207274851876,0.004232202292810845,-0.17267466738916284
6544,2.0,298.80904,15789.728000000001,0.0,0.0,-0.06543999967353997,0.0,0.0,0.0,-1.3465560859447385,-1.3408800615345586,-2.112246793687528,0.001922604777146318,0.009493337871994502,-0.16050973867607785
6545,2.0,299.5494,15896.865,0.0,0.0,-0.065450004093914,0.0,0.0,0.0,-1.3520261166095886,-1.3539006292945885,-2.126323168051758,0.015186470908787986,-0.013423653848561489,-0.16235916328860187
6546,2.0,300.16296,15911.835,0.0,0.0,-0.06546000851428835,0.0,0.0,0.0,-1.3892757234108386,-1.3376304671388488,-2.109894432255368,-0.005356745250669595,-0.017836877831362785,-0.16366290205977085
6547,2.0,299.93339,15954.149,0.0,0.0,-0.06547001293466248,0.0,0.0,0.0,-1.3592310340956588,-1.3621527407590088,-2.128279247369808,0.0015112622201749685,0.00044856957842787055,-0.16612515046527582
6548,2.0,299.92649,15869.306999999999,0.0,0.0,-0.06547998444575898,0.0,0.0,0.0,-1.3525790471891588,-1.3450285100939787,-2.1262656154460777,-0.0034648396210780466,0.02154014077384638,-0.16612433986519584
6549,2.0,299.94183,15781.125,0.0,0.0,-0.06548998886613311,0.0,0.0,0.0,-1.3231525417599888,-1.347839569846409,-2.126075833702348,0.0069649317330102425,0.014483128418123487,-0.16118214157493885
6550,2.0,300.27139,15879.964,0.0,0.0,-0.06549999328650746,0.0,0.0,0.0,-1.3522233964040589,-1.3579167473909486,-2.116972186853888,0.0013169772890255387,0.0018313976773448781,-0.17580810279340883
6551,2.0,300.25892000000005,15895.805,0.0,0.0,-0.0655099977068816,0.0,0.0,0.0,-1.3733830982423587,-1.3375351203044388,-2.121009583202348,0.017334254106007686,-0.018907505244775483,-0.15221966073041085
6552,2.0,300.00337,15891.321000000002,0.0,0.0,-0.06552000212725584,0.0,0.0,0.0,-1.3749125992683087,-1.3553072230834087,-2.100344955362908,0.0039152248322276055,-0.020395636282392583,-0.18084399632041284
6553,2.0,300.48287,16011.143,0.0,0.0,-0.06553000654762975,0.0,0.0,0.0,-1.3757438696503488,-1.3584941986229386,-2.132749605485998,0.01676379632620788,-0.01909535370731468,-0.17263438056518685
6554,2.0,300.53173,16062.466,0.0,0.0,-0.06554001096800388,0.0,0.0,0.0,-1.3772424665482488,-1.3680983910207987,-2.1372477266549277,-0.002118889256043088,-0.00027210947959261473,-0.17289971023637285
6555,2.0,300.11293,15988.113000000001,0.0,0.0,-0.06555001538837824,0.0,0.0,0.0,-1.3568040974561386,-1.3491710818028186,-2.154011949559428,0.001190349194878319,0.013268459396994987,-0.15073977856185786
6556,2.0,299.61807000000005,15940.265,0.0,0.0,-0.06555998689947473,0.0,0.0,0.0,-1.3702313838063087,-1.3490359142394788,-2.126175334862168,-0.011905552899486591,0.0073326006775463436,-0.15358607915276584
6557,2.0,299.94437999999997,15931.45,0.0,0.0,-0.06556999131984886,0.0,0.0,0.0,-1.3713234647640886,-1.347172851280609,-2.124266776973808,-0.019070455112607382,0.0018436506068291484,-0.15446716090972185
6558,2.0,299.98867,16003.614,0.0,0.0,-0.06557999574022311,0.0,0.0,0.0,-1.3918546475653586,-1.3538605045906287,-2.118983994927438,-0.013688368476936788,0.0003417576570163547,-0.17337681931095983
6559,2.0,300.11634,15976.851,0.0,0.0,-0.06559000016059746,0.0,0.0,0.0,-1.3673418984961387,-1.3516551657479787,-2.1375667991114184,0.013519186107739787,-0.006545381343603843,-0.17302849432408285
6560,2.0,299.75687999999997,15862.728000000001,0.0,0.0,-0.06560000458097137,0.0,0.0,0.0,-1.354254456229509,-1.3508815492966288,-2.116737315480708,0.008383318739744142,0.008348849592542302,-0.17085319834689786
6561,2.0,299.97324,15925.642,0.0,0.0,-0.0656100090013455,0.0,0.0,0.0,-1.3385279027524188,-1.3543308552870488,-2.148138645354778,-0.001143250594455049,0.007366928780334263,-0.16721491108032685
6562,2.0,300.16085,16032.221000000001,0.0,0.0,-0.06562001342171964,0.0,0.0,0.0,-1.3740124278794688,-1.3578550404598588,-2.141527391102298,-0.00820728973829643,0.004230591225151846,-0.15597088485312785
6563,2.0,300.1671,16006.782,0.0,0.0,-0.06562998493281635,0.0,0.0,0.0,-1.3629573626634186,-1.3706898794765587,-2.132014695188468,-0.008657600374238633,-0.001243496493098549,-0.15885377390514685
6564,2.0,299.8845,15952.958999999999,0.0,0.0,-0.06563998935319049,0.0,0.0,0.0,-1.3673944861763287,-1.3561392027405186,-2.1257674003719083,0.008460810587516993,-0.006902504279774134,-0.15919782297660184
6565,2.0,299.5353,15957.39,0.0,0.0,-0.06564999377356473,0.0,0.0,0.0,-1.3548709175903486,-1.3630036681929887,-2.132773315538338,0.0015266502467936485,-0.015314476820421186,-0.16911059055991584
6566,2.0,299.44284,15992.706,0.0,0.0,-0.06565999819393886,0.0,0.0,0.0,-1.3602860300997788,-1.3558992651168387,-2.1451977882645377,0.001910028012930088,0.0040009904750170164,-0.17174433154484584
6567,2.0,299.18707,15949.35,0.0,0.0,-0.065670002614313,0.0,0.0,0.0,-1.354156170969809,-1.3529822194039487,-2.141065653031728,0.01083545946887659,0.010810078567121689,-0.16731358137506483
6568,2.0,299.34215,15923.287,0.0,0.0,-0.06568000703468713,0.0,0.0,0.0,-1.3641500593561289,-1.353773365082029,-2.1223582190854478,-0.009785701157173511,0.006897953064299963,-0.16060069813755484
6569,2.0,299.83122000000003,15928.316,0.0,0.0,-0.06569001145506126,0.0,0.0,0.0,-1.3706595832985686,-1.3486878628301289,-2.1224628878207783,-0.01174100513624699,0.003481376977285156,-0.17130533080651983
6570,2.0,300.48298,15958.883999999998,0.0,0.0,-0.0657000158754355,0.0,0.0,0.0,-1.3702793105360387,-1.3554262799701589,-2.1253967534853277,-0.02076724373006738,-0.0011482221060706988,-0.17834992172926684
6571,2.0,300.1756,15968.153999999999,0.0,0.0,-0.065709987386532,0.0,0.0,0.0,-1.3591276825854588,-1.3608601376064386,-2.133932372327728,0.0005769146350020415,-0.008102475804227101,-0.16850278235492983
6572,2.0,300.00247,16029.575,0.0,0.0,-0.06571999180690635,0.0,0.0,0.0,-1.3638787109793487,-1.3638611817526185,-2.144850547455268,-0.016296598864099086,-0.009802601155591412,-0.17806187499083884
6573,2.0,299.86364,15997.107,0.0,0.0,-0.06572999622728048,0.0,0.0,0.0,-1.3591061003583287,-1.3660991472484885,-2.1375157313063777,0.017539081600472583,-0.014255077231366589,-0.14991355416531585
6574,2.0,300.0556,15960.061000000002,0.0,0.0,-0.06574000064765462,0.0,0.0,0.0,-1.3793179067280787,-1.352478735429259,-2.119663379119488,0.0017352404455048983,-0.013216932589659686,-0.16423338213107283
6575,2.0,300.34177,15977.431999999999,0.0,0.0,-0.06575000506802875,0.0,0.0,0.0,-1.3851156224752688,-1.3471097257993787,-2.124514921923298,0.0034233089312792867,0.0002687288516939727,-0.14298535528155587
6576,2.0,299.77686,15972.893,0.0,0.0,-0.06576000948840277,0.0,0.0,0.0,-1.3791050228820687,-1.3575308004278588,-2.1187249068768677,0.004661715261175476,-0.0017355477642602285,-0.17541664374977484
6577,2.0,299.08799999999997,15964.515,0.0,0.0,-0.06577001390877713,0.0,0.0,0.0,-1.3649872065887487,-1.3556739182945987,-2.132152699852088,0.015746782002086384,0.016313466438513786,-0.16732400771859385
6578,2.0,299.45543,16039.241000000002,0.0,0.0,-0.06577998541987362,0.0,0.0,0.0,-1.3736713678958088,-1.3681982974806588,-2.133659301425778,-0.0066871517512204935,0.006264653513298164,-0.18781368779576782
6579,2.0,299.55291,16003.491000000002,0.0,0.0,-0.06578998984024775,0.0,0.0,0.0,-1.3605766302284588,-1.3581472617886987,-2.145937764812568,-0.007779779762729483,0.0007699979933878852,-0.17076348518304382
6580,2.0,299.34447,15945.851,0.0,0.0,-0.06579999426062189,0.0,0.0,0.0,-1.3751606428927885,-1.3533693822671586,-2.118610409615568,-0.02044689863145178,-0.0014669588728025687,-0.16642591349245883
6581,2.0,299.32646,16051.046,0.0,0.0,-0.06580999868099624,0.0,0.0,0.0,-1.3702740416355186,-1.3664708073851686,-2.142372340360688,0.0004891872386940216,-0.003483560733900677,-0.16578888315458884
6582,2.0,299.72016,16051.105,0.0,0.0,-0.06582000310137037,0.0,0.0,0.0,-1.3831127310025988,-1.3616286878072887,-2.134393806423268,0.013114663230566486,-0.001904001302660298,-0.15905211761222185
6583,2.0,300.10618,16000.177,0.0,0.0,-0.06583000752174462,0.0,0.0,0.0,-1.3515443161870386,-1.3742874239566087,-2.137822442111648,0.01103845500716069,-0.0002631823206465727,-0.17340011393075885
6584,2.0,300.16641,16033.408000000001,0.0,0.0,-0.06584001194211853,0.0,0.0,0.0,-1.3743378838115887,-1.3493578237962487,-2.150060071519408,0.006485932946986743,-0.007031375101692693,-0.16062604965505684
6585,2.0,300.17303,16081.706,0.0,0.0,-0.06585001636249266,0.0,0.0,0.0,-1.3626703089100884,-1.3669246421049588,-2.158842011461118,-0.008561253867279971,-0.008606746972919792,-0.16547759245886684
6586,2.0,300.04037,16055.128999999999,0.0,0.0,-0.06585998787358938,0.0,0.0,0.0,-1.4051130251238586,-1.3513679093446287,-2.123877384960378,-0.007391667078875743,-0.007034975179297994,-0.15511470878362985
6587,2.0,300.57452,16058.059,0.0,0.0,-0.06586999229396351,0.0,0.0,0.0,-1.3718932152953187,-1.3544177921456286,-2.154937958825818,-0.00039332723363837564,0.005061048271336575,-0.15757911541184785
6588,2.0,300.1355,15981.683,0.0,0.0,-0.06587999671433764,0.0,0.0,0.0,-1.3895398777119088,-1.3397289080959487,-2.128763884892638,0.0010641062370941089,0.004037092677405026,-0.16419635797241885
6589,2.0,300.01611,15979.516000000001,0.0,0.0,-0.06589000113471188,0.0,0.0,0.0,-1.3459616121110687,-1.3523802475195388,-2.159031793204848,0.001108111182312059,0.02146909775633498,-0.16226726150453183
6590,2.0,299.49341,16044.454,0.0,0.0,-0.06590000555508624,0.0,0.0,0.0,-1.3687025920554288,-1.3582039024692885,-2.1502070941089184,0.0013509735524057085,0.002223185824611358,-0.16951753206507786
6591,2.0,299.93717999999996,16178.02,0.0,0.0,-0.06591000997546015,0.0,0.0,0.0,-1.3852569708642186,-1.3768746567619488,-2.155582385889418,-0.004404490374889356,0.006147808247541433,-0.16844770207949383
6592,2.0,300.03481,16202.713,0.0,0.0,-0.06592001439583428,0.0,0.0,0.0,-1.4184020028353788,-1.3511649553495986,-2.155653110746398,0.008921536522562102,-0.0048471756958789955,-0.15707462831955885
6593,2.0,299.77144,16081.882,0.0,0.0,-0.065929985906931,0.0,0.0,0.0,-1.3778583199590286,-1.3670986171471287,-2.143533727625308,-0.004900839650325214,0.004725726930942935,-0.16648025409532186
6594,2.0,299.53557,16040.545,0.0,0.0,-0.06593999032730513,0.0,0.0,0.0,-1.3651971520094688,-1.3743868237914187,-2.136341171790458,-0.005027767869152056,-0.005077640039074055,-0.16865813386026185
6595,2.0,300.30576,16028.957,0.0,0.0,-0.06594999474767926,0.0,0.0,0.0,-1.350120395821509,-1.3562182362483188,-2.166064154198888,-0.001046234430505299,0.014778681313292286,-0.17454194546844884
6596,2.0,300.25557000000003,16002.044,0.0,0.0,-0.0659599991680535,0.0,0.0,0.0,-1.3526201851432187,-1.3780815389560588,-2.133520182187048,0.015900322829489683,0.0005371534243829155,-0.17732751184836282
6597,2.0,300.30635,15962.088,0.0,0.0,-0.06597000358842764,0.0,0.0,0.0,-1.3743532852131088,-1.3445414407709086,-2.133181554003628,-0.0026912673474324073,-0.015724698216156883,-0.17457394390660683
6598,2.0,300.43743,15974.223,0.0,0.0,-0.06598000800880177,0.0,0.0,0.0,-1.3756194425380686,-1.3496189383470187,-2.130526534766598,0.015358911890306588,-0.008954553783695652,-0.15671493466655984
6599,2.0,299.74662,15979.952,0.0,0.0,-0.0659900124291759,0.0,0.0,0.0,-1.3574520708950886,-1.3657156320856385,-2.134338786942838,0.005733271723604865,0.006959928709316484,-0.1814608325837898
6600,2.0,299.84493,16142.725,0.0,0.0,-0.06599998394027262,0.0,0.0,0.0,-1.3737700584555488,-1.3673348057454386,-2.165880451955758,0.014197413168175587,0.007286744727045712,-0.16073172150798584
6601,2.0,300.31472,16212.998,0.0,0.0,-0.06600998836064664,0.0,0.0,0.0,-1.3690166995864288,-1.3871324967993186,-2.1721973570541877,-0.008458726230736282,0.008371373230340212,-0.1757707543947228
6602,2.0,299.98446,16163.337,0.0,0.0,-0.06601999278102078,0.0,0.0,0.0,-1.3844680543363588,-1.3794476027408786,-2.149335192397868,-0.012765814393387788,8.011292313152991e-05,-0.15690216302003784
6603,2.0,299.76181,16092.983999999999,0.0,0.0,-0.06602999720139513,0.0,0.0,0.0,-1.3890369003622687,-1.3625294671461885,-2.140298926681058,-0.019780044290138382,0.0013769970573740287,-0.16396761676234384
6604,2.0,299.48331,16070.518999999998,0.0,0.0,-0.06604000162176926,0.0,0.0,0.0,-1.4132621903781186,-1.3538539184649787,-2.117920386297468,-0.0037042631216573064,-0.008667208619636891,-0.14668700107687985
6605,2.0,299.16231,16135.283000000001,0.0,0.0,-0.0660500060421434,0.0,0.0,0.0,-1.3932368220267686,-1.3560730375089887,-2.155413173122718,0.006741496204433874,-0.007141302098416644,-0.16219362861976486
6606,2.0,300.04851,16132.537,0.0,0.0,-0.06606001046251753,0.0,0.0,0.0,-1.3863981944518486,-1.3774364026173886,-2.1400538214818683,0.011303086549027789,-0.002666053631944008,-0.16548236486683784
6607,2.0,299.77187999999995,16010.831,0.0,0.0,-0.06607001488289155,0.0,0.0,0.0,-1.3453562965013286,-1.3735001286289088,-2.1480363070946775,0.012684649007377388,0.009150217444256151,-0.1853756054051478
6608,2.0,299.64632,16019.843,0.0,0.0,-0.06607998639398838,0.0,0.0,0.0,-1.3642304100890588,-1.3573436531343885,-2.148058395946858,-0.003289807657728737,-0.004234054108693606,-0.16940950947191685
6609,2.0,299.306,16100.04,0.0,0.0,-0.0660899908143624,0.0,0.0,0.0,-1.3816565892838886,-1.376994828223809,-2.135358623168488,-0.011670141464003289,0.007086932820575814,-0.18504262102478483
6610,2.0,299.52756,16177.948,0.0,0.0,-0.06609999523473653,0.0,0.0,0.0,-1.4034199855317686,-1.3675988587214987,-2.1466734857101777,0.0028710258185231873,-0.004583401262271486,-0.16823201153070683
6611,2.0,300.29784,16067.972,0.0,0.0,-0.06610999965511066,0.0,0.0,0.0,-1.3605273862735987,-1.3647973235200088,-2.158937459620538,-0.004721715575122046,0.005264598158750386,-0.17769475421460684
6612,2.0,300.40237,15940.591,0.0,0.0,-0.06612000407548502,0.0,0.0,0.0,-1.3408495627065489,-1.3720508770108786,-2.132641289050308,-0.007319586087961904,0.0024832539920030872,-0.16999315166201784
6613,2.0,300.1864,16086.903999999999,0.0,0.0,-0.06613000849585915,0.0,0.0,0.0,-1.3535750720374589,-1.3715700898384289,-2.164872065456238,-0.009619948842215032,-0.009670549437633921,-0.16571444980224284
6614,2.0,300.24055,16352.919,0.0,0.0,-0.06614001291623339,0.0,0.0,0.0,-1.4154621589952385,-1.3879532293803185,-2.167463655237008,0.004751236211485506,-0.004189288111325546,-0.15726465324331285
6615,2.0,299.79823999999996,16215.898000000001,0.0,0.0,-0.06614998442732989,0.0,0.0,0.0,-1.4042436565380587,-1.3698216254658686,-2.155162799023008,-0.0013689623893810687,0.005413639547759625,-0.16021368726185986
6616,2.0,299.802,16044.07,0.0,0.0,-0.06615998884770402,0.0,0.0,0.0,-1.4122551211037286,-1.3431770995112586,-2.121564438957108,0.0019616307126978784,-0.02037422529452948,-0.16126164117778483
6617,2.0,300.18495,16129.835,0.0,0.0,-0.06616999326807815,0.0,0.0,0.0,-1.3814334716118686,-1.3703497314179887,-2.1512836723401683,-0.013158210693364288,-0.007919943662312582,-0.17566093834888483
6618,2.0,299.19124,16238.858,0.0,0.0,-0.06617999768845229,0.0,0.0,0.0,-1.3976141637837787,-1.3753968314910987,-2.163196453765868,0.017004717815734982,0.001240633960241039,-0.17585643482317884
6619,2.0,298.95743,16204.133999999998,0.0,0.0,-0.06619000210882642,0.0,0.0,0.0,-1.3665198486900088,-1.3782732458749787,-2.1808590242090276,0.007200487657957804,0.004595939928283955,-0.17632429292435284
6620,2.0,299.50113,16055.107,0.0,0.0,-0.06620000652920066,0.0,0.0,0.0,-1.3839667995118885,-1.351416545349429,-2.1449683884418977,-0.0009848011174723031,-0.002534554439266047,-0.16299949682179785
6621,2.0,299.93607000000003,15939.178999999998,0.0,0.0,-0.06621001094957502,0.0,0.0,0.0,-1.3590584776036287,-1.3357211999754186,-2.150332635796308,-0.015075079259044485,0.003904872050655866,-0.15287580096516684
6622,2.0,300.03221,16088.612,0.0,0.0,-0.06622001536994893,0.0,0.0,0.0,-1.3907648970828088,-1.3582026865691688,-2.141568833031388,0.01042373035699209,0.0076595684801405535,-0.16876833494113785
6623,2.0,300.37805,16360.037,0.0,0.0,-0.06622998688104564,0.0,0.0,0.0,-1.3930931431625886,-1.3850229100911187,-2.194926684622398,-0.0012351844985532187,0.0003734344287976086,-0.16433877027397384
6624,2.0,300.17485,16237.851999999999,0.0,0.0,-0.06623999130141978,0.0,0.0,0.0,-1.3879136113014088,-1.3760701361825487,-2.171917801351598,0.012804591474714789,-0.018222011154622485,-0.17109240643050583
6625,2.0,300.06465,16065.863000000001,0.0,0.0,-0.06624999572179391,0.0,0.0,0.0,-1.3498134823662187,-1.3765788890577588,-2.157228815976908,-0.017982597381244185,-0.01056702114638379,-0.17290366191176285
6626,2.0,300.08307,16106.758,0.0,0.0,-0.06626000014216804,0.0,0.0,0.0,-1.3818906500569885,-1.3638763805041187,-2.150285317016638,0.008177862523592193,0.006815903617577313,-0.1770875438271798
6627,2.0,299.36271,16249.014,0.0,0.0,-0.06627000456254228,0.0,0.0,0.0,-1.3936497214425188,-1.3839811876633088,-2.161663507689578,0.004022721852561736,0.007707725420293273,-0.16617778880797085
6628,2.0,299.53172,16149.678999999998,0.0,0.0,-0.06628000898291642,0.0,0.0,0.0,-1.3981581777624685,-1.3633690461790489,-2.1475719345738478,0.009059550508083021,0.011592621751852689,-0.17863654991755482
6629,2.0,300.52175,15974.398000000001,0.0,0.0,-0.06629001340329055,0.0,0.0,0.0,-1.3619615404651386,-1.3528111827870688,-2.1410454893547377,0.014989294465828185,0.007177556997594723,-0.17035296690502882
6630,2.0,300.01005,16035.611,0.0,0.0,-0.06629998491438727,0.0,0.0,0.0,-1.3624945100177386,-1.3691720308267588,-2.1427587939488277,0.014565037529707288,0.013417579414211987,-0.18803349213996082
6631,2.0,299.45517,16291.044,0.0,0.0,-0.0663099893347614,0.0,0.0,0.0,-1.3966259409612487,-1.3760101517766288,-2.179434394568428,0.00045800103194868256,0.0033133895339310868,-0.16331718112565086
6632,2.0,299.14365,16367.14,0.0,0.0,-0.06631999375513542,0.0,0.0,0.0,-1.4335999437352986,-1.3707498638824787,-2.1708520648964185,-0.01049371047514859,-0.013085680224706088,-0.14848398999672885
6633,2.0,300.09865,16287.826000000001,0.0,0.0,-0.06632999817550955,0.0,0.0,0.0,-1.4063537498713088,-1.3654946422388288,-2.179244207524658,-0.001154494529489739,-0.011333405018519989,-0.15151712377357587
6634,2.0,300.18619,16135.971000000001,0.0,0.0,-0.0663400025958839,0.0,0.0,0.0,-1.3913498463655385,-1.3659657022103187,-2.1476168215532776,-0.0004543631803796545,0.019043338513431183,-0.15131101857073484
6635,2.0,300.12775,16112.128999999999,0.0,0.0,-0.06635000701625804,0.0,0.0,0.0,-1.3608279162532588,-1.3832917722952687,-2.1535652075903378,0.013792679534981488,-0.0028763321079718776,-0.17065869485770183
6636,2.0,299.99491,16266.832,0.0,0.0,-0.06636001143663217,0.0,0.0,0.0,-1.3855945857975385,-1.3836349601041387,-2.175481097978268,0.016056542690157383,-0.007747041449348463,-0.16392589112322584
6637,2.0,300.23888999999997,16202.786,0.0,0.0,-0.0663700158570063,0.0,0.0,0.0,-1.3771078056099588,-1.3843285297975885,-2.1638059237010183,0.005321986212614145,-0.011691851360645888,-0.17499816132597384
6638,2.0,300.11273,16008.595,0.0,0.0,-0.06637998736810302,0.0,0.0,0.0,-1.3688238780923987,-1.3644720702379087,-2.1329171970525382,0.01075283804247249,0.01091130731836219,-0.17157363943299983
6639,2.0,300.12717999999995,16062.317,0.0,0.0,-0.06638999178847715,0.0,0.0,0.0,-1.3601979786660885,-1.3684842366588787,-2.153860873969518,-0.0069066047002788135,0.013865649754183086,-0.17271234002788083
6640,2.0,299.92569,16271.563999999998,0.0,0.0,-0.06639999620885118,0.0,0.0,0.0,-1.4048102659939787,-1.3796682886126588,-2.161670499115268,-0.016129142059822382,0.015651308511413883,-0.15568319275223486
6641,2.0,299.60604,16375.212,0.0,0.0,-0.06641000062922531,0.0,0.0,0.0,-1.3885436502135886,-1.3958947796890886,-2.193217230378688,-0.005906217506323285,-0.0030487712656402967,-0.17726991871267883
6642,2.0,299.78822,16262.526000000002,0.0,0.0,-0.06642000504959944,0.0,0.0,0.0,-1.3948322856342288,-1.3902139930034385,-2.158355448763098,-0.007808409042979972,0.004119676917530456,-0.16878596549287783
6643,2.0,299.82057000000003,16062.176000000001,0.0,0.0,-0.0664300094699738,0.0,0.0,0.0,-1.3707428724567885,-1.3662827481666087,-2.145474709516868,0.0016422838680807982,-0.017402108425454383,-0.1792741375429798
6644,2.0,299.41245,16178.268999999998,0.0,0.0,-0.06644001389034793,0.0,0.0,0.0,-1.3953877493390487,-1.3672328727853786,-2.155169283823648,0.001241876914138709,-0.016045898497856884,-0.15199187197542985
6645,2.0,299.29652999999996,16363.63,0.0,0.0,-0.06644998540144442,0.0,0.0,0.0,-1.4129688544741685,-1.3986417007101886,-2.1625243649745376,0.02205963713986668,-0.012640879642807688,-0.16825647138812086
6646,2.0,299.35916000000003,16322.964,0.0,0.0,-0.06645998982181867,0.0,0.0,0.0,-1.4094291665748286,-1.383547516620509,-2.1687967883935775,0.006438497440905223,0.010357138547169992,-0.15803565550940485
6647,2.0,299.24073,16054.798999999999,0.0,0.0,-0.0664699942421928,0.0,0.0,0.0,-1.3441989622371089,-1.3772912038780587,-2.158767740228788,0.007599900613551794,0.006391205816337904,-0.18199312325882283
6648,2.0,299.34292999999997,15999.923999999999,0.0,0.0,-0.06647999866256693,0.0,0.0,0.0,-1.3611830604133086,-1.353995773478979,-2.1483985440054276,-0.016910226164409382,0.0035553785837635467,-0.17049271435882085
6649,2.0,299.95954,16189.205,0.0,0.0,-0.06649000308294106,0.0,0.0,0.0,-1.3835374854445186,-1.364503987616059,-2.1730727038155777,-0.007961901639678514,-0.012610847923093789,-0.18343231330335982
6650,2.0,299.49967999999996,16283.185,0.0,0.0,-0.0665000075033152,0.0,0.0,0.0,-1.4153205066312586,-1.3819394887118088,-2.152421856177498,-0.01047592894914369,0.013780474937526987,-0.16301767452859187
6651,2.0,299.90797000000003,16121.041000000001,0.0,0.0,-0.06651001192368944,0.0,0.0,0.0,-1.3917037746254686,-1.3568038948061185,-2.151886353499648,0.003709260369825497,-0.003019909343166847,-0.15862755568782083
6652,2.0,300.06781,16125.883999999998,0.0,0.0,-0.06652001634406379,0.0,0.0,0.0,-1.3885138606606486,-1.3561840897199489,-2.1571682236209275,0.002141410259390738,0.0064368592181435445,-0.15815828916900784
6653,2.0,300.55471,16456.707,0.0,0.0,-0.06652998785516029,0.0,0.0,0.0,-1.4004334308620185,-1.4107096107261987,-2.191284861112978,0.005148723079964405,5.349549351109415e-06,-0.16850027962718284
6654,2.0,300.30267000000003,16639.451,0.0,0.0,-0.06653999227553442,0.0,0.0,0.0,-1.4420118447404886,-1.4009995336928887,-2.214966137150138,-0.0007512320442483302,0.016455032676235284,-0.16512322850139385
6655,2.0,300.51583,16505.123,0.0,0.0,-0.06654999669590855,0.0,0.0,0.0,-1.398950944640709,-1.4168641931586088,-2.201330019954358,-0.005356463161841755,-0.010009089062995179,-0.17831747746106483
6656,2.0,300.28146,16167.133,0.0,0.0,-0.06656000111628269,0.0,0.0,0.0,-1.3896410000718886,-1.3684360059541187,-2.1563278339879877,-0.024852405701491477,0.0017953383354360984,-0.16899784622128883
6657,2.0,299.91341,16040.4,0.0,0.0,-0.06657000553665682,0.0,0.0,0.0,-1.3635633875482287,-1.3659850552872288,-2.1463327297015478,-0.002084223031696798,0.0015404905338845785,-0.16657889399255685
6658,2.0,299.34598,16125.688,0.0,0.0,-0.06658000995703106,0.0,0.0,0.0,-1.3829569944622286,-1.3742653351044287,-2.1445842653289877,-0.002375872279530338,0.025996631549167773,-0.16491520825586384
6659,2.0,299.90164,16241.321000000002,0.0,0.0,-0.0665900143774052,0.0,0.0,0.0,-1.3704723346800884,-1.3830550770719088,-2.183428727787638,0.028364466323604873,-0.0027151412423135775,-0.16213393805637386
6660,2.0,299.56849,16158.456,0.0,0.0,-0.06659998588850191,0.0,0.0,0.0,-1.3880409768389788,-1.3731474162690986,-2.150578956895618,0.0026483537738971673,-0.0003869745608114156,-0.16615332895055682
6661,2.0,299.75111,16286.482,0.0,0.0,-0.06660999030887604,0.0,0.0,0.0,-1.3771040565845887,-1.402660959881859,-2.170918736752998,0.01054315100052799,-0.004142480617656007,-0.1827876025297318
6662,2.0,300.39047,16502.631,0.0,0.0,-0.06661999472925018,0.0,0.0,0.0,-1.4472338317808588,-1.3877414601094187,-2.181412461413648,0.0013700587259892687,0.0020995892734383278,-0.16935399349893784
6663,2.0,299.86747,16461.412,0.0,0.0,-0.0666299991496242,0.0,0.0,0.0,-1.4027395880896185,-1.4059991123363087,-2.1951195061164275,0.002197754159026448,-0.00908053096597863,-0.17440868281529684
6664,2.0,299.9738,16368.99,0.0,0.0,-0.06664000356999833,0.0,0.0,0.0,-1.4041478030785988,-1.3801004397803087,-2.191515983460788,-0.011253205259854888,0.0027084441657776277,-0.16011503723212384
6665,2.0,300.43806,16184.891000000001,0.0,0.0,-0.06665000799037268,0.0,0.0,0.0,-1.3644066142814488,-1.3766821392429487,-2.178713973747328,-0.003957781539077626,-0.004296916955497686,-0.17488703818750684
6666,2.0,300.09564,16078.776000000002,0.0,0.0,-0.06666001241074682,0.0,0.0,0.0,-1.3838735805026885,-1.3678494354712287,-2.1358232996643483,-0.011464261202684489,0.02662842135752057,-0.16817129758471486
6667,2.0,299.79109,16204.903,0.0,0.0,-0.06666998392184331,0.0,0.0,0.0,-1.3855229490154686,-1.3672469569617687,-2.173115868269838,-9.158787614926962e-05,-0.0072120010161940825,-0.17290050057145084
6668,2.0,299.17667,16311.447,0.0,0.0,-0.06667998834221744,0.0,0.0,0.0,-1.4218816050037886,-1.374440931346759,-2.161950054817858,-0.003905295791847686,0.0004123938647451056,-0.15541198623046887
6669,2.0,299.33622,16319.903,0.0,0.0,-0.0666899927625918,0.0,0.0,0.0,-1.3930418727075287,-1.3889385137775587,-2.178862718862008,0.005053700485586405,-0.00990240071756586,-0.16486387700579785
6670,2.0,300.33931,16360.684,0.0,0.0,-0.06669999718296593,0.0,0.0,0.0,-1.4015344284206788,-1.3816806033112587,-2.190024479313588,0.02122923207341208,0.004869639653246016,-0.15057576376817086
6671,2.0,300.30852000000004,16346.575,0.0,0.0,-0.06671000160333995,0.0,0.0,0.0,-1.4008098532741686,-1.3913173210373286,-2.176823350385738,0.005223561124400345,-0.017835753123751782,-0.17430587846015083
6672,2.0,300.25621,16465.658,0.0,0.0,-0.06672000602371408,0.0,0.0,0.0,-1.4260579179409587,-1.3862595818381687,-2.1928313847406082,0.004811140064022556,-0.003853323458443416,-0.15877417297729085
6673,2.0,300.28927000000004,16454.012,0.0,0.0,-0.06673001044408822,0.0,0.0,0.0,-1.4210860010252686,-1.3941541173422987,-2.1863687742777977,0.006086060178497374,-0.00024403979710735274,-0.19198566402250983
6674,2.0,300.06182,16200.966,0.0,0.0,-0.06674001486446257,0.0,0.0,0.0,-1.4037323705375986,-1.3635244787443885,-2.1574321752719774,-0.005856129412804974,0.02263323194197608,-0.17228106025531684
6675,2.0,300.40501,16078.455,0.0,0.0,-0.06674998637555907,0.0,0.0,0.0,-1.3618658896556988,-1.353145453995059,-2.172437598652898,9.067453352237971e-05,-0.004244268176326655,-0.17859550315600384
6676,2.0,300.4513,16195.287,0.0,0.0,-0.0667599907959332,0.0,0.0,0.0,-1.3682905032397588,-1.3744690996995386,-2.1802031474192978,-0.004786260315767115,0.003013720006256007,-0.14693840869169186
6677,2.0,300.42306,16336.839,0.0,0.0,-0.06676999521630744,0.0,0.0,0.0,-1.3849527931841987,-1.3956974998946186,-2.185340832051348,-0.004266685524189076,-0.005137383088820236,-0.17137489042588486
6678,2.0,301.14216,16444.878,0.0,0.0,-0.06677999963668158,0.0,0.0,0.0,-1.4106115281165186,-1.4047059012336787,-2.183514955371148,-0.0005845876436368084,-0.009751007676399531,-0.17063784217064384
6679,2.0,300.66396000000003,16360.198999999999,0.0,0.0,-0.06679000405705571,0.0,0.0,0.0,-1.4118830556670088,-1.3975692768043486,-2.1636396493596077,-0.006535967135599734,-0.008441072374243982,-0.18470554311401782
6680,2.0,300.30798,16406.354,0.0,0.0,-0.06680000847742984,0.0,0.0,0.0,-1.4134192441436186,-1.3962157773207686,-2.177487029201238,0.008146011411998732,0.01011378586535295,-0.17133965971990783
6681,2.0,300.04037999999997,16540.892,0.0,0.0,-0.06681001289780397,0.0,0.0,0.0,-1.4126784569955089,-1.4209005762569686,-2.194439108674278,0.02208610221922858,-0.003260279118014497,-0.17694173713778982
6682,2.0,299.84015,16508.201,0.0,0.0,-0.06681998440890069,0.0,0.0,0.0,-1.4099215047984186,-1.4077315673572885,-2.2004278220653184,0.013279057993040988,0.014284819161551885,-0.16216950313488385
6683,2.0,299.9122,16260.095,0.0,0.0,-0.06682998882927482,0.0,0.0,0.0,-1.3946778663189887,-1.3736482657935287,-2.174336631990318,-0.004150111201509086,-0.012549122753501988,-0.15897722829733085
6684,2.0,300.25737000000004,16198.236,0.0,0.0,-0.06683999324964907,0.0,0.0,0.0,-1.3880915380189687,-1.3684838313588386,-2.167284107319288,-0.0075861239585671425,-0.003092815423637117,-0.16330152641160584
6685,2.0,300.13633,16375.225,0.0,0.0,-0.0668499976700232,0.0,0.0,0.0,-1.4035316456927884,-1.3835252251183088,-2.1906025384956376,-0.010878961335419888,0.008860455780033902,-0.17270336263199482
6686,2.0,300.24316,16451.631,0.0,0.0,-0.06686000209039733,0.0,0.0,0.0,-1.4071683016266987,-1.3958856604381886,-2.197830963384028,-0.004504091542494226,0.02534119450998118,-0.1788627174723758
6687,2.0,300.09697,16303.253,0.0,0.0,-0.06687000651077146,0.0,0.0,0.0,-1.3800727780525788,-1.3854212187054287,-2.190287721689568,-0.01038330269125219,0.006768561229179983,-0.16772221500789383
6688,2.0,299.56098,16182.573999999999,0.0,0.0,-0.0668800109311456,0.0,0.0,0.0,-1.3712187960287587,-1.3830526452716687,-2.164826975826788,-0.0030052207630921974,0.018434074268051482,-0.17061027163542283
6689,2.0,299.81892,16364.962,0.0,0.0,-0.06689001535151984,0.0,0.0,0.0,-1.3889468224283787,-1.4054090968030788,-2.1801836930173777,0.002122179177792778,0.013711799885499287,-0.17609729450444983
6690,2.0,299.85549,16553.789,0.0,0.0,-0.06689998686261633,0.0,0.0,0.0,-1.4195657205752288,-1.4209097968328788,-2.191462889155548,0.003146108629871747,0.0017570602797833486,-0.18311593609213583
6691,2.0,299.62257,16482.185,0.0,0.0,-0.06690999128299069,0.0,0.0,0.0,-1.4110348640082986,-1.4138787530639685,-2.1852589614432683,0.005385695629876775,-0.00898278728845708,-0.17441296886321986
6692,2.0,299.84027000000003,16277.622,0.0,0.0,-0.06691999570336482,0.0,0.0,0.0,-1.399441053714079,-1.3759786396985185,-2.172570841041048,0.0060120617130942945,-0.0022751309015879378,-0.17524695475552782
6693,2.0,300.188,16243.33,0.0,0.0,-0.06693000012373895,0.0,0.0,0.0,-1.3825302135201087,-1.3757351556994886,-2.1793014561553083,0.006688369779165703,0.005966501631622864,-0.17085449530702584
6694,2.0,300.16643999999997,16419.465,0.0,0.0,-0.06694000454411297,0.0,0.0,0.0,-1.4212374819152185,-1.3854441181576884,-2.184425664561028,0.007330701137583873,-0.002797280260345067,-0.16600512085842983
6695,2.0,300.58302000000003,16557.618000000002,0.0,0.0,-0.0669500089644871,0.0,0.0,0.0,-1.4116510213941087,-1.3957325583480789,-2.2257190511863683,-0.006583597287025464,-0.015295869495584787,-0.16899096625310986
6696,2.0,300.01906,16302.825,0.0,0.0,-0.06696001338486146,0.0,0.0,0.0,-1.4044049659539788,-1.3854866746618886,-2.165760179168888,-0.0075502896595055725,-0.008591212835636691,-0.18183931189364283
6697,2.0,299.54317000000003,16170.157,0.0,0.0,-0.06696998489595796,0.0,0.0,0.0,-1.3732737685565686,-1.3795755762285087,-2.162474614394628,-0.008090806608125441,0.0047013140883335755,-0.18857751625115182
6698,2.0,299.59201,16415.911,0.0,0.0,-0.06697998931633209,0.0,0.0,0.0,-1.4047406557121087,-1.4018939295561588,-2.1833924534340583,0.005694944322672245,0.010053978474225421,-0.17704451109543284
6699,2.0,299.62284,16526.131,0.0,0.0,-0.06698999373670622,0.0,0.0,0.0,-1.3962796120770686,-1.4158930942627685,-2.211358561494098,0.004187192304818706,0.01110778259225279,-0.15763747861760785
6700,2.0,299.84741,16440.155,0.0,0.0,-0.06699999815708058,0.0,0.0,0.0,-1.4061901099801588,-1.3904666975783786,-2.200739903096118,0.0038755730120892764,-0.001029580854511719,-0.15343365594022287
6701,2.0,300.09977000000003,16379.763,0.0,0.0,-0.0670100025774546,0.0,0.0,0.0,-1.397971131794009,-1.3850027464141288,-2.196065172434758,-0.003407171808861677,0.004737044833234926,-0.15560394646191383
6702,2.0,299.69009,16386.793,0.0,0.0,-0.06702000699782873,0.0,0.0,0.0,-1.4118736324410788,-1.3944324571447686,-2.1748697028679276,-0.005477537632190875,-0.013516817129005987,-0.17712298731567783
6703,2.0,300.18191,16516.664,0.0,0.0,-0.06703001141820286,0.0,0.0,0.0,-1.4225653461712686,-1.3952251226979986,-2.202862864705638,0.0025047554631001177,-0.015538062613987384,-0.16091273863835084
6704,2.0,300.49891,16631.221,0.0,0.0,-0.067040015838577,0.0,0.0,0.0,-1.4236540834037186,-1.4149841075980587,-2.216837711409848,0.015805318473613484,0.005614911344973605,-0.18183331345305084
6705,2.0,300.6537,16444.113999999998,0.0,0.0,-0.06704998734967371,0.0,0.0,0.0,-1.4069814583082587,-1.3890085293594687,-2.2026099574806777,0.010758453474526688,0.015975620484170984,-0.16376036658688983
6706,2.0,300.42121000000003,16226.684,0.0,0.0,-0.06705999177004784,0.0,0.0,0.0,-1.3866221227239488,-1.3770424509785086,-2.168842181998058,0.016587022687261685,-0.007419840801881273,-0.19073056125614082
6707,2.0,300.54856,16341.081,0.0,0.0,-0.06706999619042198,0.0,0.0,0.0,-1.3947562918767287,-1.3925209608311186,-2.180003334499578,-0.018587864354979382,-0.026404117169633475,-0.17286435794038382
6708,2.0,299.97963,16545.286,0.0,0.0,-0.06708000061079622,0.0,0.0,0.0,-1.4270232413112287,-1.4058326353448787,-2.1964980328774777,0.010668124254611888,-0.023244721284575377,-0.1920416764880378
6709,2.0,299.65455,16458.345,0.0,0.0,-0.06709000503117035,0.0,0.0,0.0,-1.4090709826644787,-1.4049892059616385,-2.1888657264992277,-0.00993302883628862,0.011580550903411388,-0.18026308990558182
6710,2.0,299.61088,16246.355,0.0,0.0,-0.06710000945154448,0.0,0.0,0.0,-1.3796632223621588,-1.3868158561430686,-2.172007170010418,-0.003712126449058356,0.01138892403124929,-0.17933946177692683
6711,2.0,299.5021,16262.854,0.0,0.0,-0.06711001387191862,0.0,0.0,0.0,-1.3806397928085385,-1.3796211724830088,-2.183240668569078,-0.014821613733279386,0.00904315774266518,-0.15826806468484186
6712,2.0,299.25341000000003,16330.971000000001,0.0,0.0,-0.06711998538301511,0.0,0.0,0.0,-1.3978999003119787,-1.3771824821423286,-2.1891250171998182,0.010547942660250892,0.013637577289174087,-0.15485719127071484
6713,2.0,300.30374,16488.918,0.0,0.0,-0.06712998980338947,0.0,0.0,0.0,-1.4219763438881385,-1.3905776484643289,-2.199665452690078,0.013412467567457486,-0.00011460161592779889,-0.16592144666517183
6714,2.0,300.06597999999997,16439.377,0.0,0.0,-0.0671399942237636,0.0,0.0,0.0,-1.4170126342982587,-1.3914267520481287,-2.1887208317349276,0.017556722284713586,-0.01940369179224528,-0.18040372901946183
6715,2.0,300.46182000000005,16371.908000000001,0.0,0.0,-0.06714999864413784,0.0,0.0,0.0,-1.4031358702037287,-1.3921327847178087,-2.181382773185718,-0.008982061396085442,-0.013699918514826688,-0.18080195657376383
6716,2.0,300.63487000000003,16599.859,0.0,0.0,-0.06716000306451197,0.0,0.0,0.0,-1.4096091197925884,-1.4193273028266986,-2.2170062149014775,0.008892544701425831,0.0026915556170858572,-0.17671469818788282
6717,2.0,300.40934,16715.644,0.0,0.0,-0.06717000748488611,0.0,0.0,0.0,-1.4459910805332088,-1.4078248876914987,-2.227322519469618,-0.01646976431943918,0.04265397278011936,-0.16397433461050684
6718,2.0,299.88364,16495.087,0.0,0.0,-0.06718001190526024,0.0,0.0,0.0,-1.4106500316203185,-1.4074182704263685,-2.196026263630918,-0.008121525210082133,0.022090429810405682,-0.17472502962901784
6719,2.0,299.83352,16182.323999999999,0.0,0.0,-0.06719001632563437,0.0,0.0,0.0,-1.3910613740620688,-1.3598597557827088,-2.1681011921999276,-0.01984590149363798,8.620682404195112e-05,-0.16636816836925986
6720,2.0,298.94867999999997,16263.798,0.0,0.0,-0.06719998783673098,0.0,0.0,0.0,-1.3877120758565187,-1.3966090196845786,-2.159467288097828,2.9661409226353173e-06,-0.0028551632868826773,-0.1895628918409008
6721,2.0,299.62339,16575.519,0.0,0.0,-0.06720999225710511,0.0,0.0,0.0,-1.4203275833254185,-1.4113742014667885,-2.206842201823368,0.014982478332405487,-0.0005695911469892694,-0.17638882682322185
6722,2.0,299.99904,16572.214,0.0,0.0,-0.06721999667747947,0.0,0.0,0.0,-1.3994429788892686,-1.4240174348895787,-2.2140790366875875,0.018710326775315485,-0.013257521362165488,-0.18210536097239982
6723,2.0,300.06853,16334.697,0.0,0.0,-0.0672300010978536,0.0,0.0,0.0,-1.3805123259459589,-1.3933474689376886,-2.191480215732258,-0.009644384786926672,-0.01030362475638859,-0.16109082747592685
6724,2.0,299.94076,16363.192,0.0,0.0,-0.06724000551822773,0.0,0.0,0.0,-1.3887911872130188,-1.3934268064205186,-2.191783785462218,0.00037081728484931667,-0.005053896448155746,-0.17318260966429283
6725,2.0,299.98417,16571.02,0.0,0.0,-0.06725000993860175,0.0,0.0,0.0,-1.4188369911033087,-1.4086399460719385,-2.209699263130338,-0.012217604546033687,0.014368936145103586,-0.17028440027076183
6726,2.0,299.80246,16660.293,0.0,0.0,-0.06726001435897588,0.0,0.0,0.0,-1.4501857332971886,-1.4106750588977885,-2.203452373613818,-0.004772818641265526,-0.012149134170526188,-0.18567284232198283
6727,2.0,300.34064,16519.956000000002,0.0,0.0,-0.0672699858700726,0.0,0.0,0.0,-1.4078310685171087,-1.3951933066448587,-2.218629745536708,0.0007182448665102493,-0.009980669424190382,-0.17290621530201483
6728,2.0,299.65417,16196.445,0.0,0.0,-0.06727999029044673,0.0,0.0,0.0,-1.3737033865989685,-1.3768759739870788,-2.1727356968323184,-0.003810706057912406,-0.007128978950700443,-0.17104210869554184
6729,2.0,299.38908,16348.851,0.0,0.0,-0.06728999471082087,0.0,0.0,0.0,-1.3903976952465686,-1.3804497070897788,-2.198794969529168,0.007779624127514123,0.014276261251207288,-0.15801047624441986
6730,2.0,299.64651000000003,16697.89,0.0,0.0,-0.067299999131195,0.0,0.0,0.0,-1.4541647664398887,-1.4051279199003288,-2.216448826021468,-0.008478545301367272,0.0004940100761224985,-0.16154603008335183
6731,2.0,299.68531,16731.552,0.0,0.0,-0.06731000355156935,0.0,0.0,0.0,-1.4534088818652884,-1.4205728911746287,-2.2119921467816277,-0.005297409426138605,0.013374915505501387,-0.16008267402392984
6732,2.0,299.24792,16438.049,0.0,0.0,-0.06732000797194337,0.0,0.0,0.0,-1.4134677788234087,-1.3891835176517386,-2.1941053440913376,-0.0011841773871942088,0.010610430807167991,-0.17843025219719483
6733,2.0,300.06537000000003,16529.484,0.0,0.0,-0.0673300123923175,0.0,0.0,0.0,-1.3948421141601988,-1.4298736151675386,-2.199834766781788,-0.027103453269402576,0.018969042963098783,-0.18247836873171283
6734,2.0,300.01454,16691.245,0.0,0.0,-0.06733998390341422,0.0,0.0,0.0,-1.4218920414798186,-1.4244404668063286,-2.227389090001188,-0.005757335400229765,-0.008737882104836822,-0.17714164125001883
6735,2.0,300.34189,16599.828999999998,0.0,0.0,-0.06734998832378836,0.0,0.0,0.0,-1.4184900542690686,-1.3953508670354087,-2.232092596965388,-0.016388718496940586,-0.0019172339436662582,-0.15185981508989688
6736,2.0,299.90295,16387.912,0.0,0.0,-0.06735999274416249,0.0,0.0,0.0,-1.3864205872790587,-1.4064356204793884,-2.1886596314288878,0.02097395890946858,0.006396023212613344,-0.17338709366697383
6737,2.0,299.67189,16172.875,0.0,0.0,-0.06736999716453662,0.0,0.0,0.0,-1.3842621619160387,-1.3639826704396087,-2.167905432280608,0.017290117944901786,0.01145172527244729,-0.16203837843944285
6738,2.0,300.18935,16434.193,0.0,0.0,-0.06738000158491075,0.0,0.0,0.0,-1.3988183102026186,-1.4144712003974385,-2.182294900925738,0.015768274049957485,-0.016562092681801283,-0.1950145117514338
6739,2.0,300.23706,16746.014,0.0,0.0,-0.067390006005285,0.0,0.0,0.0,-1.4292002091510787,-1.4353547915834886,-2.2258153099458684,0.0031494383723503667,-0.014033853323783489,-0.18512913231832281
6740,2.0,299.30126,16600.199,0.0,0.0,-0.06740001042565913,0.0,0.0,0.0,-1.4144579268211288,-1.4144952144248089,-2.217092746460018,0.002374007696696318,-0.0011814950102044788,-0.17432435000947383
6741,2.0,299.43627999999995,16440.663,0.0,0.0,-0.06741001484603326,0.0,0.0,0.0,-1.3966329323869386,-1.4168532500575288,-2.1840647448754082,-0.016008046513871187,0.004688994892292766,-0.17840065516177384
6742,2.0,299.95731,16490.62,0.0,0.0,-0.06741998635712998,0.0,0.0,0.0,-1.4211109269777287,-1.3993058861507386,-2.192319794765118,-0.018265188781133784,0.00025026839745956775,-0.17565798979109384
6743,2.0,300.29758,16697.692,0.0,0.0,-0.06742999077750389,0.0,0.0,0.0,-1.4649283196021685,-1.4186512623599785,-2.192101844668608,-0.02192454455703408,0.01810287726086488,-0.16109923745175686
6744,2.0,300.16206,16731.723,0.0,0.0,-0.06743999519787824,0.0,0.0,0.0,-1.4416579164805587,-1.4248373568704986,-2.2195306262006183,0.008457139886379722,0.013270219412418688,-0.17518086045150483
6745,2.0,299.81113,16562.709,0.0,0.0,-0.06744999961825238,0.0,0.0,0.0,-1.4158194309804986,-1.4038414975733686,-2.214989239252418,0.006080352338034055,0.007115139575534604,-0.17944253970959984
6746,2.0,300.42249,16433.603,0.0,0.0,-0.06746000403862662,0.0,0.0,0.0,-1.4079057450494787,-1.3864250455794989,-2.201074072979098,0.006232366906811723,-0.01886480080606088,-0.17154148900732685
6747,2.0,300.46356000000003,16445.703999999998,0.0,0.0,-0.06747000845900075,0.0,0.0,0.0,-1.4090353162609588,-1.3759998166256089,-2.214048233884548,-0.0008959746386483122,-0.027348102506047575,-0.16033611827144284
6748,2.0,300.61985,16629.203999999998,0.0,0.0,-0.06748001287937466,0.0,0.0,0.0,-1.4424311276318686,-1.3958743120370687,-2.2165574464321876,0.007301885925940033,-0.004038311009325266,-0.16002261869050285
6749,2.0,300.66772000000003,16714.748,0.0,0.0,-0.0674899843904716,0.0,0.0,0.0,-1.4536601678900885,-1.4160961495828088,-2.211109605944528,-0.00018247662594154083,0.003140397749658127,-0.18381657827128384
6750,2.0,300.27255,16562.16,0.0,0.0,-0.06749998881084551,0.0,0.0,0.0,-1.4146733437923886,-1.4147320109731787,-2.2050777280992278,0.004214507298364486,0.01083028176086559,-0.17468651599271684
6751,2.0,300.62695,16468.067,0.0,0.0,-0.06750999323121976,0.0,0.0,0.0,-1.3960736183317386,-1.4141188933376687,-2.195688648697598,-0.012908855923254886,0.008961803081536102,-0.18633403867473783
6752,2.0,300.39051,16660.584,0.0,0.0,-0.06751999765159389,0.0,0.0,0.0,-1.4039997672389886,-1.4250490248163885,-2.235352931812158,0.01748351293848838,0.008586941175865111,-0.16855511672259482
6753,2.0,299.61028,16729.91,0.0,0.0,-0.06753000207196824,0.0,0.0,0.0,-1.4288515497916685,-1.4240813709708886,-2.2325420747097477,-0.004282667923316416,-0.002984459673843237,-0.16611232271900986
6754,2.0,300.04453,16648.178,0.0,0.0,-0.06754000649234237,0.0,0.0,0.0,-1.4314261169707587,-1.4180318625738486,-2.211172326125718,-0.0004973950812615725,-0.025403512430881476,-0.17551378403686185
6755,2.0,299.97418,16430.574,0.0,0.0,-0.06755001091271651,0.0,0.0,0.0,-1.4253825867493086,-1.3793533704815788,-2.1897483686613377,-0.0016217272527020185,-0.017386462830660285,-0.17872494585627882
6756,2.0,299.7826,16525.506,0.0,0.0,-0.06756001533309053,0.0,0.0,0.0,-1.4041151764253788,-1.4151841231677986,-2.204041983847008,-0.01125755007628369,0.007912157139269113,-0.18548900835633983
6757,2.0,300.52502999999996,16689.333,0.0,0.0,-0.06756998684418714,0.0,0.0,0.0,-1.4292507703310686,-1.4141709743928088,-2.229718754631108,0.014653275401415686,0.011947588593135187,-0.17888907210747682
6758,2.0,300.05014,16610.814,0.0,0.0,-0.06757999126456138,0.0,0.0,0.0,-1.4056964545314385,-1.4044355661069987,-2.2391407646609878,-0.0035264533331588466,-0.0027840169178610773,-0.17203910626393784
6759,2.0,299.01409,16507.662,0.0,0.0,-0.06758999568493551,0.0,0.0,0.0,-1.4112932427837985,-1.3902218963542186,-2.2164021151918583,0.006817632019597893,-0.013888764015464286,-0.16260460286032485
6760,2.0,299.61548,16559.256,0.0,0.0,-0.06760000010530964,0.0,0.0,0.0,-1.4276524696233286,-1.3909537669014487,-2.214994204177908,0.0030850123846170173,-0.013518706840442488,-0.16325680155219185
6761,2.0,299.4234,16783.777,0.0,0.0,-0.06761000452568378,0.0,0.0,0.0,-1.4516579856924885,-1.4388046041989586,-2.2113865271968582,0.002085809376053358,-0.0012111916481103088,-0.17109624664838485
6762,2.0,300.29829,16845.688000000002,0.0,0.0,-0.06762000894605813,0.0,0.0,0.0,-1.4504995368531588,-1.4317589696286088,-2.2384100086888683,-0.008164770217725081,0.0025956623368969278,-0.16743694457473984
6763,2.0,300.23098999999996,16637.672,0.0,0.0,-0.06763001336643215,0.0,0.0,0.0,-1.4234087755545088,-1.4142387608244986,-2.2197893089511482,-0.006243626749872984,0.008284212443488113,-0.16460982480822484
6764,2.0,300.40519,16344.971000000001,0.0,0.0,-0.06763998487752876,0.0,0.0,0.0,-1.3808250149268186,-1.3820942120020787,-2.205543721820218,-0.01705137494308968,0.012797885785552987,-0.17572810669801384
6765,2.0,300.4545,16513.04,0.0,0.0,-0.067649989297903,0.0,0.0,0.0,-1.4064784809586186,-1.3962625894753886,-2.2168106576321778,0.005185100987704625,-0.006034341461593134,-0.16064005277143886
6766,2.0,300.21589,16666.207,0.0,0.0,-0.06765999371827713,0.0,0.0,0.0,-1.4429569031087586,-1.4157563054992686,-2.207397462878168,-0.014525119528767685,-0.011877760462493689,-0.17932192241769584
6767,2.0,299.50147000000004,16564.904,0.0,0.0,-0.06766999813865127,0.0,0.0,0.0,-1.4281299130704486,-1.4019584735875288,-2.205228803689138,0.030042157203180073,-0.004799869277860215,-0.18076159882228082
6768,2.0,299.31186,16520.121,0.0,0.0,-0.0676800025590254,0.0,0.0,0.0,-1.3938716232144186,-1.4187863285983087,-2.209046324765898,0.00920296379941181,0.014501975883233589,-0.19678369708853882
6769,2.0,299.75872000000004,16672.106,0.0,0.0,-0.06769000697939953,0.0,0.0,0.0,-1.4196177003053587,-1.4171532734121386,-2.231133150445698,0.0020860519481272983,0.005040397727673526,-0.17377471249272883
6770,2.0,299.68587,16777.714,0.0,0.0,-0.06770001139977377,0.0,0.0,0.0,-1.4217265777384884,-1.4360219154493288,-2.242257521968588,-0.020507594338941983,-0.01008908728621539,-0.18028583737032683
6771,2.0,299.72205,16658.531000000003,0.0,0.0,-0.0677100158201479,0.0,0.0,0.0,-1.4295776448133286,-1.4142194077475885,-2.219980306594998,-0.011959098101021089,0.008091280707847233,-0.15713841241335386
6772,2.0,300.16028,16590.4,0.0,0.0,-0.06771998733124462,0.0,0.0,0.0,-1.4377816268979986,-1.4125717617599787,-2.1927138477290082,-0.01041707735683549,-0.0008304703400260413,-0.16784033970455184
6773,2.0,300.32275,16585.398,0.0,0.0,-0.06772999175161853,0.0,0.0,0.0,-1.4309922432779387,-1.3994025502102787,-2.2111519597987077,0.004873764087778065,-0.016137114311609184,-0.16721212464255183
6774,2.0,300.44172000000003,16687.463,0.0,0.0,-0.06773999617199267,0.0,0.0,0.0,-1.4173528836818385,-1.4346222117611884,-2.2205968692808478,-0.00921530923863021,0.0037118668543827363,-0.17697059450063782
6775,2.0,300.50686,16759.022,0.0,0.0,-0.06775000059236702,0.0,0.0,0.0,-1.4285596324378587,-1.4215669908477386,-2.244197490610048,0.015653528542382986,0.004899119455630446,-0.16324322400085184
6776,2.0,300.28227999999996,16639.108,0.0,0.0,-0.06776000501274115,0.0,0.0,0.0,-1.4081791199264588,-1.4088453318672087,-2.240848901679568,0.003185917503775577,0.014565525916255486,-0.17340506872374783
6777,2.0,300.39921,16568.08,0.0,0.0,-0.0677700094331154,0.0,0.0,0.0,-1.4290149870327986,-1.4112103589256186,-2.1960572690839775,-0.014587201362394686,-0.005837835790199535,-0.17696071531216284
6778,2.0,300.58019,16668.228,0.0,0.0,-0.06778001385348953,0.0,0.0,0.0,-1.4538961538383786,-1.3943491679865487,-2.2184796831968976,-0.0013839516007603887,-0.008745197162608763,-0.16316190054782584
6779,2.0,300.17265,16806.945,0.0,0.0,-0.06778998536458625,0.0,0.0,0.0,-1.4346536225142885,-1.4437052896326186,-2.230532901086458,-0.010913470607325688,0.002841892041047907,-0.17995015774469783
6780,2.0,300.16046,16685.799,0.0,0.0,-0.06779998978496038,0.0,0.0,0.0,-1.4230119868153486,-1.4119948171530385,-2.2370594476305774,0.017664552360355586,0.012429284650924887,-0.18053787320020082
6781,2.0,299.91823999999997,16657.315,0.0,0.0,-0.06780999420533429,0.0,0.0,0.0,-1.4161951441175786,-1.4122392130771586,-2.234973368324698,-0.006596917979465113,-0.006862331547759394,-0.17574697341487583
6782,2.0,299.69453,16679.151,0.0,0.0,-0.06781999862570853,0.0,0.0,0.0,-1.4143630866117687,-1.4275135530346186,-2.228168785953138,-0.008367430370226081,0.015281926160958683,-0.18138414981622183
6783,2.0,299.6772,16682.408,0.0,0.0,-0.06783000304608267,0.0,0.0,0.0,-1.4479652970280485,-1.4112886831583487,-2.211781390760828,0.008192512600163043,0.007391606283869744,-0.17436366411335383
6784,2.0,299.91166,16713.006,0.0,0.0,-0.06784000746645702,0.0,0.0,0.0,-1.4281352832959786,-1.4349296318415286,-2.2172716864276776,0.004300577118833916,0.01769406732251848,-0.17426560176867584
6785,2.0,300.0403,16577.122,0.0,0.0,-0.06785001188683115,0.0,0.0,0.0,-1.4189552373899785,-1.4095125570580587,-2.210563261490608,0.007449505117108913,-0.01040864002325279,-0.18348728212128482
6786,2.0,299.82248,16575.313000000002,0.0,0.0,-0.06786001630720528,0.0,0.0,0.0,-1.3789335809651486,-1.4237363593118386,-2.235811427482408,-0.003200768609166267,-0.011198393495695388,-0.17856627089061883
6787,2.0,300.25784,16643.793999999998,0.0,0.0,-0.06786998781830178,0.0,0.0,0.0,-1.3986236648584087,-1.4273244805659588,-2.2333496350394477,0.005810105161462734,-0.003028482350937937,-0.1822963890137528
6788,2.0,299.55899,16770.933,0.0,0.0,-0.06787999223867591,0.0,0.0,0.0,-1.4074635627058385,-1.4330665688826587,-2.257414831539498,0.00861234710489748,0.008415592275304293,-0.16719770609362886
6789,2.0,299.2366,16683.89,0.0,0.0,-0.06788999665905016,0.0,0.0,0.0,-1.4514440885963786,-1.3997233451919386,-2.220318326828358,0.012461908264394589,-0.011563979198025888,-0.17386635083177285
6790,2.0,298.73996,16592.64,0.0,0.0,-0.06790000107942429,0.0,0.0,0.0,-1.4268836154474487,-1.4105627907867087,-2.2063017342200277,0.02065717538495448,-0.008302985536040872,-0.17357095803011985
6791,2.0,300.15599,16636.653000000002,0.0,0.0,-0.06791000549979842,0.0,0.0,0.0,-1.4342096163204685,-1.4089675298292685,-2.213949847299838,0.01006650082691128,0.0032884308534928564,-0.17983280311811584
6792,2.0,300.36845,16771.143,0.0,0.0,-0.06792000992017255,0.0,0.0,0.0,-1.4270221267361185,-1.4299325863233587,-2.2410539834998078,-0.003390141810455947,0.014954631179907186,-0.17039792481196583
6793,2.0,300.04242999999997,16829.581000000002,0.0,0.0,-0.06793001434054691,0.0,0.0,0.0,-1.4334702477224985,-1.4445332162893287,-2.237769026675608,-0.011120239488982189,-0.007387593610823724,-0.17638553376039684
6794,2.0,300.11955,16842.06,0.0,0.0,-0.0679399858516434,0.0,0.0,0.0,-1.4537963487035288,-1.4300389775838587,-2.235730468799418,-0.027912258883475476,0.006149644560697665,-0.16308434638517186
6795,2.0,300.41676,16774.446,0.0,0.0,-0.06794999027201754,0.0,0.0,0.0,-1.4523778998885386,-1.4312375511271487,-2.215397072417668,-0.0038765520143358967,0.012343804845988689,-0.16731133195984285
6796,2.0,300.32651,16634.353,0.0,0.0,-0.06795999469239178,0.0,0.0,0.0,-1.4364414009907287,-1.4095792289146387,-2.210407423625228,0.0036453500250680365,0.018266583013271383,-0.17109546644580784
6797,2.0,299.82411,16792.482,0.0,0.0,-0.06796999911276591,0.0,0.0,0.0,-1.4447512677108485,-1.4159919874725286,-2.243752167191098,0.012164346094277488,0.003957637556238416,-0.17866141507500882
6798,2.0,298.902,16811.425,0.0,0.0,-0.06798000353314004,0.0,0.0,0.0,-1.4241298043256685,-1.4214853228896787,-2.2646381901773878,0.016395754505634984,-0.004355285024858165,-0.18228064310719883
6799,2.0,299.31295,16666.237,0.0,0.0,-0.06799000795351418,0.0,0.0,0.0,-1.3989251067631587,-1.4243115813936087,-2.242883203905338,0.025591136965148576,0.002093439453281388,-0.17929101828964583
6800,2.0,300.13231,16622.334,0.0,0.0,-0.06800001237388831,0.0,0.0,0.0,-1.4212699059184186,-1.4012279202654285,-2.2302767514611777,1.4054198372541387e-05,-0.01024814931341359,-0.18307522370311782
6801,2.0,299.73337999999995,16676.493000000002,0.0,0.0,-0.06800998388498503,0.0,0.0,0.0,-1.4443617743724089,-1.4131152691136186,-2.211760315158748,0.016992041043733884,-0.016796370290422684,-0.17195891765102383
6802,2.0,299.88706,16738.868000000002,0.0,0.0,-0.06801998830535916,0.0,0.0,0.0,-1.4434311041555588,-1.4350547682288788,-2.209712131406608,-0.016140707296463785,-0.006518832367133664,-0.19336320793096282
6803,2.0,299.99346,16767.595,0.0,0.0,-0.0680299927257334,0.0,0.0,0.0,-1.4349588134444087,-1.4388722893056385,-2.2230991917278082,0.015567707272163086,-0.0014954455887639885,-0.18222509673671683
6804,2.0,300.39878,16728.243000000002,0.0,0.0,-0.06803999714610731,0.0,0.0,0.0,-1.4159172096151487,-1.4422930216432386,-2.226758037838908,-0.007098650551357263,0.007419939188465984,-0.1930425446718158
6805,2.0,300.9325,16682.468,0.0,0.0,-0.06805000156648144,0.0,0.0,0.0,-1.4135226969788286,-1.4260363357138286,-2.231494576756368,-0.013233189174264089,-0.006403075433309344,-0.16572333600561986
6806,2.0,300.29418,16743.235,0.0,0.0,-0.0680600059868558,0.0,0.0,0.0,-1.4434420472566385,-1.4200880510017786,-2.225995161838618,-0.006128033455939813,-0.0006117571749982324,-0.17565150499045382
6807,2.0,299.86717000000004,16850.973,0.0,0.0,-0.06807001040722993,0.0,0.0,0.0,-1.4565327319235886,-1.4203929379568687,-2.2453492519987184,-0.0017875552574429683,0.005814422924113865,-0.14653095042897885
6808,2.0,300.11908999999997,16782.482,0.0,0.0,-0.06808001482760417,0.0,0.0,0.0,-1.4446021172961288,-1.4051954023569886,-2.2516578484463277,0.012977673843546688,0.0014583653973794584,-0.16788347376130885
6809,2.0,299.54208,16639.784,0.0,0.0,-0.06808998633870067,0.0,0.0,0.0,-1.4192730939463487,-1.3933073442337287,-2.2454983010884275,-0.009034100502671302,-0.011905657264246887,-0.1837749640896768
6810,2.0,299.70337,16712.287,0.0,0.0,-0.06809999075907502,0.0,0.0,0.0,-1.4109769061025785,-1.4160178253500786,-2.2531231094159376,-0.01053187352691499,0.003402052261406416,-0.19110312318540984
6811,2.0,300.15121,16791.363,0.0,0.0,-0.06810999517944916,0.0,0.0,0.0,-1.4274523527285787,-1.4258929608246786,-2.250809859437638,-0.012193718188176288,-0.004091132142338306,-0.1915609805080968
6812,2.0,299.70182,16712.293,0.0,0.0,-0.06811999959982307,0.0,0.0,0.0,-1.4263892507236589,-1.4192671157707588,-2.234463500874378,0.0012671399749069787,-0.0049847701958585155,-0.17047420227949384
6813,2.0,299.62605,16747.744,0.0,0.0,-0.06813000402019731,0.0,0.0,0.0,-1.4393908707068186,-1.4357633340238087,-2.215741982751708,0.006925275353246462,-0.005232062090089326,-0.17570776063600582
6814,2.0,300.38245,16836.609,0.0,0.0,-0.06814000844057144,0.0,0.0,0.0,-1.4411386258043086,-1.4364293433145385,-2.2403408580794277,0.01243870686360479,0.0004983547506962845,-0.15959756027355285
6815,2.0,300.38617999999997,16837.666,0.0,0.0,-0.0681500128609458,0.0,0.0,0.0,-1.4357244252199686,-1.4513648524385587,-2.231140648496438,-0.0002458962030130658,0.003363539030405457,-0.18755743684547782
6816,2.0,300.24022,16835.256999999998,0.0,0.0,-0.06815998437204229,0.0,0.0,0.0,-1.4183357362788385,-1.4414090622559987,-2.2577530544228774,0.011018757425216689,-0.014879122769205088,-0.17448579114790683
6817,2.0,300.44367,16865.394,0.0,0.0,-0.06816998879241642,0.0,0.0,0.0,-1.4473618052684885,-1.4363888133105385,-2.2429082311828084,-0.014591240177293288,-0.0033283131880289373,-0.18665433716384883
6818,2.0,300.44326,16741.692,0.0,0.0,-0.06817999321279056,0.0,0.0,0.0,-1.4322826172802885,-1.4194672326655087,-2.2373064780049576,-0.006870302077021023,0.004279702444248746,-0.17211069238350285
6819,2.0,300.00372000000004,16642.295,0.0,0.0,-0.06818999763316469,0.0,0.0,0.0,-1.4281668966990986,-1.4014301649853886,-2.2292451615343682,-0.012394227210714988,0.0099537323729319,-0.18223909985309883
6820,2.0,299.84884,16759.143,0.0,0.0,-0.06820000205353893,0.0,0.0,0.0,-1.4092427285564286,-1.4271317603969387,-2.257986405920908,-0.006746713327873764,0.015674087386911985,-0.17351486450458384
6821,2.0,300.01645,16758.343,0.0,0.0,-0.06821000647391307,0.0,0.0,0.0,-1.4343147916808485,-1.4173100232026088,-2.2424931026168378,0.0003962094336803267,0.0016243834878391687,-0.1853752203701098
6822,2.0,299.80837,16862.923,0.0,0.0,-0.0682200108942872,0.0,0.0,0.0,-1.4152670070259787,-1.4505269959308686,-2.2601134205308275,0.008972266915318803,0.006415586336269073,-0.19085270855569583
6823,2.0,299.99415,16798.053,0.0,0.0,-0.06823001531466133,0.0,0.0,0.0,-1.4711683190180087,-1.4196247930560588,-2.215395451217508,-0.007549549986932573,-4.1133403553800864e-05,-0.1921728923759878
6824,2.0,299.84294,16767.125,0.0,0.0,-0.06823998682575805,0.0,0.0,0.0,-1.4407527801662285,-1.4296645816719087,-2.2263701657006276,0.00899213816832994,-0.01888744086629528,-0.14998763288012687
6825,2.0,299.55287999999996,16773.726000000002,0.0,0.0,-0.06824999124613218,0.0,0.0,0.0,-1.4632438926359286,-1.4166480669122787,-2.2189019045135683,-0.007985889727845951,-0.005406834256112995,-0.15701876784154586
6826,2.0,299.36068,16907.58,0.0,0.0,-0.06825999566650631,0.0,0.0,0.0,-1.4529418748941987,-1.4169814261951788,-2.2695586339879976,0.014414659055866088,0.010154272704898689,-0.14787980922710087
6827,2.0,299.13379,16873.025,0.0,0.0,-0.06827000008688056,0.0,0.0,0.0,-1.4444719146582787,-1.4233513242738385,-2.2611550416336277,-0.007882201210662692,0.008095623801750862,-0.16940053207603084
6828,2.0,299.31264,16775.013,0.0,0.0,-0.06828000450725469,0.0,0.0,0.0,-1.4153565783348188,-1.4216446058053986,-2.262183895785168,-0.023594413145837274,-0.0017028924360623983,-0.1963973144279058
6829,2.0,299.69469,16904.468,0.0,0.0,-0.06829000892762882,0.0,0.0,0.0,-1.4665124348085086,-1.4238151901696185,-2.248208441130898,-0.006818644155122784,0.002433440590586888,-0.18182217783445184
6830,2.0,300.13892000000004,16929.968,0.0,0.0,-0.06830001334800295,0.0,0.0,0.0,-1.4642835885635386,-1.4251951354808086,-2.256809009304708,-0.0007150285269828212,-0.004086033366510096,-0.18828562929484483
6831,2.0,300.1467,16813.666,0.0,0.0,-0.06830998485909945,0.0,0.0,0.0,-1.4398682128289286,-1.4210969441263486,-2.249969571129708,0.007763964245893613,9.123436028213032e-05,-0.16856172311324683
6832,2.0,300.13452,16766.134,0.0,0.0,-0.0683199892794738,0.0,0.0,0.0,-1.4208212387741386,-1.4303203571366288,-2.245344591048258,0.0035630928620748866,-0.01912776960451388,-0.17209024499648484
6833,2.0,299.99708,16877.343,0.0,0.0,-0.06832999369984794,0.0,0.0,0.0,-1.4301229760171486,-1.4372706448725685,-2.262897223855568,0.0005979223797228444,0.01808769269486628,-0.16249675251968085
6834,2.0,300.42606,16851.439,0.0,0.0,-0.06833999812022218,0.0,0.0,0.0,-1.4379481038894288,-1.4405573242219385,-2.243911247456798,0.016324985065650586,0.01008775445703385,-0.18502641915568582
6835,2.0,300.01049,16844.73,0.0,0.0,-0.06835000254059609,0.0,0.0,0.0,-1.4450361936389686,-1.4431404027018686,-2.2322008120760684,-0.0014162548245484686,0.002654063742185698,-0.16705450345699582
6836,2.0,299.42966,16839.238999999998,0.0,0.0,-0.06836000696097022,0.0,0.0,0.0,-1.4393482128776087,-1.4308126953602185,-2.2485472719643376,-0.005148488309916236,-0.007732423796780812,-0.17497824082900781
6837,2.0,299.05303,16853.235,0.0,0.0,-0.06837001138134458,0.0,0.0,0.0,-1.4516792639445886,-1.4148048636553687,-2.256478385797078,-0.01102028641961759,0.0014930286833004585,-0.14909879975990586
6838,2.0,299.59028,16992.832,0.0,0.0,-0.06838001580171871,0.0,0.0,0.0,-1.4493253826372787,-1.4400347911453686,-2.276036341877298,0.013991410303594685,0.010797975294677188,-0.17371718015205082
6839,2.0,299.81266,17014.034,0.0,0.0,-0.06838998731281531,0.0,0.0,0.0,-1.4540506744786288,-1.4374805902932886,-2.2803102307990977,0.004040163737133116,-0.007857015156902023,-0.17457027594124483
6840,2.0,299.96563,16825.064,0.0,0.0,-0.06839999173318945,0.0,0.0,0.0,-1.4279977852574088,-1.4313120250094986,-2.255089422559998,-0.005051701545789125,-0.014663151550140384,-0.19148671940826784
6841,2.0,300.43845,16750.1,0.0,0.0,-0.0684099961535638,0.0,0.0,0.0,-1.4509770816252885,-1.4113727829166487,-2.229262184136048,-0.011399716158064389,-0.006013206381732265,-0.18478613702697183
6842,2.0,299.99496,16928.154,0.0,0.0,-0.06842000057393793,0.0,0.0,0.0,-1.4706057625624886,-1.4338467714596588,-2.241283585972468,0.004365706606111696,0.005909486048495864,-0.1829643741421778
6843,2.0,299.75689,16896.994,0.0,0.0,-0.06843000499431184,0.0,0.0,0.0,-1.4756144604568087,-1.4244247614297787,-2.236224934848218,-0.00043747361843778467,0.0071491412091403035,-0.17184468383474982
6844,2.0,300.16136,16661.043999999998,0.0,0.0,-0.06844000941468609,0.0,0.0,0.0,-1.4125713564599385,-1.4200515739981787,-2.2319183179481876,0.003508029001290507,0.002794994469444477,-0.16756154393953684
6845,2.0,300.10267000000005,16771.674,0.0,0.0,-0.06845001383506022,0.0,0.0,0.0,-1.4119852926020986,-1.4386383298575485,-2.2475465861655777,0.0017375566339084883,0.03254317458401127,-0.17801659284386984
6846,2.0,299.73155,17003.588,0.0,0.0,-0.06845998534615694,0.0,0.0,0.0,-1.4498163023107287,-1.4413815018532787,-2.277468266918618,-0.005896006985065583,0.013505366389625887,-0.17816246032826585
6847,2.0,299.63571,17050.483,0.0,0.0,-0.06846998976653107,0.0,0.0,0.0,-1.4637738224382286,-1.4698231281852485,-2.2493240294909977,-0.003194761758598437,-0.0005252949328975735,-0.19503428026088482
6848,2.0,299.55351,16916.925,0.0,0.0,-0.0684799941869052,0.0,0.0,0.0,-1.4375796861530685,-1.4466405738473087,-2.258102524382368,-0.016209075333711184,-0.01791678780049928,-0.17712421334829884
6849,2.0,299.95087,16811.858,0.0,0.0,-0.06848999860727933,0.0,0.0,0.0,-1.4438988204017185,-1.4296966003750686,-2.2367897204539577,-0.0029154650427339972,-0.006580013421421764,-0.17059128332854884
6850,2.0,299.96764,16834.487,0.0,0.0,-0.06850000302765347,0.0,0.0,0.0,-1.4205699527493385,-1.4342561245000587,-2.262437714935218,0.0023746488813595978,-0.01052118981786059,-0.17513578095455584
6851,2.0,300.23349,16935.659,0.0,0.0,-0.06851000744802771,0.0,0.0,0.0,-1.4489185627221286,-1.4405606679472684,-2.258538424575388,-0.02023304915809648,-0.010915472789523291,-0.18217511310928383
6852,2.0,300.39177,16904.624,0.0,0.0,-0.06852001186840184,0.0,0.0,0.0,-1.4393708083548384,-1.4303508559646387,-2.268862024544248,0.007663150927194113,-0.0006058335122636123,-0.17908771978958182
6853,2.0,300.45599999999996,16799.891,0.0,0.0,-0.06853001628877597,0.0,0.0,0.0,-1.4498125532853585,-1.4268065071148386,-2.2301283103215277,-0.006826153959563943,0.02157028699082158,-0.18821342509271882
6854,2.0,300.31807000000003,16850.485,0.0,0.0,-0.06853998779987269,0.0,0.0,0.0,-1.4436025460724786,-1.4336522274404586,-2.2448719098766077,0.01880790478644568,0.01989167911990588,-0.18053901817281384
6855,2.0,300.13987000000003,17074.67,0.0,0.0,-0.06854999222024682,0.0,0.0,0.0,-1.4942370853697184,-1.4577556234692786,-2.238280515326088,0.0014723336579580185,-8.965671467767882e-05,-0.17615022668967384
6856,2.0,299.80998999999997,17127.725,0.0,0.0,-0.06855999664062096,0.0,0.0,0.0,-1.4606665896815685,-1.4599424198350985,-2.285791812515088,-0.003191036747255807,0.0048118203601396955,-0.15906833974632284
6857,2.0,299.54997000000003,16870.381999999998,0.0,0.0,-0.06857000106099509,0.0,0.0,0.0,-1.4357116582687088,-1.4331716429180286,-2.259291674699728,-0.004266279210898976,0.0013164109835446486,-0.16773133425879386
6858,2.0,300.32149,16878.093,0.0,0.0,-0.06858000548136933,0.0,0.0,0.0,-1.4234250888811186,-1.4490453203096385,-2.258048315502018,-0.018516547759940983,0.002105521954098838,-0.17061496298338585
6859,2.0,299.76495,17005.415,0.0,0.0,-0.06859000990174347,0.0,0.0,0.0,-1.4588379772260986,-1.4437245413845186,-2.2666588135268078,-0.017010059670262184,-0.0015948368109481386,-0.17351936333502782
6860,2.0,299.68722,17033.752,0.0,0.0,-0.0686000143221176,0.0,0.0,0.0,-1.4689794961519884,-1.4393250094503185,-2.269530870935258,0.0056559718867259644,0.0006704127338095854,-0.16770278087097584
6861,2.0,299.5786,16830.141,0.0,0.0,-0.0686099858332141,0.0,0.0,0.0,-1.4510095056284884,-1.4074577871802687,-2.2574754238954777,0.00991380859646673,0.012882569175910588,-0.16957230836548381
6862,2.0,299.25158,16741.167,0.0,0.0,-0.06861999025358823,0.0,0.0,0.0,-1.4185546996254486,-1.4236684715551386,-2.246673671204428,0.014456521483747589,-0.02119414626219938,-0.17522357907572084
6863,2.0,299.20785,16906.256,0.0,0.0,-0.06862999467396258,0.0,0.0,0.0,-1.4514014307671685,-1.4393198418748088,-2.248358503470708,-0.007030659341822054,-0.01957004212741278,-0.1925489804156048
6864,2.0,299.79854,17067.101000000002,0.0,0.0,-0.06863999909433671,0.0,0.0,0.0,-1.4669614059278184,-1.4505167621048587,-2.2704944717803577,6.699208718135424e-05,-0.012413137497331288,-0.18806149837272482
6865,2.0,299.7248,17021.301,0.0,0.0,-0.06865000351471096,0.0,0.0,0.0,-1.4612411024882686,-1.4565606976263485,-2.256248783324418,0.007717977890105113,0.01854690473293698,-0.18334454557969784
6866,2.0,299.66427000000004,16835.999,0.0,0.0,-0.06866000793508487,0.0,0.0,0.0,-1.4280815810406788,-1.4530277985026787,-2.2366139215616077,0.00938522084392418,0.014607866598184185,-0.18079081082266382
6867,2.0,299.85249,16758.407,0.0,0.0,-0.068670012355459,0.0,0.0,0.0,-1.4310355090572087,-1.4318042619080786,-2.231297398286908,0.005809475933150635,-0.005244797833246244,-0.16853811438591684
6868,2.0,300.17652999999996,16965.741,0.0,0.0,-0.06867998386655572,0.0,0.0,0.0,-1.4461344554223587,-1.4451718678273586,-2.265855306197508,0.011588259710172188,-0.007486795456564183,-0.16272070105678285
6869,2.0,300.1629,17165.502,0.0,0.0,-0.06868998828692985,0.0,0.0,0.0,-1.4695852170617685,-1.4508022959830384,-2.2974963710452374,-0.008532979325889492,-0.002425297504833228,-0.15700781460796484
6870,2.0,300.07437000000004,16974.443,0.0,0.0,-0.06869999270730409,0.0,0.0,0.0,-1.4407882439197286,-1.4323306453350286,-2.286688032228538,-0.005128139512132965,-0.00943003233622173,-0.18310111224317283
6871,2.0,299.97705,16917.131999999998,0.0,0.0,-0.06870999712767822,0.0,0.0,0.0,-1.4536193339110588,-1.4301655325213487,-2.258600942106558,-0.025164917363583974,0.0017421586132126685,-0.16967225535534783
6872,2.0,300.59007,17012.115,0.0,0.0,-0.06872000154805258,0.0,0.0,0.0,-1.4788993159559987,-1.4220282222932588,-2.270330629239188,-0.014302562184052988,0.012658230537520089,-0.17270052553171483
6873,2.0,300.32355,17147.608,0.0,0.0,-0.06873000596842671,0.0,0.0,0.0,-1.4905240303782685,-1.4439401610057987,-2.2779805661691777,0.013312042323546287,0.015991655167003484,-0.17397545760254085
6874,2.0,300.71222,17147.738,0.0,0.0,-0.06874001038880062,0.0,0.0,0.0,-1.4773243200005586,-1.4538933167380985,-2.281266434918468,0.0023555594521256175,0.00895221864751519,-0.1929706748422228
6875,2.0,300.30848,17013.889,0.0,0.0,-0.06875001480917486,0.0,0.0,0.0,-1.4631139939731088,-1.4477173547285787,-2.260966273139998,0.01910600296586568,-0.014873445528894786,-0.17700697017922784
6876,2.0,300.61436000000003,16870.11,0.0,0.0,-0.06875998632027147,0.0,0.0,0.0,-1.4379268256373285,-1.4400083453177588,-2.250157123723218,0.015845333746562686,-0.01163322876286029,-0.18925170247018883
6877,2.0,300.59558,17003.533,0.0,0.0,-0.06876999074064571,0.0,0.0,0.0,-1.4657693171851687,-1.4397744871946787,-2.2631056494011377,0.017899074162251085,0.017092454128643884,-0.15404885073843785
6878,2.0,299.80064,17111.009,0.0,0.0,-0.06877999516101985,0.0,0.0,0.0,-1.4558946883356185,-1.4561895441147186,-2.289235342979938,-0.004585961339974146,3.3508990393829866e-05,-0.16938346894434683
6879,2.0,299.26742,16967.238999999998,0.0,0.0,-0.06878999958139398,0.0,0.0,0.0,-1.4559012744612687,-1.4367892497500587,-2.2649263585058277,-0.010995467871668189,0.004495852096656056,-0.16205579620866184
6880,2.0,299.67089,16947.467,0.0,0.0,-0.06880000400176811,0.0,0.0,0.0,-1.4410047754660986,-1.4397774256199685,-2.270824791312958,-0.026865517827920175,0.004433798228731816,-0.17354700479775584
6881,2.0,300.68254,17022.373,0.0,0.0,-0.06881000842214224,0.0,0.0,0.0,-1.4674216241232385,-1.4437411586861588,-2.263213560536788,-0.006321172198576123,0.006950183371179692,-0.19426420005238382
6882,2.0,300.49634,17071.21,0.0,0.0,-0.06882001284251649,0.0,0.0,0.0,-1.4550112355734286,-1.4543131062545287,-2.279897331383348,-0.016435568141814287,-0.0017944929808776685,-0.2004525439781258
6883,2.0,299.98736,17032.909,0.0,0.0,-0.0688299843536131,0.0,0.0,0.0,-1.4668163085134986,-1.4522606668519686,-2.258502150221808,0.002349482687300888,-0.003561676034460057,-0.19290718459095682
6884,2.0,300.11442,16925.879,0.0,0.0,-0.06883998877398712,0.0,0.0,0.0,-1.4519599342222886,-1.4362224376441186,-2.256862204934958,0.012894528566840886,0.005540018382382245,-0.17188201196843383
6885,2.0,300.35092000000003,16892.213,0.0,0.0,-0.06884999319436147,0.0,0.0,0.0,-1.4573953117337186,-1.4326889305703885,-2.244726711137278,0.027966185067047577,0.013919871806784384,-0.17318801028732583
6886,2.0,299.32417000000004,16956.266,0.0,0.0,-0.0688599976147356,0.0,0.0,0.0,-1.4436393270511088,-1.4476744942493485,-2.2629677460625275,0.01144758614578879,-0.005212264297710435,-0.17229476952916986
6887,2.0,299.56276,17130.646,0.0,0.0,-0.06887000203510973,0.0,0.0,0.0,-1.4577110404648788,-1.4631147032481788,-2.286462786731308,3.613679271992376e-05,-0.013984770475689386,-0.18144254341948482
6888,2.0,299.45883,17100.047,0.0,0.0,-0.06888000645548387,0.0,0.0,0.0,-1.4483273312887788,-1.4583874862316384,-2.2912725836309975,0.001965977150326838,-0.007507717551254033,-0.18142038363979784
6889,2.0,299.69156,16957.927,0.0,0.0,-0.06889001087585811,0.0,0.0,0.0,-1.4553415551060287,-1.4467582121839186,-2.252686601272858,-0.0002862398399221727,0.0027898051090573276,-0.17644488995125485
6890,2.0,300.09846,16904.126,0.0,0.0,-0.06890001529623224,0.0,0.0,0.0,-1.4329742617985486,-1.4344354697677588,-2.2710225777324777,-0.01090435236967579,0.015315910569312686,-0.16859229286876384
6891,2.0,300.14628999999996,17049.938000000002,0.0,0.0,-0.06890998680732874,0.0,0.0,0.0,-1.4709488490463487,-1.4518597237873987,-2.2599467408893776,-0.02124246917271848,0.00997296852078036,-0.17808353827797685
6892,2.0,300.14324,17093.963,0.0,0.0,-0.06891999122770287,0.0,0.0,0.0,-1.4563784139333587,-1.4525181337023787,-2.2872412667831377,-0.012850598095505287,0.019131394000121583,-0.1814305364057998
6893,2.0,300.40821,17084.639,0.0,0.0,-0.068929995648077,0.0,0.0,0.0,-1.4814892845366086,-1.4470944085670985,-2.2647198581354475,0.0004501461854509696,0.006022134229688374,-0.19487342680750983
6894,2.0,300.70416,17146.054,0.0,0.0,-0.06894000006845136,0.0,0.0,0.0,-1.4694685919752588,-1.4627863088907684,-2.279717479490598,0.005965984772746854,-0.006493192478653203,-0.1972529332098488
6895,2.0,300.03868,17057.689,0.0,0.0,-0.06895000448882549,0.0,0.0,0.0,-1.4872602504811587,-1.4342065765701686,-2.263644799779348,-0.006894303844064812,-0.02126056176650408,-0.17892818356133683
6896,2.0,299.11863,17077.683999999997,0.0,0.0,-0.06896000890919973,0.0,0.0,0.0,-1.4480149462829486,-1.4694787244762586,-2.273695835471308,0.007176806888545692,-0.008910604567233202,-0.17123077586416183
6897,2.0,299.87859,17131.558999999997,0.0,0.0,-0.06897001332957364,0.0,0.0,0.0,-1.4784604773376884,-1.442381377051959,-2.2867242052571077,0.01160972440029059,0.006477434514423014,-0.15606756917766987
6898,2.0,299.84761000000003,16986.86,0.0,0.0,-0.06897998484067058,0.0,0.0,0.0,-1.4397608083183286,-1.4475935355663587,-2.276226934221108,0.009355008563042461,0.00937860573932132,-0.17749062484946082
6899,2.0,299.69522,16911.885,0.0,0.0,-0.0689899892610445,0.0,0.0,0.0,-1.4284394609759987,-1.4584287255107087,-2.2539225637448377,0.009821128534994922,0.011555601646199091,-0.18631963025831583
6900,2.0,300.53631,17053.547,0.0,0.0,-0.06899999368141863,0.0,0.0,0.0,-1.4376689534868787,-1.4678009849606788,-2.2783824211588377,-0.010113424540367292,0.0012543864998733087,-0.1983802955361108
6901,2.0,300.59422,17091.811,0.0,0.0,-0.06900999810179287,0.0,0.0,0.0,-1.4673592079170787,-1.4556700507884486,-2.272454604098808,-0.003041422669290047,-0.00803943989430594,-0.18227435082407784
6902,2.0,300.0916,17047.439,0.0,0.0,-0.069020002522167,0.0,0.0,0.0,-1.4556779541392286,-1.4515117737030587,-2.274806154930888,-0.024271471928907776,-0.01125183433246959,-0.19012305702618482
6903,2.0,301.06183,17061.857,0.0,0.0,-0.06903000694254136,0.0,0.0,0.0,-1.4759919974440685,-1.4426336763268588,-2.267752718334768,-0.0006145558021719353,0.006588908541399644,-0.16875620633744082
6904,2.0,300.90175,17062.201,0.0,0.0,-0.06904001136291527,0.0,0.0,0.0,-1.4628126533933685,-1.4445578382667588,-2.279112569180898,-0.006666875704794404,0.02077746641032628,-0.1821578473275798
6905,2.0,300.32731,17228.42,0.0,0.0,-0.0690500157832894,0.0,0.0,0.0,-1.4823982712013186,-1.4622982263175985,-2.2923128875086682,0.0013819686703146886,0.013349399841483188,-0.17551192978917882
6906,2.0,300.02822000000003,17266.593,0.0,0.0,-0.06905998729438612,0.0,0.0,0.0,-1.4927519646981486,-1.4623761452502884,-2.293485116549358,0.0058759780703388845,0.001033402529913889,-0.1972488802094488
6907,2.0,300.07116,17125.167,0.0,0.0,-0.06906999171476025,0.0,0.0,0.0,-1.4722520913249686,-1.4458318989424985,-2.2875390609875277,0.013026219669087789,-0.010146205207602491,-0.15296185629615985
6908,2.0,299.49847,16897.428,0.0,0.0,-0.06907999613513449,0.0,0.0,0.0,-1.4267124775055586,-1.4303291724124987,-2.2793545333047778,0.007058657164610223,-0.007002902469907664,-0.16381561911484285
6909,2.0,299.60587000000004,17017.45,0.0,0.0,-0.06909000055550862,0.0,0.0,0.0,-1.4493625689159486,-1.4358256489049588,-2.2876916564525875,-0.011176687652053189,-0.023598452973985978,-0.14595178680431986
6910,2.0,299.83124,17250.856,0.0,0.0,-0.06910000497588276,0.0,0.0,0.0,-1.4566229111824887,-1.4713715769880684,-2.315834880630108,-0.02595832562913727,-0.007132259854524244,-0.17292243743611582
6911,2.0,299.62137,17237.869,0.0,0.0,-0.06911000939625689,0.0,0.0,0.0,-1.4795169932169587,-1.4566017342553987,-2.303763120263718,0.001142235723154889,0.0018542835520535385,-0.16501143661786086
6912,2.0,300.1324,17079.627,0.0,0.0,-0.06912001381663102,0.0,0.0,0.0,-1.4590856155505385,-1.4513552265626086,-2.281339388925668,-0.006871854680149253,0.014600204400927987,-0.1932827153430188
6913,2.0,300.61021,17043.587,0.0,0.0,-0.06912998532772774,0.0,0.0,0.0,-1.4668162071884885,-1.4390135363695786,-2.274995328724558,0.016938081422908483,-0.004875624820261705,-0.18518620869645583
6914,2.0,300.2283,17239.321,0.0,0.0,-0.06913998974810187,0.0,0.0,0.0,-1.4954902730933985,-1.4698596051888486,-2.2749732398723777,-0.011949033487777788,-0.01035574938128289,-0.18358450346837982
6915,2.0,300.8098,17312.738,0.0,0.0,-0.06914999416847589,0.0,0.0,0.0,-1.5165270676945686,-1.4509684689994387,-2.295144313588108,0.012293411865515289,0.009656831348505052,-0.15680807261575186
6916,2.0,300.01975,17020.758,0.0,0.0,-0.06915999858885025,0.0,0.0,0.0,-1.4560642050773487,-1.4457385786082886,-2.2720826399870977,-0.0037034538388024366,0.005315133906162875,-0.18936727377659482
6917,2.0,299.75401,16905.234,0.0,0.0,-0.06917000300922438,0.0,0.0,0.0,-1.4421263420017885,-1.4409626242619387,-2.2556800460432878,0.0056468320668489344,0.0031053678698509473,-0.18651563335765983
6918,2.0,299.87025,17114.57,0.0,0.0,-0.06918000742959851,0.0,0.0,0.0,-1.4537712201010486,-1.4575235891963787,-2.291106917239648,-0.026517439060817476,0.005491219142991135,-0.1879543978371548
6919,2.0,299.82499,17283.229,0.0,0.0,-0.06919001184997264,0.0,0.0,0.0,-1.4887835706814985,-1.4688524345894485,-2.2960341498259274,0.015620378038861286,0.01997255572963778,-0.17589876841235683
6920,2.0,299.61591,17140.183999999997,0.0,0.0,-0.06920001627034689,0.0,0.0,0.0,-1.4559089751620287,-1.4606592942808485,-2.293619676162638,0.002064540141879248,0.005099734362804594,-0.17172047963749185
6921,2.0,300.23848,16974.627,0.0,0.0,-0.0692099877814435,0.0,0.0,0.0,-1.4390352199217185,-1.4572911496234384,-2.263536483343658,0.01059230274962889,-0.021829876600191082,-0.17984742431705883
6922,2.0,299.48686000000004,16994.104,0.0,0.0,-0.06921999220181752,0.0,0.0,0.0,-1.4371995147155487,-1.4495699812114187,-2.279013878621158,0.003697750963264606,-0.016119632707633884,-0.19607289201088782
6923,2.0,299.96329,17313.912,0.0,0.0,-0.06922999662219165,0.0,0.0,0.0,-1.5088096483079185,-1.4599277277086486,-2.294259340950768,-0.01918733959114298,0.0014248989624765784,-0.17328189804159183
6924,2.0,300.46156,17381.429,0.0,0.0,-0.06924000104256578,0.0,0.0,0.0,-1.4960411771727686,-1.4817327685356385,-2.3057463546844477,-0.0018138600406390484,0.003071748940808017,-0.1958230549337308
6925,2.0,299.61912,17090.978,0.0,0.0,-0.06925000546294013,0.0,0.0,0.0,-1.4805510149440086,-1.4527502693002885,-2.261929367360048,-0.02012832773376128,-0.008924490551903641,-0.17761691634192484
6926,2.0,300.42337000000003,17008.55,0.0,0.0,-0.06926000988331427,0.0,0.0,0.0,-1.4667913825610386,-1.4367202474182488,-2.266662967852218,0.007784870432556893,0.0017173439156136481,-0.16614740143747184
6927,2.0,300.80809,17245.733,0.0,0.0,-0.06927001430368851,0.0,0.0,0.0,-1.5037061102042384,-1.4512302928252787,-2.2873360056674876,-0.0012373797048948686,-0.00016696063596773183,-0.16626106783368982
6928,2.0,300.24994,17365.777,0.0,0.0,-0.069279985814785,0.0,0.0,0.0,-1.4870542567358287,-1.4713117952321684,-2.320396633905318,0.01068312744884259,0.005499176297351444,-0.16162480014612585
6929,2.0,300.65154,17143.917,0.0,0.0,-0.06928999023515936,0.0,0.0,0.0,-1.4552831919002687,-1.4610786784972385,-2.294960915320008,-0.010677554573292591,-0.003417860381516557,-0.18279144274761083
6930,2.0,301.11465,17008.712,0.0,0.0,-0.06929999465553327,0.0,0.0,0.0,-1.4169334994654486,-1.4689731126763586,-2.284317128319548,0.011903544637788388,0.009286826963813461,-0.18563346742309683
6931,2.0,299.93847,17026.061,0.0,0.0,-0.0693099990759074,0.0,0.0,0.0,-1.4631049760472186,-1.4384160227856089,-2.273976505749008,-0.0022532795552313778,0.022583733661340977,-0.16797943867827983
6932,2.0,300.31424,17279.453,0.0,0.0,-0.06932000349628165,0.0,0.0,0.0,-1.4864609988022788,-1.4745791215046287,-2.2914821237516776,-0.003938458049070546,-0.002180300014128858,-0.16857020401658385
6933,2.0,300.10312000000005,17305.955,0.0,0.0,-0.06933000791665578,0.0,0.0,0.0,-1.4857344984805787,-1.4696556379437185,-2.3051882565293678,-0.02267967932656008,-0.024931836403330677,-0.18316314341429482
6934,2.0,300.28755,17111.976000000002,0.0,0.0,-0.06934001233703013,0.0,0.0,0.0,-1.4550667616789088,-1.4597312585142588,-2.2868152964410977,0.005269296903439115,-0.01018070738675759,-0.17900592010900884
6935,2.0,300.28909,17117.452,0.0,0.0,-0.06934998384812663,0.0,0.0,0.0,-1.4631741810290486,-1.4721959572694288,-2.2679078469250777,0.011849015570406789,0.003601548337820147,-0.19332918299260482
6936,2.0,299.78344,17305.828999999998,0.0,0.0,-0.06935998826850076,0.0,0.0,0.0,-1.4909758385978586,-1.4596783668590385,-2.3098857853179777,0.009956640198068882,0.008691065694566402,-0.18945409917766382
6937,2.0,299.45859,17410.939,0.0,0.0,-0.06936999268887489,0.0,0.0,0.0,-1.5039171702000684,-1.4918496654840985,-2.2967237678439876,-0.0019447945490362782,0.0002215364445764448,-0.18481562260488182
6938,2.0,299.92983,17149.569,0.0,0.0,-0.06937999710924903,0.0,0.0,0.0,-1.4666992781269486,-1.4611623729554986,-2.285179201504628,0.006387350095732374,0.01039368343852669,-0.16906842922325482
6939,2.0,300.21457000000004,16921.522,0.0,0.0,-0.06939000152962327,0.0,0.0,0.0,-1.4438458274214885,-1.4239774115106287,-2.2758969186635376,0.00963172098452685,0.010620047563867089,-0.16276922560407187
6940,2.0,299.88543,16999.803,0.0,0.0,-0.0694000059499974,0.0,0.0,0.0,-1.4377087742158086,-1.4512544081776588,-2.2785525458506277,-0.0036476488868949163,-0.026066896390602376,-0.17462567032421183
6941,2.0,299.90083,17273.76,0.0,0.0,-0.06941001037037153,0.0,0.0,0.0,-1.4727198075711287,-1.4613980549287586,-2.316673750387898,-0.016051012371111586,-0.02247679119278658,-0.17420245602244383
6942,2.0,300.0842,17435.89,0.0,0.0,-0.06942001479074567,0.0,0.0,0.0,-1.4865331422093986,-1.4903859243896387,-2.323156017902648,-0.004466650330099066,0.004394444810747936,-0.17908853038966183
6943,2.0,300.90646,17358.534,0.0,0.0,-0.06942998630184238,0.0,0.0,0.0,-1.5084420411716384,-1.4777137120139885,-2.290405140220388,0.01027374907719009,0.027708246042090972,-0.15933601002523984
6944,2.0,300.30483,17163.1,0.0,0.0,-0.06943999072221652,0.0,0.0,0.0,-1.4874691826517785,-1.4373897017593185,-2.292294952981898,-0.013207535708232288,-0.003166832026216987,-0.16467302121696184
6945,2.0,299.93901,17295.153000000002,0.0,0.0,-0.06944999514259065,0.0,0.0,0.0,-1.5037960868131186,-1.4680793247631487,-2.2854192404533182,-0.007007932243404062,-0.00971548464776868,-0.17785617508803783
6946,2.0,299.93357000000003,17477.416,0.0,0.0,-0.06945999956296467,0.0,0.0,0.0,-1.5041410984721684,-1.4740232524997685,-2.3345337019505377,-0.007712044804144561,-0.0006767497721875022,-0.17184671033494983
6947,2.0,299.81145,17253.218999999997,0.0,0.0,-0.06947000398333902,0.0,0.0,0.0,-1.4765335796225187,-1.4646563632753287,-2.303358022873738,0.003112270737482207,0.011362925046933389,-0.1895450586391408
6948,2.0,299.69155,16992.633,0.0,0.0,-0.06948000840371316,0.0,0.0,0.0,-1.4421285711520087,-1.4484646266773287,-2.274743029449658,0.0037567709577394264,-0.011416202750441489,-0.18817126375605783
6949,2.0,299.7144,17050.798,0.0,0.0,-0.06949001282408729,0.0,0.0,0.0,-1.4713010547811087,-1.4341547994900588,-2.277560877977758,-0.006549575996367823,-0.0011157139017873889,-0.18470243243621084
6950,2.0,299.43127000000004,17256.343,0.0,0.0,-0.06949998433518378,0.0,0.0,0.0,-1.4785231975188786,-1.4672690286581787,-2.2997050536132178,0.016215295676075086,0.012577816983083887,-0.16625287064038083
6951,2.0,299.7375,17324.215,0.0,0.0,-0.06950998875555814,0.0,0.0,0.0,-1.4751327613592686,-1.4720338372534287,-2.3189619730887276,0.013066246087788088,0.013926680847456387,-0.17949371897215083
6952,2.0,300.49292,17284.015,0.0,0.0,-0.06951999317593227,0.0,0.0,0.0,-1.4648480701942486,-1.4676563941714087,-2.3214044124547777,0.013843012733698987,-0.00928505732251381,-0.17690335522400183
6953,2.0,300.27403,17264.448,0.0,0.0,-0.06952999759630629,0.0,0.0,0.0,-1.4687570877550384,-1.4817808979153884,-2.2974229104129877,0.004503976842582905,-0.014010515134230187,-0.19504302460924783
6954,2.0,300.19966,17275.992,0.0,0.0,-0.06954000201668042,0.0,0.0,0.0,-1.4873333058133686,-1.4540147041000786,-2.310122176566308,-0.007329422922582723,0.009436398485275022,-0.18285802341168184
6955,2.0,300.33331,17331.671000000002,0.0,0.0,-0.06955000643705456,0.0,0.0,0.0,-1.5063910203192183,-1.4690579217097286,-2.292946067496158,-0.017352665873574785,0.015532894025227286,-0.1785835164073208
6956,2.0,299.75327000000004,17287.674,0.0,0.0,-0.06956001085742891,0.0,0.0,0.0,-1.5026289240229285,-1.4569923421689486,-2.295399855263328,-0.015388887881264985,-0.01078351114949969,-0.17123400813198084
6957,2.0,299.92714,17140.513,0.0,0.0,-0.06957001527780304,0.0,0.0,0.0,-1.4909719882474786,-1.4381112371555287,-2.281204626662368,-0.004396348302385796,-0.0101180166911455,-0.17551215270420084
6958,2.0,300.02637999999996,17146.795,0.0,0.0,-0.06957998678889965,0.0,0.0,0.0,-1.4526063877860884,-1.4643135807664986,-2.295277555976258,0.02705559645392947,0.003195173644764087,-0.17239732057179083
6959,2.0,299.17784,17308.397,0.0,0.0,-0.06958999120927378,0.0,0.0,0.0,-1.4627395980611588,-1.4762699319464985,-2.322311068644258,0.017550447226844283,0.0017101743605560684,-0.18962879362740484
6960,2.0,299.38389,17415.541,0.0,0.0,-0.06959999562964791,0.0,0.0,0.0,-1.4706662535934587,-1.4915835860078386,-2.3316398596649375,0.023298722448654875,-0.01162048207660229,-0.17923204713382582
6961,2.0,300.37104,17332.69,0.0,0.0,-0.06961000005002205,0.0,0.0,0.0,-1.5000951908228686,-1.4637292394338286,-2.3048806337990078,-0.0070521277809658224,-0.007418610513609853,-0.18320329851575784
6962,2.0,300.27743,17215.142,0.0,0.0,-0.06962000447039618,0.0,0.0,0.0,-1.4772353566417786,-1.4559810172441385,-2.299756830693328,0.001930890528514058,0.01130393058636109,-0.16318105097471586
6963,2.0,300.84731,17282.761000000002,0.0,0.0,-0.06963000889077042,0.0,0.0,0.0,-1.4907871714292384,-1.4755551853259588,-2.287185335377618,-0.021731063437188978,0.002073764872114658,-0.18146435869413782
6964,2.0,300.6583,17454.683,0.0,0.0,-0.06964001331114456,0.0,0.0,0.0,-1.4780619660733587,-1.4865078109568985,-2.3412181128602376,-0.021648962821336278,-0.0016592840769335882,-0.17681057191234484
6965,2.0,300.03937,17376.896,0.0,0.0,-0.06964998482224127,0.0,0.0,0.0,-1.4834016927753486,-1.4870226433327087,-2.3117180454738078,-0.02383534780761568,-0.012065594739531487,-0.1980514857461598
6966,2.0,300.58725,17147.951,0.0,0.0,-0.0696599892426154,0.0,0.0,0.0,-1.4728101894800485,-1.4594886864403185,-2.2802501450681683,0.012734705588817589,0.017202163783221383,-0.1848640255621588
6967,2.0,300.80716,17097.371,0.0,0.0,-0.06966999366298954,0.0,0.0,0.0,-1.4788585833019787,-1.4474321248254285,-2.2708830531937076,-0.0008818939883686602,0.0025096624306843976,-0.18875372044354183
6968,2.0,299.98073,17249.051,0.0,0.0,-0.06967999808336367,0.0,0.0,0.0,-1.4767224494411588,-1.4837110380308787,-2.2828474090494977,0.02130932949381708,-0.0052475877160715854,-0.17862628569404182
6969,2.0,299.79328,17381.262,0.0,0.0,-0.0696900025037378,0.0,0.0,0.0,-1.4977490102163185,-1.4690108055800786,-2.316709923416468,-0.0018424780738134283,-0.0007303696097243684,-0.17560217997558583
6970,2.0,299.74681,17333.456000000002,0.0,0.0,-0.06970000692411205,0.0,0.0,0.0,-1.4619775326609485,-1.4839387153283485,-2.323021458289368,0.01127806737755859,0.012425857839086688,-0.17652754076191182
6971,2.0,300.09209,17227.93,0.0,0.0,-0.06971001134448618,0.0,0.0,0.0,-1.4534571125700486,-1.4867729785080686,-2.296630244859758,0.0016832848307272784,0.00045465166281562555,-0.1913110218409278
6972,2.0,300.51982000000004,17340.867,0.0,0.0,-0.06972001576486031,0.0,0.0,0.0,-1.4744192306388486,-1.4762577729452986,-2.3205137656168775,0.0005808319612136515,-0.009354082756426092,-0.17973101201306982
6973,2.0,300.34884,17596.293999999998,0.0,0.0,-0.06972998727595703,0.0,0.0,0.0,-1.5354166840088286,-1.4993823693775186,-2.314034841827458,0.006004996624122024,-0.017149382572262284,-0.18211881693372783
6974,2.0,300.47978,17475.956000000002,0.0,0.0,-0.06973999169633116,0.0,0.0,0.0,-1.5159121262088786,-1.4707824733799286,-2.3255595484648577,-0.004312487367134367,0.015198253994200887,-0.16240178058780785
6975,2.0,300.35418,17117.96,0.0,0.0,-0.06974999611670529,0.0,0.0,0.0,-1.4784210619087985,-1.4410038635410087,-2.284007580413998,0.008642735083346542,-0.0015763094315446285,-0.17732262798288084
6976,2.0,300.16909,17120.001,0.0,0.0,-0.06976000053707943,0.0,0.0,0.0,-1.4449876589591786,-1.4548714070596287,-2.3041936502312077,-0.008198397050118792,-0.0036093034501105165,-0.18073007661166984
6977,2.0,299.7133,17376.573,0.0,0.0,-0.06977000495745345,0.0,0.0,0.0,-1.4917337496726588,-1.4637140406823286,-2.3265964072921874,-0.014626109152984589,0.006233703282368614,-0.1899901084805638
6978,2.0,299.53156,17520.961,0.0,0.0,-0.0697800093778278,0.0,0.0,0.0,-1.5104950885242587,-1.4914938120489787,-2.3239457450305876,-0.02201557899901848,0.017249339694627285,-0.18559761863455881
6979,2.0,299.39121,17305.821,0.0,0.0,-0.06979001379820193,0.0,0.0,0.0,-1.4967412316668587,-1.4579229110607885,-2.3058733149219774,-0.022737964512062378,0.003976030072053616,-0.18748585072591284
6980,2.0,300.0062,17178.91,0.0,0.0,-0.06979998530929843,0.0,0.0,0.0,-1.4655229960858587,-1.4490738939624588,-2.3073628938939876,-0.004833050077559905,-0.0063983520666431835,-0.17449467735128385
6981,2.0,300.1456,17426.335,0.0,0.0,-0.06980998972967256,0.0,0.0,0.0,-1.4839232126018185,-1.4911968284446684,-2.322050764693568,0.029263571773339676,-0.0006051423439728995,-0.17262250527401482
6982,2.0,300.42118999999997,17603.978,0.0,0.0,-0.06981999415004692,0.0,0.0,0.0,-1.5025087525610685,-1.4900073741522786,-2.3586537152809974,0.02982824389506847,0.01128922832741009,-0.16121942917861887
6983,2.0,299.93248,17410.71,0.0,0.0,-0.06982999857042105,0.0,0.0,0.0,-1.4853771251703087,-1.4919870621976588,-2.315056907203328,0.03194022592650487,-0.01236714404879209,-0.19179649022883982
6984,2.0,300.38736,17249.623,0.0,0.0,-0.06984000299079507,0.0,0.0,0.0,-1.4772563309188487,-1.4699611328488684,-2.2962374077959877,0.0073553132864879025,-0.025275147828712877,-0.17819005112848882
6985,2.0,300.13256,17203.971999999998,0.0,0.0,-0.0698500074111692,0.0,0.0,0.0,-1.4869263845732088,-1.4499133716703088,-2.292738047250628,-0.0050724454097863855,-0.004152239026719086,-0.18056019509990381
6986,2.0,299.71415,17382.036,0.0,0.0,-0.06986001183154333,0.0,0.0,0.0,-1.4998863599772587,-1.4766303450070686,-2.3071882095767475,-0.030099535529842868,0.006090855181945604,-0.17601300222863084
6987,2.0,300.10071,17458.049,0.0,0.0,-0.06987001625191769,0.0,0.0,0.0,-1.5116212146853987,-1.4614738460362386,-2.3337158064698182,-0.03515156709118957,-0.002745032930863657,-0.17675401229176285
6988,2.0,300.07998,17338.868000000002,0.0,0.0,-0.06987998776301418,0.0,0.0,0.0,-1.4862154883030485,-1.4611682498060787,-2.323199283681918,-0.02797789215870297,-0.00011905959212776689,-0.17540484951861085
6989,2.0,299.98982,17317.218,0.0,0.0,-0.06988999218338843,0.0,0.0,0.0,-1.4792497991655884,-1.4727236579215088,-2.312028302654428,0.016985981808135882,0.019537668786717782,-0.1906861606367588
6990,2.0,299.71106000000003,17502.861,0.0,0.0,-0.06989999660376256,0.0,0.0,0.0,-1.5077115891745485,-1.4776944602620885,-2.3350267494491974,0.030927370994043867,0.021767502950535277,-0.18379325325398183
6991,2.0,299.65747999999996,17619.707,0.0,0.0,-0.06991000102413669,0.0,0.0,0.0,-1.5278180175338985,-1.5032220806314684,-2.3249110684008576,0.024905493927230876,-0.014424463263833688,-0.1834220693448488
6992,2.0,299.72763,17470.199,0.0,0.0,-0.06992000544451082,0.0,0.0,0.0,-1.4989923694140286,-1.4893604139634287,-2.322151583078518,0.004955626792507285,-0.019244131245997883,-0.17109962077121782
6993,2.0,300.60419,17245.936,0.0,0.0,-0.06993000986488496,0.0,0.0,0.0,-1.4713378357597384,-1.4646267763724088,-2.3063693008459274,0.000874820651540576,-0.012468551132050188,-0.16096246895325886
6994,2.0,300.39828,17219.732,0.0,0.0,-0.0699400142852592,0.0,0.0,0.0,-1.4583588112538088,-1.4770160893201385,-2.2989937520430184,-0.001936906802307818,-0.0012424355189188387,-0.17903330825921182
6995,2.0,301.11527,17465.96,0.0,0.0,-0.0699499857963558,0.0,0.0,0.0,-1.5038088537643786,-1.4823364629452185,-2.3230702969441874,-0.017447636792197685,-0.01258892423068009,-0.17202607586765184
6996,2.0,300.45911,17529.352,0.0,0.0,-0.06995999021673005,0.0,0.0,0.0,-1.5144021809098587,-1.4894573819979986,-2.324625635847688,-0.01939383590852258,-0.007931631299566063,-0.19741217559556481
6997,2.0,299.70991000000004,17394.26,0.0,0.0,-0.06996999463710418,0.0,0.0,0.0,-1.4954283635122885,-1.4862178187782786,-2.3057746243622375,-0.004784305756324215,0.008249050030567851,-0.18958736183081581
6998,2.0,300.23049,17272.44,0.0,0.0,-0.06997999905747831,0.0,0.0,0.0,-1.4749069079119785,-1.4662937754369287,-2.309189885149298,0.012112758491936187,0.024144521823878773,-0.1929451004096988
6999,2.0,300.23389,17328.65,0.0,0.0,-0.06999000347785245,0.0,0.0,0.0,-1.4744379757656985,-1.4832257925579886,-2.309813033960798,0.01009835021597957,-0.005496626048174754,-0.19588875407021483
7000,2.0,300.10997000000003,17494.558,0.0,0.0,-0.07000000789822658,0.0,0.0,0.0,-1.4957994156989087,-1.4863061741869987,-2.335803000350808,-0.004366448305184896,0.0008786226090958001,-0.18462191958326482
7001,2.0,300.16776,17504.9,0.0,0.0,-0.07001001231860082,0.0,0.0,0.0,-1.5035308179369384,-1.4926116295592986,-2.324910156475768,-0.004031838469011476,-0.0013591455157872187,-0.18587628267706083
7002,2.0,299.75079,17271.394,0.0,0.0,-0.07001998382969732,0.0,0.0,0.0,-1.4753934706099987,-1.4804763384116384,-2.294202801595188,0.0034140424551397566,-0.0010570320288709391,-0.18029887789911384
7003,2.0,299.45367999999996,17265.676,0.0,0.0,-0.07002998825007145,0.0,0.0,0.0,-1.4846713964756586,-1.4656761995009786,-2.2979867840936374,-0.003980170414612237,-0.01948296341381878,-0.17170172437814085
7004,2.0,300.18593,17566.736,0.0,0.0,-0.0700399926704458,0.0,0.0,0.0,-1.5119043167633384,-1.5059276610484884,-2.322017124790248,-0.0013351258142166589,-0.012862625374192289,-0.16698044500718684
7005,2.0,299.51819,17515.252,0.0,0.0,-0.07004999709081994,0.0,0.0,0.0,-1.4990194231916987,-1.4912001721699986,-2.333979758120868,-0.0032082514611547672,0.0074249250882330526,-0.17561964840730984
7006,2.0,299.89813,17400.43,0.0,0.0,-0.07006000151119407,0.0,0.0,0.0,-1.4872820353583085,-1.4862574368571886,-2.315756961697418,0.006683451260530285,0.014744100100629385,-0.18434615343604882
7007,2.0,299.89927,17411.519,0.0,0.0,-0.07007000593156809,0.0,0.0,0.0,-1.4923586210093287,-1.4816719735296386,-2.3186364158315977,-0.0077201868766481226,0.002013843693000898,-0.2017831541419468
7008,2.0,300.21868,17422.845,0.0,0.0,-0.07008001035194222,0.0,0.0,0.0,-1.5062611216563986,-1.4712837282043987,-2.318564981699548,-0.015715656985514585,0.008605355577882471,-0.1961058530366408
7009,2.0,300.64197,17541.914,0.0,0.0,-0.07009001477231658,0.0,0.0,0.0,-1.5138595854813086,-1.4855554571879086,-2.3328887917381977,-0.02405760421705068,0.010068179782326981,-0.17824555696896682
7010,2.0,300.67612,17538.28,0.0,0.0,-0.07009998628341307,0.0,0.0,0.0,-1.5110888530828586,-1.4745108284478885,-2.345599507617648,-0.015199006839025185,0.01188355523981559,-0.16294543992896285
7011,2.0,300.00662,17379.713,0.0,0.0,-0.0701099907037872,0.0,0.0,0.0,-1.4725896049332787,-1.4824166110281285,-2.327992564604978,0.014786869387350384,0.00889948222221051,-0.16519318328829785
7012,2.0,299.58733,17415.224,0.0,0.0,-0.07011999512416134,0.0,0.0,0.0,-1.4782323947401785,-1.4848556053438384,-2.330705237772698,0.02063777063228938,0.0017949605957988182,-0.17896488347995881
7013,2.0,299.50042,17646.83,0.0,0.0,-0.07012999954453569,0.0,0.0,0.0,-1.5188037393442586,-1.4981639361322685,-2.347228003178368,0.02032305413797928,-0.0023888037826065773,-0.17443143028004185
7014,2.0,300.0491,17631.424,0.0,0.0,-0.07014000396490983,0.0,0.0,0.0,-1.5121499285875786,-1.5189213776808685,-2.328441333074268,0.0020769624867802376,0.0003079009891024617,-0.18711479853929283
7015,2.0,300.32462999999996,17439.083,0.0,0.0,-0.07015000838528385,0.0,0.0,0.0,-1.4937225569689385,-1.4933629545084486,-2.3139601652950876,-0.008212867072146872,-0.007608832717158323,-0.18888100492110382
7016,2.0,299.58283,17285.058999999997,0.0,0.0,-0.07016001280565798,0.0,0.0,0.0,-1.4571502065345288,-1.4792389573895186,-2.317837164152718,-0.026041482051594178,-0.005284562326795695,-0.17156414527956285
7017,2.0,299.53216000000003,17294.773,0.0,0.0,-0.0701699843167547,0.0,0.0,0.0,-1.4710830033595885,-1.4691367525675085,-2.3169593855910877,-0.014414892103389088,0.005122814882857465,-0.18449043011778782
7018,2.0,300.40111,17510.429,0.0,0.0,-0.07017998873712883,0.0,0.0,0.0,-1.4958022527991885,-1.4832085673062885,-2.3437224618073977,-0.02549415474507718,0.008491140506735322,-0.18381557515368482
7019,2.0,300.23957,17555.736,0.0,0.0,-0.07018999315750296,0.0,0.0,0.0,-1.5166761167842786,-1.4898143500082286,-2.330014910479568,0.01159984521181559,0.008727456470582892,-0.2084388900738168
7020,2.0,299.99866000000003,17442.578,0.0,0.0,-0.0701999975778772,0.0,0.0,0.0,-1.5060508722606487,-1.4701700650194884,-2.325887334872208,0.006348315750204984,0.006388862979456684,-0.18399439353133282
7021,2.0,299.7989,17387.883,0.0,0.0,-0.07021000199825134,0.0,0.0,0.0,-1.5009995165371186,-1.4586022952528386,-2.3258804447715278,0.027289845691548076,-0.00040514918732511163,-0.18107307190302083
7022,2.0,300.49589,17529.793999999998,0.0,0.0,-0.07022000641862547,0.0,0.0,0.0,-1.5115343791518288,-1.4852116614289788,-2.3318736164630076,0.007561722869658943,-0.011946949232322089,-0.16003754386447586
7023,2.0,300.31113,17628.036,0.0,0.0,-0.0702300108389996,0.0,0.0,0.0,-1.5184012764045385,-1.4886617780194786,-2.351419818842068,-0.002005830911210098,-0.01039151913631309,-0.16662517925712486
7024,2.0,300.42877999999996,17515.609,0.0,0.0,-0.07024001525937373,0.0,0.0,0.0,-1.5069894458282787,-1.5048426728414088,-2.3124756525735775,-0.006618477509792874,-0.012725159759625487,-0.18320535541346084
7025,2.0,299.73725,17323.768,0.0,0.0,-0.07024998677047023,0.0,0.0,0.0,-1.4969810679655287,-1.4731974536682686,-2.2958143758792375,0.004618738055533956,-0.004226125021361066,-0.18594300519614584
7026,2.0,299.7007,17450.991,0.0,0.0,-0.07025999119084458,0.0,0.0,0.0,-1.4944846223691486,-1.4785981780262787,-2.331582712359298,-0.02035685109506478,0.002916935673929137,-0.19127181919455882
7027,2.0,299.60534,17518.197,0.0,0.0,-0.07026999561121883,0.0,0.0,0.0,-1.5160950178519286,-1.4855724797895884,-2.3234270623043978,-0.001215011195687269,-0.009179601595831142,-0.17522465312082683
7028,2.0,299.59778,17403.728,0.0,0.0,-0.07028000003159296,0.0,0.0,0.0,-1.4887280445760185,-1.4587458727920086,-2.3428249248688178,0.001933494479946048,0.006661295229868654,-0.17061382814327383
7029,2.0,299.62105,17431.034,0.0,0.0,-0.07029000445196709,0.0,0.0,0.0,-1.4747811635745687,-1.4863980759710687,-2.337419944860388,0.01915790670223818,0.007816079244911962,-0.17083146413225284
7030,2.0,300.03686,17539.271,0.0,0.0,-0.07030000887234122,0.0,0.0,0.0,-1.5004893451117685,-1.4937284338195185,-2.3372826494718377,0.008837638705007032,0.006029915382506313,-0.1905445893327868
7031,2.0,300.11535,17691.771,0.0,0.0,-0.07031001329271536,0.0,0.0,0.0,-1.5293429589343985,-1.5048286899900287,-2.3436849715536976,-0.0097457404984047,-0.006228194646874954,-0.1978210625409188
7032,2.0,300.30758,17621.667,0.0,0.0,-0.07031998480381185,0.0,0.0,0.0,-1.5188626091750685,-1.5120650182291986,-2.3256191275707376,-0.00801956377769432,-0.009592354090316642,-0.2045647992439738
7033,2.0,300.35495,17427.797,0.0,0.0,-0.0703299892241861,0.0,0.0,0.0,-1.4923236638808786,-1.4771946239877587,-2.3280969293652776,-0.00023795513906434376,-0.00984009556361682,-0.18422299288639382
7034,2.0,300.33679,17333.448,0.0,0.0,-0.07033999364456023,0.0,0.0,0.0,-1.4789070166567588,-1.4763085367753086,-2.313719923696378,0.01050214983523149,-0.002238581247955768,-0.18819772984866984
7035,2.0,299.98573999999996,17500.734,0.0,0.0,-0.07034999806493458,0.0,0.0,0.0,-1.4830782633434287,-1.5005573341934786,-2.3361507477851275,0.01248862260328109,-0.006914962899028702,-0.18020656068250282
7036,2.0,299.76885,17624.141,0.0,0.0,-0.07036000248530871,0.0,0.0,0.0,-1.5250061471813885,-1.4882161506254985,-2.3440764913923378,0.018599155000843682,-5.154993983508295e-05,-0.17107800814658483
7037,2.0,299.61143,17591.174,0.0,0.0,-0.07037000690568285,0.0,0.0,0.0,-1.4967065785134386,-1.5025928523193686,-2.347978213552408,0.0009054148466499882,0.0006835552259541484,-0.17505666638674783
7038,2.0,299.20966,17512.853,0.0,0.0,-0.07038001132605687,0.0,0.0,0.0,-1.5025700541921185,-1.4832095805563885,-2.337690178662058,-0.008078499469760822,0.0036491076630638863,-0.17334277410759982
7039,2.0,299.32853,17628.012,0.0,0.0,-0.070390015746431,0.0,0.0,0.0,-1.5250510341608186,-1.4792759410181684,-2.3541487040113878,-0.03387557718725917,-0.004713798342815676,-0.16617226659492584
7040,2.0,299.59834,17738.292,0.0,0.0,-0.07039998725752772,0.0,0.0,0.0,-1.5356398016808483,-1.4947987299001486,-2.3615591086177377,-0.018046962067346482,-8.008770333654093e-05,-0.16381565964484684
7041,2.0,299.90356,17598.217,0.0,0.0,-0.07040999167790185,0.0,0.0,0.0,-1.5115771383060486,-1.4880992215639586,-2.3497420793264876,-0.026580864464077078,0.003859055312934106,-0.17413811464109383
7042,2.0,299.87113999999997,17500.652,0.0,0.0,-0.07041999609827598,0.0,0.0,0.0,-1.5054882144801185,-1.4940329154745686,-2.320240086764868,-0.0019643081247621183,0.004796757384153095,-0.18556284389112682
7043,2.0,299.76578,17495.129,0.0,0.0,-0.07043000051865012,0.0,0.0,0.0,-1.5059444810001485,-1.4899069610673685,-2.322230920561348,0.01060551249118259,0.0025931058055696176,-0.2033468219612688
7044,2.0,299.21917,17439.668,0.0,0.0,-0.07044000493902447,0.0,0.0,0.0,-1.4925884261320086,-1.4874962364294486,-2.321139042253588,0.014854685203293286,0.0026105951102456774,-0.1928000739228858
7045,2.0,300.10267999999996,17475.758,0.0,0.0,-0.0704500093593986,0.0,0.0,0.0,-1.4905869532094786,-1.5017924860653786,-2.319814420397858,0.01237533617585059,-0.004158291878841456,-0.18169879436977482
7046,2.0,300.70022,17514.86,0.0,0.0,-0.07046001377977262,0.0,0.0,0.0,-1.4729875082475485,-1.4985862587739487,-2.352506124274278,0.006939703426720404,-0.006836234075533774,-0.18569363421403481
7047,2.0,300.12301,17515.837,0.0,0.0,-0.07046998529086934,0.0,0.0,0.0,-1.4807328933369588,-1.4974769525644687,-2.3461673329736876,0.004545510572131965,-0.024158401323748576,-0.17978212034811383
7048,2.0,300.12191,17619.804,0.0,0.0,-0.07047998971124347,0.0,0.0,0.0,-1.5028019871400087,-1.5097089077716686,-2.343469351932418,-0.006440598921612624,-0.01905813095164108,-0.18303871630201482
7049,2.0,299.6613,17668.181,0.0,0.0,-0.0704899941316176,0.0,0.0,0.0,-1.5012391501857685,-1.5107606613754685,-2.358686240609208,-0.016127430680403485,0.007226427468467863,-0.18403786196062283
7050,2.0,299.90609,17567.574,0.0,0.0,-0.07049999855199174,0.0,0.0,0.0,-1.4966174125046385,-1.4987799921930685,-2.3447063276544977,-0.014566677981619187,0.016608453940126784,-0.1789719357006548
7051,2.0,300.19837,17486.143,0.0,0.0,-0.07051000297236598,0.0,0.0,0.0,-1.4940047471217883,-1.4892427756268185,-2.3321034215856877,-0.015895913165054485,0.022397596578220682,-0.17805825768798184
7052,2.0,300.00347999999997,17545.635,0.0,0.0,-0.07052000739274011,0.0,0.0,0.0,-1.5134920796700384,-1.4793952005549384,-2.3405478479190878,-0.014676536583961385,0.011009209569524388,-0.17417352773208886
7053,2.0,299.74605,17572.675,0.0,0.0,-0.07053001181311425,0.0,0.0,0.0,-1.5228938246979185,-1.4767642966702885,-2.3419962889370374,0.0016436390900895484,0.003827736866918216,-0.17595346365275483
7054,2.0,299.95605,17624.084,0.0,0.0,-0.07054001623348838,0.0,0.0,0.0,-1.5307020312935287,-1.4897192058238384,-2.3368600228551277,-0.008381939605033032,-0.013698137221150887,-0.17957942979810984
7055,2.0,300.05806,17751.391,0.0,0.0,-0.0705499877445851,0.0,0.0,0.0,-1.5366467696302286,-1.5006967574072385,-2.358635983404248,0.003999341005179226,-0.025604410541458577,-0.18701211577415883
7056,2.0,300.92087999999995,17760.124,0.0,0.0,-0.070559992164959,0.0,0.0,0.0,-1.5372086168106787,-1.5115951741578286,-2.349830333410198,0.0018416095158277081,-0.02064018014102718,-0.17557234989264184
7057,2.0,300.58092999999997,17622.058,0.0,0.0,-0.07056999658533336,0.0,0.0,0.0,-1.5067689626065186,-1.4949391663640088,-2.354957581566218,0.007436345328785143,0.005683598049377454,-0.17710877141677484
7058,2.0,300.15635,17667.346999999998,0.0,0.0,-0.0705800010057076,0.0,0.0,0.0,-1.4941567346367883,-1.5079973257027486,-2.3682781726808577,0.02112944821681418,0.0014879494631991786,-0.16975108621312784
7059,2.0,300.86458999999996,17671.531000000003,0.0,0.0,-0.07059000542608174,0.0,0.0,0.0,-1.5133199284780485,-1.5011593060778885,-2.357224931314988,0.0019005592920705982,0.016399227926977785,-0.17428532974812283
7060,2.0,300.44265,17478.936999999998,0.0,0.0,-0.07060000984645587,0.0,0.0,0.0,-1.4887294631261587,-1.4929452928172287,-2.331485440349698,-0.007864442381460033,0.016136580328806487,-0.19389207382065782
7061,2.0,300.26678,17364.087,0.0,0.0,-0.07061001426683,0.0,0.0,0.0,-1.4702185996992785,-1.4809687779602385,-2.3270614890880874,-0.0037448596961888766,0.019903460178818583,-0.1987320453083258
7062,2.0,300.55563,17532.862,0.0,0.0,-0.07061998577792672,0.0,0.0,0.0,-1.4991632033808886,-1.4942894703998886,-2.336099477330068,-0.027226779992073975,0.010622357774095089,-0.1987644794440268
7063,2.0,299.40491000000003,17724.793,0.0,0.0,-0.07062999019830063,0.0,0.0,0.0,-1.5053869907951287,-1.5091104822626087,-2.3733971121860575,-0.023929690511176577,0.0016021932093241585,-0.18147125892731883
7064,2.0,299.73745,17743.73,0.0,0.0,-0.07063999461867487,0.0,0.0,0.0,-1.5242174333035485,-1.5208320633944385,-2.3486015650139276,-0.004542382061123206,-0.0005431896997336495,-0.19742011947634883
7065,2.0,300.37388,17655.849,0.0,0.0,-0.070649999039049,0.0,0.0,0.0,-1.5137622121466985,-1.4982658690923285,-2.3549090468864273,0.004246334801230616,0.006240454770434934,-0.17427524790962784
7066,2.0,299.60194,17528.233,0.0,0.0,-0.07066000345942336,0.0,0.0,0.0,-1.5114825007467085,-1.4904916063750686,-2.3261712475502274,0.03233429408914637,-0.0039347215880017865,-0.1861688687759368
7067,2.0,299.38554,17718.763,0.0,0.0,-0.07067000787979749,0.0,0.0,0.0,-1.5191154150750186,-1.5039551670788185,-2.362991033659058,0.019234517529049082,-0.010743895097089888,-0.17047775878734484
7068,2.0,300.27532,17865.247,0.0,0.0,-0.07068001230017162,0.0,0.0,0.0,-1.5545486697470086,-1.5050590017377588,-2.3709812199726277,0.021804885799724682,-0.010625552551660387,-0.17624855247937782
7069,2.0,300.35449,17586.905,0.0,0.0,-0.07068998381126812,0.0,0.0,0.0,-1.5086149016386987,-1.4777267829402787,-2.359638290403168,-0.013279464306331087,-0.0042446254483119155,-0.16296475247586883
7070,2.0,300.48235,17443.424,0.0,0.0,-0.07069998823164247,0.0,0.0,0.0,-1.5047017297524985,-1.4707273525744884,-2.3269362513757272,-0.006314289595946864,-0.0037678566231084966,-0.17670931782985183
7071,2.0,300.74801,17657.099,0.0,0.0,-0.0707099926520165,0.0,0.0,0.0,-1.5228637311699487,-1.4907849422790185,-2.353668524788998,-0.022156966904722377,0.003388292831673467,-0.17968318660834984
7072,2.0,300.42918,17921.801,0.0,0.0,-0.07071999707239063,0.0,0.0,0.0,-1.5608984041486786,-1.5238964356718685,-2.3629852581334876,-0.014160608884793287,0.015177937316445785,-0.1922144153650858
7073,2.0,300.27001,17770.765,0.0,0.0,-0.07073000149276476,0.0,0.0,0.0,-1.5144720951667587,-1.5122956339519587,-2.3751010948792275,-0.011770034751611988,0.011950177447140688,-0.1973806027224488
7074,2.0,300.33874,17476.338,0.0,0.0,-0.07074000591313889,0.0,0.0,0.0,-1.4990666406463586,-1.4835382788888285,-2.3297654483049475,0.002929843669603057,-0.01235190375403799,-0.18324716211258685
7075,2.0,299.7462,17561.517,0.0,0.0,-0.07075001033351325,0.0,0.0,0.0,-1.4822652314631886,-1.4929518789428786,-2.363045647839448,0.01185687332493229,-0.003518893575487757,-0.17950394266565983
7076,2.0,299.61419,17803.218,0.0,0.0,-0.07076001475388738,0.0,0.0,0.0,-1.5353023893975484,-1.5223083687901384,-2.3541229674588475,0.019924360488631283,-0.007944714688832294,-0.17983443445077682
7077,2.0,299.82516,17729.898,0.0,0.0,-0.07076998626498399,0.0,0.0,0.0,-1.5100764135829385,-1.5037265778562585,-2.3756433863327477,0.008594738743334673,-0.0049584131289572755,-0.18875379137104883
7078,2.0,300.26218,17509.775,0.0,0.0,-0.07077999068535812,0.0,0.0,0.0,-1.4912086834708385,-1.4934974127967184,-2.337828487300708,-0.0005916583662796344,-0.014077685509859385,-0.1909691005946828
7079,2.0,299.55343999999997,17404.328999999998,0.0,0.0,-0.07078999510573225,0.0,0.0,0.0,-1.4573642049556486,-1.4911535626653987,-2.341963662283818,0.0047495310128922155,-0.008578659882797811,-0.18951191522836985
7080,2.0,299.66677999999996,17633.414,0.0,0.0,-0.07079999952610638,0.0,0.0,0.0,-1.4950766644025786,-1.5082014955978986,-2.3568393896519377,0.013973898302116384,-0.0013293743026740288,-0.19283266004610183
7081,2.0,299.56169,17842.276,0.0,0.0,-0.07081000394648052,0.0,0.0,0.0,-1.5109124462404486,-1.5281550245171587,-2.384538911610668,0.0028000302211164674,-0.003145864740572677,-0.18596511431332782
7082,2.0,299.69926,17659.815,0.0,0.0,-0.07082000836685476,0.0,0.0,0.0,-1.5236578152733187,-1.4937744353740587,-2.350710543772068,-0.005078308074864985,-0.004857677121240405,-0.17869532855585585
7083,2.0,299.17659,17483.834,0.0,0.0,-0.07083001278722889,0.0,0.0,0.0,-1.4984462276101287,-1.4946857525139985,-2.321517085865898,0.0008495135042604551,0.016437289653734186,-0.18975035324190181
7084,2.0,299.85665,17696.987,0.0,0.0,-0.07083998429832561,0.0,0.0,0.0,-1.5239858043306884,-1.5047458061318486,-2.350710442447058,-0.0017407536406240085,0.015987191800312984,-0.18587101377654083
7085,2.0,299.43216,17898.624,0.0,0.0,-0.07084998871869974,0.0,0.0,0.0,-1.5420360442621086,-1.5117031866184885,-2.386995435153108,-0.020728674365010878,-0.005405159353697695,-0.18151126204126683
7086,2.0,299.7656,17844.299,0.0,0.0,-0.07085999313907387,0.0,0.0,0.0,-1.5301164740607385,-1.5068408020386086,-2.387264047754618,-0.03512145532471777,-0.035424982498173566,-0.15899339976892685
7087,2.0,299.67888999999997,17597.525,0.0,0.0,-0.07086999755944778,0.0,0.0,0.0,-1.5007506623125586,-1.4875214663569385,-2.360936162456258,-0.008714804016584192,-0.019593182733196584,-0.17359712014770182
7088,2.0,300.17328,17608.197,0.0,0.0,-0.07088000197982214,0.0,0.0,0.0,-1.5289522496958385,-1.4807019892089088,-2.342797972416158,0.003172019258778927,-0.008673738408581332,-0.16349762070345886
7089,2.0,299.95761,17702.922,0.0,0.0,-0.07089000640019638,0.0,0.0,0.0,-1.5096316981140487,-1.5108304743073586,-2.3607840736162475,0.02813781240873587,0.004475811124253166,-0.19539221085870984
7090,2.0,299.98199,17839.061999999998,0.0,0.0,-0.07090001082057051,0.0,0.0,0.0,-1.5395509470668485,-1.5108115265304884,-2.3722671356745377,0.0032083471119642073,-0.004861157939308935,-0.17587702406521083
7091,2.0,299.88324,17799.516,0.0,0.0,-0.07091001524094465,0.0,0.0,0.0,-1.5172380652897384,-1.5238168955390186,-2.369553449256718,0.006449699630035794,0.012501510131302988,-0.19120736635569782
7092,2.0,299.7381,17616.228,0.0,0.0,-0.07091998675204136,0.0,0.0,0.0,-1.5072562345796088,-1.5078006538583384,-2.3398365463488875,0.0008707093385973211,0.0070017010592640936,-0.18732655767769182
7093,2.0,299.62911,17615.742,0.0,0.0,-0.0709299911724155,0.0,0.0,0.0,-1.5049417687011883,-1.5047616128334087,-2.3450425240376775,-0.0062121655369180035,0.005956304181291454,-0.1974377500280888
7094,2.0,299.80952,17812.345,0.0,0.0,-0.0709399955927894,0.0,0.0,0.0,-1.5564063624803486,-1.5132123213174287,-2.3448894219475678,-0.023348356504803377,-0.008453192365315132,-0.17927188812775782
7095,2.0,298.99734,17731.27,0.0,0.0,-0.07095000001316365,0.0,0.0,0.0,-1.5176459997799985,-1.5218383220687486,-2.350379008339348,-0.008669978440110252,-0.0007860137081785133,-0.20647664006265778
7096,2.0,299.29062000000005,17632.623,0.0,0.0,-0.07096000443353778,0.0,0.0,0.0,-1.5210164749126385,-1.4978359470748985,-2.341024683416148,0.002242054669298568,0.016595154019314183,-0.1990463960193498
7097,2.0,300.0677,17669.349,0.0,0.0,-0.07097000885391214,0.0,0.0,0.0,-1.4971992207120586,-1.5114654781450285,-2.3623759908483577,0.014050710765697185,0.008761052196198531,-0.19728868067337682
7098,2.0,299.87394,17741.026,0.0,0.0,-0.07098001327428627,0.0,0.0,0.0,-1.5193950721026184,-1.4975229541190087,-2.375910985684158,0.013976529712626088,-0.01022029202841429,-0.16361664719270586
7099,2.0,299.86321,17876.121,0.0,0.0,-0.07098998478538276,0.0,0.0,0.0,-1.5232962876376386,-1.5149055635595385,-2.3956926673864576,0.010443872755729989,-0.013484618067328187,-0.17480714341712184
7100,2.0,300.35104,17866.526,0.0,0.0,-0.0709999892057569,0.0,0.0,0.0,-1.5515989973808986,-1.5098174268573787,-2.3695615552575178,0.01018830676250759,0.003269860512285107,-0.16354084595272486
7101,2.0,300.28673,17666.801,0.0,0.0,-0.07100999362613125,0.0,0.0,0.0,-1.5113316278068185,-1.4985050974409384,-2.3604297400562775,0.0015534014679837887,-0.006168471254180714,-0.18495994994912585
7102,2.0,299.96296,17688.355,0.0,0.0,-0.07101999804650527,0.0,0.0,0.0,-1.5345056708439184,-1.4855667042640186,-2.3567457653426978,-0.015500079920738786,-0.005435633661055275,-0.17045175878977883
7103,2.0,299.70899,17869.221,0.0,0.0,-0.0710300024668794,0.0,0.0,0.0,-1.5337678221210986,-1.5191090315993885,-2.3789200345061277,-0.02088129516132338,0.0003901144303537966,-0.1880634843429208
7104,2.0,299.32157,17894.111,0.0,0.0,-0.07104000688725354,0.0,0.0,0.0,-1.5604253176769884,-1.4970252456698885,-2.381912162051427,-0.023169995102950477,0.011225021708323388,-0.17301281934503585
7105,2.0,299.91013,17734.913,0.0,0.0,-0.07105001130762767,0.0,0.0,0.0,-1.5216154070467485,-1.5033005061892086,-2.366054696661418,-0.006732988956594273,0.007695180269480163,-0.18450375435660282
7106,2.0,299.32561,17661.398,0.0,0.0,-0.07106001572800202,0.0,0.0,0.0,-1.5406512353504385,-1.4775682092996285,-2.350404542241868,-0.009137087648135341,-0.0018550664904058085,-0.16488422306780584
7107,2.0,300.01046,17797.258,0.0,0.0,-0.07106998723909852,0.0,0.0,0.0,-1.5134762729684785,-1.5083187286344686,-2.3881272355148075,0.011295283510007689,-0.0029137858846682773,-0.19433912989727883
7108,2.0,300.07274,17872.036,0.0,0.0,-0.07107999165947276,0.0,0.0,0.0,-1.5390093648883985,-1.5230279790111587,-2.3706154366865277,0.004243170421168316,0.007739174676897072,-0.19249631167540682
7109,2.0,300.59033999999997,17788.806,0.0,0.0,-0.0710899960798469,0.0,0.0,0.0,-1.5049118778232384,-1.5186690784059684,-2.3837719826099777,0.006705350736266593,-0.00834309828364969,-0.1992071481477148
7110,2.0,300.22854,17610.988999999998,0.0,0.0,-0.07110000050022103,0.0,0.0,0.0,-1.5070248082567685,-1.4882041942743185,-2.358072008398588,0.01889087071788378,-0.008157507544983312,-0.18304979112560782
7111,2.0,300.26039,17586.425,0.0,0.0,-0.07111000492059516,0.0,0.0,0.0,-1.4895115908783485,-1.5017856972897088,-2.354536880124698,0.014657451005077786,-0.0016205305030089086,-0.1861536092294308
7112,2.0,299.90146,17724.199,0.0,0.0,-0.07112000934096929,0.0,0.0,0.0,-1.5173288524986985,-1.5073746835162984,-2.363010285410958,0.015994792189313087,0.005904978402775994,-0.17907359508318782
7113,2.0,300.25363,17883.8,0.0,0.0,-0.07113001376134354,0.0,0.0,0.0,-1.5211411046749383,-1.5399413523303787,-2.3751461845086776,0.0018793057632730383,0.0004543556620639126,-0.1872360744437618
7114,2.0,300.55392,17836.948,0.0,0.0,-0.07113998527244014,0.0,0.0,0.0,-1.5349645718142086,-1.5096832725441385,-2.3773389590500877,-0.007124170065725843,0.004679643201819825,-0.17476934918839182
7115,2.0,300.56215,17766.405,0.0,0.0,-0.07114998969281439,0.0,0.0,0.0,-1.5155093592941287,-1.5105506146297385,-2.3744836202682875,-0.006212485622624594,0.007191905429610804,-0.19258939896209382
7116,2.0,299.73632000000003,17948.949,0.0,0.0,-0.07115999411318852,0.0,0.0,0.0,-1.5522004626402588,-1.5218345730433784,-2.3819973763848377,-0.026505420901381374,0.012799665052728589,-0.18497596943320682
7117,2.0,299.86199,17922.702,0.0,0.0,-0.07116999853356265,0.0,0.0,0.0,-1.5332335353433686,-1.5164681978637586,-2.398352043598918,-0.013413129219772788,-0.017944368468221283,-0.17381717780441983
7118,2.0,299.53954,17800.811999999998,0.0,0.0,-0.07118000295393656,0.0,0.0,0.0,-1.5259804884775485,-1.5129655949180787,-2.372056278328728,-0.011076692026184389,-0.01016888073159039,-0.17005589210820984
7119,2.0,299.37772,17768.662,0.0,0.0,-0.07119000737431092,0.0,0.0,0.0,-1.5086080115380185,-1.5131240672337185,-2.379497485738118,0.015247421955303384,-0.0063451663662441645,-0.17741646507464182
7120,2.0,299.91861,17806.213,0.0,0.0,-0.07120001179468516,0.0,0.0,0.0,-1.5324032782114285,-1.5097359615493384,-2.370504891100618,0.018684736130789883,-0.009771058274678371,-0.18331217223900284
7121,2.0,300.13099,17845.96,0.0,0.0,-0.07121001621505929,0.0,0.0,0.0,-1.5142501933948587,-1.5277748530796385,-2.382701078579288,5.619496605651135e-05,-0.014734104388392885,-0.2023635539317278
7122,2.0,299.50987000000003,17803.315,0.0,0.0,-0.07121998772615579,0.0,0.0,0.0,-1.5408508456201384,-1.5055112152573886,-2.365401150346918,-0.004388990384134626,0.0017866391780275584,-0.17287620283405283
7123,2.0,300.29077,17769.59,0.0,0.0,-0.07122999214653014,0.0,0.0,0.0,-1.5092756420289086,-1.5193761243257486,-2.3728597856580276,0.003593010793802557,0.015489288807173785,-0.19139955963466582
7124,2.0,300.23447000000004,17749.804,0.0,0.0,-0.07123999656690427,0.0,0.0,0.0,-1.5131128201576085,-1.5253558197908985,-2.357028563445608,-0.0002322140842627458,0.02436154378329718,-0.17436253940574284
7125,2.0,300.087,17804.985,0.0,0.0,-0.0712500009872783,0.0,0.0,0.0,-1.5101020488104684,-1.5305349463520386,-2.371633955687048,-0.007598634050926793,-0.007149773071902664,-0.19518814228856984
7126,2.0,299.63511,17906.147,0.0,0.0,-0.07126000540765243,0.0,0.0,0.0,-1.5474139704928687,-1.5297538318499486,-2.3658536678415776,0.004185123450764526,0.0015581668845290986,-0.18161216148622483
7127,2.0,299.83892000000003,17815.835,0.0,0.0,-0.07127000982802656,0.0,0.0,0.0,-1.5136607858116886,-1.5318592642327384,-2.3700488272306077,0.012443127673791089,0.01129406153038709,-0.2142479542221268
7128,2.0,300.03754,17641.694,0.0,0.0,-0.07128001424840091,0.0,0.0,0.0,-1.5264919771280285,-1.5021937331049786,-2.333948752667808,-0.003273411548585567,0.014669642430280986,-0.1992587631078088
7129,2.0,300.07523,17647.997,0.0,0.0,-0.07128998575949741,0.0,0.0,0.0,-1.4999395556075086,-1.5081990637976588,-2.3564117981097374,-0.013485754933940384,-0.006775852070274534,-0.19324449554924683
7130,2.0,300.36732,17710.08,0.0,0.0,-0.07129999017987154,0.0,0.0,0.0,-1.5288509246858384,-1.4977285425642985,-2.356842632052258,-0.002006504013251528,-0.0027566798354631173,-0.1808295777714898
7131,2.0,299.86611,17862.948,0.0,0.0,-0.07130999460024567,0.0,0.0,0.0,-1.5281452973161986,-1.5111395155878586,-2.3906053412843775,0.01135202146260729,0.003099944246040677,-0.17888668083724082
7132,2.0,299.77132,18044.575,0.0,0.0,-0.07131999902062003,0.0,0.0,0.0,-1.5732027054130184,-1.5249049234963985,-2.386992496727818,-0.0024874097359632277,-0.004924634916998626,-0.1843939383107648
7133,2.0,299.22427000000005,17905.867,0.0,0.0,-0.07133000344099405,0.0,0.0,0.0,-1.5385566447437184,-1.5086273646149286,-2.3957526517923773,4.906565931940355e-05,-0.014983175448474287,-0.17135805020922285
7134,2.0,299.60978,17866.033,0.0,0.0,-0.07134000786136818,0.0,0.0,0.0,-1.5505496755773385,-1.5128338724050785,-2.3674444704985773,-0.01907695105899848,0.003453790027412536,-0.17958463790362383
7135,2.0,299.96726,18036.137,0.0,0.0,-0.07135001228174231,0.0,0.0,0.0,-1.5468058177828485,-1.5269411508973587,-2.4087883169788977,0.011641329697409789,0.01743442907714418,-0.17493001012424783
7136,2.0,300.28874,17967.433999999997,0.0,0.0,-0.07135998379283903,0.0,0.0,0.0,-1.5575163779648984,-1.5155632641994485,-2.3885716470086678,-0.01155273820141649,0.024365820711969275,-0.18126285364675082
7137,2.0,300.20173,17699.331000000002,0.0,0.0,-0.07136998821321316,0.0,0.0,0.0,-1.5104412849439486,-1.4977570148921087,-2.371956371868868,-0.014431311821259587,-0.004060683976833306,-0.1835738744748308
7138,2.0,300.06921,17701.971999999998,0.0,0.0,-0.0713799926335873,0.0,0.0,0.0,-1.5138489463552587,-1.5069880272781384,-2.3601205974507677,-0.010323957646145292,-0.0037388217388429758,-0.19053714194455182
7139,2.0,299.99213,17929.043999999998,0.0,0.0,-0.07138999705396154,0.0,0.0,0.0,-1.5257419694040086,-1.5237531621077287,-2.4004866575845876,0.0009481221325973691,-0.012600810667603188,-0.19737385447678282
7140,2.0,300.84414,18012.032,0.0,0.0,-0.07140000147433567,0.0,0.0,0.0,-1.5451443915938785,-1.5278533799623886,-2.402210297329698,0.01049439441896609,0.003385703572367927,-0.19355927182531282
7141,2.0,300.75382,17911.58,0.0,0.0,-0.0714100058947098,0.0,0.0,0.0,-1.5003935929773187,-1.5383893571522087,-2.4058903203678876,0.018872817640852083,-0.012092929187479189,-0.1960294742441028
7142,2.0,299.23052,17806.35,0.0,0.0,-0.07142001031508394,0.0,0.0,0.0,-1.5345351564218286,-1.4986309431033586,-2.379519675915308,0.029745103684613174,0.005709176129601814,-0.18095849358171281
7143,2.0,299.71629,17855.77,0.0,0.0,-0.07143001473545807,0.0,0.0,0.0,-1.5272613379289586,-1.5147524614694288,-2.385694320699698,0.02839327302394787,0.0008251298635189773,-0.18402156889901483
7144,2.0,299.57068,17946.494,0.0,0.0,-0.07143998624655457,0.0,0.0,0.0,-1.5720361505728884,-1.5203942380262285,-2.3628556634456976,0.013285861967462488,-0.0020608158398116878,-0.18528186963839682
7145,2.0,299.92635,18010.493000000002,0.0,0.0,-0.07144999066692892,0.0,0.0,0.0,-1.5431166754937586,-1.5297388357484685,-2.401884638747558,-0.01027444214025849,-0.004049482598302816,-0.18726186165880682
7146,2.0,299.9156,17817.305,0.0,0.0,-0.07145999508730316,0.0,0.0,0.0,-1.5329901526693486,-1.5162164052139087,-2.3668092640108878,-0.029274064991375272,0.00961709086898297,-0.1912701270668918
7147,2.0,299.85733,17765.256,0.0,0.0,-0.0714699995076773,0.0,0.0,0.0,-1.4946493768354088,-1.5065212229570686,-2.399023828415218,-0.024257022982481773,0.014847646154848586,-0.18413885259808982
7148,2.0,300.02783999999997,17986.845,0.0,0.0,-0.07148000392805143,0.0,0.0,0.0,-1.5583645696236086,-1.5186438484784786,-2.390543431703268,-0.02042879793166538,0.009245117840672092,-0.18587889686231882
7149,2.0,300.54846000000003,17991.473,0.0,0.0,-0.07149000834842534,0.0,0.0,0.0,-1.5378849612524286,-1.5170381510450086,-2.4140353312967378,-0.0002100624409740488,0.0056071784228604255,-0.16826247996121385
7150,2.0,300.40693,17898.058,0.0,0.0,-0.07150001276879969,0.0,0.0,0.0,-1.5413038697398487,-1.5209943860604587,-2.3782644616914275,0.017238554660562882,-0.007946367198420382,-0.18423434128751384
7151,2.0,300.64134,17992.26,0.0,0.0,-0.07150998427989619,0.0,0.0,0.0,-1.5331089055810685,-1.5313044084779786,-2.4047844592087477,0.00955688172419079,-0.018255243731402283,-0.17829222726857283
7152,2.0,299.98254,18023.478,0.0,0.0,-0.07151998870027043,0.0,0.0,0.0,-1.5593172273676286,-1.5304802308466385,-2.388889807540068,0.018839740091337584,-0.014910759477077385,-0.18049305714827782
7153,2.0,299.6368,17957.593,0.0,0.0,-0.07152999312064456,0.0,0.0,0.0,-1.5245796702142986,-1.5304555075441986,-2.403624591819278,0.007189013309850374,0.004477270305722176,-0.16851890316402085
7154,2.0,299.56459,17959.756999999998,0.0,0.0,-0.07153999754101892,0.0,0.0,0.0,-1.5662655899283784,-1.5244967863561185,-2.3685553979082177,0.0036231772757797567,0.01986170616869778,-0.1842721456487448
7155,2.0,299.77132,17904.558999999997,0.0,0.0,-0.07155000196139305,0.0,0.0,0.0,-1.5310217117000786,-1.5250490076606185,-2.3864683424510877,-0.006645204311655604,-0.005197279139331515,-0.1902488418935988
7156,2.0,300.46539,17807.706000000002,0.0,0.0,-0.07156000638176707,0.0,0.0,0.0,-1.5403855611742183,-1.5279120471431786,-2.3448001546137576,-0.006702394984399884,0.007793837189316842,-0.21021737704683977
7157,2.0,300.36678,17806.778000000002,0.0,0.0,-0.0715700108021412,0.0,0.0,0.0,-1.5016302647243687,-1.5277646192536287,-2.383420891450328,-0.008869548787756311,0.01982960843202998,-0.2133091982694788
7158,2.0,299.95232999999996,17892.95,0.0,0.0,-0.07158001522251534,0.0,0.0,0.0,-1.5201864204307185,-1.5292021171704984,-2.389621374112268,-9.049023852794121e-05,0.02421310770989768,-0.19126229464361882
7159,2.0,300.22577,17925.166,0.0,0.0,-0.07158998673361205,0.0,0.0,0.0,-1.4990964301992986,-1.5389040882030087,-2.410802354202668,-0.016331430349536682,0.01089550568305269,-0.1896155301835958
7160,2.0,300.28817000000004,17946.613999999998,0.0,0.0,-0.07159999115398619,0.0,0.0,0.0,-1.5531953729134484,-1.5124544102426287,-2.389672948542358,0.0027349213028157173,-0.0032077526381305366,-0.17393273897832484
7161,2.0,300.47373,18051.977,0.0,0.0,-0.07160999557436032,0.0,0.0,0.0,-1.5421158883699886,-1.5301401841130786,-2.415094076326228,0.008876053346773261,0.004165172758945545,-0.17125166908122383
7162,2.0,300.37198,18078.186999999998,0.0,0.0,-0.07161999999473445,0.0,0.0,0.0,-1.5670194480027786,-1.5438919131452686,-2.384406175847568,0.014878366884630487,0.0008122101749389034,-0.18117278584536184
7163,2.0,300.42084,18001.761000000002,0.0,0.0,-0.0716300044151087,0.0,0.0,0.0,-1.5332766997976286,-1.5289306674687086,-2.4098783714364775,0.0038581651727212563,-0.025929392272531774,-0.18210273665464083
7164,2.0,300.28217,18111.138,0.0,0.0,-0.07164000883548283,0.0,0.0,0.0,-1.5685655663303686,-1.5390548598178884,-2.3977132907358776,0.007000185743739544,-0.021965835511859183,-0.18983324723258282
7165,2.0,300.43658,18030.831000000002,0.0,0.0,-0.07165001325585696,0.0,0.0,0.0,-1.5509205251139384,-1.5238414161914384,-2.406160452844548,0.004751471386833715,0.008224247897270071,-0.18299555184775482
7166,2.0,300.32899,17866.365,0.0,0.0,-0.07165998476695346,0.0,0.0,0.0,-1.5502671814494586,-1.5179206918821087,-2.362740862209368,0.007824283429646653,-0.005466466557623244,-0.19450874796401882
7167,2.0,300.73435,18051.341,0.0,0.0,-0.07166998918732781,0.0,0.0,0.0,-1.5548735177290685,-1.5381502301286085,-2.3941332754825577,-0.02119862989389188,-0.011177930909925889,-0.18881934865251881
7168,2.0,299.95385,18092.901,0.0,0.0,-0.07167999360770194,0.0,0.0,0.0,-1.5816548324471786,-1.5194991328878884,-2.3986362602519677,-0.02166512720018158,0.006095208307025224,-0.19095064931036182
7169,2.0,299.68662,17957.76,0.0,0.0,-0.07168999802807607,0.0,0.0,0.0,-1.5179674027117185,-1.5326181885576384,-2.4081250434634374,-0.008280768913023262,0.028669749459483973,-0.18419773256140085
7170,2.0,300.40752000000003,17971.754,0.0,0.0,-0.07170000244845032,0.0,0.0,0.0,-1.5309064038386986,-1.5179935445642987,-2.4140647155496375,-0.014860749505141787,0.019365562177732182,-0.18502959062849883
7171,2.0,300.83231,18002.217,0.0,0.0,-0.07171000686882445,0.0,0.0,0.0,-1.5305393033274686,-1.5148164988757487,-2.4268686504382875,-0.018767406193198784,-0.013217774600492789,-0.17645667404991783
7172,2.0,300.24953999999997,17930.843,0.0,0.0,-0.07172001128919858,0.0,0.0,0.0,-1.5513769942839886,-1.5133860937095787,-2.3857655521817276,0.0008282382919107552,-0.01983690484600008,-0.1903111567747488
7173,2.0,300.07082,18013.131999999998,0.0,0.0,-0.07173001570957271,0.0,0.0,0.0,-1.5417078525547185,-1.5427694346844885,-2.3910650528547475,0.03034489302830777,-0.0005739731699617414,-0.1952459887367788
7174,2.0,299.76018,18065.629,0.0,0.0,-0.07173998722066921,0.0,0.0,0.0,-1.5676115913612185,-1.5337506981944087,-2.390137929013248,0.02889972987443127,-0.006404212705221584,-0.19542648910959282
7175,2.0,299.53009,18053.331000000002,0.0,0.0,-0.07174999164104334,0.0,0.0,0.0,-1.5138300999033987,-1.5521352093338185,-2.4217964217626977,0.010506720606432589,-0.01746073000998988,-0.20857398670964983
7176,2.0,300.22846,18074.482,0.0,0.0,-0.0717599960614177,0.0,0.0,0.0,-1.5498679609100587,-1.5440462311354985,-2.4002771174639075,-0.003395112612796527,-0.01293927571775709,-0.18717113524485282
7177,2.0,300.2326,18048.82,0.0,0.0,-0.07177000048179194,0.0,0.0,0.0,-1.5503402367816685,-1.5263227643613286,-2.4097277011466076,-0.0014900512478816085,0.008565185581643002,-0.1991410335786898
7178,2.0,300.28688,17971.887,0.0,0.0,-0.07178000490216607,0.0,0.0,0.0,-1.5709496424906586,-1.5138659689569385,-2.3781894811840276,-0.0005139765239805335,0.0025487450069165475,-0.1847653755324228
7179,2.0,300.75862,17911.297,0.0,0.0,-0.0717900093225402,0.0,0.0,0.0,-1.5351195990795086,-1.5168981198811884,-2.3925692226281976,-0.014681402210941587,-0.010535250689498291,-0.19108975841659082
7180,2.0,299.92139,18133.348,0.0,0.0,-0.07180001374291411,0.0,0.0,0.0,-1.5752757137926086,-1.5341879156125586,-2.402621372895268,-0.006904274934323883,0.004068830304987286,-0.17216619822398085
7181,2.0,299.98611,18195.89,0.0,0.0,-0.07180998525401083,0.0,0.0,0.0,-1.5410872368684685,-1.5448032302852086,-2.4452056401480076,-0.0027655895462424373,0.02009149710587638,-0.18163138284062183
7182,2.0,300.06279,17993.968999999997,0.0,0.0,-0.07181998967438497,0.0,0.0,0.0,-1.5401175565227685,-1.5183525390747286,-2.411247373646588,0.005866575109410885,0.011077880568551688,-0.16835316584516383
7183,2.0,300.08325,18096.172,0.0,0.0,-0.07182999409475921,0.0,0.0,0.0,-1.5285481655559587,-1.5505355914009484,-2.4217005683032378,-0.011994210256736387,-0.013277583714145487,-0.18130852082875784
7184,2.0,299.44896,18208.976000000002,0.0,0.0,-0.07183999851513334,0.0,0.0,0.0,-1.5974196867780486,-1.5329014932855984,-2.4047529471306377,0.006090066873367805,-0.0003155234973522447,-0.1879581164650218
7185,2.0,300.04148,18106.538,0.0,0.0,-0.0718500029355077,0.0,0.0,0.0,-1.5495981324084287,-1.5517503769458385,-2.402586821066858,0.006850579771774584,0.0003908468379235796,-0.1950198009169558
7186,2.0,299.7374,18011.272,0.0,0.0,-0.07186000735588183,0.0,0.0,0.0,-1.5462138770744287,-1.5273083527335987,-2.401454615405118,0.012665898814276887,-0.0046362543126626755,-0.2053928069606918
7187,2.0,300.08595,18008.24,0.0,0.0,-0.07187001177625585,0.0,0.0,0.0,-1.5118729060102385,-1.5320124676478586,-2.4301699205890976,-0.0018563633492087981,-0.012738986570490088,-0.18300224943091584
7188,2.0,299.66325,17913.474,0.0,0.0,-0.07188001619662998,0.0,0.0,0.0,-1.5280581578075985,-1.5212577297614487,-2.3959330103101775,0.0012214876876764488,-0.001873603799660298,-0.18647175962832982
7189,2.0,299.61598,17985.394,0.0,0.0,-0.07188998770772659,0.0,0.0,0.0,-1.5264331072972186,-1.5270284930559785,-2.4136491816836276,0.010358977596101491,0.017085722094979484,-0.1824794731743218
7190,2.0,299.62632,18157.795,0.0,0.0,-0.07189999212810083,0.0,0.0,0.0,-1.5874033042395086,-1.5408372680687985,-2.3912758088755477,-0.004669050482624405,0.0038368753695701167,-0.18800783664742882
7191,2.0,300.08325,18173.438000000002,0.0,0.0,-0.07190999654847496,0.0,0.0,0.0,-1.5623570789926384,-1.5515232062734183,-2.4103911773120874,0.0005896453524384654,-0.0023915623560038274,-0.1894990773496028
7192,2.0,300.13329,18076.167,0.0,0.0,-0.0719200009688491,0.0,0.0,0.0,-1.5548532527270686,-1.5474780078991885,-2.392372246808758,-0.014374420867894885,-0.005293265131904595,-0.20523072747469578
7193,2.0,300.76729,18206.281000000003,0.0,0.0,-0.07193000538922323,0.0,0.0,0.0,-1.5365344001941383,-1.5660357848056985,-2.4316847294885977,-0.004979705667883685,0.012466628996610489,-0.1917365970154288
7194,2.0,300.3681,18176.292,0.0,0.0,-0.07194000980959747,0.0,0.0,0.0,-1.5772873192161385,-1.5399470265309385,-2.4079047628916976,-0.009712521600501251,0.01020982312838109,-0.18328995166430984
7195,2.0,299.74822,18018.417,0.0,0.0,-0.0719500142299716,0.0,0.0,0.0,-1.5562387709138086,-1.5243034582370385,-2.396606720301668,0.007778767728529602,0.009668251791707161,-0.18138804069660583
7196,2.0,299.80012,18071.259,0.0,0.0,-0.07195998574106832,0.0,0.0,0.0,-1.5902910670245085,-1.5287433175252185,-2.374177010788028,0.01800289075424698,0.008892061685103161,-0.18273405226194683
7197,2.0,299.85264,18081.646,0.0,0.0,-0.07196999016144223,0.0,0.0,0.0,-1.5471520453420184,-1.5389490765074487,-2.410267763449908,0.015761652460553985,0.005126683573064276,-0.20000868977182082
7198,2.0,299.42253,18044.031000000003,0.0,0.0,-0.07197999458181659,0.0,0.0,0.0,-1.5423161065897486,-1.5320437770759485,-2.4105749808802273,0.0055386177667690155,-0.010859537331002889,-0.19676365500156082
7199,2.0,300.11962,18171.749,0.0,0.0,-0.07198999900219072,0.0,0.0,0.0,-1.5373264577973087,-1.5424245243504486,-2.4440067626296873,-0.01139667843426459,-0.006969123953973984,-0.18586723435366784
7200,2.0,300.12936,18225.843,0.0,0.0,-0.07200000342256485,0.0,0.0,0.0,-1.5735172182440587,-1.5480584988814787,-2.4186254555747477,-0.004919055151347945,0.004663143234541405,-0.18486451192220682
7201,2.0,300.70648,18093.444,0.0,0.0,-0.0720100078429391,0.0,0.0,0.0,-1.5408274395428287,-1.5553528863513786,-2.4037748568091075,-0.014145617849563787,0.014920872726325488,-0.1934772897597218
7202,2.0,301.24985,18105.29,0.0,0.0,-0.07202001226331323,0.0,0.0,0.0,-1.5703342957049284,-1.5424648517044286,-2.3907569234993375,-0.023615382356656778,0.0035133958830951767,-0.18665973778688183
7203,2.0,300.17193,18233.041,0.0,0.0,-0.07202998377440994,0.0,0.0,0.0,-1.5537300649912185,-1.5577582407637685,-2.4309009805362476,-0.016304404942869482,0.0021931336372454377,-0.1994366492953648
7204,2.0,299.85385,18128.858,0.0,0.0,-0.07203998819478408,0.0,0.0,0.0,-1.5519493792654786,-1.5450598865355383,-2.4137107872897077,-0.0037455383711058566,0.0061424391365865446,-0.1986578146059998
7205,2.0,300.2597,18014.155,0.0,0.0,-0.07204999261515799,0.0,0.0,0.0,-1.5057419323051586,-1.5475292783542485,-2.4225819945652276,0.01037524633970709,0.012944634797535989,-0.20309531302144682
7206,2.0,299.32878,18000.865,0.0,0.0,-0.07205999703553212,0.0,0.0,0.0,-1.5448803386178185,-1.5247319617043287,-2.402201279403808,0.015016920729804685,-0.014779272038100586,-0.17828854917070985
7207,2.0,299.56465,18123.335,0.0,0.0,-0.07207000145590647,0.0,0.0,0.0,-1.5760070777147885,-1.5330908697292884,-2.3999434542059777,0.019170176147699083,-0.007889624990170362,-0.17847465281657682
7208,2.0,299.97744,18201.049,0.0,0.0,-0.07208000587628072,0.0,0.0,0.0,-1.5911389547081884,-1.5342313840418484,-2.407293975731418,0.01032903200264609,0.0013036187010321487,-0.17799545644678383
7209,2.0,300.29168,18208.483,0.0,0.0,-0.07209001029665485,0.0,0.0,0.0,-1.5469141342185384,-1.5600037043103785,-2.4280062263255577,0.004273642195400646,-0.007378895567990294,-0.2010582243579018
7210,2.0,300.55897000000004,18212.66,0.0,0.0,-0.07210001471702898,0.0,0.0,0.0,-1.5482954980798684,-1.5513014058265286,-2.4365969659733975,-0.014138376151099086,-0.022770221328995876,-0.19093455889877384
7211,2.0,299.85821,18192.039,0.0,0.0,-0.0721099862281257,0.0,0.0,0.0,-1.5406427240495983,-1.5535350143469686,-2.4357479637146078,-0.00946034320633818,-0.009936036162585421,-0.20040349254078482
7212,2.0,299.39679,18294.207,0.0,0.0,-0.07211999064849961,0.0,0.0,0.0,-1.5807222370551384,-1.5456576027695286,-2.4346022818265376,-0.005057441810255646,0.005630233510335785,-0.16426264479396083
7213,2.0,299.70807,18176.265,0.0,0.0,-0.07212999506887374,0.0,0.0,0.0,-1.5639445379243087,-1.5407639087615586,-2.420422150652068,-0.009389378209084481,0.01979173314329198,-0.19650085845562482
7214,2.0,299.06968,17927.328,0.0,0.0,-0.07213999948924799,0.0,0.0,0.0,-1.5457615622297884,-1.5214718295075784,-2.382226674882468,-0.008845007363709263,0.00022042104873386378,-0.17364974835789584
7215,2.0,299.40442,17969.093,0.0,0.0,-0.07215000390962212,0.0,0.0,0.0,-1.5330268323229683,-1.5190774181962685,-2.4100513332285476,-0.0032790789603698973,-0.0050304809476198155,-0.2079646991595178
7216,2.0,299.91202999999996,18293.67,0.0,0.0,-0.07216000832999647,0.0,0.0,0.0,-1.5842122756995785,-1.5433908609708185,-2.4332157503896976,0.012774120004457488,0.010711263377619388,-0.1844275174190788
7217,2.0,299.97664,18178.466,0.0,0.0,-0.0721700127503706,0.0,0.0,0.0,-1.5402985229906285,-1.5499243989406286,-2.435576927097727,0.003936647067166817,0.004008087582692446,-0.21534438202283582
7218,2.0,299.81585,18090.254,0.0,0.0,-0.0721799842614671,0.0,0.0,0.0,-1.5589846786848087,-1.5448013051100187,-2.395199315912768,9.418371448770892e-05,-0.024576685150529975,-0.17432928453746085
7219,2.0,300.12962000000005,18173.495,0.0,0.0,-0.07218998868184123,0.0,0.0,0.0,-1.5642500328294586,-1.5432600503829086,-2.416778705942488,-0.0014778085522233486,-0.025388202221870475,-0.19549344467620083
7220,2.0,300.65449,18276.33,0.0,0.0,-0.07219999310221537,0.0,0.0,0.0,-1.5891478169366784,-1.5376708615062984,-2.4287293829219276,0.002738783710871907,0.002066757943698128,-0.17373396970620783
7221,2.0,300.23112000000003,18262.289,0.0,0.0,-0.07220999752258961,0.0,0.0,0.0,-1.5364227400331185,-1.5809574124033483,-2.433899795532208,-0.004471092621187486,0.013215010454219987,-0.2068198076065258
7222,2.0,299.94794,18156.433,0.0,0.0,-0.07222000194296374,0.0,0.0,0.0,-1.5400534177914385,-1.5463885613916686,-2.4326602866848774,-0.01133644274231979,-0.009141014194922862,-0.18538784546635584
7223,2.0,299.97907000000004,18108.252,0.0,0.0,-0.07223000636333787,0.0,0.0,0.0,-1.5351468555071985,-1.5456225443160685,-2.4236871464492977,-0.006108760121812684,-0.004696799856488056,-0.1929781526279608
7224,2.0,299.93881,18067.363999999998,0.0,0.0,-0.072240010783712,0.0,0.0,0.0,-1.5707578342467285,-1.5241250248944287,-2.397144654779758,0.006946914119732043,0.005700446270715245,-0.1980979533957458
7225,2.0,300.40713999999997,18249.619,0.0,0.0,-0.07225001520408625,0.0,0.0,0.0,-1.5806307405711086,-1.5492230272214087,-2.4175746138960377,0.0037571699756288068,-0.0009655371153785941,-0.19536226931825482
7226,2.0,300.31585,18245.283,0.0,0.0,-0.07225998671518286,0.0,0.0,0.0,-1.5827719406824285,-1.5573136266198884,-2.406024677331148,-0.017770347829796782,-0.012557180118297187,-0.19895934770325882
7227,2.0,299.35302,18055.384,0.0,0.0,-0.0722699911355571,0.0,0.0,0.0,-1.5302970352285588,-1.5380414070678685,-2.4200474507650873,-0.012494165081328088,0.006961194967966453,-0.19261734439985181
7228,2.0,299.84716000000003,18242.623,0.0,0.0,-0.07227999555593101,0.0,0.0,0.0,-1.5705699776781885,-1.5503312188557787,-2.4244004745196976,0.016570878573418383,0.02252115229541468,-0.19795091054123382
7229,2.0,299.92711,18401.113,0.0,0.0,-0.07228999997630536,0.0,0.0,0.0,-1.5846925562469785,-1.5594156139523383,-2.449370706009068,0.02168774699541398,0.009133097469241541,-0.19202124936602183
7230,2.0,299.83603,18150.512,0.0,0.0,-0.0723000043966795,0.0,0.0,0.0,-1.5681010924845287,-1.5360529037466186,-2.4131483321591976,0.0053609072767803545,-0.01809213883630508,-0.18429879412637482
7231,2.0,300.185,18106.414,0.0,0.0,-0.07231000881705363,0.0,0.0,0.0,-1.5444997618802587,-1.5360554368718686,-2.4233425400902875,0.001163888776466879,-0.015897700538230884,-0.19232719010121582
7232,2.0,299.97495,18161.074,0.0,0.0,-0.07232001323742787,0.0,0.0,0.0,-1.5715838357282486,-1.5274506130476384,-2.4214786665313377,-0.0032867355847505464,0.006659621847328504,-0.17908796296960583
7233,2.0,299.98299,18131.707,0.0,0.0,-0.07232998474852448,0.0,0.0,0.0,-1.5305887499323485,-1.5492869633027184,-2.4317103647161273,0.001041836114471219,0.007149567584782383,-0.2062981053950378
7234,2.0,300.58848,18249.927,0.0,0.0,-0.07233998916889872,0.0,0.0,0.0,-1.5640112097808885,-1.5498494184332285,-2.4336615804336974,-0.023020514368697877,-0.0027254587627818377,-0.18909556062977884
7235,2.0,300.74748999999997,18259.226000000002,0.0,0.0,-0.07234999358927285,0.0,0.0,0.0,-1.5679797051225484,-1.5512761758990383,-2.4310929914301975,-0.013712016721020686,9.8157682393159e-05,-0.1917337396501468
7236,2.0,300.69875,18233.836,0.0,0.0,-0.07235999800964676,0.0,0.0,0.0,-1.5924314565357485,-1.5515630270023486,-2.3986364629019876,-0.007049129168619884,0.0034881889563824465,-0.18177645998993983
7237,2.0,299.53826000000004,18226.396,0.0,0.0,-0.0723700024300209,0.0,0.0,0.0,-1.5703284188543485,-1.5468634717135386,-2.4231773803239873,0.026865455006413973,-0.004587880739638576,-0.1940422476179788
7238,2.0,299.71631,18380.351000000002,0.0,0.0,-0.07238000685039525,0.0,0.0,0.0,-1.5888466790069586,-1.5564727303618986,-2.4418484385916774,0.013250031417426287,-0.02326575939640168,-0.17874121865288484
7239,2.0,299.99168,18360.217,0.0,0.0,-0.0723900112707695,0.0,0.0,0.0,-1.5530824968523087,-1.5692770705505885,-2.4586879459786077,0.012887717499668687,-0.004195799357793155,-0.18703531920144884
7240,2.0,300.4007,18087.479,0.0,0.0,-0.07240001569114363,0.0,0.0,0.0,-1.5429226380996086,-1.5322387263951884,-2.4229805058295577,-0.002259097333330548,0.02255003397626508,-0.1912821847430818
7241,2.0,299.82875,18199.182,0.0,0.0,-0.07240998720224012,0.0,0.0,0.0,-1.5510384674255786,-1.5509633855931684,-2.4300948387566876,-0.006987819735544113,0.02050083900052528,-0.1925170022424488
7242,2.0,300.52522999999997,18339.039,0.0,0.0,-0.07241999162261448,0.0,0.0,0.0,-1.5734975611921185,-1.5556799634836587,-2.4454324055203878,-0.019598614766982683,0.0026367345310254376,-0.18307317693791583
7243,2.0,300.16831,18240.839,0.0,0.0,-0.07242999604298839,0.0,0.0,0.0,-1.5474631131227183,-1.5680426279537585,-2.4292540438237076,-0.015849362428960286,-0.0014706873291955387,-0.19494721167979182
7244,2.0,300.64896,18342.909,0.0,0.0,-0.07244000046336252,0.0,0.0,0.0,-1.5652579127039286,-1.5758748485767384,-2.4346534509565876,-0.004123056714564016,0.011625768202373989,-0.19440346114612783
7245,2.0,300.24346,18348.27,0.0,0.0,-0.07245000488373676,0.0,0.0,0.0,-1.5853550191623587,-1.5618017166128286,-2.430259289247918,0.007708487992318532,0.004653529112292566,-0.19264678944775782
7246,2.0,299.72205,18212.892,0.0,0.0,-0.0724600093041109,0.0,0.0,0.0,-1.5788105380914683,-1.5509228555891685,-2.406530998406118,0.001386016705789199,-0.016264761532706985,-0.1846454877805908
7247,2.0,299.31862,18226.849,0.0,0.0,-0.07247001372448525,0.0,0.0,0.0,-1.5721557140846885,-1.5426671977493986,-2.425683958421368,0.0014697921227321887,-0.012467970539742886,-0.18832281557351482
7248,2.0,299.49507,18323.104,0.0,0.0,-0.07247998523558175,0.0,0.0,0.0,-1.5851589552680085,-1.5448804399428286,-2.4397267942072878,-0.01948319038184118,0.008202928405891003,-0.16255164027759786
7249,2.0,299.28805,18129.501,0.0,0.0,-0.07248998965595588,0.0,0.0,0.0,-1.5627584273572486,-1.5270274798058785,-2.4211295005468774,-0.009643918691880672,0.007381807040827634,-0.19588722406256381
7250,2.0,299.80557999999996,18149.975,0.0,0.0,-0.07249999407633001,0.0,0.0,0.0,-1.5507138220935384,-1.5351318594057186,-2.431293412299978,-0.009199241219869422,-0.009123755100669522,-0.17658866000794382
7251,2.0,300.46719,18375.835,0.0,0.0,-0.07250999849670425,0.0,0.0,0.0,-1.5771278336503987,-1.5634910071795485,-2.4451761545700976,0.012764933879050887,-0.002254626164614278,-0.20779406784267782
7252,2.0,300.28059,18419.776,0.0,0.0,-0.07252000291707839,0.0,0.0,0.0,-1.5880960633328784,-1.5678831423880184,-2.4431727564723773,0.013917262687776885,0.00943137702042944,-0.18727648285774984
7253,2.0,299.85504,18297.228,0.0,0.0,-0.07253000733745252,0.0,0.0,0.0,-1.5785527672660287,-1.5565687864713786,-2.426778775154418,-0.0009675181003841021,-0.0018982636726440384,-0.2139764234603288
7254,2.0,300.20425,18335.238,0.0,0.0,-0.07254001175782665,0.0,0.0,0.0,-1.5812859080857684,-1.5574296437563384,-2.434738867940018,-0.003162021722692247,-0.00851898482213334,-0.17651807700597782
7255,2.0,300.5366,18294.554,0.0,0.0,-0.07255001617820078,0.0,0.0,0.0,-1.5711413494095785,-1.5552186307131286,-2.4347275195388978,-0.0017293275232213383,-0.019235225790868983,-0.18698664266664483
7256,2.0,300.16055,18298.418,0.0,0.0,-0.0725599876892975,0.0,0.0,0.0,-1.5518699404576384,-1.5727111777895086,-2.4376810422553876,-0.007267284549600143,0.008553587009073311,-0.1861633566953928
7257,2.0,299.19031,18363.854,0.0,0.0,-0.07256999210967163,0.0,0.0,0.0,-1.5836365469927587,-1.5617628078089885,-2.436753715763868,-0.013654789368622787,-0.020025898281152282,-0.19118692910118082
7258,2.0,299.39946000000003,18278.358,0.0,0.0,-0.07257999653004588,0.0,0.0,0.0,-1.5819747155037485,-1.5398211808685185,-2.434368525028468,0.0038059474301427665,-0.02123132747461888,-0.18889740944022282
7259,2.0,300.0792,18167.435,0.0,0.0,-0.07259000095041979,0.0,0.0,0.0,-1.5479872673994486,-1.5431327861703485,-2.4313264442532376,0.001142206744202029,-0.005421865517371464,-0.18902921301323083
7260,2.0,299.93112,18213.893,0.0,0.0,-0.07260000537079414,0.0,0.0,0.0,-1.5439969871806383,-1.5564209532817883,-2.436150730629358,0.02540811359958558,0.00971011219308846,-0.2057666759825898
7261,2.0,299.27846,18462.887,0.0,0.0,-0.07261000979116827,0.0,0.0,0.0,-1.5736535003825085,-1.5710512714756883,-2.467551959178418,0.016343006731929184,-0.002117938118174218,-0.18388597577063281
7262,2.0,299.49331,18466.808,0.0,0.0,-0.0726200142115424,0.0,0.0,0.0,-1.5859013636162786,-1.5717403828686987,-2.4558066679942474,-0.008171664675380512,-0.025125503961194177,-0.19500122804262282
7263,2.0,299.65283999999997,18270.107,0.0,0.0,-0.0726299857226389,0.0,0.0,0.0,-1.5710452933000985,-1.5466177585642884,-2.435993271563818,0.0038611573002665565,-0.02057070158167018,-0.18293367266414784
7264,2.0,299.93765,18266.596999999998,0.0,0.0,-0.07263999014301326,0.0,0.0,0.0,-1.5695030253228883,-1.5594543201061586,-2.4236319243188476,-0.008910635572686263,0.001884885427598708,-0.2022110496591768
7265,2.0,300.15603,18413.828,0.0,0.0,-0.0726499945633875,0.0,0.0,0.0,-1.5887503189224486,-1.5618132676639684,-2.4467804334534273,-0.0015942999910451587,0.007921203740136941,-0.17768534112117784
7266,2.0,299.92013,18439.788,0.0,0.0,-0.07265999898376141,0.0,0.0,0.0,-1.6023861321431985,-1.5557529174908586,-2.4470961621845877,-0.026394780069961973,-0.014511681805941487,-0.18228465557759482
7267,2.0,299.82277999999997,18393.725,0.0,0.0,-0.07267000340413554,0.0,0.0,0.0,-1.5819778565790585,-1.5597997370652485,-2.4494553123924176,0.0035589379287148267,0.018609769808891282,-0.17185934556369684
7268,2.0,300.82677,18266.335,0.0,0.0,-0.07268000782450967,0.0,0.0,0.0,-1.5734908737414586,-1.5437081095771286,-2.435310746296458,0.014797855044934588,0.032427555654850566,-0.1970480641721298
7269,2.0,300.04171,18297.298,0.0,0.0,-0.07269001224488403,0.0,0.0,0.0,-1.5621039691176586,-1.5581472274771586,-2.4416705118741175,0.019406143857487283,-0.002349279328005818,-0.2049935661562898
7270,2.0,300.02608,18548.368000000002,0.0,0.0,-0.07269998375598052,0.0,0.0,0.0,-1.6111833721614184,-1.5698650595836183,-2.457192388831008,0.003066283165793587,-0.03830676812083367,-0.2048440205740308
7271,2.0,299.89034,18547.724,0.0,0.0,-0.07270998817635477,0.0,0.0,0.0,-1.5949704586363285,-1.5658890661912184,-2.4771856371541876,0.007430427644226112,-0.02134060953765418,-0.19045282940373082
7272,2.0,299.40709,18209.38,0.0,0.0,-0.0727199925967289,0.0,0.0,0.0,-1.5483123180315286,-1.5633253407881984,-2.4235592742866774,0.002270697425775388,0.019334086576625782,-0.1961576909117568
7273,2.0,299.2755,18198.916,0.0,0.0,-0.07272999701710325,0.0,0.0,0.0,-1.5321939407407685,-1.5502822788759485,-2.449539817450758,-0.009712331920082532,0.01785540004319078,-0.17843615944527783
7274,2.0,300.06177,18482.494,0.0,0.0,-0.07274000143747716,0.0,0.0,0.0,-1.5964845582607585,-1.5688714665355585,-2.4528605420034877,-0.012181332218953888,0.0005646057842447524,-0.17639761170158882
7275,2.0,299.5411,18422.337,0.0,0.0,-0.0727500058578513,0.0,0.0,0.0,-1.5881084249840984,-1.5675251611276884,-2.444296856133318,0.0015554982877407288,0.010621238132734589,-0.19088596342397782
7276,2.0,300.00298,18296.602,0.0,0.0,-0.07276001027822554,0.0,0.0,0.0,-1.5792003354049384,-1.5636548497207186,-2.418854956722398,0.010930538805260188,0.01899091497975738,-0.2039697073277428
7277,2.0,300.41702999999995,18341.834,0.0,0.0,-0.07277001469859967,0.0,0.0,0.0,-1.5737199695890685,-1.5654394871218484,-2.436300286344118,0.008614930183377412,0.005227752129463965,-0.1892961537520758
7278,2.0,299.96941,18380.913,0.0,0.0,-0.07277998620969639,0.0,0.0,0.0,-1.5692962209774786,-1.5650166578551183,-2.4530257017697874,-0.013055735644500787,-0.02094231105584518,-0.2000545900013508
7279,2.0,300.27762,18550.164,0.0,0.0,-0.07278999063007052,0.0,0.0,0.0,-1.5939615655117587,-1.5675707573821884,-2.4772542341859576,-0.0013974597444685387,0.0002554570384391467,-0.18786627547595783
7280,2.0,300.26283,18542.598,0.0,0.0,-0.07279999505044465,0.0,0.0,0.0,-1.5917984791982787,-1.5706769768887485,-2.474011428565918,0.006063629455733634,0.022114829886063777,-0.20272232552713582
7281,2.0,299.83698,18195.913,0.0,0.0,-0.07280999947081879,0.0,0.0,0.0,-1.5629805317791685,-1.5466006346375984,-2.4215219323106076,0.0004700671991745205,0.009694311773679081,-0.1989506540174008
7282,2.0,299.32792,18228.267,0.0,0.0,-0.07282000389119303,0.0,0.0,0.0,-1.5422955376127185,-1.5650095651044185,-2.433632905455868,-0.005855992421391454,-0.02796147649383287,-0.2123484446571598
7283,2.0,299.05239,18569.027,0.0,0.0,-0.07283000831156716,0.0,0.0,0.0,-1.6147846656668383,-1.5683252234066487,-2.461410650322318,-0.0048186996190436255,-0.007883159441282261,-0.17547923220845182
7284,2.0,299.08162000000004,18573.139,0.0,0.0,-0.0728400127319413,0.0,0.0,0.0,-1.6002625625836184,-1.5787698054374486,-2.4667381166980977,0.018281154562959482,0.017348724330685784,-0.17740465057847585
7285,2.0,300.14437999999996,18301.038,0.0,0.0,-0.07284998424303779,0.0,0.0,0.0,-1.5646825892971485,-1.5485154746765786,-2.449860409782398,0.002096702321253408,0.008180043037807392,-0.17016836286930984
7286,2.0,299.57662,18224.194,0.0,0.0,-0.07285998866341215,0.0,0.0,0.0,-1.5613278195410587,-1.5452042746747885,-2.433167823659968,0.0025602143900984877,-0.0015853415429360285,-0.17724918761563282
7287,2.0,299.7908,18420.136000000002,0.0,0.0,-0.07286999308378628,0.0,0.0,0.0,-1.5891544030623286,-1.5650686375852485,-2.4450382512314874,-0.004183860941139927,0.003789199824539906,-0.19865895957861282
7288,2.0,300.11317,18513.223,0.0,0.0,-0.07287999750416041,0.0,0.0,0.0,-1.5836044269645884,-1.5918183389002385,-2.4521345483068373,0.016371006885192586,0.024695584983514478,-0.21697797423155882
7289,2.0,300.37486,18456.898,0.0,0.0,-0.07289000192453465,0.0,0.0,0.0,-1.5821103896921385,-1.5709910844197486,-2.457334649145048,-0.013107510698110588,-0.0012054611108447489,-0.2063890952540178
7290,2.0,299.8127,18297.134,0.0,0.0,-0.07290000634490856,0.0,0.0,0.0,-1.5621712489242985,-1.5656706094696586,-2.4340300994950677,-0.0076807171375527636,-0.015227809486367785,-0.1953979762517788
7291,2.0,299.72308,18224.435,0.0,0.0,-0.07291001076528292,0.0,0.0,0.0,-1.5633073049364186,-1.5345138781697285,-2.4419519927518976,-0.01644103158635348,0.0028407141378066574,-0.18489799983801183
7292,2.0,299.39634,18506.61,0.0,0.0,-0.07292001518565705,0.0,0.0,0.0,-1.5985321340628385,-1.5690056208487984,-2.4580093723866376,0.015955256183661184,0.01980489222234068,-0.18178951065122784
7293,2.0,299.79276,18685.781000000003,0.0,0.0,-0.07292998669675355,0.0,0.0,0.0,-1.6171766451779086,-1.5727108738144786,-2.490123118406018,-0.0018259950278116783,0.004943883223848285,-0.17092711494169283
7294,2.0,299.48091,18474.945,0.0,0.0,-0.07293999111712768,0.0,0.0,0.0,-1.5684860261975186,-1.5828619172913085,-2.4645740171345176,-0.005817478177140394,-0.015731744357352286,-0.1917202330263138
7295,2.0,299.23442,18237.921000000002,0.0,0.0,-0.07294999553750203,0.0,0.0,0.0,-1.5565752712720184,-1.5492020529443384,-2.438095461546288,-0.015491147107857185,-0.005049402278662206,-0.17985035260984783
7296,2.0,299.60232,18373.138,0.0,0.0,-0.07295999995787628,0.0,0.0,0.0,-1.5703003518265786,-1.5603064634402586,-2.4543682581522877,0.0005601924417116894,-0.002074112923524008,-0.19693048663052581
7297,2.0,300.14021,18510.19,0.0,0.0,-0.07297000437825019,0.0,0.0,0.0,-1.5942802326682086,-1.5659683023490383,-2.466387025538448,-0.0021193925373677583,-0.0015700081304977384,-0.17655345969946984
7298,2.0,300.25255,18436.856,0.0,0.0,-0.07298000879862432,0.0,0.0,0.0,-1.5760937105983384,-1.5711082161313086,-2.4571419289760277,1.5248314628641485e-05,-0.014073067115903589,-0.21442455358205578
7299,2.0,300.32912000000005,18414.576,0.0,0.0,-0.07299001321899845,0.0,0.0,0.0,-1.5675553559806683,-1.5757454565389684,-2.4542704795176378,-0.003923202048939897,0.014051139370489485,-0.19972476696129982
7300,2.0,300.07568,18512.111,0.0,0.0,-0.07299998473009517,0.0,0.0,0.0,-1.5921982063627287,-1.5791161343216285,-2.455905054578958,-0.002777390464857097,0.0033788279611643565,-0.2195666255870388
7301,2.0,299.69941,18623.088,0.0,0.0,-0.0730099891504693,0.0,0.0,0.0,-1.6049510734463384,-1.5831912235738086,-2.4728114364724876,-0.00974435244709271,-0.004035620019709686,-0.17518547073945984
7302,2.0,300.18991,18576.479,0.0,0.0,-0.07301999357084354,0.0,0.0,0.0,-1.6106517198339485,-1.5518390363295884,-2.484294802505808,-0.007278715429278283,-0.016934133800518884,-0.17538048085370583
7303,2.0,300.12342,18420.933999999997,0.0,0.0,-0.07302999799121768,0.0,0.0,0.0,-1.5783056355666383,-1.5623835248202484,-2.4588148048911274,0.006472080500894614,0.001997256180913838,-0.16983213608862682
7304,2.0,299.81181000000004,18299.953999999998,0.0,0.0,-0.07304000241159203,0.0,0.0,0.0,-1.5716841474881487,-1.5442917416347286,-2.446753278350748,0.01049779792605199,0.0013855131204894987,-0.19025216535392683
7305,2.0,299.90084,18548.892,0.0,0.0,-0.07305000683196594,0.0,0.0,0.0,-1.5918517761535385,-1.5774791274600684,-2.4690691998781578,0.012587323295522089,-0.005784708047706234,-0.19879766338480181
7306,2.0,300.02232000000004,18599.418999999998,0.0,0.0,-0.07306001125234018,0.0,0.0,0.0,-1.5958223993204086,-1.5883064140536385,-2.469630033808508,-0.0038762146020525964,-0.015945093285158182,-0.1994364466453448
7307,2.0,299.97438,18421.681,0.0,0.0,-0.07307001567271432,0.0,0.0,0.0,-1.5705190111981586,-1.5779597119824984,-2.451252311444768,-0.011682483863471387,-0.008096183014481053,-0.21566600786957782
7308,2.0,300.37802999999997,18354.506999999998,0.0,0.0,-0.07307998718381092,0.0,0.0,0.0,-1.5687056988191985,-1.5686402428627384,-2.4419658742782677,-0.014610829341476587,-0.014816764318300788,-0.2073691715457438
7309,2.0,299.50597999999997,18421.433,0.0,0.0,-0.07308999160418517,0.0,0.0,0.0,-1.5930073878925883,-1.5609135015751685,-2.4457346580252177,-0.003246151473195207,-0.005827954068599285,-0.2001529968510628
7310,2.0,299.52472,18512.18,0.0,0.0,-0.0730999960245593,0.0,0.0,0.0,-1.5791995248048585,-1.5805911224921985,-2.4674498235683378,0.006224127258323534,-0.011546264546527591,-0.2050679488461308
7311,2.0,300.31774,18544.346,0.0,0.0,-0.07311000044493343,0.0,0.0,0.0,-1.5830574745606087,-1.5724490499886385,-2.4815117084561376,0.005953686753633134,-0.004679636210394136,-0.19869631810979982
7312,2.0,300.20357,18541.116,0.0,0.0,-0.07312000486530756,0.0,0.0,0.0,-1.5721116377053386,-1.5797971397138384,-2.484127514914298,-4.8084165490787655e-05,-0.008587816927926543,-0.1898970313263778
7313,2.0,300.4131,18330.146,0.0,0.0,-0.07313000928568181,0.0,0.0,0.0,-1.5779762279591285,-1.5406242828977785,-2.4533063720474875,-0.00982274102120406,0.008340596467827782,-0.1767421572655928
7314,2.0,300.61952,18417.144,0.0,0.0,-0.07314001370605594,0.0,0.0,0.0,-1.5768872880766587,-1.5604966504840285,-2.460967860028618,0.01961749364284588,-0.0012393236252117188,-0.17938502763392383
7315,2.0,300.12057000000004,18684.764,0.0,0.0,-0.07314998521715244,0.0,0.0,0.0,-1.6263041034037184,-1.5847487916275285,-2.4686487010866576,-0.009805894319741422,0.001012061000345144,-0.18195015132208184
7316,2.0,300.09583,18707.367,0.0,0.0,-0.07315998963752657,0.0,0.0,0.0,-1.5944858211134985,-1.6044350251704085,-2.4876515987620977,0.006785921141818274,-0.006544260081043183,-0.1950868882060768
7317,2.0,300.07982999999996,18526.051,0.0,0.0,-0.07316999405790092,0.0,0.0,0.0,-1.5926448470068086,-1.5907011293399784,-2.4481110334847473,-0.011852346123485489,-0.0026270852489981276,-0.2025892655240038
7318,2.0,299.57036,18479.14,0.0,0.0,-0.07317999847827505,0.0,0.0,0.0,-1.5742925572205786,-1.5748799383035486,-2.4680247416750776,0.017144360904766686,0.0026835887355245876,-0.19604712506084482
7319,2.0,299.88511,18564.142,0.0,0.0,-0.07319000289864919,0.0,0.0,0.0,-1.6009820714796283,-1.5843683162149784,-2.4576852336796478,0.0026240785306513876,0.02056121553423398,-0.1982992659256138
7320,2.0,299.53212,18469.164,0.0,0.0,-0.07320000731902343,0.0,0.0,0.0,-1.5783639987723985,-1.5666731191185985,-2.4691276644089273,0.013457657508667386,0.0092766259671067,-0.18103671648943281
7321,2.0,299.70737,18432.452,0.0,0.0,-0.07321001173939734,0.0,0.0,0.0,-1.5940336075938684,-1.5597977105650485,-2.4491737301896275,-0.004270197955660726,0.006170359648392083,-0.1901995472762338
7322,2.0,300.32577000000003,18424.317,0.0,0.0,-0.0732200161597717,0.0,0.0,0.0,-1.5747260256133586,-1.5549932838908884,-2.470812901975248,0.001896406486535748,-0.002990843858748307,-0.17690191640885983
7323,2.0,300.31065,18478.233,0.0,0.0,-0.07322998767086819,0.0,0.0,0.0,-1.5790737804674486,-1.5783086753169384,-2.4595388734125874,0.00024790501186631975,0.0093955916613477,-0.2064007071001638
7324,2.0,300.02698,18623.747,0.0,0.0,-0.07323999209124232,0.0,0.0,0.0,-1.5803429775427085,-1.5977967171402587,-2.4830142570294274,-0.003311839463928107,0.01031206715622179,-0.1860889334755478
7325,2.0,300.66253,18708.688000000002,0.0,0.0,-0.07324999651161646,0.0,0.0,0.0,-1.6155482509421983,-1.6004856802556384,-2.4709400648627975,-0.013908567988668788,0.019099330713957183,-0.2007118954737218
7326,2.0,300.41199,18534.529,0.0,0.0,-0.07326000093199081,0.0,0.0,0.0,-1.5983320171680884,-1.5798201404911085,-2.4558819524766773,-0.00976797272547385,0.008760670200910831,-0.1966679636621168
7327,2.0,300.76159,18508.918999999998,0.0,0.0,-0.07327000535236505,0.0,0.0,0.0,-1.6061988909444884,-1.5643850990677883,-2.455665015630268,-0.012097684370198489,0.001853120948888798,-0.20927868188919782
7328,2.0,300.01854,18798.909,0.0,0.0,-0.07328000977273896,0.0,0.0,0.0,-1.6143884848777383,-1.6110137540946785,-2.488996586944838,-0.001180359866117449,-0.016919771993601486,-0.2052756955141338
7329,2.0,299.81226000000004,18760.096999999998,0.0,0.0,-0.0732900141931131,0.0,0.0,0.0,-1.6232131839736685,-1.5853655569633984,-2.4940224087658476,-0.013792474858461285,-0.01184765984177299,-0.1910992221725248
7330,2.0,299.48233999999997,18546.652,0.0,0.0,-0.07329998570420981,0.0,0.0,0.0,-1.5813532892174185,-1.5742229469387086,-2.4821429632684375,-7.813276493810353e-05,-0.006757651362703264,-0.19622879067127383
7331,2.0,299.77135,18376.138,0.0,0.0,-0.07330999012458395,0.0,0.0,0.0,-1.5847959077571785,-1.5483582182610587,-2.452732973815898,0.006765907729818103,0.007266332905106223,-0.17372972418828883
7332,2.0,299.42539,18499.724,0.0,0.0,-0.07331999454495808,0.0,0.0,0.0,-1.5780957914709286,-1.5770561968683285,-2.4683020682274477,0.015592573442867184,0.015970665691181985,-0.18590268797466683
7333,2.0,300.02625,18613.216,0.0,0.0,-0.07332999896533232,0.0,0.0,0.0,-1.6161407996006785,-1.5717318715678585,-2.4700803221529473,0.00811807316831644,0.01157986898609409,-0.17224332682159285
7334,2.0,299.9316,18591.585,0.0,0.0,-0.07334000338570645,0.0,0.0,0.0,-1.5879976767481685,-1.5857225249736286,-2.4776574064007475,-0.0019692222864221083,-0.0005776782810724074,-0.19785772192953682
7335,2.0,300.19611000000003,18602.501,0.0,0.0,-0.07335000780608081,0.0,0.0,0.0,-1.5981009961452883,-1.5842956661828085,-2.472299238546938,-0.00018747524199736582,-0.002384369597518958,-0.1937735438239598
7336,2.0,299.74511,18591.898,0.0,0.0,-0.07336001222645472,0.0,0.0,0.0,-1.5855804673096086,-1.5839411299728183,-2.4819513576745273,-0.005944140012515944,-0.009262563068968803,-0.22358690814130977
7337,2.0,299.68113999999997,18758.593,0.0,0.0,-0.07336998373755144,0.0,0.0,0.0,-1.6127386097399086,-1.6073701067350785,-2.4820350521327876,0.006656016298172664,0.010242198495576291,-0.2005168752269748
7338,2.0,299.62507999999997,18765.592,0.0,0.0,-0.07337998815792546,0.0,0.0,0.0,-1.6158725922992085,-1.5877739511260884,-2.5006248477424577,-0.014225620024459385,-0.012226240476635989,-0.2071794708620218
7339,2.0,299.25354,18548.296000000002,0.0,0.0,-0.0733899925782997,0.0,0.0,0.0,-1.5994772937561184,-1.5799351443774585,-2.4588062935902877,0.004219315271413996,-0.011041469426208188,-0.18420210980183283
7340,2.0,298.70428,18340.071,0.0,0.0,-0.07339999699867394,0.0,0.0,0.0,-1.5485919750591286,-1.5680297596774886,-2.4583017963654976,-0.003953365592491806,-0.0059142315040142035,-0.19871118248876682
7341,2.0,298.82331,18553.654,0.0,0.0,-0.07341000141904808,0.0,0.0,0.0,-1.5730832432262285,-1.5953119239200286,-2.4714522627883477,0.014965687764998386,-0.01006159000897662,-0.17726814552500383
7342,2.0,299.70461,18637.064,0.0,0.0,-0.07342000583942221,0.0,0.0,0.0,-1.5870054009252383,-1.5857893994802286,-2.4924070854564273,0.0046727709343415864,-0.008832542259654052,-0.19740540708489682
7343,2.0,300.44126,18657.136000000002,0.0,0.0,-0.07343001025979634,0.0,0.0,0.0,-1.6104507923391185,-1.5828569523658185,-2.4779957306091376,-0.007869310338915463,-0.0007765769857571812,-0.18288313174915985
7344,2.0,299.89525,18648.6,0.0,0.0,-0.07344001468017058,0.0,0.0,0.0,-1.6041140275387284,-1.5850088929281985,-2.479585823991068,-0.0019243787754213981,0.005081865595966086,-0.1988390242538838
7345,2.0,299.80262999999997,18638.621,0.0,0.0,-0.07344998619126719,0.0,0.0,0.0,-1.6238602454875286,-1.5678364315584086,-2.473978801912698,-0.008905799025983931,0.008916925930632072,-0.19499353747436382
7346,2.0,299.91744,18659.526,0.0,0.0,-0.07345999061164121,0.0,0.0,0.0,-1.5801603898746883,-1.5909942625939086,-2.500875323167177,0.0012131712348306789,0.005636750532328964,-0.2062034779681988
7347,2.0,299.83547000000004,18659.678,0.0,0.0,-0.07346999503201534,0.0,0.0,0.0,-1.6175424284640085,-1.5696458935869884,-2.4848877564643272,-0.007160533483989633,-0.007496522657524182,-0.1936398252082628
7348,2.0,300.26655,18653.533,0.0,0.0,-0.0734799994523897,0.0,0.0,0.0,-1.5855369988803185,-1.5874208334662385,-2.4972505222594377,0.007902812136246832,0.0022450167033158976,-0.18800631677227883
7349,2.0,300.07589,18435.005,0.0,0.0,-0.07349000387276383,0.0,0.0,0.0,-1.5901604590866185,-1.5609692303306684,-2.4526515085078575,-0.00011725074818174788,-0.004315190617076156,-0.18760389436256283
7350,2.0,299.68052,18479.822,0.0,0.0,-0.07350000829313796,0.0,0.0,0.0,-1.5735766960249284,-1.5768317619711785,-2.4669958875235376,0.0004267153443085256,-0.009463941257443282,-0.16983814466171984
7351,2.0,300.42888,18804.346,0.0,0.0,-0.07351001271351221,0.0,0.0,0.0,-1.6387553259325585,-1.5964107936534784,-2.4808853172443177,-0.0016123283447744185,-0.008726299845593742,-0.17585827893836084
7352,2.0,300.01673,18887.57,0.0,0.0,-0.07351998422460881,0.0,0.0,0.0,-1.6176608774006984,-1.6098804338578285,-2.5138082447935575,0.003632257719200926,-0.003531667619498457,-0.17970952097844883
7353,2.0,300.01595,18644.429,0.0,0.0,-0.07352998864498284,0.0,0.0,0.0,-1.6082744324493286,-1.5904737560175384,-2.4686925748159876,0.004009212594278476,-0.003846855477755076,-0.2067224140069138
7354,2.0,300.44063,18579.291,0.0,0.0,-0.07353999306535697,0.0,0.0,0.0,-1.5623106721380586,-1.5950401702432087,-2.490289798047468,0.02128073861574538,-0.01058729932063509,-0.1903601676820858
7355,2.0,299.86127999999997,18653.748,0.0,0.0,-0.0735499974857311,0.0,0.0,0.0,-1.6063744871868184,-1.5896789626390986,-2.4742202594115277,0.023609885474864277,-0.013061765495845886,-0.21515766029440778
7356,2.0,299.76479,18633.131,0.0,0.0,-0.07356000190610523,0.0,0.0,0.0,-1.5932451976910587,-1.5753336716983286,-2.4954276853295374,0.007205590588111425,0.004866821602067896,-0.1942257674760908
7357,2.0,299.63445,18556.881,0.0,0.0,-0.07357000632647959,0.0,0.0,0.0,-1.5960161327395286,-1.5772126426837685,-2.467599581933118,-0.007837621955288062,-0.0041471903054458165,-0.20722853243186382
7358,2.0,299.93598,18469.556,0.0,0.0,-0.07358001074685383,0.0,0.0,0.0,-1.5589228704287086,-1.5776308110000383,-2.4777300564329177,-0.02290596644489288,0.006054214031829404,-0.1911313523331958
7359,2.0,299.98933,18627.142,0.0,0.0,-0.07359001516722774,0.0,0.0,0.0,-1.6105658975504786,-1.5950033892645785,-2.456616862774208,-0.017491672641543683,-0.0035153832718413168,-0.2073862245449268
7360,2.0,299.53957,18936.174,0.0,0.0,-0.07359998667832446,0.0,0.0,0.0,-1.6229762861002883,-1.6079319539155286,-2.5252158197193975,-0.006405061808805384,0.006160051247174724,-0.17754924136774583
7361,2.0,299.14044,18877.697,0.0,0.0,-0.07360999109869859,0.0,0.0,0.0,-1.6405298308326883,-1.5996600840741586,-2.498158698324068,0.009041895435690601,-0.0094956987447275,-0.17529269286504184
7362,2.0,299.42177999999996,18543.58,0.0,0.0,-0.07361999551907272,0.0,0.0,0.0,-1.5649876789022585,-1.5784526581561484,-2.4933449497489875,0.008381963213760361,0.0002592820170366427,-0.17439190339364083
7363,2.0,299.65165,18588.216,0.0,0.0,-0.07362999993944686,0.0,0.0,0.0,-1.6113458974774586,-1.5655026126030787,-2.4735050061659374,0.019890718558811082,-0.0008377792676348763,-0.1871555615908158
7364,2.0,300.08434,18837.805,0.0,0.0,-0.0736400043598211,0.0,0.0,0.0,-1.6223805963664983,-1.5953705911008185,-2.5084712538668374,0.004246785798850125,0.019816209212707582,-0.1975007133893028
7365,2.0,299.99491,18738.317,0.0,0.0,-0.07365000878019523,0.0,0.0,0.0,-1.6257305025221085,-1.5875740368813585,-2.4826759328210377,0.005945553496405444,0.007219367040446053,-0.20620931428877481
7366,2.0,300.80001,18571.372,0.0,0.0,-0.07366001320056959,0.0,0.0,0.0,-1.5757582234902285,-1.5850254089048286,-2.4844496271210876,-0.023058944918490677,0.002196603816187918,-0.2068824467277078
7367,2.0,299.97992,18586.48,0.0,0.0,-0.07366998471166608,0.0,0.0,0.0,-1.5971790398792984,-1.5801633282999785,-2.472483447415118,-0.004277698640850986,0.01077973273987679,-0.19771418492037082
7368,2.0,300.45401,18774.366,0.0,0.0,-0.07367998913204021,0.0,0.0,0.0,-1.6050874569097984,-1.6004385641259884,-2.501412345720177,-0.017229853881954183,0.02013712781087978,-0.1933951557066158
7369,2.0,300.26105,18735.087,0.0,0.0,-0.07368999355241423,0.0,0.0,0.0,-1.6255169094010284,-1.5967321965851986,-2.4727495268913775,0.008293878950767122,0.005317794802250485,-0.1875479325595398
7370,2.0,299.60235,18686.835,0.0,0.0,-0.07369999797278848,0.0,0.0,0.0,-1.6075779243305883,-1.5884730936950884,-2.4842803130293776,-0.012913565509719687,0.010003944082962412,-0.1915178869813438
7371,2.0,299.55573,18700.782,0.0,0.0,-0.07371000239316272,0.0,0.0,0.0,-1.5976619548769586,-1.6032898499073884,-2.4836190660141177,0.01017021214222179,0.0005841389055650215,-0.20629299861453382
7372,2.0,299.82007999999996,18623.453,0.0,0.0,-0.07372000681353685,0.0,0.0,0.0,-1.5956192426753586,-1.5789067968509685,-2.4865388475022776,0.010028338889719992,0.015848758531900684,-0.1983471521253398
7373,2.0,299.2001,18744.311,0.0,0.0,-0.07373001123391099,0.0,0.0,0.0,-1.5988885954480185,-1.5938466629504184,-2.5050672401558876,-0.0004151800390750796,0.0019205674351702481,-0.1936163279384438
7374,2.0,300.28317999999996,18729.288,0.0,0.0,-0.07374001565428512,0.0,0.0,0.0,-1.5927750496446584,-1.5765401485923984,-2.5239207847665877,-0.004432546256908256,0.001931713490245278,-0.1815719455897558
7375,2.0,299.38471,18666.143,0.0,0.0,-0.07374998716538184,0.0,0.0,0.0,-1.5991410973729385,-1.5908731792069586,-2.4840271018293874,-0.006951256099060563,0.0003194041337777337,-0.19406161082738982
7376,2.0,298.92996,18770.567,0.0,0.0,-0.07375999158575597,0.0,0.0,0.0,-1.6080935673064787,-1.6058364513837184,-2.491853445601788,-0.00904951538041763,0.016547629549873884,-0.2045961390695668
7377,2.0,299.69878,18846.286,0.0,0.0,-0.07376999600612999,0.0,0.0,0.0,-1.6304434327122383,-1.6037200758998484,-2.494636843626487,0.00985704662983976,-0.009658738690493291,-0.20638315760843182
7378,2.0,299.62424,18716.022,0.0,0.0,-0.07378000042650412,0.0,0.0,0.0,-1.6041981272970287,-1.5908142080511385,-2.4941910135824874,-0.0013880537437902386,0.0013690468944394087,-0.19008191907212482
7379,2.0,299.74237999999997,18701.307,0.0,0.0,-0.07379000484687848,0.0,0.0,0.0,-1.6019178079469785,-1.5974479564558384,-2.4853645919613876,0.01105619195016119,0.0032111229106131568,-0.17569948238268884
7380,2.0,300.04889,18777.966,0.0,0.0,-0.07380000926725261,0.0,0.0,0.0,-1.6102245335917882,-1.5984495541796884,-2.4993585890924876,-0.014929214814398786,0.007329936539058414,-0.17679112764292584
7381,2.0,299.94347,18688.88,0.0,0.0,-0.07381001368762674,0.0,0.0,0.0,-1.6226445480175484,-1.5615647174144385,-2.496743694559418,-0.019056175378948083,-0.02049734126118008,-0.18046433150794283
7382,2.0,299.97854,18725.839,0.0,0.0,-0.07381998519872324,0.0,0.0,0.0,-1.5886908411415785,-1.5958392192720685,-2.5076574113865178,-0.010393659120524291,-0.017593598508852983,-0.1946944564423468
7383,2.0,300.09252999999995,18841.23,0.0,0.0,-0.07382998961909759,0.0,0.0,0.0,-1.6276260908091884,-1.5927825476953985,-2.5068547146572975,0.003111022210708987,0.0012110545553717788,-0.2139054554233248
7384,2.0,300.10919,18797.876,0.0,0.0,-0.07383999403947161,0.0,0.0,0.0,-1.5959617212091586,-1.6074212758651285,-2.5107020252869976,0.016415921222375285,0.008751139570470232,-0.2064642986764398
7385,2.0,300.31687,18659.12,0.0,0.0,-0.07384999845984574,0.0,0.0,0.0,-1.5957346518617483,-1.5994809414564786,-2.4766909684553675,0.02416970818161448,-0.01830018036008718,-0.1989334186331998
7386,2.0,299.29367,18679.166,0.0,0.0,-0.07386000288021988,0.0,0.0,0.0,-1.5969442698311287,-1.5834488930742383,-2.4976067809945977,0.017134790757572183,-0.01050016994453609,-0.18554408863177582
7387,2.0,299.4732,18737.76,0.0,0.0,-0.07387000730059401,0.0,0.0,0.0,-1.6222033789240087,-1.5939825397888285,-2.4796252394199576,0.012514606388845488,-0.007671647231932632,-0.19402464746374182
7388,2.0,299.14022,18792.156000000003,0.0,0.0,-0.07388001172096836,0.0,0.0,0.0,-1.6073724372103086,-1.6039508942726286,-2.5010227510567273,-0.004319730585474216,0.004284202186617836,-0.2024121696715258
7389,2.0,299.30683,18831.663,0.0,0.0,-0.07389001614134261,0.0,0.0,0.0,-1.6403389345138484,-1.5909809890175985,-2.4930353005184274,-0.03445834696902406,-0.018014807588673083,-0.2104376272210768
7390,2.0,299.24721,18785.551,0.0,0.0,-0.0738999876524391,0.0,0.0,0.0,-1.6145724910958985,-1.5869027586901086,-2.5088632803305275,-0.013399167646644887,-0.0071168749689808734,-0.19851182553159183
7391,2.0,299.57711,18845.875,0.0,0.0,-0.07390999207281324,0.0,0.0,0.0,-1.6349447962814885,-1.5921343716064285,-2.5015963519383373,-0.011945396933168888,0.003936949117021626,-0.19566036749767482
7392,2.0,299.39975,18902.168,0.0,0.0,-0.07391999649318737,0.0,0.0,0.0,-1.6214754600521684,-1.6085800286794882,-2.5157316974583877,-0.007727478528342752,0.006276232732790943,-0.18421521112562583
7393,2.0,300.23892,18795.945,0.0,0.0,-0.0739300009135615,0.0,0.0,0.0,-1.6198208226388684,-1.5883409658820484,-2.5053362580574374,-0.006309047850529544,-0.02052512660542228,-0.17990812813054982
7394,2.0,299.75481,18615.711,0.0,0.0,-0.07394000533393563,0.0,0.0,0.0,-1.5623390431408586,-1.5913244808014984,-2.5050476844289578,0.003289340144132597,-0.004416159773641035,-0.1920411192004828
7395,2.0,300.1518,18668.49,0.0,0.0,-0.07395000975430988,0.0,0.0,0.0,-1.6003065376379586,-1.5862074664714885,-2.4882409050202576,0.03147260593910437,0.012384321677737387,-0.19817699703604683
7396,2.0,300.38259,18904.593,0.0,0.0,-0.07396001417468401,0.0,0.0,0.0,-1.6075703249548383,-1.6211558809706286,-2.517798018387318,0.020593923247461978,0.005838964044185884,-0.2134315786165568
7397,2.0,300.52592000000004,18896.484,0.0,0.0,-0.07396998568578073,0.0,0.0,0.0,-1.6367829332878985,-1.6035030377284285,-2.5037732184531776,0.006327723468422684,-0.0027857790611099872,-0.17785888046580484
7398,2.0,299.50548,18779.728,0.0,0.0,-0.07397999010615486,0.0,0.0,0.0,-1.6091836217640585,-1.5977335916590285,-2.5016509661187274,-0.011969733174070688,-0.007393006291532914,-0.18759688267187083
7399,2.0,299.45117,18838.414,0.0,0.0,-0.07398999452652899,0.0,0.0,0.0,-1.6329137364560384,-1.5937029840862384,-2.4997907402601376,0.004995338495726525,0.020237795221564877,-0.1792536192284548
7400,2.0,299.09519,18877.064,0.0,0.0,-0.07399999894690301,0.0,0.0,0.0,-1.6190845951162085,-1.6136163883015384,-2.5054551122941677,0.012511365001775588,0.008227277211094041,-0.2086945026765438
7401,2.0,299.22862000000003,18869.536,0.0,0.0,-0.07401000336727726,0.0,0.0,0.0,-1.6299126923098586,-1.6028613464400985,-2.5030939355861372,-0.003529601298569527,-0.004444988765486236,-0.2023078150437268
7402,2.0,299.67009,18769.352,0.0,0.0,-0.0740200077876515,0.0,0.0,0.0,-1.5972321341845384,-1.6045087897776884,-2.5036734133183276,-0.005784964501306545,-0.013775154361251886,-0.2241615932005268
7403,2.0,299.90058999999997,18658.125,0.0,0.0,-0.07403001220802563,0.0,0.0,0.0,-1.6140575573950784,-1.5830514963850186,-2.474495154163658,-0.006072284334112805,0.00026346695273216374,-0.2013637901905588
7404,2.0,300.19341000000003,18605.549,0.0,0.0,-0.07403998371912213,0.0,0.0,0.0,-1.5804115745744785,-1.6025158281559986,-2.4726950140359976,-0.003967034032365776,0.0036953045722231664,-0.2128133845980458
7405,2.0,300.23697999999996,18667.574,0.0,0.0,-0.07404998813949648,0.0,0.0,0.0,-1.5878900695875484,-1.5884754241703185,-2.498110872919348,-0.01052354967734349,-0.0002141603182209778,-0.17385368520552283
7406,2.0,299.96637000000004,18846.762,0.0,0.0,-0.07405999255987061,0.0,0.0,0.0,-1.6011059919668587,-1.6085292648494784,-2.5193097875365176,0.0017800871989059285,0.016931782047036784,-0.1922180124029408
7407,2.0,300.09057,18986.535,0.0,0.0,-0.07406999698024475,0.0,0.0,0.0,-1.6324156227068785,-1.6185970191680883,-2.5204200056710877,0.01100840707544519,0.03703503994682386,-0.18478541761940082
7408,2.0,300.11088,18965.955,0.0,0.0,-0.07408000140061877,0.0,0.0,0.0,-1.6257392164729683,-1.6190679778145685,-2.5203695458161075,0.01131530229223339,0.005945237565024265,-0.2143208980968258
7409,2.0,299.57967,18941.013,0.0,0.0,-0.0740900058209929,0.0,0.0,0.0,-1.6610367969565683,-1.5890161957486884,-2.5075420022001276,0.006880460719873603,-0.00801537419118084,-0.1809092394943518
7410,2.0,299.83227,18856.471,0.0,0.0,-0.07410001024136725,0.0,0.0,0.0,-1.6326943678093884,-1.5992152672802586,-2.499986702829477,-0.006994783803481413,-0.012801040033114289,-0.1966369987390608
7411,2.0,299.52367999999996,18841.244,0.0,0.0,-0.07411001466174139,0.0,0.0,0.0,-1.6341959031325783,-1.5927926801963985,-2.5002792281333477,0.007656602697097853,0.014693696987654986,-0.18353019326301984
7412,2.0,300.05271,18871.816000000003,0.0,0.0,-0.07411998617283788,0.0,0.0,0.0,-1.6130343774440985,-1.6123372613752984,-2.5111889932850575,-0.024316506842852376,-0.009428697784515022,-0.21542864390115182
7413,2.0,300.00392999999997,18745.288,0.0,0.0,-0.07412999059321201,0.0,0.0,0.0,-1.6032738405558085,-1.5998064987136085,-2.495019142889218,-0.011630304523071688,0.0006883855918308684,-0.2005457427223238
7414,2.0,300.70653,18775.345,0.0,0.0,-0.07413999501358637,0.0,0.0,0.0,-1.5821093764420384,-1.6132795839682985,-2.5118469978999975,-0.011326261605314988,-0.0014469855855063585,-0.20909077465815282
7415,2.0,300.37613999999996,18950.725,0.0,0.0,-0.07414999943396039,0.0,0.0,0.0,-1.6416428860675383,-1.5978028979658685,-2.5211014163633374,-0.013561575425673288,0.01616930729378638,-0.18432492584645382
7416,2.0,300.06099,19014.555,0.0,0.0,-0.07416000385433474,0.0,0.0,0.0,-1.6212064421506185,-1.6262042982688683,-2.5325390848171474,0.002870569146703117,-0.012061153664343188,-0.20150184551668382
7417,2.0,300.57678,18943.838,0.0,0.0,-0.07417000827470865,0.0,0.0,0.0,-1.6327283116877385,-1.6013681197677285,-2.5243571915846577,0.0024622847811835873,0.0066039357496577135,-0.1833513140903658
7418,2.0,299.98393,18862.68,0.0,0.0,-0.07418001269508279,0.0,0.0,0.0,-1.6013048929614884,-1.6027785639069285,-2.529700160686968,0.031155174947776372,0.016560391434883383,-0.19164893061677682
7419,2.0,299.00616,18955.721999999998,0.0,0.0,-0.0741899842061795,0.0,0.0,0.0,-1.6187143535296684,-1.6282366753194484,-2.515115134772538,0.0049894197979173955,0.014545884063066988,-0.20008593995944482
7420,2.0,300.16562000000005,19026.327,0.0,0.0,-0.07419998862655364,0.0,0.0,0.0,-1.6273887876357684,-1.6285805724033884,-2.5275588592506373,0.001310891506274919,-0.023430838102693682,-0.2157088075538018
7421,2.0,299.58804,18867.381,0.0,0.0,-0.07420999304692788,0.0,0.0,0.0,-1.6459878038213485,-1.5919569515139185,-2.497267848836148,-0.010860839357381389,-0.027082784993862772,-0.18976218800306982
7422,2.0,300.59798,18742.385,0.0,0.0,-0.07421999746730201,0.0,0.0,0.0,-1.6021513620950285,-1.5938295390237285,-2.5012360402027776,0.008337287699626232,-0.01161257872582229,-0.1939256123989678
7423,2.0,300.62332000000004,18868.558999999997,0.0,0.0,-0.07423000188767614,0.0,0.0,0.0,-1.6225977358629284,-1.5977812144137284,-2.515191939130118,0.003919732477947476,0.004294131632297795,-0.18661827559278982
7424,2.0,299.55345,19019.839,0.0,0.0,-0.07424000630805028,0.0,0.0,0.0,-1.6256358649627685,-1.6217170188760086,-2.5342031454563774,-0.01240055293108929,-0.008834276538525213,-0.2040807494062018
7425,2.0,299.58335,19105.127,0.0,0.0,-0.07425001072842441,0.0,0.0,0.0,-1.6396473913205984,-1.6140153048659085,-2.5538187554672875,-0.007215287898193473,0.013759613131218089,-0.18539802862986082
7426,2.0,300.00656000000004,18921.398999999998,0.0,0.0,-0.07426001514879865,0.0,0.0,0.0,-1.6193770190950685,-1.5991295463217985,-2.5331261619250873,0.0001317836423785329,0.010884816907747789,-0.20038650033660782
7427,2.0,299.34219,18821.596,0.0,0.0,-0.07426998665989526,0.0,0.0,0.0,-1.6321678830574284,-1.5872535458747286,-2.5018736784907074,0.004825671894306735,0.011230908691404388,-0.18164640933960483
7428,2.0,299.94612,18999.035,0.0,0.0,-0.0742799910802695,0.0,0.0,0.0,-1.6217847039826883,-1.6209357017238983,-2.5325117270644477,0.006065655347983574,-0.021615797119063078,-0.2024171649945188
7429,2.0,299.34054,18950.173,0.0,0.0,-0.07428999550064364,0.0,0.0,0.0,-1.6355670331678984,-1.6128195684228985,-2.5119929059143975,0.003962548272848066,-0.007723452075095372,-0.18013441727538282
7430,2.0,300.18778,18854.259,0.0,0.0,-0.07429999992101777,0.0,0.0,0.0,-1.6062369891482486,-1.6087116498674785,-2.516275103487018,0.014683687089917088,-0.001023679989904349,-0.1918746320765518
7431,2.0,300.15527000000003,18874.596,0.0,0.0,-0.07431000434139179,0.0,0.0,0.0,-1.6135210414671284,-1.6125300828693285,-2.5113547610014177,-0.001016726155793059,-0.0007328255658467523,-0.19553915238821182
7432,2.0,299.54385,18860.667,0.0,0.0,-0.07432000876176614,0.0,0.0,0.0,-1.6154472299072284,-1.6168035664910883,-2.5009210207466874,0.008208312918247413,-0.02734759790749777,-0.20557192931336982
7433,2.0,300.43214,18884.25,0.0,0.0,-0.07433001318214028,0.0,0.0,0.0,-1.6294933080934684,-1.5930732491490884,-2.5177738017099274,-0.016027608320301784,-0.014326182057134089,-0.19920906319040382
7434,2.0,300.44768,19002.572,0.0,0.0,-0.07433998469323677,0.0,0.0,0.0,-1.6257846100774485,-1.6215795208374384,-2.5289431615372577,0.004679479663253686,-0.005017050925494375,-0.2073823336645428
7435,2.0,299.77891,19029.552,0.0,0.0,-0.0743499891136109,0.0,0.0,0.0,-1.6386767990498086,-1.6139922027636286,-2.5318396382731176,-0.014910560880057785,-0.0033101143043078466,-0.2022810247110828
7436,2.0,299.96106000000003,19047.615,0.0,0.0,-0.07435999353398526,0.0,0.0,0.0,-1.6351780464545085,-1.6275799879296384,-2.5272413066692976,0.003950578040141696,-0.013581749235164286,-0.21040601381795682
7437,2.0,299.0935,18999.518,0.0,0.0,-0.07436999795435939,0.0,0.0,0.0,-1.6271304088602685,-1.6306589510085086,-2.5175896941667575,-0.0001219377391693179,0.015865846994837184,-0.19651010942903782
7438,2.0,299.48267999999996,18945.962,0.0,0.0,-0.07438000237473352,0.0,0.0,0.0,-1.6479015292852184,-1.5951567953297185,-2.5160411440389274,0.016120752348994384,0.012157926141643887,-0.1772937503550308
7439,2.0,299.95,18959.348,0.0,0.0,-0.07439000679510754,0.0,0.0,0.0,-1.6316081637021884,-1.6091349857592585,-2.522425328943998,0.007344316787127633,0.013534424375993686,-0.18772680159969282
7440,2.0,299.71457999999996,18765.671000000002,0.0,0.0,-0.07440001121548168,0.0,0.0,0.0,-1.6022249240522883,-1.5938013706709484,-2.508269313121908,-0.0013406465073865087,-0.00945246143778531,-0.1944769420433798
7441,2.0,299.86915,18748.737,0.0,0.0,-0.07441001563585603,0.0,0.0,0.0,-1.6132183836622584,-1.5905492431499884,-2.495380163899848,0.0069031395875868325,-0.0014223547928004885,-0.2004397466293628
7442,2.0,300.14504,18851.592,0.0,0.0,-0.07441998714695253,0.0,0.0,0.0,-1.6003481822170684,-1.6075564434284684,-2.5225086181022176,-0.007400221240194973,0.01148818201104529,-0.2123625794960548
7443,2.0,300.26511,19003.647,0.0,0.0,-0.07442999156732666,0.0,0.0,0.0,-1.6463470009817984,-1.6223306431365683,-2.5079563201660178,-0.015100817838084686,0.0028936759099335773,-0.2040405436422338
7444,2.0,300.66208,19076.6,0.0,0.0,-0.07443999598770079,0.0,0.0,0.0,-1.6333426452233684,-1.6319403070849683,-2.533527307639677,-0.009155895697816552,-0.015464057866433685,-0.2095077270743028
7445,2.0,300.3663,18984.686,0.0,0.0,-0.07445000040807515,0.0,0.0,0.0,-1.6142055932346884,-1.6214647196011085,-2.5352001835547777,0.0009055188263752499,-0.00043732416404803465,-0.1950716286595708
7446,2.0,300.03086,18986.552,0.0,0.0,-0.07446000482844917,0.0,0.0,0.0,-1.6076993116925684,-1.6154518908576883,-2.5482864099212876,0.0013528456332904688,0.010753107566999091,-0.2001456507878378
7447,2.0,299.83256,19189.223,0.0,0.0,-0.0744700092488233,0.0,0.0,0.0,-1.6614751289498284,-1.6227126384242685,-2.5488568697275875,-0.004168950053993336,-0.0013573524684102588,-0.19425056170603783
7448,2.0,299.92042999999995,19140.316000000003,0.0,0.0,-0.07448001366919743,0.0,0.0,0.0,-1.6359014057008985,-1.6345260200151586,-2.5477507045934176,-9.13202788243598e-06,-0.0049593223182720055,-0.21244720614440682
7449,2.0,300.20437999999996,18839.83,0.0,0.0,-0.07448998518029415,0.0,0.0,0.0,-1.6295102293701385,-1.5961735918050683,-2.5011540682696873,0.011683321821304089,0.00960835178952049,-0.19757525819915983
7450,2.0,300.16724,18723.532,0.0,0.0,-0.07449998960066828,0.0,0.0,0.0,-1.5904879415189384,-1.5866223923874383,-2.514375664849558,0.012464087765359688,0.016038396394116486,-0.20107119395918183
7451,2.0,300.13222,18857.461,0.0,0.0,-0.07450999402104241,0.0,0.0,0.0,-1.6107696621455885,-1.5940138492169185,-2.5274137618363177,-0.0018074148580779583,-0.009625061803544641,-0.19551999182882082
7452,2.0,300.06638,19106.806,0.0,0.0,-0.07451999844141666,0.0,0.0,0.0,-1.6309170258089785,-1.6222855535071183,-2.5547893477380774,-0.0011075155939032789,-0.010561030811792589,-0.2024303575108208
7453,2.0,300.53619,19147.069,0.0,0.0,-0.07453000286179079,0.0,0.0,0.0,-1.6491189492803684,-1.6259933395980484,-2.5451184834836376,0.012730327335135487,0.004163021628983246,-0.2033564883672228
7454,2.0,300.65197,19008.776,0.0,0.0,-0.07454000728216492,0.0,0.0,0.0,-1.6313784599045185,-1.6196574867227485,-2.5271571055859874,0.004878134640759405,0.01727551093146018,-0.1996483172412548
7455,2.0,300.40805,19066.515,0.0,0.0,-0.07455001170253905,0.0,0.0,0.0,-1.6535358077912785,-1.6215958341640486,-2.520612827165118,-0.005643974093616874,0.002803510228584917,-0.2007171137117368
7456,2.0,300.25012000000004,19191.817,0.0,0.0,-0.07456001612291319,0.0,0.0,0.0,-1.6519993153396384,-1.6226738309454385,-2.559159900719418,-0.027278871179714972,0.013088257932960489,-0.17594289545421182
7457,2.0,300.21741000000003,19095.255,0.0,0.0,-0.0745699876340098,0.0,0.0,0.0,-1.6208443065648785,-1.6314204084586585,-2.5522160977841177,-0.007172559344126493,0.0071111257879134734,-0.19187273729886484
7458,2.0,299.89763,18866.038,0.0,0.0,-0.07457999205438404,0.0,0.0,0.0,-1.5992683615854983,-1.6013235367633285,-2.5342126700073178,-0.0009518525546955332,0.016221577826695085,-0.17975847109077983
7459,2.0,299.5172,18848.917,0.0,0.0,-0.07458999647475828,0.0,0.0,0.0,-1.6100695063264885,-1.6144839330371585,-2.505046671178858,-0.0024169521743596075,-0.005620456254820844,-0.21748925009951778
7460,2.0,299.78081000000003,19014.572,0.0,0.0,-0.07460000089513241,0.0,0.0,0.0,-1.6418141253344385,-1.6288395591289484,-2.5093014096737676,0.006972095613867264,0.013948825428391886,-0.2161595214632838
7461,2.0,299.57182,19016.483,0.0,0.0,-0.07461000531550654,0.0,0.0,0.0,-1.6491345533319084,-1.6269814610955684,-2.504419874666998,-0.001993398129833078,0.00090509619975854,-0.2194572351062428
7462,2.0,299.92794,18981.272,0.0,0.0,-0.07462000973588057,0.0,0.0,0.0,-1.6108598414044883,-1.6361275631232184,-2.5228453211104473,0.020608258709876783,0.013372104749723987,-0.2109498555441298
7463,2.0,300.25888,19027.15,0.0,0.0,-0.07463001415625492,0.0,0.0,0.0,-1.6182564658094785,-1.6194407525263586,-2.5460813750536677,0.0013398979182126288,-0.016195089442580884,-0.1956156426382608
7464,2.0,300.34537,19099.865,0.0,0.0,-0.07463998566735142,0.0,0.0,0.0,-1.6232416563014787,-1.6366041959702586,-2.5460359814491875,-0.000922837104566931,-0.007739845245813252,-0.18765014922962783
7465,2.0,300.45597000000004,19132.033,0.0,0.0,-0.07464999008772555,0.0,0.0,0.0,-1.6502254183895684,-1.6245444932800586,-2.540890292141347,-0.012038210642328887,-0.01920548284743358,-0.1853622912988338
7466,2.0,300.53209,19204.531000000003,0.0,0.0,-0.07465999450809968,0.0,0.0,0.0,-1.6603422140130184,-1.6328364254734085,-2.5445193486995077,-0.012414691822984688,0.008915342119400762,-0.19082127753759381
7467,2.0,300.21821,19091.242,0.0,0.0,-0.07466999892847404,0.0,0.0,0.0,-1.6675861416279383,-1.6123670509282384,-2.5233077684560876,-0.002142741062072078,-0.00838878826378394,-0.19413185945682282
7468,2.0,299.8614,18962.488,0.0,0.0,-0.07468000334884817,0.0,0.0,0.0,-1.6150048449135685,-1.6177018127047382,-2.5314162010563273,-0.004647600180657426,0.008539757462433442,-0.19606477587758683
7469,2.0,299.68352999999996,18943.616,0.0,0.0,-0.0746900077692223,0.0,0.0,0.0,-1.6176963411541985,-1.6169068166762786,-2.5237828814279775,-0.002080382611167778,-1.5623399550659484e-05,-0.1997559041368728
7470,2.0,299.16212,19109.641,0.0,0.0,-0.07470001218959632,0.0,0.0,0.0,-1.6262302374714284,-1.6309338457606384,-2.5516896130321576,0.0036680287914562567,0.007763777098600143,-0.18783013284489083
7471,2.0,300.11471,19161.667,0.0,0.0,-0.07470998370069304,0.0,0.0,0.0,-1.6658159937032384,-1.6311167374036883,-2.5277354687430678,0.012228578044616687,-0.01163253164679149,-0.2145004358820448
7472,2.0,300.16299,19011.902,0.0,0.0,-0.07471998812106717,0.0,0.0,0.0,-1.6568282626662183,-1.6105681267006984,-2.5117469901151277,0.01007253047560636,3.590553358335026e-05,-0.2118322038637108
7473,2.0,300.47902999999997,18984.933999999997,0.0,0.0,-0.0747299925414413,0.0,0.0,0.0,-1.6361291843233785,-1.6213035115101986,-2.5135132876894475,-0.005229537678790185,-0.027736223903852178,-0.2040889465995108
7474,2.0,300.48221,19041.808999999997,0.0,0.0,-0.07473999696181544,0.0,0.0,0.0,-1.6093609405315585,-1.6107587190445085,-2.5681149037782074,-0.0072083219050809826,-0.008206290065747772,-0.1905283165361808
7475,2.0,300.55003999999997,19199.308,0.0,0.0,-0.07475000138218957,0.0,0.0,0.0,-1.6206581725215086,-1.6453953564878785,-2.5700566962698477,0.0020566613117516683,-0.016646045518836784,-0.1933820746478248
7476,2.0,300.23888999999997,19124.199,0.0,0.0,-0.07476000580256392,0.0,0.0,0.0,-1.6303248824505383,-1.6229132619440685,-2.560040820356358,0.015974914248851287,0.01097334760873509,-0.1885497734634138
7477,2.0,300.44312,19056.295,0.0,0.0,-0.07477001022293794,0.0,0.0,0.0,-1.6377873681120285,-1.6268260285302285,-2.5280243463465775,0.007850517184010723,-0.007034148873841443,-0.1993707475088608
7478,2.0,299.76546,18985.465,0.0,0.0,-0.07478001464331208,0.0,0.0,0.0,-1.6471767514886884,-1.6092067238663383,-2.514723817583918,-0.022782939644251078,0.01093874410456999,-0.20834969366751382
7479,2.0,299.95207999999997,19119.996,0.0,0.0,-0.0747899861544088,0.0,0.0,0.0,-1.6609781297757786,-1.6241275408639086,-2.5268955857351774,-0.0093281487214416,-0.017338712406447684,-0.21634841154692577
7480,2.0,299.67895,19191.721999999998,0.0,0.0,-0.07479999057478293,0.0,0.0,0.0,-1.6324313280834286,-1.6402015378002883,-2.5611715061429474,-0.013033843362840187,-0.015038937641227587,-0.2154700351677368
7481,2.0,300.31337,18963.532,0.0,0.0,-0.07480999499515706,0.0,0.0,0.0,-1.6278228639786085,-1.5996621105743587,-2.5369551327279773,0.02176656366769258,-0.018586186412813784,-0.19678201509337281
7482,2.0,299.91087000000005,18888.893,0.0,0.0,-0.07481999941553119,0.0,0.0,0.0,-1.5975476602656786,-1.6057114163213786,-2.5384928410797376,7.965508607384493e-05,-0.003282458352103417,-0.18962614904464384
7483,2.0,300.06965,19181.608,0.0,0.0,-0.07483000383590543,0.0,0.0,0.0,-1.6702776378685684,-1.6244448907952285,-2.5360074399094477,0.02086760615247238,0.0076120567776515125,-0.1886932496775738
7484,2.0,299.60902999999996,19381.487,0.0,0.0,-0.07484000825627957,0.0,0.0,0.0,-1.6901766539324483,-1.6350084283877684,-2.5663031112743973,-0.0071313830892127126,0.016583052773369883,-0.1970543868527538
7485,2.0,299.3934,19152.096,0.0,0.0,-0.0748500126766537,0.0,0.0,0.0,-1.6554431497795183,-1.6195177595339585,-2.5467980468493976,0.012115136589920888,0.008181742967500162,-0.19384961864146782
7486,2.0,299.73555,19025.09,0.0,0.0,-0.07485998418775042,0.0,0.0,0.0,-1.6082602469479284,-1.6218968707687584,-2.5529951857860076,-0.01170645938733759,0.02054482114761598,-0.20057083079479981
7487,2.0,300.15488,19125.886000000002,0.0,0.0,-0.07486998860812433,0.0,0.0,0.0,-1.6354863784599383,-1.6198558810923285,-2.5584496123993175,-0.010898556579103791,-0.0008125815007030502,-0.18509230067718782
7488,2.0,300.28312999999997,19224.571,0.0,0.0,-0.07487999302849857,0.0,0.0,0.0,-1.6473319814040086,-1.6402553413805985,-2.5562021223525075,-0.01108166404442509,0.013935024962029885,-0.1992429158762448
7489,2.0,300.89552000000003,19138.288,0.0,0.0,-0.07488999744887281,0.0,0.0,0.0,-1.6591341159187882,-1.6229194427696785,-2.535508211585177,-0.01163212128050099,-0.004954590440305005,-0.1885463284130738
7490,2.0,299.94523,19005.884,0.0,0.0,-0.07490000186924706,0.0,0.0,0.0,-1.6449771881716084,-1.6168960762252185,-2.5154406920296677,0.008792329098960322,0.008756756319749561,-0.20747062827825682
7491,2.0,299.80033,19158.508,0.0,0.0,-0.07491000628962119,0.0,0.0,0.0,-1.6375052792841884,-1.6498975306572086,-2.5363052341138372,0.012127407048631888,-0.0033538146665457367,-0.2150510157213828
7492,2.0,300.75473,19306.902,0.0,0.0,-0.07492001070999532,0.0,0.0,0.0,-1.6459016775628483,-1.6522187853112984,-2.5706955504578977,0.008434282889298912,0.0026600671477031873,-0.2049040657749568
7493,2.0,299.98297,19173.725,0.0,0.0,-0.07493001513036934,0.0,0.0,0.0,-1.6313549525021984,-1.6463334234304585,-2.5506451548290774,0.0024414431385516777,-0.0060359182813987545,-0.19900110373987978
7494,2.0,300.46365,18983.352,0.0,0.0,-0.07493998664146617,0.0,0.0,0.0,-1.6216021163146683,-1.6125271444440383,-2.5363358342668576,-0.003912034411637736,0.01064719253404609,-0.18186096504827984
7495,2.0,300.53102,19051.644,0.0,0.0,-0.0749499910618402,0.0,0.0,0.0,-1.6521670082311883,-1.6225377514570085,-2.5165194994111375,-0.011315884911040889,0.0002025177503319458,-0.1888019308832998
7496,2.0,300.15822000000003,19251.764,0.0,0.0,-0.07495999548221433,0.0,0.0,0.0,-1.6597595952055184,-1.6444187860414985,-2.5478773608559178,-0.018567720942991382,0.004025815710417077,-0.19672769475551183
7497,2.0,301.22781000000003,19338.639,0.0,0.0,-0.07496999990258846,0.0,0.0,0.0,-1.6671262274075485,-1.6444294251675484,-2.5669076162840576,-0.010092940068395631,-0.008884715723203172,-0.2040734742704838
7498,2.0,300.66673,19233.328999999998,0.0,0.0,-0.07498000432296281,0.0,0.0,0.0,-1.6299529183388284,-1.6525240775664285,-2.5639748651946177,0.006931499849935774,-0.003889232535362366,-0.2118147860944918
7499,2.0,299.32627,19142.013,0.0,0.0,-0.07499000874333694,0.0,0.0,0.0,-1.6389505792268286,-1.6219625293752384,-2.5577810699833377,0.011006756491032289,0.006340259297334874,-0.19387453446142683
7500,2.0,300.28516,19258.431,0.0,0.0,-0.07500001316371097,0.0,0.0,0.0,-1.6594301875980086,-1.6434721064730684,-2.551179948231858,0.00900831774592674,0.011962123665819687,-0.1921673296329388
7501,2.0,300.0258,19224.058999999997,0.0,0.0,-0.07500998467480757,0.0,0.0,0.0,-1.6889205277834787,-1.6183278999415285,-2.5363853821967477,-0.016027818063072487,0.008983721606374291,-0.18645666220183982
7502,2.0,300.57117999999997,19222.464,0.0,0.0,-0.07501998909518182,0.0,0.0,0.0,-1.6584460177758784,-1.6329388650585184,-2.5517641882395177,-0.016485586219750683,0.02152359541296348,-0.19054844981566782
7503,2.0,300.40049,19188.575,0.0,0.0,-0.07502999351555595,0.0,0.0,0.0,-1.6577920661613383,-1.6303304553260882,-2.5447250384698075,-0.007617140253403212,-0.0025143246983695276,-0.2005148588592758
7504,2.0,300.05789,19128.348,0.0,0.0,-0.07503999793593008,0.0,0.0,0.0,-1.6321873374593483,-1.6295929105782985,-2.552759706462768,0.007646079486859293,-0.002862483208255097,-0.20649732049719882
7505,2.0,299.86792,19216.331000000002,0.0,0.0,-0.07505000235630421,0.0,0.0,0.0,-1.6488989726836587,-1.6256565352648087,-2.5667292842664575,0.006298240322312925,-0.018484205829999083,-0.19196934056339882
7506,2.0,299.78685,19304.115,0.0,0.0,-0.07506000677667835,0.0,0.0,0.0,-1.6519588866606485,-1.6414007192936384,-2.574609228969148,0.015990071457097185,-0.019385552588955083,-0.19954008186557282
7507,2.0,299.3251,19187.727,0.0,0.0,-0.0750700111970527,0.0,0.0,0.0,-1.6615883089859982,-1.6297018349640484,-2.5412996451817476,0.017601799755162382,-0.005052892215981635,-0.1923400786424878
7508,2.0,299.62502,19068.375,0.0,0.0,-0.07508001561742672,0.0,0.0,0.0,-1.6137242994371883,-1.6437648344269586,-2.5388208301371074,0.002169430576331128,-0.014021582865072487,-0.2251141090895328
7509,2.0,299.54573,19106.332,0.0,0.0,-0.07508998712852344,0.0,0.0,0.0,-1.6189004875730384,-1.6416627457694986,-2.5472846095474178,-0.008346541408814502,0.0045821648944994655,-0.22034872294172578
7510,2.0,299.90552,19193.568,0.0,0.0,-0.07509999154889757,0.0,0.0,0.0,-1.6334208681310882,-1.6377017484785785,-2.5632427919973675,-0.025475850382020677,0.01171174855285959,-0.20677715990981682
7511,2.0,300.02042,19189.433,0.0,0.0,-0.0751099959692717,0.0,0.0,0.0,-1.6449499317439185,-1.6334611954850684,-2.554697445954008,-0.01878665895834888,0.014025694633978287,-0.2060285707359368
7512,2.0,299.89097999999996,19086.686,0.0,0.0,-0.07512000038964584,0.0,0.0,0.0,-1.6540687773438785,-1.6085408159006185,-2.539266254881068,-0.008675656085720592,-0.005622667774489104,-0.1939398080328688
7513,2.0,300.19945,19081.549,0.0,0.0,-0.07513000481001997,0.0,0.0,0.0,-1.6513257066731586,-1.6111564197087584,-2.5378323033395476,0.007004125665428383,0.005551845442849484,-0.1992397950659368
7514,2.0,299.88829,19308.381,0.0,0.0,-0.07514000923039421,0.0,0.0,0.0,-1.6628663213371284,-1.6284335498138784,-2.5779657212504077,0.02011936654987688,-0.001862131883353108,-0.19090944042879482
7515,2.0,299.7853,19545.467,0.0,0.0,-0.07515001365076834,0.0,0.0,0.0,-1.6750673724162786,-1.6650959781821786,-2.6011704657655375,0.008942725912628333,-0.002825982899902797,-0.1933589522805428
7516,2.0,299.67042999999995,19360.721,0.0,0.0,-0.07515998516186506,0.0,0.0,0.0,-1.6600227362564883,-1.6507077254371683,-2.5744451837779576,0.009378423556953341,-0.022359403128951277,-0.1951018741750558
7517,2.0,299.91412,19069.686,0.0,0.0,-0.0751699895822392,0.0,0.0,0.0,-1.6275824197298785,-1.6236793803446785,-2.5454467765160373,-0.006143694958760484,-0.005654620312417574,-0.1969066651206748
7518,2.0,300.70147000000003,19092.446,0.0,0.0,-0.0751799940026131,0.0,0.0,0.0,-1.6576786834751485,-1.6186573075490382,-2.5272907532741775,-0.004776748734428396,0.01042911780777379,-0.1872399247941418
7519,2.0,300.46154,19260.763,0.0,0.0,-0.07518999842298735,0.0,0.0,0.0,-1.6699140837326885,-1.6327307434879785,-2.5521460822022077,-0.015279676745736685,0.0003038441586170837,-0.18738462704092282
7520,2.0,300.85287,19233.195,0.0,0.0,-0.07520000284336159,0.0,0.0,0.0,-1.6465190508487786,-1.6418721845651685,-2.558019893031908,-0.012127377664378988,-0.012209089192193288,-0.2055050548067698
7521,2.0,299.96605,19010.974,0.0,0.0,-0.07521000726373583,0.0,0.0,0.0,-1.6196178686438383,-1.6274825132700186,-2.5317609087403476,-0.0004017751962146246,0.012334358315306387,-0.21169697550536482
7522,2.0,299.65311,19134.648999999998,0.0,0.0,-0.07522001168410997,0.0,0.0,0.0,-1.6159840498102085,-1.6311054903275783,-2.5693658623516678,0.01838812540251668,0.0026218359042050575,-0.20729274209070078
7523,2.0,299.71767,19374.839,0.0,0.0,-0.0752300161044841,0.0,0.0,0.0,-1.6762885414367985,-1.6335661681954283,-2.5796126579629473,0.008182693193443943,0.019041665637516084,-0.1980864631396118
7524,2.0,299.9142,19491.398999999998,0.0,0.0,-0.07523998761558082,0.0,0.0,0.0,-1.6966709791233883,-1.6531387150770882,-2.5750889015664873,-0.00894895486761808,-0.016020494291349684,-0.20261299584134582
7525,2.0,299.43051,19294.073,0.0,0.0,-0.07524999203595473,0.0,0.0,0.0,-1.6617181063238085,-1.6416601113192384,-2.5615382013541375,-0.008358262584646293,-0.003296348491099267,-0.19064692759288682
7526,2.0,300.44512000000003,19054.862,0.0,0.0,-0.07525999645632897,0.0,0.0,0.0,-1.6113149933494086,-1.6408417092134684,-2.5400456468579873,-0.0023566472774329775,-0.009006799998601952,-0.2020666615199268
7527,2.0,300.29996,19181.935,0.0,0.0,-0.0752700008767031,0.0,0.0,0.0,-1.6320316009189786,-1.6470270944489185,-2.5517704703901374,-8.335308720855922e-05,0.003477835262885617,-0.19113509122606484
7528,2.0,300.47382999999996,19413.158,0.0,0.0,-0.07528000529707723,0.0,0.0,0.0,-1.6603742327161786,-1.6674872484181784,-2.573253804310377,-0.0025971236461911477,-0.012045888038336588,-0.20623003525331982
7529,2.0,299.5134,19258.131999999998,0.0,0.0,-0.07529000971745159,0.0,0.0,0.0,-1.6654383553909682,-1.6469368138650085,-2.5416160831879773,-0.003364679848693046,0.00985543617013082,-0.1938574004022358
7530,2.0,300.15772999999996,19065.255,0.0,0.0,-0.07530001413782572,0.0,0.0,0.0,-1.6539124328534485,-1.6074753834204683,-2.533973542983718,0.026626820422362578,0.004893449206745835,-0.18702868241329382
7531,2.0,299.65147,19227.168,0.0,0.0,-0.07530998564892222,0.0,0.0,0.0,-1.6613260798601184,-1.6316265035289985,-2.5516262849009075,0.0084376954143107,0.011697789006231888,-0.1950688726192988
7532,2.0,299.13878,19455.246,0.0,0.0,-0.07531999006929635,0.0,0.0,0.0,-1.6721579260791384,-1.6370644141656785,-2.6046867475875675,-0.0026033044718011475,-0.012256420130864488,-0.19883371482335982
7533,2.0,299.47308,19446.118000000002,0.0,0.0,-0.0753299944896706,0.0,0.0,0.0,-1.6538781850000683,-1.6532311234862085,-2.6040247912972374,-0.035691527056229466,0.009273085975232331,-0.2009932547614898
7534,2.0,299.03522999999996,19144.991,0.0,0.0,-0.07533999891004473,0.0,0.0,0.0,-1.6307156930141085,-1.6287893019239883,-2.5600943199616375,-0.006163239843914415,0.01760651136812738,-0.2012398595708278
7535,2.0,299.90376000000003,19107.123,0.0,0.0,-0.07535000333041886,0.0,0.0,0.0,-1.6607063760989584,-1.6112075888388087,-2.536174423525927,-0.0006382077142211974,0.027062917185901973,-0.19666528868185282
7536,2.0,300.27783,19248.287,0.0,0.0,-0.07536000775079299,0.0,0.0,0.0,-1.6744773568830484,-1.6382803142856786,-2.5382409471048772,0.012427471946495988,-0.0029526154523504575,-0.2032597331151738
7537,2.0,299.94101,19389.705,0.0,0.0,-0.07537001217116712,0.0,0.0,0.0,-1.6628959082400485,-1.6583922141955683,-2.5726980366305274,-0.004232085971699366,0.0046939365130304654,-0.2060909362795918
7538,2.0,298.97407999999996,19386.436,0.0,0.0,-0.07537998368226384,0.0,0.0,0.0,-1.6398858090691284,-1.6585833131644285,-2.5945234437845275,0.00022483601246708684,-0.019590686084950182,-0.2011343397054138
7539,2.0,299.68985,19218.788,0.0,0.0,-0.07538998810263797,0.0,0.0,0.0,-1.6133726003274784,-1.6378232371655683,-2.590835720045577,-0.008266236069488982,0.004231528481494346,-0.2039931235375538
7540,2.0,299.98111,19216.949,0.0,0.0,-0.07539999252301222,0.0,0.0,0.0,-1.6296169246056684,-1.6434161750675484,-2.568439650435258,-0.009610905585072532,-0.0041312071970434055,-0.21378900258933178
7541,2.0,300.61768,19367.125,0.0,0.0,-0.07540999694338635,0.0,0.0,0.0,-1.6866200447564383,-1.6342084674338184,-2.566293688048468,-0.01789620767771818,0.02053314242696338,-0.1901945012907358
7542,2.0,299.60997000000003,19362.918999999998,0.0,0.0,-0.07542000136376048,0.0,0.0,0.0,-1.6795607313097383,-1.6413467130633084,-2.5649365408645273,-0.00988134690036301,0.006371413394184545,-0.2034395242129178
7543,2.0,300.30557000000005,19203.269,0.0,0.0,-0.07543000578413461,0.0,0.0,0.0,-1.6713908957534382,-1.6200477906612685,-2.5458755839583573,0.011635173189802188,0.015837290567268885,-0.2023796139458128
7544,2.0,300.59145,19188.619,0.0,0.0,-0.07544001020450875,0.0,0.0,0.0,-1.6515926980745086,-1.6370929878184985,-2.544175248965548,0.017396032977854786,-0.0073419969510236825,-0.2268136233497618
7545,2.0,299.92005,19300.922,0.0,0.0,-0.07545001462488299,0.0,0.0,0.0,-1.6541974601065785,-1.6428003216567684,-2.5700004608892977,0.012844691860672386,0.004903570258019706,-0.2028341072781678
7546,2.0,299.15587,19461.91,0.0,0.0,-0.0754599861359796,0.0,0.0,0.0,-1.6780086348065586,-1.6524642958105284,-2.585461745490208,-0.004442363839777175,-0.0024704981864941875,-0.19888939291635482
7547,2.0,299.6617,19488.412,0.0,0.0,-0.07546999055635384,0.0,0.0,0.0,-1.6960028420074482,-1.6519177487065884,-2.5760701329633275,-0.0002850344370732087,-0.0007191876957282993,-0.18765967378056783
7548,2.0,299.2952,19253.352,0.0,0.0,-0.07547999497672797,0.0,0.0,0.0,-1.6710648318712584,-1.6268776029603185,-2.5545958169689773,-0.00847107166995468,-0.014437988126168486,-0.18877188801783482
7549,2.0,299.64475,19159.161,0.0,0.0,-0.07548999939710188,0.0,0.0,0.0,-1.6284607049165585,-1.6346005952225184,-2.5608453409357574,-0.0018663256241919983,0.005522305048109074,-0.1929795306480968
7550,2.0,300.24816,19316.134,0.0,0.0,-0.07550000381747612,0.0,0.0,0.0,-1.6412932134580285,-1.6425124573033585,-2.5878167413726274,-0.010447833550370891,-0.008467389823066312,-0.18042972901702783
7551,2.0,300.31654,19442.264,0.0,0.0,-0.07551000823785037,0.0,0.0,0.0,-1.6497823241208383,-1.6684287604110986,-2.5917517994609875,0.004653410460705855,0.007967603400641232,-0.2019876482771288
7552,2.0,300.29533,19299.478,0.0,0.0,-0.07552001265822461,0.0,0.0,0.0,-1.6678304362270486,-1.6436055515112384,-2.5551234162960474,0.006293583931478375,-0.0002309926011346948,-0.19683448118355082
7553,2.0,300.67422,19160.124,0.0,0.0,-0.07552998416932111,0.0,0.0,0.0,-1.6560704529164285,-1.6316938846606486,-2.536434828801627,0.02138124187991428,0.01064095496643049,-0.2184128073006658
7554,2.0,299.55192,19354.622,0.0,0.0,-0.07553998858969524,0.0,0.0,0.0,-1.6729078324781483,-1.6548991358008285,-2.5555148348096774,0.0071955522180457135,-0.007937227885168404,-0.1973066050676458
7555,2.0,299.4714,19629.621,0.0,0.0,-0.0755499930100696,0.0,0.0,0.0,-1.6932073863065586,-1.6801489229927882,-2.5935584243892875,-0.00943454079254168,-0.014967890570715788,-0.21577006865484782
7556,2.0,300.05311,19530.167,0.0,0.0,-0.0755599974304435,0.0,0.0,0.0,-1.6726039587731587,-1.6718190952456984,-2.592260147036158,-0.007356780776607732,-0.024819101183954577,-0.21936867704750282
7557,2.0,299.84233,19122.396,0.0,0.0,-0.07557000185081775,0.0,0.0,0.0,-1.6331442508537883,-1.6223048052590185,-2.5572819429840776,-0.008019295874367883,-0.008283158967359143,-0.2070103087578268
7558,2.0,299.84699,19105.39,0.0,0.0,-0.07558000627119188,0.0,0.0,0.0,-1.6349066980777285,-1.6249978213747984,-2.5476571816091873,-0.0014183336084536288,0.0027597962887956876,-0.18283341156675284
7559,2.0,299.89256,19345.536,0.0,0.0,-0.07559001069156601,0.0,0.0,0.0,-1.6713047694949383,-1.6406129173408883,-2.5686423004552577,-0.003660126960551406,-0.0034244996014717965,-0.17468114576718682
7560,2.0,300.29356,19590.522,0.0,0.0,-0.07560001511194037,0.0,0.0,0.0,-1.6893809486289184,-1.6665220263729186,-2.5991265376638175,-0.0014260379569139886,-0.004381812013801176,-0.18745211963008382
7561,2.0,301.34519,19451.539,0.0,0.0,-0.07560998662303686,0.0,0.0,0.0,-1.6758832413967983,-1.6498595337784585,-2.5870394772209178,0.012622907625783988,0.007443021735019054,-0.19656072127153282
7562,2.0,300.71866,19293.308,0.0,0.0,-0.075619991043411,0.0,0.0,0.0,-1.6374071966745085,-1.6489405159377586,-2.578336266811977,0.0018551264748117285,0.004357994962250616,-0.2093096366797528
7563,2.0,300.76617999999996,19384.901,0.0,0.0,-0.07562999546378513,0.0,0.0,0.0,-1.6690718702495682,-1.6469822074694882,-2.5764716839779576,0.00012842081728414788,-0.003073647163545357,-0.2023025664082088
7564,2.0,300.40877,19570.81,0.0,0.0,-0.07563999988415937,0.0,0.0,0.0,-1.7043807991342883,-1.6485759485517784,-2.5960809105132374,-0.012794966612014888,0.008603637004387862,-0.20827210910735683
7565,2.0,300.02752000000004,19458.55,0.0,0.0,-0.0756500043045335,0.0,0.0,0.0,-1.6879788131405384,-1.6455264710508184,-2.5814080358151377,-0.00016205064889815383,0.012741326164970989,-0.2122230448247838
7566,2.0,299.99681,19180.077,0.0,0.0,-0.07566000872490763,0.0,0.0,0.0,-1.6575235548848384,-1.6080531386274886,-2.5646876866399677,-0.0031006019466805874,0.0011782486582090888,-0.20412875719593981
7567,2.0,300.31003,19240.497,0.0,0.0,-0.07567001314528177,0.0,0.0,0.0,-1.6384782020302084,-1.6388196673139086,-2.571332884770798,-0.0044542210950973965,-0.00962610210742231,-0.21390051076283678
7568,2.0,299.0468,19469.725,0.0,0.0,-0.07567998465637849,0.0,0.0,0.0,-1.6599380285481284,-1.6539336097805382,-2.6044387039630874,0.0056360962767393954,-0.006920797091779493,-0.2024072858060438
7569,2.0,300.05072,19644.561,0.0,0.0,-0.07568998907675262,0.0,0.0,0.0,-1.6907708237910883,-1.6764167175744484,-2.6042684779462877,-0.0004814099159614596,-0.0006695439022463385,-0.2100076342761398
7570,2.0,299.86632000000003,19403.203,0.0,0.0,-0.07569999349712675,0.0,0.0,0.0,-1.6744084558762484,-1.6349932296362686,-2.5886875285085678,0.0015164893747908485,0.0004530691080144396,-0.16955802153907384
7571,2.0,300.01648,19319.965,0.0,0.0,-0.07570999791750099,0.0,0.0,0.0,-1.6430832210846884,-1.6537006635825484,-2.5760028531566874,0.002225495021589258,-0.023709788894973976,-0.19814673125555982
7572,2.0,300.40508,19536.412,0.0,0.0,-0.0757200023378749,0.0,0.0,0.0,-1.6681366404072684,-1.6659234995388483,-2.6045214864962576,0.0037840571749823662,0.017707270984571585,-0.17996287403345282
7573,2.0,300.81147000000004,19664.319,0.0,0.0,-0.07573000675824926,0.0,0.0,0.0,-1.6748369593435384,-1.6778030463612685,-2.6248218509247474,0.005554208544732705,0.005403238738133145,-0.1967751756551978
7574,2.0,300.15484,19499.128,0.0,0.0,-0.07574001117862339,0.0,0.0,0.0,-1.6749974581593785,-1.6634542090451483,-2.5887963515693078,0.004173825104199466,0.02029474798318568,-0.1939007675065158
7575,2.0,300.30666,19179.442,0.0,0.0,-0.07575001559899752,0.0,0.0,0.0,-1.6540097048630484,-1.6158532392222984,-2.5602086145729177,-0.005386583540939406,-0.001914598986781208,-0.2083744878974608
7576,2.0,300.42177000000004,19193.298,0.0,0.0,-0.07575998711009413,0.0,0.0,0.0,-1.663965292395588,-1.6209838311036484,-2.5493342118496978,-0.008135492052110553,0.011278404789841889,-0.2091960918735468
7577,2.0,299.78945,19447.588,0.0,0.0,-0.07576999153046837,0.0,0.0,0.0,-1.6838846747864784,-1.6484980296190883,-2.5791984413220677,0.0069558181563108045,0.014909721908974986,-0.2017228961584998
7578,2.0,299.60098999999997,19657.158,0.0,0.0,-0.07577999595084262,0.0,0.0,0.0,-1.7140007982337082,-1.6562724949863683,-2.6050120008696678,-0.006745042377133854,0.00995131800059362,-0.19192148476117582
7579,2.0,300.11552,19555.478,0.0,0.0,-0.07579000037121675,0.0,0.0,0.0,-1.6748459772694284,-1.6659187372633784,-2.6036124998315473,0.003098339663182317,-0.014487923117596686,-0.20305611037507781
7580,2.0,299.86942,19358.372,0.0,0.0,-0.07580000479159066,0.0,0.0,0.0,-1.6496063225784685,-1.6598443029138785,-2.575011083958808,-0.00848187828624621,0.009541415474664392,-0.20774064929740582
7581,2.0,300.24019,19389.6,0.0,0.0,-0.0758100092119649,0.0,0.0,0.0,-1.6522134150857684,-1.6645267342759982,-2.5772141936512374,0.01928874768765118,0.016687778250705484,-0.2004215385250658
7582,2.0,300.53779,19572.41,0.0,0.0,-0.07582001363233914,0.0,0.0,0.0,-1.6865399979985383,-1.6737684871130882,-2.589215431810668,0.003797536339737656,0.017621592582615784,-0.19311345191381382
7583,2.0,300.09594,19479.832,0.0,0.0,-0.07582998514343575,0.0,0.0,0.0,-1.6801855013213984,-1.6591044276908586,-2.5820925875826974,0.011594772881814989,-0.005875687368885194,-0.20308124911005881
7584,2.0,300.6156,19213.006999999998,0.0,0.0,-0.07583998956380988,0.0,0.0,0.0,-1.6480112642710485,-1.6316290366542483,-2.560634179614918,0.004997579703622715,0.00928072831278657,-0.20755054331364378
7585,2.0,300.93072,19238.395,0.0,0.0,-0.07584999398418402,0.0,0.0,0.0,-1.6322711332426183,-1.6474581310414584,-2.5682625343177774,0.005657571200683806,0.015434387877005485,-0.21797131396709382
7586,2.0,300.76361,19543.416,0.0,0.0,-0.07585999840455837,0.0,0.0,0.0,-1.6817196632978086,-1.6543216845688382,-2.6046691170358276,-0.015788501561703784,0.0074520496920850434,-0.2039635670321368
7587,2.0,299.91873,19746.115,0.0,0.0,-0.07587000282493228,0.0,0.0,0.0,-1.7079853350400285,-1.6795168575804085,-2.6148238082130177,-0.016252618743508588,-0.020896752291598878,-0.2120465467898648
7588,2.0,299.71002999999996,19487.091,0.0,0.0,-0.07588000724530652,0.0,0.0,0.0,-1.6772197182786983,-1.6560021598596883,-2.5903672945243477,-0.01143769581156269,0.007739850210738743,-0.2070972962789118
7589,2.0,299.55912,19314.604,0.0,0.0,-0.07589001166568066,0.0,0.0,0.0,-1.6656202337839183,-1.6392115924525883,-2.5663255041016075,0.017768382124602786,-0.003666486523479046,-0.1999809165865798
7590,2.0,300.48156,19482.0,0.0,0.0,-0.07590001608605479,0.0,0.0,0.0,-1.6783951897197085,-1.6459966190972184,-2.5976497256430675,0.005760323170799634,0.0004480513820617287,-0.18953271725292284
7591,2.0,300.05543,19606.376,0.0,0.0,-0.07590998759715151,0.0,0.0,0.0,-1.6915937855223084,-1.6588882001195184,-2.6093666458244376,0.007687993489170882,-0.015267516731286587,-0.19914271557385582
7592,2.0,300.0662,19560.736,0.0,0.0,-0.07591999201752564,0.0,0.0,0.0,-1.6798820329164486,-1.6660604909523684,-2.6000329912032774,-0.003262898166872977,0.017154602836777486,-0.1892703260070268
7593,2.0,299.27622,19346.678,0.0,0.0,-0.07592999643789977,0.0,0.0,0.0,-1.6595151992813983,-1.6418421923622086,-2.579549532481718,0.008222399121137612,0.011941431072277488,-0.1983011100407958
7594,2.0,299.55088,19401.214,0.0,0.0,-0.0759400008582739,0.0,0.0,0.0,-1.6568639290697382,-1.6522736021417084,-2.588347076474968,-0.01102656451723719,0.01153190780586069,-0.18095650761151683
7595,2.0,299.86765,19636.695,0.0,0.0,-0.07595000527864815,0.0,0.0,0.0,-1.6946815638770485,-1.6639850507725384,-2.6103982357512474,0.002355676786487198,-0.02131119792700148,-0.20070914956595082
7596,2.0,300.63844,19735.968999999997,0.0,0.0,-0.07596000969902228,0.0,0.0,0.0,-1.6979755386271385,-1.6814884396249883,-2.6197778919269474,0.003744303523208986,0.0061576289714856645,-0.2042721827475948
7597,2.0,300.03392,19365.914,0.0,0.0,-0.07597001411939641,0.0,0.0,0.0,-1.6548601256719784,-1.6542437656361484,-2.5776503978192875,0.004609742015846115,-0.014287744414590587,-0.2144312714302188
7598,2.0,300.26383,19277.338,0.0,0.0,-0.07597998563049291,0.0,0.0,0.0,-1.6522375304381485,-1.6395535643613381,-2.568038504720668,0.003922785197848756,-0.003919189375893877,-0.2075518402737718
7599,2.0,300.03222999999997,19491.475,0.0,0.0,-0.07598999005086726,0.0,0.0,0.0,-1.6691250658798185,-1.6586566724716683,-2.597139858192748,0.003514898330343457,-0.01956372552628938,-0.21869987118649678
7600,2.0,300.4556,19619.728,0.0,0.0,-0.0759999944712414,0.0,0.0,0.0,-1.6896143001269484,-1.6590696732124284,-2.6152234340524574,0.011513719966565689,0.01045046496088059,-0.2057054452790468
7601,2.0,299.52666,19461.025,0.0,0.0,-0.07600999889161553,0.0,0.0,0.0,-1.6578232742644183,-1.6606941157727486,-2.5971483694935875,0.0020483045315519183,-0.0013717459900557888,-0.21166930364513378
7602,2.0,299.90814,19342.089,0.0,0.0,-0.07602000331198977,0.0,0.0,0.0,-1.6458213268299184,-1.6489569305893785,-2.5847337252933573,-0.013711358108455687,-0.018029096441583285,-0.2134010189935408
7603,2.0,299.24701,19467.832,0.0,0.0,-0.07603000773236368,0.0,0.0,0.0,-1.6612381297514385,-1.6572774364355485,-2.5992194526979873,-0.006515263598956454,-0.021343694884208682,-0.2109419521933498
7604,2.0,300.19477,19629.519,0.0,0.0,-0.07604001215273803,0.0,0.0,0.0,-1.6884860461405986,-1.6769497884520586,-2.6014476909928974,0.011220698170146688,0.02137681093722698,-0.2041784976433488
7605,2.0,300.34494,19669.904,0.0,0.0,-0.07604998366383453,0.0,0.0,0.0,-1.6867716269713984,-1.6871505825087985,-2.6052375503419274,0.008452028343600251,0.007546028436210024,-0.18116503448209684
7606,2.0,300.23401,19533.968,0.0,0.0,-0.07605998808420866,0.0,0.0,0.0,-1.6724957436624783,-1.6720339042668984,-2.5933088608896577,0.0013821951317120388,-0.006088111401999814,-0.17898003156895384
7607,2.0,299.63286,19484.038,0.0,0.0,-0.0760699925045829,0.0,0.0,0.0,-1.6746051277206586,-1.6642466719483584,-2.5838093372271276,0.0015227239026561485,-0.013216799853896588,-0.1854425204417518
7608,2.0,300.22424,19628.863,0.0,0.0,-0.07607999692495715,0.0,0.0,0.0,-1.6990406671322587,-1.6680859779022683,-2.599557574256358,0.004119757065613366,-0.006529218889933733,-0.21308028480688682
7609,2.0,299.31732,19621.407,0.0,0.0,-0.07609000134533139,0.0,0.0,0.0,-1.7146452252973083,-1.6590015828057085,-2.5907709733641875,-0.013182245998986387,-0.0063519897950675835,-0.20514676957140981
7610,2.0,299.0467,19438.545,0.0,0.0,-0.07610000576570553,0.0,0.0,0.0,-1.6731161566987083,-1.6564962206084484,-2.5792199222241874,-0.00939204336082251,0.0014789268763587186,-0.2170691363430558
7611,2.0,299.74916,19417.167,0.0,0.0,-0.07611001018607944,0.0,0.0,0.0,-1.6685670690497483,-1.6517900791939883,-2.581976671771258,0.005476572511470624,0.0016866266308820884,-0.21645855183279578
7612,2.0,300.09405,19481.543,0.0,0.0,-0.07612001460645368,0.0,0.0,0.0,-1.6705312543685984,-1.6609644508994283,-2.5904070139282678,0.02282264384941958,0.035967164520682764,-0.21986542290902777
7613,2.0,299.61617,19419.84,0.0,0.0,-0.07612998611755029,0.0,0.0,0.0,-1.6624120813172985,-1.6507218096135585,-2.5900125556643374,0.01041147408378249,0.007610795990552082,-0.2079392463170058
7614,2.0,299.78022999999996,19468.49,0.0,0.0,-0.07613999053792453,0.0,0.0,0.0,-1.6535600244686683,-1.6742433974349584,-2.5901312072510474,-0.004483243921686726,-0.015522187011420585,-0.2116587962415968
7615,2.0,300.22134,19507.186999999998,0.0,0.0,-0.07614999495829866,0.0,0.0,0.0,-1.6727407475366585,-1.6757937714129683,-2.5811633359159876,-0.009648829104515292,0.0001034883698910069,-0.2001636157121108
7616,2.0,300.4197,19564.221,0.0,0.0,-0.0761599993786728,0.0,0.0,0.0,-1.6811447451910684,-1.6774249014239484,-2.5884650187866076,0.005745119454374145,0.015728163531498883,-0.2055384211325628
7617,2.0,300.05021,19684.259,0.0,0.0,-0.07617000379904715,0.0,0.0,0.0,-1.7052012277402586,-1.6695002723918486,-2.6088218212456677,-0.001353600808589999,0.005957168584951765,-0.18223334459253082
7618,2.0,300.07568,19741.151,0.0,0.0,-0.07618000821942106,0.0,0.0,0.0,-1.7038286791547983,-1.6764778165554783,-2.6205103704242374,-0.020337900278444482,-0.015309820936211686,-0.18311592595963483
7619,2.0,299.4406,19646.245,0.0,0.0,-0.0761900126397953,0.0,0.0,0.0,-1.6898355939487886,-1.6548217234931883,-2.6273104944953576,-0.002283411080080128,-0.015567407350133485,-0.18521030378383382
7620,2.0,299.91236000000004,19544.827,0.0,0.0,-0.07619998415089191,0.0,0.0,0.0,-1.6863108008259184,-1.6450861125573586,-2.6097424602865273,0.0054298792110873545,0.007865500518539462,-0.20899350264855282
7621,2.0,299.95912000000004,19612.125,0.0,0.0,-0.07620998857126615,0.0,0.0,0.0,-1.7150147576087784,-1.6392636735077286,-2.6073178541222375,0.02193931673024198,0.020315118363196084,-0.20263978617398978
7622,2.0,300.04442,19649.768,0.0,0.0,-0.07621999299164028,0.0,0.0,0.0,-1.6965657024379983,-1.6582977792862483,-2.618175234243777,0.003680452453582377,0.0006724609783567314,-0.2062997671252018
7623,2.0,299.93127000000004,19586.197,0.0,0.0,-0.07622999741201442,0.0,0.0,0.0,-1.6810808091097587,-1.6614216293445485,-2.6112123822065976,0.0015350230363449786,0.014635124039124286,-0.1961132801598738
7624,2.0,300.06568,19567.943,0.0,0.0,-0.07624000183238855,0.0,0.0,0.0,-1.6602606473799684,-1.6593508501151784,-2.628554461643127,-0.0016072981659779786,0.004876332068831505,-0.1962570198190598
7625,2.0,300.14619,19657.91,0.0,0.0,-0.07625000625276268,0.0,0.0,0.0,-1.6861296317080383,-1.6659128604127984,-2.6234712898664574,-0.008507201230095393,-0.0038701794818069763,-0.18518149708349083
7626,2.0,300.20997,19737.906000000003,0.0,0.0,-0.07626001067313692,0.0,0.0,0.0,-1.6855100292718883,-1.6810087670276483,-2.6333118735126475,0.001274984861156209,0.0003427713326813967,-0.1975050298347288
7627,2.0,300.41739,19687.402,0.0,0.0,-0.07627001509351106,0.0,0.0,0.0,-1.6834600216695683,-1.6883477375019484,-2.6126709557255476,-0.008816322152053252,0.015700916223059785,-0.2040086566615868
7628,2.0,300.38763,19642.019,0.0,0.0,-0.07627998660460755,0.0,0.0,0.0,-1.6858066075761586,-1.6773870058702085,-2.6074897013391976,0.012927204869315787,0.03241608667696867,-0.2014109063202088
7629,2.0,299.59528,19580.451,0.0,0.0,-0.07628999102498168,0.0,0.0,0.0,-1.6854079949868184,-1.6628147469070382,-2.6037455395696774,-0.001106351065563349,0.027601554859561374,-0.1930631947088538
7630,2.0,299.69212999999996,19521.968,0.0,0.0,-0.07629999544535604,0.0,0.0,0.0,-1.6648858301114384,-1.6606568281690683,-2.6086480488535178,0.016124531771867383,-0.016856703254377086,-0.2077642377597338
7631,2.0,299.99949,19578.456000000002,0.0,0.0,-0.07630999986573017,0.0,0.0,0.0,-1.6649571629184785,-1.6642473812234284,-2.6221572058117677,-0.002404676548073098,-0.013942201812488186,-0.22151673686199977
7632,2.0,300.90127,19683.988,0.0,0.0,-0.0763200042861043,0.0,0.0,0.0,-1.6924865601854184,-1.6775644259627185,-2.6133898566714975,-0.002872538499597477,-0.008778992701144121,-0.2205247954116028
7633,2.0,300.75535,19665.234,0.0,0.0,-0.07633000870647855,0.0,0.0,0.0,-1.6991889056218883,-1.6649175448395683,-2.6136337459705676,-0.002359364510226148,-0.006614893441539154,-0.2218154227264778
7634,2.0,301.00681000000003,19710.471999999998,0.0,0.0,-0.07634001312685246,0.0,0.0,0.0,-1.7124699799826282,-1.6703003346708085,-2.6087212055107374,-0.005343110248048925,-0.011663843101381688,-0.20902605837426577
7635,2.0,300.6053,19724.314,0.0,0.0,-0.0763499846379494,0.0,0.0,0.0,-1.7057619603455985,-1.6753871541478385,-2.614549724060968,-0.008458320728046262,0.002752513857676967,-0.18792617882186982
7636,2.0,300.15406,19674.592,0.0,0.0,-0.07635998905832331,0.0,0.0,0.0,-1.6848570909074483,-1.6759538649287684,-2.6197738389265472,0.003231821786305977,0.0003550980875679527,-0.18545374725285982
7637,2.0,299.4534,19627.627,0.0,0.0,-0.07636999347869744,0.0,0.0,0.0,-1.700445842370938,-1.6662326421443585,-2.599630122963518,-0.018124601343008882,0.0021217724592026382,-0.17654834278646483
7638,2.0,300.09618,19601.808,0.0,0.0,-0.07637999789907168,0.0,0.0,0.0,-1.6984740576763382,-1.6593436560394685,-2.600642461138427,0.008469158755090892,-0.023834366981518876,-0.19093748719156284
7639,2.0,299.46732000000003,19609.995,0.0,0.0,-0.07639000231944593,0.0,0.0,0.0,-1.6962191709037986,-1.6750372788883086,-2.589692368632737,-0.0036857738404575567,0.0008088102851558601,-0.20603032365860982
7640,2.0,299.87304,19733.656000000003,0.0,0.0,-0.07640000673982017,0.0,0.0,0.0,-1.6989040810187785,-1.6828878393380986,-2.6167466529277874,0.018948805318851483,0.014923794939613884,-0.21087502702424482
7641,2.0,300.10902999999996,19728.533,0.0,0.0,-0.0764100111601943,0.0,0.0,0.0,-1.7036561226627682,-1.6809709727989184,-2.6123544163943078,-0.0025622090742453475,-0.006105960917086425,-0.2020751728207668
7642,2.0,300.31045,19614.588,0.0,0.0,-0.07642001558056821,0.0,0.0,0.0,-1.6692072404629286,-1.6749176140514985,-2.6182201212232075,0.008607814735875173,-0.011107577915732591,-0.22570010201986582
7643,2.0,300.49691,19594.664,0.0,0.0,-0.07642998709166493,0.0,0.0,0.0,-1.6779932334050385,-1.6648934294871882,-2.613401711697668,-0.005304900384127904,0.0017813210335526986,-0.21665165703685377
7644,2.0,300.58136,19719.838,0.0,0.0,-0.07643999151203906,0.0,0.0,0.0,-1.6783822201184284,-1.6950618366395782,-2.6208942908871276,0.013313809431720686,-0.0015862053386462786,-0.22388020351525578
7645,2.0,299.8388,19673.953999999998,0.0,0.0,-0.0764499959324133,0.0,0.0,0.0,-1.7022829661272483,-1.6713382067482385,-2.606769584493127,-0.007552998887622952,-0.0017819788355176182,-0.19892997358285983
7646,2.0,299.14693,19538.411,0.0,0.0,-0.07646000035278744,0.0,0.0,0.0,-1.6929238789285783,-1.6613620502386683,-2.584903039385068,-0.009346639725166521,-0.029146787606563973,-0.2107316622675958
7647,2.0,299.61607999999995,19629.411,0.0,0.0,-0.07647000477316157,0.0,0.0,0.0,-1.6963316416648986,-1.6707031015855585,-2.5998160543568676,-0.001963886207420478,-0.006504746265568474,-0.1896321576177368
7648,2.0,299.72449,19737.055,0.0,0.0,-0.07648000919353592,0.0,0.0,0.0,-1.6849948929210483,-1.6880728427498184,-2.6265041500657773,-0.011908604808787788,-0.006914974146104813,-0.19091954253229182
7649,2.0,299.82346,19736.721999999998,0.0,0.0,-0.07649001361390984,0.0,0.0,0.0,-1.6866379792832085,-1.6922566537377286,-2.6205760290307176,0.00946200929347761,-0.0073574463805984236,-0.19010839529723783
7650,2.0,299.93104,19703.2,0.0,0.0,-0.07649998512500655,0.0,0.0,0.0,-1.6743762345230684,-1.6824167793666085,-2.6324876958813075,-0.002020313700189438,-0.009601532008397431,-0.2014736062363968
7651,2.0,300.4408,19727.201,0.0,0.0,-0.07650998954538069,0.0,0.0,0.0,-1.7083880006297683,-1.6684491267381085,-2.6197394897481576,0.014932358929459088,0.015356355460304286,-0.2133400821325268
7652,2.0,300.29652999999996,19776.62,0.0,0.0,-0.07651999396575493,0.0,0.0,0.0,-1.7140340328369885,-1.6680224471209983,-2.6295420765155977,-0.0062586273096534245,0.0013610556948757387,-0.2043375272465438
7653,2.0,300.43396,19819.683,0.0,0.0,-0.07652999838612906,0.0,0.0,0.0,-1.7150203304843286,-1.6603268126114985,-2.6493413887696375,-0.003032789069162977,-0.0008178567846986802,-0.21019720323734878
7654,2.0,300.36262999999997,19789.631999999998,0.0,0.0,-0.0765400028065032,0.0,0.0,0.0,-1.6982421247284485,-1.6702757126933785,-2.6470362447921376,-0.009863022069654491,-0.00986694800849195,-0.2028141361186968
7655,2.0,300.64153999999996,19703.297,0.0,0.0,-0.07655000722687733,0.0,0.0,0.0,-1.6862996550748184,-1.6671952297393586,-2.6358155131847374,-0.015627960189359587,0.005138047679560826,-0.19884139525911781
7656,2.0,299.7911,19715.531000000003,0.0,0.0,-0.07656001164725146,0.0,0.0,0.0,-1.6873978155331983,-1.6820155323270085,-2.6236156780057076,-0.005753976070848225,0.004876348584808135,-0.1997237537111998
7657,2.0,299.98226,19820.618000000002,0.0,0.0,-0.0765700160676257,0.0,0.0,0.0,-1.7164603615264484,-1.6834680263453583,-2.6250444619717177,-0.0036106681966702066,-0.0017961150929627584,-0.1994013273968788
7658,2.0,300.15091,19742.596,0.0,0.0,-0.07657998757872231,0.0,0.0,0.0,-1.6961516884471384,-1.6859553526908382,-2.6191492715649076,0.003950864789919996,0.0040336497548902365,-0.2134171702001348
7659,2.0,299.83657999999997,19595.053,0.0,0.0,-0.07658999199909633,0.0,0.0,0.0,-1.6722804280162284,-1.6787899519586682,-2.605336240901668,0.007520947760459753,0.014078610607200686,-0.21080614628244682
7660,2.0,299.97048,19684.005,0.0,0.0,-0.07659999641947046,0.0,0.0,0.0,-1.6824912532489584,-1.6778812692689882,-2.623073285227177,0.002485888948888138,0.0038428746207621964,-0.2055924881578988
7661,2.0,299.89495,19742.255,0.0,0.0,-0.07661000083984482,0.0,0.0,0.0,-1.6815141761775285,-1.6841499436626584,-2.635488537377468,-0.005974182574005915,0.005122107938262696,-0.21214335270441878
7662,2.0,299.53972999999996,19728.296000000002,0.0,0.0,-0.07662000526021895,0.0,0.0,0.0,-1.6861298343580584,-1.6793116744351584,-2.6314679609806677,-0.006201034072644414,-0.008114064649595833,-0.2159752315350958
7663,2.0,299.92969,19781.442,0.0,0.0,-0.07663000968059308,0.0,0.0,0.0,-1.7208844141130684,-1.6614288234202585,-2.6307511878599272,-0.0044556763248910156,0.006238863866452925,-0.2180303357854188
7664,2.0,299.94782000000004,19748.645,0.0,0.0,-0.07664001410096732,0.0,0.0,0.0,-1.7316702587775485,-1.6568590654692585,-2.614565733412548,-0.0013806069635052987,0.0060931097647431145,-0.2122432287667758
7665,2.0,300.14426000000003,19731.592,0.0,0.0,-0.07664998561206393,0.0,0.0,0.0,-1.7103667767500585,-1.6696018000518682,-2.6179427946708373,0.0004603106950216286,-0.008968441794866293,-0.21131883056804482
7666,2.0,300.76015,19837.462,0.0,0.0,-0.07665999003243817,0.0,0.0,0.0,-1.7182952561325384,-1.6795218225058983,-2.6322759266104074,-0.002151112838373308,-0.012397677327305488,-0.19209430469823183
7667,2.0,300.16924,19815.595,0.0,0.0,-0.07666999445281208,0.0,0.0,0.0,-1.7029350938916084,-1.6896677997322285,-2.6308430896439976,0.014779299395853287,0.00018367553385736378,-0.1921689710981008
7668,2.0,300.02367999999996,19722.967,0.0,0.0,-0.07667999887318622,0.0,0.0,0.0,-1.6938516107201382,-1.6809524303220882,-2.6204854444717776,0.008587510419771292,0.00971288961293757,-0.17747802001821683
7669,2.0,299.31262000000004,19724.281000000003,0.0,0.0,-0.07669000329356046,0.0,0.0,0.0,-1.7023663566104783,-1.6761755640506484,-2.6171468867172876,-0.0038324482772331965,0.003241418176678067,-0.18606922576110282
7670,2.0,299.53881,19871.113999999998,0.0,0.0,-0.0767000077139347,0.0,0.0,0.0,-1.6996769881950584,-1.7077912976458784,-2.632854087117468,-0.01039920869132199,-0.0004562130001597176,-0.2016932585930748
7671,2.0,299.72277,19889.814,0.0,0.0,-0.07671001213430895,0.0,0.0,0.0,-1.7105735810954683,-1.6963334655150786,-2.6390997607338678,-0.013634604413380685,0.007660940015475914,-0.2038833378892188
7672,2.0,299.68367,19750.243000000002,0.0,0.0,-0.07671998364540544,0.0,0.0,0.0,-1.6938113846911682,-1.6792664834806983,-2.6305028402604176,0.003658607288051426,0.01069014319253499,-0.22225009688687677
7673,2.0,299.07892000000004,19700.761000000002,0.0,0.0,-0.07672998806577958,0.0,0.0,0.0,-1.6850756489540182,-1.6751966631290383,-2.628267002589758,0.0006433404643252604,-0.002011044589599648,-0.2083405845491148
7674,2.0,300.5573,19741.986,0.0,0.0,-0.07673999248615371,0.0,0.0,0.0,-1.6825081745256285,-1.6875976284529186,-2.6309648823060177,0.0041642482695543066,0.004352825461565426,-0.2250451472877268
7675,2.0,300.19411,19843.513,0.0,0.0,-0.07674999690652784,0.0,0.0,0.0,-1.7085142515922285,-1.6997276507000585,-2.6236906585131075,0.012880861849492088,0.008347906864649262,-0.21277129418889182
7676,2.0,300.14781,19842.661,0.0,0.0,-0.07676000132690208,0.0,0.0,0.0,-1.7085760598483282,-1.6938781578727586,-2.6292193563587474,0.002940472055201997,-0.006653203819870094,-0.22144368152978977
7677,2.0,299.48589,19644.941000000003,0.0,0.0,-0.07677000574727622,0.0,0.0,0.0,-1.6948214937158583,-1.6728849330258884,-2.6038650017564677,-0.0028389512852826774,-0.017184507900228883,-0.2169981277760478
7678,2.0,299.86413999999996,19578.286,0.0,0.0,-0.07678001016765035,0.0,0.0,0.0,-1.6583540146667985,-1.6781961874000682,-2.6147599734567177,-0.013219294475642787,-0.02204543846621538,-0.2061301085284578
7679,2.0,299.84394,19812.217,0.0,0.0,-0.0767900145880247,0.0,0.0,0.0,-1.6860441133995983,-1.6955181031596083,-2.6408569390572874,-0.005154928628876844,-0.004431750652929736,-0.20356281648508578
7680,2.0,300.22384,19989.323,0.0,0.0,-0.0767999860991212,0.0,0.0,0.0,-1.7092252491873985,-1.7082564807667884,-2.6587733286504975,0.0017899253507518784,0.006904591878955164,-0.18745363950523383
7681,2.0,299.81761,19746.707,0.0,0.0,-0.07680999051949533,0.0,0.0,0.0,-1.6993471752875084,-1.6656938970661883,-2.6374646790474974,0.012657178783916288,-0.0022557518854753778,-0.2104472834945298
7682,2.0,299.58052999999995,19686.025,0.0,0.0,-0.07681999493986946,0.0,0.0,0.0,-1.6817111519969683,-1.6743759305480383,-2.6279729574107376,0.004641850796940006,-0.01013730887172449,-0.20162701230153682
7683,2.0,299.71963999999997,19899.508,0.0,0.0,-0.0768299993602437,0.0,0.0,0.0,-1.7147799875606085,-1.6972440733799483,-2.6369293790196675,0.002977562480412537,-0.007442499708567534,-0.22113289745911777
7684,2.0,300.42687,20018.697,0.0,0.0,-0.07684000378061784,0.0,0.0,0.0,-1.7377992059824285,-1.6869878545427381,-2.6603969606107376,0.0033678135272773167,0.0017858378998484783,-0.1949491165899798
7685,2.0,299.77025,19895.471,0.0,0.0,-0.07685000820099197,0.0,0.0,0.0,-1.727812714321838,-1.6861979247647783,-2.6337156536774975,-0.001173060919022099,-0.0002284097860997908,-0.22420241704705576
7686,2.0,300.01325,19797.611,0.0,0.0,-0.0768600126213661,0.0,0.0,0.0,-1.7101124509749583,-1.6740332493642183,-2.633833494664127,-0.013835481245705687,0.0075290004643044925,-0.19257191026536782
7687,2.0,300.52079,19737.143,0.0,0.0,-0.07686998413246282,0.0,0.0,0.0,-1.6903100989706181,-1.6822413857742984,-2.6270470494693576,0.0018453684710486881,0.005881084546867855,-0.21828424612797778
7688,2.0,299.93358,19918.235,0.0,0.0,-0.07687998855283695,0.0,0.0,0.0,-1.6960055777827185,-1.7095739085468085,-2.6490665953425174,-0.01024746131659569,0.01133232793366369,-0.1970409308914258
7689,2.0,299.70993,19990.394,0.0,0.0,-0.07688999297321109,0.0,0.0,0.0,-1.7115666675184786,-1.6983744551915085,-2.6666394931518274,0.012962347422534088,-0.012657705673968287,-0.2144066089227848
7690,2.0,300.23095,19824.548,0.0,0.0,-0.0768999973935851,0.0,0.0,0.0,-1.6872587976194784,-1.6827533810498285,-2.6561553943671274,0.005758480879467814,-0.015623166503136485,-0.2008739344297138
7691,2.0,299.24742000000003,19687.35,0.0,0.0,-0.07691000181395924,0.0,0.0,0.0,-1.6737921971654286,-1.6849144408631085,-2.6257561688419573,0.013080061752901587,0.0034300137085159963,-0.2110946185859168
7692,2.0,299.85244,19970.948,0.0,0.0,-0.0769200062343336,0.0,0.0,0.0,-1.7051994038900786,-1.7019725062966085,-2.6634975059167374,-0.01093888393308379,0.00945389680787697,-0.2022653193345328
7693,2.0,299.62482,20075.761000000002,0.0,0.0,-0.07693001065470773,0.0,0.0,0.0,-1.7362396114285086,-1.7043822176844283,-2.6619082231348874,-0.0009598968586969442,0.008423866982245943,-0.21656247076305177
7694,2.0,299.60156,19784.25,0.0,0.0,-0.07694001507508186,0.0,0.0,0.0,-1.7031708771898786,-1.6683167962750485,-2.6424301111625477,-0.013262362671143288,-0.004672031565743615,-0.2150657483778368
7695,2.0,300.19847999999996,19776.825,0.0,0.0,-0.07694998658617846,0.0,0.0,0.0,-1.7064879540422482,-1.6771209263939484,-2.628052294893568,0.0025854841383174177,-0.0024832014043228976,-0.21023840198641483
7696,2.0,300.02562,19901.903000000002,0.0,0.0,-0.07695999100655271,0.0,0.0,0.0,-1.7251477652338285,-1.6854038406614082,-2.6391298542618373,0.0014474332394005386,0.005069300382800995,-0.2082293600856378
7697,2.0,300.45167000000004,19971.763,0.0,0.0,-0.07696999542692695,0.0,0.0,0.0,-1.7505412312899682,-1.6802400141767784,-2.6401360116111374,0.01884623502447858,0.009010509203243021,-0.19459184460471984
7698,2.0,300.34054,19993.301,0.0,0.0,-0.07697999984730086,0.0,0.0,0.0,-1.7380988240369983,-1.6931462873255283,-2.6462191599114977,0.007394346213465153,0.013345369132585386,-0.20923107939949978
7699,2.0,299.60359,19879.182,0.0,0.0,-0.076990004267675,0.0,0.0,0.0,-1.7218203532304381,-1.6808759299395382,-2.6400786616554774,0.006958379855213623,0.013334317613744687,-0.20121420407829582
7700,2.0,299.81835,19881.822,0.0,0.0,-0.07700000868804924,0.0,0.0,0.0,-1.6968110102872085,-1.7041471436612283,-2.6426193862812273,-0.013228368130288288,0.0015929412226610583,-0.2072271037492228
7701,2.0,300.27924,20034.251,0.0,0.0,-0.07701001310842348,0.0,0.0,0.0,-1.7061904638128884,-1.7160800887639183,-2.6676415975007273,-0.008784358468373681,-0.016071419228125584,-0.20835510442304778
7702,2.0,299.96293,19989.065,0.0,0.0,-0.07701998461952009,0.0,0.0,0.0,-1.7147188885795783,-1.6964432005009085,-2.6650144426414477,-0.012509578641849288,-0.012599018228176289,-0.2062001241103678
7703,2.0,300.18815,19783.043,0.0,0.0,-0.07702998903989422,0.0,0.0,0.0,-1.6926711743536382,-1.6813490164112284,-2.639530898651418,0.007432476841228353,-0.004514424464364006,-0.21047048692181983
7704,2.0,299.63842999999997,19677.185,0.0,0.0,-0.07703999346026835,0.0,0.0,0.0,-1.6851034120067583,-1.6741152212973083,-2.622154166061468,-0.0014163899921118086,0.022434930791405277,-0.2117218710603218
7705,2.0,299.59439,19809.338,0.0,0.0,-0.07704999788064248,0.0,0.0,0.0,-1.6942340113078784,-1.690275344492188,-2.637034757030068,0.0025869924624162778,0.012770217978322387,-0.2195152538069688
7706,2.0,300.06566000000004,19958.582,0.0,0.0,-0.07706000230101662,0.0,0.0,0.0,-1.7315424879399381,-1.6885425854961786,-2.6468253874463272,0.0018938408359575384,0.003787006746023466,-0.20756474908004582
7707,2.0,299.4961,19958.526,0.0,0.0,-0.07707000672139086,0.0,0.0,0.0,-1.7248388252783382,-1.6959900750561883,-2.6460646392712475,0.005270170325025315,-0.008142860001537713,-0.2188963505133878
7708,2.0,299.2021,19889.638,0.0,0.0,-0.07708001114176499,0.0,0.0,0.0,-1.7273799552041285,-1.6864973401693284,-2.6320759110406677,0.01136238498463009,-0.0025505457549942676,-0.2128672185758588
7709,2.0,300.6473,19938.133,0.0,0.0,-0.07709001556213912,0.0,0.0,0.0,-1.7144010320232084,-1.7050383984491881,-2.6412551463465874,0.00031196892480893574,-0.006222186276431974,-0.2169119711200448
7710,2.0,300.87576,20051.819,0.0,0.0,-0.07709998707323584,0.0,0.0,0.0,-1.7239223405628885,-1.7094238462069984,-2.6619059939846674,-0.009321594918469792,-0.0031522840852562166,-0.20933228281948782
7711,2.0,300.07707,20044.556,0.0,0.0,-0.07710999149360998,0.0,0.0,0.0,-1.7178501353636084,-1.7048562160812082,-2.6703380586668475,-0.004279463317225146,-0.010274791711542991,-0.20187447837345981
7712,2.0,300.11742000000004,19760.535,0.0,0.0,-0.07711999591398411,0.0,0.0,0.0,-1.6825877146584787,-1.6821604270913084,-2.6419609763662475,0.012884358575587188,0.002829633842663117,-0.1997159820829328
7713,2.0,300.52198,19628.35,0.0,0.0,-0.07713000033435824,0.0,0.0,0.0,-1.6724489315078583,-1.6790104351804285,-2.6150687107621873,0.016160376507404983,0.0007355436700350083,-0.19443048452629483
7714,2.0,300.03036000000003,19942.751,0.0,0.0,-0.07714000475473248,0.0,0.0,0.0,-1.7126455762249584,-1.6923328501452486,-2.657119907137318,0.013885121381354788,-0.005168744699290385,-0.2000558059014708
7715,2.0,299.52792,20121.281000000003,0.0,0.0,-0.07715000917510662,0.0,0.0,0.0,-1.7564133195944984,-1.6876143470795681,-2.6723392276143474,-0.00025249211665903177,0.005001529656487545,-0.19251353692710682
7716,2.0,299.23933999999997,20036.085,0.0,0.0,-0.07716001359548075,0.0,0.0,0.0,-1.7243692851819985,-1.7040328490499483,-2.6620674047255974,-0.0024758456138969376,0.023946646238349977,-0.2096532196561618
7717,2.0,300.04902999999996,19839.588,0.0,0.0,-0.07716998510657724,0.0,0.0,0.0,-1.7050432620496685,-1.6945965521936586,-2.6310995432443076,-0.018505034199054683,0.017175489974338883,-0.22941703775919878
7718,2.0,300.50131,19990.783,0.0,0.0,-0.0771799895269516,0.0,0.0,0.0,-1.720092559159918,-1.6974188590221986,-2.6591875452913776,-0.012857596613945987,0.00984878063684897,-0.20794825411039478
7719,2.0,300.76559,20075.884,0.0,0.0,-0.07718999394732573,0.0,0.0,0.0,-1.7330541557641284,-1.6979109945957684,-2.6716024934666374,0.0011571106399229287,-0.01141768310883759,-0.2206754353039698
7720,2.0,300.37039,19921.464,0.0,0.0,-0.07719999836769986,0.0,0.0,0.0,-1.7099121314301884,-1.6993805112157985,-2.646334974397927,0.00869525132940449,-0.003845318883978426,-0.20908986273306282
7721,2.0,300.84456,19788.655,0.0,0.0,-0.07721000278807388,0.0,0.0,0.0,-1.6852387822201182,-1.6993923662419683,-2.630626051472577,0.014405910654502684,-0.01122030908210829,-0.21776088218632578
7722,2.0,300.63425,19802.609,0.0,0.0,-0.07722000720844802,0.0,0.0,0.0,-1.6802254233753384,-1.6914946896625285,-2.6477784504903874,0.011010489304400689,-0.007996766765019432,-0.18424320722588883
7723,2.0,299.87554,19962.093999999997,0.0,0.0,-0.07723001162882237,0.0,0.0,0.0,-1.7022052498445783,-1.7083182890228885,-2.6574546849703573,-0.002010760271621588,-0.0034772455513274163,-0.20947446207351983
7724,2.0,299.89274,20161.747,0.0,0.0,-0.0772400160491965,0.0,0.0,0.0,-1.7278901266294784,-1.7151154746687183,-2.6856619465541973,-0.01028807035410349,-0.00979629651081919,-0.18798212035989081
7725,2.0,300.09484,20068.553,0.0,0.0,-0.077249987560293,0.0,0.0,0.0,-1.7214835488971985,-1.7136636899254383,-2.6651916600839374,-0.005705930588206504,-0.008051807625026544,-0.21293648435269477
7726,2.0,300.05916,19930.18,0.0,0.0,-0.07725999198066724,0.0,0.0,0.0,-1.7140254202111382,-1.6910251495661883,-2.653226594953077,-0.008848993286952642,-0.0017018359201831283,-0.20003894541980682
7727,2.0,299.81357,20080.302,0.0,0.0,-0.07726999640104149,0.0,0.0,0.0,-1.7544675754274683,-1.6919554144829982,-2.6574874129485875,0.01241502518226759,-0.0013988439454301485,-0.2016721221959888
7728,2.0,299.80307,20259.494,0.0,0.0,-0.07728000082141573,0.0,0.0,0.0,-1.7607307782705985,-1.7095201049664985,-2.6881292105476975,0.009269021018481151,0.004596773326491206,-0.2049118779332278
7729,2.0,299.89583,20006.714,0.0,0.0,-0.07729000524178964,0.0,0.0,0.0,-1.7295466892179683,-1.6962488591317282,-2.6557460413267275,0.006914067996540384,0.01089070186432859,-0.20954686892566582
7730,2.0,300.59315,19801.411,0.0,0.0,-0.07730000966216377,0.0,0.0,0.0,-1.6824282290927381,-1.6854440666903785,-2.6512622069842076,0.0025146682914784376,-0.005063350375563776,-0.21034515801695078
7731,2.0,300.16308,19899.511000000002,0.0,0.0,-0.07731001408253801,0.0,0.0,0.0,-1.7109987408374285,-1.6878830610060884,-2.6500724487167875,-0.00992362759788579,0.010183318532265291,-0.17161689507976882
7732,2.0,300.84704,20075.202,0.0,0.0,-0.07731998559363462,0.0,0.0,0.0,-1.7148064333882185,-1.7146317490709786,-2.6729218464218474,-0.011528799154553888,0.007572989805470903,-0.2053324679172368
7733,2.0,300.60929,20028.148,0.0,0.0,-0.07732999001400886,0.0,0.0,0.0,-1.7170755056621585,-1.7086396919546083,-2.6623416915276676,-0.006602895952405093,0.006932213684631223,-0.2000752704358918
7734,2.0,300.19069,20014.048,0.0,0.0,-0.077339994434383,0.0,0.0,0.0,-1.7105886785219584,-1.7141135729698385,-2.6590686910546473,-0.0022093935655751683,-0.0027794720858625374,-0.22247200879127782
7735,2.0,299.94361000000004,19963.978,0.0,0.0,-0.07734999885475713,0.0,0.0,0.0,-1.7193851079400981,-1.6932139724322086,-2.6559516297720176,0.023364288849375775,0.00011945952194223689,-0.21137229977582178
7736,2.0,300.0342,19941.9,0.0,0.0,-0.07736000327513126,0.0,0.0,0.0,-1.7133793719473784,-1.7050329268986486,-2.643427453235977,0.010636381155479092,0.006142493446791904,-0.23528148615797478
7737,2.0,299.67986,20060.174,0.0,0.0,-0.0773700076955054,0.0,0.0,0.0,-1.7394865713739585,-1.6969515480760784,-2.6613539753301874,0.006065589284077054,0.013213410532312089,-0.20953145739164478
7738,2.0,299.60237,19959.686,0.0,0.0,-0.07738001211587964,0.0,0.0,0.0,-1.7383928692160182,-1.6929228656784785,-2.635930314421068,-0.008430573178032792,0.001923582056867768,-0.20797959393598783
7739,2.0,299.5247,19813.561,0.0,0.0,-0.07738998362697613,0.0,0.0,0.0,-1.7002537301519784,-1.6809211208939985,-2.6416529483358473,-0.01056466331340109,0.012723389611700789,-0.21481786687337281
7740,2.0,300.20011,19921.957,0.0,0.0,-0.07739998804735049,0.0,0.0,0.0,-1.7201164718622783,-1.6939475655046083,-2.6417133380418076,-0.012246357544121388,-0.004326876126504425,-0.2151943196830258
7741,2.0,300.46198,20169.569,0.0,0.0,-0.07740999246772462,0.0,0.0,0.0,-1.7231541956620782,-1.7243716156572286,-2.6835196318677674,-0.013425927581785888,-0.014322001387221487,-0.2187091018949078
7742,2.0,299.80503999999996,20132.793999999998,0.0,0.0,-0.07741999688809875,0.0,0.0,0.0,-1.7240768612031383,-1.7184189739697482,-2.6773706223109075,-0.001369367993396099,-0.016370168927359884,-0.20088588064839283
7743,2.0,300.1776,20021.577,0.0,0.0,-0.07743000130847288,0.0,0.0,0.0,-1.7090907908991284,-1.7131803696277381,-2.6637881060454176,0.020384395285783178,-0.003912999532357986,-0.2006832812908978
7744,2.0,300.14091,19959.555,0.0,0.0,-0.07744000572884702,0.0,0.0,0.0,-1.7080877746251384,-1.6995005813526483,-2.659617973933858,0.027875027008550973,0.01098477706986309,-0.20395216796851182
7745,2.0,300.57187999999996,19973.569,0.0,0.0,-0.07745001014922126,0.0,0.0,0.0,-1.7019450472188984,-1.7079174472833283,-2.6616037414798375,-0.0016959111428733983,0.01758216094172418,-0.2165750350642918
7746,2.0,299.94219,20050.269,0.0,0.0,-0.07746001456959539,0.0,0.0,0.0,-1.7288418724484085,-1.7066070109289986,-2.6593321360806472,-0.006041002365100514,-0.003487927943156687,-0.2172109609595528
7747,2.0,299.25774,20067.557,0.0,0.0,-0.07746998608069189,0.0,0.0,0.0,-1.7337939296621383,-1.7010895601594684,-2.665152751280097,-0.022341515211685876,0.01130394274536229,-0.21040657110551178
7748,2.0,299.58502000000004,20008.991,0.0,0.0,-0.07747999050106602,0.0,0.0,0.0,-1.7238513117308782,-1.7166613903462884,-2.641721038742568,-0.007065815675241714,0.014600901516996787,-0.2276832959105918
7749,2.0,299.45732000000004,20000.009,0.0,0.0,-0.07748999492144037,0.0,0.0,0.0,-1.7362541009049381,-1.6808472549617086,-2.662402081233627,-0.0035537986228826165,0.02205171352408468,-0.1967131444840758
7750,2.0,299.63551,20219.171000000002,0.0,0.0,-0.07749999934181451,0.0,0.0,0.0,-1.738964038297388,-1.7197961835056683,-2.687362889497068,0.007814462199077372,0.0027612961015937073,-0.2057852792544258
7751,2.0,300.30766,20172.128,0.0,0.0,-0.07751000376218864,0.0,0.0,0.0,-1.7344911470559485,-1.7170576724603985,-2.6802743944474874,0.010208527181503191,0.008049898661838141,-0.1997844777896928
7752,2.0,300.31121,20018.063000000002,0.0,0.0,-0.07752000818256266,0.0,0.0,0.0,-1.680989920575788,-1.7201027929859285,-2.6838984860801576,0.009729365667513631,-0.012835781339292987,-0.2250434044975548
7753,2.0,299.91472999999996,20114.012,0.0,0.0,-0.0775300126029368,0.0,0.0,0.0,-1.712655506075938,-1.7244420365391786,-2.6770599598302476,-0.004420731760742256,-0.01078410694055849,-0.20311834419621982
7754,2.0,300.0895,20159.745,0.0,0.0,-0.07753998411403351,0.0,0.0,0.0,-1.7205299792280881,-1.7171694339464283,-2.6903596779928276,-0.004836822812982246,-0.028922229092901774,-0.20012863831865882
7755,2.0,300.15146,20065.596,0.0,0.0,-0.07754998853440764,0.0,0.0,0.0,-1.7332408977575584,-1.7044108926622585,-2.6617881529980374,-0.007392845083442004,0.003352620247327857,-0.18103719271697982
7756,2.0,300.66617,20058.811,0.0,0.0,-0.07755999295478178,0.0,0.0,0.0,-1.7198949753904185,-1.7043856627347682,-2.6730970373641374,0.0065252842371454145,0.005989181715236214,-0.19578646647261982
7757,2.0,300.27117000000004,20147.253,0.0,0.0,-0.07756999737515602,0.0,0.0,0.0,-1.7500604441175183,-1.7081776499090084,-2.6660237410660574,0.003399638193043167,0.002589641706127737,-0.1944145461022218
7758,2.0,300.49622,20158.886000000002,0.0,0.0,-0.07758000179553026,0.0,0.0,0.0,-1.7271226910037383,-1.7133946720238884,-2.6872806135889475,0.012953168389878186,-0.012875272761940488,-0.20815529150332782
7759,2.0,300.79467,20247.139,0.0,0.0,-0.07759000621590428,0.0,0.0,0.0,-1.7651152127783085,-1.7125847812189585,-2.676924690941897,0.005840313591994074,-0.0009908089610252309,-0.2112354806148188
7760,2.0,300.51397000000003,20248.805,0.0,0.0,-0.07760001063627842,0.0,0.0,0.0,-1.7491240997001085,-1.7174758407766686,-2.6885311668623677,0.011626946612240289,-0.0052173483814121945,-0.2097229413955428
7761,2.0,300.15176,20006.636000000002,0.0,0.0,-0.07761001505665255,0.0,0.0,0.0,-1.7349637269025882,-1.6895125698169087,-2.657041380254568,0.00022067290217871982,0.013284427205320887,-0.2170755806136918
7762,2.0,299.76068,19995.93,0.0,0.0,-0.07761998656774927,0.0,0.0,0.0,-1.7056858652630882,-1.7018854681130184,-2.6706919869267773,-0.015662790661547087,-0.004292287517115795,-0.2020112874019618
7763,2.0,299.44807000000003,20099.307,0.0,0.0,-0.0776299909881234,0.0,0.0,0.0,-1.7257133614396483,-1.7034041273628984,-2.6805699595016574,-0.010899862658482688,0.012834785314444687,-0.20114855560431683
7764,2.0,299.40357,20014.119,0.0,0.0,-0.07763999540849764,0.0,0.0,0.0,-1.6807036774225386,-1.7184064096685085,-2.6846823363575174,-0.017860358889180184,0.0015912148471406784,-0.2155155706272308
7765,2.0,299.42719,19910.668,0.0,0.0,-0.07764999982887177,0.0,0.0,0.0,-1.7044662161177184,-1.6979469649743184,-2.6499326202029874,0.011595020114839389,-0.0012687033184862688,-0.2064916665616408
7766,2.0,300.29417,20122.749,0.0,0.0,-0.0776600042492459,0.0,0.0,0.0,-1.7321031192202683,-1.7173576958150083,-2.667352415922187,0.00982599355402506,-0.03160004848368197,-0.2042644212518288
7767,2.0,300.55099,20168.96,0.0,0.0,-0.07767000866962004,0.0,0.0,0.0,-1.7573094379829381,-1.7055055067452882,-2.6680452763405675,0.029064673818459973,0.003930719250106786,-0.20713991357811778
7768,2.0,300.09978,20151.686,0.0,0.0,-0.07768001308999417,0.0,0.0,0.0,-1.7315431972150084,-1.7208210859818185,-2.6732449718787374,0.005874351905253395,-5.7191262455838145e-05,-0.2132256355337318
7769,2.0,300.14038999999997,20294.488,0.0,0.0,-0.07768998460109089,0.0,0.0,0.0,-1.7458071241727484,-1.7331349117970982,-2.6900756639897976,-0.0028742771354440676,0.012929377277530187,-0.21332788260132282
7770,2.0,300.15274,20261.563000000002,0.0,0.0,-0.07769998902146491,0.0,0.0,0.0,-1.7302170554841283,-1.7245188408967582,-2.7042734257160075,-0.032952045317363676,-0.012796600984426188,-0.2259171199262838
7771,2.0,299.92765,20080.421000000002,0.0,0.0,-0.07770999344183926,0.0,0.0,0.0,-1.7263956840569885,-1.7081384371301382,-2.6694125560255073,-0.017445311383218184,0.015205653759681186,-0.22873209082409976
7772,2.0,300.43404,20156.387,0.0,0.0,-0.0777199978622134,0.0,0.0,0.0,-1.7398170935565782,-1.7161936741001282,-2.6710276766849077,-0.011620329075837188,0.01222487360225109,-0.21753726802175677
7773,2.0,300.47539,20140.974,0.0,0.0,-0.07773000228258753,0.0,0.0,0.0,-1.7469762121381285,-1.7009756708482284,-2.6744012928928576,0.003307129877463307,0.006477716096625804,-0.2037742209859498
7774,2.0,301.13031,19960.994,0.0,0.0,-0.07774000670296166,0.0,0.0,0.0,-1.7193987868164484,-1.6876691639099783,-2.6605759005783973,0.011259624199238387,-0.019212346603610982,-0.19796372815499882
7775,2.0,301.18748,20068.545,0.0,0.0,-0.0777500111233358,0.0,0.0,0.0,-1.7224816002456984,-1.7110885147962884,-2.6667664533893576,0.005216090836713086,-0.012698327883727387,-0.19520794119552382
7776,2.0,300.56372000000005,20175.715,0.0,0.0,-0.07776001554371004,0.0,0.0,0.0,-1.7247121690158382,-1.7137640016853384,-2.6944374016952675,0.01966415178345068,-0.01088186531020649,-0.2035993644161928
7777,2.0,300.35845,20287.903000000002,0.0,0.0,-0.07776998705480653,0.0,0.0,0.0,-1.7481186516258782,-1.7274990120908784,-2.6913981580203177,-0.014608903153036486,-0.001111347604456469,-0.1942832390217628
7778,2.0,300.43415,20402.445,0.0,0.0,-0.07777999147518067,0.0,0.0,0.0,-1.7655137240426382,-1.7309374763052285,-2.7053825292754676,-0.0056038045026774435,-0.00950335476115809,-0.21358492388669081
7779,2.0,299.58267,20365.031000000003,0.0,0.0,-0.0777899958955548,0.0,0.0,0.0,-1.7767009170717283,-1.7178525671638483,-2.6959073236153372,-0.007177987426237202,0.021437928156758778,-0.2047142029712188
7780,2.0,299.52867000000003,20169.392,0.0,0.0,-0.07780000031592915,0.0,0.0,0.0,-1.723218638368438,-1.7164838689287685,-2.6912888283345273,-0.0036603084336443163,0.020327492173417283,-0.22719360226976276
7781,2.0,299.71549,20101.087,0.0,0.0,-0.07781000473630328,0.0,0.0,0.0,-1.7101416325778382,-1.7147549602831382,-2.6853320323216376,0.001985278754131758,0.007769774728592062,-0.22684620947297776
7782,2.0,300.79453,20213.625,0.0,0.0,-0.07782000915667742,0.0,0.0,0.0,-1.7136593329500085,-1.7287120751105984,-2.702066060373158,-0.001779448547367898,-0.01905846228442378,-0.2204678507559828
7783,2.0,300.68665,19994.549,0.0,0.0,-0.07783001357705144,0.0,0.0,0.0,-1.7210227227517183,-1.6971072846164483,-2.6597136247432975,0.007903575518872172,-0.004905353578195706,-0.2103518859976148
7784,2.0,299.89617999999996,19796.269,0.0,0.0,-0.07783998508814816,0.0,0.0,0.0,-1.6983822572172782,-1.6873162489001483,-2.6318730583706476,0.0016396950140752985,-0.01270077589596899,-0.22229285604109678
7785,2.0,299.76936,20146.766,0.0,0.0,-0.07784998950852229,0.0,0.0,0.0,-1.7415573506033282,-1.7171195820415086,-2.6654368666081374,-0.017464194312081783,-0.014847789023112686,-0.2060910274721008
7786,2.0,299.71241000000003,20468.436999999998,0.0,0.0,-0.07785999392889642,0.0,0.0,0.0,-1.7592287363223584,-1.7411078728589684,-2.7215572432717874,-0.01001019239102907,-0.026548766727409273,-0.1954167213786288
7787,2.0,299.60159,20438.488,0.0,0.0,-0.07786999834927055,0.0,0.0,0.0,-1.7461294390295585,-1.7524019637736084,-2.714258701476477,0.0005128807547923896,0.004207709200793566,-0.2079623889492898
7788,2.0,299.78668999999996,20401.334,0.0,0.0,-0.0778800027696448,0.0,0.0,0.0,-1.7485018628136981,-1.7409993537732584,-2.7119946954530376,0.016459696666445586,0.015272806910058683,-0.2020919725074248
7789,2.0,299.90287,20296.264,0.0,0.0,-0.07789000719001904,0.0,0.0,0.0,-1.7669175820561882,-1.7156898861504084,-2.6869499900813176,0.005522954034798125,-0.0019595517261426984,-0.1994603492152038
7790,2.0,300.37467999999996,20183.6,0.0,0.0,-0.07790001161039306,0.0,0.0,0.0,-1.7423130325279084,-1.7160452329604783,-2.6769522513446176,-0.0013515309412857187,0.02160980779772198,-0.2065767491725378
7791,2.0,300.84345,20206.74,0.0,0.0,-0.07791001603076719,0.0,0.0,0.0,-1.7510021587604585,-1.7087040333359584,-2.682638205605777,-0.0040214323904844765,0.026307127856811375,-0.2169944800756878
7792,2.0,300.41661,20142.525,0.0,0.0,-0.07791998754186391,0.0,0.0,0.0,-1.7266983418618584,-1.7084884137146785,-2.6876379868992175,0.0033982911783602267,0.016187725140854085,-0.21787250181734177
7793,2.0,299.7789,20028.367,0.0,0.0,-0.07792999196223804,0.0,0.0,0.0,-1.7174172749208882,-1.7094495827595382,-2.6612566019955772,-0.021160828572411177,-0.0017232281629193786,-0.22762006910435179
7794,2.0,299.37478,20148.952,0.0,0.0,-0.07793999638261218,0.0,0.0,0.0,-1.7158159344628483,-1.7231515612118184,-2.6858106916688773,-0.01085809142311019,-0.003824172354391426,-0.2032907689657368
7795,2.0,299.13978,20462.926,0.0,0.0,-0.07795000080298642,0.0,0.0,0.0,-1.7713546042440882,-1.7487103896842784,-2.700153652134418,0.0041048333101905065,0.009039935404697162,-0.2086511051747608
7796,2.0,299.2317,20510.102,0.0,0.0,-0.07796000522336055,0.0,0.0,0.0,-1.7656217365032985,-1.7357016769504185,-2.7332355586243477,-0.0023174605390905473,0.010349775258693291,-0.18727567225766983
7797,2.0,300.01067,20288.441000000003,0.0,0.0,-0.07797000964373468,0.0,0.0,0.0,-1.7581178089127185,-1.7269506411367583,-2.6821110115787477,0.01135258888266329,-0.005741119345629365,-0.21031108241608779
7798,2.0,300.16561,20209.998,0.0,0.0,-0.07798001406410882,0.0,0.0,0.0,-1.7374191358699183,-1.7153062696625485,-2.6906094441424773,0.008012100684082772,-0.007323003577899183,-0.20343387027735982
7799,2.0,300.2605,20152.693,0.0,0.0,-0.07798998557520553,0.0,0.0,0.0,-1.7359352310984681,-1.7036186324090683,-2.6863614944232377,0.02123992996796788,0.012586591728949888,-0.2258537917950338
7800,2.0,300.39995,20161.25,0.0,0.0,-0.07799998999557967,0.0,0.0,0.0,-1.7144113671742283,-1.7223379213815182,-2.6917671837067374,-0.005053234289215396,0.008011066662355723,-0.22645669586953576
7801,2.0,299.91033,20224.592,0.0,0.0,-0.07800999441595369,0.0,0.0,0.0,-1.7424187145133383,-1.7117304087346383,-2.6936217353647676,-0.014138811848642087,-0.003063018169996357,-0.2150754046512898
7802,2.0,299.3588,20154.808999999997,0.0,0.0,-0.07801999883632804,0.0,0.0,0.0,-1.7208032527800585,-1.7176838610221985,-2.6880716579420176,-0.021767432023028277,0.004642675177221366,-0.21299974155643778
7803,2.0,299.39111,20085.113,0.0,0.0,-0.07803000325670217,0.0,0.0,0.0,-1.7052165278167684,-1.7223020523279782,-2.6778541452586273,0.0011556972573584388,0.02389761709251118,-0.22869540103797878
7804,2.0,300.4315,20485.012,0.0,0.0,-0.0780400076770763,0.0,0.0,0.0,-1.7394055113659586,-1.7564735066504382,-2.7310532205589673,-0.002656070686658767,0.011956277212742688,-0.20992149788513878
7805,2.0,300.43688,20646.598,0.0,0.0,-0.07805001209745044,0.0,0.0,0.0,-1.7816027170804982,-1.7594695858711284,-2.7349779434963075,0.005981573625535354,-0.019726912494644682,-0.2009430988815398
7806,2.0,300.33602,20281.742,0.0,0.0,-0.07805998360854716,0.0,0.0,0.0,-1.7389834926993084,-1.7237346866443681,-2.702424852233568,-0.0012257051385676787,-0.013593014549776088,-0.19276834906225482
7807,2.0,300.32232999999997,20040.881999999998,0.0,0.0,-0.07806998802892129,0.0,0.0,0.0,-1.7307271255844683,-1.6963026627120381,-2.6648979188799475,0.025863236160252677,-0.006595965625696125,-0.1974609433228778
7808,2.0,299.96321,20263.295,0.0,0.0,-0.07807999244929531,0.0,0.0,0.0,-1.7410628845545284,-1.7136077585199183,-2.704864859799377,-0.003062609019605977,-0.006128042777840734,-0.19611548904509182
7809,2.0,300.08465,20475.165,0.0,0.0,-0.07808999686966944,0.0,0.0,0.0,-1.7766493426416383,-1.7363458000389882,-2.7109437524493174,-0.0019998719873719983,-0.015851837798954584,-0.2107825071576138
7810,2.0,299.53339,20292.585,0.0,0.0,-0.07810000129004357,0.0,0.0,0.0,-1.7378952620919086,-1.7269052475322784,-2.703638725853368,-0.008465937227722951,-0.0038876632136074863,-0.23619712987584177
7811,2.0,299.70382,20198.581000000002,0.0,0.0,-0.07811000571041793,0.0,0.0,0.0,-1.7458137102983984,-1.7192003924468682,-2.6748501626871577,0.0025185254306341076,0.011367287088613887,-0.23787096837853677
7812,2.0,299.70878999999996,20184.635,0.0,0.0,-0.07812001013079206,0.0,0.0,0.0,-1.7331801027515585,-1.7154378908505383,-2.6870071373869573,0.0016554278497030086,0.012026287728402188,-0.24095158305506978
7813,2.0,300.52509,20307.357,0.0,0.0,-0.0781300145511662,0.0,0.0,0.0,-1.7573632415632483,-1.7363211780615586,-2.6792450336708975,-0.01265378946233179,-0.01188227347843909,-0.2198469817572078
7814,2.0,300.25779,20405.828999999998,0.0,0.0,-0.0781399860622628,0.0,0.0,0.0,-1.7474621668860884,-1.7374888474767984,-2.717911468086977,-0.004658279431411385,-0.000925609103528006,-0.2066669284314378
7815,2.0,300.091,20224.738,0.0,0.0,-0.07814999048263693,0.0,0.0,0.0,-1.7241012805305485,-1.7298245223953885,-2.6938896386912075,0.008378719192240201,0.004232830710522865,-0.21313353109964178
7816,2.0,300.08817999999997,20099.08,0.0,0.0,-0.07815999490301107,0.0,0.0,0.0,-1.7068156391245883,-1.7200748272831683,-2.6827279795646373,0.004181564815088317,-0.005159706204423355,-0.21634731723681777
7817,2.0,300.30913,20411.369,0.0,0.0,-0.0781699993233852,0.0,0.0,0.0,-1.7595513551541981,-1.7329827216320781,-2.7120123260047775,0.0017726110343680883,-0.030087631867668073,-0.1947207300174398
7818,2.0,300.03947,20588.775,0.0,0.0,-0.07818000374375933,0.0,0.0,0.0,-1.7910534020882083,-1.7528454633423785,-2.714574835507677,0.002356638360832098,-0.00907363306327286,-0.19541405653086583
7819,2.0,300.16112000000004,20321.316000000003,0.0,0.0,-0.07819000816413357,0.0,0.0,0.0,-1.7567023998480282,-1.7165232843576583,-2.7039468552087773,0.005030509419947625,0.016863081663756586,-0.2078210608253418
7820,2.0,300.30251,20214.096999999998,0.0,0.0,-0.07820001258450782,0.0,0.0,0.0,-1.7286779285822285,-1.7274273753088085,-2.6884753367818575,0.011590521284395389,0.03248273522879637,-0.20937244805345182
7821,2.0,299.94834,20294.762,0.0,0.0,-0.07820998409560442,0.0,0.0,0.0,-1.7319421137793785,-1.743033554674018,-2.694125118014447,-0.005034435358785086,0.006910288776317403,-0.22791431693339176
7822,2.0,299.76822999999996,20349.104,0.0,0.0,-0.07821998851597856,0.0,0.0,0.0,-1.7382731030541982,-1.737853313537768,-2.7094931836061575,0.002142864779909288,0.0048949691832208455,-0.2211926184200118
7823,2.0,299.55339,20298.325,0.0,0.0,-0.07822999293635269,0.0,0.0,0.0,-1.7523883862222682,-1.7310224879886185,-2.6867729752888474,-0.0005086320046055704,-0.0010546072200566291,-0.2300616269428148
7824,2.0,299.64531,20315.468999999997,0.0,0.0,-0.07823999735672682,0.0,0.0,0.0,-1.7570070841530985,-1.7097675406409185,-2.7086207752700577,-0.002401243555409288,-0.003952160534147876,-0.1989644240862598
7825,2.0,299.75278,20256.078,0.0,0.0,-0.07825000177710095,0.0,0.0,0.0,-1.7374149815445084,-1.7193466044362984,-2.7005802304265174,-0.0016430026677017383,-0.02573924474551568,-0.1987973594097718
7826,2.0,300.1584,20400.38,0.0,0.0,-0.0782600061974752,0.0,0.0,0.0,-1.7248511869295586,-1.7549263750727484,-2.7214286618340973,-0.0048942812877279555,-0.002883434687197847,-0.19679891610504083
7827,2.0,300.27841,20637.822,0.0,0.0,-0.07827001061784933,0.0,0.0,0.0,-1.7681870831064783,-1.7535929379411486,-2.7516027431870476,0.013030001118460989,-0.0026215379073506475,-0.1966622084015488
7828,2.0,300.51928,20474.298,0.0,0.0,-0.07828001503822346,0.0,0.0,0.0,-1.7367239449763086,-1.7640862573017582,-2.7228651465008675,0.01010495032448095,0.01170045081424459,-0.2071204693086988
7829,2.0,300.10906,20144.866,0.0,0.0,-0.07828998654932018,0.0,0.0,0.0,-1.7354324563988481,-1.7250154347707685,-2.663088355526358,0.005905601956887534,-0.005787818320213195,-0.22099415312292478
7830,2.0,300.28328,20195.828999999998,0.0,0.0,-0.07829999096969431,0.0,0.0,0.0,-1.7410672415299582,-1.715160057673118,-2.6828005282717973,0.01047575973637699,0.00825413229041943,-0.22919361611214878
7831,2.0,299.77495,20332.543,0.0,0.0,-0.07830999539006833,0.0,0.0,0.0,-1.7698496238705583,-1.7221514833631182,-2.6885842611676076,-0.0014015779981749789,0.026683490487205475,-0.2239057070202728
7832,2.0,300.16200000000003,20350.439,0.0,0.0,-0.07831999981044246,0.0,0.0,0.0,-1.7393453243100183,-1.7244410232890783,-2.7222389579390676,-0.0006396287569564434,0.023562628503450377,-0.22100001984100376
7833,2.0,299.72285,20286.291,0.0,0.0,-0.07833000423081682,0.0,0.0,0.0,-1.7402684964761284,-1.7160164566576384,-2.710241063504968,-0.008222518887299432,-0.019444941203816284,-0.21210245793038282
7834,2.0,299.95162999999997,20364.905,0.0,0.0,-0.07834000865119095,0.0,0.0,0.0,-1.7339862445311185,-1.7305643976184084,-2.7258718648476075,-0.014121924009225385,-0.013045500805240686,-0.20948687438724478
7835,2.0,299.90202999999997,20470.596,0.0,0.0,-0.07835001307156508,0.0,0.0,0.0,-1.770412788276138,-1.7325161199610282,-2.7196210236556975,0.004988603219661805,-0.012729309018784989,-0.20642058706712582
7836,2.0,301.11472000000003,20619.628,0.0,0.0,-0.07835998458266158,0.0,0.0,0.0,-1.7842232858141283,-1.7559864373273684,-2.7276423167473376,-0.004392695637100306,0.006706254048730743,-0.1977875442276108
7837,2.0,300.79682,20466.681,0.0,0.0,-0.07836998900303593,0.0,0.0,0.0,-1.7642644879943485,-1.743371676232388,-2.7137239080736975,0.00968441019237687,-0.005239264170475115,-0.2015993100438028
7838,2.0,300.56329,20111.641,0.0,0.0,-0.07837999342341007,0.0,0.0,0.0,-1.6920349546158484,-1.7272615062674381,-2.6941403167659477,0.017928396606894985,0.007484323430295212,-0.20789029620467483
7839,2.0,299.96887000000004,20169.273999999998,0.0,0.0,-0.07838999784378409,0.0,0.0,0.0,-1.7051216876074085,-1.7381702581690481,-2.6876637234517573,0.01042879052799149,0.01871030144406298,-0.23149131270141377
7840,2.0,299.9752,20549.146,0.0,0.0,-0.07840000226415822,0.0,0.0,0.0,-1.7726290702198684,-1.7459198989088782,-2.7278782013706175,-0.01085485307579059,0.005851925843440115,-0.21475047560922178
7841,2.0,299.83897,20536.691000000003,0.0,0.0,-0.07841000668453235,0.0,0.0,0.0,-1.7918549842423184,-1.7410389718521684,-2.7097472054062273,-0.0075469540401763725,-0.0022700864359650875,-0.2141434881368168
7842,2.0,300.07923,20302.726000000002,0.0,0.0,-0.0784200111049067,0.0,0.0,0.0,-1.7480202650411683,-1.7321409134489985,-2.6913606677666175,-0.012922588501860188,0.01724652184609918,-0.22510028835816875
7843,2.0,300.27686,20389.052,0.0,0.0,-0.07843001552528084,0.0,0.0,0.0,-1.7443107564250682,-1.732814116815438,-2.7206378201310475,0.009817694731731032,0.015326629742120587,-0.21697988927424777
7844,2.0,300.02082,20607.055,0.0,0.0,-0.07843998703637733,0.0,0.0,0.0,-1.7543609815169483,-1.7513213325419583,-2.7583479491027476,-0.018070473522666882,-0.00018637509556878982,-0.21219549455456477
7845,2.0,299.73666000000003,20582.414,0.0,0.0,-0.07844999145675158,0.0,0.0,0.0,-1.7619243868883983,-1.7503067652168285,-2.7443087610171872,-0.012383744125180387,-0.017241883187141385,-0.19588076965942683
7846,2.0,299.3892,20364.797,0.0,0.0,-0.07845999587712571,0.0,0.0,0.0,-1.7393149268070185,-1.7482032580092282,-2.702871796852677,-0.0025123520017498375,-0.015527545077949383,-0.22673627183712777
7847,2.0,299.99817,20166.607,0.0,0.0,-0.07847000029749984,0.0,0.0,0.0,-1.7321571254505985,-1.7249015454595285,-2.6730862969130773,-0.003751187848363416,0.0013033954820351188,-0.2152178473503478
7848,2.0,299.92502,20190.661,0.0,0.0,-0.07848000471787397,0.0,0.0,0.0,-1.7425147706228183,-1.7277361126142783,-2.667205899957727,0.019353579482049584,-0.003000547450980977,-0.2319581271549848
7849,2.0,299.94237999999996,20443.148999999998,0.0,0.0,-0.0784900091382481,0.0,0.0,0.0,-1.7706674180262683,-1.7365930330633883,-2.7069463794798074,0.009838714402405512,-0.004285375226258606,-0.2074432401280538
7850,2.0,299.91539,20472.771,0.0,0.0,-0.07850001355862235,0.0,0.0,0.0,-1.7591899288435282,-1.7344096817479084,-2.7296113656666674,0.02419139882650518,0.0008235857412940843,-0.23064521847041078
7851,2.0,299.82229,20222.862,0.0,0.0,-0.07850998506971896,0.0,0.0,0.0,-1.7186613433936682,-1.7332590349343484,-2.6953247048078373,0.007851532055310882,0.00846165148377498,-0.21679072561307877
7852,2.0,300.12931000000003,20289.723,0.0,0.0,-0.0785199894900932,0.0,0.0,0.0,-1.7647960389968085,-1.7139278442265085,-2.6888452743933677,-0.0006861419318694364,0.024786724803509276,-0.2194773278557258
7853,2.0,299.65057,20667.319,0.0,0.0,-0.07852999391046733,0.0,0.0,0.0,-1.8074693709333383,-1.7422831416499582,-2.732596501786277,-0.02013164612783878,0.01961225007357838,-0.19222841848146782
7854,2.0,299.53632999999996,20644.959,0.0,0.0,-0.07853999833084147,0.0,0.0,0.0,-1.7924477355508182,-1.7551429066191184,-2.7279615918538473,-0.00874799292228468,0.013064190203335187,-0.2025979794748638
7855,2.0,299.17976,20411.566000000003,0.0,0.0,-0.0785500027512156,0.0,0.0,0.0,-1.735314311437188,-1.7361001882147482,-2.733191786220027,-0.02354364627607698,0.0025777308498772275,-0.20789469371010882
7856,2.0,299.58776,20396.229,0.0,0.0,-0.07856000717158973,0.0,0.0,0.0,-1.7238969079853783,-1.7533563440427982,-2.7226909688086773,-0.006271583130732063,-0.02135777602084838,-0.2128991055565058
7857,2.0,299.69203999999996,20471.976000000002,0.0,0.0,-0.07857001159196397,0.0,0.0,0.0,-1.7442602965700882,-1.7424792055443084,-2.7362302192948977,-0.013816510164083386,-0.032036564732762764,-0.2095923537226548
7858,2.0,300.08806,20507.375,0.0,0.0,-0.0785800160123381,0.0,0.0,0.0,-1.7663894761040682,-1.7494719484594383,-2.717868404957727,0.00953981403288134,-0.015203967711514785,-0.22091528173514077
7859,2.0,300.46428,20465.231,0.0,0.0,-0.07858998752343482,0.0,0.0,0.0,-1.7675645422450383,-1.7539715895035182,-2.6993830754333676,0.008299653260437002,0.0054475872764600045,-0.21106133332013177
7860,2.0,300.23155,20312.641,0.0,0.0,-0.07859999194380896,0.0,0.0,0.0,-1.739510484076318,-1.7291217321260284,-2.7059034411518774,0.021586105851382778,0.017991512968874083,-0.2071104989277148
7861,2.0,299.8224,20276.653000000002,0.0,0.0,-0.07860999636418309,0.0,0.0,0.0,-1.7337999078377284,-1.7240076562213085,-2.7057887412405575,0.0035493068851893163,0.013237243187914185,-0.20500139857956282
7862,2.0,300.0499,20574.55,0.0,0.0,-0.07862000078455711,0.0,0.0,0.0,-1.7501680512781381,-1.7552720960068682,-2.7487094075264977,-0.0013924770871017887,-0.0064359487116036835,-0.2189638735000518
7863,2.0,300.25882,20795.879,0.0,0.0,-0.07863000520493124,0.0,0.0,0.0,-1.7854823503883883,-1.7726148847184682,-2.7633306064694976,-0.0019538126775762977,-0.0032221472743511766,-0.2009061253853908
7864,2.0,299.58996,20564.153000000002,0.0,0.0,-0.0786400096253056,0.0,0.0,0.0,-1.7657653140424683,-1.7579125244424583,-2.7273111866146573,-0.0035950915028829062,-0.006634310859830503,-0.2147438894835718
7865,2.0,299.78066,20466.493000000002,0.0,0.0,-0.07865001404567973,0.0,0.0,0.0,-1.777391548339888,-1.728757367390068,-2.715153806614818,-0.005949349029955035,-7.615062989373203e-05,-0.1952730526469498
7866,2.0,299.5334,20598.897,0.0,0.0,-0.07865998555677622,0.0,0.0,0.0,-1.7794318287412483,-1.7448675373550184,-2.7372509674456373,-0.0007355154814172263,0.0012507507558644887,-0.2090680778559128
7867,2.0,299.77957000000004,20583.339,0.0,0.0,-0.07866998997715036,0.0,0.0,0.0,-1.7722051263780283,-1.7467561342164084,-2.737859829430727,-0.018842216474581983,0.008216430368773541,-0.2124669949188598
7868,2.0,300.64923,20404.898,0.0,0.0,-0.07867999439752471,0.0,0.0,0.0,-1.7353871641193785,-1.7374438591723584,-2.7297484584051976,-0.0062836571202486745,-0.0034504803472858968,-0.2143675177339268
7869,2.0,300.43001,20317.338,0.0,0.0,-0.07868999881789884,0.0,0.0,0.0,-1.7577784714542282,-1.7219653493197482,-2.696219505971148,-0.002194708430550858,-0.011058430219632091,-0.2201816886627408
7870,2.0,300.57498,20307.965,0.0,0.0,-0.07870000323827286,0.0,0.0,0.0,-1.7575851433351484,-1.7224523173178086,-2.6930766068109677,0.004200142350371776,-0.01232450141833359,-0.21880438793431178
7871,2.0,299.77201,20511.053,0.0,0.0,-0.078710007658647,0.0,0.0,0.0,-1.7774039099911083,-1.7418990185370484,-2.7155448198284073,0.009552204257754162,0.006762480512679863,-0.22009557253674178
7872,2.0,299.80065,20780.662,0.0,0.0,-0.07872001207902113,0.0,0.0,0.0,-1.7982649056999285,-1.7726326165952184,-2.7459049338997175,0.012578365151387988,0.013816456461828087,-0.2001462182078938
7873,2.0,299.61382000000003,20598.892,0.0,0.0,-0.07872998359011785,0.0,0.0,0.0,-1.7608679723341385,-1.7582855018042682,-2.7423953395283474,0.016395957155654985,0.006690614837412273,-0.21722741614117677
7874,2.0,299.76271,20343.2,0.0,0.0,-0.07873998801049198,0.0,0.0,0.0,-1.7198277969087885,-1.7455272644951283,-2.718469870217087,0.010985049634139989,-0.0027671670753231276,-0.2245264544290358
7875,2.0,299.53794,20479.029,0.0,0.0,-0.07874999243086611,0.0,0.0,0.0,-1.7525030861335884,-1.7552825324828984,-2.7173278360293773,-0.014258077464912687,-0.011919000754813789,-0.23539457500163577
7876,2.0,299.6577,20580.482,0.0,0.0,-0.07875999685124035,0.0,0.0,0.0,-1.7776821484685683,-1.7382218325991383,-2.7400487536217573,0.00014963812239063285,-0.0065709156514238845,-0.2121771851252578
7877,2.0,299.4411,20354.348,0.0,0.0,-0.07877000127161449,0.0,0.0,0.0,-1.7451011928280784,-1.7386627990426584,-2.7034496533847077,-0.026337385531297573,0.0069607065814182535,-0.2236989330723658
7878,2.0,300.09967,20297.821,0.0,0.0,-0.07878000569198862,0.0,0.0,0.0,-1.7486234528256983,-1.7186711719196384,-2.7027360213392773,-0.01160331458015799,-0.00031124413687990467,-0.2072172042957458
7879,2.0,300.40889,20505.738999999998,0.0,0.0,-0.07879001011236275,0.0,0.0,0.0,-1.7656005595762083,-1.7403255424567583,-2.727306525664197,-0.0023180535943740778,0.008085308206457793,-0.2055010828663778
7880,2.0,299.68941,20641.138,0.0,0.0,-0.07880001453273688,0.0,0.0,0.0,-1.7727296859547983,-1.7609045506627485,-2.7407564074915975,0.008366315592466061,0.008578710747952831,-0.2052023159418918
7881,2.0,300.03963999999996,20814.22,0.0,0.0,-0.0788099860438336,0.0,0.0,0.0,-1.8025043441183282,-1.7734066383466083,-2.7510920651366475,0.015614990588079587,0.004047455287502736,-0.2012340739127568
7882,2.0,300.07054,20787.985,0.0,0.0,-0.07881999046420773,0.0,0.0,0.0,-1.8049799167626481,-1.7736588362964985,-2.7403897122804075,0.01238738270628949,-0.016790370836580585,-0.2242744692616668
7883,2.0,300.02353999999997,20462.38,0.0,0.0,-0.07882999488458198,0.0,0.0,0.0,-1.777281408054018,-1.7348447713408484,-2.707926394976527,0.006414318253768925,-0.006395133781675564,-0.2081348643813118
7884,2.0,299.90169,20394.898,0.0,0.0,-0.07883999930495611,0.0,0.0,0.0,-1.7485889009972884,-1.7451533752082284,-2.705797455191418,0.014225764919223685,0.0015297776432272984,-0.2204331773375608
7885,2.0,299.71244,20602.02,0.0,0.0,-0.07885000372533024,0.0,0.0,0.0,-1.7679502865581085,-1.7511225328723383,-2.743427030780168,-0.00895781969141797,0.017757575812286285,-0.20112726721971583
7886,2.0,299.927,20485.362,0.0,0.0,-0.07886000814570437,0.0,0.0,0.0,-1.7500159624381286,-1.7526121118443485,-2.7244104542283774,-0.004681448306872975,-0.002930550512872817,-0.23780644461216877
7887,2.0,299.91983,20314.288,0.0,0.0,-0.0788700125660785,0.0,0.0,0.0,-1.7443120736501985,-1.7382971170815682,-2.692427113496868,-0.03130855973466427,0.0023901995346193275,-0.2164136851183678
7888,2.0,299.76332,20464.696,0.0,0.0,-0.078879984077175,0.0,0.0,0.0,-1.7580526569312884,-1.7352180526776884,-2.7274858709318974,0.0009921856740686022,0.010047256877037052,-0.23564109875096576
7889,2.0,299.85444,20666.541,0.0,0.0,-0.07888998849754925,0.0,0.0,0.0,-1.7720225387100084,-1.7680456333925183,-2.7420441470436874,-0.01677835774339498,0.0035628957849304366,-0.2017938844605058
7890,2.0,299.97558,20640.733,0.0,0.0,-0.0788999929179236,0.0,0.0,0.0,-1.7606009809327883,-1.7697950096901682,-2.7438713409490174,0.0008540268140483842,0.011321354435080689,-0.2211086503842248
7891,2.0,299.70842999999996,20653.226000000002,0.0,0.0,-0.07890999733829773,0.0,0.0,0.0,-1.7740826788133282,-1.7525310518363482,-2.7514513636221074,-0.01136990532687229,-0.009906408425686391,-0.1993197506313278
7892,2.0,299.59986000000004,20528.361,0.0,0.0,-0.07892000175867186,0.0,0.0,0.0,-1.7620817446289283,-1.7508332499687884,-2.7271941562281077,0.019397092494343984,0.007150993025023062,-0.21232866601520778
7893,2.0,299.68821,20450.137,0.0,0.0,-0.07893000617904589,0.0,0.0,0.0,-1.7557526805292984,-1.7368888007675785,-2.723689628107237,-0.0014835598611159587,0.003373126200201637,-0.2235042775956548
7894,2.0,299.46356000000003,20657.103,0.0,0.0,-0.07894001059942002,0.0,0.0,0.0,-1.7879089830528783,-1.7585845119087784,-2.7327499078514177,0.01161359906867299,-0.009234782183027042,-0.22674331392532276
7895,2.0,299.39979,20785.572,0.0,0.0,-0.07895001501979437,0.0,0.0,0.0,-1.8036830579596583,-1.7567367490264183,-2.7578749639560676,-0.007289223744740373,-0.01010773443178072,-0.2157847101187928
7896,2.0,299.43269,20511.393,0.0,0.0,-0.07895998653089087,0.0,0.0,0.0,-1.7651675978084784,-1.7267939926712985,-2.7429896107119975,0.008757137403112172,-0.005231711910854766,-0.2012468307315158
7897,2.0,300.39142000000004,20517.112,0.0,0.0,-0.078969990951265,0.0,0.0,0.0,-1.7482139984602882,-1.748642704577598,-2.7398328300254473,0.009015852780295392,-0.0017758170590094985,-0.2064743501174318
7898,2.0,300.30593999999996,20866.293,0.0,0.0,-0.07897999537163913,0.0,0.0,0.0,-1.8018933543080282,-1.7652264676392884,-2.7757122187164676,-0.024231106071423977,-0.017704746978572484,-0.1929911830242468
7899,2.0,300.20904,20851.569,0.0,0.0,-0.07898999979201349,0.0,0.0,0.0,-1.8049353337582483,-1.7760514237576281,-2.7573697574562073,-0.018404310046363982,-0.012827682431243687,-0.2100835267086298
7900,2.0,300.07923999999997,20577.116,0.0,0.0,-0.07900000421238762,0.0,0.0,0.0,-1.7716001147433182,-1.7617596324221383,-2.7215698075730272,-0.020548092932188882,0.0062765991240271045,-0.2185082959900898
7901,2.0,300.22726,20496.291,0.0,0.0,-0.07901000863276164,0.0,0.0,0.0,-1.759252649024718,-1.7513573029205083,-2.719750719668497,0.016803081045834983,0.010028265935712792,-0.22036583673591478
7902,2.0,300.43721,20586.061999999998,0.0,0.0,-0.07902001305313577,0.0,0.0,0.0,-1.7554969362040587,-1.7656714870832082,-2.736480390744587,0.007856924471018071,-0.023074520599027877,-0.22323391207147178
7903,2.0,300.05388999999997,20592.76,0.0,0.0,-0.07902998456423249,0.0,0.0,0.0,-1.7700488288402183,-1.7554968348790483,-2.7341392763885373,0.004626278966753186,-0.017212662067507486,-0.22389049813627176
7904,2.0,299.87836,20632.482,0.0,0.0,-0.07903998898460662,0.0,0.0,0.0,-1.773155656296838,-1.7413982703376283,-2.7572052056399676,0.01371094672891509,0.00044711349750416657,-0.2170082805420498
7905,2.0,300.01018999999997,20557.61,0.0,0.0,-0.07904999340498076,0.0,0.0,0.0,-1.7667576911904084,-1.7515908570685583,-2.7306517708693474,0.008027309568083773,0.013390824545321487,-0.22652881901165378
7906,2.0,300.30756,20503.505,0.0,0.0,-0.07905999782535489,0.0,0.0,0.0,-1.7539067414971183,-1.7448888156071183,-2.7337578890508976,0.0014772150916397785,0.005397434841560345,-0.22281959410558178
7907,2.0,299.69131,20708.028000000002,0.0,0.0,-0.07907000224572913,0.0,0.0,0.0,-1.7885201755131983,-1.7609892583711084,-2.7452137960065075,-0.0061405953253795735,-0.013030378047498186,-0.21346528944738383
7908,2.0,300.06081,20871.903000000002,0.0,0.0,-0.07908000666610326,0.0,0.0,0.0,-1.8057585994644985,-1.7745400599084682,-2.764238782534127,-0.01078858753250069,-0.009345067971611403,-0.21118381499221983
7909,2.0,299.50117,20545.509,0.0,0.0,-0.0790900110864774,0.0,0.0,0.0,-1.7682588212135584,-1.7460737102740587,-2.7309891831526474,0.007468080017942112,-0.013706026386429489,-0.1986800959756988
7910,2.0,300.06118,20528.278000000002,0.0,0.0,-0.07910001550685153,0.0,0.0,0.0,-1.7595646287305082,-1.7603738102603683,-2.7201453805824474,-0.016495714667750284,-0.01704841929254798,-0.2100497753477988
7911,2.0,300.41275,20775.67,0.0,0.0,-0.07910998701794802,0.0,0.0,0.0,-1.8065865261212082,-1.7664526015852982,-2.7422455811635675,-0.003744403429668846,0.011473276088824189,-0.2112868118648848
7912,2.0,300.48016,20686.43,0.0,0.0,-0.07911999143832238,0.0,0.0,0.0,-1.7967082495712985,-1.7534410517511585,-2.738008979845447,-0.0018822546250390681,0.04208372271659006,-0.2210628413472038
7913,2.0,300.77441,20514.445,0.0,0.0,-0.07912999585869651,0.0,0.0,0.0,-1.7524323612766084,-1.7573352758604883,-2.7261112958462372,0.0030497771190145673,0.036150165594743565,-0.24213542394190576
7914,2.0,300.3128,20592.318,0.0,0.0,-0.07914000027907075,0.0,0.0,0.0,-1.7706320555977786,-1.7417019413925983,-2.7472165861541673,-0.003651960266070416,0.015381144624000786,-0.2105633107634808
7915,2.0,300.19954,20676.913,0.0,0.0,-0.07915000469944489,0.0,0.0,0.0,-1.7755234191305183,-1.7697726168629586,-2.739969314813918,0.0023003693403787777,-0.008209437321883381,-0.2174548603911238
7916,2.0,299.92012,20728.878,0.0,0.0,-0.07916000911981902,0.0,0.0,0.0,-1.7802952191514583,-1.7665259608925383,-2.754240030547327,0.006836690747353842,0.0059115732423768545,-0.20348822101272382
7917,2.0,299.92598,20795.988999999998,0.0,0.0,-0.07917001354019315,0.0,0.0,0.0,-1.7852329895387784,-1.7682285250355685,-2.7679997642553076,-7.410660755975272e-05,-0.01035680417463699,-0.2224280641344408
7918,2.0,299.46752999999995,20684.292,0.0,0.0,-0.07917998505128965,0.0,0.0,0.0,-1.7799053205129782,-1.7742168331265682,-2.7333862289142177,-0.004346351604026506,-0.0013591499740876589,-0.21500423396426577
7919,2.0,300.47297000000003,20616.859,0.0,0.0,-0.07918998947166378,0.0,0.0,0.0,-1.7642550647684183,-1.7603720877351983,-2.7423832818521574,-0.006053592706868084,-0.007428784861838984,-0.23052858325139977
7920,2.0,299.91967999999997,20750.264,0.0,0.0,-0.07919999389203802,0.0,0.0,0.0,-1.8020715850006181,-1.7648270444498684,-2.7406633911324176,-0.0007885005684289473,0.009457392115421931,-0.2034175164207458
7921,2.0,299.98458999999997,20749.303,0.0,0.0,-0.07920999831241238,0.0,0.0,0.0,-1.7869051561788085,-1.7729877607552682,-2.7473769836449975,-0.009680631174803911,-0.01974409215009018,-0.2186732632388708
7922,2.0,299.69738,20548.371,0.0,0.0,-0.07922000273278651,0.0,0.0,0.0,-1.7638727655056883,-1.7456152146038084,-2.7367035084166074,-0.003279540597115457,-0.002326075292765758,-0.20809050429193382
7923,2.0,299.77835,20506.747,0.0,0.0,-0.07923000715316064,0.0,0.0,0.0,-1.7512237565573283,-1.755641526993328,-2.7266737509767474,0.00928450935685973,0.007959639052205212,-0.23299378021469577
7924,2.0,299.54712,20793.797,0.0,0.0,-0.07924001157353466,0.0,0.0,0.0,-1.7925689202627786,-1.7609882451210086,-2.767238002830127,0.005540153955245625,0.03031492818310047,-0.2148898380279758
7925,2.0,299.45644,20814.808999999997,0.0,0.0,-0.0792500159939088,0.0,0.0,0.0,-1.782166489436138,-1.7805669728282785,-2.7644487279548473,0.015947485568644285,-0.0027627385644360676,-0.23334352375171277
7926,2.0,299.41067000000004,20751.078999999998,0.0,0.0,-0.0792599875050054,0.0,0.0,0.0,-1.8040029410162282,-1.7488137411944784,-2.7549930780216476,-0.007721060906184383,-0.01075855783928699,-0.20691829551624583
7927,2.0,299.68921,20804.332,0.0,0.0,-0.07926999192537965,0.0,0.0,0.0,-1.7931957167746382,-1.7666492734297086,-2.764152250975587,0.027005003863186376,-0.016304308684109984,-0.20147240046877782
7928,2.0,300.33442,20724.197,0.0,0.0,-0.07927999634575378,0.0,0.0,0.0,-1.7920636124379083,-1.7504538891313481,-2.7571208019066376,0.004002121768753666,-0.0040309030365191555,-0.19267083387263081
7929,2.0,300.51487000000003,20726.462,0.0,0.0,-0.07929000076612791,0.0,0.0,0.0,-1.7741987972747884,-1.7610598819030785,-2.765068330390997,0.0059539058183047545,-0.028215980600950475,-0.2117057401187298
7930,2.0,300.10746,20827.686999999998,0.0,0.0,-0.07930000518650226,0.0,0.0,0.0,-1.7983957162878383,-1.7605066473484785,-2.772194315694277,-0.017257730418705382,-0.007225541887880463,-0.2052175754883978
7931,2.0,299.94437,20692.683,0.0,0.0,-0.0793100096068764,0.0,0.0,0.0,-1.7767704260285884,-1.7711912683279682,-2.742097241348927,-0.008829565432185263,0.01030698266721999,-0.2225551966244878
7932,2.0,300.39592999999996,20544.918,0.0,0.0,-0.07932001402725042,0.0,0.0,0.0,-1.7664923209892183,-1.7551814101229184,-2.7234684356104073,-0.008000796055367092,0.024072595252280178,-0.22248504932006477
7933,2.0,300.03215,20777.889,0.0,0.0,-0.07932998553834714,0.0,0.0,0.0,-1.7799127172387081,-1.7820475338743982,-2.753999079673547,-0.006612033847106933,-0.0015471305644398983,-0.23185542412484877
7934,2.0,300.30791,21008.284,0.0,0.0,-0.07933998995872127,0.0,0.0,0.0,-1.8206363533328183,-1.782123223656868,-2.7832341821588273,0.008463002956758362,0.0034312728744152667,-0.20794036089211582
7935,2.0,300.38822000000005,20817.573,0.0,0.0,-0.0793499943790954,0.0,0.0,0.0,-1.7803212596790285,-1.7790864117821583,-2.7686148070660077,0.015752628455163384,0.007127461000725633,-0.22013753122338278
7936,2.0,300.08781,20698.413,0.0,0.0,-0.07935999879946953,0.0,0.0,0.0,-1.7586725633424682,-1.7782626394508583,-2.754865408509047,0.012066722486892788,0.013702139559045886,-0.19973386594719783
7937,2.0,300.45374,20794.82,0.0,0.0,-0.07937000321984367,0.0,0.0,0.0,-1.7854814384632984,-1.771333832617038,-2.7642906609392472,0.0012570839742895288,-0.02433490949116858,-0.22195709535545982
7938,2.0,300.85296,20843.218999999997,0.0,0.0,-0.07938000764021791,0.0,0.0,0.0,-1.8074408986055284,-1.7693395537702183,-2.7590378710958374,-0.02205308850447038,-0.0077348597513462215,-0.20065606539321182
7939,2.0,299.8177,20705.982,0.0,0.0,-0.07939001206059204,0.0,0.0,0.0,-1.7740210732072481,-1.7748536608144183,-2.745226765607787,-0.0028827178127520973,0.005976458333730514,-0.23551560772608077
7940,2.0,300.25932,20736.479,0.0,0.0,-0.07939998357168876,0.0,0.0,0.0,-1.7904521394788682,-1.7599814798216484,-2.7529382068188473,0.0016585532196364582,0.005033575514750225,-0.18918150450326082
7941,2.0,299.42036,20676.982,0.0,0.0,-0.07940998799206289,0.0,0.0,0.0,-1.7594986661489984,-1.7754678930250385,-2.750319867235437,0.004327191551260556,-0.012513828212768687,-0.2375497275668328
7942,2.0,299.96441,20868.334,0.0,0.0,-0.0794199924124368,0.0,0.0,0.0,-1.7946486160930282,-1.7765261314294782,-2.7722776048524973,-0.0014547492090975687,-0.008997217895056272,-0.2073629299251278
7943,2.0,299.68767,21029.971,0.0,0.0,-0.07942999683281116,0.0,0.0,0.0,-1.8310512471356881,-1.7892168862819582,-2.772318033531487,0.017328142181404483,0.0001985016930305918,-0.22469342791301478
7944,2.0,300.34212,20806.091,0.0,0.0,-0.07944000125318529,0.0,0.0,0.0,-1.7957825442799382,-1.7630679409512584,-2.7656815493515174,0.007383983704692453,0.014905016375510588,-0.2001185159501598
7945,2.0,299.46931,20596.395,0.0,0.0,-0.07945000567355953,0.0,0.0,0.0,-1.7666388369536785,-1.7488646063494984,-2.745286446038677,-0.004582688947451186,-0.011563747163752988,-0.2178251526401688
7946,2.0,300.44401,20857.08,0.0,0.0,-0.07946001009393366,0.0,0.0,0.0,-1.8159325423935884,-1.7575231324290286,-2.7665757425647675,-0.005754807949180324,0.014648802915474286,-0.19395181504655382
7947,2.0,300.28382999999997,20918.587,0.0,0.0,-0.0794700145143078,0.0,0.0,0.0,-1.7990115696986184,-1.7852079622613084,-2.774508578922677,-0.0043687798949900054,0.011527224563898488,-0.2062868177889238
7948,2.0,300.61318,20673.566000000003,0.0,0.0,-0.07947998602540451,0.0,0.0,0.0,-1.7727153991283884,-1.7637590788444684,-2.747773265759107,-0.010395514381457392,0.009031458250385533,-0.2271799740559178
7949,2.0,300.38189,20732.117,0.0,0.0,-0.07948999044577842,0.0,0.0,0.0,-1.778718196695818,-1.7788432317581586,-2.7444843572595174,-0.02006488307874978,-0.026640356430448476,-0.2274786903178988
7950,2.0,300.5438,20927.924,0.0,0.0,-0.07949999486615256,0.0,0.0,0.0,-1.8120489574103085,-1.7803178146286882,-2.7691996550237272,-0.004879320447351436,-0.01322529595598509,-0.23243337184938778
7951,2.0,300.16379,20869.681,0.0,0.0,-0.0795099992865268,0.0,0.0,0.0,-1.8034917563407784,-1.7786133253104681,-2.761756826414177,0.006223082901445464,0.003356273115263367,-0.23043327694699378
7952,2.0,300.42635,20802.723,0.0,0.0,-0.07952000370690115,0.0,0.0,0.0,-1.7867097002345185,-1.7718461318675982,-2.7649527185545875,0.016224709782754185,0.012280376402978788,-0.22658874262256778
7953,2.0,300.41519,20801.893,0.0,0.0,-0.07953000812727529,0.0,0.0,0.0,-1.7680754229454585,-1.777250503925968,-2.7779302231853675,0.011493850132104688,-0.019347402709439982,-0.21676560714309978
7954,2.0,300.09115,20700.541,0.0,0.0,-0.07954001254764942,0.0,0.0,0.0,-1.7834170427095586,-1.7729851263050083,-2.7360453011516475,0.0007154290140848464,-0.00928449395545821,-0.2101164472043788
7955,2.0,299.99953999999997,20779.596,0.0,0.0,-0.07954998405874592,0.0,0.0,0.0,-1.7856758811574882,-1.7720420944369382,-2.7587603418934474,0.013543403798379886,0.007201128741296073,-0.2089469539389588
7956,2.0,299.50081,20971.933999999997,0.0,0.0,-0.07955998847912027,0.0,0.0,0.0,-1.8206564156847982,-1.7747740193565587,-2.7795139330916676,0.00863520683775356,0.006038985085476425,-0.19712047102427582
7957,2.0,299.68687,20900.148999999998,0.0,0.0,-0.07956999289949429,0.0,0.0,0.0,-1.8003159265523483,-1.7666365064784484,-2.7861709862486674,-0.007202385576720114,-0.007525256099884953,-0.2063487881650398
7958,2.0,299.68948,20864.485,0.0,0.0,-0.07957999731986842,0.0,0.0,0.0,-1.8124557773254586,-1.7651238254041584,-2.764703053729947,-0.00976347561755502,0.008319668698937372,-0.2091306764470908
7959,2.0,300.16271,20982.112999999998,0.0,0.0,-0.07959000174024256,0.0,0.0,0.0,-1.8015623255003583,-1.788875724973288,-2.787600378164737,-0.0012008602461156786,0.017414974675224185,-0.23048279447938078
7960,2.0,300.76099,20916.278000000002,0.0,0.0,-0.07960000616061669,0.0,0.0,0.0,-1.8218191201745484,-1.7732028737514984,-2.763004441262307,0.0013513303177659188,0.003185702796079387,-0.2195075429737078
7961,2.0,300.42815,20676.082,0.0,0.0,-0.07961001058099104,0.0,0.0,0.0,-1.7628317523529482,-1.7644533578129882,-2.757727637391527,-0.026661537410538876,-0.02695120332262668,-0.23360121351714477
7962,2.0,300.20912000000004,20746.028000000002,0.0,0.0,-0.07962001500136506,0.0,0.0,0.0,-1.7952340720008084,-1.7761889217961981,-2.734851489883827,-0.006486835043550774,-0.0038181087618179965,-0.2194058937236758
7963,2.0,300.21287,20815.256,0.0,0.0,-0.07962998651246167,0.0,0.0,0.0,-1.7899089361002585,-1.7664336538084284,-2.770975477148987,0.0028833730815917675,0.027761428500089672,-0.2109768485267938
7964,2.0,300.1997,20778.039,0.0,0.0,-0.07963999093283591,0.0,0.0,0.0,-1.7791221795106882,-1.7846822881094282,-2.752200560746047,0.016825236772521585,0.019740921690527283,-0.23971255043528675
7965,2.0,299.89474,20894.808999999997,0.0,0.0,-0.07964999535321005,0.0,0.0,0.0,-1.7845764034739784,-1.7884293883042381,-2.7784944008410473,-0.011925704417475388,-0.015429161532989684,-0.2149464280460608
7966,2.0,300.22969,21045.68,0.0,0.0,-0.07965999977358418,0.0,0.0,0.0,-1.8125323790330183,-1.7918691697437181,-2.7929596605936577,0.003170858682114387,-0.01911438355744278,-0.2137447640899658
7967,2.0,299.99265,20910.898999999998,0.0,0.0,-0.07967000419395831,0.0,0.0,0.0,-1.7763291556100385,-1.7949277664955783,-2.7851343300713576,-0.0007448655810875092,-0.006711066986705744,-0.20386923344782681
7968,2.0,300.08049,20827.53,0.0,0.0,-0.07968000861433244,0.0,0.0,0.0,-1.7806189525584084,-1.7721404810216483,-2.778289622995837,0.0076949910956864934,-0.01878120564631068,-0.22044006743824077
7969,2.0,299.92174,20898.561999999998,0.0,0.0,-0.07969001303470669,0.0,0.0,0.0,-1.8036420213306084,-1.7633966392836982,-2.7856024516175575,-0.005135918435800685,-0.005473346728452265,-0.2044471001123578
7970,2.0,299.78386,20859.685,0.0,0.0,-0.07969998454580329,0.0,0.0,0.0,-1.799755801897068,-1.7787520392491585,-2.7623154311943074,0.005209946184131655,0.024541280165535775,-0.2359405344205178
7971,2.0,299.68269,20810.0,0.0,0.0,-0.07970998896617754,0.0,0.0,0.0,-1.7912820926357784,-1.7764453753965084,-2.7579929062677073,-0.0062059678913563435,0.04795322014061436,-0.22498068431636478
7972,2.0,299.40424,20885.336,0.0,0.0,-0.07971999338655167,0.0,0.0,0.0,-1.8168857067626583,-1.7851617580567483,-2.7465730710156575,-0.005387542176859016,0.0034992893138779666,-0.2238040577702408
7973,2.0,299.77555,20884.949,0.0,0.0,-0.07972999780692558,0.0,0.0,0.0,-1.7916877979758181,-1.7765033333022284,-2.780311968870427,-0.01944529584135128,-0.022494860481819878,-0.2102371050262868
7974,2.0,300.17519,20879.341,0.0,0.0,-0.07974000222729993,0.0,0.0,0.0,-1.8064811481108085,-1.756956624298118,-2.7833606357713077,0.013333054090869989,-0.01092065455053469,-0.18969463461890282
7975,2.0,300.03895,21078.786,0.0,0.0,-0.07975000664767407,0.0,0.0,0.0,-1.811884202944048,-1.7927668080073083,-2.8027736970872272,0.009333284987523512,0.005501715502102046,-0.2026568290406718
7976,2.0,300.12782999999996,21068.01,0.0,0.0,-0.07976001106804831,0.0,0.0,0.0,-1.8218315831507783,-1.7738365603640383,-2.8084807269504677,0.013383932418141288,-0.0013785183510741689,-0.2055730134909768
7977,2.0,300.01452,20862.818,0.0,0.0,-0.07977001548842244,0.0,0.0,0.0,-1.7900474473889283,-1.7713786182714584,-2.7803495604491375,-0.004915887832860355,-0.008123665599593374,-0.23460775590148275
7978,2.0,300.16587000000004,20903.483,0.0,0.0,-0.07977998699951916,0.0,0.0,0.0,-1.8092083107549581,-1.7737907614595185,-2.7711379011400172,0.019968350741722783,0.015525450689992684,-0.21393118184336382
7979,2.0,300.601,20877.458,0.0,0.0,-0.07978999141989329,0.0,0.0,0.0,-1.7724534739775384,-1.7853610643514184,-2.7884114848697874,-0.004725031030774256,0.009159892868136042,-0.2280235858241758
7980,2.0,300.04319,20699.102,0.0,0.0,-0.0797999958402672,0.0,0.0,0.0,-1.7662399203893084,-1.7762084775231286,-2.7495616521856077,-0.011320064567703389,-0.02450375850108268,-0.2234846306762158
7981,2.0,299.77002999999996,20867.933999999997,0.0,0.0,-0.07981000026064133,0.0,0.0,0.0,-1.7797945722770485,-1.7902766445615481,-2.7732598494994374,-0.027923278991563077,-0.012764807222788386,-0.22903080708608078
7982,2.0,299.98836,21131.583,0.0,0.0,-0.07982000468101558,0.0,0.0,0.0,-1.8349141618169282,-1.8029664874889384,-2.785593028391627,0.0024702629098209677,0.012426724167922188,-0.2297740564319338
7983,2.0,299.5515,21011.658,0.0,0.0,-0.07983000910138993,0.0,0.0,0.0,-1.8236636406565883,-1.7992269866698785,-2.7641286422482576,-0.003053212847453647,0.011784129060502989,-0.23693877828653676
7984,2.0,299.45635,20996.381,0.0,0.0,-0.07984001352176406,0.0,0.0,0.0,-1.8074718027335783,-1.7943147501850785,-2.780589092772777,-0.0014179867729443986,-0.018580434191996086,-0.22527364531777777
7985,2.0,299.72238,21046.512000000002,0.0,0.0,-0.07984998503286056,0.0,0.0,0.0,-1.7995162695734284,-1.7872285856107284,-2.8108694640612177,-0.002584778916247818,-0.018964672815417482,-0.1992509002870328
7986,2.0,299.97097,21047.534,0.0,0.0,-0.07985998945323469,0.0,0.0,0.0,-1.8050728317968183,-1.7836879857862984,-2.8091638601678874,0.027232051932344275,-0.004915679204664766,-0.19828896117209682
7987,2.0,300.4219,20944.561999999998,0.0,0.0,-0.07986999387360905,0.0,0.0,0.0,-1.7824317583123184,-1.7840396848960085,-2.8001523177535175,0.015843710519902486,0.004863557822170785,-0.2025570543033248
7988,2.0,300.39781,20906.897,0.0,0.0,-0.07987999829398307,0.0,0.0,0.0,-1.8052946322437082,-1.7729531076018485,-2.776926902936347,0.011430372039839888,-0.016734602564326684,-0.2325134996672958
7989,2.0,300.66475,20814.792,0.0,0.0,-0.0798900027143572,0.0,0.0,0.0,-1.7994341963153282,-1.7662349554638181,-2.7615079721896176,-0.015166385252055685,0.007116697447563353,-0.2248879314022108
7990,2.0,300.41799,20796.321,0.0,0.0,-0.07990000713473133,0.0,0.0,0.0,-1.7912183592044884,-1.7747978307339083,-2.7555461099262275,0.002948966130790297,0.009183069241648372,-0.24156924005102778
7991,2.0,299.70754,21111.077999999998,0.0,0.0,-0.07991001155510546,0.0,0.0,0.0,-1.8122688326820084,-1.8008290364029882,-2.8041426992973375,-0.004391941880350916,-0.007718909776222083,-0.2264508494164588
7992,2.0,299.54559,21020.155,0.0,0.0,-0.07992001597547982,0.0,0.0,0.0,-1.8047740243423283,-1.7822658892709484,-2.8025622317913577,0.0014482329977044686,-0.024560279618160874,-0.20905646600976682
7993,2.0,299.86679,20844.188000000002,0.0,0.0,-0.07992998748657631,0.0,0.0,0.0,-1.7671757581816685,-1.7841953201113683,-2.7847415943325973,-0.012614019395906787,-0.0065055781439005735,-0.2127293152372488
7994,2.0,300.21033,21099.078999999998,0.0,0.0,-0.07993999190695045,0.0,0.0,0.0,-1.8386282300584784,-1.784583597549688,-2.790381243064187,-0.004739821645133975,0.012819487264434886,-0.21451799550627781
7995,2.0,300.37052,21215.359,0.0,0.0,-0.07994999632732469,0.0,0.0,0.0,-1.8462810040887483,-1.7949545162982183,-2.8077040707488177,-0.014302148778012187,0.030782466097242868,-0.21815945424566183
7996,2.0,300.46645,20938.29,0.0,0.0,-0.07996000074769882,0.0,0.0,0.0,-1.7857231999371583,-1.7939365039227484,-2.7850577283637974,-0.006607453450029883,0.01307368030377179,-0.2305088451394518
7997,2.0,300.47467,20874.429,0.0,0.0,-0.07997000516807296,0.0,0.0,0.0,-1.7708035988397084,-1.7798109869286682,-2.794690595739487,-0.014291011132912987,0.009974896229095611,-0.2065916135515048
7998,2.0,300.31867,20977.729,0.0,0.0,-0.07998000958844709,0.0,0.0,0.0,-1.7858580635254682,-1.8028105482985481,-2.7880373929328672,0.005386423751398635,-0.0006715460844439384,-0.21536876082024178
7999,2.0,300.05192999999997,20928.473,0.0,0.0,-0.07999001400882122,0.0,0.0,0.0,-1.7763985632418882,-1.8037387867151582,-2.7815957567471274,0.013103151696180386,-0.015498187169551984,-0.21725000148590579
8000,2.0,300.38873,20921.09,0.0,0.0,-0.07999998551991794,0.0,0.0,0.0,-1.8161800793930183,-1.7842972530714283,-2.7590117292432574,0.02304147952651698,-0.020955453922892282,-0.22669695773324777
8001,2.0,300.61032,20986.542999999998,0.0,0.0,-0.08000998994029207,0.0,0.0,0.0,-1.812513329931138,-1.7868470969480783,-2.7800245098170575,0.014350075507742187,-0.008830846990911743,-0.22831330442526876
8002,2.0,300.57886,21004.81,0.0,0.0,-0.08001999436066631,0.0,0.0,0.0,-1.8158325346087183,-1.7841058501275384,-2.7849992638330274,-0.010703204999574091,0.008683423255687153,-0.2292362435438558
8003,2.0,299.9307,21074.546000000002,0.0,0.0,-0.08002999878104045,0.0,0.0,0.0,-1.8246147785254585,-1.7826159671804982,-2.7989051082054273,-0.024111668202636376,0.013148056914112189,-0.2086011316798288
8004,2.0,299.53594,21260.581000000002,0.0,0.0,-0.08004000320141436,0.0,0.0,0.0,-1.8403105291995083,-1.8005672125771484,-2.821808106840777,-0.02331877770788418,0.005430237496322714,-0.1897942371037328
8005,2.0,299.6504,21109.867000000002,0.0,0.0,-0.08005000762178871,0.0,0.0,0.0,-1.8210770158013083,-1.7780997088347783,-2.8176957299849175,-0.012660455634739687,0.01984340281889138,-0.18399475830136883
8006,2.0,300.36202000000003,20956.263,0.0,0.0,-0.08006001204216284,0.0,0.0,0.0,-1.8259134611786283,-1.7847051875616882,-2.7595619240475573,0.002062850142037458,0.014683839077432087,-0.22121139394436476
8007,2.0,300.40277000000003,21079.39,0.0,0.0,-0.08006998355325934,0.0,0.0,0.0,-1.8155576398565882,-1.797991429497938,-2.794059239602177,-0.0018633739253256882,-0.0005371286605504715,-0.2273149693667408
8008,2.0,299.82881000000003,21015.317000000003,0.0,0.0,-0.08007998797363358,0.0,0.0,0.0,-1.8065109376637483,-1.7917339008553683,-2.7898867770153872,0.005132424242830835,-0.0018034282255595083,-0.23856389972442377
8009,2.0,300.07585,20954.806,0.0,0.0,-0.08008999239400794,0.0,0.0,0.0,-1.7906844777267983,-1.7902520225841183,-2.788801484833277,0.02109928781433758,0.004923627442424196,-0.2203476590291208
8010,2.0,300.44406000000004,21038.549,0.0,0.0,-0.08009999681438207,0.0,0.0,0.0,-1.7912352804811584,-1.7935573457353282,-2.8104008358899675,0.01033362709184959,-0.00011280264103775387,-0.22828027247200877
8011,2.0,301.05106,21090.897,0.0,0.0,-0.0801100012347562,0.0,0.0,0.0,-1.8156570396913982,-1.8045285138430984,-2.7909204947674073,-0.011608308889900887,-0.011470438988544189,-0.21041420087876478
8012,2.0,300.86739,21064.301,0.0,0.0,-0.08012000565513011,0.0,0.0,0.0,-1.8291485660979083,-1.7792446814477785,-2.794628179533327,-0.02118715483650938,-0.022782050010663274,-0.21404777653237078
8013,2.0,300.27571,21175.916,0.0,0.0,-0.08013001007550435,0.0,0.0,0.0,-1.8221223859294784,-1.8017193792658581,-2.8131077335321177,-0.017679803800860785,-0.016028507073140484,-0.2140796331155148
8014,2.0,300.58209,21279.068,0.0,0.0,-0.08014001449587871,0.0,0.0,0.0,-1.8329445049475384,-1.8180822538057484,-2.8172786762437574,-0.011188103940929887,-0.0040303320700878055,-0.22776388982354578
8015,2.0,300.22179,20985.07,0.0,0.0,-0.0801499860069752,0.0,0.0,0.0,-1.7987432610721383,-1.7838803006552786,-2.796313619749667,-0.006915803389986655,-0.013105346395896987,-0.2226393470452928
8016,2.0,299.69831,20909.183,0.0,0.0,-0.08015999042734934,0.0,0.0,0.0,-1.7753874409670982,-1.7988940326870184,-2.7815879547213576,0.0018374773805948982,-0.0026592519879977375,-0.2202497081419538
8017,2.0,299.96371,21037.134,0.0,0.0,-0.08016999484772347,0.0,0.0,0.0,-1.8143515682625584,-1.7863813058771083,-2.7940305646243475,0.01899970289787468,0.008140973228526503,-0.2085192408067468
8018,2.0,299.79004,20987.892000000003,0.0,0.0,-0.0801799992680976,0.0,0.0,0.0,-1.800666004461898,-1.7955183899788683,-2.7836107058959874,0.017887785542886985,0.003161333320574307,-0.2090695977310628
8019,2.0,299.46758,21044.368,0.0,0.0,-0.08019000368847184,0.0,0.0,0.0,-1.795579387634888,-1.8096360036221684,-2.791747104198987,0.0049718895579372955,-0.008273460948002022,-0.24463226470582478
8020,2.0,299.49021,21271.004,0.0,0.0,-0.08020000810884598,0.0,0.0,0.0,-1.8411617606085182,-1.7994820217200485,-2.8252103980265577,-0.008495573171947792,-0.002125944111189348,-0.2050828638876028
8021,2.0,299.89201,21232.639,0.0,0.0,-0.08021001252922011,0.0,0.0,0.0,-1.838805143525938,-1.8031465420317085,-2.8122402901215073,0.0005533904937903895,0.004847724168158126,-0.21548543656925678
8022,2.0,300.4137,21152.389,0.0,0.0,-0.08021998404031683,0.0,0.0,0.0,-1.8232487147406382,-1.8080946475700483,-2.7984546172109677,-0.0006735512151993294,0.01089051947931059,-0.2182294698275718
8023,2.0,300.59067000000005,21181.397,0.0,0.0,-0.08022998846069096,0.0,0.0,0.0,-1.8392891730987082,-1.7963002137560282,-2.8030265029871773,0.006845256966349264,0.0004277584042264676,-0.2152891294948828
8024,2.0,300.54501,21109.542,0.0,0.0,-0.08023999288106509,0.0,0.0,0.0,-1.8157180373474182,-1.8009394806638883,-2.800116043399937,-0.008474354802928701,-0.0023371368427824476,-0.2176334963837538
8025,2.0,300.39931,20987.206000000002,0.0,0.0,-0.08024999730143922,0.0,0.0,0.0,-1.7893583359959184,-1.7963184522578282,-2.7939098865374374,-0.013117427376839288,-0.0027171660199884072,-0.23382276065150975
8026,2.0,300.1982,21096.911,0.0,0.0,-0.08026000172181347,0.0,0.0,0.0,-1.8075348268897982,-1.8055859416474582,-2.7998131829450474,-0.016773285413394384,-0.0011443571648892589,-0.25033374195851676
8027,2.0,300.50894,21171.308999999997,0.0,0.0,-0.0802700061421876,0.0,0.0,0.0,-1.8184143971885283,-1.8132959643083781,-2.8038389269173574,-0.008222280165575873,-4.931126506414295e-05,-0.2305545224539598
8028,2.0,300.3392,20960.503,0.0,0.0,-0.08028001056256173,0.0,0.0,0.0,-1.7958179067084283,-1.7790184227004482,-2.7966334014812273,0.0008877718218012572,0.013646077444262987,-0.2261918728233998
8029,2.0,299.61527,20983.914,0.0,0.0,-0.08029001498293586,0.0,0.0,0.0,-1.8127705941315284,-1.7790891475574286,-2.7867262473034673,0.008536470783084072,0.003195002000197147,-0.2116484509580758
8030,2.0,300.19554,21242.092999999997,0.0,0.0,-0.08029998649403236,0.0,0.0,0.0,-1.8230745370484485,-1.8108413659411284,-2.8231498526231973,0.011052377063534688,0.002253786889556448,-0.20951127344965279
8031,2.0,299.6518,21142.127,0.0,0.0,-0.08030999091440671,0.0,0.0,0.0,-1.8000811565041783,-1.807559347542218,-2.8190380837173974,0.006666397653397223,-0.009224067873819622,-0.2124308016252878
8032,2.0,299.95814,21109.189,0.0,0.0,-0.08031999533478085,0.0,0.0,0.0,-1.8171697207656883,-1.8065522782678283,-2.7929444618421573,0.005170240965713055,0.0053135867745851845,-0.2208102786272778
8033,2.0,300.10264,21298.297000000002,0.0,0.0,-0.08032999975515509,0.0,0.0,0.0,-1.8446067096235086,-1.8091240083466384,-2.8204197515537572,-0.007892779845681723,0.014067618870115886,-0.2171851940095098
8034,2.0,299.7749,21224.904,0.0,0.0,-0.08034000417552922,0.0,0.0,0.0,-1.857668111362568,-1.8084109842512683,-2.7857617345332772,-0.017438458772791883,0.013885530734395185,-0.22305752549406377
8035,2.0,300.49461,21058.078999999998,0.0,0.0,-0.08035000859590313,0.0,0.0,0.0,-1.8219509440125583,-1.8030157314437985,-2.7761633176609872,-0.006141271163196274,0.01073411926012509,-0.23914916311468476
8036,2.0,300.85468,21107.877999999997,0.0,0.0,-0.08036001301627749,0.0,0.0,0.0,-1.8138568995637383,-1.7830397083723184,-2.8193711390252676,-0.007540191507683963,-0.00095928147138121,-0.2092721970885578
8037,2.0,300.66839,21122.744,0.0,0.0,-0.08036998452737398,0.0,0.0,0.0,-1.8028324345007083,-1.7930453504597983,-2.8249089561218073,0.006402378215915534,-0.009197554867727992,-0.21723028363895983
8038,2.0,300.73832000000004,21045.013,0.0,0.0,-0.08037998894774812,0.0,0.0,0.0,-1.8124225427221783,-1.7716166307199481,-2.8131190819332375,-0.008499436897229113,-0.005567824802226525,-0.2109255274092288
8039,2.0,300.32095,21149.07,0.0,0.0,-0.08038999336812236,0.0,0.0,0.0,-1.8099083652490482,-1.8020148429950182,-2.8168659794780275,0.022952246643210376,0.0008374014874675921,-0.22425834845257578
8040,2.0,299.71362999999997,21240.277000000002,0.0,0.0,-0.08039999778849671,0.0,0.0,0.0,-1.8405133818695283,-1.7927593099565682,-2.8232410451321974,0.010727893851510689,0.0053545492337278644,-0.1973139612633718
8041,2.0,299.95302000000004,21236.072,0.0,0.0,-0.08041000220887085,0.0,0.0,0.0,-1.8308049260363781,-1.8007697612721383,-2.823660834648627,0.02161376149961218,0.003767984292621096,-0.21110745646468382
8042,2.0,299.58912999999995,21330.251,0.0,0.0,-0.08042000662924476,0.0,0.0,0.0,-1.8197585747711882,-1.8357711687515084,-2.8283338427848177,-0.013668788432004387,-0.007850925422476012,-0.23057489891347077
8043,2.0,299.69867999999997,21339.055,0.0,0.0,-0.080430011049619,0.0,0.0,0.0,-1.8298793220700282,-1.8236751917077283,-2.8329855726689073,-0.004019013559845757,-0.014124817851510988,-0.21084518680879982
8044,2.0,300.12641,21062.278,0.0,0.0,-0.08044001546999313,0.0,0.0,0.0,-1.7929165663720883,-1.8136055122139283,-2.7958844070073074,-0.02311548427407068,-0.003932407324773387,-0.2351419413542028
8045,2.0,300.06232,20990.058999999997,0.0,0.0,-0.08044998698108974,0.0,0.0,0.0,-1.8066208752995983,-1.7894860055085182,-2.7843470347436576,0.007800829830906963,0.004963149769199746,-0.21727006383788577
8046,2.0,300.75158,21218.556,0.0,0.0,-0.08045999140146398,0.0,0.0,0.0,-1.8541142379618283,-1.7870546105685583,-2.808742246801277,-0.009386872644237201,0.008465765279180982,-0.22695075661829578
8047,2.0,300.4721,21218.433999999997,0.0,0.0,-0.08046999582183811,0.0,0.0,0.0,-1.8371108880337281,-1.8012305874176182,-2.811532737576677,-0.0012878102769469787,0.01015456654742769,-0.2224930945258588
8048,2.0,299.92771,21051.331000000002,0.0,0.0,-0.08048000024221225,0.0,0.0,0.0,-1.7900205962612783,-1.7870710252201782,-2.8219873507834676,-0.007956905404760422,0.002927240630096157,-0.22001173622346776
8049,2.0,299.39968,21190.01,0.0,0.0,-0.08049000466258638,0.0,0.0,0.0,-1.8239422844340882,-1.794917228694538,-2.8223743109966573,0.012306448341301887,-0.0008321848909177543,-0.20103037011265282
8050,2.0,299.93712,21375.757999999998,0.0,0.0,-0.08050000908296062,0.0,0.0,0.0,-1.8383328676543282,-1.8276625335012482,-2.8317013794921673,0.0042958275089901654,-0.005449582365906905,-0.2085011542924618
8051,2.0,300.09822,21231.914,0.0,0.0,-0.08051001350333475,0.0,0.0,0.0,-1.8410784714502981,-1.8145030491525083,-2.7983900731795974,0.01903204685431678,-0.015422967535128385,-0.22182880776029879
8052,2.0,299.74105,21187.986,0.0,0.0,-0.08051998501443125,0.0,0.0,0.0,-1.847753155159038,-1.8017570721695781,-2.791108655310977,0.017979226298161483,-0.0027709402160455074,-0.20833372484593782
8053,2.0,299.64327000000003,21171.387000000002,0.0,0.0,-0.0805299894348056,0.0,0.0,0.0,-1.823226423238438,-1.7976045706097585,-2.8147418019683874,0.015626752395240386,0.00022500024004329478,-0.22737172150484178
8054,2.0,300.20995,21063.243,0.0,0.0,-0.08053999385517974,0.0,0.0,0.0,-1.810914218623318,-1.794133986367238,-2.797651717831727,0.0036484104456700763,0.009352545149399342,-0.22746871993691478
8055,2.0,300.40879,21216.778,0.0,0.0,-0.08054999827555387,0.0,0.0,0.0,-1.8273537961957784,-1.805798521518438,-2.8162184113391175,-0.015374796612124287,0.014933601174081686,-0.23472214170527178
8056,2.0,299.97679,21209.578999999998,0.0,0.0,-0.080560002695928,0.0,0.0,0.0,-1.8268842560994383,-1.8016150145055583,-2.818683243532377,-0.016416923326724182,0.015097160005223684,-0.22288882948491479
8057,2.0,300.10351,21030.458,0.0,0.0,-0.08057000711630224,0.0,0.0,0.0,-1.8109476558766182,-1.7935101282806682,-2.7882764186314573,-0.020932340674861178,0.003831301075469976,-0.24088843730883777
8058,2.0,300.00181000000003,21218.136000000002,0.0,0.0,-0.08058001153667638,0.0,0.0,0.0,-1.8293337882161882,-1.8127677570312484,-2.8076821845466573,-0.022703415723402683,-0.0009523930020338711,-0.2219472668294898
8059,2.0,300.34848999999997,21446.762000000002,0.0,0.0,-0.08059001595705051,0.0,0.0,0.0,-1.8482104349291684,-1.8302284880544883,-2.840841098044187,0.006325816329084463,-0.001133134406781659,-0.22000226233503278
8060,2.0,300.30069,21247.807,0.0,0.0,-0.080599987468147,0.0,0.0,0.0,-1.816438660818538,-1.8198878654839483,-2.8224762439567175,0.004215496838412146,-0.0002640421038864268,-0.20940687829184979
8061,2.0,299.94901,21046.497000000003,0.0,0.0,-0.08060999188852114,0.0,0.0,0.0,-1.7890210250376282,-1.8016160277556585,-2.806972605501627,0.015079876998267985,-0.010947250339159489,-0.21196862785717482
8062,2.0,299.79652999999996,21273.875,0.0,0.0,-0.08061999630889549,0.0,0.0,0.0,-1.8098253800658581,-1.8373887212111484,-2.819512588739227,0.01170419679986429,-0.008913090171053512,-0.22533100540593878
8063,2.0,299.81325,21258.76,0.0,0.0,-0.08063000072926962,0.0,0.0,0.0,-1.8588342609026582,-1.8084007504252584,-2.794896994784857,0.01995342151474938,0.010707607571258592,-0.22223410780029879
8064,2.0,300.17989,21163.979,0.0,0.0,-0.08064000514964387,0.0,0.0,0.0,-1.8193001804259483,-1.8021795974612784,-2.811841474882147,0.005335926710139965,0.0007011843895415113,-0.2234107140814208
8065,2.0,299.85618,21248.876,0.0,0.0,-0.08065000957001778,0.0,0.0,0.0,-1.8269570074566184,-1.8122428934794483,-2.8199278186302075,-0.008779085616178291,-0.001242526508777819,-0.2185056716723308
8066,2.0,299.3243,21309.084,0.0,0.0,-0.08066001399039191,0.0,0.0,0.0,-1.8320688542111183,-1.8013689973812783,-2.8439916979051274,-0.02065349728709148,0.004908233538954935,-0.22828941198791078
8067,2.0,299.60128,21229.979,0.0,0.0,-0.08066998550148863,0.0,0.0,0.0,-1.8160613264812984,-1.8091320130224284,-2.828190062595627,-0.01058871483102479,0.011100506443284688,-0.22873774475965777
8068,2.0,299.7071,21268.832000000002,0.0,0.0,-0.08067998992186276,0.0,0.0,0.0,-1.8375013946222682,-1.8079290825037082,-2.8197632668139674,-0.007299970173975963,0.01096396187305879,-0.22323823864939876
8069,2.0,299.5776,21245.452999999998,0.0,0.0,-0.08068999434223689,0.0,0.0,0.0,-1.8378926104858782,-1.7932134486513882,-2.8269811539013174,0.0013322840529861987,-0.007343476397494692,-0.2095180723578238
8070,2.0,300.17303,21097.142999999996,0.0,0.0,-0.08069999876261114,0.0,0.0,0.0,-1.8136783648961183,-1.8083551541707583,-2.7909711572724074,0.005964926534342415,-0.009424900325790242,-0.2249365876720128
8071,2.0,300.43079,21182.292,0.0,0.0,-0.08071000318298549,0.0,0.0,0.0,-1.8199221133373282,-1.795020073579688,-2.823945557926727,0.008324781964242012,-0.01169488705794549,-0.22164638221229477
8072,2.0,300.23719,21351.615,0.0,0.0,-0.08072000760335962,0.0,0.0,0.0,-1.8512736926314879,-1.8000878439548382,-2.8389962735871177,0.017290340859923783,-0.011943852740016489,-0.2033330417599088
8073,2.0,300.72242,21243.436,0.0,0.0,-0.08073001202373353,0.0,0.0,0.0,-1.8004856459440983,-1.8206920820883181,-2.8362963673706574,-0.007337755486105083,-0.001122454041452589,-0.23053009299404878
8074,2.0,299.69464,21188.638,0.0,0.0,-0.08074001644410778,0.0,0.0,0.0,-1.8185284891497882,-1.8085783731677882,-2.8137100093915577,-0.005796602691955145,0.001175237988186959,-0.22521786589977277
8075,2.0,299.97967,21464.292999999998,0.0,0.0,-0.08074998795520438,0.0,0.0,0.0,-1.8564263733650184,-1.8261609981780582,-2.842021838385717,-0.0068551986723554325,-0.0017753441751878283,-0.2312999908175318
8076,2.0,300.41651,21306.472999999998,0.0,0.0,-0.08075999237557852,0.0,0.0,0.0,-1.829796336886838,-1.8093646552453884,-2.837474675911947,-0.014824181309032786,0.00959434097243773,-0.21828994059353976
8077,2.0,299.67717000000005,21085.896,0.0,0.0,-0.08076999679595276,0.0,0.0,0.0,-1.799345131631538,-1.7919585384025383,-2.8182823004678075,0.008854726559993472,0.0015846650971692684,-0.20960579955148181
8078,2.0,299.58737,21317.626,0.0,0.0,-0.08078000121632689,0.0,0.0,0.0,-1.8338418392360982,-1.8201897126887383,-2.825994552278947,-0.005892203244190184,0.004927691183275255,-0.2271707636125088
8079,2.0,299.9073,21343.757999999998,0.0,0.0,-0.08079000563670102,0.0,0.0,0.0,-1.8449165615040881,-1.8175087542491484,-2.8255442639345074,-0.014552051716425686,0.013096796591553186,-0.21585014581025078
8080,2.0,300.56282999999996,21160.871,0.0,0.0,-0.08080001005707516,0.0,0.0,0.0,-1.8274994002351481,-1.795693378271138,-2.809183517219827,-0.015753109748960884,0.011455612099830889,-0.23330056194747278
8081,2.0,300.67193,21326.201,0.0,0.0,-0.0808100144774494,0.0,0.0,0.0,-1.8442990868931481,-1.8067521925125585,-2.8315814106803274,-0.002133609753495888,0.02052378911529028,-0.2118167214021828
8082,2.0,300.64867000000004,21413.744,0.0,0.0,-0.080819985988546,0.0,0.0,0.0,-1.8332340918261183,-1.8151031971867382,-2.860906185799457,0.008005155057297294,0.004647804350552576,-0.21990977286590477
8083,2.0,299.90719,21291.714,0.0,0.0,-0.08082999040892003,0.0,0.0,0.0,-1.8242973272691283,-1.8259158929788681,-2.821936181653417,0.02223014787994478,-0.008096996249011312,-0.2129023175593228
8084,2.0,300.56842,21414.716,0.0,0.0,-0.08083999482929438,0.0,0.0,0.0,-1.8447840283910084,-1.8179030098630584,-2.8468520016124175,0.009197733807695651,-0.017784796776222783,-0.22824522415104978
8085,2.0,300.07968999999997,21381.984,0.0,0.0,-0.08084999924966851,0.0,0.0,0.0,-1.8548431700837682,-1.8118657617922285,-2.832880093333497,0.02296632271359958,-0.005380337259372944,-0.21649841309172976
8086,2.0,300.08991000000003,21079.324,0.0,0.0,-0.08086000367004265,0.0,0.0,0.0,-1.8057871731173183,-1.8105367829610683,-2.791264189201327,0.014756669468119885,0.006825122166987113,-0.22592575281713578
8087,2.0,299.72785,21191.316000000003,0.0,0.0,-0.08087000809041678,0.0,0.0,0.0,-1.8220073820431284,-1.8036996752612984,-2.8159238595350473,-0.0027401333600051074,0.007149021037678442,-0.2147378707779778
8088,2.0,299.74315,21504.849,0.0,0.0,-0.08088001251079102,0.0,0.0,0.0,-1.850973871926898,-1.8246843888073283,-2.8612788591862373,-0.020125690243750983,-0.0027728533335593174,-0.19555929580019982
8089,2.0,299.95544,21339.34,0.0,0.0,-0.08088998402188763,0.0,0.0,0.0,-1.843499024614188,-1.8139466735225982,-2.829180717218397,-0.025098824072811075,-0.0039905857137151465,-0.2206705413059868
8090,2.0,300.22897,21235.623,0.0,0.0,-0.08089998844226165,0.0,0.0,0.0,-1.821576649425618,-1.8096526209238084,-2.823869868144257,-0.006798062411141524,-0.0038434768966216365,-0.2288692443576358
8091,2.0,299.92548999999997,21391.436,0.0,0.0,-0.08090999286263578,0.0,0.0,0.0,-1.844847660497288,-1.832881784766348,-2.824733157229457,-0.014190297112723288,-0.01055765466245939,-0.24426297557437876
8092,2.0,300.33509,21331.814,0.0,0.0,-0.08091999728300991,0.0,0.0,0.0,-1.8348622834118082,-1.8114076714220184,-2.8380689470955973,0.0013623819379316286,-0.0012903982190273888,-0.2250291582011488
8093,2.0,300.18889,21243.104,0.0,0.0,-0.08093000170338427,0.0,0.0,0.0,-1.8091723403764082,-1.8126427219689083,-2.8355582146728078,0.002447258282200588,0.003419843311962257,-0.2333635253086868
8094,2.0,300.67553,21396.537999999997,0.0,0.0,-0.0809400061237584,0.0,0.0,0.0,-1.8254527363581585,-1.8263287923946183,-2.8522318530183677,0.01676135540671698,-0.0010527157860949592,-0.2115174073226428
8095,2.0,300.36171,21364.732999999997,0.0,0.0,-0.08095001054413264,0.0,0.0,0.0,-1.8385195083227484,-1.8148021605820284,-2.8410235843871976,0.014021917237605486,-0.003630589301586267,-0.2098335275114568
8096,2.0,300.71315,21296.509,0.0,0.0,-0.08096001496450655,0.0,0.0,0.0,-1.8278356979433381,-1.8309575215014382,-2.8148137427254873,0.003937617558112596,-0.007361778531400972,-0.2278715172491678
8097,2.0,301.09717,21503.111,0.0,0.0,-0.0809699864756035,0.0,0.0,0.0,-1.8796699253589784,-1.8277423776091284,-2.8289964070252074,0.015857755179538587,-0.009731758558949791,-0.22537249799753378
8098,2.0,300.76379,21532.494,0.0,0.0,-0.0809799908959774,0.0,0.0,0.0,-1.8739066601151881,-1.8219703984144784,-2.849463451095147,-0.003129123113145407,-0.0077104334325105335,-0.22492765080613078
8099,2.0,300.57279,21280.386000000002,0.0,0.0,-0.08098999531635154,0.0,0.0,0.0,-1.8153950132155383,-1.827804287190238,-2.825506571030787,-0.0013209404141416687,0.007540750213789102,-0.2242320444799798
8100,2.0,300.32765,21316.605,0.0,0.0,-0.08099999973672567,0.0,0.0,0.0,-1.8128149744859083,-1.8153234777584784,-2.851577192128757,-0.008841354394448742,0.014092475921569089,-0.22662742851138581
8101,2.0,299.70403,21454.208,0.0,0.0,-0.08101000415709991,0.0,0.0,0.0,-1.8624664585361284,-1.8128783026171582,-2.8461988605979576,-0.00981520436563525,0.019795312955895282,-0.21416979210941278
8102,2.0,299.73069,21358.494,0.0,0.0,-0.08102000857747427,0.0,0.0,0.0,-1.8358987369390982,-1.8228872884299683,-2.8336628290357475,-0.015389139167289786,0.006638669253810643,-0.24770937353701175
8103,2.0,299.95919,21335.062,0.0,0.0,-0.0810300129978484,0.0,0.0,0.0,-1.8421355952796281,-1.8142061668732083,-2.8289843493490174,0.006451197922958664,0.009808562511229751,-0.22663529133216176
8104,2.0,299.90729,21431.861,0.0,0.0,-0.0810399845089449,0.0,0.0,0.0,-1.8364510595686083,-1.8338990878667483,-2.8444004429954677,0.007266070777305353,0.017090028407904485,-0.2314991045946828
8105,2.0,299.9885,21413.556,0.0,0.0,-0.08104998892931903,0.0,0.0,0.0,-1.8333734137148683,-1.825503196213138,-2.850309818903677,0.006771794003624034,0.0034391892961215566,-0.2105741829370538
8106,2.0,300.21821,21367.261000000002,0.0,0.0,-0.08105999334969316,0.0,0.0,0.0,-1.8333954012420381,-1.8239328612081585,-2.8377855410426274,0.012078926071097187,-0.004553191514515016,-0.2039956363978018
8107,2.0,300.12384,21443.382999999998,0.0,0.0,-0.08106999777006729,0.0,0.0,0.0,-1.8437258913115782,-1.8240773506724182,-2.850449647417477,-0.007920022898470403,-0.013616407454834787,-0.2049097095780138
8108,2.0,299.66637000000003,21336.482000000004,0.0,0.0,-0.08108000219044154,0.0,0.0,0.0,-1.8490332953353783,-1.8207749659464985,-2.8159493934375677,0.020809015978689983,0.018406708409350683,-0.21233623499345478
8109,2.0,299.9237,21323.145,0.0,0.0,-0.08109000661081567,0.0,0.0,0.0,-1.838249882471138,-1.8295018864077786,-2.813951973515437,-0.019247972477126982,0.011108366224310388,-0.24449917430518975
8110,2.0,299.52754,21574.177000000003,0.0,0.0,-0.0811000110311898,0.0,0.0,0.0,-1.8700812356876482,-1.8329511923981983,-2.8549786727144575,-0.01151738691867759,0.0029271793284651073,-0.2272153770144118
8111,2.0,299.45414,21609.976000000002,0.0,0.0,-0.08111001545156393,0.0,0.0,0.0,-1.8446975981574782,-1.8493787122944683,-2.874816792447327,-0.015693049349283384,0.0075950608244491425,-0.22725747755606676
8112,2.0,300.0425,21279.303,0.0,0.0,-0.08111998696266065,0.0,0.0,0.0,-1.8048873057035084,-1.8144952471267382,-2.848994214973837,0.0009372499590243691,0.013206289410609286,-0.22444338818583778
8113,2.0,300.17787000000004,21324.087000000003,0.0,0.0,-0.08112999138303478,0.0,0.0,0.0,-1.818846447031168,-1.8078124574171983,-2.8553311824242473,0.017952188732493084,-0.002023965656199858,-0.2199371407511058
8114,2.0,300.26999,21440.021,0.0,0.0,-0.0811399958034088,0.0,0.0,0.0,-1.8681320464702784,-1.8124652005513882,-2.8366337796539574,-0.007314123859322823,-0.012021101914390387,-0.22636138956512977
8115,2.0,300.30942000000005,21260.688,0.0,0.0,-0.08115000022378316,0.0,0.0,0.0,-1.8443723448753784,-1.8035613666226482,-2.8147845611226074,0.02226924616155348,-0.0017882584530123683,-0.2235706049472008
8116,2.0,299.9707,21331.687,0.0,0.0,-0.08116000464415729,0.0,0.0,0.0,-1.8206799230871182,-1.8198226121775083,-2.843797660510977,0.00908704808929682,0.004876584368106405,-0.2328397256694918
8117,2.0,299.76925,21575.872000000003,0.0,0.0,-0.08117000906453142,0.0,0.0,0.0,-1.8640915090465084,-1.824721473760988,-2.8697134569936673,0.017037051639676087,0.0045080451430594155,-0.1952814220927758
8118,2.0,300.12973999999997,21481.577999999998,0.0,0.0,-0.08118001348490556,0.0,0.0,0.0,-1.8359103893152484,-1.8167982632790285,-2.8771546644030574,-0.007826046383495643,-0.023833779296460876,-0.22594779100681076
8119,2.0,299.827,21488.342999999997,0.0,0.0,-0.08118998499600227,0.0,0.0,0.0,-1.8578698494574781,-1.8293521280429983,-2.8446977305748073,-0.008959752567308731,-0.0015951866862076686,-0.2067170741788868
8120,2.0,300.09362999999996,21627.975,0.0,0.0,-0.0811999894163764,0.0,0.0,0.0,-1.8753044386281381,-1.8306099767171382,-2.868450035443977,0.00973929916619399,0.008468013579827871,-0.23337158064698177
8121,2.0,299.44335,21446.662999999997,0.0,0.0,-0.08120999383675043,0.0,0.0,0.0,-1.859642834482458,-1.8240891043735783,-2.8355181912938576,0.0007606893356466922,-0.0009089435914482482,-0.2290182225198388
8122,2.0,299.49592,21324.212000000003,0.0,0.0,-0.08121999825712456,0.0,0.0,0.0,-1.8209149971103182,-1.8308765628184485,-2.8302362198475675,-0.0014467536525584687,-0.007637466861009294,-0.24989842945055477
8123,2.0,299.46819,21412.976000000002,0.0,0.0,-0.08123000267749869,0.0,0.0,0.0,-1.846744971309538,-1.803110369003138,-2.8591545803515874,-0.003662975611882546,-0.012300894717503789,-0.2171545330614838
8124,2.0,299.79206,21375.289,0.0,0.0,-0.08124000709787305,0.0,0.0,0.0,-1.838566523127388,-1.8208328225272084,-2.838154870704077,0.009095289764285211,0.012425056358257589,-0.2082970249273158
8125,2.0,299.91746,21321.205,0.0,0.0,-0.08125001151824718,0.0,0.0,0.0,-1.8249484417833883,-1.8117111398269683,-2.8444544492257973,0.0024967726735122776,0.002205981547188428,-0.2150909681728258
8126,2.0,299.47309,21574.019,0.0,0.0,-0.08126001593862142,0.0,0.0,0.0,-1.8746827083667783,-1.8347649100771983,-2.848515555626597,0.014322347918755687,-0.002762065057094597,-0.2093456982508118
8127,2.0,299.76312,21668.691000000003,0.0,0.0,-0.08126998744971792,0.0,0.0,0.0,-1.8779924898184284,-1.8455667640932583,-2.863181844199047,-0.004142444241977416,0.02036936777355008,-0.2299875076979998
8128,2.0,300.45142000000004,21540.714,0.0,0.0,-0.08127999187009227,0.0,0.0,0.0,-1.8396170608310682,-1.8401021036539382,-2.8681199185613973,0.006009441448335694,0.016279890369950086,-0.2248261028811088
8129,2.0,300.41258,21606.551,0.0,0.0,-0.08128999629046618,0.0,0.0,0.0,-1.8484452049773383,-1.8543232714574582,-2.865083511986727,-0.0024235497497357376,-0.0058825018811077346,-0.23104580689744578
8130,2.0,300.19518,21605.831000000002,0.0,0.0,-0.08130000071084031,0.0,0.0,0.0,-1.8621822418830782,-1.8425945975749285,-2.8628562869419176,-0.004449667447822986,-0.015505840247557285,-0.2125780065998158
8131,2.0,300.48897999999997,21250.1,0.0,0.0,-0.08131000513121445,0.0,0.0,0.0,-1.8287533985589082,-1.804778989267818,-2.8259673971762673,0.015561583188558686,-0.0017286467204791483,-0.2323366368623408
8132,2.0,299.50664,21164.787,0.0,0.0,-0.08132000955158869,0.0,0.0,0.0,-1.828988269932088,-1.8035064484672285,-2.8010719435442772,-0.0033171424096514663,0.009982081996154791,-0.24287310041220875
8133,2.0,299.83783,21534.906000000003,0.0,0.0,-0.08133001397196304,0.0,0.0,0.0,-1.864449794281868,-1.8317234372520284,-2.8499003645382674,-0.0085424837131525,0.0037093154906309364,-0.22368739215372677
8134,2.0,300.17281,21581.728,0.0,0.0,-0.08133998548305954,0.0,0.0,0.0,-1.8492447606312483,-1.8475475667137482,-2.863514088906837,-0.01018345228127849,-0.0011348659498775489,-0.23978218098215878
8135,2.0,300.09351000000004,21456.576,0.0,0.0,-0.08134998990343367,0.0,0.0,0.0,-1.8516022896389182,-1.8249467192582183,-2.8457142230751273,0.0025606982170212375,0.017634959377934984,-0.2173942883001458
8136,2.0,299.6221,21573.433999999997,0.0,0.0,-0.0813599943238078,0.0,0.0,0.0,-1.8597988749978582,-1.8330942633123182,-2.864892109042837,0.008111552701272923,0.002053979340061978,-0.21534330797772977
8137,2.0,299.86148,21529.342,0.0,0.0,-0.08136999874418194,0.0,0.0,0.0,-1.8594692647403281,-1.8393003188498083,-2.845612898065127,-0.0011914716733390988,-0.018192280370188284,-0.2024092920412418
8138,2.0,299.83707999999996,21403.407000000003,0.0,0.0,-0.08138000316455618,0.0,0.0,0.0,-1.8356779497423081,-1.8423787753036283,-2.828044661206277,0.0075259172455752026,-0.014545949924323488,-0.2363298149764368
8139,2.0,299.69876,21578.49,0.0,0.0,-0.08139000758493031,0.0,0.0,0.0,-1.8601482436323382,-1.8458848232996483,-2.853289078172707,0.016823732096123086,0.014814853328612185,-0.21767894065073878
8140,2.0,300.04627999999997,21413.341,0.0,0.0,-0.08140001200530445,0.0,0.0,0.0,-1.8300103353079584,-1.8353648554614082,-2.843745680780847,-0.005262357153504214,0.02052413868657478,-0.2463813167634428
8141,2.0,300.08596,21181.363999999998,0.0,0.0,-0.08141001642567858,0.0,0.0,0.0,-1.8241482781794183,-1.8021404860074182,-2.812317195804097,-0.00990121703879904,-0.0015472481014514984,-0.23663257410631677
8142,2.0,300.1829,21498.807999999997,0.0,0.0,-0.0814199879367753,0.0,0.0,0.0,-1.8383163516776984,-1.8446707470298283,-2.852113606731697,-0.010977332721378389,0.003285490807002697,-0.2247959688231348
8143,2.0,300.60647,21707.631,0.0,0.0,-0.08142999235714943,0.0,0.0,0.0,-1.8867751390352083,-1.845586826445238,-2.866215818973477,0.006145903641328464,0.01978885348650778,-0.21939029980463676
8144,2.0,300.29941,21534.068,0.0,0.0,-0.08143999677752356,0.0,0.0,0.0,-1.850518112031918,-1.830227576129398,-2.8650732781607173,-0.0043285479891694255,0.004300678545168926,-0.22154080155187478
8145,2.0,300.06819,21517.873,0.0,0.0,-0.08145000119789758,0.0,0.0,0.0,-1.8402670607702183,-1.8405110513942984,-2.8601178772216573,-0.018344379342699283,-0.02066540297576648,-0.22860377283143576
8146,2.0,299.50063,21694.877,0.0,0.0,-0.08146000561827194,0.0,0.0,0.0,-1.8551295145620283,-1.8570952197560282,-2.8824761526032474,-0.004124900525770986,-0.015768188936949087,-0.20784849963804977
8147,2.0,299.95867000000004,21624.527000000002,0.0,0.0,-0.08147001003864607,0.0,0.0,0.0,-1.8523525000129584,-1.842115026302598,-2.8788488185702574,0.012995204083526788,0.017710077687348585,-0.22351789567699878
8148,2.0,299.97572,21498.557999999997,0.0,0.0,-0.0814800144590202,0.0,0.0,0.0,-1.8554544638690982,-1.8305086517071383,-2.8490617987555074,0.016838226638803584,0.004390341857118006,-0.22290412956142477
8149,2.0,299.94889,21593.697999999997,0.0,0.0,-0.0814899859701167,0.0,0.0,0.0,-1.8800807982745285,-1.8193490190807684,-2.864515180005637,-0.0013573123437062985,-0.01902879330824568,-0.21888673476993878
8150,2.0,299.76741,21375.179,0.0,0.0,-0.08149999039049105,0.0,0.0,0.0,-1.8444140907794984,-1.8141515526928182,-2.8389550343080474,0.0010406457482537391,-0.010660308043340491,-0.23459795777301576
8151,2.0,299.71079,21450.335,0.0,0.0,-0.08150999481086518,0.0,0.0,0.0,-1.827991333158698,-1.8374743408445982,-2.854900551131747,0.006634005364925354,0.02922170326595757,-0.23573304106503976
8152,2.0,300.31105,21797.392000000003,0.0,0.0,-0.0815199992312392,0.0,0.0,0.0,-1.885335107993088,-1.8370406698017983,-2.9034869066768474,-0.008582649757716582,0.017393368130091784,-0.2187115438276488
8153,2.0,300.74709,21609.409,0.0,0.0,-0.08153000365161334,0.0,0.0,0.0,-1.8715087024285282,-1.8312684879571282,-2.865943457346597,-0.01076444583561809,0.0023703235193327176,-0.20861784017397783
8154,2.0,299.95467,21233.1,0.0,0.0,-0.08154000807198747,0.0,0.0,0.0,-1.8026013121528983,-1.8104957463320184,-2.841235252333087,-0.008438875141402132,0.013059079369830789,-0.2272924853470218
8155,2.0,300.16947999999996,21560.042,0.0,0.0,-0.08155001249236182,0.0,0.0,0.0,-1.8653732704230082,-1.8293475684175484,-2.8589936762357073,0.01098037449817859,0.03292525599796977,-0.2107122078656758
8156,2.0,299.45873,21841.124,0.0,0.0,-0.08155998400345832,0.0,0.0,0.0,-1.8746969951931882,-1.8565473554269583,-2.907911871188557,-0.006758075610520133,-0.005214359293617195,-0.2092435930382348
8157,2.0,299.01617999999996,21580.773999999998,0.0,0.0,-0.08156998842383245,0.0,0.0,0.0,-1.855913871464438,-1.8394833118178682,-2.864619038140887,0.005224249121218245,-0.024584193333770977,-0.22351212015142877
8158,2.0,299.64257000000003,21495.572,0.0,0.0,-0.0815799928442067,0.0,0.0,0.0,-1.8431169280014783,-1.8264309280046984,-2.864569388885987,-0.0003685982367328136,-0.0054226439974232946,-0.2364654283698208
8159,2.0,299.56742,21528.696,0.0,0.0,-0.08158999726458105,0.0,0.0,0.0,-1.8607229590890586,-1.835371846887098,-2.8480912064847175,0.03259813934893587,0.00884256796409351,-0.23050925043949178
8160,2.0,299.88677,21484.131,0.0,0.0,-0.08160000168495496,0.0,0.0,0.0,-1.8490187045339384,-1.8341854323450082,-2.847435228369977,0.0022336998142740076,-0.02098224020253588,-0.23990639531191776
8161,2.0,300.27624,21622.45,0.0,0.0,-0.08161000610532909,0.0,0.0,0.0,-1.875164914089368,-1.8353716442370782,-2.8621484304220575,-0.0034702072121577865,-0.016237599337276285,-0.23025670798456777
8162,2.0,299.91747999999995,21700.832000000002,0.0,0.0,-0.08162001052570322,0.0,0.0,0.0,-1.8687303706543283,-1.8494750723789783,-2.8783057165166572,0.00018541605434913981,0.01208970603891109,-0.21860796940242677
8163,2.0,300.32505,21412.736,0.0,0.0,-0.08163001494607747,0.0,0.0,0.0,-1.8168216693563382,-1.8295807172655583,-2.8625347826851875,0.001118188866481649,0.027033429581491773,-0.22906141737160177
8164,2.0,299.97823999999997,21476.332000000002,0.0,0.0,-0.08163998645717407,0.0,0.0,0.0,-1.8484831005310782,-1.8222670780437582,-2.8575184854151177,-0.0032627770834860272,0.002938394183221927,-0.21219310328432878
8165,2.0,300.25428,22019.18,0.0,0.0,-0.08164999087754832,0.0,0.0,0.0,-1.9160345595228883,-1.8665117582353683,-2.9107343806671175,-0.013934130262191587,-0.00904575976892198,-0.2205484649339388
8166,2.0,300.51698,21880.05,0.0,0.0,-0.08165999529792245,0.0,0.0,0.0,-1.9181281368795082,-1.8417332336649181,-2.8911273832820577,0.007324417061788682,0.0010539283424896289,-0.2051029161070818
8167,2.0,300.47179,21428.016,0.0,0.0,-0.08166999971829658,0.0,0.0,0.0,-1.8360957127585382,-1.8388877234090881,-2.838598268947837,0.019273764758422483,0.017582888455295983,-0.24004776396586977
8168,2.0,300.73762,21489.182999999997,0.0,0.0,-0.08168000413867071,0.0,0.0,0.0,-1.8309178020975183,-1.8338379888857184,-2.8674194587672677,0.007250556702374233,0.0008540981265904222,-0.2127238031567048
8169,2.0,300.86728999999997,21718.87,0.0,0.0,-0.08169000855904496,0.0,0.0,0.0,-1.8772018507653982,-1.8485079251585281,-2.876284181242147,0.004333453842178596,-0.016887726945938885,-0.23311983865963676
8170,2.0,300.03002000000004,21603.021,0.0,0.0,-0.08170001297941909,0.0,0.0,0.0,-1.8621655232564283,-1.8497406452301883,-2.8548726867539975,0.005043991624453215,-0.0073527463186845625,-0.2423752602405758
8171,2.0,300.08229,21602.342,0.0,0.0,-0.08170998449051559,0.0,0.0,0.0,-1.867411828299198,-1.8538570750864483,-2.8453036541346073,0.015455638771352784,0.02239867872932748,-0.23344892202711476
8172,2.0,300.02106000000003,21595.315,0.0,0.0,-0.08171998891088994,0.0,0.0,0.0,-1.8579485789902483,-1.8489176834989682,-2.8575701611702176,0.01058410859607019,0.0006828790537649153,-0.2258180747290088
8173,2.0,299.69866,21576.122000000003,0.0,0.0,-0.08172999333126407,0.0,0.0,0.0,-1.8620171834417882,-1.8350076848011585,-2.8615775653157174,-0.008801929137032772,-0.014282346831307885,-0.21988880872133582
8174,2.0,299.9329,21956.476000000002,0.0,0.0,-0.0817399977516382,0.0,0.0,0.0,-1.886211771979608,-1.8731022408607985,-2.9149064379538676,-0.019084659865759284,-0.006986051310144583,-0.2275468212546228
8175,2.0,299.78412000000003,21906.757,0.0,0.0,-0.08175000217201234,0.0,0.0,0.0,-1.905052448314038,-1.8493950256210783,-2.904659541017577,-0.0042342817859910755,0.014547195208696385,-0.20732839836171982
8176,2.0,299.76113,21390.12,0.0,0.0,-0.08176000659238636,0.0,0.0,0.0,-1.8175877877569482,-1.8213199931752881,-2.863154486446347,-0.011354043909806887,0.0016096648142365484,-0.24947150665342074
8177,2.0,300.16814,21411.349,0.0,0.0,-0.08177001101276071,0.0,0.0,0.0,-1.837423678339598,-1.8199786526929085,-2.8511132249079676,0.0004037406075660956,-0.01148756798148469,-0.2364095273618038
8178,2.0,300.77533999999997,21864.972,0.0,0.0,-0.08178001543313485,0.0,0.0,0.0,-1.8955662995528282,-1.8557389844971783,-2.8951004382491674,0.008314321372859632,0.016656253000344186,-0.23199031811066181
8179,2.0,300.41844,21837.487999999998,0.0,0.0,-0.08178998694423134,0.0,0.0,0.0,-1.869655062695588,-1.8698621710160281,-2.8985337348880074,0.016735933974958084,0.02086894668235468,-0.23182302038665079
8180,2.0,299.95652,21585.116,0.0,0.0,-0.08179999136460547,0.0,0.0,0.0,-1.8360086745749482,-1.8463699674475282,-2.8789577429560076,0.014037555739648886,-0.000882468967270406,-0.21504064004035878
8181,2.0,300.0172,21717.216,0.0,0.0,-0.08180999578497983,0.0,0.0,0.0,-1.866067448066518,-1.8501103801916783,-2.885313556858277,-0.004434752406350985,-0.02024689927371338,-0.22223986306086677
8182,2.0,300.24388,21842.398999999998,0.0,0.0,-0.08182000020535396,0.0,0.0,0.0,-1.890049254083338,-1.8512416739283282,-2.898252861960287,0.012279992381190888,-0.016500203365693286,-0.20240979866629183
8183,2.0,299.86985,21811.867000000002,0.0,0.0,-0.08183000462572798,0.0,0.0,0.0,-1.8694747041777882,-1.8608136449730082,-2.8999744752051972,-0.0013733201754111486,-0.004215135006801436,-0.2301464663736878
8184,2.0,300.08025,21742.322,0.0,0.0,-0.08184000904610211,0.0,0.0,0.0,-1.8864234399254982,-1.8407261643905282,-2.8819732765786172,0.008854681673014042,-0.00974495411500209,-0.1933297808101638
8185,2.0,299.59937,21539.462000000003,0.0,0.0,-0.08185001346647625,0.0,0.0,0.0,-1.8489823288553482,-1.8298387920660282,-2.868637486712477,-0.008152121816726782,-0.013145991910408387,-0.23653277910396778
8186,2.0,299.71303,21435.064,0.0,0.0,-0.08185998497757296,0.0,0.0,0.0,-1.8421160395526983,-1.8151373437151086,-2.858470839184107,-0.004097783014669696,0.018349759700730283,-0.22457272956110277
8187,2.0,299.90461,21792.432,0.0,0.0,-0.0818699893979471,0.0,0.0,0.0,-1.8722371279254184,-1.854849857534428,-2.897268286838117,-0.008965979394473272,0.03127455810105857,-0.2432784815122168
8188,2.0,300.07906,21914.211,0.0,0.0,-0.08187999381832123,0.0,0.0,0.0,-1.8824425829326181,-1.8645775651194783,-2.914352798099227,-0.014223916751041286,0.01180362196592679,-0.2326288379261788
8189,2.0,300.28912,21557.463,0.0,0.0,-0.08188999823869547,0.0,0.0,0.0,-1.849674986623708,-1.8453575279476084,-2.8578978462525573,-0.0017727253289793682,0.003050368147797897,-0.24350705046977478
8190,2.0,300.01936,21635.805,0.0,0.0,-0.08190000265906983,0.0,0.0,0.0,-1.8591173629805984,-1.8436946832084982,-2.873932326435037,0.006811318154249763,0.00043524678856051357,-0.23951809760859574
8191,2.0,300.41241,21896.959,0.0,0.0,-0.08191000707944374,0.0,0.0,0.0,-1.9037794008883981,-1.854937604993088,-2.8974117630522773,0.018396098667553585,-0.0052284115526290455,-0.2034235553913418
8192,2.0,300.61408,21737.612999999998,0.0,0.0,-0.08192001149981787,0.0,0.0,0.0,-1.863034486542188,-1.8657022727304782,-2.8789548045307174,0.0016459508201926985,-0.033488006997508965,-0.22625694374482178
8193,2.0,299.64095,21491.572,0.0,0.0,-0.081930015920192,0.0,0.0,0.0,-1.8462376369844682,-1.830663881622458,-2.855999724840227,0.00929061479666229,-0.024340085172679375,-0.21831179639819678
8194,2.0,299.35061,21707.475,0.0,0.0,-0.08193998743128872,0.0,0.0,0.0,-1.8595257027708982,-1.8523726636899482,-2.886631997888397,0.013119603838054088,-0.00043917104540280757,-0.23890500023808775
8195,2.0,299.73044,21811.065,0.0,0.0,-0.08194999185166285,0.0,0.0,0.0,-1.9006419732787583,-1.8448068265182584,-2.884570439234937,0.016285863479289585,0.01129423378290409,-0.2281608204177198
8196,2.0,298.94925,21705.123,0.0,0.0,-0.0819599962720371,0.0,0.0,0.0,-1.864700067056568,-1.8504920715043485,-2.8826232765177675,-0.013828306421747587,-0.0037874877358459362,-0.2521635196516017
8197,2.0,298.61936000000003,21892.592,0.0,0.0,-0.08197000069241123,0.0,0.0,0.0,-1.9018215990451781,-1.859379693431488,-2.893600118826097,-0.006363410744894744,-0.006721812605341254,-0.22545140991532178
8198,2.0,299.28362000000004,21694.297000000002,0.0,0.0,-0.08198000511278536,0.0,0.0,0.0,-1.8880506182610883,-1.8267520269613882,-2.8797218348564178,-0.005829304021707515,0.029228436312872075,-0.2289634563519338
8199,2.0,299.31111,21521.791,0.0,0.0,-0.08199000953315949,0.0,0.0,0.0,-1.8538384312846081,-1.8230645058724582,-2.8651840263966473,-0.008847197199825381,0.013605123901721188,-0.22906331214928877
8200,2.0,299.87564,21816.743,0.0,0.0,-0.08200001395353373,0.0,0.0,0.0,-1.884678927228328,-1.8466369588488782,-2.9004290192000575,0.006723496221707414,-0.006170351542391285,-0.2151289245215718
8201,2.0,299.77524,21903.042999999998,0.0,0.0,-0.08200998546463023,0.0,0.0,0.0,-1.8899921067776984,-1.8696617501462482,-2.8983244987423573,-0.0015556532136810186,-0.0059295948073304445,-0.2167575720698068
8202,2.0,299.44879,21598.362999999998,0.0,0.0,-0.08201998988500436,0.0,0.0,0.0,-1.8547032402449581,-1.850300465910438,-2.860359233395477,0.028023553261209373,0.00046078098492304253,-0.22687577611089577
8203,2.0,299.73569,21736.98,0.0,0.0,-0.08202999430537872,0.0,0.0,0.0,-1.8735344933534583,-1.8511390316931982,-2.882825622562737,0.005358666676834225,-0.01204167494442079,-0.22688797564209978
8204,2.0,300.15641,21949.097,0.0,0.0,-0.08203999872575285,0.0,0.0,0.0,-1.895379253584368,-1.8693037688859182,-2.907294193927597,-0.0007045260579738084,-0.02926264160974787,-0.2133604687245388
8205,2.0,300.28411,21763.757999999998,0.0,0.0,-0.08205000314612698,0.0,0.0,0.0,-1.838425478713468,-1.878680385311318,-2.898533025612937,-0.007078247949993682,-0.007869630120647023,-0.24647796055798077
8206,2.0,300.09881,21762.021,0.0,0.0,-0.08206000756650111,0.0,0.0,0.0,-1.8480570288640283,-1.8746338697119582,-2.892419986434627,-0.003916137770567706,0.014649234560016884,-0.2439309740466128
8207,2.0,299.93592,21797.675,0.0,0.0,-0.08207001198687514,0.0,0.0,0.0,-1.8734393491690682,-1.8529211359690783,-2.899588528242107,-0.0037792968246875562,0.006730296852403584,-0.24401618838002279
8208,2.0,299.98918,21583.2,0.0,0.0,-0.08208001640724949,0.0,0.0,0.0,-1.8485513935878182,-1.8373310672804584,-2.8748714066277175,-0.004405416688130776,-0.011506222929075789,-0.25008134135860677
8209,2.0,299.93924,21629.37,0.0,0.0,-0.08208998791834599,0.0,0.0,0.0,-1.8684369334253683,-1.8398831403073284,-2.8664683208983974,0.007454664383968093,0.0032854373073974165,-0.2322080655571518
8210,2.0,299.13602000000003,21951.311,0.0,0.0,-0.08209999233872012,0.0,0.0,0.0,-1.8972087779649285,-1.8674449615774682,-2.9079968828719474,0.005357140722183625,0.012000254293582887,-0.2157810928159358
8211,2.0,299.84619,21853.587000000003,0.0,0.0,-0.08210999675909425,0.0,0.0,0.0,-1.8817648199407282,-1.854045742255068,-2.907134100411797,-0.003152929120269877,0.0016472768605985684,-0.21727477545085078
8212,2.0,299.20011,21712.654,0.0,0.0,-0.0821200011794686,0.0,0.0,0.0,-1.850802126034948,-1.8559649392694784,-2.8933375857251873,-0.00905656496666337,-0.017459332738101983,-0.22008404175060378
8213,2.0,299.2853,21987.495,0.0,0.0,-0.08213000559984274,0.0,0.0,0.0,-1.8954076245871683,-1.8686216489185983,-2.9196200774190677,-0.004204544010131186,-0.005481605730017365,-0.22404369141889077
8214,2.0,299.74586,21983.89,0.0,0.0,-0.08214001002021676,0.0,0.0,0.0,-1.9024294477801682,-1.8641115713984882,-2.9160125017630274,0.0012782781266312288,0.019399140272796083,-0.2221983907342738
8215,2.0,300.90332,21704.372000000003,0.0,0.0,-0.08215001444059089,0.0,0.0,0.0,-1.8882062534764483,-1.843613319225468,-2.8657677597792572,0.007910384660869182,-0.007923664215354773,-0.22998027309228578
8216,2.0,299.89903,21653.25,0.0,0.0,-0.08215998595168761,0.0,0.0,0.0,-1.8660571129154981,-1.8291237414704584,-2.8868666666115574,0.005064838130685605,-0.00988231668203372,-0.23133818021380076
8217,2.0,300.03817999999995,21702.868,0.0,0.0,-0.08216999037206174,0.0,0.0,0.0,-1.8527553682527182,-1.8493618923428086,-2.8950127921155175,0.0016849926637708284,-0.0028772403853615175,-0.2296524157574288
8218,2.0,299.38208,21580.785,0.0,0.0,-0.08217999479243587,0.0,0.0,0.0,-1.8371908334666183,-1.8417200614136184,-2.8811087715932975,0.005251216569979724,0.002282578289822938,-0.23749202297363778
8219,2.0,299.56451,21915.569,0.0,0.0,-0.08218999921281,0.0,0.0,0.0,-1.8812584988657584,-1.8717829892305984,-2.9087444587957267,-0.014822316928848788,-0.005832504372148365,-0.2317020991197168
8220,2.0,299.08441,22024.166,0.0,0.0,-0.08220000363318425,0.0,0.0,0.0,-1.9189863597142083,-1.873989442648358,-2.9018207182124076,-0.02018203910831218,-0.015173257114233885,-0.2186798088345168
8221,2.0,299.36465,21668.861,0.0,0.0,-0.08221000805355838,0.0,0.0,0.0,-1.8744291931917583,-1.8474630616554084,-2.8649003163686473,-0.005342270669016064,0.006682316116443253,-0.23808568620722778
8222,2.0,299.06935,21782.019,0.0,0.0,-0.08222001247393251,0.0,0.0,0.0,-1.8664381962781085,-1.872507260402078,-2.882244320980367,0.013628948451322486,0.007685261462926253,-0.22992035961387278
8223,2.0,299.54408,21962.423,0.0,0.0,-0.08222998398502923,0.0,0.0,0.0,-1.879909153707588,-1.8808026376457683,-2.9153162976193174,0.01118941913955969,-0.005145534483224715,-0.23174637814908677
8224,2.0,299.62223,21699.343999999997,0.0,0.0,-0.08223998840540314,0.0,0.0,0.0,-1.849148299221728,-1.8544768801726181,-2.8924335639859673,-0.004429442773176966,-0.021517827993394276,-0.23015089427662477
8225,2.0,300.04727,21542.63,0.0,0.0,-0.0822499928257775,0.0,0.0,0.0,-1.834671083117938,-1.8485345736361585,-2.865216045099807,0.01029039272333269,-0.001968670470417648,-0.24228168659384078
8226,2.0,299.695,21798.692000000003,0.0,0.0,-0.08225999724615163,0.0,0.0,0.0,-1.8880223485832983,-1.8491394839458581,-2.8890961208065873,-0.0006135093883961625,0.006204943292855224,-0.2234112916339778
8227,2.0,300.17633,21884.946,0.0,0.0,-0.08227000166652587,0.0,0.0,0.0,-1.8902571730038584,-1.8481368729719085,-2.914082969597597,-0.009795024172668622,0.004661273484131876,-0.22866983673795577
8228,2.0,300.02358,21966.693,0.0,0.0,-0.0822800060869,0.0,0.0,0.0,-1.8928217090069581,-1.8694364033240083,-2.9150681526698268,-0.013724742129026588,-0.008957271320463851,-0.22634049634806777
8229,2.0,300.35601,22126.592,0.0,0.0,-0.08229001050727414,0.0,0.0,0.0,-1.915803842475118,-1.868155553872598,-2.941971969325027,0.0004909917965921174,0.002933039663068477,-0.21839750722415577
8230,2.0,300.21477999999996,21979.744,0.0,0.0,-0.08230001492764827,0.0,0.0,0.0,-1.9077118245264983,-1.8660412048889283,-2.907540413701897,-0.003979131833259737,0.0038747927081872664,-0.2149210765285588
8231,2.0,300.14996,21817.552000000003,0.0,0.0,-0.08230998643874499,0.0,0.0,0.0,-1.8753305804807183,-1.8601247362300182,-2.896535504365797,0.011832693124545888,-0.014323974185166184,-0.2284880799350178
8232,2.0,299.97512,21971.213,0.0,0.0,-0.08231999085911901,0.0,0.0,0.0,-1.911337030734278,-1.8682665047585483,-2.899096493993547,-0.008416250077269212,0.0002220243244995948,-0.2174871222743078
8233,2.0,299.8437,21950.812,0.0,0.0,-0.08232999527949314,0.0,0.0,0.0,-1.8993684192280682,-1.8726848831446081,-2.9004453325266675,0.013446198663286488,0.011404629407799289,-0.21917640270852679
8234,2.0,299.18129,21609.78,0.0,0.0,-0.0823399996998675,0.0,0.0,0.0,-1.8451138412985582,-1.836209196769738,-2.8875104857250973,-0.005305206892283154,0.009707334874564362,-0.23560547287744976
8235,2.0,299.53598,21724.158,0.0,0.0,-0.08235000412024163,0.0,0.0,0.0,-1.8404491418131883,-1.8657372298589283,-2.8974152081026174,-0.004558293938043586,0.005023898672320195,-0.24240368190588077
8236,2.0,299.54624,22034.982999999997,0.0,0.0,-0.08236000854061576,0.0,0.0,0.0,-1.8875431826110085,-1.8722917421058085,-2.938249592432657,-0.014675942819402786,-0.01036499427519529,-0.24260440675069078
8237,2.0,300.44979,21948.267000000003,0.0,0.0,-0.08237001296098989,0.0,0.0,0.0,-1.8735118978762282,-1.8736385541387282,-2.924574566433037,-0.003963094414651966,0.005101158485820145,-0.25307704567675976
8238,2.0,300.2444,21811.712000000003,0.0,0.0,-0.08237998447208661,0.0,0.0,0.0,-1.8799149292331585,-1.8610040346667982,-2.8892969469764074,-0.020261685632422678,0.005605386794033605,-0.25658373202034274
8239,2.0,299.90698,21819.002999999997,0.0,0.0,-0.08238998889246063,0.0,0.0,0.0,-1.8727524669262783,-1.8476058285944983,-2.9120737959743073,-0.007698471913755023,-0.0004624392396391995,-0.2389316689807198
8240,2.0,299.72987,21737.612,0.0,0.0,-0.08239999331283476,0.0,0.0,0.0,-1.867790479861568,-1.8525811905605283,-2.887319488081247,0.004341297816502735,-0.0037355509675201766,-0.23534487508423077
8241,2.0,300.49246,21896.532000000003,0.0,0.0,-0.0824099977332089,0.0,0.0,0.0,-1.880436246409608,-1.862313153795998,-2.9132494700653373,0.003073265370907677,-0.001099610925898149,-0.22797156556404177
8242,2.0,300.07083,22111.622000000003,0.0,0.0,-0.08242000215358303,0.0,0.0,0.0,-1.9263359693145583,-1.8731008223106584,-2.9219440678484268,-0.006433518127263805,-0.0030958280188344367,-0.20105728203530882
8243,2.0,299.31093,21863.377999999997,0.0,0.0,-0.08243000657395738,0.0,0.0,0.0,-1.879174547385088,-1.879120135854718,-2.887626502861547,-0.011523421836273189,-0.012516958142327589,-0.2383454328703628
8244,2.0,299.3813,21799.428,0.0,0.0,-0.08244001099433151,0.0,0.0,0.0,-1.8771128874066183,-1.852363443114038,-2.897005348437167,0.005055911701279636,-0.00026840087276910375,-0.2120584626110408
8245,2.0,300.09767999999997,22199.273999999998,0.0,0.0,-0.08245001541470554,0.0,0.0,0.0,-1.9022500011874581,-1.8980936492772584,-2.9476814309885073,0.01127656472766029,0.01765693069310338,-0.22429703434139378
8246,2.0,299.40688,22109.687,0.0,0.0,-0.08245998692580225,0.0,0.0,0.0,-1.8889130967462082,-1.8834775165847584,-2.948402054459627,0.014476440967463486,0.008333451230772601,-0.22161840637703378
8247,2.0,299.58152,21654.067000000003,0.0,0.0,-0.08246999134617639,0.0,0.0,0.0,-1.8407938494972085,-1.8437590245898483,-2.897742893184957,-0.0016645468979529885,-0.016016769583982085,-0.24858248101568076
8248,2.0,300.26319,21739.629,0.0,0.0,-0.08247999576655052,0.0,0.0,0.0,-1.8634929822124382,-1.8677017191528085,-2.877109777423627,-0.0031085096544360173,-0.015691220432852884,-0.2371137868438088
8249,2.0,300.06602999999996,21886.874,0.0,0.0,-0.08249000018692465,0.0,0.0,0.0,-1.8976132674048483,-1.8471854311280083,-2.908264380898347,0.0064098376618267235,0.0001334411168921129,-0.2169139368252388
8250,2.0,300.39887000000004,21901.336,0.0,0.0,-0.08250000460729878,0.0,0.0,0.0,-1.893604242059188,-1.8711830438463881,-2.8926719817344972,-0.0063260877787862544,0.005665371098628594,-0.23020823409978378
8251,2.0,300.34575,22037.648999999998,0.0,0.0,-0.08251000902767303,0.0,0.0,0.0,-1.8892525355297083,-1.8888647647164383,-2.9207777156583172,-0.015072796406569186,0.006922342298181994,-0.2220685731314618
8252,2.0,300.20986,22117.072999999997,0.0,0.0,-0.08252001344804716,0.0,0.0,0.0,-1.9013501337736483,-1.8794983821170483,-2.942189311471477,-0.01086177357397359,0.0022815774013741578,-0.22234588955133078
8253,2.0,300.2137,22024.884,0.0,0.0,-0.08252998495914388,0.0,0.0,0.0,-1.8845333231889583,-1.901509416689368,-2.9089720347681873,0.0006559236829446274,0.0034149925797585267,-0.22996480076325876
8254,2.0,299.85683,22044.802000000003,0.0,0.0,-0.08253998937951801,0.0,0.0,0.0,-1.892926276417278,-1.883811686467738,-2.924331285084027,0.00958980009211458,-0.014036551608799786,-0.23989995104128178
8255,2.0,299.61127999999997,22002.312,0.0,0.0,-0.08254999379989192,0.0,0.0,0.0,-1.9028670704983581,-1.8806581481815083,-2.9046283329144975,0.010786826503826888,-0.030978112532551675,-0.22446585194055477
8256,2.0,299.69466,21668.236,0.0,0.0,-0.08255999822026627,0.0,0.0,0.0,-1.841726140914218,-1.8638557257482382,-2.8810208214846176,0.004722098482334835,-0.017422075531924982,-0.24202742161374674
8257,2.0,299.26117999999997,21678.222999999998,0.0,0.0,-0.0825700026406404,0.0,0.0,0.0,-1.8499576834016083,-1.8397967100737984,-2.899884093296277,0.01037864072754209,-0.006746617373089295,-0.22992711799203974
8258,2.0,299.90133,22066.152000000002,0.0,0.0,-0.08258000706101465,0.0,0.0,0.0,-1.914068753003878,-1.8759249529893784,-2.9175654088662872,0.0019811446937237583,0.006013082562570045,-0.22786206362573477
8259,2.0,300.50518999999997,22157.148999999998,0.0,0.0,-0.08259001148138878,0.0,0.0,0.0,-1.934259686421568,-1.8717677904790981,-2.9291926564138073,-0.006082952743090693,0.017046509316109484,-0.2318636415831598
8260,2.0,300.23283,21997.867000000002,0.0,0.0,-0.08260001590176291,0.0,0.0,0.0,-1.9068176313132483,-1.8741285618870882,-2.9058559867356575,-0.02112701641657418,0.01136640657427699,-0.2303069955870308
8261,2.0,300.26297,22175.657000000003,0.0,0.0,-0.08260998741285963,0.0,0.0,0.0,-1.934258065221408,-1.8734320537683482,-2.933155882854947,-0.009526109014678761,0.005966925575464704,-0.22172720917277178
8262,2.0,299.81401,22276.412999999997,0.0,0.0,-0.08261999183323376,0.0,0.0,0.0,-1.9222968504409284,-1.8959906486947082,-2.953185608181727,-0.007663306866384502,-0.002032986520515148,-0.2103856677559488
8263,2.0,300.19165,22035.486,0.0,0.0,-0.08262999625360778,0.0,0.0,0.0,-1.8891598231455582,-1.8805219673680682,-2.9285557274009473,0.004083663273201186,-0.007810121942274022,-0.22947866363028077
8264,2.0,300.13084,21994.14,0.0,0.0,-0.08264000067398192,0.0,0.0,0.0,-1.883670844703838,-1.8754236981649084,-2.926574620805427,0.0002610312818767818,-0.0064869807489151545,-0.22244661674377178
8265,2.0,299.85796,21855.997000000003,0.0,0.0,-0.08265000509435627,0.0,0.0,0.0,-1.8707251561261982,-1.8478592424445084,-2.925092945184197,0.01197283777237709,0.0031454938910360775,-0.22968984521612276
8266,2.0,299.67472999999995,21763.243,0.0,0.0,-0.0826600095147304,0.0,0.0,0.0,-1.8653592875716283,-1.8737532540500483,-2.8763699022006075,0.0027516182459135776,-0.004795384632917616,-0.24978448947680976
8267,2.0,300.12552,21996.328999999998,0.0,0.0,-0.08267001393510454,0.0,0.0,0.0,-1.8962150835918583,-1.8616730837078281,-2.928446600365177,0.005878469652334784,0.001174298401369229,-0.23153725346094775
8268,2.0,299.81902,22165.45,0.0,0.0,-0.08267998544620103,0.0,0.0,0.0,-1.9068714348935583,-1.890067695235158,-2.9408040972597673,0.005264832523498516,0.002895556502119177,-0.23526430143627877
8269,2.0,299.53753,21910.99,0.0,0.0,-0.08268998986657539,0.0,0.0,0.0,-1.8796849214604585,-1.8645378457155584,-2.916170974078667,0.0001909345588987738,0.0024323797177321876,-0.23045923641455576
8270,2.0,299.52918999999997,21944.362999999998,0.0,0.0,-0.08269999428694941,0.0,0.0,0.0,-1.887229885680088,-1.8673256007156882,-2.9159829148601073,-0.002025643801015478,0.01039252630691249,-0.2524562374729908
8271,2.0,299.95586000000003,22280.622000000003,0.0,0.0,-0.08270999870732354,0.0,0.0,0.0,-1.9383042768457381,-1.902479806310138,-2.931968759037787,-0.01072363313484019,0.004620525226060337,-0.2260004800120108
8272,2.0,299.83837,22067.685,0.0,0.0,-0.08272000312769767,0.0,0.0,0.0,-1.9259960239060083,-1.8644652970083981,-2.917563990316147,-0.0008276423387319392,0.008969358482231762,-0.24701046401553475
8273,2.0,300.20707999999996,21867.972999999998,0.0,0.0,-0.0827300075480718,0.0,0.0,0.0,-1.8816424193286483,-1.8637595683137482,-2.9019158623967973,-0.012713450641469887,0.0026352916628830376,-0.22273048889178781
8274,2.0,300.3729,22018.875,0.0,0.0,-0.08274001196844616,0.0,0.0,0.0,-1.8966639533861585,-1.8738127318309183,-2.922711402149157,0.009114207852927282,-0.005493075417174334,-0.23442589777353479
8275,2.0,300.3707,22093.269,0.0,0.0,-0.08275001638882029,0.0,0.0,0.0,-1.8938423558326882,-1.8742030357694381,-2.9477568167959474,-0.004893729877023535,-0.004326580764100276,-0.2012149944133738
8276,2.0,299.96679,22000.765,0.0,0.0,-0.08275998789991679,0.0,0.0,0.0,-1.8739908611984981,-1.8921077729864983,-2.921584465387937,0.01140195645403549,-0.0006937227752751073,-0.23374134600597476
8277,2.0,299.59877,22150.515,0.0,0.0,-0.08276999232029103,0.0,0.0,0.0,-1.8980600093739382,-1.8783002138737983,-2.956843339717717,0.0022911157325155177,-0.0034441897866900667,-0.2090684122284458
8278,2.0,299.53947,22082.615,0.0,0.0,-0.08277999674066516,0.0,0.0,0.0,-1.9146538036116183,-1.8819855058125081,-2.9159242476793175,-0.0006471004530613424,0.003021152195739507,-0.23659234807734678
8279,2.0,300.4557,21980.802000000003,0.0,0.0,-0.0827900011610393,0.0,0.0,0.0,-1.8790834562010983,-1.8863192778152182,-2.916212314682747,0.01914215775593388,-0.0063605589524882945,-0.2390461662420198
8280,2.0,300.13811,22159.541,0.0,0.0,-0.08280000558141343,0.0,0.0,0.0,-1.9161474355840284,-1.8860825825918583,-2.9337170207603274,0.019710731903797782,-0.013798089277265385,-0.22191071889838276
8281,2.0,299.94319,22170.871,0.0,0.0,-0.08281001000178756,0.0,0.0,0.0,-1.9111762279434081,-1.891445816696168,-2.9367692340365577,-0.0018997297442137281,-0.011500101885221688,-0.22663752048238175
8282,2.0,299.81956,21964.11,0.0,0.0,-0.0828200144221618,0.0,0.0,0.0,-1.8824244457558281,-1.8858016083391282,-2.9083147394283175,-0.005426885766316926,-3.479164647016817e-05,-0.22995807278259478
8283,2.0,300.21377,22077.668999999998,0.0,0.0,-0.08282998593325841,0.0,0.0,0.0,-1.893295302103698,-1.8765599568270483,-2.941204938999327,-0.014230190795660486,0.016018427261145687,-0.24251825009468778
8284,2.0,299.94867999999997,22210.828999999998,0.0,0.0,-0.08283999035363265,0.0,0.0,0.0,-1.9132330243213982,-1.9066753709992084,-2.9316291176042677,-0.025155472859401874,0.021820835369548777,-0.23546053758314578
8285,2.0,300.06088,21964.988999999998,0.0,0.0,-0.08284999477400679,0.0,0.0,0.0,-1.8684393652256084,-1.8792443603169782,-2.9291243633570674,-0.01201028242982259,-0.007474006821752044,-0.2379055506044498
8286,2.0,300.34462,21958.036,0.0,0.0,-0.0828599991943807,0.0,0.0,0.0,-1.8674138547993981,-1.899272869743638,-2.908008028623047,-0.003829365869103986,0.005619718304773015,-0.24132360796178579
8287,2.0,300.13192999999995,22156.822999999997,0.0,0.0,-0.08287000361475505,0.0,0.0,0.0,-1.9064482003267882,-1.901127725376698,-2.9275451117512072,0.015028467727944287,-0.00884343378630396,-0.2175278447958268
8288,2.0,300.47924,22032.153,0.0,0.0,-0.08288000803512918,0.0,0.0,0.0,-1.8871128552935381,-1.8850459264145485,-2.9250655874314972,0.018269362358295682,-0.004131821429254026,-0.2204627845054828
8289,2.0,300.23847,21955.916,0.0,0.0,-0.08289001245550343,0.0,0.0,0.0,-1.890076409186018,-1.8764440410156085,-2.907529571925827,-0.0016185997549433583,-0.01145856673712249,-0.2208902544576708
8290,2.0,300.07916,22186.922000000002,0.0,0.0,-0.08289998396659992,0.0,0.0,0.0,-1.9095451992574382,-1.8831485142772881,-2.951576668347937,-0.002085521714349968,0.01005958843472908,-0.24477281262719575
8291,2.0,299.39847000000003,22227.414,0.0,0.0,-0.08290998838697428,0.0,0.0,0.0,-1.9363114165490585,-1.8936238991111283,-2.9266436231372372,-0.004587046125531206,0.014638770726234186,-0.23400842859983378
8292,2.0,299.37998,22052.987999999998,0.0,0.0,-0.08291999280734841,0.0,0.0,0.0,-1.9090086833294881,-1.881646472329048,-2.912902330581077,0.001956712194062458,-0.006984179533234852,-0.25878733820532174
8293,2.0,299.6612,22161.655,0.0,0.0,-0.08292999722772254,0.0,0.0,0.0,-1.9284775747259182,-1.8634811271862683,-2.9446311428874674,-0.005618490549626844,-0.024397327723828775,-0.2198562327306208
8294,2.0,300.0128,22129.088,0.0,0.0,-0.08294000164809656,0.0,0.0,0.0,-1.899300227496338,-1.8897060662744682,-2.9376836922518073,-0.004383999114142026,-0.01052003977899709,-0.24188130081682577
8295,2.0,299.64923,21974.964,0.0,0.0,-0.0829500060684707,0.0,0.0,0.0,-1.8888431824893082,-1.857761127721748,-2.9332361322628673,0.005387873104341675,0.0024585084993858975,-0.23163495103558976
8296,2.0,300.19473,22189.332000000002,0.0,0.0,-0.08296001048884505,0.0,0.0,0.0,-1.8925138836265782,-1.8900825900116283,-2.962406184091727,-0.0046680470610503755,0.00036310225673290264,-0.22599383309135476
8297,2.0,299.73394,22250.666,0.0,0.0,-0.08297001490921918,0.0,0.0,0.0,-1.903069011243288,-1.8993747013786881,-2.9612032535730073,-0.0029527096846097573,0.005654882642868464,-0.22496222289954276
8298,2.0,299.92156,22132.196,0.0,0.0,-0.08297998642031568,0.0,0.0,0.0,-1.8879400726751783,-1.890805138657938,-2.948889529082737,0.00845717899783358,0.016477051614158383,-0.2211526558360678
8299,2.0,300.28299,22176.139,0.0,0.0,-0.08298999084068981,0.0,0.0,0.0,-1.9035562832163782,-1.9018670939746682,-2.9355690392931075,-0.0013220545839516288,0.016470684350529983,-0.24202346993835677
8300,2.0,299.65316,22206.135,0.0,0.0,-0.08299999526106416,0.0,0.0,0.0,-1.9147940374254584,-1.8868633931189183,-2.9484530209396573,0.010958397103509591,0.001084741885980689,-0.2117548928810808
8301,2.0,300.0585,22077.656000000003,0.0,0.0,-0.08300999968143818,0.0,0.0,0.0,-1.8937311009717084,-1.8681202927691183,-2.949204751188847,-0.0016430772429090986,-0.024434157338463578,-0.2424529663907448
8302,2.0,299.93756,22182.192000000003,0.0,0.0,-0.08302000410181232,0.0,0.0,0.0,-1.9013855975271483,-1.903869276172268,-2.9375774023163173,0.008871954648793751,-0.0008403848605320282,-0.23976487467045077
8303,2.0,299.66552,22325.592999999997,0.0,0.0,-0.08303000852218645,0.0,0.0,0.0,-1.9301821653691482,-1.8938248266059583,-2.962415911292687,-0.002054321818595778,0.00941046840196592,-0.24804849821298075
8304,2.0,299.03258999999997,22108.111,0.0,0.0,-0.08304001294256058,0.0,0.0,0.0,-1.9051045293691784,-1.8831385844263084,-2.932070489347827,0.0013095040629129888,-0.0029093020503257573,-0.23758252647256978
8305,2.0,299.6451,21985.389,0.0,0.0,-0.0830499844536573,0.0,0.0,0.0,-1.8878405715153581,-1.8719259588197084,-2.923242851826607,0.006406068675429754,-0.0014933990262120085,-0.23413744573506676
8306,2.0,300.01271,22157.857000000004,0.0,0.0,-0.08305998887403143,0.0,0.0,0.0,-1.913739649371398,-1.8735938698093182,-2.9481018284549974,0.002699646216484338,0.008534505179215082,-0.2231838575165318
8307,2.0,300.29392,22151.962000000003,0.0,0.0,-0.08306999329440556,0.0,0.0,0.0,-1.9128863914621879,-1.8841386622750083,-2.9366183610966674,0.008935117113652403,0.015438580705919285,-0.21203268552849683
8308,2.0,300.33827,22030.947,0.0,0.0,-0.08307999771477981,0.0,0.0,0.0,-1.881787516742968,-1.8757552335976282,-2.9393150249128075,-0.00919561905341194,-0.006791769621395473,-0.23540474803263978
8309,2.0,300.55525,22176.632999999998,0.0,0.0,-0.08309000213515394,0.0,0.0,0.0,-1.9140420032012382,-1.891985068399388,-2.9351157111983674,-0.009260770122916852,0.0036230023888124967,-0.21410148892017178
8310,2.0,300.00119,22227.039,0.0,0.0,-0.08310000655552807,0.0,0.0,0.0,-1.910430070569768,-1.8954309293394682,-2.950603846926927,0.011018822273223091,0.021496589258048183,-0.2603934814688358
8311,2.0,300.38219,22119.154,0.0,0.0,-0.0831100109759022,0.0,0.0,0.0,-1.912901590213688,-1.884640829024568,-2.926127878836337,-0.00961995583364072,0.025329968712123275,-0.23367324546675378
8312,2.0,300.82903999999996,22080.55,0.0,0.0,-0.08312001539627634,0.0,0.0,0.0,-1.903392035375168,-1.8954141093878085,-2.9131296025785076,-0.0022472262978089678,-0.01070645145289449,-0.25870162737936275
8313,2.0,300.25569,22097.071,0.0,0.0,-0.08312998690737305,0.0,0.0,0.0,-1.909233726176698,-1.877339855429018,-2.9303843398564178,-0.01155141185703559,-0.03232594288182217,-0.2297715638366878
8314,2.0,300.11109,22078.499,0.0,0.0,-0.08313999132774719,0.0,0.0,0.0,-1.8940330495015083,-1.8926861361435783,-2.924593210234877,0.013661048214490486,-0.008795289917077532,-0.2584894528084227
8315,2.0,300.27335,22175.412999999997,0.0,0.0,-0.08314999574812143,0.0,0.0,0.0,-1.9012034151591684,-1.9017075070839182,-2.937861011019307,-0.004514664300662675,0.0026068655392775977,-0.23789063556297776
8316,2.0,299.55812000000003,22210.057999999997,0.0,0.0,-0.08316000016849556,0.0,0.0,0.0,-1.9045556517900082,-1.885210782205818,-2.9615365115308974,-0.0023953973049823077,0.010872101632242889,-0.2261054628548718
8317,2.0,299.76884,22163.341,0.0,0.0,-0.08317000458886947,0.0,0.0,0.0,-1.8896527693192084,-1.9041264390476482,-2.9433229356833572,-0.02337690786612118,-0.005815803680025135,-0.23697097937471479
8318,2.0,299.7605,22273.142999999996,0.0,0.0,-0.08318000900924383,0.0,0.0,0.0,-1.9149587918917181,-1.895075785179418,-2.9604448358731577,0.004567400219342306,0.002820046064916877,-0.2184046202398578
8319,2.0,299.67471,22400.515,0.0,0.0,-0.08319001342961796,0.0,0.0,0.0,-1.924610404394258,-1.925959850877438,-2.9586270651937574,-0.008233866781794382,0.007044520400540034,-0.22780438943004278
8320,2.0,299.93416,22210.679,0.0,0.0,-0.08319998494071457,0.0,0.0,0.0,-1.921961363332818,-1.8965283805227784,-2.9330021728147773,-8.144075395032662e-05,-0.018626171288259982,-0.21719255020523578
8321,2.0,300.10762,22134.343999999997,0.0,0.0,-0.0832099893610887,0.0,0.0,0.0,-1.894799167902118,-1.8906800022705879,-2.942808508607587,-0.003086314816295557,-0.0028493070052797074,-0.2465748779300458
8322,2.0,300.18612,22302.242000000002,0.0,0.0,-0.08321999378146305,0.0,0.0,0.0,-1.9257134284531179,-1.904563555140788,-2.9490476974233473,-0.0013287325100606888,0.007051160329770343,-0.23009729334633477
8323,2.0,300.31441,22302.207000000002,0.0,0.0,-0.08322999820183719,0.0,0.0,0.0,-1.9258911525206583,-1.8990949430260782,-2.954327845019457,0.015739792602896586,0.014854150207240487,-0.23949680922399477
8324,2.0,300.25978,22150.232000000004,0.0,0.0,-0.0832400026222111,0.0,0.0,0.0,-1.906501699932068,-1.8849945546344782,-2.9416212834654174,0.0005033142451657485,-0.004985463056276895,-0.23359598514662877
8325,2.0,300.4168,22193.896,0.0,0.0,-0.08325000704258534,0.0,0.0,0.0,-1.9091353395919883,-1.889593291538338,-2.947661571286547,0.008071896321509143,-0.00880335954219894,-0.24341477378316778
8326,2.0,300.17842,22344.191000000003,0.0,0.0,-0.08326001146295947,0.0,0.0,0.0,-1.927901035419018,-1.8834263474547084,-2.980748645351987,0.005911651059984534,-0.004552856939331996,-0.2298510533070328
8327,2.0,299.9188,22292.849,0.0,0.0,-0.08327001588333383,0.0,0.0,0.0,-1.9100144353787483,-1.9086458384686784,-2.957809169713037,0.0030100056340394274,-0.0015812530787825286,-0.24753611790241278
8328,2.0,300.36745,22286.287,0.0,0.0,-0.08327998739443032,0.0,0.0,0.0,-1.9037039137559484,-1.896167764812188,-2.974603182170477,0.007858174517666442,-0.014681909849241686,-0.24304354934403077
8329,2.0,300.01761,22245.284,0.0,0.0,-0.08328999181480445,0.0,0.0,0.0,-1.912899361063468,-1.8850748040423984,-2.9640365035026273,-0.002720269807694727,-0.00029992159390245676,-0.2236991357223858
8330,2.0,299.41478,22185.791,0.0,0.0,-0.08329999623517859,0.0,0.0,0.0,-1.896106463181138,-1.9084502811993784,-2.9393697404182073,0.005504539734105775,0.007472439526497363,-0.24264878710507076
8331,2.0,299.47202999999996,22274.897999999997,0.0,0.0,-0.08331000065555294,0.0,0.0,0.0,-1.9406529905775383,-1.889902940768898,-2.940456755125487,-0.0033950488793652368,-0.003239008769265277,-0.21960165364299578
8332,2.0,299.70333999999997,22353.494,0.0,0.0,-0.08332000507592696,0.0,0.0,0.0,-1.9419511666056584,-1.900078403573138,-2.9528743377510076,-0.005614933940450834,-0.003917284871005917,-0.22297866423878077
8333,2.0,299.78436,22253.807,0.0,0.0,-0.0833300094963011,0.0,0.0,0.0,-1.9195065623155483,-1.896621396881958,-2.9484737925667073,-0.0008659520381853122,-0.005754304363880624,-0.2293642271639868
8334,2.0,299.65407000000005,22318.682999999997,0.0,0.0,-0.08334001391667523,0.0,0.0,0.0,-1.9226762112783682,-1.894057367503908,-2.9675887557032072,0.0041015649706679464,0.00866551335089458,-0.2164401512109798
8335,2.0,300.07825,22501.129,0.0,0.0,-0.08334998542777194,0.0,0.0,0.0,-1.9403026086929585,-1.9291563509679082,-2.970322403147997,0.003305584873710827,0.015398724513235785,-0.24822356756525876
8336,2.0,300.57542,22386.972,0.0,0.0,-0.08335998984814608,0.0,0.0,0.0,-1.9362051266135683,-1.897788154372108,-2.971087305648487,-0.004519239428839206,-0.0012088269250269288,-0.22746269109881978
8337,2.0,300.43055,22144.301,0.0,0.0,-0.08336999426852021,0.0,0.0,0.0,-1.906141489521518,-1.8906178900394581,-2.9345552825680574,-0.004558474499211405,0.01125380206416379,-0.26663978330029775
8338,2.0,299.81662,22217.597999999998,0.0,0.0,-0.08337999868889434,0.0,0.0,0.0,-1.925712111227988,-1.8863185685401482,-2.9415644401348073,-0.003990581255414707,-0.0032808698799216473,-0.22392958932512977
8339,2.0,299.22907999999995,22209.423,0.0,0.0,-0.08339000310926858,0.0,0.0,0.0,-1.8994959874156585,-1.888985544128358,-2.9626284911636676,-0.004996265518243015,-0.015373245326221184,-0.24358051110202475
8340,2.0,299.5396,22160.671000000002,0.0,0.0,-0.08340000752964272,0.0,0.0,0.0,-1.907383227519068,-1.8921665414922981,-2.936740761708747,0.003703821040638677,-0.022917911650321778,-0.2131036098241888
8341,2.0,299.43228999999997,22376.394,0.0,0.0,-0.08341001195001685,0.0,0.0,0.0,-1.927438081448328,-1.9056773196507082,-2.968749737667787,0.006362262732531444,-0.006528236037336734,-0.24289319316169175
8342,2.0,299.33812,22577.243,0.0,0.0,-0.08342001637039098,0.0,0.0,0.0,-1.979673251928538,-1.9183196411484082,-2.964925225165337,0.017960511568814484,0.008075408043705722,-0.20602445694053081
8343,2.0,299.74365,22421.737,0.0,0.0,-0.08342998788148748,0.0,0.0,0.0,-1.9366979714622083,-1.927913701045268,-2.951036707369647,0.0035412045320896766,0.01191958337362129,-0.2424647910194118
8344,2.0,300.47878,22270.606,0.0,0.0,-0.08343999230186183,0.0,0.0,0.0,-1.9147222993183781,-1.886835832716198,-2.968149994933597,0.006065848372127624,0.0038530183688383064,-0.2265600879097398
8345,2.0,300.25726000000003,22285.607999999997,0.0,0.0,-0.08344999672223596,0.0,0.0,0.0,-1.8951004071568482,-1.9081126662660581,-2.9710550842953074,-0.0013628719456799886,-0.001933983677094328,-0.22956287484609178
8346,2.0,300.30491,22202.097,0.0,0.0,-0.08346000114261021,0.0,0.0,0.0,-1.896740453768708,-1.891896206365618,-2.960246441503577,0.0041497384267972955,0.009014679538004602,-0.24664881478984277
8347,2.0,299.954,22202.759,0.0,0.0,-0.08347000556298434,0.0,0.0,0.0,-1.909016789330288,-1.8911680848437582,-2.9488995602587273,-0.002147478715564648,-0.014131418162662387,-0.24569999726370176
8348,2.0,299.7412,22294.41,0.0,0.0,-0.08348000998335825,0.0,0.0,0.0,-1.934068080827658,-1.9068321207896783,-2.936043746964957,-0.01119089341845519,-0.0019358735911808483,-0.2631974890005698
8349,2.0,299.50948999999997,22353.939,0.0,0.0,-0.0834900144037326,0.0,0.0,0.0,-1.9436128967696582,-1.8921873131193483,-2.9592388656041373,-0.007985215612554422,0.01022561969744009,-0.2296414118613428
8350,2.0,299.52072000000004,22468.522999999997,0.0,0.0,-0.0834999859148291,0.0,0.0,0.0,-1.9500510879050583,-1.9155751519275483,-2.964243611823067,-0.008544938007544722,0.015502267527704684,-0.2341236250037028
8351,2.0,299.41999,22597.25,0.0,0.0,-0.08350999033520334,0.0,0.0,0.0,-1.9536288740081584,-1.919832727522738,-2.995538246461607,-0.005045207625898225,-0.004560255691562196,-0.1995718472562078
8352,2.0,299.32785,22472.578999999998,0.0,0.0,-0.08351999475557748,0.0,0.0,0.0,-1.9344177534371683,-1.905006852059538,-2.9916783715306674,0.0013104841797347189,-0.02098666405247248,-0.2069230577917158
8353,2.0,299.50509,22269.203999999998,0.0,0.0,-0.08352999917595183,0.0,0.0,0.0,-1.8918435173604182,-1.9151248635831084,-2.962313573032587,0.016891498262811083,-0.0029744193786023373,-0.2256388915813248
8354,2.0,299.82297,22364.915,0.0,0.0,-0.08354000359632596,0.0,0.0,0.0,-1.9414026943265283,-1.8995256756435883,-2.9574472367773175,0.01188488259744659,0.02131154648503588,-0.2235395386991348
8355,2.0,299.6209,22373.966,0.0,0.0,-0.08355000801669987,0.0,0.0,0.0,-1.9257123138780081,-1.914296632951368,-2.9611182418896176,0.002282995748864138,-0.0033613108934355566,-0.25376872059252276
8356,2.0,300.46567000000005,22200.182,0.0,0.0,-0.08356001243707412,0.0,0.0,0.0,-1.9138579969830782,-1.8956857617396181,-2.938757433382777,-0.0034281884397858566,-0.0035761041079339965,-0.23975268527174776
8357,2.0,300.10222000000005,22266.727000000003,0.0,0.0,-0.08356998394817072,0.0,0.0,0.0,-1.891307204082488,-1.901549642718338,-2.975672161025977,-0.005737058745853615,0.0028139705159922674,-0.25476835261117875
8358,2.0,300.24048999999997,22480.151,0.0,0.0,-0.08357998836854497,0.0,0.0,0.0,-1.9345268804729379,-1.9228377233443081,-2.976039970812277,0.010865867104377591,0.009330166507690741,-0.2172190061653468
8359,2.0,300.31211,22432.728,0.0,0.0,-0.0835899927889191,0.0,0.0,0.0,-1.9109883713748683,-1.924635735646758,-2.983365161085217,-0.0015126144024334186,0.004282947479019006,-0.25382096376767876
8360,2.0,300.74752,22458.609,0.0,0.0,-0.08359999720929323,0.0,0.0,0.0,-1.952382981685198,-1.9127866876523483,-2.9616866751957174,-0.008395857304431601,0.0047432904055263155,-0.22693643939438277
8361,2.0,300.20471000000003,22519.694,0.0,0.0,-0.08361000162966736,0.0,0.0,0.0,-1.946046216884808,-1.9269303418232182,-2.972448201857797,-0.0057448458768471445,0.01931647325013748,-0.24285938100585477
8362,2.0,300.20361,22439.153,0.0,0.0,-0.08362000605004172,0.0,0.0,0.0,-1.949983605448398,-1.8968527218797882,-2.9741058790213972,-0.018182486294721682,0.023800894264465376,-0.2215994788651658
8363,2.0,299.75711,22267.772,0.0,0.0,-0.08363001047041574,0.0,0.0,0.0,-1.9002314043382382,-1.902023438465098,-2.9665918189298175,0.008118370962520832,-0.013572319929733685,-0.24094023465394976
8364,2.0,299.56774,22336.873,0.0,0.0,-0.08364001489078987,0.0,0.0,0.0,-1.8947508358723482,-1.9133138816793784,-2.981787024054467,0.004360512280799055,-0.023499180808688576,-0.22809369259859477
8365,2.0,299.94903,22373.552000000003,0.0,0.0,-0.08364998640188659,0.0,0.0,0.0,-1.9203848475022283,-1.8966781388875582,-2.9839381540167675,0.015665335945798286,-0.012517654245146288,-0.23468639424174376
8366,2.0,299.7567,22284.487999999998,0.0,0.0,-0.08365999082226072,0.0,0.0,0.0,-1.914383265834918,-1.9115393767792481,-2.9480052657204676,0.0030091491337298974,-0.006994005222104574,-0.25833765781094176
8367,2.0,299.74345,22325.165,0.0,0.0,-0.08366999524263485,0.0,0.0,0.0,-1.942085827543948,-1.8879790828040284,-2.9562275876319473,-0.00986486395568627,-0.0013670656865188788,-0.24356508943550276
8368,2.0,299.57607,22316.093999999997,0.0,0.0,-0.08367999966300899,0.0,0.0,0.0,-1.9293953766664984,-1.8961180142322782,-2.958022053559047,-0.008294412832244812,-0.006524617619904623,-0.2522659187067077
8369,2.0,300.51195,22316.263,0.0,0.0,-0.08369000408338312,0.0,0.0,0.0,-1.9254055017477283,-1.8928765258373683,-2.965304687327787,0.0006080560459604593,-0.0034219893756740564,-0.2231077928315248
8370,2.0,300.36026,22553.342999999997,0.0,0.0,-0.08370000850375736,0.0,0.0,0.0,-1.9403218604448582,-1.915368144932118,-2.9999631096483075,0.006104948984211555,0.006865670612138933,-0.2243059712072758
8371,2.0,300.34071,22540.729,0.0,0.0,-0.0837100129241315,0.0,0.0,0.0,-1.9513169412549882,-1.920037809342978,-2.980463820748877,-0.0006017757191906395,-0.017024633246450482,-0.22964327624152678
8372,2.0,300.27284,22316.389,0.0,0.0,-0.08371998443522821,0.0,0.0,0.0,-1.924032446537218,-1.9024901414611584,-2.9571023264432768,0.0058051693162506045,-8.183318470080652e-05,-0.23830033310841175
8373,2.0,300.87837,22523.718999999997,0.0,0.0,-0.08372998885560212,0.0,0.0,0.0,-1.9467618754304379,-1.925797325561398,-2.9740888564197174,0.0014210062582423984,0.007523198695556904,-0.24878278029544876
8374,2.0,300.09727999999996,22680.901,0.0,0.0,-0.08373999327597625,0.0,0.0,0.0,-1.974851296027648,-1.9318146126052582,-2.987761551944107,-0.002145608661180088,0.005073470210937525,-0.22809179782090777
8375,2.0,299.91017,22375.622000000003,0.0,0.0,-0.08374999769635061,0.0,0.0,0.0,-1.8771349762587983,-1.9255153380585681,-2.998979953076277,-0.014626600579283089,-0.006848293980873994,-0.23716336517120176
8376,2.0,299.66812000000004,22103.4,0.0,0.0,-0.08376000211672474,0.0,0.0,0.0,-1.8715594662585382,-1.899092308575818,-2.948229903267637,0.01265929141037479,-0.02204317486549198,-0.24832006950478278
8377,2.0,299.97188,22349.045,0.0,0.0,-0.08377000653709898,0.0,0.0,0.0,-1.9040638201914684,-1.9002296818130682,-2.989258223666817,0.015071524777693687,-0.01707370393554338,-0.2276943909991868
8378,2.0,300.16573999999997,22540.552000000003,0.0,0.0,-0.08378001095747312,0.0,0.0,0.0,-1.967224258549918,-1.9189083394565083,-2.9656321697601076,-0.0027661574729234873,-0.012866517267826387,-0.23321740451176576
8379,2.0,299.69925,22436.891,0.0,0.0,-0.08379001537784703,0.0,0.0,0.0,-1.9334557737922284,-1.920687707957118,-2.966111133082377,0.001050792333430129,-0.01852163731519328,-0.2395253626118128
8380,2.0,299.4312,22507.525,0.0,0.0,-0.08379998688894374,0.0,0.0,0.0,-1.9561772993346682,-1.9002135711364783,-2.985334716629597,-0.006686392826895593,0.0026019101383385375,-0.2230438263527118
8381,2.0,299.53066,22566.606,0.0,0.0,-0.08380999130931788,0.0,0.0,0.0,-1.921828830219738,-1.924619726295178,-3.013236078008247,0.014254297028789588,0.013920434160589886,-0.22052175566130278
8382,2.0,299.91553,22547.45,0.0,0.0,-0.08381999572969212,0.0,0.0,0.0,-1.9457738552579282,-1.920052602794438,-2.988035129471107,0.013537643471561386,0.007458549691476544,-0.23835634557393975
8383,2.0,300.39023,22575.525,0.0,0.0,-0.08383000015006625,0.0,0.0,0.0,-1.9392145807355783,-1.9269012615453482,-2.9962799455348073,-0.008205880814032382,0.0013868855677499489,-0.2353328782030468
8384,2.0,300.16597,22333.415,0.0,0.0,-0.08384000457044061,0.0,0.0,0.0,-1.931586428682738,-1.915394489434718,-2.941819576509987,0.0015540862224013685,0.013420607005510789,-0.25674299467106076
8385,2.0,299.92978,22169.0,0.0,0.0,-0.08385000899081474,0.0,0.0,0.0,-1.9016989957830783,-1.881700883859418,-2.9554225604274973,-0.016956889371264685,0.016987494590535182,-0.23231951293565076
8386,2.0,300.73291,22386.97,0.0,0.0,-0.08386001341118865,0.0,0.0,0.0,-1.9263018227861881,-1.9159943334939182,-2.9627835184289673,-0.008476530149568392,0.013913613974166785,-0.24828968213428373
8387,2.0,300.19455,22529.292,0.0,0.0,-0.08386998492228537,0.0,0.0,0.0,-1.901612768199568,-1.9338494214560782,-3.012879920598097,-0.004776298750058985,-0.0072857404948716035,-0.22971821621892277
8388,2.0,300.12757,22415.183999999997,0.0,0.0,-0.0838799893426595,0.0,0.0,0.0,-1.9191452373298878,-1.906923414623688,-2.9875875769019373,0.008859476473812251,-0.0005615651828146685,-0.23281634998968478
8389,2.0,299.5369,22512.529,0.0,0.0,-0.08388999376303374,0.0,0.0,0.0,-1.9278842154673583,-1.9323696710100382,-2.982992892998477,0.024781195497713578,-0.0057341454491660945,-0.22199167758137278
8390,2.0,299.64248,22700.021,0.0,0.0,-0.08389999818340788,0.0,0.0,0.0,-1.9882813181530878,-1.9222423375855482,-2.9897158074119767,0.013036549753857287,-0.02306302527664338,-0.22703940586954477
8391,2.0,299.97852,22702.927000000003,0.0,0.0,-0.08391000260378201,0.0,0.0,0.0,-1.9615210790370583,-1.9363686651797083,-3.003233070371027,0.006785621219788674,-0.008262251970095781,-0.23918365414808876
8392,2.0,299.72704,22458.077999999998,0.0,0.0,-0.08392000702415614,0.0,0.0,0.0,-1.9295547609072283,-1.9157325096680782,-2.981407663217027,-0.0005669448417030995,0.005396872285104825,-0.25209118372696276
8393,2.0,298.93645,22416.355,0.0,0.0,-0.0839300114445305,0.0,0.0,0.0,-1.9066529781719983,-1.909720998149788,-2.997638004643837,-0.0027253129560924475,0.024839328695700876,-0.23207507648152678
8394,2.0,299.95702,22381.605,0.0,0.0,-0.08394001586490452,0.0,0.0,0.0,-1.9313420327586182,-1.907065066987668,-2.9650420529018673,-0.002091989999013338,0.015549453571611586,-0.25287021093384676
8395,2.0,299.74499,22296.926,0.0,0.0,-0.08394998737600112,0.0,0.0,0.0,-1.9098614346136484,-1.911466726747078,-2.956380487072037,-0.0068582225146288645,0.014084484418030386,-0.24616715622230678
8396,2.0,300.36935,22495.156000000003,0.0,0.0,-0.08395999179637514,0.0,0.0,0.0,-1.9451735045736784,-1.9201821974822284,-2.972609916573757,-0.02368056270908958,0.016704352995841283,-0.2274344214210298
8397,2.0,299.81707,22607.517999999996,0.0,0.0,-0.0839699962167495,0.0,0.0,0.0,-1.9418280567185084,-1.929260107778148,-3.0010326964538674,-0.022334051611449277,0.003438406053794257,-0.22601527346347078
8398,2.0,299.53276,22567.747000000003,0.0,0.0,-0.08398000063712363,0.0,0.0,0.0,-1.930351783435888,-1.9192339980386484,-3.0104457898828674,-0.011125077758209688,-0.002213447477900258,-0.2263093287749918
8399,2.0,300.03415,22733.362,0.0,0.0,-0.08399000505749776,0.0,0.0,0.0,-1.9495383833544582,-1.947959841023668,-3.012876171572727,0.007101391392877764,0.006195505374798775,-0.23897750841524376
8400,2.0,300.19192000000004,22691.338,0.0,0.0,-0.0840000094778719,0.0,0.0,0.0,-1.9693940323140584,-1.916364777730478,-3.0118412379205868,0.026573326896583177,0.0015864936082997285,-0.21362371110051878
8401,2.0,300.37605,22338.176,0.0,0.0,-0.08401001389824614,0.0,0.0,0.0,-1.938673910482218,-1.8933141485555582,-2.958259559382487,0.012627661795253188,-0.012888316330477788,-0.24502661151224378
8402,2.0,300.18075,22349.555,0.0,0.0,-0.08401998540934275,0.0,0.0,0.0,-1.9449490696765284,-1.9023016769425583,-2.9464558036675474,0.00898841579143757,-0.012168719281709088,-0.24915408579459378
8403,2.0,299.47802,22528.657000000003,0.0,0.0,-0.08402998982971699,0.0,0.0,0.0,-1.951339739382238,-1.9070244356586583,-2.989784911068797,0.01573267452094409,0.004123122879795545,-0.25057594926242077
8404,2.0,299.74857000000003,22517.806,0.0,0.0,-0.0840399942500909,0.0,0.0,0.0,-1.9255344884854584,-1.925986702005088,-2.993329563893627,0.0025165359140627576,0.007900167350835811,-0.23860201819318577
8405,2.0,299.73061,22514.547000000002,0.0,0.0,-0.08404999867046503,0.0,0.0,0.0,-1.9298372550351084,-1.9142897428506882,-2.9997331018756075,-0.004472780493204066,-0.0014576973615885286,-0.2408932907768168
8406,2.0,298.8069,22626.592,0.0,0.0,-0.08406000309083939,0.0,0.0,0.0,-1.9630543290883782,-1.9243115969397682,-2.9905531572946176,-0.014392841754712886,-0.0066895660222337635,-0.2272158937719628
8407,2.0,299.7973,22549.772,0.0,0.0,-0.08407000751121352,0.0,0.0,0.0,-1.941205515857068,-1.9280510977588283,-2.9853111079022674,0.007127280439557813,0.001011361087706068,-0.23692969956564078
8408,2.0,299.99717000000004,22582.535,0.0,0.0,-0.08408001193158776,0.0,0.0,0.0,-1.945255679156788,-1.9246528595734482,-2.9946183166958176,-0.002869878211459927,0.0004821609572005816,-0.21799500375443182
8409,2.0,299.86213,22679.81,0.0,0.0,-0.0840900163519619,0.0,0.0,0.0,-1.9376363423798182,-1.9422143076566283,-3.0142454777578673,-0.003723792706734726,-0.01213851936247859,-0.22495828135665377
8410,2.0,300.2889,22606.3,0.0,0.0,-0.08409998786305861,0.0,0.0,0.0,-1.938245609664948,-1.9338744487335482,-2.999630662290497,-0.007259197496577013,-0.004658717155454586,-0.2320739619064168
8411,2.0,299.87769,22384.076,0.0,0.0,-0.08410999228343252,0.0,0.0,0.0,-1.9082076078004284,-1.9218909424508681,-2.9741015220459674,0.00999691739616893,0.007017729459945973,-0.2524979935096118
8412,2.0,299.56011,22486.798,0.0,0.0,-0.08411999670380665,0.0,0.0,0.0,-1.9464636759260083,-1.916732486191768,-2.972228934536157,0.02102731868623478,-0.0026539254335470473,-0.2292769255353708
8413,2.0,300.15788,22686.974,0.0,0.0,-0.0841300011241809,0.0,0.0,0.0,-1.9464430056239683,-1.9308139268064983,-3.0190166698287473,0.005608123075928655,-0.011716525013830989,-0.22226565027591177
8414,2.0,299.70511,22627.775,0.0,0.0,-0.08414000554455503,0.0,0.0,0.0,-1.954610004079988,-1.9213735769498081,-3.0022950034284475,0.004407881418999026,-0.014578561378791986,-0.23429277697539677
8415,2.0,299.82316000000003,22644.342,0.0,0.0,-0.08415000996492938,0.0,0.0,0.0,-1.919163881131728,-1.9377866073696481,-3.0263639489538674,-0.003055604624314697,-0.002030681477862658,-0.24380408473658977
8416,2.0,300.39903,22706.777000000002,0.0,0.0,-0.08416001438530352,0.0,0.0,0.0,-1.978505075888248,-1.9091592522943484,-3.014628790270697,-0.003476500508528887,0.003949181882828906,-0.2214044586184188
8417,2.0,300.64264,22679.392999999996,0.0,0.0,-0.08416998589640001,0.0,0.0,0.0,-1.9493240809583083,-1.9402892337916382,-3.004355954131847,-0.01030771930004269,-0.007849289530189561,-0.23584607924619577
8418,2.0,299.42176,22676.028,0.0,0.0,-0.08417999031677414,0.0,0.0,0.0,-1.9821603756239983,-1.9332483614967582,-2.977537554460077,-0.012368379200663988,0.006252672641465744,-0.23162952001505377
8419,2.0,300.05537000000004,22703.153,0.0,0.0,-0.08418999473714828,0.0,0.0,0.0,-1.952154797762678,-1.941050285941748,-3.0079866318901676,-0.0015822320810291483,0.02063645442040948,-0.22765289840759179
8420,2.0,299.82018,22523.175,0.0,0.0,-0.08419999915752252,0.0,0.0,0.0,-1.946743940903668,-1.9223926025753781,-2.977346050191177,-0.006203986075485755,0.008773416076568752,-0.2197827720983708
8421,2.0,299.75985,22615.686,0.0,0.0,-0.08421000357789665,0.0,0.0,0.0,-1.9179874977656284,-1.937932920684088,-3.018683209220837,-0.01075030491722249,-0.003612386364864777,-0.2271334152138228
8422,2.0,299.73828,22783.967,0.0,0.0,-0.08422000799827078,0.0,0.0,0.0,-1.9809609914806283,-1.9446970743766583,-3.000099087811727,0.0028105543432801173,-0.005433256171020635,-0.24957487842862275
8423,2.0,300.15089,22630.298,0.0,0.0,-0.08423001241864492,0.0,0.0,0.0,-1.953286192824338,-1.9297683540283084,-2.9959909666062874,0.021039789768465583,0.0012868826464804287,-0.24410039959583377
8424,2.0,300.10321,22525.836,0.0,0.0,-0.08423998392974164,0.0,0.0,0.0,-1.9519544782179084,-1.915047856575508,-2.980289440406667,0.0100564891053232,-0.009204277275516442,-0.24873990968371776
8425,2.0,300.48996,22755.545,0.0,0.0,-0.08424998835011577,0.0,0.0,0.0,-1.9535156939719882,-1.945665538822238,-3.0179362412471176,0.0044018814585318755,-0.005143146050088995,-0.22698863190703378
8426,2.0,299.98426,22716.791,0.0,0.0,-0.0842599927704899,0.0,0.0,0.0,-1.9345365063488882,-1.943145484498528,-3.027655437531327,-0.00901601723078662,-0.0013952919972045987,-0.24200294149133078
8427,2.0,299.90753,22570.007,0.0,0.0,-0.08426999719086392,0.0,0.0,0.0,-1.919001254490678,-1.941549210290988,-3.000168191468547,-0.013182879280298886,0.01034339684931379,-0.24396854536032075
8428,2.0,299.97821,22666.197,0.0,0.0,-0.08428000161123828,0.0,0.0,0.0,-1.968704110320968,-1.921670053929068,-2.9995837488108674,-0.016068710810608285,-0.007842099608804973,-0.22074597777593177
8429,2.0,299.58044,22673.567000000003,0.0,0.0,-0.08429000603161241,0.0,0.0,0.0,-1.9608258881434482,-1.933836553179808,-2.997535869033757,-0.014537439636733587,-0.014601595593315286,-0.24010948102946078
8430,2.0,299.59873,22553.032000000003,0.0,0.0,-0.08430001045198654,0.0,0.0,0.0,-1.959281492341028,-1.9270486894348984,-2.969228397015027,-0.005870424851840824,-0.0016808438099113682,-0.24606586160980978
8431,2.0,299.86794,22696.259,0.0,0.0,-0.08431001487236067,0.0,0.0,0.0,-1.9555048052432984,-1.9359638717647585,-3.0076273334047072,0.006058276252805314,0.01086818136760599,-0.24087249888476478
8432,2.0,299.89156,22757.317000000003,0.0,0.0,-0.08431998638345739,0.0,0.0,0.0,-1.966347391913378,-1.9376644094075879,-3.013644215148527,-0.004699657829720115,0.006018435968148384,-0.2150272043440328
8433,2.0,300.21252999999996,22675.44,0.0,0.0,-0.08432999080383152,0.0,0.0,0.0,-1.9449095529226281,-1.9371336690052081,-3.0107244336603673,-0.006675318408602633,0.013528531313412088,-0.2515601393495528
8434,2.0,300.49579,22698.528,0.0,0.0,-0.08433999522420577,0.0,0.0,0.0,-1.9656443989939982,-1.9331236304094481,-3.001017903002407,0.0017226657077888685,0.008181330980009503,-0.23737322953191378
8435,2.0,300.37504,22767.907000000003,0.0,0.0,-0.08434999964457968,0.0,0.0,0.0,-1.967888241340448,-1.939574081871058,-3.013412991475707,0.01138718428082759,0.010895627273064689,-0.25264620160173873
8436,2.0,300.56054,22750.391,0.0,0.0,-0.08436000406495381,0.0,0.0,0.0,-1.979955543406398,-1.9276258366918584,-3.0079695079634767,0.002104110395384528,-0.003201211095484937,-0.21322475400614482
8437,2.0,300.65026,22614.141,0.0,0.0,-0.08437000848532816,0.0,0.0,0.0,-1.9343939420598182,-1.9340001930709583,-3.005739851118427,-0.014849669615298287,-0.006456001741682764,-0.2552398482802118
8438,2.0,299.85902999999996,22610.357999999997,0.0,0.0,-0.0843800129057023,0.0,0.0,0.0,-1.9229731948826783,-1.939488766212638,-3.010522492915437,-0.018079612025318784,0.0030181513542433466,-0.2225792613143628
8439,2.0,300.22996,22549.234,0.0,0.0,-0.0843899844167989,0.0,0.0,0.0,-1.9326679718394781,-1.9265510823107879,-2.995185027476747,-0.007960019932917803,-0.0017225453336769882,-0.24309172938628576
8440,2.0,299.3807,22609.45,0.0,0.0,-0.08439998883717303,0.0,0.0,0.0,-1.933774542273688,-1.9425145336612581,-2.9964193687485676,0.0009055451911428521,-0.007961794843117972,-0.23464549946770774
8441,2.0,299.48522,22722.375,0.0,0.0,-0.08440999325754739,0.0,0.0,0.0,-1.9706176331348182,-1.944841057215868,-2.991575830620547,0.0049173883549334454,-0.004576780078168026,-0.25591310230915676
8442,2.0,299.75045,22786.904,0.0,0.0,-0.0844199976779213,0.0,0.0,0.0,-1.979200874731918,-1.953851890355168,-2.9935971632450373,0.016135244865174685,-0.0003243114559995487,-0.25494636038874674
8443,2.0,300.16468,22703.085,0.0,0.0,-0.08443000209829543,0.0,0.0,0.0,-1.9544138388606282,-1.9348206216769281,-3.011936483429987,-0.006430761783016774,-0.00019082823856578083,-0.2427061877232358
8444,2.0,299.78522000000004,22796.955,0.0,0.0,-0.08444000651866967,0.0,0.0,0.0,-1.9647743211331283,-1.9334021728619382,-3.0315284847135673,-0.0034009992919024966,-0.00025246984542183373,-0.2212750463156468
8445,2.0,300.4827,22821.673,0.0,0.0,-0.08445001093904381,0.0,0.0,0.0,-1.9780711008704182,-1.9248999912728382,-3.034247541356917,-0.012222647491781388,0.0067064437291494625,-0.2224707928911578
8446,2.0,300.31446,22567.604,0.0,0.0,-0.08446001535941816,0.0,0.0,0.0,-1.9455852894143182,-1.9215752137197084,-2.9928274984690773,-0.010646987857525889,0.007976852550204054,-0.25218558823877973
8447,2.0,300.32133,22625.695,0.0,0.0,-0.08446998687051466,0.0,0.0,0.0,-1.9619784601321983,-1.921097770272588,-2.9945701873160675,0.005926549889454933,-0.007159335315746383,-0.22903361378885778
8448,2.0,300.28503,22827.902000000002,0.0,0.0,-0.08447999129088879,0.0,0.0,0.0,-1.995346001825318,-1.9294913314509679,-3.014274862010767,-0.003834511659736837,-0.014878353712379186,-0.23329990333490777
8449,2.0,299.5935,22705.959,0.0,0.0,-0.08448999571126292,0.0,0.0,0.0,-1.9263701158429283,-1.9464352035981982,-3.029239248762637,0.016018036146607087,-0.0016813840748646886,-0.23245977714699378
8450,2.0,299.5207,22634.637000000002,0.0,0.0,-0.08450000013163705,0.0,0.0,0.0,-1.9353138718256082,-1.9455597555117983,-2.999490833776697,-0.007679841689466363,-0.0030178551812391173,-0.24118589714069477
8451,2.0,299.63434,22876.205,0.0,0.0,-0.0845100045520113,0.0,0.0,0.0,-1.958293877468558,-1.9450191865834483,-3.0504821384341474,-0.0026211847896907975,0.0031055978776236472,-0.2200603418307648
8452,2.0,299.57747,22720.19,0.0,0.0,-0.08452000897238543,0.0,0.0,0.0,-1.952418546763708,-1.946959965824988,-3.006991822941987,-0.011338627309535389,-0.005423964870253655,-0.2362945741379588
8453,2.0,299.77862999999996,22727.561,0.0,0.0,-0.08453001339275956,0.0,0.0,0.0,-1.9480281340804082,-1.9584028018543083,-3.002180100867107,0.013054436657872589,0.0037083904946146463,-0.24829495103480376
8454,2.0,300.15745,22875.005,0.0,0.0,-0.08453998490385628,0.0,0.0,0.0,-1.9783824726261483,-1.940731314810268,-3.034316543688727,0.015200505435923087,-0.01034645281161539,-0.25415128330027875
8455,2.0,300.45474,22767.126,0.0,0.0,-0.08454998932423041,0.0,0.0,0.0,-1.933796124500818,-1.9489977131010983,-3.0378439712618572,0.005727781731913045,-0.01034360152583399,-0.2366645928094768
8456,2.0,300.14841,22547.822,0.0,0.0,-0.08455999374460454,0.0,0.0,0.0,-1.933651229736518,-1.9118179192317382,-3.008505719916397,0.017041115785827184,0.005558813969087225,-0.24414073708231476
8457,2.0,299.70704,22742.048,0.0,0.0,-0.08456999816497868,0.0,0.0,0.0,-1.959389606126698,-1.925167286649218,-3.028457931610527,0.007248203530341993,0.00900737137033334,-0.2159442159495348
8458,2.0,300.06172999999995,22870.382,0.0,0.0,-0.0845800025853527,0.0,0.0,0.0,-1.9870471795312883,-1.9553991232578682,-3.009578650447287,0.0011166688900066388,0.008477520297566111,-0.24967881762388078
8459,2.0,299.99034,22714.084,0.0,0.0,-0.08459000700572705,0.0,0.0,0.0,-1.966302910233988,-1.9309901309988882,-3.0072213240896373,-0.023394958916652678,-0.0037560199367653066,-0.2183403700510168
8460,2.0,300.15637000000004,22782.085,0.0,0.0,-0.08460001142610118,0.0,0.0,0.0,-1.9660158564806585,-1.953278086823538,-3.005891028033347,-0.02182344752830658,-0.0023045087710123076,-0.24247791260820678
8461,2.0,299.8817,22921.542,0.0,0.0,-0.08461001584647532,0.0,0.0,0.0,-1.9617063011553382,-1.952608429832448,-3.053261787433477,-0.013166471721429587,-0.0011032897330362189,-0.22483574902206077
8462,2.0,299.81497,22635.147999999997,0.0,0.0,-0.08461998735757181,0.0,0.0,0.0,-1.9458327250887382,-1.9331669975137282,-3.0015199684269573,-0.01105347643989319,-0.004241050803284126,-0.23620262169138376
8463,2.0,299.99584,22615.395,0.0,0.0,-0.08462999177794617,0.0,0.0,0.0,-1.9431221797462281,-1.928667153819628,-3.002726141345997,0.002106321915052788,-0.005796468942941944,-0.21522516301606978
8464,2.0,299.42059,22852.638,0.0,0.0,-0.0846399961983203,0.0,0.0,0.0,-1.989867459859628,-1.9340166077225782,-3.022747254046927,-0.004396165714717776,0.01048098405389259,-0.22144428947984982
8465,2.0,298.96496,22760.711,0.0,0.0,-0.08465000061869454,0.0,0.0,0.0,-1.9660883038628083,-1.9473024443587883,-3.0052969594997174,0.017190899481859683,0.015273773550654086,-0.25166775664267377
8466,2.0,299.55771,22763.201,0.0,0.0,-0.08466000503906845,0.0,0.0,0.0,-1.9536557251358084,-1.9436701454003085,-3.0221188363349074,-0.005923634262292184,-0.005227959643084445,-0.26285091693636575
8467,2.0,299.74427000000003,22934.6,0.0,0.0,-0.08467000945944259,0.0,0.0,0.0,-1.9799740858832282,-1.9458874405941382,-3.0456840952356172,-0.003220018435891077,-0.00910068278794246,-0.25268540424810776
8468,2.0,300.43767,22785.482000000004,0.0,0.0,-0.08468001387981694,0.0,0.0,0.0,-1.9674776723999283,-1.9418674721473983,-3.016872531292137,-0.01743228200018228,-0.0038632357801966864,-0.24167586435905075
8469,2.0,300.57914,22639.277000000002,0.0,0.0,-0.08468998539091344,0.0,0.0,0.0,-1.933629951484418,-1.950547884429088,-2.9975970693397973,-0.02073597685848158,0.008316066696156883,-0.2593519312935427
8470,2.0,300.01204,22750.06,0.0,0.0,-0.08469998981128768,0.0,0.0,0.0,-1.966909340418838,-1.9443043386378982,-3.004236390620047,-0.013347224393518488,0.009783937392724441,-0.2264664636004998
8471,2.0,300.27539,22798.557,0.0,0.0,-0.08470999423166181,0.0,0.0,0.0,-1.9572338152139381,-1.956214384288328,-3.016743848529437,-0.006132146744720765,0.009711207212471531,-0.23791893563827077
8472,2.0,300.11039,22703.613999999998,0.0,0.0,-0.08471999865203617,0.0,0.0,0.0,-1.936129234181078,-1.956283791920178,-3.008918821982167,0.015885033898730784,0.013399100772138288,-0.24012383878337776
8473,2.0,299.75708,22754.88,0.0,0.0,-0.08473000307241008,0.0,0.0,0.0,-1.950220503321778,-1.9547637141201581,-3.011931113204457,0.007335289134036673,0.00011016041914948688,-0.2578733967476227
8474,2.0,299.81228,22886.672000000002,0.0,0.0,-0.08474000749278421,0.0,0.0,0.0,-1.978566073544268,-1.9470490305087782,-3.0313617037471072,0.01108730278123159,-0.01931359460660338,-0.2314725067795578
8475,2.0,299.80279,22703.341,0.0,0.0,-0.08475001191315845,0.0,0.0,0.0,-1.9607863713895484,-1.9233450576693785,-3.0171173325162974,0.004070156953343215,-0.017679274884308583,-0.2420777598787148
8476,2.0,299.38133999999997,22813.236,0.0,0.0,-0.08476001633353258,0.0,0.0,0.0,-1.9806425269741978,-1.9320805907565084,-3.021930878441357,0.004858100761107215,-0.005416576655824495,-0.22501988696273378
8477,2.0,299.56883999999997,22941.57,0.0,0.0,-0.0847699878446293,0.0,0.0,0.0,-1.978845933221888,-1.9389871060881283,-3.0558311870370574,-0.004627453526269106,0.0018321737255964682,-0.2410189236567158
8478,2.0,300.11539,22738.754,0.0,0.0,-0.08477999226500343,0.0,0.0,0.0,-1.948493823826368,-1.9406312057003883,-3.022888399785857,-0.013934830418010687,-0.009741191816055782,-0.24675783036810175
8479,2.0,299.9877,22661.424,0.0,0.0,-0.08478999668537757,0.0,0.0,0.0,-1.9631835184761282,-1.9148215978281782,-3.0105020252634174,-0.005572229603061245,0.01031874852738119,-0.25072514020714476
8480,2.0,300.15786,22925.256,0.0,0.0,-0.0848000011057517,0.0,0.0,0.0,-1.992497958444238,-1.9465988434893482,-3.029608578424087,-0.016861649941365284,0.01020774799217629,-0.23892267131983178
8481,2.0,300.42278,22837.709,0.0,0.0,-0.08481000552612583,0.0,0.0,0.0,-1.968619503937618,-1.9497959515298782,-3.023677924263777,-0.014568492712548287,0.01081210810707199,-0.24265683231086477
8482,2.0,300.10245,22801.947999999997,0.0,0.0,-0.08482000994650007,0.0,0.0,0.0,-1.961206059580968,-1.9408773241496782,-3.029139544952797,-0.024330546436237974,0.005470172722514015,-0.2248718713881258
8483,2.0,300.07582,23009.938,0.0,0.0,-0.0848300143668742,0.0,0.0,0.0,-1.959576044145098,-1.9699437204933083,-3.064926930534737,0.005424201869452046,0.020214380025003982,-0.2069557756374448
8484,2.0,299.77697,22932.603,0.0,0.0,-0.0848399858779707,0.0,0.0,0.0,-1.9667045625736284,-1.9550738699757682,-3.049160353678697,0.01146240898150169,0.010963354936248889,-0.22696054461426177
8485,2.0,299.51673999999997,22839.751,0.0,0.0,-0.08484999029834506,0.0,0.0,0.0,-1.9499799577480381,-1.952239505471038,-3.0404945321984473,0.016370299636622787,-0.01062674616027819,-0.23806597849278277
8486,2.0,299.59591,22955.315,0.0,0.0,-0.08485999471871919,0.0,0.0,0.0,-1.996922416330898,-1.953941765639038,-3.026978383814507,0.016488215603760185,-0.014942417463201785,-0.25497048587362775
8487,2.0,300.08619,22914.526,0.0,0.0,-0.08486999913909332,0.0,0.0,0.0,-1.981075792716958,-1.9409949624862883,-3.0433730744075373,0.014473099268633686,-0.007457044305802973,-0.22774758662943675
8488,2.0,300.11607000000004,22581.412999999997,0.0,0.0,-0.08488000355946745,0.0,0.0,0.0,-1.9408629359982583,-1.9222191341582582,-3.0011036239608675,0.02071619011052878,-0.004951378234837985,-0.2519688439098887
8489,2.0,300.68877000000003,22848.602000000003,0.0,0.0,-0.08489000797984148,0.0,0.0,0.0,-1.9385324607682584,-1.9674506186222585,-3.039421399017537,-0.00988922765566578,-0.013867142271580386,-0.23654817037298675
8490,2.0,300.30124,23032.874,0.0,0.0,-0.08490001240021583,0.0,0.0,0.0,-2.013555119372418,-1.943006162609778,-3.0448571818290073,-0.013965126596000684,-0.01111568087678229,-0.2230047351638538
8491,2.0,300.27058999999997,22915.107999999997,0.0,0.0,-0.08490998391131233,0.0,0.0,0.0,-1.9831135399930682,-1.9613268389928882,-3.021180364092287,-0.008658397092792262,0.015334011269099087,-0.23006431205557978
8492,2.0,299.91811,22985.341,0.0,0.0,-0.08491998833168646,0.0,0.0,0.0,-2.0002474978590583,-1.9594106817287782,-3.027311641772397,-0.012386063454659289,0.006583073234073744,-0.23534002161625178
8493,2.0,299.60887,23141.295,0.0,0.0,-0.08492999275206059,0.0,0.0,0.0,-2.0064065385919085,-1.973352901779768,-3.0546164014921673,0.015327346109941287,-0.00040637615213620355,-0.2295184944917118
8494,2.0,299.32615,22949.327,0.0,0.0,-0.08493999717243494,0.0,0.0,0.0,-1.976637048003888,-1.9629299019760982,-3.036455514649827,0.00980970343084235,-0.004641906323045486,-0.23256201408208377
8495,2.0,299.45531,22864.365,0.0,0.0,-0.08495000159280908,0.0,0.0,0.0,-1.9457970586852182,-1.951060588979688,-3.053338389141037,0.029255025008746174,0.01355167394569609,-0.23015011407404776
8496,2.0,300.14328,22948.227000000003,0.0,0.0,-0.08496000601318332,0.0,0.0,0.0,-1.9994145049518481,-1.9526491624864681,-3.023624222008477,0.005782940838206824,0.006918114512139744,-0.23893941021148377
8497,2.0,300.36572,22776.097999999998,0.0,0.0,-0.08497001043355723,0.0,0.0,0.0,-1.9586182188255683,-1.9498152032817782,-3.014931752050597,-0.011614338741245988,-0.01148496798172809,-0.2683915103381797
8498,2.0,300.57394,22710.752,0.0,0.0,-0.08498001485393136,0.0,0.0,0.0,-1.9794064631772084,-1.9392054614846783,-2.9848895958606674,-0.013622130291399588,-0.01056904359358339,-0.25459724506679177
8499,2.0,300.17659,22993.778,0.0,0.0,-0.08498998636502808,0.0,0.0,0.0,-1.9958679269518282,-1.9613212661173383,-3.0323450629691573,-0.012713667476991288,0.004063875511998286,-0.25226702314931676
8500,2.0,300.20977999999997,23068.013,0.0,0.0,-0.08499999078540221,0.0,0.0,0.0,-1.9912107255171982,-1.9652777037828084,-3.055611615740387,0.002820237265210747,-0.012721508006265089,-0.22822456398151078
8501,2.0,299.92357000000004,22898.077999999998,0.0,0.0,-0.08500999520577646,0.0,0.0,0.0,-1.947062405410098,-1.978654226302968,-3.034727416604277,-0.00866171275109449,-0.02112504260537938,-0.2519132063468978
8502,2.0,299.70815,23107.372000000003,0.0,0.0,-0.08501999962615059,0.0,0.0,0.0,-2.0101189856332984,-1.961943401678738,-3.052001709609117,0.013758378992596286,0.006596121970186554,-0.2046644118613048
8503,2.0,299.80787000000004,23057.722999999998,0.0,0.0,-0.08503000404652494,0.0,0.0,0.0,-1.984503921780288,-1.967415053543748,-3.057052964007637,0.004931901237440755,0.017486448324028084,-0.23989096351289477
8504,2.0,299.70644,22757.252999999997,0.0,0.0,-0.08504000846689885,0.0,0.0,0.0,-1.9637855916855482,-1.9524420541660281,-3.0014091188660172,-0.0012022278297756487,0.01009035222764023,-0.23634652347058577
8505,2.0,299.59406,22869.761000000002,0.0,0.0,-0.08505001288727299,0.0,0.0,0.0,-1.9679168149932682,-1.9497934184046282,-3.034126153994937,-0.016225960133377584,-0.01138381421099499,-0.25802746142532773
8506,2.0,299.74712999999997,22995.262000000002,0.0,0.0,-0.0850599843983697,0.0,0.0,0.0,-1.9767851851685083,-1.957732131613118,-3.0554680382012176,-0.0032375413804704573,-0.005153708979731475,-0.2164006749870838
8507,2.0,300.17522,22827.305,0.0,0.0,-0.08506998881874384,0.0,0.0,0.0,-1.9646635728971982,-1.9451609402724381,-3.0291063103495173,0.0018173982086632382,0.002404276820908648,-0.23539508162668576
8508,2.0,300.09174,22926.109,0.0,0.0,-0.08507999323911808,0.0,0.0,0.0,-1.976166393332438,-1.9530433167753682,-3.0397550622754674,0.0054013670625484254,-0.008002499936735253,-0.23270336247103376
8509,2.0,300.12541,23125.496,0.0,0.0,-0.08508999765949221,0.0,0.0,0.0,-2.0006956583782878,-1.974429277360998,-3.054448303300577,0.00909983145520844,-0.0006080795938927835,-0.24110124009483977
8510,2.0,300.2624,23074.298,0.0,0.0,-0.08510000207986634,0.0,0.0,0.0,-2.001019695760268,-1.9566968939859481,-3.0562937357077073,0.008226436922786113,0.014076543576996685,-0.22649294995811378
8511,2.0,300.59423,22960.224,0.0,0.0,-0.08511000650024048,0.0,0.0,0.0,-1.976490633364438,-1.9507250005465682,-3.052119043970697,0.013677251096839586,0.015701438046861284,-0.24331909257622475
8512,2.0,299.77828,23036.766,0.0,0.0,-0.08512001092061461,0.0,0.0,0.0,-1.9842888087840584,-1.9600513597670082,-3.0582614674019073,-0.013494709025074087,-0.016807975043817983,-0.23843351470155577
8513,2.0,299.82624,22790.069,0.0,0.0,-0.08513001534098885,0.0,0.0,0.0,-1.954289209098328,-1.9334119000628982,-3.0399106974908268,-0.024730631277973276,-0.011639391349968489,-0.23500765531844975
8514,2.0,299.74635,22673.299,0.0,0.0,-0.08513998685208535,0.0,0.0,0.0,-1.9303051739312882,-1.9551852261617582,-3.0066263436309173,-0.027027395677146272,0.011444553488239488,-0.24227639742831877
8515,2.0,299.57847999999996,23015.285,0.0,0.0,-0.08514999127245948,0.0,0.0,0.0,-1.9803521294955382,-1.9537457017446878,-3.0619741170933175,-0.007858381929961914,0.03273325219677047,-0.24238327504886678
8516,2.0,299.74253999999996,23247.297000000002,0.0,0.0,-0.08515999569283383,0.0,0.0,0.0,-2.0185746590428084,-1.9781597602541683,-3.069863282371917,-0.002339623358527848,0.007240458347902603,-0.24066184418897477
8517,2.0,299.80938,23084.502,0.0,0.0,-0.08517000011320797,0.0,0.0,0.0,-1.977882231051778,-1.982593033416698,-3.0566368221915674,0.007244836702909712,-0.010074020662528431,-0.25832056428175476
8518,2.0,300.34042,23093.682,0.0,0.0,-0.0851800045335821,0.0,0.0,0.0,-2.0149581667858882,-1.946804127959608,-3.058140485339967,0.024374301615306276,-0.004368838055545746,-0.21029019933152682
8519,2.0,300.78233,23141.718999999997,0.0,0.0,-0.08519000895395623,0.0,0.0,0.0,-2.0000750426920377,-1.9750190902442084,-3.0594105943403176,0.017512753309874184,-0.006864501726823573,-0.2244027365918258
8520,2.0,300.32284,23012.032000000003,0.0,0.0,-0.08520001337433025,0.0,0.0,0.0,-1.987855145161028,-1.952106769707938,-3.055121202691987,0.004570273087350836,-0.018936368687124085,-0.21987642680511377
8521,2.0,299.8502,23065.552000000003,0.0,0.0,-0.08520998488542708,0.0,0.0,0.0,-1.9799114670270483,-1.964723759953138,-3.066716735511377,-0.008443953449578321,-0.0034671037284264967,-0.23838383504915278
8522,2.0,299.86737,23040.439,0.0,0.0,-0.0852199893058011,0.0,0.0,0.0,-2.001311511789068,-1.9531597392118583,-3.049246783912227,-0.012780109325798589,0.012905803000703589,-0.23415837948213278
8523,2.0,299.39175,22834.591,0.0,0.0,-0.08522999372617523,0.0,0.0,0.0,-1.9469529743992982,-1.9465908388135582,-3.0476015697248573,-0.005233603040841405,0.01112678609787829,-0.26379481006702077
8524,2.0,299.84092999999996,22925.873,0.0,0.0,-0.08523999814654937,0.0,0.0,0.0,-1.989336719457248,-1.952962459417388,-3.0265938554015572,-0.006281954758755664,-0.016832197800708586,-0.26068769890037274
8525,2.0,299.96154,23167.384,0.0,0.0,-0.08525000256692372,0.0,0.0,0.0,-1.994260304343168,-1.977443899058518,-3.070601840369807,0.0012718659760233987,-0.00943827553108527,-0.24379589767578175
8526,2.0,300.14583999999996,22979.699,0.0,0.0,-0.08526000698729785,0.0,0.0,0.0,-1.962037329963008,-1.9682258562737682,-3.054991608004197,0.02179241471749388,0.00983477559529178,-0.24306073406572679
8527,2.0,299.55487999999997,22825.331000000002,0.0,0.0,-0.08527001140767188,0.0,0.0,0.0,-1.9403961316771878,-1.9668999171929082,-3.0310345252898174,0.0017349528851265182,0.023365895864034376,-0.2305732878458118
8528,2.0,299.30613,23128.507999999998,0.0,0.0,-0.08528001582804601,0.0,0.0,0.0,-2.0004347464775383,-1.9707089269688283,-3.0593451383838572,-0.01205497385198329,-0.0031696689238469664,-0.24533088038477277
8529,2.0,299.58013,23121.287,0.0,0.0,-0.08528998733914273,0.0,0.0,0.0,-2.0056683858940585,-1.9668037597584183,-3.0558217638111267,-0.014112243417769989,-0.0061470749584440635,-0.23935196512219975
8530,2.0,299.38299,22966.62,0.0,0.0,-0.08529999175951686,0.0,0.0,0.0,-1.9987164769579584,-1.959570673919568,-3.022991751296057,-0.0013879223252522685,0.014418875189532184,-0.25192383534044677
8531,2.0,299.44088,23056.245,0.0,0.0,-0.08530999617989099,0.0,0.0,0.0,-1.9771806566825383,-1.959578475945338,-3.071763531609457,0.006102331556553234,0.014312891255572386,-0.24088804214129877
8532,2.0,299.8864,23015.146,0.0,0.0,-0.08532000060026523,0.0,0.0,0.0,-1.9779228623807878,-1.963889652470818,-3.0542171809527674,0.006096596257012204,-0.01047815100661299,-0.24867369378968276
8533,2.0,300.17258,22854.432,0.0,0.0,-0.08533000502063937,0.0,0.0,0.0,-1.9441030058430282,-1.960866418147448,-3.042207431492497,0.0009102766334123092,-0.01274045780963529,-0.25459069947114576
8534,2.0,299.96645,23048.977000000003,0.0,0.0,-0.08534000944101372,0.0,0.0,0.0,-1.9722373134196682,-1.964893985969938,-3.0691822769797072,0.011957106051324488,0.015821007638161886,-0.23778737524528676
8535,2.0,299.94996000000003,23084.527000000002,0.0,0.0,-0.08535001386138763,0.0,0.0,0.0,-1.9774072194048984,-1.980334194968768,-3.059378575637157,-0.004505707169778676,0.013661683522303188,-0.2552075863970278
8536,2.0,299.64608,22884.116,0.0,0.0,-0.08535998537248435,0.0,0.0,0.0,-1.9848852077929182,-1.942696614704228,-3.028618025126327,-0.006090452516355864,-0.01161100616166709,-0.24524515942631278
8537,2.0,299.81511,23043.069,0.0,0.0,-0.08536998979285848,0.0,0.0,0.0,-1.9698171655558179,-1.986474186599738,-3.048226238411507,-0.004377173050868346,-0.00948051002440349,-0.2504543389854188
8538,2.0,299.63511,23181.203999999998,0.0,0.0,-0.08537999421323261,0.0,0.0,0.0,-2.006850443460718,-1.9687313667486583,-3.070925472451747,0.017586176451870484,0.010511221463376791,-0.22246404464549177
8539,2.0,299.34552,23071.229,0.0,0.0,-0.08538999863360686,0.0,0.0,0.0,-1.967298225807218,-1.9776440159532682,-3.068135083001357,0.008032053605051971,-0.007476673493365223,-0.22772025927423978
8540,2.0,299.19464,23051.45,0.0,0.0,-0.08540000305398099,0.0,0.0,0.0,-1.983708621776798,-1.969591920058588,-3.0537647647831174,0.0012825816024559487,-0.016898176594220184,-0.23801087795234477
8541,2.0,299.21377,23217.612,0.0,0.0,-0.08541000747435512,0.0,0.0,0.0,-2.027460153144738,-1.951729131395668,-3.0783851210129574,-0.00973973212796172,-0.0098380496090149,-0.24151409898058576
8542,2.0,300.13462999999996,23120.396,0.0,0.0,-0.08542001189472925,0.0,0.0,0.0,-2.012854254278248,-1.978918785904078,-3.0362502301795673,-0.0027315138440544276,0.024762283184597077,-0.26621448170332374
8543,2.0,299.89066,22979.167999999998,0.0,0.0,-0.08543001631510339,0.0,0.0,0.0,-1.968565700357308,-1.969844219333488,-3.0466831598342172,-0.012748788751957488,0.015068486040643786,-0.26350908367132175
8544,2.0,299.6421,23185.272999999997,0.0,0.0,-0.0854399878262001,0.0,0.0,0.0,-1.983959806476588,-1.9935053316936582,-3.0702788162379266,-0.014196165857302488,-0.0004187093411608946,-0.26103779707492475
8545,2.0,300.31412,23030.283,0.0,0.0,-0.08544999224657412,0.0,0.0,0.0,-1.9551199728553181,-1.982836517415728,-3.0626742729124175,-0.015454938615533684,-0.004178497200410566,-0.24545741505726076
8546,2.0,300.21432999999996,22835.73,0.0,0.0,-0.08545999666694826,0.0,0.0,0.0,-1.9301908793200082,-1.957774384142288,-3.053526448359597,-0.0002188379467776238,-0.0045330205421242956,-0.2503175907519228
8547,2.0,300.18747,23001.887000000002,0.0,0.0,-0.08547000108732261,0.0,0.0,0.0,-1.984745075304088,-1.9559284451101084,-3.0513257704674075,-0.003561249658817976,-0.012569863983048988,-0.22947578599999677
8548,2.0,300.69872999999995,23261.306,0.0,0.0,-0.08548000550769674,0.0,0.0,0.0,-2.011900380634108,-1.986675823369638,-3.072279985185427,0.008018747604738773,-0.01998385448150288,-0.2358553403521098
8549,2.0,300.21594,23191.584,0.0,0.0,-0.08549000992807088,0.0,0.0,0.0,-2.002604216266648,-1.974295730997818,-3.0727623935580373,0.016823765533376382,0.0007475540578428414,-0.23957948029965379
8550,2.0,299.24694,23181.074,0.0,0.0,-0.08550001434844501,0.0,0.0,0.0,-2.005867084238668,-1.973215403741198,-3.067385176602347,0.006576600997734983,-0.0013502184784311886,-0.23867807274569178
8551,2.0,299.42537999999996,23248.465,0.0,0.0,-0.08550998585954173,0.0,0.0,0.0,-1.9856100869144582,-1.9792603525127879,-3.102082305076687,-0.007018371860509374,-0.013133003057376488,-0.21632109432422977
8552,2.0,299.95468,23115.017000000003,0.0,0.0,-0.08551999027991586,0.0,0.0,0.0,-1.9948849730298182,-1.9701915614677679,-3.061311552852927,-0.012296914671110987,-0.01113122818631669,-0.2358919896082268
8553,2.0,299.50617,23152.822,0.0,0.0,-0.08552999470028988,0.0,0.0,0.0,-2.014650949355568,-1.953849559879938,-3.069379252799147,-0.007890816876262993,0.009645642230300771,-0.23849316473494275
8554,2.0,299.41733,23195.304,0.0,0.0,-0.08553999912066401,0.0,0.0,0.0,-2.0306041668800283,-1.949490557949738,-3.070698605754357,0.009347720356398172,0.01999505089510788,-0.24914541237373775
8555,2.0,300.0589,22967.906000000003,0.0,0.0,-0.08555000354103814,0.0,0.0,0.0,-1.9774862529126982,-1.9567761301437683,-3.0474075323307073,-0.011422904386602888,0.003281535889212377,-0.24352374883142278
8556,2.0,300.75909,23013.564,0.0,0.0,-0.0855600079614125,0.0,0.0,0.0,-1.987501014251078,-1.955276722645788,-3.0527709690850373,0.0024068527053128677,-0.00945587406412211,-0.25092428438179876
8557,2.0,300.78622,23486.07,0.0,0.0,-0.08557001238178663,0.0,0.0,0.0,-2.0127897102468784,-2.006827442683448,-3.119561781226777,0.006579903179810885,-0.008358974392841542,-0.2144025660548858
8558,2.0,299.84032,23317.61,0.0,0.0,-0.08557998389288324,0.0,0.0,0.0,-2.028441992491638,-1.9926557214848082,-3.0668734853018473,0.008600879038940672,-0.0035674115366511067,-0.2289207681252208
8559,2.0,299.83992,23082.015,0.0,0.0,-0.08558998831325737,0.0,0.0,0.0,-1.9893032822039483,-1.965134936843718,-3.061918084362787,-0.010927873957497189,-0.02246258441313448,-0.22550927662853282
8560,2.0,299.43606,23257.076,0.0,0.0,-0.0855999927336315,0.0,0.0,0.0,-2.0016053543180683,-2.0035756191375182,-3.064389401356687,-0.023201252855285376,-0.02086827793728868,-0.26136685004489973
8561,2.0,300.20822000000004,23377.271,0.0,0.0,-0.08560999715400563,0.0,0.0,0.0,-2.020508953483708,-1.990857101232298,-3.0947405988271175,-0.0003621477244761976,0.025072596093972575,-0.24073254878095277
8562,2.0,299.48699,23234.168999999998,0.0,0.0,-0.08562000157437977,0.0,0.0,0.0,-1.9794510461816082,-1.996579937797098,-3.086576133496347,0.009522300004902841,0.032199397063583074,-0.2674723607749668
8563,2.0,300.0753,23063.882,0.0,0.0,-0.08563000599475401,0.0,0.0,0.0,-1.9656809773226083,-1.9612297696333083,-3.083933577235547,0.015190948460979885,0.013493362415691186,-0.2321202775684878
8564,2.0,300.24149,22956.988999999998,0.0,0.0,-0.08564001041512814,0.0,0.0,0.0,-1.9818500171183682,-1.9437215171803781,-3.052779987010927,-0.005787873643668655,-0.019546831607372084,-0.22924193800941778
8565,2.0,300.80107999999996,23030.502,0.0,0.0,-0.0856500148355025,0.0,0.0,0.0,-1.983707811176718,-1.960120362098818,-3.0568694644145267,0.00946867607383557,-0.0038006483347697863,-0.22494819951815878
8566,2.0,300.11727,23385.763,0.0,0.0,-0.08565998634659899,0.0,0.0,0.0,-2.040311406813058,-1.9990886437196878,-3.0692877563151173,-0.0039099617072331765,0.004493508955799806,-0.24026025264434075
8567,2.0,300.10643999999996,23461.57,0.0,0.0,-0.08566999076697313,0.0,0.0,0.0,-2.038418858276278,-1.990761247772838,-3.102551541197997,-0.005849126740038865,-0.007425198159135003,-0.22325358938841378
8568,2.0,300.05825,23125.836,0.0,0.0,-0.08567999518734726,0.0,0.0,0.0,-1.9895748332307481,-1.9883630874361582,-3.0517386698831572,-0.00881131345415893,-0.005274797534256985,-0.25930102560851875
8569,2.0,299.8273,23241.293999999998,0.0,0.0,-0.08568999960772139,0.0,0.0,0.0,-2.000977341906088,-1.993750436892848,-3.070045363414887,-0.0015685941399831886,0.01201575904661309,-0.2327572471113518
8570,2.0,299.7703,23375.867000000002,0.0,0.0,-0.08570000402809563,0.0,0.0,0.0,-2.051295645847118,-1.9742728315455582,-3.080111496533337,0.01032521610276949,0.017724909642312384,-0.23721450390374876
8571,2.0,299.98728,23211.251,0.0,0.0,-0.08571000844846977,0.0,0.0,0.0,-1.991347818255728,-1.982941692776108,-3.081351106705677,0.0005502294878509225,0.0016508532281515286,-0.24498262632540277
8572,2.0,299.93074,23012.409,0.0,0.0,-0.0857200128688439,0.0,0.0,0.0,-1.976711217911208,-1.9640644381130683,-3.054422060122987,0.012584310902974788,-0.016908093272948885,-0.26362731982549076
8573,2.0,299.63124,23129.089,0.0,0.0,-0.08572998437994062,0.0,0.0,0.0,-1.987030156929608,-1.9768046395704282,-3.066830827472637,0.013881596284256887,0.003338051230765007,-0.26610913409042675
8574,2.0,300.31695,23282.532000000003,0.0,0.0,-0.08573998880031475,0.0,0.0,0.0,-1.983643368470358,-1.9960037024652282,-3.0976613935653767,0.004508953927074105,0.018564023593376482,-0.2696659661814587
8575,2.0,300.08732000000003,23226.617000000002,0.0,0.0,-0.08574999322068888,0.0,0.0,0.0,-2.011596202954088,-1.9751309530552483,-3.0735843420391573,-0.005357933286411844,0.006324031691683334,-0.23919454658666378
8576,2.0,299.9996,23264.353,0.0,0.0,-0.0857599976410629,0.0,0.0,0.0,-2.016121681875718,-1.9847530799798783,-3.070907740574997,-0.02214092512913918,-0.015285437072555183,-0.2392410446337528
8577,2.0,300.57193,23179.081000000002,0.0,0.0,-0.08577000206143703,0.0,0.0,0.0,-2.009550248352168,-1.9826974995020081,-3.053614094493247,-0.012743891714224187,-0.0031985725922245366,-0.22478873421742077
8578,2.0,299.75829,23136.287999999997,0.0,0.0,-0.08578000648181139,0.0,0.0,0.0,-1.9869574055724284,-1.9926366723829283,-3.0532598622582867,-0.011441413426179589,0.01057461646913339,-0.25016121586398976
8579,2.0,299.80843,23453.365,0.0,0.0,-0.08579001090218552,0.0,0.0,0.0,-2.028637043135888,-2.0014883239315178,-3.099112063733547,0.005420460646107815,0.004225754982424546,-0.23947293705163877
8580,2.0,299.6613,23556.256,0.0,0.0,-0.08580001532255954,0.0,0.0,0.0,-2.035144337928108,-2.018297433815448,-3.107071852544117,0.0017230853959802883,-0.0023981445299784375,-0.25280995295039976
8581,2.0,299.10064,23029.482999999997,0.0,0.0,-0.08580998683365615,0.0,0.0,0.0,-1.9946881998603982,-1.957531508093318,-3.048168077855767,0.006838228050405563,-0.0012136714764050488,-0.24753523637482575
8582,2.0,299.19158999999996,23065.616,0.0,0.0,-0.0858199912540305,0.0,0.0,0.0,-1.982572464439668,-1.9592620379391081,-3.069536813189697,-0.001032434977393399,-0.003110462896653787,-0.24560362704669078
8583,2.0,299.96879,23379.171000000002,0.0,0.0,-0.08582999567440452,0.0,0.0,0.0,-2.014327621248658,-1.9757840940697082,-3.1165725921067673,0.01006244661061116,-0.009837044059615661,-0.22879829658563378
8584,2.0,299.60059,23353.482000000004,0.0,0.0,-0.08584000009477866,0.0,0.0,0.0,-2.012551596473378,-1.992460366865528,-3.093863326890537,0.002498749423132368,-0.015428438072418286,-0.24130806470525176
8585,2.0,300.25217999999995,23370.439,0.0,0.0,-0.08585000451515279,0.0,0.0,0.0,-1.998480794984698,-1.997625611900298,-3.107923387928157,0.02205076512199108,-0.004659606181092325,-0.24556483983286279
8586,2.0,299.70016,23269.032000000003,0.0,0.0,-0.08586000893552692,0.0,0.0,0.0,-2.011749710344238,-1.9769876325384879,-3.0844673573882266,0.000966005003877271,0.002015177738082558,-0.23184413651873478
8587,2.0,300.36508,23216.156000000003,0.0,0.0,-0.08587001335590128,0.0,0.0,0.0,-2.009196218767228,-1.9861162053394084,-3.061819393803047,-0.004440236217217196,0.004878425950163155,-0.2364248882333198
8588,2.0,300.09328,23409.975,0.0,0.0,-0.08587998486699777,0.0,0.0,0.0,-2.012477730541088,-2.001798885087168,-3.101771135970977,-0.030587064868458268,-0.009933642865849222,-0.2312655909766368
8589,2.0,299.62776,23533.129,0.0,0.0,-0.08588998928737201,0.0,0.0,0.0,-2.039440315702088,-2.017013240638708,-3.097029936103057,-0.016171170660720286,0.00045676315443401365,-0.23315190802530178
8590,2.0,299.30287999999996,23193.171000000002,0.0,0.0,-0.08589999370774615,0.0,0.0,0.0,-1.9899890498716282,-1.981272667211388,-3.078883133437107,-0.019972978254929483,-0.004272373808925465,-0.23855667525121077
8591,2.0,300.14699,22975.539,0.0,0.0,-0.08590999812812028,0.0,0.0,0.0,-1.960908366701588,-1.9607682342127584,-3.062313555876817,0.008094117200177173,0.0038417674423779262,-0.26490492687658074
8592,2.0,299.1073,23324.42,0.0,0.0,-0.08592000254849441,0.0,0.0,0.0,-2.022271198057628,-1.984490040253918,-3.083279929596037,-0.004426778432039016,-0.001072871559734179,-0.24932835467929274
8593,2.0,299.00914,23441.174,0.0,0.0,-0.08593000696886854,0.0,0.0,0.0,-2.057505754385008,-1.9665605797344181,-3.101465235765787,0.006940904432063933,0.002079395705570378,-0.25249948298725877
8594,2.0,299.16414,23120.392000000003,0.0,0.0,-0.08594001138924279,0.0,0.0,0.0,-1.985579385436428,-1.9698253728816282,-3.072617194818707,-0.007389276416589804,0.0045797573109368555,-0.25903613163487577
8595,2.0,299.78647,23146.516,0.0,0.0,-0.08595001580961692,0.0,0.0,0.0,-1.9943573737027482,-1.967649620941898,-3.073955900850827,0.007006689897456453,0.008865276418709662,-0.22720119151301177
8596,2.0,299.92056,23443.498,0.0,0.0,-0.08595998732071364,0.0,0.0,0.0,-2.021215492778438,-1.9882505153500483,-3.116771999726447,-0.0007864750510815443,-0.012318180764209789,-0.23529160852647377
8597,2.0,299.76628,23475.942000000003,0.0,0.0,-0.08596999174108777,0.0,0.0,0.0,-2.025395656065988,-2.004973701625498,-3.105730917361777,-0.005640360033160194,-0.0050911415966565544,-0.23574560536627975
8598,2.0,299.54213,23378.414,0.0,0.0,-0.0859799961614619,0.0,0.0,0.0,-2.040179684300058,-1.982428278950438,-3.083846235076927,-0.007922832944972731,-0.008492960810539971,-0.23389983858661678
8599,2.0,299.94607,23290.116,0.0,0.0,-0.08599000058183603,0.0,0.0,0.0,-2.016560115193988,-1.9893978184382783,-3.073655674846197,-0.0014450182591121989,0.0015390603313684284,-0.2394013407995728
8600,2.0,300.48235,23170.83,0.0,0.0,-0.08600000500221017,0.0,0.0,0.0,-1.977654351104288,-1.991124801908718,-3.0745745913618867,-0.0035161347994404867,-0.001080976952584119,-0.25469641185407876
8601,2.0,299.6407,23257.6,0.0,0.0,-0.08601000942258441,0.0,0.0,0.0,-1.9980651597936783,-1.9891643656152378,-3.082499929669057,0.0048285582385415955,0.006099725983921084,-0.26102612443377277
8602,2.0,299.59907000000004,23513.297000000002,0.0,0.0,-0.08602001384295854,0.0,0.0,0.0,-2.003985580127978,-2.0086583856141482,-3.134811296556787,0.008854090745555722,0.004065884888271596,-0.24639508683230177
8603,2.0,299.82466,23238.54,0.0,0.0,-0.08602998535405504,0.0,0.0,0.0,-1.9861587618436083,-1.979577094494048,-3.098200138643547,0.013717346416546688,-0.004099141276428746,-0.2567377460355427
8604,2.0,300.07223999999997,23074.429,0.0,0.0,-0.08603998977442939,0.0,0.0,0.0,-1.982945340476468,-1.9614883510588283,-3.0696166572975767,0.004932137020739026,-0.019531676425626383,-0.2378764601940788
8605,2.0,300.30507,23472.005,0.0,0.0,-0.08604999419480353,0.0,0.0,0.0,-2.0399542361528082,-2.002148456371668,-3.092800731510667,-0.00034985804441080065,-0.014386442067081288,-0.25910139507381674
8606,2.0,300.41205,23604.058999999997,0.0,0.0,-0.08605999861517766,0.0,0.0,0.0,-2.0402643920084182,-2.002103974692278,-3.132676378596087,-0.006129993588258264,-0.0013899502440024086,-0.22917364495267778
8607,2.0,300.57754,23357.095,0.0,0.0,-0.08607000303555168,0.0,0.0,0.0,-2.014253552666348,-2.006527925953888,-3.0791921747176074,-0.002947253738121297,0.008887123914715842,-0.24887913024745778
8608,2.0,300.46136,23340.236,0.0,0.0,-0.08608000745592581,0.0,0.0,0.0,-1.9925115359955783,-2.0004914884831377,-3.101845913828357,0.002192753769782948,-0.005506186873468335,-0.23572862329460376
8609,2.0,300.18656,23289.327,0.0,0.0,-0.08609001187630017,0.0,0.0,0.0,-2.0233982361438585,-1.993406843783938,-3.0625686922519972,0.003990564536788056,-0.0025203895068430775,-0.24153616756776378
8610,2.0,299.73702000000003,23291.557,0.0,0.0,-0.0861000162966743,0.0,0.0,0.0,-2.018129538273878,-2.0004714261311585,-3.061450672091657,0.0018510959685639483,-0.002740871614027967,-0.24580686475174876
8611,2.0,299.65835,23449.109,0.0,0.0,-0.0861099878077708,0.0,0.0,0.0,-2.0272952973534677,-2.005461986848688,-3.095186226221097,-0.0037578224073681965,-3.062191965864817e-05,-0.24420907066905878
8612,2.0,299.70347000000004,23439.519,0.0,0.0,-0.08611999222814493,0.0,0.0,0.0,-2.0271850557425877,-2.0021899996257684,-3.0956535371672174,-0.005623370868733495,-0.003889608653799486,-0.24502460527704578
8613,2.0,300.01162,23255.386000000002,0.0,0.0,-0.08612999664851928,0.0,0.0,0.0,-1.9979863289358981,-1.987626758588488,-3.0834433668371672,-0.005365234158682385,0.006342893443619844,-0.2479427655650458
8614,2.0,299.91105,23282.215,0.0,0.0,-0.0861400010688933,0.0,0.0,0.0,-1.989787311776718,-1.973874421606238,-3.113550168383477,0.014200270533457586,0.004894710196495285,-0.24527344936910475
8615,2.0,299.70155,23488.882,0.0,0.0,-0.08615000548926743,0.0,0.0,0.0,-2.049023128522838,-1.9881797904930683,-3.102830691600547,0.004732040087015996,0.005449610027634635,-0.24743502593993574
8616,2.0,300.14072999999996,23348.307,0.0,0.0,-0.08616000990964157,0.0,0.0,0.0,-2.014352141901078,-1.9826263693449881,-3.100323910853147,0.014067012946556087,-0.013498272625675788,-0.23919658321936474
8617,2.0,300.12413,23161.962000000003,0.0,0.0,-0.0861700143300157,0.0,0.0,0.0,-2.001444044902148,-1.9833600637423983,-3.0558538838392972,-0.005897960835233414,-0.0019462719690070882,-0.27284545380274977
8618,2.0,299.52971,23392.456000000002,0.0,0.0,-0.08617998584111242,0.0,0.0,0.0,-2.0059648628733178,-1.998398823051608,-3.106358828448747,-0.003112222506777447,0.003100711073716357,-0.2331524551803558
8619,2.0,299.00274,23454.798,0.0,0.0,-0.08618999026148655,0.0,0.0,0.0,-2.010244831295718,-2.009185275666148,-3.1102427174070573,0.0019865255583798084,0.006936288672558394,-0.2553130859974398
8620,2.0,298.79559,23444.687,0.0,0.0,-0.08619999468186079,0.0,0.0,0.0,-1.9903271714299982,-2.026136139239068,-3.110136224821547,-0.018822623257398283,-0.0028108103915803874,-0.2386992192752788
8621,2.0,299.24568999999997,23437.73,0.0,0.0,-0.08620999910223492,0.0,0.0,0.0,-2.0379209471771382,-2.003412789846448,-3.0831509428583073,-0.0032858667227897965,-0.015762369841624786,-0.24775759410927076
8622,2.0,300.18192999999997,23314.682999999997,0.0,0.0,-0.08622000352260906,0.0,0.0,0.0,-2.004982314251348,-1.983143633521038,-3.098955617918107,0.0018117079987516583,-0.004462442201108756,-0.24193335147446277
8623,2.0,299.88223999999997,23245.819,0.0,0.0,-0.08623000794298319,0.0,0.0,0.0,-1.995172736058218,-1.9879015520156083,-3.083074341150747,-0.004264229101971646,0.01912842315082838,-0.24926721516825875
8624,2.0,299.77877,23423.981,0.0,0.0,-0.08624001236335732,0.0,0.0,0.0,-2.010164885862828,-1.9815521215889682,-3.128588421067637,-0.005812551451179164,0.001975617515753268,-0.24008667276970977
8625,2.0,300.05044,23455.441000000003,0.0,0.0,-0.08624998387445382,0.0,0.0,0.0,-2.013831128699658,-1.9902703280993879,-3.125766924839177,0.0037603205754897463,0.014637033002312685,-0.23990017395630378
8626,2.0,300.01149,23204.907000000003,0.0,0.0,-0.08625998829482817,0.0,0.0,0.0,-1.986329393160448,-1.970323891930828,-3.097058915055917,-0.0017719615410539881,0.012143938224013388,-0.26170735274100476
8627,2.0,300.3685,23403.861,0.0,0.0,-0.08626999271520241,0.0,0.0,0.0,-2.0465087483996878,-1.9762379287894982,-3.091442773726647,0.01017948338063679,-0.010079748058718679,-0.23763411103516074
8628,2.0,299.57133,23710.15,0.0,0.0,-0.08627999713557655,0.0,0.0,0.0,-2.061360056440398,-2.024754674052728,-3.1211788270613674,-0.012642441061211788,-0.023600209949659376,-0.25492880076451374
8629,2.0,299.69354,23559.672000000002,0.0,0.0,-0.08629000155595068,0.0,0.0,0.0,-2.063073563684508,-2.000641956122988,-3.097836381857647,0.0031833804268501867,-0.006802991670228005,-0.23760341968963178
8630,2.0,300.56219,23410.078999999998,0.0,0.0,-0.0863000059763247,0.0,0.0,0.0,-2.006607263436718,-2.013395431156658,-3.0960769743840073,0.00939210983002907,0.008996370311347621,-0.24634164802202776
8631,2.0,300.65645,23407.755,0.0,0.0,-0.08631001039669894,0.0,0.0,0.0,-2.021911899572168,-1.995286017419398,-3.0981751113660767,0.0005769214237777114,0.01025129950797449,-0.23569159913594975
8632,2.0,299.84566,23393.52,0.0,0.0,-0.08632001481707319,0.0,0.0,0.0,-2.008927403515698,-1.986220671424718,-3.115897970190187,-0.003203057034517117,-0.0008012682289640172,-0.24054972806540978
8633,2.0,300.77419,23540.272999999997,0.0,0.0,-0.08632998632816968,0.0,0.0,0.0,-2.041327899313378,-2.004154286269628,-3.110173107125187,-0.011950980954469989,0.0009456397610448781,-0.23874153259945474
8634,2.0,300.2629,23488.086,0.0,0.0,-0.08633999074854382,0.0,0.0,0.0,-2.0083310045068377,-2.0021248476443376,-3.129335895666407,0.007171200474417383,-0.006777544096616525,-0.25177438095069676
8635,2.0,300.8284,23375.124,0.0,0.0,-0.08634999516891817,0.0,0.0,0.0,-2.022242421754788,-1.9722701427229081,-3.110941252025997,-0.008358702841814742,-0.025287078848640374,-0.23584976747655978
8636,2.0,300.0201,23427.409,0.0,0.0,-0.0863599995892923,0.0,0.0,0.0,-2.000789687987568,-1.999552712265488,-3.1210049533442072,0.004098750465865176,-0.006924234542743744,-0.25487236273394376
8637,2.0,299.66557,23688.816000000003,0.0,0.0,-0.08637000400966643,0.0,0.0,0.0,-2.044645786765828,-2.016543903192388,-3.1396188643062573,0.007208023604251544,0.008150516828568382,-0.24035466728865876
8638,2.0,299.39112,23656.961,0.0,0.0,-0.08638000843004046,0.0,0.0,0.0,-2.054886401551498,-2.020035157736948,-3.116203971720387,0.016534834227611084,0.007336042181510993,-0.2553006534187127
8639,2.0,300.00118,23352.787,0.0,0.0,-0.08639001285041459,0.0,0.0,0.0,-2.020366186544618,-2.002326281764218,-3.075971559274757,-0.013340319094086988,-0.01185056888281009,-0.24263208874342274
8640,2.0,299.56023999999996,23367.956000000002,0.0,0.0,-0.0863999843615113,0.0,0.0,0.0,-2.0184312841536585,-2.001901324672278,-3.082942719962757,-0.0037714226555104363,-0.017759892102014882,-0.24674627931696175
8641,2.0,300.30461,23606.03,0.0,0.0,-0.08640998878188544,0.0,0.0,0.0,-2.0641014045859483,-2.0020460167865584,-3.109496357383397,-0.014693080931594186,0.01148214101394909,-0.2227127468825368
8642,2.0,300.17464,23562.998,0.0,0.0,-0.08641999320225957,0.0,0.0,0.0,-2.016311970244498,-2.0110029450205382,-3.1352481086748973,0.0012234039462655688,0.012709726947352387,-0.2390082808207808
8643,2.0,300.35027,23541.627999999997,0.0,0.0,-0.0864299976226337,0.0,0.0,0.0,-2.039563729564268,-1.996753507539228,-3.119749840445337,-0.00899516302385347,0.0013299632036321487,-0.2336545712674108
8644,2.0,300.3029,23649.754,0.0,0.0,-0.08644000204300806,0.0,0.0,0.0,-2.053523580166998,-2.006343514435688,-3.129067688364937,0.013418331245786187,-0.007988558020659292,-0.23714875410475977
8645,2.0,300.15657000000004,23557.25,0.0,0.0,-0.08645000646338208,0.0,0.0,0.0,-2.045330135883368,-2.0002413170334483,-3.115244423875687,0.012654750023426588,0.006460164781043624,-0.24935114267404176
8646,2.0,299.25239,23560.207000000002,0.0,0.0,-0.08646001088375621,0.0,0.0,0.0,-2.015586787147928,-2.021221572279038,-3.124906270204237,0.011805047608817489,-0.008118934126926413,-0.25198662644914377
8647,2.0,299.71733,23609.209,0.0,0.0,-0.08647001530413034,0.0,0.0,0.0,-2.051143860982138,-2.005815003183528,-3.119651149885597,0.008052069347527372,-0.007659381535497102,-0.25160080107606575
8648,2.0,299.23556,23325.987999999998,0.0,0.0,-0.08647998681522706,0.0,0.0,0.0,-1.9859936020773081,-2.015125859677438,-3.089398440324887,0.01113382615957309,-0.0017776162872120685,-0.26757664447525875
8649,2.0,299.52322999999996,23214.521,0.0,0.0,-0.0864899912356012,0.0,0.0,0.0,-2.011342789104078,-1.986443991746758,-3.0588477339097673,-0.0091654764841371,0.015668219655582884,-0.2628433783556217
8650,2.0,299.99259,23526.846,0.0,0.0,-0.08649999565597533,0.0,0.0,0.0,-2.032832607824958,-2.017033505640708,-3.101707605189707,-0.00955215491247429,0.012911951402310388,-0.25923190168669674
8651,2.0,299.47492,23634.52,0.0,0.0,-0.08651000007634957,0.0,0.0,0.0,-2.048177976614428,-2.017249125261988,-3.118876722834167,-0.03102231151516377,0.006886420454311783,-0.22802536914435179
8652,2.0,299.54646,23560.507,0.0,0.0,-0.0865200044967237,0.0,0.0,0.0,-2.0203296082160085,-2.011685571612908,-3.1297907436362973,0.008481844747667902,0.01870960534124428,-0.2421925205850408
8653,2.0,300.40627,23629.47,0.0,0.0,-0.08653000891709783,0.0,0.0,0.0,-2.0309356009877377,-2.011485454718158,-3.140347897753207,0.004671404667906745,0.029603521234890073,-0.2134987672306878
8654,2.0,299.86498,23590.417999999998,0.0,0.0,-0.08654001333747197,0.0,0.0,0.0,-2.004389765592868,-2.022130254968718,-3.1443778973759366,0.011884396237398589,0.016889670359630682,-0.25096022436284576
8655,2.0,299.88806,23638.292,0.0,0.0,-0.08654998484856846,0.0,0.0,0.0,-2.0484571270169782,-2.017940060505178,-3.119053332326597,-0.015064452291995685,0.0017597534985491485,-0.2369855093811488
8656,2.0,300.01153,23681.601000000002,0.0,0.0,-0.0865599892689426,0.0,0.0,0.0,-2.051740867941058,-2.020787901236238,-3.126086605245727,-0.0013317810756365586,0.0005315486415872665,-0.25470225830715576
8657,2.0,300.06922000000003,23537.566000000003,0.0,0.0,-0.08656999368931695,0.0,0.0,0.0,-2.0325460606966783,-2.011551417299668,-3.110734852980627,-0.0025155247917879675,0.008352329194710711,-0.2518780567009288
8658,2.0,300.53829,23362.896,0.0,0.0,-0.08657999810969119,0.0,0.0,0.0,-2.005090326712008,-1.9888602892602283,-3.107786295189627,-0.0025635429166769876,-0.0011255094971291389,-0.2555594881567578
8659,2.0,300.73607999999996,23533.38,0.0,0.0,-0.08659000253006532,0.0,0.0,0.0,-2.022457636076028,-2.005346375012278,-3.1257557790880766,-0.0026761640440918274,-0.006962967547691393,-0.24284705988463878
8660,2.0,299.61965,23704.45,0.0,0.0,-0.08660000695043946,0.0,0.0,0.0,-2.053882372027408,-2.0099022514369085,-3.1417763777441867,0.004450461937226396,-0.005935649584628004,-0.23759755297155277
8661,2.0,300.06075,23644.403,0.0,0.0,-0.08661001137081348,0.0,0.0,0.0,-2.073437997632398,-2.006996452800128,-3.106873660824557,0.017943712895406583,0.009742405689675581,-0.24537310251643973
8662,2.0,299.81549,23487.386000000002,0.0,0.0,-0.08662001579118772,0.0,0.0,0.0,-2.030939552663128,-2.0123298973514983,-3.096309312631937,0.0026595779505549076,-0.004284263893548926,-0.24967410601091578
8663,2.0,300.0715,23645.641,0.0,0.0,-0.08662998730228433,0.0,0.0,0.0,-2.046701873868748,-2.0136633344830983,-3.1273191226673673,0.006365096083786073,-0.005716924959741564,-0.24077481144262378
8664,2.0,300.02813,23747.106,0.0,0.0,-0.08663999172265846,0.0,0.0,0.0,-2.038961149729798,-2.036474330009368,-3.143091677698997,-0.02596565041411018,0.002136892683819888,-0.24176164611251674
8665,2.0,299.85853,23567.748,0.0,0.0,-0.08664999614303259,0.0,0.0,0.0,-2.004988393751948,-2.016707847058568,-3.142310765846927,0.007866712568309082,-0.0007669027676449102,-0.23932392849193276
8666,2.0,300.07253,23529.237,0.0,0.0,-0.08666000056340695,0.0,0.0,0.0,-2.0198598654696482,-2.0104613628420878,-3.121979193315357,-0.015889701941941486,-0.016094671291420386,-0.26281764180308176
8667,2.0,301.02867000000003,23546.081000000002,0.0,0.0,-0.08667000498378108,0.0,0.0,0.0,-2.060015169582668,-1.9896094863841682,-3.1077961237155973,0.004527783356332426,-0.017147021699529284,-0.24287759924265276
8668,2.0,300.79535,23531.192000000003,0.0,0.0,-0.08668000940415521,0.0,0.0,0.0,-2.042302747234588,-2.003824979987128,-3.106767066914037,0.004675207800832085,-0.012767218758026387,-0.27443156511178673
8669,2.0,300.38775,23645.558999999997,0.0,0.0,-0.08669001382452923,0.0,0.0,0.0,-2.061355699464968,-2.002189898300758,-3.124114009951047,0.012743360771171788,0.0062760347437214046,-0.24141013952032578
8670,2.0,300.16527,23562.977000000003,0.0,0.0,-0.08669998533562595,0.0,0.0,0.0,-2.0244601222486582,-2.0028735381432283,-3.135222878747407,-0.005711050338311785,-0.0007177508766889963,-0.25745417465124876
8671,2.0,299.83874,23576.535,0.0,0.0,-0.08670998975600008,0.0,0.0,0.0,-2.030699412389428,-2.018418922502438,-3.117559599029177,-0.0003309950056466637,0.004048645349745187,-0.23373742472808776
8672,2.0,300.22704,23765.931,0.0,0.0,-0.08671999417637422,0.0,0.0,0.0,-2.060028341833968,-2.027740012822358,-3.136481234046597,-0.014287246908791488,0.00980677098372794,-0.23866837594223478
8673,2.0,299.78193,23839.142000000003,0.0,0.0,-0.08672999859674835,0.0,0.0,0.0,-2.082650467541598,-2.028909911387818,-3.1349434243698266,-0.009405805830305761,-0.0007219910446474683,-0.22110471897383677
8674,2.0,299.91598999999997,23669.516,0.0,0.0,-0.08674000301712248,0.0,0.0,0.0,-2.022492897179508,-2.032218882239388,-3.140230056766577,-0.00950272087189553,-0.008668867107400571,-0.25168991642236077
8675,2.0,299.88746000000003,23558.126,0.0,0.0,-0.08675000743749683,0.0,0.0,0.0,-2.021927908923748,-2.006375229163818,-3.132779122156227,-4.2390314971598356e-05,-0.00890247333650571,-0.23645863959415078
8676,2.0,300.63718,23639.496,0.0,0.0,-0.08676001185787086,0.0,0.0,0.0,-2.021296552786438,-2.011759336220188,-3.152760718103257,0.008627561460449022,0.0007446870464198893,-0.24050610764860475
8677,2.0,300.28445,23613.09,0.0,0.0,-0.08677001627824499,0.0,0.0,0.0,-2.022064393712218,-2.0087849405516383,-3.1469404068788367,0.00023631538629501276,0.008748293046964301,-0.25561766897749977
8678,2.0,300.38839,23582.305,0.0,0.0,-0.0867799877893417,0.0,0.0,0.0,-2.046137797538078,-1.996788160692648,-3.125505810288407,-0.00036208071824708467,-0.0027340085671256373,-0.24730956531255377
8679,2.0,299.81786,23669.261000000002,0.0,0.0,-0.08678999220971584,0.0,0.0,0.0,-2.056923236902518,-2.0113278943276085,-3.126613191322697,-0.0007060126073280194,-0.007773870488146283,-0.2655550281407407
8680,2.0,299.79132000000004,23678.967999999997,0.0,0.0,-0.08679999663008997,0.0,0.0,0.0,-2.0415222406825584,-2.0257266848736584,-3.130566183937827,-0.0036257899411626065,0.013987397833198687,-0.25479201200101376
8681,2.0,299.3646,23617.623,0.0,0.0,-0.0868100010504641,0.0,0.0,0.0,-2.041822061387148,-2.0189685093566783,-3.118377089209857,0.00982137688259443,0.005417741792114485,-0.25998098735312575
8682,2.0,299.71521,23774.623,0.0,0.0,-0.08682000547083835,0.0,0.0,0.0,-2.049477165892648,-2.0272442295484283,-3.150170242897597,0.0003111368235618137,0.008582428970519793,-0.25258660223085677
8683,2.0,299.82592999999997,23681.992000000002,0.0,0.0,-0.08683000989121248,0.0,0.0,0.0,-2.037849817020118,-2.0261509326905283,-3.134733478949107,0.0027188983736843777,0.0014822839765900387,-0.24354030533805676
8684,2.0,299.6608,23528.905,0.0,0.0,-0.08684001431158661,0.0,0.0,0.0,-2.026571938107078,-2.016567511919718,-3.109060051890337,-0.0014461199659459285,0.005580163047369214,-0.24759873675859279
8685,2.0,300.11375,23596.968999999997,0.0,0.0,-0.08684998582268333,0.0,0.0,0.0,-2.018508899111318,-2.012045275398408,-3.142335185174337,0.0008116210308007592,0.005272818960786714,-0.2510887044755258
8686,2.0,300.34839,23677.41,0.0,0.0,-0.08685999024305724,0.0,0.0,0.0,-2.015578275847088,-2.026777222577338,-3.154985815322857,-0.016564829470321382,-0.0003632431896893117,-0.2538530331333438
8687,2.0,299.95747,23575.337000000003,0.0,0.0,-0.08686999466343137,0.0,0.0,0.0,-2.019122219396848,-2.014901627430308,-3.1322900263329574,-0.009892957834583922,-0.004545042349260756,-0.2516993700457938
8688,2.0,300.07558,23734.423,0.0,0.0,-0.08687999908380573,0.0,0.0,0.0,-2.045918631541448,-2.026971563946518,-3.141781747969717,-0.016189708071299783,-0.0005411270873000854,-0.25427803075528776
8689,2.0,300.10359,23881.884,0.0,0.0,-0.08689000350417997,0.0,0.0,0.0,-2.0832757441783083,-2.032377050579998,-3.143843610598207,-0.0028018720058232372,-0.0076246672830960725,-0.23792649448401676
8690,2.0,300.27667,23714.482000000004,0.0,0.0,-0.0869000079245541,0.0,0.0,0.0,-2.071168925358458,-2.0153670132012382,-3.122074540149767,0.002758856398002927,-0.011446126052394688,-0.25182736379842574
8691,2.0,300.09074,23744.016,0.0,0.0,-0.08691001234492823,0.0,0.0,0.0,-2.046835724206958,-2.034148718379848,-3.1366036346586768,0.013405479181517788,-0.004564601926541136,-0.24852667120017277
8692,2.0,299.90119,23701.51,0.0,0.0,-0.08691998385602495,0.0,0.0,0.0,-2.0275578304543784,-2.0313805191066483,-3.1457288637342673,0.01160739291181049,0.000992928122946876,-0.25400620615096076
8693,2.0,299.62847,23493.841,0.0,0.0,-0.08692998827639908,0.0,0.0,0.0,-2.015196685859428,-2.0034148163466483,-3.122929520584147,0.009206672801402862,-0.002013503443617318,-0.24248191494610177
8694,2.0,299.42289,23499.213,0.0,0.0,-0.0869399926967731,0.0,0.0,0.0,-2.002370054168538,-2.009607294332798,-3.131196628150047,0.003036036130433437,-0.00040183411670793965,-0.2555428607226168
8695,2.0,299.81857,23663.947,0.0,0.0,-0.08694999711714724,0.0,0.0,0.0,-2.053056674520918,-2.012458580114198,-3.127733643283277,-0.007438691509391693,-3.679480848061486e-05,-0.24061677482452676
8696,2.0,300.28597,23690.526,0.0,0.0,-0.08696000153752137,0.0,0.0,0.0,-2.037511087511688,-2.0295834187292883,-3.134233946649807,-0.01161813437612059,0.015294365832436384,-0.2569719182661538
8697,2.0,300.62576,23736.922000000002,0.0,0.0,-0.08697000595789572,0.0,0.0,0.0,-2.033437214159628,-2.038724353181428,-3.143270009716597,-0.02023490239252938,-0.0003373911671679156,-0.2693001930278597
8698,2.0,300.00023999999996,23914.365,0.0,0.0,-0.08698001037826986,0.0,0.0,0.0,-2.056567079492368,-2.0433445709874083,-3.1694583704761867,-0.00935810515667307,-0.02786978749228387,-0.24937638273403276
8699,2.0,300.17511,23901.689,0.0,0.0,-0.08699001479864399,0.0,0.0,0.0,-2.0684370004388377,-2.031179287636788,-3.165900342750037,0.008138134304396322,-0.006784100432713583,-0.24936318008522973
8700,2.0,300.17857000000004,23667.635,0.0,0.0,-0.08699998630974048,0.0,0.0,0.0,-2.056365341397458,-2.004962454549388,-3.133042364532207,-0.005357504580294535,0.0034404849390244265,-0.23683597393139078
8701,2.0,300.47947999999997,23633.27,0.0,0.0,-0.08700999073011473,0.0,0.0,0.0,-2.0807173890008177,-1.991620889157678,-3.111585679089597,0.000855201191179286,-0.003449790729267837,-0.24255027893034878
8702,2.0,299.80671,23667.767999999996,0.0,0.0,-0.08701999515048886,0.0,0.0,0.0,-2.064598910385048,-1.9988792049240178,-3.130932271198957,-0.007510707854949152,0.0017339799623804985,-0.24697822239735276
8703,2.0,299.43341000000004,23595.796000000002,0.0,0.0,-0.08702999957086299,0.0,0.0,0.0,-2.023747807428358,-2.0104169824877083,-3.138368108382817,0.010248796780227491,0.017210315380275884,-0.2597862812139098
8704,2.0,299.64637999999997,23753.513,0.0,0.0,-0.08704000399123712,0.0,0.0,0.0,-2.021113458493368,-2.0361180712742084,-3.163243094362787,0.0054997302411811146,0.008528657510237962,-0.24982361106317078
8705,2.0,299.70205,23825.805,0.0,0.0,-0.08705000841161126,0.0,0.0,0.0,-2.038781297837048,-2.0425556544595485,-3.1611127360275373,-0.007975189097514882,-0.002451370051106388,-0.25000139592571674
8706,2.0,299.72071,23773.678,0.0,0.0,-0.08706001283198561,0.0,0.0,0.0,-2.052215372962888,-2.0186968570048682,-3.155692253292577,-0.01115068866773729,-0.015394893414607685,-0.24053990967194078
8707,2.0,299.99536,23810.357999999997,0.0,0.0,-0.08706998434308211,0.0,0.0,0.0,-2.0764961890842177,-2.032105195578168,-3.129153004023357,0.0016050701303330884,-0.0008582567583133474,-0.25066866164657076
8708,2.0,299.72688999999997,23885.866,0.0,0.0,-0.08707998876345635,0.0,0.0,0.0,-2.0672009366418482,-2.028416357264108,-3.1650896413450265,0.002037623558272788,0.010887611451523591,-0.24744045696047176
8709,2.0,300.05658,23920.123,0.0,0.0,-0.08708999318383048,0.0,0.0,0.0,-2.056684008553908,-2.0454090680661583,-3.169026928583607,-0.00985808440059218,-0.004268469350990126,-0.26326057395179575
8710,2.0,300.13268,23797.267000000003,0.0,0.0,-0.08709999760420462,0.0,0.0,0.0,-2.031246162143388,-2.034639840703318,-3.167888947396297,-0.007307737951892583,-0.012317170553860089,-0.2534843418194568
8711,2.0,299.76074,23751.213,0.0,0.0,-0.08711000202457875,0.0,0.0,0.0,-2.044581648034498,-2.018807199940758,-3.1563869375611366,0.0002677185197542608,-0.003980326759102666,-0.24295988528327378
8712,2.0,299.60295,23697.412999999997,0.0,0.0,-0.08712000644495288,0.0,0.0,0.0,-2.053955022059578,-2.012656265208708,-3.136810439004087,0.013101943902061187,0.004822758394969196,-0.24505777908531978
8713,2.0,300.18677,23675.362999999998,0.0,0.0,-0.08713001086532712,0.0,0.0,0.0,-2.0624744289003782,-2.010867068182128,-3.123377579778367,0.009087271105643831,0.008453055981851672,-0.2546537337598668
8714,2.0,300.35479,23796.449,0.0,0.0,-0.08714001528570126,0.0,0.0,0.0,-2.045070338557728,-2.0421444775689683,-3.146311583866777,-0.01018528829045969,-0.01148343189457649,-0.25677801259451677
8715,2.0,300.67705,23846.576,0.0,0.0,-0.08714998679679797,0.0,0.0,0.0,-2.047071203530198,-2.0475877584311784,-3.154104693035897,0.004804524047494606,0.0099022714268531,-0.2538113885542338
8716,2.0,299.89169,23862.275,0.0,0.0,-0.0871599912171721,0.0,0.0,0.0,-2.030390472433938,-2.046774321250898,-3.176370965308407,-0.003192903255265017,0.012874040649818888,-0.2382415342051088
8717,2.0,299.50855,23996.756,0.0,0.0,-0.08716999563754602,0.0,0.0,0.0,-2.0630683961089984,-2.060666689396968,-3.170679336846687,0.0006457838865439073,0.004229479487142126,-0.24418249311893575
8718,2.0,299.37665,24037.887000000002,0.0,0.0,-0.08718000005792015,0.0,0.0,0.0,-2.104376880160828,-2.034556956845138,-3.167983686280647,-0.017234715455933983,-0.015815286828097287,-0.21739139040485977
8719,2.0,299.64961,23874.021,0.0,0.0,-0.0871900044782945,0.0,0.0,0.0,-2.098629320293588,-2.0215357811350483,-3.136941148266987,-0.016754039740994986,-0.006195442147992535,-0.2422834395165138
8720,2.0,299.85487,23781.493,0.0,0.0,-0.08720000889866875,0.0,0.0,0.0,-2.0608949746444982,-2.028797845926758,-3.139287227548527,-0.01120672849101799,-0.003438426420121267,-0.25207314787518276
8721,2.0,300.00167999999996,23731.237999999998,0.0,0.0,-0.08721001331904288,0.0,0.0,0.0,-2.0537171109360983,-2.016492126112278,-3.143494545938757,0.0006854851228896144,-0.004987701325747795,-0.26424209919116476
8722,2.0,300.03646000000003,23658.112999999998,0.0,0.0,-0.08721998483013937,0.0,0.0,0.0,-2.0141087592270583,-2.026962647345638,-3.150404202345687,0.014356920012167686,-0.013411774504389087,-0.2551602777498588
8723,2.0,300.14204,23681.182999999997,0.0,0.0,-0.08722998925051373,0.0,0.0,0.0,-2.034846645048728,-2.025163013843028,-3.138478653968727,0.015227013071789185,-0.007052428209620473,-0.25342656629875476
8724,2.0,300.10015,23770.972,0.0,0.0,-0.08723999367088786,0.0,0.0,0.0,-2.060087414314798,-2.024125141765598,-3.141569370748757,0.023756665897600376,0.005754092391959704,-0.23504989771511878
8725,2.0,299.61321,23800.771,0.0,0.0,-0.08724999809126188,0.0,0.0,0.0,-2.0484818503194178,-2.044020003504068,-3.142338326249647,0.006643724155909524,-0.004840748954469725,-0.2577089665213948
8726,2.0,299.3269,23894.909,0.0,0.0,-0.08726000251163601,0.0,0.0,0.0,-2.036066091544078,-2.057472823756758,-3.169916764821427,-0.002195499474903928,-0.003168959344801937,-0.26126803789514774
8727,2.0,299.27819,24115.61,0.0,0.0,-0.08727000693201015,0.0,0.0,0.0,-2.073639229102258,-2.070378083655408,-3.186526061785637,-0.012244348269173089,0.006525783769444714,-0.24389792182835074
8728,2.0,299.28238999999996,23891.979,0.0,0.0,-0.0872800113523845,0.0,0.0,0.0,-2.033145904755878,-2.0499869320179585,-3.1794321965105268,-0.0008265061307323042,0.017522689240354786,-0.25474012346339275
8729,2.0,299.46451,23637.095,0.0,0.0,-0.08729001577275863,0.0,0.0,0.0,-2.043505272453268,-2.0105695779527677,-3.131011608681787,0.0005507495688622504,0.01102529896786229,-0.2349983131525278
8730,2.0,299.7624,23660.98,0.0,0.0,-0.08729998728385513,0.0,0.0,0.0,-2.059518373058638,-2.005736577625788,-3.127092053319957,0.0053014679994141545,-0.007254126483801544,-0.2411337147605448
8731,2.0,299.57957999999996,23854.81,0.0,0.0,-0.08730999170422926,0.0,0.0,0.0,-2.0905309188693377,-2.0295206985480982,-3.131215069301867,-0.008523844572262962,-0.010865962349886989,-0.25543235566671074
8732,2.0,299.68865,23907.875,0.0,0.0,-0.0873199961246035,0.0,0.0,0.0,-2.057649331924178,-2.047521289224618,-3.162226500537457,-0.0034929303589003873,-0.007626821655458693,-0.2710756909130877
8733,2.0,300.15631,23932.099,0.0,0.0,-0.08733000054497764,0.0,0.0,0.0,-2.075069127643378,-2.0354737455356178,-3.164217536983957,-0.0029278496947312675,-0.0075430491769409936,-0.26698321428919175
8734,2.0,300.26156000000003,24008.092999999997,0.0,0.0,-0.08734000496535177,0.0,0.0,0.0,-2.063477749149398,-2.0413736982178983,-3.193009443875497,0.007023178313683733,0.002226726525760798,-0.24667684128760878
8735,2.0,300.11994,23971.257,0.0,0.0,-0.0873500093857259,0.0,0.0,0.0,-2.091395525179668,-2.030205148990648,-3.165062891542387,0.0026778602247592275,0.007818235643774783,-0.2383665186049438
8736,2.0,299.80399,23987.563,0.0,0.0,-0.08736001380610003,0.0,0.0,0.0,-2.077496469582938,-2.035524712015648,-3.178599000953297,-0.001048522450556109,-0.0005002349983768505,-0.22014755226687177
8737,2.0,300.02485,24011.295,0.0,0.0,-0.08736998531719675,0.0,0.0,0.0,-2.070973672064188,-2.053399761004778,-3.174460786219887,0.0001640123517542588,-0.014317333344010788,-0.24579840411341375
8738,2.0,300.53291,23826.362,0.0,0.0,-0.08737998973757088,0.0,0.0,0.0,-2.046598725008568,-2.038346816194168,-3.1576735625381174,0.010184145344346892,-0.010464208685236991,-0.24704057780850677
8739,2.0,300.25063,23690.783,0.0,0.0,-0.08738999415794513,0.0,0.0,0.0,-2.0249476981967782,-2.029618882482788,-3.1468398924689174,0.016936992179050984,-0.008344354511123671,-0.2785114976994447
8740,2.0,299.97189,23906.37,0.0,0.0,-0.08739999857831926,0.0,0.0,0.0,-2.062431669746158,-2.047322996180048,-3.157184770689877,0.008142624015589423,0.006811096759102913,-0.24823599001148475
8741,2.0,299.38824,23930.585,0.0,0.0,-0.08741000299869339,0.0,0.0,0.0,-2.086709142142158,-2.0303331224782784,-3.1572578260220867,-0.01173343311824969,0.004616034400292126,-0.26229706429920474
8742,2.0,299.9204,23868.526,0.0,0.0,-0.08742000741906752,0.0,0.0,0.0,-2.064857491810568,-2.036193761056678,-3.1543845527135175,-0.0033582305118065466,0.017464757679137383,-0.24618062231613577
8743,2.0,300.00333,23928.088,0.0,0.0,-0.08743001183944166,0.0,0.0,0.0,-2.0662907340770182,-2.041282708358918,-3.165967926531707,-0.008402511419163311,0.018389229845125685,-0.26222881177246876
8744,2.0,299.99354,24000.737999999998,0.0,0.0,-0.0874400162598159,0.0,0.0,0.0,-2.054972021184948,-2.050391624107898,-3.190261509604297,-0.012465849807283588,0.001107594120786029,-0.24667554432748073
8745,2.0,299.5071,23998.388,0.0,0.0,-0.08744998777091251,0.0,0.0,0.0,-2.0629811552753883,-2.049515669396448,-3.1824138875797967,-0.008473323213001892,4.5353354133027554e-05,-0.25444384913415274
8746,2.0,299.81474,24039.644,0.0,0.0,-0.08745999219128675,0.0,0.0,0.0,-2.0732954333433278,-2.047044656377578,-3.187111517693417,0.004022909810455286,0.0019607024742812683,-0.2396488271364978
8747,2.0,300.81946,24013.877999999997,0.0,0.0,-0.08746999661166088,0.0,0.0,0.0,-2.106196373365398,-2.031555406073908,-3.161867506027027,0.01106303645458669,0.006121151562585624,-0.21795063353255278
8748,2.0,300.49508,23850.036,0.0,0.0,-0.0874800010320348,0.0,0.0,0.0,-2.0433912818170183,-2.0476161294339783,-3.158808098675087,-0.006735116275179223,0.0014693864173921484,-0.24078487301611676
8749,2.0,299.80522,23989.96,0.0,0.0,-0.08749000545240904,0.0,0.0,0.0,-2.081522010905228,-2.049759153395478,-3.1610677477230973,-0.008421457878808181,-0.013825709461741286,-0.2306934998376758
8750,2.0,300.08091,24118.211,0.0,0.0,-0.08750000987278328,0.0,0.0,0.0,-2.063594779535948,-2.0679587463916382,-3.199780285018727,-0.0011478752705614689,-0.008714930368871662,-0.2753224855272137
8751,2.0,300.33849,23908.37,0.0,0.0,-0.08751001429315752,0.0,0.0,0.0,-2.056971670257298,-2.0470228715004284,-3.163552743593347,-0.007840676397714512,0.01141088926691709,-0.24883255114036074
8752,2.0,300.23697999999996,23790.465,0.0,0.0,-0.08751998580425402,0.0,0.0,0.0,-2.052131070554568,-2.028792475701228,-3.150783968483167,0.0012983840483655287,0.003198423036509777,-0.26489503755560473
8753,2.0,299.90542999999997,23907.504,0.0,0.0,-0.08752999022462815,0.0,0.0,0.0,-2.082089126986198,-2.0332017348363878,-3.151993282477517,-0.011664106546407689,0.007733850047621572,-0.23233902813257679
8754,2.0,299.3189,23917.029,0.0,0.0,-0.0875399946450025,0.0,0.0,0.0,-2.056062075642528,-2.046253612024508,-3.1678638187938173,0.005071943952311895,0.00929613964415755,-0.2404394053945218
8755,2.0,299.88657,24117.357000000004,0.0,0.0,-0.08754999906537664,0.0,0.0,0.0,-2.078353679167538,-2.058599456542948,-3.194121283210227,0.01715221156654148,-0.008195315351264653,-0.2362942600304278
8756,2.0,300.12264,24131.607000000004,0.0,0.0,-0.08756000348575066,0.0,0.0,0.0,-2.0626336104910883,-2.075221824433448,-3.1975506281736767,0.012672855789463488,-0.008070940624014821,-0.25184631157529574
8757,2.0,299.56152000000003,23977.662999999997,0.0,0.0,-0.08757000790612479,0.0,0.0,0.0,-2.0598073519871583,-2.055255427237918,-3.173548050529807,0.01323796158223509,-0.02521176700845768,-0.25261870199402475
8758,2.0,299.78559,23973.09,0.0,0.0,-0.08758001232649892,0.0,0.0,0.0,-2.085550085352768,-2.0456968310945585,-3.1559739368203767,0.007849798485714793,-0.017078728642789285,-0.2502817824933888
8759,2.0,300.18201,24028.808999999997,0.0,0.0,-0.08758998383759564,0.0,0.0,0.0,-2.101877293489138,-2.0502578750946983,-3.152022666730417,-0.005221309176053095,-0.0018531683689934782,-0.2524689030992408
8760,2.0,300.54616,23956.894,0.0,0.0,-0.08759998825796977,0.0,0.0,0.0,-2.071350702426398,-2.0478581948828682,-3.163088776372557,-0.007985077911865833,-0.007689476178042213,-0.25262763885990674
8761,2.0,300.76002,23763.721,0.0,0.0,-0.0876099926783439,0.0,0.0,0.0,-2.038625561296678,-2.038409333725338,-3.1465428075395967,-0.014528671983618286,-0.0013996401573587287,-0.2587820186422967
8762,2.0,299.94605,23843.113999999998,0.0,0.0,-0.08761999709871804,0.0,0.0,0.0,-2.018352250645858,-2.046120774936398,-3.183238369186167,-0.002805528420134097,0.002752962322171227,-0.26135738628896577
8763,2.0,299.99705,24077.471,0.0,0.0,-0.08763000151909228,0.0,0.0,0.0,-2.081952946172758,-2.039281539411418,-3.197715686614967,-0.004869552919037456,0.006265691081400564,-0.25137398504118075
8764,2.0,300.34845,24139.148999999998,0.0,0.0,-0.08764000593946641,0.0,0.0,0.0,-2.095301705640178,-2.051921631758898,-3.190475102725377,0.006816916462377273,-0.005413368807332905,-0.24924625102368977
8765,2.0,300.40992,24166.86,0.0,0.0,-0.08765001035984055,0.0,0.0,0.0,-2.111889927002308,-2.040553776236978,-3.193678290266507,-0.004508000357404995,-0.016560297202624086,-0.22457503977133078
8766,2.0,300.2752,24148.272,0.0,0.0,-0.08766001478021468,0.0,0.0,0.0,-2.090001495692088,-2.056758887736298,-3.193711423544777,0.016676209974313783,-0.0017791005972835584,-0.24552775487920278
8767,2.0,300.12686,24030.536,0.0,0.0,-0.0876699862913114,0.0,0.0,0.0,-2.071810312671758,-2.0466808995916783,-3.1861916892526367,-0.0031697171545517267,0.007884376759952403,-0.23588981112051177
8768,2.0,299.87107000000003,24055.211,0.0,0.0,-0.08767999071168553,0.0,0.0,0.0,-2.045440580144268,-2.059289479861048,-3.207453324050997,0.013826039781273884,0.009242550872868752,-0.27275538600136073
8769,2.0,299.78553,24049.411,0.0,0.0,-0.08768999513205966,0.0,0.0,0.0,-2.086297965251578,-2.054537640867078,-3.1695849254136768,-0.0018420405524202485,-0.0013786756074896888,-0.26174979778769375
8770,2.0,300.0734,23787.648999999998,0.0,0.0,-0.0876999995524339,0.0,0.0,0.0,-2.052528163268758,-2.0345980947991977,-3.1437251616615174,0.007079247521217333,0.01210793947446059,-0.27741087504332174
8771,2.0,300.06611000000004,23785.322999999997,0.0,0.0,-0.08771000397280804,0.0,0.0,0.0,-2.0695226979209878,-2.026156606891088,-3.1344648663475967,-0.0016181867542025986,0.003779114034369517,-0.2635044227208618
8772,2.0,300.19311,24101.097999999998,0.0,0.0,-0.08772000839318217,0.0,0.0,0.0,-2.071583445974368,-2.0528078202963584,-3.201740619987197,-0.008888509128927552,0.006961366308558364,-0.25260203402987974
8773,2.0,300.14727,24160.248,0.0,0.0,-0.0877300128135563,0.0,0.0,0.0,-2.075834840743948,-2.0611378506934677,-3.207139419170017,-0.014159820576215489,0.007985468215804353,-0.2377171367483548
8774,2.0,299.89894,24080.678,0.0,0.0,-0.0877399843246528,0.0,0.0,0.0,-2.039149816898418,-2.063660134167398,-3.2171149677295268,-0.015655393935817084,0.017719990313076882,-0.2542104469736178
8775,2.0,299.42556,24131.852000000003,0.0,0.0,-0.08774998874502693,0.0,0.0,0.0,-2.089569243199428,-2.051643393281438,-3.194267900499697,0.009087151846107061,0.019782139691345183,-0.24503368399794176
8776,2.0,299.66235,24117.936,0.0,0.0,-0.08775999316540128,0.0,0.0,0.0,-2.085337100181748,-2.055172746029758,-3.1907403716015574,-0.000984620100341938,-0.0004900661926257675,-0.24931376387785276
8777,2.0,299.3557,24047.772999999997,0.0,0.0,-0.08776999758577553,0.0,0.0,0.0,-2.098299912686078,-2.053284047843358,-3.158338558578747,0.001931248307124368,-0.009602565827474461,-0.25380707210880776
8778,2.0,299.58436,24042.04,0.0,0.0,-0.08778000200614966,0.0,0.0,0.0,-2.0662758393005483,-2.060885754068588,-3.1810181355670473,-0.006532667486649084,-0.0067323530408315135,-0.25921769592029476
8779,2.0,299.61055,23905.475,0.0,0.0,-0.08779000642652357,0.0,0.0,0.0,-2.065570414580928,-2.0348535351494084,-3.166243429233897,0.007981895799926784,0.013199381071427489,-0.24243711915918076
8780,2.0,299.7821,23919.827,0.0,0.0,-0.08780001084689781,0.0,0.0,0.0,-2.043533339481038,-2.056368077172728,-3.1711285106160174,0.00882725582990732,0.015474216711936287,-0.26652622836159073
8781,2.0,300.37778,24194.76,0.0,0.0,-0.08781001526727206,0.0,0.0,0.0,-2.118789349583228,-2.0483308760545182,-3.187482772530057,0.001098245166088359,-0.0068939586297557445,-0.2340162711556078
8782,2.0,300.37787000000003,24259.406000000003,0.0,0.0,-0.08781998677836855,0.0,0.0,0.0,-2.108119420730188,-2.062904756217848,-3.203229591009147,-0.005328774481659095,-0.012570696874631188,-0.25631760188157776
8783,2.0,299.87453,24103.022,0.0,0.0,-0.0878299911987428,0.0,0.0,0.0,-2.104824128754968,-2.039126005521068,-3.1827668025896267,-0.004277958235526605,-0.02544253370548258,-0.2317293656799078
8784,2.0,299.62073,24015.536,0.0,0.0,-0.08783999561911693,0.0,0.0,0.0,-2.062917624494118,-2.041057462861688,-3.1961482900352767,-0.0014900837732098186,-0.013126763463260686,-0.2531339396698748
8785,2.0,299.74529,24153.604,0.0,0.0,-0.08785000003949128,0.0,0.0,0.0,-2.082586024835238,-2.0637085675221782,-3.195798009475707,0.01162276999532809,-0.007680896989445513,-0.23298288777612075
8786,2.0,299.35247999999996,24083.61,0.0,0.0,-0.08786000445986519,0.0,0.0,0.0,-2.061798185783638,-2.063243992351328,-3.195773792798317,0.004402824591724956,0.00940924135609482,-0.25947525396321375
8787,2.0,300.23794,23946.435,0.0,0.0,-0.08787000888023944,0.0,0.0,0.0,-2.070186579386508,-2.056862441896518,-3.152069276235017,0.008251638884573352,0.015187136614103685,-0.24974327046274175
8788,2.0,300.46516,23976.517999999996,0.0,0.0,-0.08788001330061357,0.0,0.0,0.0,-2.063155332967578,-2.054847898047698,-3.170259648655267,0.002061004810955338,0.011090565446553591,-0.27028484921003776
8789,2.0,300.48652999999996,24033.752,0.0,0.0,-0.08788998481171029,0.0,0.0,0.0,-2.0917929218688878,-2.051230899165728,-3.1626366641779367,0.002989045846445857,-0.012637491334473288,-0.25141609571533674
8790,2.0,300.37554,24068.072,0.0,0.0,-0.08789998923208442,0.0,0.0,0.0,-2.061868910640618,-2.068584833628428,-3.185639062648097,-0.02027497440748418,-0.015650260810810484,-0.27856526074975074
8791,2.0,300.08158,24153.729,0.0,0.0,-0.08790999365245855,0.0,0.0,0.0,-2.077927506175478,-2.068451895215308,-3.195750994671067,-0.001163027209906849,-0.01059126011527599,-0.2539208600950378
8792,2.0,299.32894,24065.131,0.0,0.0,-0.08791999807283268,0.0,0.0,0.0,-2.066256283573618,-2.058824094090118,-3.190118540015187,-0.0015456297383917785,0.0010458387563412489,-0.25895232571910476
8793,2.0,300.05834,24070.494,0.0,0.0,-0.08793000249320682,0.0,0.0,0.0,-2.081695377997338,-2.056164717877658,-3.178968938564807,0.009350996599271511,-7.663337466537523e-05,-0.2374494056744318
8794,2.0,300.40362000000005,24227.486,0.0,0.0,-0.08794000691358106,0.0,0.0,0.0,-2.094437707279908,-2.062623781965118,-3.207489395754557,0.0029767501578073672,0.0008727705932757512,-0.24117758848987478
8795,2.0,299.48807,24185.776,0.0,0.0,-0.08795001133395519,0.0,0.0,0.0,-2.108416404334498,-2.0482633935978583,-3.1951922885659267,-0.016522155429109783,-0.006915141535021333,-0.22679333808275975
8796,2.0,299.79692,24112.19,0.0,0.0,-0.08796001575432932,0.0,0.0,0.0,-2.062408668968888,-2.062944171646738,-3.2041507366750572,-0.00819323595940943,0.010065578566670261,-0.24459131926928374
8797,2.0,300.2135,24152.706000000002,0.0,0.0,-0.08796998726542582,0.0,0.0,0.0,-2.087083639379118,-2.067135176710358,-3.1876006135166866,-0.0013457631164164787,0.004726111155380855,-0.24517371516176176
8798,2.0,299.95296,24178.568,0.0,0.0,-0.08797999168580017,0.0,0.0,0.0,-2.0922343949374578,-2.051220969314748,-3.206225670229837,0.008748833514567643,0.014846837581268786,-0.24890788628529575
8799,2.0,300.27749,24171.528,0.0,0.0,-0.0879899961061743,0.0,0.0,0.0,-2.081584528436398,-2.066755714547908,-3.199200604636517,0.001946413722696078,0.01053472278619619,-0.25730010997354374
8800,2.0,299.84688,24127.591,0.0,0.0,-0.08800000052654844,0.0,0.0,0.0,-2.073961037334018,-2.054698241007928,-3.205525818385767,0.0016440161204517585,0.003203388975249877,-0.25270055233710276
8801,2.0,300.15046,24177.728,0.0,0.0,-0.08801000494692268,0.0,0.0,0.0,-2.095570115591668,-2.047435669591168,-3.206419707623987,0.005640828965306475,-0.00928037357392656,-0.2422377419370038
8802,2.0,300.89457999999996,24132.453999999998,0.0,0.0,-0.08802000936729681,0.0,0.0,0.0,-2.060390882719748,-2.065321357706348,-3.2099512895225266,-0.0024766176091481277,-0.007060324467649774,-0.2571043804517268
8803,2.0,300.63908,24149.464,0.0,0.0,-0.08803001378767095,0.0,0.0,0.0,-2.074510725513268,-2.067916493862468,-3.1984066218581573,0.0032871478762162365,-0.008822678067280532,-0.26471660421299475
8804,2.0,300.40761000000003,24299.54,0.0,0.0,-0.08803998529876744,0.0,0.0,0.0,-2.0846974353936183,-2.0805414887834583,-3.221214476309117,-0.0025102694688193075,0.003030109225298497,-0.25218929673414575
8805,2.0,299.88081,24323.357000000004,0.0,0.0,-0.08804998971914157,0.0,0.0,0.0,-2.1167580871077583,-2.085190685542298,-3.191744401125647,0.014074449189039986,0.0007829367918648451,-0.24826672188701773
8806,2.0,299.81497,24094.118,0.0,0.0,-0.08805999413951571,0.0,0.0,0.0,-2.083730490823188,-2.048936292989268,-3.191343356736067,0.007671579546825952,-0.01091306936028609,-0.2441384977995938
8807,2.0,299.9638,24129.275,0.0,0.0,-0.08806999855989006,0.0,0.0,0.0,-2.1064164512871177,-2.047385615036228,-3.180895127004907,0.005377873744404814,-0.0012022592405287488,-0.2363382553497698
8808,2.0,300.71017,24299.065,0.0,0.0,-0.0880800029802643,0.0,0.0,0.0,-2.089537629796308,-2.069303227949328,-3.227468154601307,-0.011018483847689688,-0.0078102703834136734,-0.25759418555006675
8809,2.0,299.38589,24206.402000000002,0.0,0.0,-0.08809000740063844,0.0,0.0,0.0,-2.121393402340228,-2.048344757580888,-3.188403614220937,0.006915039095436223,-0.022256524806547977,-0.25819747465960674
8810,2.0,299.88665,24242.961,0.0,0.0,-0.08810001182101235,0.0,0.0,0.0,-2.0964063508991977,-2.064360188661488,-3.208488156378127,-0.01686647503834148,-0.02290210190901148,-0.27006294743813775
8811,2.0,299.65326,24238.324,0.0,0.0,-0.08811001624138659,0.0,0.0,0.0,-2.1203499573872477,-2.0509394884369683,-3.196555616575477,0.013211672808390588,-0.020445528717316582,-0.25433701204360876
8812,2.0,299.96394,24139.542,0.0,0.0,-0.0881199877524832,0.0,0.0,0.0,-2.0641128543120777,-2.056786650789038,-3.216918498535137,-0.01119120043323549,0.008333886624340571,-0.24340738718993876
8813,2.0,299.90937,24312.987,0.0,0.0,-0.08812999217285733,0.0,0.0,0.0,-2.105517293148378,-2.072768340641308,-3.212255318924917,-0.00027567336390434274,0.0004870203425601656,-0.24996088618671874
8814,2.0,300.08707999999996,24477.725,0.0,0.0,-0.08813999659323157,0.0,0.0,0.0,-2.118053324710588,-2.081825276660158,-3.240738691161007,-0.006589677091600493,0.0021380491061590177,-0.22577081674434477
8815,2.0,299.22004,24239.801,0.0,0.0,-0.0881500010136057,0.0,0.0,0.0,-2.110444019109608,-2.066033571201638,-3.191816747182787,0.012941659895242387,0.009056092488141742,-0.25482815463208075
8816,2.0,300.41921,24129.655,0.0,0.0,-0.08816000543398006,0.0,0.0,0.0,-2.075851458045588,-2.063312792033118,-3.1956483524359367,0.0041020506214408765,0.01145897811666309,-0.23984950131880275
8817,2.0,300.76039,24281.697999999997,0.0,0.0,-0.08817000985435397,0.0,0.0,0.0,-2.115545024088038,-2.0664450520672477,-3.1990398018456467,-0.0008977875051972283,0.004575731668289555,-0.2596152141995267
8818,2.0,300.36818999999997,24347.206000000002,0.0,0.0,-0.08818001427472821,0.0,0.0,0.0,-2.102792157004428,-2.076976368306608,-3.2211741489551367,-0.02086456437567218,-0.009018278906334831,-0.24388537779211275
8819,2.0,300.04717999999997,24092.457000000002,0.0,0.0,-0.08818998578582482,0.0,0.0,0.0,-2.069885238806768,-2.057354374820068,-3.1962656243968572,0.006059687507544594,0.0035355459355812164,-0.2779835437348398
8820,2.0,299.87313,24085.736,0.0,0.0,-0.08819999020619906,0.0,0.0,0.0,-2.072307311845808,-2.0514684049891683,-3.197686606337097,0.0023436869980538975,0.01219716830476679,-0.2547963081814377
8821,2.0,299.81702,24227.915,0.0,0.0,-0.0882099946265732,0.0,0.0,0.0,-2.090080529199888,-2.0720577483461784,-3.202543012741387,0.003916526250656046,-0.004210943697762786,-0.2714560042056217
8822,2.0,299.90801,24277.002999999997,0.0,0.0,-0.08821999904694733,0.0,0.0,0.0,-2.090623327278458,-2.069083555327648,-3.219895731303967,-0.00021211126307375182,-0.03075766578779527,-0.2500228666953358
8823,2.0,299.50112,24373.741,0.0,0.0,-0.08823000346732146,0.0,0.0,0.0,-2.113146357126308,-2.0754333910543283,-3.220428903506587,0.00975559678742744,-0.008778938593588782,-0.25077230699929975
8824,2.0,299.37496,24308.917,0.0,0.0,-0.08824000788769559,0.0,0.0,0.0,-2.0846160714105877,-2.067156860262498,-3.237530741344407,0.010644847873314689,0.0003034141454071447,-0.2267429896852908
8825,2.0,300.10421,24101.022,0.0,0.0,-0.08825001230806984,0.0,0.0,0.0,-2.0791475606208882,-2.0526704235827977,-3.194290901276967,-0.012451753471892387,-0.0017905766679161582,-0.23960133610431075
8826,2.0,300.03833,24264.395,0.0,0.0,-0.08825998381916644,0.0,0.0,0.0,-2.096566444414998,-2.069708527989328,-3.209495225652517,-0.018040267523935782,0.00960077865694808,-0.2398639806627318
8827,2.0,299.70661,24405.879,0.0,0.0,-0.08826998823954069,0.0,0.0,0.0,-2.143919471938378,-2.067431248389578,-3.207427182198417,-0.01192999958464929,0.018113687626181783,-0.2525765203923617
8828,2.0,300.24978,24212.179,0.0,0.0,-0.0882799926599146,0.0,0.0,0.0,-2.0915125555662177,-2.066055660053818,-3.2023295209453173,0.007625063970510223,0.014354056567385087,-0.27961058021541574
8829,2.0,300.38241,24072.039,0.0,0.0,-0.08828999708028895,0.0,0.0,0.0,-2.082201293772268,-2.0544001428285084,-3.180697441910397,0.005276709233220655,-0.007864055725221872,-0.26715278169342677
8830,2.0,300.23441,24215.993,0.0,0.0,-0.08830000150066308,0.0,0.0,0.0,-2.071081887174868,-2.076521925636758,-3.213453487168167,0.0017746977216240283,-0.005839458104934645,-0.26993465984297677
8831,2.0,299.66766,24281.56,0.0,0.0,-0.08831000592103722,0.0,0.0,0.0,-2.107749685768698,-2.069141209258338,-3.2040970344197572,-0.003919471768696747,0.006787923931965933,-0.25681232124290276
8832,2.0,298.73435,24333.732999999997,0.0,0.0,-0.08832001034141146,0.0,0.0,0.0,-2.102399421265668,-2.072851427149508,-3.221596471596817,0.014999728915357986,-0.001856648376461928,-0.24447374172767977
8833,2.0,299.09779,24391.953999999998,0.0,0.0,-0.08833001476178559,0.0,0.0,0.0,-2.112456941758268,-2.0827924238806084,-3.2192954819447266,0.004594223279964536,-0.004680431814372655,-0.24838607261629675
8834,2.0,299.77617000000004,24259.783,0.0,0.0,-0.08833998627288231,0.0,0.0,0.0,-2.089705018712828,-2.066892705961428,-3.2177706418692367,0.002125550868825538,-0.016067830296271384,-0.24738948034794078
8835,2.0,299.98447000000004,24257.851000000002,0.0,0.0,-0.08834999069325622,0.0,0.0,0.0,-2.087370895782468,-2.0814116679693377,-3.204998421708717,-0.00027606567407806076,0.004694786427214345,-0.25975015884784475
8836,2.0,299.68258,24392.322,0.0,0.0,-0.08835999511363035,0.0,0.0,0.0,-2.106181782563958,-2.076478963832518,-3.2319960653231767,-0.006924779265997504,0.01020853123450359,-0.23794891770872978
8837,2.0,300.19875,24284.716,0.0,0.0,-0.08836999953400448,0.0,0.0,0.0,-2.1072794363972878,-2.071486883239838,-3.2031809550043473,8.356658204437952e-05,0.015098102327816684,-0.26060566617227676
8838,2.0,300.50781,24092.025,0.0,0.0,-0.08838000395437884,0.0,0.0,0.0,-2.075480507183978,-2.067086135405518,-3.180807480871257,-0.0008690620573797472,0.003554825045233916,-0.25286395918072974
8839,2.0,300.75767,24307.289,0.0,0.0,-0.08839000837475308,0.0,0.0,0.0,-2.099113147216338,-2.0878006151498782,-3.2018952419524567,-0.00944136452534013,0.015957684944150882,-0.27397463997919175
8840,2.0,300.2025,24521.455,0.0,0.0,-0.08840001279512721,0.0,0.0,0.0,-2.1235284216259376,-2.091052945320858,-3.2393285509968366,-0.0005177381035192726,0.006827160522213284,-0.26090755390707077
8841,2.0,299.96439,24451.357000000004,0.0,0.0,-0.08840998430622371,0.0,0.0,0.0,-2.1149505502543677,-2.0888916828575583,-3.228759643178767,-0.01009891145520996,-0.010444012584243791,-0.25255808937304275
8842,2.0,299.56787,24314.057,0.0,0.0,-0.08841998872659784,0.0,0.0,0.0,-2.092935462681648,-2.064636704613778,-3.233294140026287,0.008798364219205941,-0.02146014873145178,-0.2334394076086758
8843,2.0,299.56651,24224.998,0.0,0.0,-0.08842999314697197,0.0,0.0,0.0,-2.114267417036948,-2.048782481624088,-3.200744493813887,-0.007510027964132053,-0.00965387275953806,-0.22748463809598576
8844,2.0,299.58258,24206.132,0.0,0.0,-0.08843999756734622,0.0,0.0,0.0,-2.098303256411408,-2.049372801132348,-3.210383542015187,0.0050798225797894555,0.0012958222481376986,-0.2285572443868438
8845,2.0,299.90112999999997,24368.105,0.0,0.0,-0.08845000198772035,0.0,0.0,0.0,-2.108113239904578,-2.063355145887298,-3.235827062626267,-0.006727127102115754,-0.0024560011106884378,-0.24605449294368778
8846,2.0,299.54034,24414.472,0.0,0.0,-0.08846000640809448,0.0,0.0,0.0,-2.099239195528778,-2.086380747784748,-3.2357699153206267,0.005719466292317375,-0.006604120161175914,-0.26526035474665877
8847,2.0,299.67899,24166.532000000003,0.0,0.0,-0.08847001082846884,0.0,0.0,0.0,-2.0659566655190478,-2.067711209392208,-3.212354516109707,0.004533749676896256,0.0025971573874194777,-0.27595468266210677
8848,2.0,299.90331000000003,24224.495,0.0,0.0,-0.08848001524884275,0.0,0.0,0.0,-2.0665665407542377,-2.0815783476107876,-3.215496604669807,-0.011631679503457388,0.006013076584394454,-0.27502957518830573
8849,2.0,299.87177,24532.421000000002,0.0,0.0,-0.08848998675993947,0.0,0.0,0.0,-2.1301334950528084,-2.0824758845493676,-3.244633928520437,-0.00964205745277198,0.010707544749752388,-0.2569676626157338
8850,2.0,300.26578,24494.529,0.0,0.0,-0.0884999911803136,0.0,0.0,0.0,-2.110554868670548,-2.086398378336488,-3.248771940603827,-0.01242884287388129,-0.00036949594592391066,-0.24428242997629876
8851,2.0,300.78073,24226.055,0.0,0.0,-0.08850999560068784,0.0,0.0,0.0,-2.0843378329331284,-2.0726923468838083,-3.207085716914717,0.006086910396656284,0.0036162898095500164,-0.24833833840408578
8852,2.0,300.42106,24248.467,0.0,0.0,-0.08852000002106197,0.0,0.0,0.0,-2.084941831317738,-2.060390882719748,-3.225595769741517,0.01134658942882119,-0.008143615379487263,-0.24582495126603376
8853,2.0,300.27454,24480.964,0.0,0.0,-0.0885300044414361,0.0,0.0,0.0,-2.1264676575160184,-2.087272610522768,-3.227861396965117,0.025129689697357276,-0.016073407224821784,-0.25249406209922376
8854,2.0,300.4288,24576.732000000004,0.0,0.0,-0.08854000886181024,0.0,0.0,0.0,-2.135908108697718,-2.098062812162678,-3.236741926141557,0.011694726964429688,-0.03609096747090117,-0.24524916176420775
8855,2.0,300.15905,24464.206000000002,0.0,0.0,-0.08855001328218437,0.0,0.0,0.0,-2.126180907737718,-2.082846734085968,-3.227480009627477,-0.0016277917572005383,-0.014240642470441985,-0.24202801943130575
8856,2.0,299.81966,24309.357000000004,0.0,0.0,-0.08855998479328109,0.0,0.0,0.0,-2.081093811412968,-2.0845635850554083,-3.223780228212337,0.004396245457500646,-0.005908502993248845,-0.24643570802881076
8857,2.0,300.26644,24263.202,0.0,0.0,-0.08856998921365522,0.0,0.0,0.0,-2.0817696492296682,-2.059466292003498,-3.234171614612887,-0.01133686020136099,-0.002081084286862028,-0.2530756980541267
8858,2.0,300.0778,24427.216,0.0,0.0,-0.08857999363402946,0.0,0.0,0.0,-2.099616428541008,-2.089535805946128,-3.2361114819293366,0.0007917030872250112,0.0007227166431765794,-0.27215359650196874
8859,2.0,300.3494,24510.142999999996,0.0,0.0,-0.08858999805440337,0.0,0.0,0.0,-2.113755016461378,-2.089848292276968,-3.2468681449909367,-0.015668711081881385,0.004592191612189026,-0.27545876766566374
8860,2.0,299.95949,24211.036,0.0,0.0,-0.08860000247477773,0.0,0.0,0.0,-2.100653084718318,-2.054624172425618,-3.204273238612147,0.017929813130534784,-0.002201355857831908,-0.2670723701654908
8861,2.0,300.21054,24168.125,0.0,0.0,-0.08861000689515186,0.0,0.0,0.0,-2.092702921783698,-2.063867546462868,-3.189935851022157,-0.01024079818393809,-0.0032076139241918465,-0.24539898092399373
8862,2.0,299.44633,24424.49,0.0,0.0,-0.08862001131552599,0.0,0.0,0.0,-2.119291617657798,-2.072291809119278,-3.232851755032627,0.002022143021919978,0.007292095295523772,-0.2285764454762388
8863,2.0,299.01292,24553.134,0.0,0.0,-0.08863001573590024,0.0,0.0,0.0,-2.124577439454468,-2.0951292504731582,-3.243833156966407,-0.018162642804763283,0.008878407633380611,-0.2285204938057168
8864,2.0,299.04961000000003,24433.362999999998,0.0,0.0,-0.08863998724699684,0.0,0.0,0.0,-2.0897549719427584,-2.101417480593758,-3.235959697064357,-0.008608460378838891,0.02248484754433168,-0.26434209684353377
8865,2.0,299.97272999999996,24430.117000000002,0.0,0.0,-0.08864999166737109,0.0,0.0,0.0,-2.116475086354828,-2.081686562721468,-3.227984000227217,-0.01145608022137709,0.008432678914390613,-0.2590876047399558
8866,2.0,299.95824,24412.232000000004,0.0,0.0,-0.088659996087745,0.0,0.0,0.0,-2.1169282117995483,-2.083971543021978,-3.2198093010704367,0.006100470317444545,-0.0009225068559618381,-0.2791641624863577
8867,2.0,300.48098999999996,24437.127999999997,0.0,0.0,-0.08867000050811913,0.0,0.0,0.0,-2.111113676100698,-2.086681885714468,-3.2304812564236767,-0.001913930545690238,0.0023942306488171678,-0.2524359116759848
8868,2.0,300.14816,24408.159,0.0,0.0,-0.08868000492849326,0.0,0.0,0.0,-2.092187582782838,-2.084980740121578,-3.242302642690357,0.013353652452152887,-0.0018007465578448484,-0.2602690340915538
8869,2.0,299.97187,24342.637000000002,0.0,0.0,-0.08869000934886762,0.0,0.0,0.0,-2.089005673493808,-2.072036166119048,-3.238511972741247,0.006537038140955433,-0.018839077425772184,-0.2300417469758528
8870,2.0,300.05816,24243.956000000002,0.0,0.0,-0.08870001376924186,0.0,0.0,0.0,-2.076683235052678,-2.0782722138594982,-3.214601803506497,0.0097997203842321,-0.015614025973984383,-0.26666101088989275
8871,2.0,300.71533999999997,24475.229,0.0,0.0,-0.08870998528033835,0.0,0.0,0.0,-2.125460993541668,-2.089018339120058,-3.2253789342201173,-0.008711484102631542,-0.007273579365846393,-0.24861173354606778
8872,2.0,300.57477,24696.866,0.0,0.0,-0.08871998970071249,0.0,0.0,0.0,-2.156811052960678,-2.108279919546028,-3.242139509424257,-0.004251118456277726,0.006843013731952873,-0.24742616000156079
8873,2.0,300.01453,24591.697999999997,0.0,0.0,-0.08872999412108662,0.0,0.0,0.0,-2.138049815434088,-2.096999710157758,-3.2402127130340967,-0.020955074967354877,0.004141940555352707,-0.22720666306355178
8874,2.0,299.59252999999995,24473.737999999998,0.0,0.0,-0.08873999854146075,0.0,0.0,0.0,-2.113817027367498,-2.091458954635928,-3.2341291594336967,0.005965751623898844,0.017752314004516982,-0.25379862160297373
8875,2.0,299.32144,24481.931,0.0,0.0,-0.088750002961835,0.0,0.0,0.0,-2.097627317269698,-2.090442158160578,-3.2538262347526468,-0.001260110147038189,0.014491990303498086,-0.23525813074316979
8876,2.0,299.54397,24441.751,0.0,0.0,-0.08876000738220913,0.0,0.0,0.0,-2.087046047800408,-2.092673942830838,-3.249962104171287,0.017449116137343686,0.004085756546582777,-0.26968519766835675
8877,2.0,300.18352999999996,24434.84,0.0,0.0,-0.08877001180258326,0.0,0.0,0.0,-2.108081626501458,-2.082321262584108,-3.2371782316346174,0.002894754615990037,-0.014520035039765887,-0.27083267300910374
8878,2.0,300.53026,24384.346,0.0,0.0,-0.08878001622295761,0.0,0.0,0.0,-2.120364041563638,-2.072666306356238,-3.2192019589604968,0.01366635359201409,-0.029747168688316974,-0.27379911466436874
8879,2.0,300.03526,24314.213,0.0,0.0,-0.08878998773405411,0.0,0.0,0.0,-2.106217752942508,-2.060928918522848,-3.2237668533110173,0.008287935833630581,-0.014013063458231686,-0.26011544564139577
8880,2.0,300.40724,24486.093999999997,0.0,0.0,-0.08879999215442824,0.0,0.0,0.0,-2.119903519393188,-2.086001184297288,-3.2372563532173264,-0.007289857532677924,-0.0054881577091389945,-0.24845366653046777
8881,2.0,299.4223,24742.5,0.0,0.0,-0.08880999657480237,0.0,0.0,0.0,-2.1380503220591383,-2.111931470256408,-3.2711204887844567,0.001084362525143249,-0.006674002905997805,-0.24597554049589573
8882,2.0,299.81452,24722.886000000002,0.0,0.0,-0.08882000099517662,0.0,0.0,0.0,-2.128020868594308,-2.117785826684188,-3.269333216933067,-0.006932303762565113,-0.00873135282251743,-0.24547595753409074
8883,2.0,299.95945,24498.89,0.0,0.0,-0.08883000541555075,0.0,0.0,0.0,-2.123777275850498,-2.093990863985808,-3.229282480230367,0.016967553828567183,0.0028807298160558976,-0.25142463741367976
8884,2.0,299.87584,24478.237,0.0,0.0,-0.08884000983592488,0.0,0.0,0.0,-2.115010939960328,-2.085904013612698,-3.239857974174087,-0.005731996751004035,0.0038558108861139065,-0.24844705000731476
8885,2.0,299.95606000000004,24663.374,0.0,0.0,-0.08885001425629901,0.0,0.0,0.0,-2.1558286056637184,-2.087956047715218,-3.253265299497287,-0.004321538730277666,0.001172847427226029,-0.2384878755694208
8886,2.0,300.24953,24546.182,0.0,0.0,-0.08885998576739573,0.0,0.0,0.0,-2.123558008528858,-2.0835506389304377,-3.254317762376157,-0.012956183822175789,0.003937814635257046,-0.25906181752491075
8887,2.0,299.60994,24320.045,0.0,0.0,-0.08886999018776987,0.0,0.0,0.0,-2.1053283220047283,-2.053527227867358,-3.2338309599292674,0.001201759910879469,0.021076342765823083,-0.24401351339975877
8888,2.0,299.99006,24359.646,0.0,0.0,-0.088879994608144,0.0,0.0,0.0,-2.0930173332897284,-2.075264684912678,-3.236442004111957,0.007880019176572342,0.017707209176315485,-0.2572943141829718
8889,2.0,299.58567999999997,24535.259,0.0,0.0,-0.08888999902851802,0.0,0.0,0.0,-2.1350859575665777,-2.085202540568468,-3.2378176937727265,-0.008063805924760682,-0.005908796025177764,-0.24503515321058678
8890,2.0,299.45241,24661.875,0.0,0.0,-0.08890000344889215,0.0,0.0,0.0,-2.1273796839310277,-2.105789756100268,-3.2634248542749567,0.002562749339198668,0.001054832262903839,-0.2660648651935577
8891,2.0,299.32142999999996,24689.493,0.0,0.0,-0.0889100078692665,0.0,0.0,0.0,-2.155563742087578,-2.095011916111578,-3.254413514510607,0.012534633277071989,-0.0017930417027594383,-0.22255636186210281
8892,2.0,299.66512,24451.3,0.0,0.0,-0.08892001228964064,0.0,0.0,0.0,-2.1043371607569084,-2.079474536428158,-3.2487728525289175,0.008573657061754072,0.0014052944982167685,-0.24372527414381176
8893,2.0,300.41369,24453.036,0.0,0.0,-0.08892998380073713,0.0,0.0,0.0,-2.106933715463168,-2.092671612355608,-3.233507125197307,0.003158690966963527,-0.012962410244040289,-0.24325864207525877
8894,2.0,301.3305,24875.178,0.0,0.0,-0.08893998822111127,0.0,0.0,0.0,-2.1490890739485775,-2.128682318259588,-3.2836616879221765,-0.007623741172504674,-0.0017325392220633085,-0.24772215062077277
8895,2.0,300.37626,24770.206000000002,0.0,0.0,-0.08894999264148562,0.0,0.0,0.0,-2.1493558626999083,-2.102665703391948,-3.277502444539307,0.002185073232699938,0.0086863723201032,-0.23591327799282777
8896,2.0,300.13687999999996,24432.741,0.0,0.0,-0.08895999706185986,0.0,0.0,0.0,-2.0839399296188583,-2.1015289381047584,-3.241474310733607,0.0017644257974102683,0.017918153661634083,-0.2614726434878407
8897,2.0,300.16157000000004,24441.052000000003,0.0,0.0,-0.08897000148223377,0.0,0.0,0.0,-2.111185920832828,-2.094679468753768,-3.223604226669967,-0.005988660398059765,0.002841906125224297,-0.25699192995562875
8898,2.0,299.97014,24571.28,0.0,0.0,-0.0889800059026079,0.0,0.0,0.0,-2.109478594414328,-2.1074746896915584,-3.252102189707497,-0.013548143782347687,0.001131816371051579,-0.26728119087859975
8899,2.0,299.98772,24649.338,0.0,0.0,-0.08899001032298204,0.0,0.0,0.0,-2.130532208967158,-2.105873754533558,-3.2563773958544266,-0.008134319417769821,-0.005917829048494254,-0.2642362932680918
8900,2.0,299.5339,24545.716,0.0,0.0,-0.08900001474335639,0.0,0.0,0.0,-2.131711328108528,-2.094489585685028,-3.2350840463279367,0.008750681480100022,-0.002297835404528698,-0.26031051655064774
8901,2.0,299.3509,24448.748,0.0,0.0,-0.08900998625445289,0.0,0.0,0.0,-2.114572506642058,-2.092805361368808,-3.224430836101547,0.0023604359208818882,-0.017013054837557783,-0.24620656151869577
8902,2.0,300.376,24493.23,0.0,0.0,-0.08901999067482713,0.0,0.0,0.0,-2.1089811899402378,-2.0894185729095582,-3.246930459872087,0.007927018579810822,0.008148047740724702,-0.26176704330439576
8903,2.0,300.24022,24817.816000000003,0.0,0.0,-0.08902999509520126,0.0,0.0,0.0,-2.169622181925038,-2.104529779600918,-3.269844401608517,-0.008909643195538322,-0.00921294755529713,-0.2275750807999118
8904,2.0,299.67327,24892.477000000003,0.0,0.0,-0.0890399995155754,0.0,0.0,0.0,-2.170910630752198,-2.113943987605028,-3.281836723167067,0.005464468935051095,-0.004279009685155376,-0.2566877421431078
8905,2.0,300.41991,24575.668999999998,0.0,0.0,-0.08905000393594953,0.0,0.0,0.0,-2.1361170408683376,-2.098987909503978,-3.235284771172747,-0.003356597355295367,-0.02200188695041718,-0.26068690856529475
8906,2.0,300.27047999999996,24300.057999999997,0.0,0.0,-0.08906000835632377,0.0,0.0,0.0,-2.094854153071008,-2.076332447868058,-3.2154243599376766,0.00862263513978783,0.008168323989800812,-0.27867133790271975
8907,2.0,299.91877,24490.925,0.0,0.0,-0.0890700127766979,0.0,0.0,0.0,-2.1114368015575877,-2.091220232912368,-3.2419726271327867,-0.0057065116871388545,0.007303787289752683,-0.25270492957753476
8908,2.0,299.71567999999996,24625.229,0.0,0.0,-0.08907998428779451,0.0,0.0,0.0,-2.132839582094878,-2.0972609260335378,-3.2553540132534264,-0.006216620088332635,0.005117213433654646,-0.25869083626579775
8909,2.0,299.92096000000004,24508.902000000002,0.0,0.0,-0.08908998870816875,0.0,0.0,0.0,-2.124449668616858,-2.088497224593628,-3.2371473275065674,-0.0018133141014851683,0.01044145108799099,-0.25430668546811575
8910,2.0,299.28148,24524.154,0.0,0.0,-0.08909999312854289,0.0,0.0,0.0,-2.109193364511178,-2.098042344510658,-3.2474948401777866,-0.015523619747061984,0.006698620830427404,-0.2569705301135168
8911,2.0,299.22549,24639.693,0.0,0.0,-0.08910999754891702,0.0,0.0,0.0,-2.1296385223789582,-2.103750995574058,-3.256461799587757,-0.005010180076566275,-0.0045294451878214355,-0.2610865242722337
8912,2.0,299.07184,24817.77,0.0,0.0,-0.08912000196929115,0.0,0.0,0.0,-2.1522814197136375,-2.117918461122278,-3.2737826007721864,-0.017857194509117883,-0.002986738675968157,-0.25277252349170576
8913,2.0,299.95112,24919.775,0.0,0.0,-0.0891300063896654,0.0,0.0,0.0,-2.1448621998314183,-2.139902036616888,-3.2902250154449266,0.0034300310350927066,0.01097315509121609,-0.2591973093282828
8914,2.0,300.33158,24596.388,0.0,0.0,-0.08914001081003953,0.0,0.0,0.0,-2.1329410084298877,-2.094669640227798,-3.2490772328589568,0.007214601015950683,0.009914926211327032,-0.23949316152363476
8915,2.0,300.20078,24257.699,0.0,0.0,-0.08915001523041366,0.0,0.0,0.0,-2.079641216069608,-2.074557031042838,-3.219536432818507,0.015745561035715887,-0.007964788186563392,-0.25760498679613275
8916,2.0,300.06025,24544.885,0.0,0.0,-0.08915998674151016,0.0,0.0,0.0,-2.113902241700908,-2.097687605650648,-3.249442408194997,-0.0015258779475674283,-0.017114925989361682,-0.24785164398355278
8917,2.0,299.96445,24840.77,0.0,0.0,-0.08916999116188451,0.0,0.0,0.0,-2.1516186528232275,-2.1146085783456177,-3.2847466761292567,-0.0008581953553572872,-0.02097827839464488,-0.27305458862338977
8918,2.0,299.50608,24591.721,0.0,0.0,-0.08917999558225864,0.0,0.0,0.0,-2.1194487727483082,-2.093536016015918,-3.2622844412874072,-0.002112349233272638,0.0021937012599514577,-0.26049634661898774
8919,2.0,299.6333,24453.402000000002,0.0,0.0,-0.08919000000263277,0.0,0.0,0.0,-2.098124316443748,-2.090247816791398,-3.244851371991897,-0.007269920317085274,-0.003972964889176106,-0.25535809456688174
8920,2.0,299.52702,24642.64,0.0,0.0,-0.0892000044230068,0.0,0.0,0.0,-2.1272367143419184,-2.084977700371278,-3.278532919891007,-0.022924500815722077,0.015402389438847485,-0.2285454906856838
8921,2.0,300.02339,24859.583,0.0,0.0,-0.08921000884338093,0.0,0.0,0.0,-2.162304185727808,-2.107585437927488,-3.2868028645571865,-0.002125134423034438,0.01032792756003709,-0.24429964509549776
8922,2.0,300.49194,24878.057,0.0,0.0,-0.08922001326375528,0.0,0.0,0.0,-2.1592845991047978,-2.115660534599438,-3.2873630905374767,-0.0028825733232878377,0.01090871238485609,-0.24166880200585375
8923,2.0,300.78965,24606.654,0.0,0.0,-0.08922998477485178,0.0,0.0,0.0,-2.145094234104318,-2.085836632481048,-3.2488777239142674,0.02099148003019778,-0.010703712637874188,-0.2534296972415637
8924,2.0,300.69765,24555.212000000003,0.0,0.0,-0.08923998919522591,0.0,0.0,0.0,-2.111032616092698,-2.1074089297600676,-3.2457296571785768,-5.230256478411125e-06,-0.015170145423176786,-0.2763154706252137
8925,2.0,301.07779,24771.578999999998,0.0,0.0,-0.08924999361560004,0.0,0.0,0.0,-2.157536540032278,-2.112295531017338,-3.2601092972977366,0.02120806527882308,0.007448170869377232,-0.2793832676879818
8926,2.0,300.11814,24883.905,0.0,0.0,-0.0892599980359744,0.0,0.0,0.0,-2.154857912067918,-2.1274413908621184,-3.281786364637097,-0.01118609973223209,0.011938314314969887,-0.2505231589322108
8927,2.0,299.92419,24643.272,0.0,0.0,-0.08927000245634864,0.0,0.0,0.0,-2.119551617633458,-2.1068392805538476,-3.2645484473108466,-0.0010825696804163088,-0.002803084258242877,-0.25514379217073174
8928,2.0,299.23907,24444.373,0.0,0.0,-0.08928000687672255,0.0,0.0,0.0,-2.086329578654698,-2.091068549372398,-3.253080887979087,-0.008093007184692622,-0.01078173289557419,-0.25976920794972475
8929,2.0,299.82851,24731.908,0.0,0.0,-0.08929001129709668,0.0,0.0,0.0,-2.139528349980008,-2.111502460164068,-3.266851767438167,-0.0004940305843045225,-0.0005539521585858215,-0.26716379572201376
8930,2.0,299.74104,24901.267999999996,0.0,0.0,-0.08930001571747093,0.0,0.0,0.0,-2.160743273948758,-2.117382958444428,-3.291237454944847,-0.0012491577240572689,-0.004628876433384535,-0.2556218233029098
8931,2.0,300.21103999999997,24615.776,0.0,0.0,-0.08930998722856753,0.0,0.0,0.0,-2.117606278766468,-2.102889327689018,-3.2620855402927766,-0.0075820645746915135,-0.01919565026846318,-0.25653073904011275
8932,2.0,300.13894,24499.178,0.0,0.0,-0.08931999164894167,0.0,0.0,0.0,-2.108902967032518,-2.085078518756228,-3.2531569830615967,-0.0005276491688424185,0.00036899538010950865,-0.23478251114622978
8933,2.0,299.93408999999997,24757.807,0.0,0.0,-0.08932999606931591,0.0,0.0,0.0,-2.140635325714258,-2.125106659981698,-3.260013139863247,-0.003118882093059697,0.006938880667639203,-0.26081440582537774
8934,2.0,299.17958,24856.265,0.0,0.0,-0.08934000048969004,0.0,0.0,0.0,-2.164898916583888,-2.1235468627777583,-3.267238221026307,0.011827513390034688,0.00949121187063468,-0.24607357244307076
8935,2.0,299.8018,24884.388,0.0,0.0,-0.08935000491006417,0.0,0.0,0.0,-2.1571057060897583,-2.1276055373783183,-3.2795212440385466,-0.012177579140583488,0.003486825729697906,-0.2713386495790398
8936,2.0,299.8652,24736.619,0.0,0.0,-0.0893600093304383,0.0,0.0,0.0,-2.140286261054808,-2.110703107160178,-3.2683250330835674,-0.005250726562231365,0.005284286824093505,-0.26317888572873377
8937,2.0,298.96125,24530.901,0.0,0.0,-0.08937001375081255,0.0,0.0,0.0,-2.111902491303548,-2.100899709792658,-3.243979064980807,0.0012818655386102789,0.004618186340854506,-0.27654780887314373
8938,2.0,299.32412,24680.096,0.0,0.0,-0.08937998526190905,0.0,0.0,0.0,-2.134315684840558,-2.0907102641370376,-3.2771069730252766,-0.019517160604693783,-0.011407615455843989,-0.24413628891437578
8939,2.0,299.56765,24774.772999999997,0.0,0.0,-0.08938998968228329,0.0,0.0,0.0,-2.129244266765048,-2.116477112855028,-3.285190884973097,-0.01225018154999879,-0.01009198852522672,-0.24528288272753576
8940,2.0,299.96546,24604.032000000003,0.0,0.0,-0.08939999410265753,0.0,0.0,0.0,-2.115826910265858,-2.100943583521988,-3.262240972858117,-0.009495776461010172,-0.006172467917875154,-0.24035355271354875
8941,2.0,299.98261,24516.097999999998,0.0,0.0,-0.08940999852303166,0.0,0.0,0.0,-2.0945428826402877,-2.1087622265936283,-3.248976515799017,0.01173849531574929,-0.0002214229200352408,-0.26573876078137376
8942,2.0,300.09558,24847.277000000002,0.0,0.0,-0.0894200029434058,0.0,0.0,0.0,-2.149907881354388,-2.1293193485974578,-3.273724642866467,0.007463888100953403,-0.012392050749500188,-0.26146503397958976
8943,2.0,299.9687,24971.013,0.0,0.0,-0.08943000736377993,0.0,0.0,0.0,-2.1726858449273982,-2.128388577055598,-3.289490105147397,0.0038299055261072465,-0.006489743881937853,-0.26185957330352777
8944,2.0,300.51322000000005,24834.516,0.0,0.0,-0.08944001178415417,0.0,0.0,0.0,-2.142264023924998,-2.134036433112998,-3.272772187772467,-0.0086706872085552,-0.009445183870267071,-0.2667593164145947
8945,2.0,299.98757,24649.617000000002,0.0,0.0,-0.0894500162045283,0.0,0.0,0.0,-2.117433012999368,-2.119438944222338,-3.255996008516787,-0.011084298494685091,0.001304266978446129,-0.27004732312159574
8946,2.0,300.63752999999997,24510.49,0.0,0.0,-0.0894599877156248,0.0,0.0,0.0,-2.102866934861808,-2.0955092192606584,-3.252200778942227,0.0007659492993008103,-0.004306128310831776,-0.27271963853783276
8947,2.0,299.7708,24552.502,0.0,0.0,-0.08946999213599893,0.0,0.0,0.0,-2.106046412350598,-2.104467464719768,-3.252833654954687,0.006256151534359084,0.004786587291574385,-0.26538562285652173
8948,2.0,299.17604,24819.467,0.0,0.0,-0.08947999655637329,0.0,0.0,0.0,-2.157991185352148,-2.104293793652628,-3.2822133482292366,0.0015260041985298888,-0.005917191207556305,-0.2581957116044327
8949,2.0,298.64492,24902.634,0.0,0.0,-0.08949000097674742,0.0,0.0,0.0,-2.158568332609108,-2.127531772771038,-3.2836789131738766,0.0033061663779432164,-0.004949871227964256,-0.24895324949227277
8950,2.0,299.52001,24671.582000000002,0.0,0.0,-0.08950000539712155,0.0,0.0,0.0,-2.121374961188408,-2.104135118686968,-3.274034798722077,0.006483576329904164,-0.014876139760910685,-0.24490064425981178
8951,2.0,299.3885,24787.992000000002,0.0,0.0,-0.08951000981749557,0.0,0.0,0.0,-2.124410759813018,-2.118138741694018,-3.2923812116577267,0.006609521189508954,-0.00024272010977960978,-0.24514503005143073
8952,2.0,299.92076000000003,25115.709,0.0,0.0,-0.0895200142378697,0.0,0.0,0.0,-2.179227590223018,-2.143858980907408,-3.311461724290827,0.0013155144598561688,0.0029445105661255674,-0.23815690755675675
8953,2.0,299.5778,25007.915,0.0,0.0,-0.08952998574896642,0.0,0.0,0.0,-2.1617775996508377,-2.1454899082683685,-3.2945141031182263,-0.010164910817698589,0.01214064718768859,-0.26211115317085676
8954,2.0,300.2616,24655.467,0.0,0.0,-0.08953999016934056,0.0,0.0,0.0,-2.134249924909068,-2.110737253688548,-3.249659142391387,-0.004135068794499516,-0.015077278011761487,-0.25739046148496075
8955,2.0,300.08488,24615.619,0.0,0.0,-0.08954999458971469,0.0,0.0,0.0,-2.124377727859758,-2.098655968771218,-3.259499827362587,0.01194354471198609,-0.0033310472407737674,-0.2808420539894527
8956,2.0,300.23851,24799.666,0.0,0.0,-0.08955999901008882,0.0,0.0,0.0,-2.144289206899868,-2.109855928751568,-3.284333979363527,0.007944931524353693,-0.001924915088699328,-0.25235873241586776
8957,2.0,300.20201000000003,24859.165,0.0,0.0,-0.08957000343046317,0.0,0.0,0.0,-2.1410843981585774,-2.128395973781328,-3.287085257360057,-0.0028123332051556774,0.015114703417455086,-0.2776810480499857
8958,2.0,299.9424,24863.877,0.0,0.0,-0.08958000785083742,0.0,0.0,0.0,-2.139999105976468,-2.123799871327728,-3.294198678362097,-0.012606232568888289,0.008095242617063243,-0.2548520875994428
8959,2.0,300.98976,24742.112999999998,0.0,0.0,-0.08959001227121133,0.0,0.0,0.0,-2.127891983181588,-2.110030815718828,-3.283061843862977,-0.004034078157032516,0.01933587091005188,-0.2700671524260528
8960,2.0,300.05525,24779.139,0.0,0.0,-0.08959998378230805,0.0,0.0,0.0,-2.155402027371618,-2.117337463514938,-3.259500030012607,0.0013138452316414286,0.006209865256540984,-0.25711842409811275
8961,2.0,299.47569,25016.023999999998,0.0,0.0,-0.08960998820268218,0.0,0.0,0.0,-2.165627848705828,-2.130148187179258,-3.308470711320637,-0.00968996320822491,-0.003098778501800627,-0.25838198750281677
8962,2.0,300.21948,25032.706000000002,0.0,0.0,-0.08961999262305631,0.0,0.0,0.0,-2.1634800624688584,-2.144135902159738,-3.3017016940275865,-0.006179490045043184,-0.03086905034478807,-0.2507813147926888
8963,2.0,300.31754,24689.812,0.0,0.0,-0.08962999704343044,0.0,0.0,0.0,-2.120314189658718,-2.103016490576568,-3.281755561834057,-0.004265738135345576,-0.000994491192948639,-0.26181568944169675
8964,2.0,299.71077,24636.886000000002,0.0,0.0,-0.08964000146380469,0.0,0.0,0.0,-2.1239811417706176,-2.093774129789418,-3.2712427880715267,0.026667824627409374,0.001267193373187249,-0.2553603541146048
8965,2.0,299.893,24910.425,0.0,0.0,-0.08965000588417882,0.0,0.0,0.0,-2.172327964992078,-2.114815382691028,-3.285003737679627,0.01308575621846359,0.008091121931556563,-0.25954151038725276
8966,2.0,299.93113999999997,24968.0,0.0,0.0,-0.08966001030455295,0.0,0.0,0.0,-2.1828103412516078,-2.117536769809608,-3.2893014379787764,-0.0003779637783346206,-0.015426948594771285,-0.2438118766298588
8967,2.0,300.39304,24843.316000000003,0.0,0.0,-0.08967001472492708,0.0,0.0,0.0,-2.142845122857348,-2.121705888671068,-3.2871968161960674,6.058057694758745e-05,0.0026310206110615173,-0.25864093369837277
8968,2.0,300.33472,24833.028,0.0,0.0,-0.0896799862360238,0.0,0.0,0.0,-2.1579728455253377,-2.113946014105228,-3.276701470335257,0.0009974165169148459,-0.0028067638759810276,-0.24238142080118374
8969,2.0,300.34033999999997,24947.263,0.0,0.0,-0.08968999065639782,0.0,0.0,0.0,-2.162526290149728,-2.118338757263758,-3.302479971429397,-0.012707897017671789,0.01031933621243919,-0.24442089060246378
8970,2.0,300.58972,25060.711,0.0,0.0,-0.08969999507677218,0.0,0.0,0.0,-2.182439289064988,-2.140188989045208,-3.295202201261137,-0.01159983001306409,0.0018317988230594684,-0.26142704723334076
8971,2.0,300.10877,25085.837000000003,0.0,0.0,-0.08970999949714631,0.0,0.0,0.0,-2.1767035842239184,-2.1452858396982277,-3.303478630727957,-0.013911515533209686,0.017496882773557883,-0.24972803118123774
8972,2.0,299.36638,24849.604,0.0,0.0,-0.08972000391752044,0.0,0.0,0.0,-2.159376095588828,-2.123421929040428,-3.270861096758857,0.011378969862266889,0.004801458256667035,-0.26425274844971575
8973,2.0,299.59367000000003,24715.255,0.0,0.0,-0.08973000833789457,0.0,0.0,0.0,-2.109259225767678,-2.124142856486578,-3.279418500478407,-0.0011631800080219288,0.0014319174419442488,-0.26709820804304074
8974,2.0,299.64006,24793.967999999997,0.0,0.0,-0.0897400127582687,0.0,0.0,0.0,-2.1304284521569183,-2.1194450237229376,-3.2868737920641866,0.01134219293663729,-0.011548302192478689,-0.27589147612086873
8975,2.0,299.94907,24812.547000000002,0.0,0.0,-0.08974998426936542,0.0,0.0,0.0,-2.116155608598298,-2.1394751543497583,-3.286764057078357,-0.002183325173627418,-0.01208433176038069,-0.27748159990030175
8976,2.0,299.80123,24720.666,0.0,0.0,-0.08975998868973945,0.0,0.0,0.0,-2.1349619357543377,-2.119753355728368,-3.2597497961622572,0.01878110837430108,-0.008964598334586972,-0.28137156835921173
8977,2.0,299.28189,24785.212000000003,0.0,0.0,-0.08976999311011358,0.0,0.0,0.0,-2.146105761679148,-2.119979513150688,-3.268000286426517,0.0016428367986603683,-0.0036910565211789163,-0.26965433407031075
8978,2.0,299.69572999999997,25008.227000000003,0.0,0.0,-0.08977999753048771,0.0,0.0,0.0,-2.173572742739928,-2.145641186508298,-3.282662420673557,0.0005478566992967465,-0.005016559499195875,-0.26252879459707473
8979,2.0,300.43388,25110.946,0.0,0.0,-0.08979000195086206,0.0,0.0,0.0,-2.165445666337848,-2.143117180509198,-3.324537919481347,-0.005849558485906474,0.015679284346674885,-0.24722007506372173
8980,2.0,300.2477,25090.171000000002,0.0,0.0,-0.0898000063712362,0.0,0.0,0.0,-2.185072320774848,-2.133895692674108,-3.3078175703061765,-0.0032366037188279167,0.01052630673086559,-0.2351032149353808
8981,2.0,299.98997,25062.468999999997,0.0,0.0,-0.08981001079161033,0.0,0.0,0.0,-2.1724564451047583,-2.133413284301498,-3.3124949354177966,-0.00940739268128737,0.01923558245490418,-0.23751701985360474
8982,2.0,300.06032000000005,25008.297000000002,0.0,0.0,-0.08982001521198435,0.0,0.0,0.0,-2.199688352142338,-2.110102148525868,-3.292107228830687,-0.014349397643425289,0.004421882610205837,-0.24352368803641677
8983,2.0,300.04073999999997,24967.196,0.0,0.0,-0.08982998672308118,0.0,0.0,0.0,-2.173406063098478,-2.131424274355198,-3.284573916987207,-0.012261081081324489,0.02149645652228508,-0.25878542316263276
8984,2.0,300.21046,24931.932999999997,0.0,0.0,-0.0898399911434552,0.0,0.0,0.0,-2.152413851501708,-2.115563161264828,-3.310708170191457,-0.014668055680624386,0.001093968237416259,-0.25337064502573575
8985,2.0,299.66109,24779.935,0.0,0.0,-0.08984999556382933,0.0,0.0,0.0,-2.136618093042788,-2.113959692981578,-3.2819038003236867,0.00021645784255772582,-0.004560563922242616,-0.25639725347193876
8986,2.0,299.09316,24754.093999999997,0.0,0.0,-0.08985999998420346,0.0,0.0,0.0,-2.122178975142758,-2.119576543585918,-3.282870744894117,0.007784910557260853,-0.01995958612835778,-0.27147791067278376
8987,2.0,299.25211,24993.677000000003,0.0,0.0,-0.0898700044045776,0.0,0.0,0.0,-2.1567170233513977,-2.133026628063338,-3.3077101657955765,0.01932868899334308,-0.015000302414914585,-0.25227664902526675
8988,2.0,299.50555,25085.421000000002,0.0,0.0,-0.08988000882495195,0.0,0.0,0.0,-2.1821802010144182,-2.1514763925091875,-3.291685007514017,0.014120261265811286,-0.017322605782858085,-0.2640627336584628
8989,2.0,300.30805,25057.924,0.0,0.0,-0.0898900132453262,0.0,0.0,0.0,-2.148569377972288,-2.152591879544278,-3.315822043446157,-0.0037227468299815066,-0.007234156641555674,-0.2513862149698878
8990,2.0,299.78674,24899.676,0.0,0.0,-0.08989998475642269,0.0,0.0,0.0,-2.123550307828098,-2.130994251012758,-3.314335098924407,0.010152632252986791,-0.001042937922629959,-0.25959585099011573
8991,2.0,300.18096,24944.534,0.0,0.0,-0.08990998917679682,0.0,0.0,0.0,-2.150766306839108,-2.134923026950498,-3.296826137196407,-0.013982152237430986,0.007438056606879033,-0.2491140624156438
8992,2.0,299.84512,24939.307,0.0,0.0,-0.08991999359717096,0.0,0.0,0.0,-2.140150992166458,-2.124517961673598,-3.316257842314167,-0.008511466810366372,0.002299709207938628,-0.25634834388961175
8993,2.0,300.48400000000004,24870.353,0.0,0.0,-0.08992999801754509,0.0,0.0,0.0,-2.160157210090918,-2.127920252859378,-3.2718889376602966,-0.005031536348923975,-0.006531526465711473,-0.26783751584600474
8994,2.0,300.00903,24875.167999999998,0.0,0.0,-0.08994000243791922,0.0,0.0,0.0,-2.1720214568368275,-2.115549178413448,-3.273859303804757,-0.003917250521827527,0.00019660431129083481,-0.26188997080652776
8995,2.0,299.86592,24940.732999999997,0.0,0.0,-0.08995000685829346,0.0,0.0,0.0,-2.1584227285697377,-2.121807416331088,-3.301129916996157,0.0034218278636081166,0.009677720715216671,-0.2720982325165048
8996,2.0,299.72249,25056.627999999997,0.0,0.0,-0.0899600112786676,0.0,0.0,0.0,-2.171281074988758,-2.1452349745432078,-3.300073097141857,0.004847160091827456,0.0032957397304391864,-0.2611126965223167
8997,2.0,300.22087999999997,25127.24,0.0,0.0,-0.08997001569904173,0.0,0.0,0.0,-2.1745392820103184,-2.120479754725058,-3.3430345974068265,0.004569859681310035,-0.0018805080858416985,-0.2466715318570848
8998,2.0,299.41804,24983.621,0.0,0.0,-0.08997998721013845,0.0,0.0,0.0,-2.164555323474978,-2.1391907350466877,-3.290650884461957,0.01755658650920018,-0.017044119059123584,-0.25523330268456573
8999,2.0,300.13858,24925.929,0.0,0.0,-0.08998999163051258,0.0,0.0,0.0,-2.179206818595968,-2.105627636084268,-3.2920255608726268,0.025044310204180978,-0.012977610008790387,-0.24849154181920577
9000,2.0,300.38642999999996,25035.033,0.0,0.0,-0.0899999960508866,0.0,0.0,0.0,-2.199717837720248,-2.113647510625768,-3.296659660204977,-0.002042848686388468,-0.0051760165926080645,-0.2504546429604487
9001,2.0,300.23363,25004.208,0.0,0.0,-0.09001000047126095,0.0,0.0,0.0,-2.139237445876298,-2.147508809092618,-3.3139085206323067,-0.004787991554887975,0.005645053103648365,-0.2702910908306537
9002,2.0,300.8129,24860.152000000002,0.0,0.0,-0.09002000489163509,0.0,0.0,0.0,-2.150396065252568,-2.1126864429059182,-3.293782941846067,-0.009217942979615142,0.03174855244483817,-0.26226709236124673
9003,2.0,299.88515,24839.91,0.0,0.0,-0.09003000931200922,0.0,0.0,0.0,-2.124353004557318,-2.131194874532558,-3.2951646096824265,-0.004986897717093485,0.017218119432546083,-0.27482129149774975
9004,2.0,299.66987,24899.607000000004,0.0,0.0,-0.09004001373238335,0.0,0.0,0.0,-2.1452015372899083,-2.133225022432918,-3.290432123765367,-0.012522993059923188,0.013281592131541089,-0.27726446040387176
9005,2.0,300.23216,24986.734,0.0,0.0,-0.09004998524348007,0.0,0.0,0.0,-2.154974841129458,-2.1444046160862578,-3.295963760036297,-0.015042911608119786,-0.00999872858072268,-0.27289744366538077
9006,2.0,300.46299999999997,24988.668999999998,0.0,0.0,-0.0900599896638542,0.0,0.0,0.0,-2.1563246929126776,-2.145482511542638,-3.2941242044797465,-0.009100166435691502,0.006371106480729254,-0.28034841880573474
9007,2.0,299.88543,24989.862999999998,0.0,0.0,-0.09006999408422822,0.0,0.0,0.0,-2.137817274536138,-2.1368794102435777,-3.3215977716661764,-0.0037181335022762065,-0.0044775674919765055,-0.2623828865826747
9008,2.0,299.96443,24924.83,0.0,0.0,-0.09007999850460235,0.0,0.0,0.0,-2.152952191279838,-2.1113281811468676,-3.3122455745681867,0.0016952251725556983,0.013735242439812886,-0.26148255307381874
9009,2.0,300.02055,25052.369,0.0,0.0,-0.09009000292497649,0.0,0.0,0.0,-2.1468218255248184,-2.1513375772454877,-3.317135316900767,-0.006884674624389483,0.009865593090458232,-0.2583733951419687
9010,2.0,299.98648,25169.487,0.0,0.0,-0.09010000734535084,0.0,0.0,0.0,-2.177377192890398,-2.1404823249491582,-3.333035946745037,0.003452172778927927,0.02837314582396147,-0.25656032594303274
9011,2.0,299.65905,25075.786,0.0,0.0,-0.09011001176572497,0.0,0.0,0.0,-2.1962937616573184,-2.125566675527098,-3.300552364439157,0.013436857510614589,0.0027391202112301174,-0.24427399973546676
9012,2.0,299.4044,24997.398999999998,0.0,0.0,-0.0901200161860991,0.0,0.0,0.0,-2.171770373462048,-2.121355304136468,-3.305459433348447,0.0071867440349264134,0.00026660184721655374,-0.2516583536817457
9013,2.0,299.24771,24988.617000000002,0.0,0.0,-0.0901299876971956,0.0,0.0,0.0,-2.154332440566058,-2.1251481019107876,-3.316434958431647,0.001007325576002794,-0.014179594151916986,-0.24479176040406575
9014,2.0,299.58141,25067.789,0.0,0.0,-0.09013999211756996,0.0,0.0,0.0,-2.168959719009658,-2.142758388648788,-3.3082637043252068,0.0007653473375489013,0.015804498754282584,-0.24962710133877677
9015,2.0,300.48008,25074.94,0.0,0.0,-0.09014999653794398,0.0,0.0,0.0,-2.151677117353998,-2.134233611582458,-3.3362447071617165,-0.008669420848580222,-0.0032595765303951563,-0.2507522649123218
9016,2.0,300.83941,24933.975,0.0,0.0,-0.09016000095831811,0.0,0.0,0.0,-2.1647323382674477,-2.130128124827278,-3.284445335549517,-0.007887306876591582,0.013073000412954686,-0.25223919930157074
9017,2.0,300.51428,24837.942000000003,0.0,0.0,-0.09017000537869224,0.0,0.0,0.0,-2.1389337748213277,-2.131839301596158,-3.279341088170767,-0.02225231171263218,-0.009300204702233741,-0.2771656685191218
9018,2.0,300.20209,25025.165,0.0,0.0,-0.09018000979906637,0.0,0.0,0.0,-2.159591411235078,-2.144200952816158,-3.3032328162536966,-0.0013746919133965287,0.024935118320404577,-0.27372903828745276
9019,2.0,300.12047,25234.1,0.0,0.0,-0.09019001421944073,0.0,0.0,0.0,-2.165965058339108,-2.170257185762708,-3.3343140604211765,-0.007069765425456524,-0.014127082465484487,-0.2850660403438277
9020,2.0,299.9374,25158.074,0.0,0.0,-0.09019998573053722,0.0,0.0,0.0,-2.1630106236975277,-2.153233570832608,-3.331182104362077,0.008786294991964802,-0.008356316029879182,-0.2702039614545547
9021,2.0,299.98041,24968.517999999996,0.0,0.0,-0.09020999015091147,0.0,0.0,0.0,-2.1214106275919278,-2.163510459971858,-3.3048848192167366,0.016861105826061585,-0.01928650637842998,-0.29114768903403976
9022,2.0,300.14651000000003,24960.519,0.0,0.0,-0.0902199945712856,0.0,0.0,0.0,-2.164493211243848,-2.128950930861098,-3.293930167085597,0.007842603903379743,0.014220332885437587,-0.2597040762332967
9023,2.0,299.82805,24996.822,0.0,0.0,-0.09022999899165973,0.0,0.0,0.0,-2.162702696992138,-2.1328999718008377,-3.302806845911657,0.008870305584256001,-0.006771318688002124,-0.2532187284382428
9024,2.0,299.98244,25003.041,0.0,0.0,-0.09024000341203386,0.0,0.0,0.0,-2.153904747698848,-2.138140096017998,-3.3082554969993967,-0.013069210857580687,-0.0027386690109605875,-0.2539641360068087
9025,2.0,300.42402000000004,25017.876,0.0,0.0,-0.090250007832408,0.0,0.0,0.0,-2.1555682003880183,-2.125267260122548,-3.3239741471257074,-0.003417486897529697,-0.014910992524600384,-0.24702278513675074
9026,2.0,300.1575,25096.249,0.0,0.0,-0.09026001225278224,0.0,0.0,0.0,-2.1566671714464776,-2.1486884348590376,-3.3232774363569466,-0.0037132498394442264,-0.003991953601350147,-0.2537812950262638
9027,2.0,300.73461000000003,25256.708,0.0,0.0,-0.09026998376387885,0.0,0.0,0.0,-2.180481993846818,-2.156847124664238,-3.3400793521651666,-0.0003030345211246787,-0.007570768254626653,-0.24590974003440177
9028,2.0,300.73217,25386.069,0.0,0.0,-0.09027998818425309,0.0,0.0,0.0,-2.253753047003108,-2.139570298534148,-3.3234079429698267,-0.00967087813596636,-0.011027220090051889,-0.24838216147091077
9029,2.0,300.28227999999996,25306.76,0.0,0.0,-0.09028999260462722,0.0,0.0,0.0,-2.215872793339618,-2.1466981076876084,-3.3300523305005765,0.01009568536821657,-0.005749100919317084,-0.25040051514010675
9030,2.0,299.96594,25132.05,0.0,0.0,-0.09029999702500136,0.0,0.0,0.0,-2.192233668506618,-2.137248233279978,-3.3100335482748764,0.0005069114755382675,0.014881340773673986,-0.26209218512898474
9031,2.0,299.92896,24988.639,0.0,0.0,-0.09031000144537538,0.0,0.0,0.0,-2.150977062859908,-2.1276468779823983,-3.317298348841857,0.013473416587472689,-0.02088599664178738,-0.26279350618569974
9032,2.0,299.46272,24975.596,0.0,0.0,-0.09032000586574973,0.0,0.0,0.0,-2.146784740571158,-2.133919605376468,-3.311253197420247,-0.0043014488178949465,-0.012490044193171387,-0.26577156981961175
9033,2.0,299.78057,24959.63,0.0,0.0,-0.09033001028612386,0.0,0.0,0.0,-2.142992145446858,-2.118549411959548,-3.325562821957497,0.002210865817970468,-0.0034309991955632567,-0.27302914591337873
9034,2.0,299.58013,24939.991,0.0,0.0,-0.090340014706498,0.0,0.0,0.0,-2.180998447422788,-2.125600112780398,-3.274535952221537,0.002021583910514798,0.03495600475563907,-0.2556757586057328
9035,2.0,300.45595,25029.295,0.0,0.0,-0.09034998621759449,0.0,0.0,0.0,-2.136667134347628,-2.155717046827708,-3.315896314678487,-0.000931675431876706,0.007764780520174173,-0.2848251401325527
9036,2.0,300.63469,25145.957000000002,0.0,0.0,-0.09035999063796885,0.0,0.0,0.0,-2.173755634382978,-2.145585356427788,-3.324402042642937,-0.007565785597259903,-0.006615614976935364,-0.2604850691453747
9037,2.0,300.41352,25302.404,0.0,0.0,-0.09036999505834298,0.0,0.0,0.0,-2.1603284493578183,-2.172616437295548,-3.3583540269937364,0.0015015430238907587,-0.005067124124236214,-0.28154237192856874
9038,2.0,299.97766,25304.873,0.0,0.0,-0.090379999478717,0.0,0.0,0.0,-2.178558642506998,-2.159811590481808,-3.3536791950073668,-0.0004630408568860745,0.014041004842989289,-0.2599663661541827
9039,2.0,299.74594,25079.816000000003,0.0,0.0,-0.09039000389909113,0.0,0.0,0.0,-2.168388245953258,-2.145668240285968,-3.309581334755247,0.003853519218362736,-0.011797665068588889,-0.2631344952418528
9040,2.0,299.25192000000004,25032.591,0.0,0.0,-0.09040000831946526,0.0,0.0,0.0,-2.193589397140418,-2.126208873440478,-3.2894843296218266,-0.02926221705795597,0.005523835157085084,-0.2484171996593688
9041,2.0,299.82139,25173.703999999998,0.0,0.0,-0.09041001273983962,0.0,0.0,0.0,-2.193515429883118,-2.121018905103268,-3.337642992299717,0.007136782091045553,0.017378699308394082,-0.25306500826557177
9042,2.0,299.20901000000003,25107.142000000003,0.0,0.0,-0.09041998425093611,0.0,0.0,0.0,-2.182762211871858,-2.135919153123808,-3.3132627763435765,0.006897805636410414,0.03549345895318167,-0.26340826528637173
9043,2.0,299.65942,25120.955,0.0,0.0,-0.09042998867131025,0.0,0.0,0.0,-2.164000974345268,-2.1293600812514777,-3.3427819941568973,0.00911787936466463,0.003697515787916397,-0.2523717526796527
9044,2.0,300.02617000000004,25224.241,0.0,0.0,-0.09043999309168438,0.0,0.0,0.0,-2.174016242308698,-2.1570935470885577,-3.3364295239799566,0.009438846700166642,-0.020209258045748482,-0.25770427517343175
9045,2.0,299.74182,25314.407000000003,0.0,0.0,-0.09044999751205862,0.0,0.0,0.0,-2.2299101575749978,-2.1557257607785685,-3.3093116075786266,0.013243284185010385,0.016204024281962683,-0.23880618808833576
9046,2.0,299.94796,25408.534,0.0,0.0,-0.09046000193243275,0.0,0.0,0.0,-2.2213009767753378,-2.162755487322348,-3.3395034208083265,0.002853161408660107,0.025918720722478576,-0.25360759356162077
9047,2.0,300.72647,25302.772,0.0,0.0,-0.09047000635280689,0.0,0.0,0.0,-2.188752546463058,-2.1703925559760684,-3.332265876669037,-0.01899008918092588,0.005953249941515025,-0.2519255882631197
9048,2.0,300.29393,25141.296000000002,0.0,0.0,-0.09048001077318102,0.0,0.0,0.0,-2.157010561905368,-2.1541551217985577,-3.331160420809937,-0.026428579053547674,-0.009748691589320952,-0.27027635817419976
9049,2.0,300.17101,25160.246,0.0,0.0,-0.09049001519355515,0.0,0.0,0.0,-2.145543407873648,-2.162330023605358,-3.340213101178367,-0.0020432336201014582,-0.005189767511040175,-0.2736163547438318
9050,2.0,299.30852000000004,25098.374,0.0,0.0,-0.09049998670465187,0.0,0.0,0.0,-2.1641769758876377,-2.1524812326333578,-3.312620679755207,0.01165370553413119,0.004891213470400186,-0.2846453186373057
9051,2.0,299.65145,25096.958,0.0,0.0,-0.090509991125026,0.0,0.0,0.0,-2.1790840126838478,-2.141456463595298,-3.3083080846795867,0.008984578309333842,-0.005231684147802025,-0.2780770464540678
9052,2.0,299.57751,25168.534,0.0,0.0,-0.09051999554540024,0.0,0.0,0.0,-2.171775439712548,-2.1603985662647376,-3.3184319730537366,0.006056506510180654,-0.001969763767275548,-0.2688700784929107
9053,2.0,299.16208,25161.385,0.0,0.0,-0.09052999996577438,0.0,0.0,0.0,-2.1595902966599683,-2.159525043353528,-3.3293173188780365,0.0029398204340626874,0.025794854950753975,-0.27023090377471376
9054,2.0,299.69382,25239.257999999998,0.0,0.0,-0.09054000438614851,0.0,0.0,0.0,-2.185625757979468,-2.1581992055976778,-3.328279345475597,-0.0025348350082187374,0.024525199886448773,-0.25727546773111176
9055,2.0,300.30024,25268.14,0.0,0.0,-0.09055000880652264,0.0,0.0,0.0,-2.1495420980682876,-2.174276140959348,-3.357065375516557,-0.01323105526955349,0.0025120617055961877,-0.27550886275060776
9056,2.0,299.86749,25198.896,0.0,0.0,-0.09056001322689688,0.0,0.0,0.0,-2.186921907507388,-2.143708310617538,-3.3292049494419467,-0.023177362444427578,-0.024097907253028274,-0.2400372970923368
9057,2.0,299.98913999999996,25239.541,0.0,0.0,-0.09056998473799338,0.0,0.0,0.0,-2.195471205226138,-2.143254982522798,-3.333464146237297,0.011205385934635489,-0.007399045768753963,-0.24945801016208877
9058,2.0,299.95977,25347.747000000003,0.0,0.0,-0.09057998915836762,0.0,0.0,0.0,-2.2316093779926978,-2.139931116894758,-3.333541659869947,0.0024410193973598573,-0.002250282361435578,-0.2313514335251088
9059,2.0,299.56973999999997,25266.93,0.0,0.0,-0.09058999357874187,0.0,0.0,0.0,-2.1929693894042277,-2.140900290615408,-3.3466462260632674,0.008638649253643303,-0.00861613534304635,-0.24525735895751674
9060,2.0,299.72372,25240.996,0.0,0.0,-0.090599997999116,0.0,0.0,0.0,-2.1921040738188275,-2.152105418171268,-3.3284229230147666,-0.0075038777386750724,-0.020599500176012378,-0.26115690462417973
9061,2.0,299.3343,25274.506,0.0,0.0,-0.09061000241949013,0.0,0.0,0.0,-2.157414848695268,-2.1536265092213878,-3.371777260343507,0.017724847834056284,0.0025256136217086575,-0.2780612093550047
9062,2.0,299.43616000000003,25269.947,0.0,0.0,-0.09062000683986415,0.0,0.0,0.0,-2.206325849572408,-2.153380086797068,-3.3217269610539266,0.015338398642032085,-0.0004369177089029205,-0.2769727153025787
9063,2.0,300.10241,25238.417999999998,0.0,0.0,-0.09063001126023851,0.0,0.0,0.0,-2.1857392419906683,-2.152717725206698,-3.333391800180157,0.016068228503560683,-0.01117281298367079,-0.27044987725382474
9064,2.0,299.63164,25166.671000000002,0.0,0.0,-0.09064001568061264,0.0,0.0,0.0,-2.172208300155268,-2.149652542329188,-3.3281787297406673,-0.013190215211022887,-0.016419511167479587,-0.25596170791645373
9065,2.0,299.5132,25156.533,0.0,0.0,-0.09064998719170914,0.0,0.0,0.0,-2.146912308758748,-2.160865573235828,-3.339180092701417,-0.0036383166508238965,0.010704666106218291,-0.25126956961837577
9066,2.0,300.37744,25253.005,0.0,0.0,-0.09065999161208327,0.0,0.0,0.0,-2.147117694554018,-2.1616885349670483,-3.3674767229440765,-0.004577014949541206,0.01011359436108405,-0.25806939984696675
9067,2.0,300.55217999999996,25286.407000000003,0.0,0.0,-0.09066999603245762,0.0,0.0,0.0,-2.1503865407016276,-2.187332983072958,-3.348716802642617,-0.005927434456792234,-0.004723104335709105,-0.2724812613193067
9068,2.0,299.98537999999996,25221.027000000002,0.0,0.0,-0.09068000045283175,0.0,0.0,0.0,-2.190574066167828,-2.1516515834514776,-3.3243366880114866,-0.013115540705153089,-0.022453462122484183,-0.27428096574942373
9069,2.0,299.96972999999997,25173.77,0.0,0.0,-0.09069000487320578,0.0,0.0,0.0,-2.1891328192255877,-2.147696159036108,-3.315368614026407,0.01014587995432039,0.002389086783359508,-0.2738231286917387
9070,2.0,299.78109,25160.849,0.0,0.0,-0.09070000929357991,0.0,0.0,0.0,-2.2104378211282274,-2.148748723239988,-3.289083285232247,0.0004141904888949186,-0.0029797944677328173,-0.2803659176349617
9071,2.0,300.74046,25315.881,0.0,0.0,-0.09071001371395404,0.0,0.0,0.0,-2.205605935376358,-2.1471493079571378,-3.3426404431179266,-0.013333331721397385,-0.012072804013992989,-0.26790330617499775
9072,2.0,300.82617,25303.231,0.0,0.0,-0.09071998522505076,0.0,0.0,0.0,-2.190631416123488,-2.1635544350261977,-3.337364551172237,0.002231707359277368,-0.014071556360004487,-0.2820600920671637
9073,2.0,300.08725,25266.433999999997,0.0,0.0,-0.09072998964542489,0.0,0.0,0.0,-2.185764066618118,-2.149632479977208,-3.3449684865476867,0.008307576774893993,0.028722386788928873,-0.27411242172778977
9074,2.0,300.16337000000004,25365.507999999998,0.0,0.0,-0.09073999406579902,0.0,0.0,0.0,-2.2245381081948183,-2.1352136270791777,-3.3507293199912365,0.015326867855894086,0.011871186495844888,-0.25614278584182476
9075,2.0,300.07735,25349.252999999997,0.0,0.0,-0.09074999848617316,0.0,0.0,0.0,-2.196507050803368,-2.154079026716048,-3.3549539649581765,0.0015884105761639186,-0.0037908863793313565,-0.25536536970259976
9076,2.0,299.42575,25284.616,0.0,0.0,-0.0907600029065474,0.0,0.0,0.0,-2.1968391941861483,-2.137497188829548,-3.351555625447787,0.0036721481597378064,-0.009035222677157052,-0.22952788732013876
9077,2.0,299.5502,25201.078999999998,0.0,0.0,-0.09077000732692153,0.0,0.0,0.0,-2.1493400559983478,-2.1474987779166277,-3.3636598098173764,0.0032916346489840465,0.019315430615784585,-0.2356214315665248
9078,2.0,299.59022999999996,25199.585,0.0,0.0,-0.09078001174729566,0.0,0.0,0.0,-2.148721264162278,-2.163960241691248,-3.3473632018340265,-0.0005686061260370554,0.009852953302085781,-0.25320118907901173
9079,2.0,299.83357,25342.109,0.0,0.0,-0.0907900161676698,0.0,0.0,0.0,-2.192721244454738,-2.162371566859458,-3.3482757348740866,-0.016370730267915284,-0.005775456263693154,-0.27183887088840775
9080,2.0,300.30961,25528.384,0.0,0.0,-0.09079998767876651,0.0,0.0,0.0,-2.245102930899408,-2.1821590240873276,-3.332729235939767,-0.001917196048112518,-0.012577447146797387,-0.27179246403382773
9081,2.0,300.53471,25381.986,0.0,0.0,-0.09080999209914065,0.0,0.0,0.0,-2.210974742356218,-2.175411082396358,-3.329104232382007,0.0060287750708437745,0.02118617097066228,-0.27700915177617474
9082,2.0,300.06576,25190.928,0.0,0.0,-0.09081999651951478,0.0,0.0,0.0,-2.1817473405716976,-2.149584553247478,-3.3260810993836465,0.016858904033594285,-0.013416362500841886,-0.25733803592478677
9083,2.0,300.14872,25305.646,0.0,0.0,-0.09083000093988902,0.0,0.0,0.0,-2.1556998215760084,-2.175690131473898,-3.360894447644457,-0.005657830187409365,-0.017238735019080683,-0.26616194468563875
9084,2.0,300.27633,25385.121,0.0,0.0,-0.09084000536026315,0.0,0.0,0.0,-2.177740443051248,-2.159327662234048,-3.379374710918317,0.008453182840764191,-0.005340280240519624,-0.2678645797561757
9085,2.0,299.92381,25235.442000000003,0.0,0.0,-0.09085000978063729,0.0,0.0,0.0,-2.1663303350001577,-2.160651068189658,-3.3439629371484467,0.0036701698902425668,0.03515685524346147,-0.27101829029492275
9086,2.0,299.78817000000004,25172.197999999997,0.0,0.0,-0.09086001420101142,0.0,0.0,0.0,-2.1774839894509377,-2.149520110541118,-3.3247156435488865,-0.0047119029571786155,0.014634236432036684,-0.2873068328074767
9087,2.0,299.61824,25226.597999999998,0.0,0.0,-0.09086998571210791,0.0,0.0,0.0,-2.1703997500517778,-2.148160531556938,-3.3496957035642265,-0.018696562785957084,0.001851257277979868,-0.2566161965535467
9088,2.0,299.31536,25329.619,0.0,0.0,-0.09087999013248216,0.0,0.0,0.0,-2.1903360537193377,-2.165283748971868,-3.343951892722357,-0.004520007776390036,-0.0012563253539396588,-0.2532903652203128
9089,2.0,299.95833,25486.455,0.0,0.0,-0.0908899945528564,0.0,0.0,0.0,-2.171556071065898,-2.1782240673239777,-3.3974659874787867,0.0008840259679040701,0.01155689354007659,-0.23035174071144676
9090,2.0,300.42278,25420.236,0.0,0.0,-0.09089999897323064,0.0,0.0,0.0,-2.196372795165118,-2.1725106539851082,-3.358233450231837,0.009268963972500521,-0.01019978992589089,-0.25276147906561575
9091,2.0,300.23708999999997,25272.231,0.0,0.0,-0.09091000339360478,0.0,0.0,0.0,-2.191739101132808,-2.155335558165058,-3.3350527197440765,-0.00960856578794161,-0.00941855707618921,-0.27784775808893875
9092,2.0,300.55314,25463.827,0.0,0.0,-0.09092000781397891,0.0,0.0,0.0,-2.242345573402278,-2.157366516665498,-3.3406555874970367,0.006770299662376553,0.015922979101725684,-0.27083437526927173
9093,2.0,300.32141,25481.584,0.0,0.0,-0.09093001223435293,0.0,0.0,0.0,-2.230896657872358,-2.153246844408918,-3.3616217585662365,0.003258823178945807,0.03189940714622637,-0.26991812360134476
9094,2.0,300.53258999999997,25271.209,0.0,0.0,-0.09093998374544954,0.0,0.0,0.0,-2.189272850389408,-2.141341662358968,-3.3512020011628865,0.004536243386717365,-0.004465747422934955,-0.25244016732640473
9095,2.0,299.58426000000003,25043.418999999998,0.0,0.0,-0.09094998816582378,0.0,0.0,0.0,-2.128774118718648,-2.1383262300613683,-3.345473591722537,-0.007149860718036313,-0.013702925841123486,-0.2735049884253407
9096,2.0,299.28488,25231.033,0.0,0.0,-0.09095999258619791,0.0,0.0,0.0,-2.1694103113291274,-2.164840249403098,-3.335353452373757,0.007213251873442534,-0.006032407876427305,-0.25782514577786075
9097,2.0,299.91634,25495.201,0.0,0.0,-0.09096999700657205,0.0,0.0,0.0,-2.199232693572368,-2.1828868416341582,-3.3677850549495068,0.0015870385342035087,0.025473562463294873,-0.27743404807310873
9098,2.0,299.92959,25448.998,0.0,0.0,-0.0909800014269464,0.0,0.0,0.0,-2.190977137057608,-2.204718328288758,-3.3401644651735674,-0.004641673072872465,-5.638845426910715e-05,-0.28823215306379874
9099,2.0,299.32085,25321.36,0.0,0.0,-0.09099000584732053,0.0,0.0,0.0,-2.167835315373688,-2.188376833325978,-3.340849118266137,-0.016235406664059884,-0.01129841343956659,-0.27438071008926773
9100,2.0,300.63031,25306.077,0.0,0.0,-0.09100001026769455,0.0,0.0,0.0,-2.187394690004048,-2.163204255791638,-3.3418167721116365,-0.007885567126169883,-0.01019939475835189,-0.26128265909409076
9101,2.0,300.34446,25415.709,0.0,0.0,-0.09101001468806869,0.0,0.0,0.0,-2.178571510783268,-2.1804349790421775,-3.366734415920817,-0.007722528902929263,0.01115702148086229,-0.26757984634557475
9102,2.0,300.50138,25470.488999999998,0.0,0.0,-0.0910199861991654,0.0,0.0,0.0,-2.205846278300078,-2.1644762899671774,-3.372070089622407,-0.0038326995632579964,-0.030010037175010072,-0.2707875327171487
9103,2.0,300.77674,25310.835,0.0,0.0,-0.09102999061953954,0.0,0.0,0.0,-2.185865492953128,-2.1608636480606376,-3.3471326874362766,0.0031475005315341168,-0.025251508703879873,-0.2771233045324407
9104,2.0,299.83902,25114.47,0.0,0.0,-0.09103999503991367,0.0,0.0,0.0,-2.174759359932038,-2.138018100705958,-3.3213942097210865,0.01950038726253838,0.016725157046894482,-0.28409618774561074
9105,2.0,299.85888,25412.917,0.0,0.0,-0.0910499994602878,0.0,0.0,0.0,-2.215648662417498,-2.149341474548488,-3.359902070496517,0.029714498465342673,0.028790155995367175,-0.2637971304097497
9106,2.0,300.34895,25599.289,0.0,0.0,-0.09106000388066193,0.0,0.0,0.0,-2.2268016075932078,-2.177291471931938,-3.3774516635535266,0.0088471811904738,-0.028027109769060372,-0.2622192973540297
9107,2.0,299.37029,25432.31,0.0,0.0,-0.09107000830103618,0.0,0.0,0.0,-2.1907650638116776,-2.178596335410718,-3.361425795996897,-0.004049672076071516,-0.04008337044867066,-0.2581546243128778
9108,2.0,299.70057,25390.087000000003,0.0,0.0,-0.09108001272141031,0.0,0.0,0.0,-2.187945594083418,-2.178564215382548,-3.3514426480616364,0.0024905362204717878,-0.014662833389608988,-0.25671438048823675
9109,2.0,299.85846000000004,25460.134,0.0,0.0,-0.09108998423250703,0.0,0.0,0.0,-2.216421873568808,-2.179819530931438,-3.343003591953767,-0.0033184358234041164,0.01176964566357359,-0.26002785017025076
9110,2.0,300.23148,25438.764,0.0,0.0,-0.09109998865288094,0.0,0.0,0.0,-2.2166560356669183,-2.1586880987709276,-3.357404814300057,-0.01888213042252118,-0.008543550260207762,-0.25992910894800575
9111,2.0,299.77957999999995,25409.8,0.0,0.0,-0.09110999307325529,0.0,0.0,0.0,-2.2026236363570275,-2.168481667612478,-3.3528393119994764,-0.01924183927427168,-0.011363593791999388,-0.26511566263237873
9112,2.0,300.20043,25421.462000000003,0.0,0.0,-0.09111999749362942,0.0,0.0,0.0,-2.201627408858708,-2.1595513878561277,-3.366310877379017,-0.004355872507266146,0.016175413138888987,-0.24815544676103576
9113,2.0,299.54988,25334.06,0.0,0.0,-0.09113000191400356,0.0,0.0,0.0,-2.169321043995318,-2.157039135558188,-3.374561468968287,0.0048589448997655256,0.01016906109010819,-0.2646848388223597
9114,2.0,300.50169,25480.932,0.0,0.0,-0.0911400063343778,0.0,0.0,0.0,-2.195006123430238,-2.1846627650844277,-3.365898079288277,0.006620909715332914,-0.017149140405488383,-0.26368959417663673
9115,2.0,300.13579,25599.693,0.0,0.0,-0.09115001075475193,0.0,0.0,0.0,-2.1902411121849683,-2.190268165962638,-3.4011581695181765,-0.002460491429831598,-0.02755239196470937,-0.2749715970175838
9116,2.0,300.83095,25529.77,0.0,0.0,-0.09116001517512606,0.0,0.0,0.0,-2.2117035731531476,-2.191346264069038,-3.3573627644209068,0.013021696520641387,0.017592125243207586,-0.26666961338324174
9117,2.0,299.85163,25414.357999999997,0.0,0.0,-0.09116998668622278,0.0,0.0,0.0,-2.190892429349248,-2.162330327580388,-3.3721073772260866,-0.0036546788160887163,0.018924824728734784,-0.26912736295830275
9118,2.0,300.13562,25470.205,0.0,0.0,-0.09117999110659669,0.0,0.0,0.0,-2.203182747762208,-2.154357062543488,-3.3847665186754465,-0.006823484349525473,-0.0036814337863042266,-0.25478163631998973
9119,2.0,299.3795,25551.471,0.0,0.0,-0.09118999552697094,0.0,0.0,0.0,-2.213795022684558,-2.1744152601980775,-3.378798779561477,-0.015675564705557785,-0.025357976971387475,-0.25406575485933774
9120,2.0,299.94608999999997,25669.761000000002,0.0,0.0,-0.09119999994734518,0.0,0.0,0.0,-2.2293034234151183,-2.186576997173348,-3.3870858481543467,-0.005926091495109694,0.00045869317295949154,-0.24210365855127078
9121,2.0,299.45374,25510.697999999997,0.0,0.0,-0.09121000436771942,0.0,0.0,0.0,-2.2107836433873578,-2.1873077531454683,-3.356523793338107,0.004752388175524196,0.011212939714130989,-0.26000191096769076
9122,2.0,299.89827,25453.991,0.0,0.0,-0.09122000878809355,0.0,0.0,0.0,-2.220304546626998,-2.158617373913948,-3.3584557573037763,-0.007476739557271743,0.0034687869394926167,-0.26215384139756975
9123,2.0,300.77429,25572.995,0.0,0.0,-0.09123001320846746,0.0,0.0,0.0,-2.224338801900148,-2.177947551371688,-3.371265771693027,0.008422766693962351,-0.005077553406190505,-0.26043222815265976
9124,2.0,300.54407000000003,25573.833,0.0,0.0,-0.0912399847195644,0.0,0.0,0.0,-2.2058729267777077,-2.1914835594575877,-3.3764503698047066,0.007019025812123914,0.025262080955423274,-0.27041595364047677
9125,2.0,300.12231,25463.839,0.0,0.0,-0.09124998913993831,0.0,0.0,0.0,-2.199674470615968,-2.167669648982338,-3.373027104341857,0.02036548905216728,0.01250155572755749,-0.2668571254467477
9126,2.0,300.31763,25388.7,0.0,0.0,-0.09125999356031256,0.0,0.0,0.0,-2.184262835269958,-2.177899928616988,-3.355368080274047,0.004195093730423516,0.0016093606365565284,-0.2812784000125167
9127,2.0,299.54465,25500.332000000002,0.0,0.0,-0.09126999798068669,0.0,0.0,0.0,-2.2001577909136683,-2.1746313864444082,-3.3766751086768867,0.0028178334306735073,-0.006752972579041504,-0.26281926300324177
9128,2.0,299.3374,25646.763,0.0,0.0,-0.09128000240106082,0.0,0.0,0.0,-2.2235715689244278,-2.1813698035844378,-3.391034179819017,-0.0005404234864306454,0.01224593907183009,-0.25405231916301174
9129,2.0,299.2021,25590.346,0.0,0.0,-0.09129000682143518,0.0,0.0,0.0,-2.201425772088808,-2.197586668784918,-3.3798137521866467,-0.016201847820747885,0.011923466148004488,-0.26847665374408275
9130,2.0,299.18921,25383.67,0.0,0.0,-0.09130001124180931,0.0,0.0,0.0,-2.198441446569278,-2.1666309663048278,-3.3509295382109965,-0.010909262579660389,0.02120314594958758,-0.27487178175023275
9131,2.0,300.09492,25407.452999999998,0.0,0.0,-0.09131001566218333,0.0,0.0,0.0,-2.210777158586718,-2.1769547689237077,-3.3354993603881566,-0.015816181527935586,-0.005293294009532446,-0.2757110264105597
9132,2.0,300.26315,25448.797000000002,0.0,0.0,-0.09131998717327994,0.0,0.0,0.0,-2.206576730297168,-2.1869784468629683,-3.3422435530537573,0.0007443113130178074,0.02235076922484918,-0.2786883807694017
9133,2.0,300.45153999999997,25486.037,0.0,0.0,-0.09132999159365418,0.0,0.0,0.0,-2.2051539245067477,-2.1886165682996377,-3.353348368849717,7.336894122195073e-05,0.0019190026730408181,-0.27299392533990274
9134,2.0,300.03564,25542.205,0.0,0.0,-0.09133999601402831,0.0,0.0,0.0,-2.216868615537898,-2.1850636068239875,-3.3622601061292365,0.006774542748495314,-0.0024504794042684874,-0.2613165725749378
9135,2.0,299.71554,25594.792999999998,0.0,0.0,-0.09135000043440245,0.0,0.0,0.0,-2.220168771113598,-2.176741479777658,-3.3832677191275264,0.007859843239256132,-0.01267822094874299,-0.2582469009994848
9136,2.0,300.10141,25702.589,0.0,0.0,-0.09136000485477658,0.0,0.0,0.0,-2.2350815834353774,-2.185887581805308,-3.3919759957869666,0.013566280959137686,0.01163453585548929,-0.24823226125111675
9137,2.0,299.97462,25774.45,0.0,0.0,-0.09137000927515071,0.0,0.0,0.0,-2.233791108108018,-2.1976404723652276,-3.4033575301852363,0.016587528299061585,-0.0015547466588165485,-0.2596527652482328
9138,2.0,299.82287,25731.77,0.0,0.0,-0.09138001369552495,0.0,0.0,0.0,-2.238893227661558,-2.186369280902848,-3.396553150463697,-0.0035329412748741564,0.0015658239142097886,-0.25359484687536277
9139,2.0,299.66731,25508.744,0.0,0.0,-0.09138998520662156,0.0,0.0,0.0,-2.2102901905886583,-2.173289741986998,-3.3704414927366764,0.013137430960313487,-0.018970430102485683,-0.26810754699765477
9140,2.0,299.25502,25423.025,0.0,0.0,-0.0913999896269958,0.0,0.0,0.0,-2.198412163641388,-2.164874193281448,-3.364678328817897,0.0004220792488734786,-0.0003426760871719967,-0.26666139592493077
9141,2.0,299.27115,25480.82,0.0,0.0,-0.09140999404736971,0.0,0.0,0.0,-2.181292492601808,-2.183615773756098,-3.3806246562416766,0.012703664672004088,-0.013059182721340986,-0.27423198523958975
9142,2.0,299.64398,25583.259,0.0,0.0,-0.09141999846774407,0.0,0.0,0.0,-2.208755521987198,-2.199286193177648,-3.368630206857917,-0.01187693365041209,0.0024633533547390478,-0.2819814841244057
9143,2.0,299.85835,25559.593999999997,0.0,0.0,-0.0914300028881182,0.0,0.0,0.0,-2.198736403673388,-2.190715515881788,-3.3800265347076466,0.005563786899253015,0.00024026757844256377,-0.2728590009565867
9144,2.0,300.20142000000004,25492.665,0.0,0.0,-0.09144000730849233,0.0,0.0,0.0,-2.212479317429708,-2.1782839504048876,-3.3583703403203473,0.002160759080650318,0.016279487096410285,-0.2815827195475507
9145,2.0,300.25315,25620.85,0.0,0.0,-0.09145001172886658,0.0,0.0,0.0,-2.202572163251948,-2.1885577997938377,-3.396968785654717,0.00019679587635474083,-0.006487610686502323,-0.2769100153863907
9146,2.0,300.2487,25714.515,0.0,0.0,-0.09146001614924071,0.0,0.0,0.0,-2.216692613995528,-2.1916405118980777,-3.4082372413418263,-0.006064297896824604,-0.012800398645800988,-0.25970192814308474
9147,2.0,299.85393999999997,25724.48,0.0,0.0,-0.09146998766033743,0.0,0.0,0.0,-2.222168521510958,-2.194630815593198,-3.4028002426302364,-0.003064491739616787,-0.03137889753010607,-0.2572626399848457
9148,2.0,299.85346,25630.596,0.0,0.0,-0.09147999208071134,0.0,0.0,0.0,-2.2285407500648478,-2.1744254940240877,-3.3880948426039263,-0.007516105134256822,0.008276462701423272,-0.25399379383723575
9149,2.0,299.36286,25497.711,0.0,0.0,-0.09148999650108547,0.0,0.0,0.0,-2.215397275067688,-2.173808526038198,-3.361461867700457,-0.005368239965104035,0.002826655292669157,-0.2707978273381647
9150,2.0,299.38106,25647.609,0.0,0.0,-0.09150000092145971,0.0,0.0,0.0,-2.2220065028199683,-2.188530543366148,-3.3856956690171462,0.0006704438101901522,0.006716244897366764,-0.26088728890507074
9151,2.0,299.79458999999997,25760.412,0.0,0.0,-0.09151000534183407,0.0,0.0,0.0,-2.236471661247568,-2.189577332044458,-3.4044729158953166,0.006388166066037904,-0.00942365017781686,-0.26904400287257574
9152,2.0,299.56554,25642.513,0.0,0.0,-0.0915200097622082,0.0,0.0,0.0,-2.2129011334463375,-2.187507566065188,-3.394274857613847,0.004749996297338135,-0.0039520914304910565,-0.26208058341533974
9153,2.0,299.52952999999997,25482.297000000002,0.0,0.0,-0.09153001418258233,0.0,0.0,0.0,-2.192965843028878,-2.178573739933488,-3.3744423107565265,-0.0045952295386388455,-0.016666629694618285,-0.2666842548471867
9154,2.0,300.08201,25612.56,0.0,0.0,-0.09153998569367883,0.0,0.0,0.0,-2.230232573756818,-2.1796938879190377,-3.3756524353509567,-0.012412268128745489,-0.0041564588080855456,-0.24963089089415078
9155,2.0,300.16992,25768.972999999998,0.0,0.0,-0.09154999011405318,0.0,0.0,0.0,-2.247848230720348,-2.1868465216999478,-3.3984294869988765,-0.0035778838817346467,0.002008348939033608,-0.26526384032700273
9156,2.0,300.38723,25799.224,0.0,0.0,-0.09155999453442709,0.0,0.0,0.0,-2.2483817068979977,-2.191498656884078,-3.402439525594637,-0.005671655073098775,0.025343547276713375,-0.25028404204111177
9157,2.0,300.04312000000004,25630.664,0.0,0.0,-0.09156999895480133,0.0,0.0,0.0,-2.210209333230678,-2.188962491883778,-3.391909830555437,0.022561102720357478,0.012009133404209187,-0.26903227956891873
9158,2.0,300.0427,25576.827,0.0,0.0,-0.09158000337517547,0.0,0.0,0.0,-2.189861042072458,-2.198976341297068,-3.385879269935267,0.011429995110802688,0.00932739222891694,-0.26737834129818777
9159,2.0,300.3514,25691.965,0.0,0.0,-0.0915900077955496,0.0,0.0,0.0,-2.2109314765769477,-2.204376660355038,-3.394407694701957,0.006139372028533844,-0.014163780357606286,-0.2739632105180637
9160,2.0,299.82205,25767.214,0.0,0.0,-0.09160001221592395,0.0,0.0,0.0,-2.247234606459788,-2.203077167101788,-3.3822777737798266,-0.006220430921958734,0.00938972727374393,-0.27053173772940375
9161,2.0,300.21783999999997,25611.265,0.0,0.0,-0.09160998372702045,0.0,0.0,0.0,-2.219912114863268,-2.1924631696542685,-3.3728095595453866,-0.00951130735589295,0.016448639068104284,-0.28566001768494875
9162,2.0,299.39247,25283.657000000003,0.0,0.0,-0.09161998814739458,0.0,0.0,0.0,-2.1730994536182178,-2.1627882153005777,-3.3497127261659068,-0.005976606876195175,0.02208961819707558,-0.2743963648033127
9163,2.0,299.02227,25505.732999999997,0.0,0.0,-0.09162999256776871,0.0,0.0,0.0,-2.192914977873858,-2.190639724774308,-3.3695512511988173,-0.016651075292333183,-0.0012636536852879089,-0.27159698782453573
9164,2.0,299.81431000000003,25874.009,0.0,0.0,-0.09163999698814296,0.0,0.0,0.0,-2.2335158080558477,-2.2071736359310776,-3.424363218008337,-0.0072438990412671735,0.0012911414379757388,-0.25844703815923675
9165,2.0,299.83735,25768.992000000002,0.0,0.0,-0.09165000140851709,0.0,0.0,0.0,-2.2343287386110777,-2.2072127473849377,-3.3915886302737364,0.003930740427033876,0.0003952279591034626,-0.2665598378674077
9166,2.0,299.61429,25569.902000000002,0.0,0.0,-0.09166000582889122,0.0,0.0,0.0,-2.219633167110738,-2.1695425404671775,-3.3834360199691367,0.002133875630322128,-0.005282148258432445,-0.25595328780812276
9167,2.0,300.44971,25700.186,0.0,0.0,-0.09167001024926535,0.0,0.0,0.0,-2.2189394960922777,-2.2077948595673877,-3.385480454695907,0.015196753370802785,-0.003850613419725957,-0.26717290484041273
9168,2.0,299.99226,25888.514,0.0,0.0,-0.09168001466963949,0.0,0.0,0.0,-2.249810592189018,-2.205580604123858,-3.4140707248175466,0.006746205081623603,0.016650133982990284,-0.26936895217964574
9169,2.0,299.94827999999995,25832.86,0.0,0.0,-0.0916899861807362,0.0,0.0,0.0,-2.2212063392159975,-2.2108654126704277,-3.420472540274357,0.004673944480607405,0.01050968436297509,-0.2771321096758097
9170,2.0,300.36154,25582.591,0.0,0.0,-0.09169999060111034,0.0,0.0,0.0,-2.192811626363658,-2.1895734816940777,-3.3940837586449866,0.0021941190229676877,-0.006078649976541045,-0.27735465992777375
9171,2.0,299.87485,25317.958,0.0,0.0,-0.09170999502148458,0.0,0.0,0.0,-2.1773121422339776,-2.1500396038673877,-3.368675093837347,-0.01142364203267569,-0.006751789102924703,-0.27761965522642673
9172,2.0,300.36857000000003,25572.185,0.0,0.0,-0.09171999944185849,0.0,0.0,0.0,-2.227328902945248,-2.186735570813998,-3.3592414314313173,0.006081044793152395,-0.002127866246629048,-0.28044161754993274
9173,2.0,300.08416,25912.998,0.0,0.0,-0.09173000386223285,0.0,0.0,0.0,-2.2522637720061276,-2.200151914063088,-3.424488658370717,-0.0017380077328530083,0.01910252447827238,-0.27540331248769073
9174,2.0,299.52151000000003,25772.325,0.0,0.0,-0.09174000828260698,0.0,0.0,0.0,-2.239095979006568,-2.188982959535798,-3.4060642251773667,0.019047106790553082,0.01063802160739099,-0.2571044817767367
9175,2.0,300.22712,25624.75,0.0,0.0,-0.09175001270298111,0.0,0.0,0.0,-2.1798460780840583,-2.216182645220198,-3.3932555280132464,0.0019672169631491983,0.007879716316117452,-0.27632574498122775
9176,2.0,300.13836000000003,25726.999,0.0,0.0,-0.09175998421407772,0.0,0.0,0.0,-2.218530143051878,-2.1961572768688478,-3.4056778729142367,-0.003436086521665337,0.004040124524354247,-0.25577152087268373
9177,2.0,299.59103999999996,25869.929,0.0,0.0,-0.09176998863445196,0.0,0.0,0.0,-2.249722946055368,-2.209860572546258,-3.4042288239462266,-0.005831721129821064,-0.0032377702736680466,-0.26228357794037377
9178,2.0,300.56372999999996,25910.248,0.0,0.0,-0.0917799930548262,0.0,0.0,0.0,-2.259167956862518,-2.206618172226258,-3.410282385343667,-0.00811548046396056,-0.01331656952499309,-0.24303774342095777
9179,2.0,300.13402,25644.908,0.0,0.0,-0.09178999747520011,0.0,0.0,0.0,-2.217900306789718,-2.187343622199008,-3.3901678509835165,-0.0006303081225990685,-0.008095612352024733,-0.2630659590050887
9180,2.0,300.30268,25523.284,0.0,0.0,-0.09180000189557425,0.0,0.0,0.0,-2.2099438617044775,-2.1874011748046875,-3.361095881764337,0.015087336545504185,-0.00879803359569831,-0.27397246149147675
9181,2.0,301.08853,25780.522,0.0,0.0,-0.09181000631594849,0.0,0.0,0.0,-2.2274404617812578,-2.196341891037068,-3.4128526968723363,0.013560397015806988,0.025796126579629475,-0.2801421008203727
9182,2.0,300.49327999999997,25955.291,0.0,0.0,-0.09182001073632284,0.0,0.0,0.0,-2.263969749086418,-2.207090650747888,-3.4187000618744268,-0.009166862204973862,-0.012409027754925687,-0.2670827965090197
9183,2.0,300.10975,25919.252,0.0,0.0,-0.09183001515669698,0.0,0.0,0.0,-2.261804737597748,-2.217215147072098,-3.3997854182826965,-0.005181033193853164,0.0003581172182284177,-0.2643371825805488
9184,2.0,300.41177999999996,25617.177000000003,0.0,0.0,-0.09183998666779347,0.0,0.0,0.0,-2.214666316445548,-2.183333684928258,-3.388982145716497,-0.024774378351040776,-0.004006944332604616,-0.26946345801647276
9185,2.0,299.47261000000003,25592.877999999997,0.0,0.0,-0.0918499910881676,0.0,0.0,0.0,-2.2225497061985777,-2.1892179322339875,-3.3678281180787573,0.0011892546821202989,0.01235275285762179,-0.26796507390109375
9186,2.0,299.87112,25946.32,0.0,0.0,-0.09185999550854196,0.0,0.0,0.0,-2.2438695015526773,-2.2101061843704977,-3.4330577144664165,0.0005279761243846866,-0.024504934884448777,-0.26012938796277174
9187,2.0,300.32549,25845.25,0.0,0.0,-0.09186999992891587,0.0,0.0,0.0,-2.224448232910948,-2.2153051706335978,-3.4165572405629465,-0.004766708236537476,-0.0071369539382625125,-0.2729194818550557
9188,2.0,299.86539,25587.624,0.0,0.0,-0.09188000434929011,0.0,0.0,0.0,-2.171485244883908,-2.214875147291158,-3.391638482178657,0.016424289654951185,-0.01093828814202499,-0.2785178001150667
9189,2.0,300.01534,25598.711,0.0,0.0,-0.09189000876966424,0.0,0.0,0.0,-2.212744586305888,-2.175136998244308,-3.3934873596361266,0.014953788155823987,0.011334422321620389,-0.26707179261293373
9190,2.0,300.06743,25854.277000000002,0.0,0.0,-0.09190001319003838,0.0,0.0,0.0,-2.2498740216452777,-2.2071447583032278,-3.4020357454297865,0.018121408591943784,-0.01872910331291858,-0.26040630921510177
9191,2.0,299.4888,25963.146,0.0,0.0,-0.0919099847011351,0.0,0.0,0.0,-2.2621628201830877,-2.216072808909358,-3.413912353826917,-0.0012892869876427189,-0.005254149017094135,-0.27562353226442476
9192,2.0,300.45259,25832.0,0.0,0.0,-0.09191998912150923,0.0,0.0,0.0,-2.2267324026113777,-2.204939216810558,-3.420611456863067,-0.005168268167768355,0.004941796029967295,-0.26073692259023074
9193,2.0,299.71743,25584.021,0.0,0.0,-0.09192999354188336,0.0,0.0,0.0,-2.201161719112748,-2.1906822812785083,-3.3850596519293763,-0.017433568827809286,0.005612522303887824,-0.2863602140340527
9194,2.0,299.45937000000004,25748.266,0.0,0.0,-0.09193999796225749,0.0,0.0,0.0,-2.237079611307568,-2.187233583238148,-3.402516735252257,-0.013528323597141588,-0.003436653941721337,-0.24883407101551078
9195,2.0,299.81597,26001.536,0.0,0.0,-0.09195000238263173,0.0,0.0,0.0,-2.268767285659898,-2.214683541697248,-3.420366858288926,-0.02323684123854768,0.007616158616706332,-0.27047597857640077
9196,2.0,299.62802999999997,25904.667,0.0,0.0,-0.09196000680300587,0.0,0.0,0.0,-2.2679255788018278,-2.200876286559578,-3.4055699617785864,-6.980211848493274e-05,0.0006244519423211084,-0.25520328008410276
9197,2.0,300.07678,25607.494,0.0,0.0,-0.09197001122338,0.0,0.0,0.0,-2.205617486427498,-2.183779109672218,-3.394642160775097,-0.0031342603924774167,0.012021231610403187,-0.27785547905470076
9198,2.0,300.99084,25639.838,0.0,0.0,-0.09198001564375413,0.0,0.0,0.0,-2.203235538092418,-2.1834320715129683,-3.407203016964757,0.013759059896663487,-0.025152040981313177,-0.26642621044421977
9199,2.0,300.26333999999997,25911.045,0.0,0.0,-0.09198998715485085,0.0,0.0,0.0,-2.2200358327004777,-2.219516339374208,-3.4367585091316566,-0.0046764310976778155,-0.008153555768268303,-0.27967795121456474
9200,2.0,299.89811000000003,25945.15,0.0,0.0,-0.09199999157522498,0.0,0.0,0.0,-2.238326820855658,-2.215708950798448,-3.4326419779503863,-0.0005995584847918155,-0.005352686272094005,-0.26691114180957876
9201,2.0,299.6028,25731.447999999997,0.0,0.0,-0.09200999599559911,0.0,0.0,0.0,-2.211758997933618,-2.211776324510328,-3.3981822539744764,0.003034542701111047,0.0023292687531059277,-0.2696309786555057
9202,2.0,299.42614,25635.72,0.0,0.0,-0.09202000041597336,0.0,0.0,0.0,-2.231143384271708,-2.172767816860488,-3.388707554939397,0.012418756982385887,-0.014146472019398088,-0.26675799918946475
9203,2.0,299.88305,25852.224,0.0,0.0,-0.09203000483634727,0.0,0.0,0.0,-2.2540597578083776,-2.195396933993808,-3.408974076814547,0.02316109471407208,0.016771102872678984,-0.27664758361049074
9204,2.0,300.35017999999997,25986.499,0.0,0.0,-0.09204000925672162,0.0,0.0,0.0,-2.243850655100818,-2.2262961984433276,-3.4291000609008266,0.017047627944219882,0.0026302472985851974,-0.27742504027971976
9205,2.0,300.57667999999995,25881.067000000003,0.0,0.0,-0.09205001367709575,0.0,0.0,0.0,-2.2453741779511778,-2.2013945639857275,-3.4204293758200968,-0.012430904837834789,0.012104720378892887,-0.26823132562987073
9206,2.0,300.57313999999997,25843.998,0.0,0.0,-0.09205998518819225,0.0,0.0,0.0,-2.2489377785528775,-2.203619863855348,-3.4033724249617068,-0.016274573846675383,-0.005654598831515454,-0.26806480810843675
9207,2.0,300.82752,25864.406000000003,0.0,0.0,-0.0920699896085665,0.0,0.0,0.0,-2.261607863103318,-2.189242858186448,-3.411282868492407,-0.021868035598957083,0.015128218147288885,-0.27060839009946874
9208,2.0,300.1872,25985.083,0.0,0.0,-0.09207999402894074,0.0,0.0,0.0,-2.2696060540926775,-2.217709207820858,-3.4115010212389367,0.012025988819622689,0.014407888518697884,-0.26368694959387573
9209,2.0,300.10651,26085.202,0.0,0.0,-0.09208999844931498,0.0,0.0,0.0,-2.252285151583238,-2.2342052234238876,-3.442759685498926,-0.01024219646907609,0.002425808588183668,-0.25321107839998774
9210,2.0,300.10737,25853.94,0.0,0.0,-0.09210000286968889,0.0,0.0,0.0,-2.227684047105298,-2.2059518589604976,-3.425316382377407,0.008889500391500382,-0.023387262268893077,-0.25931208016710977
9211,2.0,299.637,25655.956000000002,0.0,0.0,-0.09211000729006302,0.0,0.0,0.0,-2.211975124179948,-2.2045574241728776,-3.382237345100837,0.02271183887148398,0.00010763170153742188,-0.26729631870259274
9212,2.0,299.91879,25893.202,0.0,0.0,-0.09212001171043727,0.0,0.0,0.0,-2.249700958528198,-2.216129956214998,-3.4050561426528767,0.024397072384803577,0.02059881420569468,-0.26143507217413275
9213,2.0,300.13172000000003,26051.482000000004,0.0,0.0,-0.09213001613081162,0.0,0.0,0.0,-2.261952672112348,-2.2349540152477876,-3.4220932338093073,0.015426010325178683,0.007493420794993053,-0.26872193119578974
9214,2.0,299.99008,25819.162,0.0,0.0,-0.09213998764190812,0.0,0.0,0.0,-2.240085417729218,-2.2044550859127776,-3.403840141207867,-0.013808065737749987,-0.01079667428154879,-0.26326305641454073
9215,2.0,300.12694,25713.585,0.0,0.0,-0.09214999206228225,0.0,0.0,0.0,-2.214602076389208,-2.201142973985898,-3.4005425187574168,-0.01034459552418209,0.009588716826432671,-0.27956345395326476
9216,2.0,299.68422000000004,25801.856,0.0,0.0,-0.09215999648265638,0.0,0.0,0.0,-2.229032581663388,-2.2084351323055778,-3.405652339011717,0.0010222417827124091,0.019856243737408682,-0.29000476318624174
9217,2.0,298.96966000000003,26013.381,0.0,0.0,-0.09217000090303074,0.0,0.0,0.0,-2.260466842165708,-2.217387500914108,-3.429563825471597,-0.0033956290663724967,0.003909314848369336,-0.2680432765438117
9218,2.0,299.45907,26060.722999999998,0.0,0.0,-0.09218000532340465,0.0,0.0,0.0,-2.2586960862909478,-2.227356159372938,-3.435756911407807,-0.005853921642162084,-0.022451857134325775,-0.27577281440165774
9219,2.0,300.19445,25916.401,0.0,0.0,-0.09219000974377889,0.0,0.0,0.0,-2.250427762824928,-2.219405996438318,-3.4081051135287868,0.0001928310692434448,0.009418427988126471,-0.2692124759667028
9220,2.0,300.3865,25785.487,0.0,0.0,-0.09220001416415302,0.0,0.0,0.0,-2.228090968345458,-2.198180939968568,-3.4118722760755764,0.00999636264173918,0.014453090618908985,-0.2686670333053718
9221,2.0,300.35579,25935.307,0.0,0.0,-0.09220998567524974,0.0,0.0,0.0,-2.241375285106518,-2.210753347209368,-3.431557091068317,0.018825940638225683,-0.015512343286699084,-0.2404494264380108
9222,2.0,300.24014,26070.735,0.0,0.0,-0.09221999009562387,0.0,0.0,0.0,-2.2538379573614877,-2.222925520660668,-3.448088975724887,-0.01106955063947959,-0.03160948488186327,-0.24415055547578376
9223,2.0,300.30834,25892.918999999998,0.0,0.0,-0.092229994515998,0.0,0.0,0.0,-2.251246063605688,-2.206566496471158,-3.412988269735717,-0.005738662822086925,-0.017377945450319683,-0.26322161448545073
9224,2.0,299.6566,25850.377,0.0,0.0,-0.09223999893637214,0.0,0.0,0.0,-2.246070078119858,-2.2053285074989777,-3.406470639792477,0.0006158340779680915,0.012408248565598788,-0.2750410147819347
9225,2.0,299.61841,25939.071,0.0,0.0,-0.09225000335674627,0.0,0.0,0.0,-2.263583802123328,-2.199864961634768,-3.4213813242890465,0.01027981033928829,0.014339378626436488,-0.26601015982065873
9226,2.0,299.40066,26053.031000000003,0.0,0.0,-0.09226000777712051,0.0,0.0,0.0,-2.257022095800738,-2.223461529963568,-3.438987254051617,0.014864858234297286,-0.009038916784371631,-0.26486661589029975
9227,2.0,299.92155,26111.918999999998,0.0,0.0,-0.09227001219749464,0.0,0.0,0.0,-2.246701231607148,-2.226702410408418,-3.463967922017017,0.0016013826092441585,0.006288980533624054,-0.28170594089221174
9228,2.0,300.21772999999996,25972.572,0.0,0.0,-0.09227998370859114,0.0,0.0,0.0,-2.2559678090716875,-2.205912139556578,-3.4331335055738967,0.0017914497855273282,0.010128150914670671,-0.27054470733068375
9229,2.0,299.97569,25794.397999999997,0.0,0.0,-0.09228998812896527,0.0,0.0,0.0,-2.215470026424868,-2.202281664448278,-3.4231013163337964,-0.011250246569562888,-0.010967499129157888,-0.2786650861496028
9230,2.0,300.374,25887.007999999998,0.0,0.0,-0.09229999254933963,0.0,0.0,0.0,-2.235924506193568,-2.2110288499115582,-3.422050575980097,-0.021865151889172478,-0.013717800352591488,-0.25774973970541876
9231,2.0,299.92046,26015.773999999998,0.0,0.0,-0.09230999696971376,0.0,0.0,0.0,-2.2505695165139183,-2.222119784181148,-3.4354562801031365,-0.02156833547112898,-0.005668844215996364,-0.2711175280097167
9232,2.0,299.62203,25978.706000000002,0.0,0.0,-0.09232000139008789,0.0,0.0,0.0,-2.247760179286658,-2.2242905711953878,-3.424827083904117,-0.003567224895982687,0.020353748523258584,-0.27048430749222274
9233,2.0,299.75547,25827.331000000002,0.0,0.0,-0.09233000581046213,0.0,0.0,0.0,-2.234917234269158,-2.192596716017448,-3.423349562608297,0.004539483051262096,-0.004115086691927436,-0.26401277029603176
9234,2.0,300.15814,25906.051,0.0,0.0,-0.09234001023083604,0.0,0.0,0.0,-2.2521651827713978,-2.202020955197548,-3.4206065932625864,0.027879400195982573,-0.01128757166349659,-0.27469650974793475
9235,2.0,299.96302000000003,26129.072,0.0,0.0,-0.0923500146512104,0.0,0.0,0.0,-2.2622421576659177,-2.233810663834948,-3.446532623571287,0.011259415469717789,0.008476686088758782,-0.27436934142314573
9236,2.0,300.30658999999997,26204.129,0.0,0.0,-0.0923599861623069,0.0,0.0,0.0,-2.2823248759729275,-2.2385230874000275,-3.444552834200896,0.016864142536611282,0.025703868131524275,-0.27500116365550176
9237,2.0,299.67814,26093.408,0.0,0.0,-0.09236999058268103,0.0,0.0,0.0,-2.275266474451318,-2.2095111025867684,-3.4469669025641467,-0.014289889465052288,0.005187649311706125,-0.25114644959872473
9238,2.0,300.68573,25950.162999999997,0.0,0.0,-0.09237999500305527,0.0,0.0,0.0,-2.236159478891758,-2.214125443542168,-3.4379164513459366,-0.016578586366929087,-5.834587614353964e-05,-0.27805596071948674
9239,2.0,301.04129,25925.647999999997,0.0,0.0,-0.09238999942342951,0.0,0.0,0.0,-2.241756267144118,-2.205818008622288,-3.4331754541280364,0.0013655468246189788,0.00933423622671739,-0.26031262411085576
9240,2.0,300.71828999999997,26049.828999999998,0.0,0.0,-0.09240000384380376,0.0,0.0,0.0,-2.249936640501458,-2.240698332714708,-3.427862578553697,-0.011053537234899189,0.01838364481057448,-0.28432587127827874
9241,2.0,300.31737000000004,26036.461,0.0,0.0,-0.09241000826417767,0.0,0.0,0.0,-2.2588317604793375,-2.2232671885943875,-3.432335064495097,0.002976915418898677,-0.008712261670758281,-0.2546519099096867
9242,2.0,300.25874,25823.474,0.0,0.0,-0.0924200126845518,0.0,0.0,0.0,-2.2319768838039677,-2.214619200315898,-3.4030951997343464,-0.018301072020175183,-0.017843555149521784,-0.2789636402915678
9243,2.0,299.90095,25869.743,0.0,0.0,-0.09242998419564852,0.0,0.0,0.0,-2.240127264958348,-2.2167945469555876,-3.4068340926033467,0.01124381040492769,0.0003177580887252817,-0.2839183420880587
9244,2.0,299.78344,26128.904,0.0,0.0,-0.09243998861602265,0.0,0.0,0.0,-2.2504729537793877,-2.246963663383048,-3.4450977601046766,0.0016068683452855584,0.0070634619965844235,-0.28987951534138073
9245,2.0,299.98822,26099.209,0.0,0.0,-0.0924499930363969,0.0,0.0,0.0,-2.264036522268008,-2.2308908823467877,-3.438580434136467,-0.002715364866610648,0.001015413996913559,-0.26813608012047074
9246,2.0,300.26551,25901.201,0.0,0.0,-0.09245999745677103,0.0,0.0,0.0,-2.242794848496618,-2.2177357549734777,-3.412787646215917,-0.01183948392671609,-0.005300439550562654,-0.27886138309147573
9247,2.0,300.16673,25944.984,0.0,0.0,-0.09247000187714516,0.0,0.0,0.0,-2.2526167883409682,-2.214572590811298,-3.419437809272237,0.0033680298561736665,0.01224018887751259,-0.26937458585020174
9248,2.0,299.91274,25968.667,0.0,0.0,-0.09248000629751951,0.0,0.0,0.0,-2.262598821701118,-2.216397352916388,-3.4148300544424863,0.010365688351513792,0.03513776257182717,-0.26790377227004375
9249,2.0,299.83374,25983.115,0.0,0.0,-0.09249001071789342,0.0,0.0,0.0,-2.247851270470648,-2.205034867619998,-3.4453320235277967,0.016264781797708985,-0.0016145318597668885,-0.25533242894184877
9250,2.0,299.4788,26014.86,0.0,0.0,-0.09250001513826767,0.0,0.0,0.0,-2.237141824863708,-2.2229056609587077,-3.4478203631233764,0.006478577460535814,-0.00898865035883572,-0.27247948813163175
9251,2.0,299.76908,25993.406000000003,0.0,0.0,-0.09250998664936416,0.0,0.0,0.0,-2.244922369731588,-2.217112403511958,-3.4393115954086264,0.006408726227792034,-0.023487054231491774,-0.26757058523966076
9252,2.0,300.18336,26070.696,0.0,0.0,-0.09251999106973852,0.0,0.0,0.0,-2.257431955466188,-2.2298274763668378,-3.437581166887847,-0.0057438564381244945,-0.005137044764611845,-0.2774262055173347
9253,2.0,300.42476,26179.634,0.0,0.0,-0.09252999549011265,0.0,0.0,0.0,-2.2800582354992276,-2.2301452315981978,-3.447751766091607,-0.005064525644354766,-0.028891442501863374,-0.26283586003987974
9254,2.0,299.92317,26174.177000000003,0.0,0.0,-0.09253999991048678,0.0,0.0,0.0,-2.274032031854488,-2.2414557371644577,-3.4408084697813566,-0.0041524972028445664,-0.008773764837253173,-0.2713393588541097
9255,2.0,299.85077,26116.601000000002,0.0,0.0,-0.09255000433086091,0.0,0.0,0.0,-2.2567690872507677,-2.240950024039548,-3.441075359857696,0.013914502594504486,0.009166041371067852,-0.2748676882198287
9256,2.0,300.06408,26040.701,0.0,0.0,-0.09256000875123505,0.0,0.0,0.0,-2.2389852307706377,-2.239121208934058,-3.437616427991327,0.006628085755191133,0.017201871967192583,-0.2863455219076027
9257,2.0,300.6183,26130.153,0.0,0.0,-0.09257001317160929,0.0,0.0,0.0,-2.2603073565999683,-2.2268828702512278,-3.455723916553396,0.02934680621605427,0.014191296177321885,-0.2612255016559497
9258,2.0,300.1222,26091.138,0.0,0.0,-0.0925799846827059,0.0,0.0,0.0,-2.246831332919988,-2.2240035174420583,-3.4602195045970765,-0.01767008774565188,-0.0001233661482327909,-0.2757896039558147
9259,2.0,299.66718,25964.854,0.0,0.0,-0.09258998910307992,0.0,0.0,0.0,-2.247344746745658,-2.2097523574355775,-3.4355699667643567,0.00978708637138522,-0.007058235145943573,-0.2708103612419017
9260,2.0,299.48134,26048.963,0.0,0.0,-0.09259999352345405,0.0,0.0,0.0,-2.2521426886191778,-2.2182971968538876,-3.4477943225958065,-0.027139194653429975,0.0039159868976278165,-0.27418060332701877
9261,2.0,299.71197,26126.599,0.0,0.0,-0.0926099979438284,0.0,0.0,0.0,-2.241966313889848,-2.2283481312208377,-3.471519472362297,-0.0039046375845827263,-0.01144234865602189,-0.26201180399855173
9262,2.0,299.61065,26089.548,0.0,0.0,-0.09262000236420254,0.0,0.0,0.0,-2.236636010413788,-2.2409337107129375,-3.4530014148597066,-0.0027025543455963474,-0.014533170814062286,-0.2777483075916238
9263,2.0,300.39121,26210.237999999998,0.0,0.0,-0.09263000678457667,0.0,0.0,0.0,-2.272378103716258,-2.239406844137248,-3.4554729345036264,-0.006119316060029474,-0.01069428941194419,-0.2689847480067277
9264,2.0,300.26808,26165.025,0.0,0.0,-0.09264001120495091,0.0,0.0,0.0,-2.2827492251148076,-2.239605947781898,-3.4311591877540466,0.01022707168483339,0.013516701618494588,-0.27352503051231875
9265,2.0,300.08062,26022.06,0.0,0.0,-0.09265001562532482,0.0,0.0,0.0,-2.2742046896715276,-2.2145223336063378,-3.421329547208937,-0.00907404636798865,0.002135074710490468,-0.26296111801724176
9266,2.0,300.84772000000004,26132.112,0.0,0.0,-0.09265998713642154,0.0,0.0,0.0,-2.2691633651239878,-2.2250929639495776,-3.4492533014147972,0.004271622281326296,0.01111327238129459,-0.27905559273814273
9267,2.0,299.8278,26110.412999999997,0.0,0.0,-0.09266999155679567,0.0,0.0,0.0,-2.253865112464168,-2.2222963936735773,-3.4607520688496365,-0.004182230419079006,-0.007080005634942154,-0.27870255613830075
9268,2.0,299.95756,26034.494,0.0,0.0,-0.0926799959771698,0.0,0.0,0.0,-2.250155907823098,-2.221259737496268,-3.4424204493654464,-0.002622668289162207,0.017784789683472083,-0.28098430417099174
9269,2.0,299.75425,26031.862999999998,0.0,0.0,-0.09269000039754405,0.0,0.0,0.0,-2.251924738522668,-2.212121944119438,-3.4489896537387765,-0.003834140100925166,-0.02159663554642198,-0.2794048296501097
9270,2.0,299.54764,26082.735,0.0,0.0,-0.09270000481791829,0.0,0.0,0.0,-2.257959554793258,-2.218619613035708,-3.4519209862780764,0.00034694483891578966,-0.01033776621850809,-0.2727438754802247
9271,2.0,300.13257000000004,26226.862,0.0,0.0,-0.09271000923829253,0.0,0.0,0.0,-2.273975188523878,-2.2416164386303183,-3.456719434776647,0.008995138503201052,0.006956633822641303,-0.2579550545731818
9272,2.0,300.96132,26215.944,0.0,0.0,-0.09272001365866644,0.0,0.0,0.0,-2.259413467361748,-2.2461569136534276,-3.463422084188147,0.013871642115274486,0.007072468574073305,-0.27439004212268875
9273,2.0,300.79382999999996,26091.286,0.0,0.0,-0.09272998516976316,0.0,0.0,0.0,-2.243137833655468,-2.2449459784589183,-3.4430156324741867,-0.00852556071395733,0.0016194899964812185,-0.2657538176778597
9274,2.0,301.1137,26091.687,0.0,0.0,-0.0927399895901373,0.0,0.0,0.0,-2.242263804119208,-2.234141287342578,-3.454816145788807,-0.02177105033913538,-0.01848999858082078,-0.28387468114124975
9275,2.0,300.47141,26259.066000000003,0.0,0.0,-0.09274999401051143,0.0,0.0,0.0,-2.2708353291139978,-2.247811652391738,-3.4634534949412465,0.0029347834664905773,-0.003786384205162027,-0.26112288981832277
9276,2.0,299.83985,26190.495,0.0,0.0,-0.09275999843088567,0.0,0.0,0.0,-2.2831629351306377,-2.240000811345868,-3.4380928581883468,-0.00970992697097018,0.01013092012719397,-0.2729037562135037
9277,2.0,299.68667999999997,26064.382,0.0,0.0,-0.0927700028512598,0.0,0.0,0.0,-2.276054985679138,-2.207900136252778,-3.438966279774547,0.012498335618739687,0.0012030332622801389,-0.25548656454706076
9278,2.0,299.32847000000004,26018.396,0.0,0.0,-0.09278000727163394,0.0,0.0,0.0,-2.240081263403808,-2.218891569362548,-3.449969871885517,-0.004972601163482526,-0.008352322203285023,-0.2961808771832767
9279,2.0,300.46245,26193.529,0.0,0.0,-0.09279001169200807,0.0,0.0,0.0,-2.270403481921378,-2.2237492929919678,-3.468026191317537,0.015703299387294985,0.00973614390538259,-0.2736387475710418
9280,2.0,299.85866,26249.424,0.0,0.0,-0.0928000161123822,0.0,0.0,0.0,-2.2685416348626277,-2.237838434307458,-3.4727894800376364,0.023025399247429978,0.016598370075131586,-0.28502607775988376
9281,2.0,300.05197000000004,26092.052000000003,0.0,0.0,-0.09280998762347892,0.0,0.0,0.0,-2.258128666234948,-2.2205265497239077,-3.452677174827707,-0.0007237047950716023,0.0017830476117230982,-0.27103598164166876
9282,2.0,300.14993,26118.676,0.0,0.0,-0.09281999204385294,0.0,0.0,0.0,-2.2721370515174684,-2.223207204188468,-3.4440811662793465,-0.004685591587856886,-0.015475769011089484,-0.26510982631180274
9283,2.0,300.65186,26301.02,0.0,0.0,-0.0928299964642273,0.0,0.0,0.0,-2.2926620534931277,-2.246654216802508,-3.455537073234957,-0.027172517409468674,0.0036466691753732267,-0.25847744579473775
9284,2.0,300.87172999999996,26309.382,0.0,0.0,-0.09284000088460143,0.0,0.0,0.0,-2.279574307251468,-2.259150123660758,-3.4586706504942164,-0.004611714611140795,0.006824385534164414,-0.27383047475496375
9285,2.0,300.3024,26137.264,0.0,0.0,-0.09285000530497556,0.0,0.0,0.0,-2.2524324781477776,-2.234137943617248,-3.458505186752886,0.009627127617848522,-0.009085153919559882,-0.26989465672902874
9286,2.0,299.78762,26086.689,0.0,0.0,-0.09286000972534969,0.0,0.0,0.0,-2.248817911066048,-2.234340188337208,-3.4465438706473965,-0.0018328615197643482,0.0015944730541622384,-0.2777730815565687
9287,2.0,299.79281000000003,26192.852000000003,0.0,0.0,-0.09287001414572382,0.0,0.0,0.0,-2.264476374136418,-2.228044764140898,-3.4694516315582167,0.01847748088908538,0.019042440773842585,-0.2743461379958557
9288,2.0,299.73609,26190.762000000002,0.0,0.0,-0.09287998565682054,0.0,0.0,0.0,-2.285057510167618,-2.229686634602938,-3.446593722552317,0.010321181340871292,0.013693444859937787,-0.27280464008872174
9289,2.0,299.73299,26187.862,0.0,0.0,-0.09288999007719467,0.0,0.0,0.0,-2.2528192357109478,-2.2469415745308683,-3.4606951241940167,0.004309478622287426,0.02135366931819308,-0.2819217530310107
9290,2.0,300.04717,26178.523999999998,0.0,0.0,-0.0928999944975687,0.0,0.0,0.0,-2.255913194891298,-2.234261154829408,-3.467443167209997,-0.009159376718535102,-0.002342780848489468,-0.2845937442072157
9291,2.0,299.93951,26289.65,0.0,0.0,-0.09290999891794283,0.0,0.0,0.0,-2.2679072389750177,-2.2577256966701773,-3.4657641104692862,-0.01126870595988469,0.014526935272946885,-0.28473955089660574
9292,2.0,300.50865,26259.937,0.0,0.0,-0.09292000333831718,0.0,0.0,0.0,-2.2638226251718976,-2.254929430369208,-3.4636129805069866,-0.0016638971006638582,-0.013968656759349088,-0.2883523346581597
9293,2.0,300.16876,26201.517000000003,0.0,0.0,-0.09293000775869131,0.0,0.0,0.0,-2.2677582912103182,-2.236913438291168,-3.4599350852940063,0.02048828077878588,-0.021524455662298377,-0.26680887447698576
9294,2.0,299.82679,26185.519,0.0,0.0,-0.09294001217906545,0.0,0.0,0.0,-2.2636278785026773,-2.243882775128988,-3.452233371283907,0.02132279457439598,-0.020165575820687377,-0.26733194457610876
9295,2.0,299.63955,26193.191000000003,0.0,0.0,-0.09294998369016205,0.0,0.0,0.0,-2.270628727418608,-2.227007803988558,-3.4644394886135568,0.024232517528813273,0.012554046135737887,-0.25027056581478174
9296,2.0,299.41267999999997,26232.953999999998,0.0,0.0,-0.0929599881105363,0.0,0.0,0.0,-2.261678993260338,-2.2470663056181777,-3.465417680260097,-0.004910922704720336,0.002858942203130627,-0.2716930540665167
9297,2.0,298.76367,26219.658,0.0,0.0,-0.09296999253091032,0.0,0.0,0.0,-2.270558813161708,-2.227061810218888,-3.4725007037591364,-0.009015339569119742,-0.008682566654052612,-0.26012637860997473
9298,2.0,299.2343,26270.904,0.0,0.0,-0.09297999695128445,0.0,0.0,0.0,-2.259077676278608,-2.2355175849534077,-3.4911034689700866,0.005706841094746364,-0.005760904877682045,-0.2709476566304517
9299,2.0,299.8457,26223.139,0.0,0.0,-0.09299000137165858,0.0,0.0,0.0,-2.293672263842828,-2.2181841181427275,-3.459322980908597,0.002947815483976737,0.022871104561952276,-0.2667944457955617
9300,2.0,299.8214,26232.84,0.0,0.0,-0.09300000579203282,0.0,0.0,0.0,-2.278125359608468,-2.231762480082808,-3.464240486293917,0.004719696370322765,-0.011306269167591889,-0.2739228021040757
9301,2.0,300.07272,26317.724,0.0,0.0,-0.09301001021240707,0.0,0.0,0.0,-2.2841380870268777,-2.2441124789266578,-3.4716803764781767,-0.007884952083359181,-0.030115567172925073,-0.2814203056890217
9302,2.0,300.60804,26292.652000000002,0.0,0.0,-0.09302001463278131,0.0,0.0,0.0,-2.282817011546498,-2.239835347604538,-3.469657422653526,0.003477459955048577,-0.016378232371655685,-0.27445646066674373
9303,2.0,299.1459,26199.112999999998,0.0,0.0,-0.09302998614387781,0.0,0.0,0.0,-2.268702842953538,-2.244234879538738,-3.450938437656107,0.0056680901552719435,0.02120875327564098,-0.28465816664857374
9304,2.0,299.5921,26115.519,0.0,0.0,-0.09303999056425194,0.0,0.0,0.0,-2.2530373884574777,-2.230824615790248,-3.4546034645928168,-0.014046231187005088,-0.00899301260316624,-0.27145818269333677
9305,2.0,299.871,26170.533,0.0,0.0,-0.09304999498462607,0.0,0.0,0.0,-2.269140263021708,-2.237388551263058,-3.4486596381812067,-0.022335446856836978,-0.005891398014335714,-0.2756913794911207
9306,2.0,300.46646,26290.231,0.0,0.0,-0.0930599994050002,0.0,0.0,0.0,-2.2703396471650774,-2.2553339198091273,-3.465900189957717,0.005622503222672865,0.0008237254380853712,-0.25524128709535376
9307,2.0,300.15132,26306.078999999998,0.0,0.0,-0.09307000382537445,0.0,0.0,0.0,-2.2680138328855377,-2.2526137485906683,-3.4757634704061466,0.001957617127726768,0.027712430765003977,-0.26886256017716875
9308,2.0,299.49355,26264.088,0.0,0.0,-0.09308000824574858,0.0,0.0,0.0,-2.264183240882488,-2.2524457517240877,-3.466997843791047,0.022429575764626775,-0.006955576698811973,-0.2814875449656577
9309,2.0,299.47188,26347.007,0.0,0.0,-0.09309001266612271,0.0,0.0,0.0,-2.2672761868127376,-2.2519843176285477,-3.4895715361438966,-0.016322437754899183,-0.008345871143873352,-0.27573495937792175
9310,2.0,300.91185,26403.07,0.0,0.0,-0.09309998417721943,0.0,0.0,0.0,-2.284226746410628,-2.2621606923578774,-3.4794866578985966,0.03326793819503986,-0.008136542893789263,-0.2833096928854898
9311,2.0,300.85464,26346.76,0.0,0.0,-0.09310998859759356,0.0,0.0,0.0,-2.293160977842368,-2.242177981835738,-3.473418303049697,-0.002193590005090478,0.02024072452760398,-0.2719695598863057
9312,2.0,300.55192999999997,26250.035,0.0,0.0,-0.0931199930179677,0.0,0.0,0.0,-2.283392638928308,-2.2308289727656776,-3.465133666257067,-0.015276432318916485,-0.010472863867591189,-0.29018542567907174
9313,2.0,299.67483,26161.635,0.0,0.0,-0.09312999743834172,0.0,0.0,0.0,-2.277348602081808,-2.218092925633728,-3.457042256258507,-0.037713845573066763,-0.011833582758133688,-0.27849693729550773
9314,2.0,299.60093,26287.75,0.0,0.0,-0.09314000185871607,0.0,0.0,0.0,-2.2836098797497475,-2.238346781882628,-3.468862933250117,-0.028118564709836272,0.004176179897431866,-0.2718909418110467
9315,2.0,299.88944,26329.616,0.0,0.0,-0.0931500062790902,0.0,0.0,0.0,-2.2789918910939875,-2.253185626947108,-3.471368396772387,0.009660211652163662,0.013385118934008384,-0.2740968379412517
9316,2.0,299.55091,26255.571,0.0,0.0,-0.09316001069946434,0.0,0.0,0.0,-2.277054252927758,-2.251424598273308,-3.452559029866047,0.024258114252839476,-0.0026336731984983076,-0.26472424411874873
9317,2.0,299.38477,26308.347999999998,0.0,0.0,-0.09317001511983847,0.0,0.0,0.0,-2.280174252635678,-2.243738690964768,-3.4731680302749965,0.012035499185061289,0.004282524244452236,-0.2684401058129757
9318,2.0,300.03747000000004,26446.543999999998,0.0,0.0,-0.09317998663093519,0.0,0.0,0.0,-2.3046612651523577,-2.2465136790136375,-3.487914061630317,0.025728811309235974,-0.005167983343165245,-0.24755571415934674
9319,2.0,300.39558,26368.377,0.0,0.0,-0.09318999105130932,0.0,0.0,0.0,-2.269907698647448,-2.261511604343818,-3.483908886635037,0.01147577476357079,0.022496430006224775,-0.28361143876526973
9320,2.0,300.30589,26316.292,0.0,0.0,-0.09319999547168345,0.0,0.0,0.0,-2.268194799353398,-2.247591777120038,-3.4837091750403264,-0.003198392436356757,-0.004139593564146076,-0.27455248637872076
9321,2.0,300.24176,26334.318,0.0,0.0,-0.09320999989205747,0.0,0.0,0.0,-2.266237200160198,-2.2549534443965777,-3.483784358197747,-0.01012313522535066,0.003001502439200227,-0.2993786641013737
9322,2.0,300.00751,26299.187,0.0,0.0,-0.0932200043124316,0.0,0.0,0.0,-2.292268608479298,-2.2350572654329777,-3.4669700807383066,-0.026445941094011178,0.015012362117604787,-0.2677431113341877
9323,2.0,300.58558999999997,26301.682999999997,0.0,0.0,-0.09323000873280596,0.0,0.0,0.0,-2.2830268556422078,-2.236662050941358,-3.4753660737169265,0.0014463171444153889,0.008459226370985642,-0.27728040896044576
9324,2.0,300.08332,26225.818,0.0,0.0,-0.09324001315318009,0.0,0.0,0.0,-2.267800847714518,-2.2444966020395682,-3.4596963635704467,0.008041278233962373,-0.0009013769639414802,-0.27841545172246573
9325,2.0,299.4935,26271.494,0.0,0.0,-0.09324998466427659,0.0,0.0,0.0,-2.274927542292868,-2.2463462900971183,-3.464604344404827,0.0036648842710959167,0.004832504746356085,-0.28316609508131774
9326,2.0,299.46251,26404.339,0.0,0.0,-0.09325998908465083,0.0,0.0,0.0,-2.274775453452858,-2.260950770413468,-3.490533414463827,0.014911835548683586,-0.0004966173510148166,-0.26767094766206573
9327,2.0,299.33088,26405.131,0.0,0.0,-0.09326999350502507,0.0,0.0,0.0,-2.284071820470338,-2.269905773472258,-3.472522792611317,-0.0025121708326319575,0.013012934947026688,-0.27146181012869475
9328,2.0,299.61221,26407.396,0.0,0.0,-0.0932799979253991,0.0,0.0,0.0,-2.2658408167210773,-2.263268073392168,-3.498080202533637,0.01662001613701788,-0.0035006955023667466,-0.26219115939875276
9329,2.0,300.14476,26423.659,0.0,0.0,-0.09329000234577323,0.0,0.0,0.0,-2.292575116634548,-2.267473466607208,-3.472083852667997,0.004939511049666785,-0.0025105991804018476,-0.25607790743792175
9330,2.0,299.84394,26379.62,0.0,0.0,-0.09330000676614736,0.0,0.0,0.0,-2.278043489000388,-2.230784288436268,-3.5099180034519364,0.007091900481841083,0.004985369837267695,-0.26329245079994174
9331,2.0,300.18672000000004,26375.832000000002,0.0,0.0,-0.0933100111865216,0.0,0.0,0.0,-2.2898363016142476,-2.234732924075968,-3.4930251991097467,0.0006499054535781745,-0.007787663659107562,-0.28222015518546073
9332,2.0,300.84702999999996,26382.835,0.0,0.0,-0.09332001560689585,0.0,0.0,0.0,-2.2696608709230874,-2.2635188527919183,-3.4865432355700263,-0.006004182275016655,0.001151634732407499,-0.2945895172387217
9333,2.0,299.85091,26259.696,0.0,0.0,-0.09332998711799245,0.0,0.0,0.0,-2.279006076595388,-2.241620086330678,-3.461665817789817,0.008333847107586672,0.0077277048884150925,-0.2912510405442398
9334,2.0,300.05782999999997,26400.751,0.0,0.0,-0.09333999153836658,0.0,0.0,0.0,-2.3003998392067877,-2.2425468048721378,-3.4822223318435865,0.0030004157284679767,0.006537842256234794,-0.26676225483988475
9335,2.0,300.1251,26469.693,0.0,0.0,-0.09334999595874072,0.0,0.0,0.0,-2.310507616904348,-2.260715189765218,-3.4749030184212266,-0.011994841511548688,0.007972335177283223,-0.27581301003312475
9336,2.0,300.02131,26414.612,0.0,0.0,-0.09336000037911485,0.0,0.0,0.0,-2.290540206458718,-2.257033950826908,-3.481808216527717,0.001097649273704549,-0.007009785680486983,-0.25278184539262577
9337,2.0,299.65494,26406.054,0.0,0.0,-0.09337000479948898,0.0,0.0,0.0,-2.263232812288688,-2.2770180798991877,-3.486530164643736,0.006936002733380174,-0.0026590531883281176,-0.2798300096570717
9338,2.0,299.4047,26368.928,0.0,0.0,-0.09338000921986322,0.0,0.0,0.0,-2.2641936773585183,-2.259069266302778,-3.4922328375315463,0.01052806370653899,0.0053615768324464345,-0.26706093057186175
9339,2.0,298.86234,26391.922000000002,0.0,0.0,-0.09339001364023736,0.0,0.0,0.0,-2.2855915942953278,-2.253450085223208,-3.483443703514127,0.008686817643522153,-0.0018161814979431583,-0.2885815115657777
9340,2.0,299.78296,26426.056,0.0,0.0,-0.09339998515133408,0.0,0.0,0.0,-2.2950743993312077,-2.256405533114888,-3.4813813342605866,0.0051049137933407655,-0.0034854909753411767,-0.27529165232667074
9341,2.0,300.13079,26235.297000000002,0.0,0.0,-0.09340998957170821,0.0,0.0,0.0,-2.2807855464210083,-2.229339900418718,-3.4647499484441964,0.013002661604262788,0.00016317259033638086,-0.28081593240187475
9342,2.0,300.61647999999997,26269.24,0.0,0.0,-0.09341999399208234,0.0,0.0,0.0,-2.2731878931961775,-2.235642620015748,-3.476362503865267,-0.009359780869688451,0.002119026146131598,-0.26752328672499276
9343,2.0,300.15133,26488.746,0.0,0.0,-0.09342999841245647,0.0,0.0,0.0,-2.2984968541939774,-2.253317450785118,-3.500103055033277,-0.016922994128919486,-0.01143996751828689,-0.2819253298038637
9344,2.0,299.62275,26590.031000000003,0.0,0.0,-0.0934400028328305,0.0,0.0,0.0,-2.3060365495130877,-2.273759264927568,-3.5029097578102766,-0.030365274554069267,-0.0027612885022179575,-0.2749751028629297
9345,2.0,300.2265,26484.418999999998,0.0,0.0,-0.09345000725320485,0.0,0.0,0.0,-2.3104228078709776,-2.2645536851190475,-3.4756254657425263,-0.01160781949010259,-0.0029701787242838174,-0.26803563663805774
9346,2.0,300.2194,26422.652000000002,0.0,0.0,-0.09346001167357898,0.0,0.0,0.0,-2.290247883804868,-2.2568999991636876,-3.4846786527360067,0.013411330700845287,0.01130683658764789,-0.2702946169410017
9347,2.0,300.02873,26412.847999999998,0.0,0.0,-0.09347001609395311,0.0,0.0,0.0,-2.299923307684758,-2.2523954945191274,-3.476527359656537,0.01871412544994038,0.0001288584197373359,-0.2552971171758638
9348,2.0,300.42124,26499.756,0.0,0.0,-0.09347998760504961,0.0,0.0,0.0,-2.2863645014716076,-2.270137301120108,-3.4987623225009563,0.012897549065388987,0.007228410196263544,-0.27729493896687973
9349,2.0,300.29834,26448.951,0.0,0.0,-0.09348999202542396,0.0,0.0,0.0,-2.278174704888338,-2.2524866870281275,-3.5091592817770563,0.01052262255350199,0.0004196881103599916,-0.26171662397941975
9350,2.0,300.46229,26331.976000000002,0.0,0.0,-0.0934999964457981,0.0,0.0,0.0,-2.250889703545518,-2.2641623679304277,-3.4892111230833267,0.004320903017164926,0.01026692179801629,-0.2880798919712717
9351,2.0,299.99339,26379.592,0.0,0.0,-0.09351000086617223,0.0,0.0,0.0,-2.283935234356858,-2.2489373732528377,-3.4858645606530465,-0.004443983317412006,0.006783302903559873,-0.2774394284311397
9352,2.0,299.51362,26524.816000000003,0.0,0.0,-0.09352000528654625,0.0,0.0,0.0,-2.3031575006789478,-2.263721502811918,-3.4960026345285966,-0.0057526527662176245,0.02597592780987448,-0.2953057330719067
9353,2.0,299.64546,26647.627,0.0,0.0,-0.09353000970692038,0.0,0.0,0.0,-2.327468916953298,-2.2789254218874277,-3.4938189792380867,-0.012877375255897987,0.008083297411634343,-0.27095641111131574
9354,2.0,299.59009,26424.623,0.0,0.0,-0.09354001412729473,0.0,0.0,0.0,-2.293458366746718,-2.248500358484708,-3.490466843932257,-0.004153573173125756,0.006079679539967655,-0.28032067601799676
9355,2.0,300.04016,26319.822999999997,0.0,0.0,-0.09354998563839123,0.0,0.0,0.0,-2.269600177242098,-2.2535831249613376,-3.4773856838162467,-0.01056441608037669,-0.0014249033194520086,-0.28001541416036974
9356,2.0,300.25824,26482.557999999997,0.0,0.0,-0.09355999005876536,0.0,0.0,0.0,-2.292517462703858,-2.268072094766288,-3.4894468050565868,0.006832707458560723,-0.002089367606429528,-0.28495402554527277
9357,2.0,300.55341,26591.21,0.0,0.0,-0.0935699944791396,0.0,0.0,0.0,-2.324897896149558,-2.262641783505358,-3.4955241778313764,0.0032086905024230968,-0.0022899428955247677,-0.27221739072826473
9358,2.0,300.48871,26388.042,0.0,0.0,-0.09357999889951385,0.0,0.0,0.0,-2.2831917114334774,-2.2604022981343377,-3.4777120516734565,0.0037172847026674363,-0.007633793424096752,-0.27926055296837077
9359,2.0,300.16527,26323.523999999998,0.0,0.0,-0.09359000331988787,0.0,0.0,0.0,-2.2849908383110376,-2.243084536700208,-3.4736186225944667,0.006841195859948464,-0.01796967033646838,-0.2644730898164618
9360,2.0,299.60873,26504.264,0.0,0.0,-0.093600007740262,0.0,0.0,0.0,-2.268501206183638,-2.278242288670008,-3.5098908483492566,-0.0007084304855116452,0.005483296033834184,-0.2861775858360287
9361,2.0,300.13762,26678.343999999997,0.0,0.0,-0.09361001216063614,0.0,0.0,0.0,-2.3042222238840275,-2.2787758661726683,-3.526552327693617,0.015160473950972286,-0.010859101633459888,-0.26085532086441576
9362,2.0,299.78474,26656.284,0.0,0.0,-0.09361998367173285,0.0,0.0,0.0,-2.290842965588598,-2.276359669984208,-3.5356419916906967,-0.005148058489223816,0.009494793608413172,-0.28332379732688173
9363,2.0,299.80941,26485.023999999998,0.0,0.0,-0.09362998809210699,0.0,0.0,0.0,-2.3161336880845975,-2.241762245319708,-3.492890031546407,0.009010787340395471,0.007765595375904593,-0.2656553399006408
9364,2.0,300.60064,26422.791,0.0,0.0,-0.09363999251248123,0.0,0.0,0.0,-2.296813440477838,-2.248372081022048,-3.486683064083827,0.014454861780083785,0.016584394316502285,-0.2887447562893887
9365,2.0,300.22789,26484.54,0.0,0.0,-0.09364999693285536,0.0,0.0,0.0,-2.3185897050019877,-2.239153126312208,-3.4928960097219965,0.0026268150151964576,-0.00018235012166655583,-0.2591211027882617
9366,2.0,299.9886,26589.548,0.0,0.0,-0.0936600013532295,0.0,0.0,0.0,-2.287283012687258,-2.284342054272008,-3.510933685352177,-0.012392915051835488,0.0004240008574231266,-0.2850854744807457
9367,2.0,299.84586,26629.662999999997,0.0,0.0,-0.09367000577360363,0.0,0.0,0.0,-2.3007903457953276,-2.2842774089156275,-3.5096848546039263,-0.009703466589657591,-0.005961783128557184,-0.2590630435575318
9368,2.0,299.56273,26519.796000000002,0.0,0.0,-0.09368001019397776,0.0,0.0,0.0,-2.2794999346941274,-2.283885483776948,-3.497970467547807,-0.007180758969235733,0.00986314193714132,-0.2836312579372257
9369,2.0,298.94539,26561.818,0.0,0.0,-0.093690014614352,0.0,0.0,0.0,-2.3023807431522876,-2.277305842927588,-3.4944428373246565,0.025768382778641373,-0.006639095021502664,-0.27205697297243275
9370,2.0,299.09702999999996,26695.743,0.0,0.0,-0.0936999861254485,0.0,0.0,0.0,-2.320218808512768,-2.2745439258050077,-3.520076544979507,0.017412156826696085,0.01145659697892809,-0.26823964441319176
9371,2.0,299.80536,26605.218999999997,0.0,0.0,-0.09370999054582285,0.0,0.0,0.0,-2.304154133477308,-2.279602272954228,-3.5035657359250165,0.03546277875340376,0.007753736094084173,-0.27172878126504274
9372,2.0,299.75762000000003,26379.01,0.0,0.0,-0.09371999496619698,0.0,0.0,0.0,-2.251386094769508,-2.250495954556658,-3.516678205469117,0.013492312688587587,-0.003777252592610807,-0.26751844338951475
9373,2.0,300.0366,26388.196,0.0,0.0,-0.09372999938657112,0.0,0.0,0.0,-2.2830194589164776,-2.2477249181831778,-3.490608293646217,-0.001022777082740239,0.0025052798200268676,-0.28251955032500875
9374,2.0,300.10263,26531.392000000003,0.0,0.0,-0.09374000380694525,0.0,0.0,0.0,-2.295578389930948,-2.2569389079675277,-3.5123632799182674,-0.02299575864225468,-0.0013123226207161587,-0.27561761488384073
9375,2.0,300.00358,26615.918999999998,0.0,0.0,-0.09375000822731927,0.0,0.0,0.0,-2.3277151367275977,-2.260056577200218,-3.5028030625747464,-0.017557551123295382,0.013895313664110686,-0.2832034434800037
9376,2.0,300.36127,26615.322,0.0,0.0,-0.09376001264769362,0.0,0.0,0.0,-2.3219434615079777,-2.277803855351738,-3.4906459865499366,-0.026061218137041976,0.02056969542432088,-0.2864416692095917
9377,2.0,300.79185,26593.557,0.0,0.0,-0.09376998415879012,0.0,0.0,0.0,-2.318836735376368,-2.2689803721559274,-3.4959602806744168,-0.003400620032390067,0.010044151164155541,-0.27330634074323573
9378,2.0,299.85827,26654.937,0.0,0.0,-0.09377998857916425,0.0,0.0,0.0,-2.2871139012455677,-2.295993518496918,-3.519327753155607,-0.010741377170591388,0.008323158636256803,-0.2894284366618627
9379,2.0,299.86523,26735.798,0.0,0.0,-0.09378999299953839,0.0,0.0,0.0,-2.332098963285248,-2.276814923254138,-3.5181011125845467,0.003972024187783267,0.0031491681385486968,-0.26405913662060776
9380,2.0,299.77918,26673.935,0.0,0.0,-0.09379999741991274,0.0,0.0,0.0,-2.300013486943658,-2.2751125617611274,-3.5330840418132463,0.01144421708920629,0.0012392992058843089,-0.2728062207588777
9381,2.0,300.29931,26416.808999999997,0.0,0.0,-0.09381000184028687,0.0,0.0,0.0,-2.301539846894298,-2.2502682772591878,-3.478242082800767,0.0021326994496060478,-0.02281419942308618,-0.26908481658660377
9382,2.0,299.88079,26333.493,0.0,0.0,-0.0938200062606609,0.0,0.0,0.0,-2.2673836926483477,-2.2299933454082077,-3.507347387948237,0.02098724869778018,-0.016756199990208186,-0.28348152996994874
9383,2.0,299.62801,26530.745,0.0,0.0,-0.09383001068103503,0.0,0.0,0.0,-2.2985947341536375,-2.261910216933158,-3.504179157535557,0.008769302787787802,-9.335306826773051e-05,-0.27651800918770275
9384,2.0,299.94068,26565.072,0.0,0.0,-0.09384001510140916,0.0,0.0,0.0,-2.2714706369266975,-2.279607947154788,-3.524039771420647,0.016772969279363184,0.012979835106009988,-0.2993626243522907
9385,2.0,299.7507,26491.306,0.0,0.0,-0.09384998661250588,0.0,0.0,0.0,-2.309091194589558,-2.2524147462710276,-3.491189696553597,-0.01238800889485129,-0.008613821991743043,-0.28353247618497673
9386,2.0,300.09119,26542.465,0.0,0.0,-0.09385999103288001,0.0,0.0,0.0,-2.290611133965718,-2.2822518206407176,-3.495383437392486,-0.022764087112890477,0.0009204175545206401,-0.2994556508439717
9387,2.0,300.54991,26625.741,0.0,0.0,-0.09386999545325414,0.0,0.0,0.0,-2.3250718711917275,-2.269744160081308,-3.4987442866491762,-0.001957300791045548,0.0035747527362756265,-0.2846568494234437
9388,2.0,300.20547999999997,26755.472,0.0,0.0,-0.09387999987362838,0.0,0.0,0.0,-2.3175608508504477,-2.289894158194958,-3.5255403948187465,-0.004548778506354486,0.005156087483016215,-0.2793202536642627
9389,2.0,299.97542999999996,26781.647,0.0,0.0,-0.09389000429400263,0.0,0.0,0.0,-2.315688567315668,-2.302139994928528,-3.5231234893552172,-0.017275846317243285,-0.001951099497783528,-0.27632239112339674
9390,2.0,300.35182000000003,26561.547000000002,0.0,0.0,-0.09390000871437665,0.0,0.0,0.0,-2.284981009785068,-2.2616918615366077,-3.5273741748497263,-0.009531106566821981,-0.004359657300364676,-0.25738296343422074
9391,2.0,300.82297,26569.446,0.0,0.0,-0.09391001313475078,0.0,0.0,0.0,-2.301264546842128,-2.265837067695708,-3.5093464290705265,0.003425048884351007,0.00952819803240993,-0.26257540410167474
9392,2.0,300.59991,26708.265,0.0,0.0,-0.0939199846458475,0.0,0.0,0.0,-2.319167561534018,-2.273298337457078,-3.5261797556318464,0.028155070084439075,-0.003034793581835807,-0.25395094349050673
9393,2.0,300.50056,26793.924,0.0,0.0,-0.09392998906622163,0.0,0.0,0.0,-2.3294228684461378,-2.281682374084518,-3.533578507862047,0.011886580804614189,-0.018582569109956783,-0.2697342795032007
9394,2.0,301.02732000000003,26716.249,0.0,0.0,-0.09393999348659576,0.0,0.0,0.0,-2.3076211713444774,-2.2904310794229477,-3.5230204418200466,0.017974126610408182,-0.025019510907983475,-0.2927682001839717
9395,2.0,300.8314,26670.272999999997,0.0,0.0,-0.09394999790697,0.0,0.0,0.0,-2.3017514135151775,-2.276819685529608,-3.528526037563407,0.003365165499465976,0.003976902379064707,-0.2791670907791467
9396,2.0,300.55014,26763.273999999998,0.0,0.0,-0.09396000232734414,0.0,0.0,0.0,-2.3216518481291977,-2.2890052338822278,-3.5247098337117766,-0.012917083514066886,-0.002821472518407657,-0.2835212899038727
9397,2.0,300.63723,26790.451,0.0,0.0,-0.09397000674771827,0.0,0.0,0.0,-2.3365418623237275,-2.283951952983508,-3.5231343311312866,-0.012768757884928289,-0.0024524084298088674,-0.26566287848138476
9398,2.0,300.14192,26674.715,0.0,0.0,-0.0939800111680924,0.0,0.0,0.0,-2.3234672883333682,-2.268516404935138,-3.5164634977729263,-0.01890317258734788,0.015530851313025685,-0.2688093848119208
9399,2.0,300.14926,26574.702999999998,0.0,0.0,-0.09399001558846654,0.0,0.0,0.0,-2.318651715908108,-2.261671799184628,-3.497722727898357,0.015255273630328286,0.016238561924871286,-0.2636990579325707
9400,2.0,299.60808,26571.106,0.0,0.0,-0.09399998709956314,0.0,0.0,0.0,-2.277946318315798,-2.272623411565468,-3.526382912276897,0.01115215281413179,-0.007976514631295702,-0.2797867438778017
9401,2.0,299.18172000000004,26612.658,0.0,0.0,-0.09400999151993727,0.0,0.0,0.0,-2.286890378273508,-2.2892929969106275,-3.513400138745596,0.005424881861594155,0.004481996408163606,-0.27617309885366276
9402,2.0,299.87857,26748.221,0.0,0.0,-0.09401999594031163,0.0,0.0,0.0,-2.297191889390188,-2.2890477903864275,-3.5445514998199967,-0.009141959253291131,0.007496299438527153,-0.28390711527695073
9403,2.0,300.47787,26742.481,0.0,0.0,-0.09403000036068576,0.0,0.0,0.0,-2.3222390265621478,-2.2839159826049578,-3.522891455082317,-0.006839341308290434,0.02160975105571638,-0.28449126409210174
9404,2.0,300.51428,26555.879,0.0,0.0,-0.0940400047810599,0.0,0.0,0.0,-2.298686433287688,-2.268146365998618,-3.505491316415057,-0.014149792439975786,0.002203026707246808,-0.28291097897113976
9405,2.0,300.39927,26650.819,0.0,0.0,-0.09405000920143403,0.0,0.0,0.0,-2.3191676628590274,-2.270983466278618,-3.511032375911917,0.01153732464089529,-0.012925753895172589,-0.29112564071186375
9406,2.0,300.65884,26819.064,0.0,0.0,-0.09406001362180805,0.0,0.0,0.0,-2.3154891596959875,-2.291106714589628,-3.545730011011307,0.008267192780233402,-0.005563660141665505,-0.27800544006950073
9407,2.0,300.50049,26843.338,0.0,0.0,-0.09406998513290477,0.0,0.0,0.0,-2.356212897115108,-2.2686425545725877,-3.534849123487447,0.013459680969117089,0.008103592608487321,-0.27529685029968376
9408,2.0,299.72857,26789.397,0.0,0.0,-0.0940799895532789,0.0,0.0,0.0,-2.328249828805368,-2.2760108079747776,-3.5390471199767566,-0.0002202134439208748,0.002110318781397248,-0.26621623462599675
9409,2.0,298.70704,26631.691000000003,0.0,0.0,-0.09408999397365303,0.0,0.0,0.0,-2.323568815993388,-2.2623767172791975,-3.5094236387281468,-0.0017504143723774486,0.022954547734187477,-0.2821924225302237
9410,2.0,299.54982,26685.515,0.0,0.0,-0.09409999839402716,0.0,0.0,0.0,-2.307998404356708,-2.2675176443115683,-3.536214174022167,-0.00025421141969371377,0.00943854444766181,-0.26778093596042074
9411,2.0,299.7632,26794.999,0.0,0.0,-0.09411000281440152,0.0,0.0,0.0,-2.3230070701379475,-2.291961998999038,-3.5300415557379763,-0.0004022905149504826,0.01757262119203268,-0.28188821445270074
9412,2.0,299.7403,26688.84,0.0,0.0,-0.09412000723477565,0.0,0.0,0.0,-2.278634416458708,-2.2898012431607877,-3.5443051787206863,-0.0089021429156481,-0.014978893453551684,-0.27413312242733273
9413,2.0,299.9191,26585.892000000003,0.0,0.0,-0.09413001165514967,0.0,0.0,0.0,-2.2979768542426577,-2.272975212000188,-3.5104952520339068,0.005334619921485995,-0.0041598119566414755,-0.2848554261780417
9414,2.0,300.28667,26699.855,0.0,0.0,-0.0941400160755238,0.0,0.0,0.0,-2.293060159457418,-2.2828006982198876,-3.5402284682683467,0.006070457950807555,0.0008733933469197122,-0.27289948029808175
9415,2.0,300.06254,26866.61,0.0,0.0,-0.09414998758662052,0.0,0.0,0.0,-2.350887355914518,-2.288078515340768,-3.5278127094930065,0.01066885987418449,0.014010432047721986,-0.27127540250779775
9416,2.0,300.37685,26926.577,0.0,0.0,-0.09415999200699465,0.0,0.0,0.0,-2.344928432076418,-2.2953847578368376,-3.5446937601340367,0.01205332732057079,-0.014519325764695886,-0.2812460773343267
9417,2.0,300.2098,26778.623,0.0,0.0,-0.09416999642736879,0.0,0.0,0.0,-2.3309041387673273,-2.286086262994148,-3.523042226697197,-0.0013454858911891188,-0.007862991407316831,-0.28615321717112374
9418,2.0,300.45775,26692.337000000003,0.0,0.0,-0.09418000084774292,0.0,0.0,0.0,-2.301029270168908,-2.283735320112128,-3.5290393500640667,0.002386224959777068,0.0022273152240688977,-0.2847992009299927
9419,2.0,299.90137000000004,26713.512000000002,0.0,0.0,-0.09419000526811716,0.0,0.0,0.0,-2.329976103000738,-2.2675947526441775,-3.5226696546354264,-0.025700253868417577,-0.0019211899760316882,-0.2769123154641177
9420,2.0,299.67266,26790.182999999997,0.0,0.0,-0.0942000096884914,0.0,0.0,0.0,-2.327077194464638,-2.282853184575068,-3.5336163020907767,-0.013455990712252886,-0.016519625343610084,-0.2750549064408057
9421,2.0,299.83498,26708.888,0.0,0.0,-0.09421001410886543,0.0,0.0,0.0,-2.320642853679618,-2.282848422299598,-3.515343856412426,-0.019301152908625482,-0.008185143738810793,-0.2866257463552587
9422,2.0,299.9186,26568.273999999998,0.0,0.0,-0.09421998561996214,0.0,0.0,0.0,-2.2891111185176776,-2.270845157639968,-3.516135508715557,0.013389183080159487,0.019633378364663584,-0.28634926080047174
9423,2.0,299.52957999999995,26745.433999999997,0.0,0.0,-0.09422999004033628,0.0,0.0,0.0,-2.297587462229228,-2.297979691342938,-3.534377050265857,0.004164571800311236,0.005955340985746395,-0.28239762594047574
9424,2.0,300.13257000000004,26960.912999999997,0.0,0.0,-0.09423999446071041,0.0,0.0,0.0,-2.328490881004158,-2.3137928777035777,-3.5531604779696364,0.005331230498576485,-0.025527673058385176,-0.2709325693364627
9425,2.0,300.06675,26857.017999999996,0.0,0.0,-0.09424999888108454,0.0,0.0,0.0,-2.338741830940848,-2.279869973630648,-3.5452511490140464,-0.0017501254947739381,-0.019448562559673678,-0.2647664966479188
9426,2.0,300.40792000000005,26705.902000000002,0.0,0.0,-0.09426000330145878,0.0,0.0,0.0,-2.322369026549978,-2.2807837225708276,-3.514774409856227,0.007392008645484453,-0.006721351171245713,-0.2622869216657038
9427,2.0,301.05284,26772.74,0.0,0.0,-0.09427000772183292,0.0,0.0,0.0,-2.3460214249592877,-2.2778763027338877,-3.5143468183140265,-0.0038024578981233764,0.01011051833643047,-0.27994141650556675
9428,2.0,300.46206,26943.321,0.0,0.0,-0.09428001214220705,0.0,0.0,0.0,-2.3453721342952076,-2.293719278647468,-3.551005497656957,-0.012158243288925188,-0.02380852707746868,-0.2867055094031307
9429,2.0,300.44166,26997.246,0.0,0.0,-0.09428998365330377,0.0,0.0,0.0,-2.330475128674988,-2.3181742724609875,-3.5578391603063864,-0.005745816773092964,-0.0013355892748123986,-0.2937248096033817
9430,2.0,300.27852,26758.071,0.0,0.0,-0.0942999880736779,0.0,0.0,0.0,-2.301119449427808,-2.291258803429638,-3.5414071821096766,0.01072967311868629,0.012792682746289488,-0.2870959653291657
9431,2.0,299.59617000000003,26637.377999999997,0.0,0.0,-0.09430999249405192,0.0,0.0,0.0,-2.301686464183768,-2.274313512732268,-3.5210977997552964,0.014990362431433587,0.006066994155340704,-0.27483779734187874
9432,2.0,299.82081,26777.697,0.0,0.0,-0.09431999691442605,0.0,0.0,0.0,-2.3119624413979274,-2.2905865119882876,-3.5372022955196862,-0.0019716390905606283,-0.028823913435698772,-0.2733080430034037
9433,2.0,300.15002999999996,26941.8,0.0,0.0,-0.0943300013348004,0.0,0.0,0.0,-2.3432871695644377,-2.292578764334908,-3.5537686306796568,-0.008071661450135962,-0.017518604829201683,-0.2575104809593058
9434,2.0,299.95882,26939.547000000002,0.0,0.0,-0.09434000575517454,0.0,0.0,0.0,-2.309073868012848,-2.3137765643769677,-3.5660991751215865,0.002177413061943938,0.003404069743680527,-0.2709772637983737
9435,2.0,300.04996,26863.136000000002,0.0,0.0,-0.09435001017554867,0.0,0.0,0.0,-2.316627140883298,-2.298024882297398,-3.551070649638387,-0.008797529909073601,0.006200057400873025,-0.25953882527448774
9436,2.0,299.7311,26886.641,0.0,0.0,-0.0943600145959228,0.0,0.0,0.0,-2.3128225894078183,-2.3077965649367878,-3.552248451554626,-0.007225854171561284,-0.014058685043984184,-0.2807484702102167
9437,2.0,300.38132,26965.72,0.0,0.0,-0.09436998610701952,0.0,0.0,0.0,-2.3611544165277976,-2.2974806656686875,-3.5382705651001167,-0.012931785773017887,0.008086033389554362,-0.2712574071860217
9438,2.0,300.43065,26919.815,0.0,0.0,-0.09437999052739354,0.0,0.0,0.0,-2.3423114097181377,-2.293094103335768,-3.5475459578405264,0.0008370058234360432,0.017873612200488182,-0.28563503093748277
9439,2.0,299.69011,26745.417999999998,0.0,0.0,-0.09438999494776767,0.0,0.0,0.0,-2.3277896106099476,-2.2820449149702977,-3.520104814657297,0.01079211060309839,0.014946690338873485,-0.28298669915111274
9440,2.0,299.96688,26655.85,0.0,0.0,-0.09439999936814181,0.0,0.0,0.0,-2.280416622059598,-2.280362109204218,-3.541933970836667,-0.015192603098393187,-0.005166842828852686,-0.30798112705287073
9441,2.0,299.88711,26792.833,0.0,0.0,-0.09441000378851594,0.0,0.0,0.0,-2.3204247009330876,-2.2762504416234277,-3.5476769710784564,-0.001073117982158499,0.014590256311446186,-0.2904529338379727
9442,2.0,299.87676,27008.551,0.0,0.0,-0.0944200082088903,0.0,0.0,0.0,-2.3390493523461977,-2.286579817117858,-3.5842958296924565,-0.008762988213164602,0.011104596933938388,-0.26468613578248773
9443,2.0,299.93374,27023.512000000002,0.0,0.0,-0.09443001262926443,0.0,0.0,0.0,-2.3705614304561977,-2.2893839867696077,-3.5545274536795466,0.01885442715153708,0.014656258409710087,-0.2609127518800838
9444,2.0,299.87188,26817.057,0.0,0.0,-0.09443998414036092,0.0,0.0,0.0,-2.3119617321228576,-2.2865321943631582,-3.5532217796006864,0.00027062927318402975,-0.02035138359752518,-0.2600059335705877
9445,2.0,299.48404,26837.221,0.0,0.0,-0.09444998856073517,0.0,0.0,0.0,-2.3189667353641976,-2.293788686279318,-3.545089839598126,0.01145076268485229,-0.0013159441792235788,-0.26260551789464676
9446,2.0,299.85053,27004.162,0.0,0.0,-0.0944599929811093,0.0,0.0,0.0,-2.317898161808738,-2.3181876473623078,-3.572505246228817,0.006067660265956443,0.009313899081310271,-0.27621049791485375
9447,2.0,299.7374,26902.257999999998,0.0,0.0,-0.09446999740148343,0.0,0.0,0.0,-2.3293747390663877,-2.305486152058768,-3.5427537914925766,0.008731049962062542,0.011398910624234888,-0.2869011882624427
9448,2.0,300.36402000000004,26745.182999999997,0.0,0.0,-0.09448000182185756,0.0,0.0,0.0,-2.316556821326358,-2.292177517295308,-3.521133567483827,-0.0005217937991645386,-0.015126456105364984,-0.3034885990244927
9449,2.0,299.19437,26606.485,0.0,0.0,-0.0944900062422317,0.0,0.0,0.0,-2.331833897059088,-2.269126685470368,-3.4867464935400867,-0.005003189360151345,-0.0023742279772680577,-0.29769903994060776
9450,2.0,299.48927000000003,26723.429,0.0,0.0,-0.09450001066260594,0.0,0.0,0.0,-2.323732050584498,-2.2763477136330277,-3.5231753677603366,-0.009100504354599852,0.01051914102615839,-0.2997147692920447
9451,2.0,299.903,27112.693,0.0,0.0,-0.09451001508298018,0.0,0.0,0.0,-2.3645334029612775,-2.3038885606260977,-3.5731595018183864,-0.013949614750219786,0.0049606548434785154,-0.28245964697909676
9452,2.0,300.20971000000003,27114.205,0.0,0.0,-0.09451998659407679,0.0,0.0,0.0,-2.335555260701358,-2.3205547009209178,-3.5859314180038764,-0.0009736561263098781,0.005761139445080194,-0.2942188703521417
9453,2.0,300.4777,26900.162,0.0,0.0,-0.09452999101445092,0.0,0.0,0.0,-2.3285226970572976,-2.2916779849960083,-3.5567768689015464,0.005759680364936194,0.006494797162836574,-0.27138104396322377
9454,2.0,300.75703,26916.426,0.0,0.0,-0.09453999543482483,0.0,0.0,0.0,-2.3214117078554977,-2.3126309838139076,-3.5478788104983763,0.017737846819589183,0.009662934660482401,-0.2767525563208507
9455,2.0,299.85924,26992.556,0.0,0.0,-0.09454999985519918,0.0,0.0,0.0,-2.362476910558318,-2.299098116803318,-3.5434878911900265,-0.0019457116417017882,-0.016204224905482484,-0.25617647640764973
9456,2.0,300.08299,27039.667999999998,0.0,0.0,-0.09456000427557332,0.0,0.0,0.0,-2.3411363435771677,-2.3312700233784374,-3.546977423209417,0.008727503485387533,-0.028042661131595176,-0.2750891441616848
9457,2.0,300.07255,26869.498,0.0,0.0,-0.09457000869594756,0.0,0.0,0.0,-2.3230364543908477,-2.308782558609098,-3.5358375489599965,0.007315053617614582,-0.02343422235802768,-0.26746612928685176
9458,2.0,299.69784,26705.365,0.0,0.0,-0.09458001311632169,0.0,0.0,0.0,-2.2936571664163377,-2.2946354593878877,-3.529471399906707,0.00951140533717762,-0.002881288724811057,-0.2994337139793067
9459,2.0,299.2104,26870.947999999997,0.0,0.0,-0.09458998462741841,0.0,0.0,0.0,-2.3238844433995376,-2.300643120555798,-3.5435697617981066,-0.0026803227264772574,-0.007313965589657204,-0.28716042830052774
9460,2.0,299.52015,27068.47,0.0,0.0,-0.09459998904779254,0.0,0.0,0.0,-2.355558742850548,-2.3089622078518275,-3.563617928276707,-0.004693057822543746,0.01033285398202329,-0.29995682460843376
9461,2.0,299.76922,27073.546000000002,0.0,0.0,-0.09460999346816668,0.0,0.0,0.0,-2.3761938851120776,-2.2911291074168374,-3.5623589650274563,0.002188438337607048,0.016078896000613484,-0.2671940209724967
9462,2.0,299.84123,26807.157000000003,0.0,0.0,-0.0946199978885407,0.0,0.0,0.0,-2.3271824711500275,-2.2781321483841377,-3.543391733755536,-0.008344865999774152,0.020686274914576377,-0.27675868648395574
9463,2.0,300.44189,26812.647999999997,0.0,0.0,-0.09463000230891483,0.0,0.0,0.0,-2.3129294872933683,-2.2756394518131278,-3.561806541072937,-0.032402038977582266,-0.0016942662326610582,-0.26122181342558576
9464,2.0,300.63304,27077.813,0.0,0.0,-0.09464000672928918,0.0,0.0,0.0,-2.3215266104168375,-2.317159198510808,-3.5922932100817366,-0.018744322329420582,0.00035397469718208264,-0.2900376532844877
9465,2.0,300.26631000000003,27177.957000000002,0.0,0.0,-0.09465001114966332,0.0,0.0,0.0,-2.3503438485608776,-2.329959992324148,-3.581116453528676,0.00934014843972588,0.018402421348177583,-0.26996639483610874
9466,2.0,299.99852999999996,26982.176,0.0,0.0,-0.09466001557003745,0.0,0.0,0.0,-2.3302267810754778,-2.308595107340598,-3.5630860732992167,0.010075008176075892,0.008237375058940623,-0.2976595231867077
9467,2.0,299.71567999999996,26838.221,0.0,0.0,-0.09466998708113394,0.0,0.0,0.0,-2.335008004322348,-2.2920606895587774,-3.5310804410655066,0.016109137463098087,-0.02886580220808287,-0.27001292328070076
9468,2.0,299.27945,26862.186,0.0,0.0,-0.0946799915015083,0.0,0.0,0.0,-2.324194497930138,-2.293908148466108,-3.5473310474943167,-0.005851852078832834,-0.009092177870578092,-0.28853841803902475
9469,2.0,299.93997,27065.23,0.0,0.0,-0.09468999592188232,0.0,0.0,0.0,-2.3452087983790877,-2.304785388289608,-3.5771599145381967,0.014019632358629987,-0.0015264838711272286,-0.25225318215295073
9470,2.0,300.05505,27036.496,0.0,0.0,-0.09470000034225645,0.0,0.0,0.0,-2.330983780225188,-2.313102145110408,-3.574333656034267,-0.004256248946834066,-0.003246908978969967,-0.28385127506393976
9471,2.0,299.83696000000003,26838.814,0.0,0.0,-0.09471000476263058,0.0,0.0,0.0,-2.338764122443048,-2.275954471269218,-3.5436107984271565,-0.005087733428620195,-0.002008657068389018,-0.26339487012004975
9472,2.0,300.00066,26877.22,0.0,0.0,-0.09472000918300472,0.0,0.0,0.0,-2.3440388998136275,-2.285701227956148,-3.540263425396797,-0.012044569799956488,0.016151705113049183,-0.2976522379184887
9473,2.0,299.90522999999996,27119.932,0.0,0.0,-0.09473001360337907,0.0,0.0,0.0,-2.3807094341827275,-2.3047827538393477,-3.5582900566008866,-0.0008024278937034672,0.027561702719878275,-0.27150212735017376
9474,2.0,299.9233,27183.391,0.0,0.0,-0.09473998511447557,0.0,0.0,0.0,-2.3495773248602276,-2.3240211308380276,-3.5894735377034563,-0.00967079464415812,0.012244909609728488,-0.2903945402347097
9475,2.0,300.58735,26996.656000000003,0.0,0.0,-0.0947499895348497,0.0,0.0,0.0,-2.3247065945306775,-2.298277890847368,-3.5833248321216264,0.004603189023474386,-0.013831383662301288,-0.2819358777374047
9476,2.0,300.49057999999997,26790.583,0.0,0.0,-0.09475999395522394,0.0,0.0,0.0,-2.2891228722188375,-2.305405092050768,-3.5491405095228967,-0.00956174755382101,-0.0023181573511843177,-0.3008787910069247
9477,2.0,300.26777000000004,26924.709,0.0,0.0,-0.09476999837559807,0.0,0.0,0.0,-2.3436364368739078,-2.2969860982948775,-3.5438167921724864,0.014229184638311186,-0.003907561621721306,-0.2776170005111647
9478,2.0,300.25326,27132.238999999998,0.0,0.0,-0.0947800027959722,0.0,0.0,0.0,-2.355783684372748,-2.327473983203798,-3.5642654964156173,-0.0023889398620950074,-0.0014145793141831084,-0.2842858884293327
9479,2.0,300.31109,27052.403,0.0,0.0,-0.09479000721634634,0.0,0.0,0.0,-2.362567900417298,-2.3202457609654275,-3.5404412507893466,0.018610801297493085,-0.008032470861443153,-0.27272131040049774
9480,2.0,300.13425,26912.994,0.0,0.0,-0.09480001163672047,0.0,0.0,0.0,-2.3226290265256377,-2.305768646186648,-3.552480587152537,0.016588475687905085,0.003485020725969767,-0.27770333955218574
9481,2.0,299.69793,27032.556,0.0,0.0,-0.09481001605709471,0.0,0.0,0.0,-2.339095961850798,-2.3101426442183275,-3.5679834150075465,0.016608277634609384,0.003836127590996316,-0.2711112154615937
9482,2.0,299.33185,27214.449,0.0,0.0,-0.09481998756819132,0.0,0.0,0.0,-2.3506588680169678,-2.3279543650762076,-3.5938998194402965,-0.005065882791538706,-0.006686183489424934,-0.27810109087894075
9483,2.0,299.64245,27229.783,0.0,0.0,-0.09482999198856557,0.0,0.0,0.0,-2.3801013827977178,-2.313773828601698,-3.583298994244076,-0.0035951110586098364,-0.00981353442814544,-0.28132331738944977
9484,2.0,299.84536,26992.887000000002,0.0,0.0,-0.0948399964089397,0.0,0.0,0.0,-2.3526339964368974,-2.2892838776597277,-3.5632458628399863,0.0008210330805821563,0.03439421127744437,-0.29098635935311773
9485,2.0,299.76397000000003,26834.527000000002,0.0,0.0,-0.09485000082931361,0.0,0.0,0.0,-2.347007114656568,-2.274270145627988,-3.535748889576247,0.005713790571882225,0.029559244232020266,-0.28751557246057774
9486,2.0,300.30149,26945.471,0.0,0.0,-0.09486000524968796,0.0,0.0,0.0,-2.322794186291938,-2.313572698456848,-3.5543833695153264,-0.017145334638112786,0.009551597726244301,-0.2981859775411647
9487,2.0,300.24014,27051.928,0.0,0.0,-0.0948700096700621,0.0,0.0,0.0,-2.3496333575907578,-2.3060452634639477,-3.5674321056281366,-0.019683095507320284,-0.02351216966172048,-0.2778442522435927
9488,2.0,300.57116,27015.682999999997,0.0,0.0,-0.09488001409043634,0.0,0.0,0.0,-2.3353466325057677,-2.310503057278898,-3.5662434619358265,0.012855320854221386,0.007265379335437113,-0.27109855996784477
9489,2.0,300.29494,26982.846,0.0,0.0,-0.09488998560153283,0.0,0.0,0.0,-2.3484495774989274,-2.308258303007358,-3.545403541829087,0.017074692867640986,0.0006221646112803664,-0.27665871922908974
9490,2.0,300.11569,27176.92,0.0,0.0,-0.09489999002190719,0.0,0.0,0.0,-2.3621705037280774,-2.3278281141137476,-3.5711063531407565,0.014046265637508487,0.0019332042851174082,-0.28613001374383373
9491,2.0,300.12687999999997,27369.295,0.0,0.0,-0.09490999444228132,0.0,0.0,0.0,-2.380245365636928,-2.3460533423374375,-3.593283662054487,-0.015025314493633085,-0.001056627539431019,-0.2871476005542617
9492,2.0,300.5105,27241.558999999997,0.0,0.0,-0.09491999886265545,0.0,0.0,0.0,-2.332745416849048,-2.353537004926018,-3.5944712924966966,0.019943037727724582,0.029130542167710674,-0.2850993864046187
9493,2.0,299.90902,26932.515,0.0,0.0,-0.09493000328302947,0.0,0.0,0.0,-2.312818941707458,-2.290578203337468,-3.5834148087305064,-0.009407575167630381,0.011622043495006389,-0.2800020696565527
9494,2.0,299.87486,26841.514,0.0,0.0,-0.0949400077034036,0.0,0.0,0.0,-2.2847595133132077,-2.301872902202168,-3.5725175065550263,-0.01922030061689598,-0.010936623372110689,-0.27834178844019575
9495,2.0,299.88124,26982.724,0.0,0.0,-0.09495001212377796,0.0,0.0,0.0,-2.335771994897748,-2.291482934351758,-3.5748194081322064,-0.013989116305368287,-0.028769558647334374,-0.28414852211327574
9496,2.0,300.27364,27150.058999999997,0.0,0.0,-0.09495998363487446,0.0,0.0,0.0,-2.364272795035558,-2.308391140095468,-3.5802760638957367,-0.008413040810227482,0.011219884530316387,-0.28775751631945573
9497,2.0,300.15527000000003,27199.553,0.0,0.0,-0.09496998805524859,0.0,0.0,0.0,-2.3885530032068276,-2.3177568134197877,-3.561675325184986,0.011095199039260888,0.014979306859592485,-0.29555403000891173
9498,2.0,300.3953,27134.929,0.0,0.0,-0.09497999247562272,0.0,0.0,0.0,-2.348150567394418,-2.316774264797818,-3.583416024630626,-0.008876981483864862,-0.0042708531231753855,-0.2954375670424177
9499,2.0,300.47725,27209.066000000003,0.0,0.0,-0.09498999689599708,0.0,0.0,0.0,-2.3708178840565077,-2.331097973511458,-3.5689607960540064,-0.009434427308530481,-0.017643933734070683,-0.26942213767739476
9500,2.0,300.15622,27420.896,0.0,0.0,-0.0950000013163711,0.0,0.0,0.0,-2.372191851192108,-2.3435714875424978,-3.6195042441672567,-0.0033109843821687163,-0.012153491145956187,-0.26005781197570776
9501,2.0,300.40117000000004,27309.566000000003,0.0,0.0,-0.09501000573674523,0.0,0.0,0.0,-2.3781285848530183,-2.3341687292645177,-3.589128830019436,0.014120354484820486,-0.004135675629984406,-0.26098351726706775
9502,2.0,300.26092,26873.207000000002,0.0,0.0,-0.09502001015711936,0.0,0.0,0.0,-2.3227099852086277,-2.2979769555676683,-3.5480969632449066,0.0031558310685562774,-0.013339127511969388,-0.28752438773644773
9503,2.0,299.69012999999995,26873.783,0.0,0.0,-0.0950300145774935,0.0,0.0,0.0,-2.3232663608385375,-2.2922200737995078,-3.5534726603254465,0.0037797685939341165,0.002731352635963518,-0.28424391961019074
9504,2.0,299.39141,27191.067000000003,0.0,0.0,-0.09503998608859021,0.0,0.0,0.0,-2.346007340782898,-2.325451130704158,-3.5939469355699467,-0.005614178258526254,0.021108612755007878,-0.29053876625394376
9505,2.0,299.24683,27347.9,0.0,0.0,-0.09504999050896434,0.0,0.0,0.0,-2.3756629420596775,-2.3267799068852977,-3.6106359753170265,-0.00917596108954685,0.0025495604705970277,-0.27911966054196574
9506,2.0,299.28497000000004,27100.055,0.0,0.0,-0.09505999492933848,0.0,0.0,0.0,-2.3407169593607775,-2.308404818971818,-3.5886182532940465,0.0020262510418004084,-0.01991357342806668,-0.29430911040604774
9507,2.0,299.99848,27036.517999999996,0.0,0.0,-0.09506999934971272,0.0,0.0,0.0,-2.352550504628658,-2.3076926054765274,-3.5581831587153365,0.002964658841714047,-0.02069416407985498,-0.28446945894994974
9508,2.0,299.87593,27182.101000000002,0.0,0.0,-0.09508000377008685,0.0,0.0,0.0,-2.369240253650808,-2.321775971266448,-3.571663742020767,0.007382121958958712,-0.01076407093308109,-0.29010850986398073
9509,2.0,300.05537999999996,27424.514,0.0,0.0,-0.09509000819046098,0.0,0.0,0.0,-2.3950065957437476,-2.3539765528193977,-3.587384418647276,-0.0019768687783017582,0.0026282662933146874,-0.27846357096971475
9510,2.0,300.02022,27315.561,0.0,0.0,-0.09510001261083512,0.0,0.0,0.0,-2.3649105346484975,-2.345192383727468,-3.5931455560658567,-0.0057987264641647445,-0.0030359871904536073,-0.28963162370441575
9511,2.0,299.59456,26892.807,0.0,0.0,-0.09510998412193161,0.0,0.0,0.0,-2.323111029598208,-2.292397291241998,-3.5592333924439865,-0.008585740575821621,0.012583448627139688,-0.27249203216786977
9512,2.0,300.01691,26875.058999999997,0.0,0.0,-0.09511998854230597,0.0,0.0,0.0,-2.3045993555712476,-2.305229901108478,-3.5595176090970364,0.0005855116061379965,0.006995090311636664,-0.27667652203334675
9513,2.0,300.06271,27278.839,0.0,0.0,-0.0951299929626801,0.0,0.0,0.0,-2.387099394613368,-2.3085557932367182,-3.5964309181900966,0.0064901186831498444,-0.0019518620698087883,-0.2650148645124308
9514,2.0,299.94178999999997,27395.555,0.0,0.0,-0.09513999738305434,0.0,0.0,0.0,-2.3849101664473076,-2.335501963746098,-3.607152522798237,-0.0048956940623423855,-0.011768230153183889,-0.27793818052786273
9515,2.0,299.59589,27111.12,0.0,0.0,-0.09515000180342847,0.0,0.0,0.0,-2.350918665342608,-2.313130820088238,-3.5770539285777363,0.0012752051417279488,0.0005295578483207905,-0.2872625233806037
9516,2.0,300.03593,27040.744,0.0,0.0,-0.09516000622380238,0.0,0.0,0.0,-2.3223529158733878,-2.306898217398128,-3.5904597340257864,-0.01013644355613909,0.012826504021377387,-0.27947615232464873
9517,2.0,299.78399,27244.478,0.0,0.0,-0.09517001064417674,0.0,0.0,0.0,-2.3609318054808277,-2.334225673920138,-3.5864835379833666,-0.01074037303974229,0.017040913135807186,-0.29538083516931873
9518,2.0,299.98305,27370.236,0.0,0.0,-0.09518001506455087,0.0,0.0,0.0,-2.368873862414648,-2.329937498171928,-3.6210570499455064,0.001017229437117729,-0.0008052465325666451,-0.28696554990879475
9519,2.0,299.84708,27171.017000000003,0.0,0.0,-0.09518998657564737,0.0,0.0,0.0,-2.3778132614218976,-2.319995893490768,-3.561501451467826,0.016784223448223883,0.00032630144879844565,-0.2870608359481987
9520,2.0,299.6022,26871.402000000002,0.0,0.0,-0.09519999099602161,0.0,0.0,0.0,-2.3104855280521677,-2.3065417560129475,-3.551207742376917,0.026284989355376473,0.005797527080021374,-0.2909585557703737
9521,2.0,300.19991,27001.85,0.0,0.0,-0.09520999541639596,0.0,0.0,0.0,-2.342655712102118,-2.3027237283111375,-3.5625088247172463,0.006826758160598572,0.0030166800137731375,-0.3006024777046547
9522,2.0,300.52565,27371.748,0.0,0.0,-0.0952199998367701,0.0,0.0,0.0,-2.364297214362968,-2.3374411217874775,-3.618589684626996,-0.006476525730408324,0.001019133334055629,-0.2871542981374227
9523,2.0,300.36419,27337.256,0.0,0.0,-0.09523000425714423,0.0,0.0,0.0,-2.3839315695007275,-2.311845309686368,-3.6140663335305763,-0.006530543309139443,0.018471800609024782,-0.2768588462563408
9524,2.0,300.74456000000004,27069.779,0.0,0.0,-0.09524000867751825,0.0,0.0,0.0,-2.3329843412226277,-2.307913595323338,-3.587638947072396,0.00983028527614862,0.02951358312951387,-0.28113327220069373
9525,2.0,300.35826000000003,27095.974,0.0,0.0,-0.09525001309789238,0.0,0.0,0.0,-2.3778268389732378,-2.305311163766498,-3.5533615067894764,0.0034816782165398865,0.017737451652050183,-0.29420923434369073
9526,2.0,299.78843,27466.042999999998,0.0,0.0,-0.0952599846089891,0.0,0.0,0.0,-2.377312918522518,-2.3434878944092477,-3.6281903306495065,0.011685816443050289,-0.007530871633264164,-0.28600168561866873
9527,2.0,299.46022,27460.804,0.0,0.0,-0.09526998902936323,0.0,0.0,0.0,-2.3931127299818375,-2.3478511519898677,-3.6064349390774164,-0.0063388892818746646,-0.0055541583888527556,-0.28602853674631873
9528,2.0,299.07227,27147.244,0.0,0.0,-0.09527999344973737,0.0,0.0,0.0,-2.3192572341678677,-2.326809899088258,-3.6060172773861967,0.019717704077735883,-0.0008841085173897173,-0.26982435743709077
9529,2.0,299.17982,27034.327,0.0,0.0,-0.0952899978701115,0.0,0.0,0.0,-2.3334188228655077,-2.307804974912618,-3.5765365630766763,-0.009074540834037451,0.005599089039362064,-0.2977618513143067
9530,2.0,299.91267999999997,27203.127999999997,0.0,0.0,-0.09530000229048585,0.0,0.0,0.0,-2.348498314828738,-2.3245268439629374,-3.5960462884521367,0.00017993511098071284,-0.007502020451241774,-0.2780403262704438
9531,2.0,299.23507,27313.987,0.0,0.0,-0.09531000671085987,0.0,0.0,0.0,-2.392970064367758,-2.3165847870291176,-3.5932151663477265,-0.016890611668973585,0.0009382057781087011,-0.27569375049635475
9532,2.0,299.84732,27353.0,0.0,0.0,-0.095320011131234,0.0,0.0,0.0,-2.3536194834841577,-2.3419105679785774,-3.6190990454522662,-0.0027032913837190878,-0.0003970445848102496,-0.26821189149295277
9533,2.0,300.1106,27137.891,0.0,0.0,-0.09533001555160814,0.0,0.0,0.0,-2.3436523449004776,-2.318752331643038,-3.5868364529931966,-0.012413976468414089,-0.014300473875596884,-0.2863336060864267
9534,2.0,299.65199,27191.854,0.0,0.0,-0.09533998706270486,0.0,0.0,0.0,-2.334804442377258,-2.3295814420867877,-3.6012585482915465,-0.004501676460880876,-0.01095806678397699,-0.28475724224335175
9535,2.0,300.09152,27631.168999999998,0.0,0.0,-0.09534999148307899,0.0,0.0,0.0,-2.4167285500625377,-2.369464080597898,-3.6129927950496263,-0.01060089409722679,0.001064560679763959,-0.2821473227682727
9536,2.0,300.3498,27613.895,0.0,0.0,-0.09535999590345312,0.0,0.0,0.0,-2.4176339903518977,-2.3455329370860776,-3.630767836253886,0.003262604121693957,0.007863861485177702,-0.28415257511367575
9537,2.0,299.90786,27269.267000000003,0.0,0.0,-0.09537000032382725,0.0,0.0,0.0,-2.3825656070409176,-2.342826748718998,-3.5637838986430865,0.006448788819520905,0.0001976618302877038,-0.2897664974252267
9538,2.0,300.48901,27130.142999999996,0.0,0.0,-0.0953800047442015,0.0,0.0,0.0,-2.3348432498560876,-2.3336653466148376,-3.578377638508376,0.0067434083086975825,-0.013767694814015685,-0.29244582453215573
9539,2.0,300.45187999999996,27184.933999999997,0.0,0.0,-0.09539000916457563,0.0,0.0,0.0,-2.3584150948824476,-2.313510788875738,-3.5916153457648363,-0.00925868019326059,-0.01153586049450079,-0.25877048785615875
9540,2.0,300.81412,27179.249,0.0,0.0,-0.09540001358494976,0.0,0.0,0.0,-2.335924590362808,-2.313787608803058,-3.6121008309865967,-0.008685787573470492,-0.012406339602410386,-0.2854865999303337
9541,2.0,300.06001000000003,27170.805,0.0,0.0,-0.09540998509604626,0.0,0.0,0.0,-2.3590210184422475,-2.3145779438810576,-3.5856474040008464,-0.008426364846392462,-0.026579308111923473,-0.27204418575617073
9542,2.0,299.98942999999997,27184.752999999997,0.0,0.0,-0.09541998951642039,0.0,0.0,0.0,-2.3618288357943578,-2.3163961198604976,-3.5852610517377173,-0.0008426308104386862,-0.018153200327081384,-0.28867053571956375
9543,2.0,299.5749,27297.993,0.0,0.0,-0.09542999393679474,0.0,0.0,0.0,-2.387734702426068,-2.3262649731844776,-3.5839085655042364,-0.00040526315769635966,0.007898186446890311,-0.28168151143230075
9544,2.0,299.84712,27547.241,0.0,0.0,-0.09543999835716888,0.0,0.0,0.0,-2.3916582094632877,-2.3519480261191976,-3.6300673764597566,0.005550038817921184,0.0075594121528058935,-0.27284299160500675
9545,2.0,299.65106000000003,27656.903,0.0,0.0,-0.09545000277754312,0.0,0.0,0.0,-2.3940353955228977,-2.376984017540058,-3.6359883034191065,-0.007242768152830562,0.017511179732468882,-0.2910344482028637
9546,2.0,299.96345,27362.49,0.0,0.0,-0.09546000719791725,0.0,0.0,0.0,-2.3598762015266477,-2.3450724149156277,-3.6125650008574066,-0.0031210213679958273,-0.011643371396361289,-0.28018176956178775
9547,2.0,300.37908999999996,27146.464,0.0,0.0,-0.09547001161829116,0.0,0.0,0.0,-2.3699729347981178,-2.312049378256508,-3.5698248957392864,-0.002193227565529708,0.004696748180732955,-0.2947202366341227
9548,2.0,299.9184,27237.495,0.0,0.0,-0.09548001603866552,0.0,0.0,0.0,-2.381728561133308,-2.318935831236148,-3.578853866055377,-0.017728306056647585,0.0074020820740036235,-0.27496231564666773
9549,2.0,299.9346,27281.336,0.0,0.0,-0.09548998754976201,0.0,0.0,0.0,-2.386426191246928,-2.325875277196018,-3.5805435619221364,-0.007993236702996042,0.003866215546090766,-0.2978447351724867
9550,2.0,300.56494,27151.837000000003,0.0,0.0,-0.09549999197013614,0.0,0.0,0.0,-2.3450715029905376,-2.309283205483508,-3.5991257581560565,-0.015693790035106486,-0.0016527539840141185,-0.28160723006746974
9551,2.0,300.42222000000004,27197.751,0.0,0.0,-0.09550999639051039,0.0,0.0,0.0,-2.333561184504558,-2.320292573120048,-3.6135834185329165,0.008686287916369871,-0.015506521151624486,-0.29561982033790474
9552,2.0,300.12692999999996,27414.724,0.0,0.0,-0.09552000081088474,0.0,0.0,0.0,-2.344280965262518,-2.3469636462272776,-3.6421470401769263,0.009067778909495101,-0.018479344256019284,-0.28063099399362273
9553,2.0,299.94392999999997,27657.658,0.0,0.0,-0.09553000523125887,0.0,0.0,0.0,-2.411677903614078,-2.3679363020971183,-3.6276232145685365,0.0031585037183450466,-0.019192543643656582,-0.2962763962702037
9554,2.0,299.79618,27664.209,0.0,0.0,-0.095540009651633,0.0,0.0,0.0,-2.4075639055580575,-2.3666623427463875,-3.6350023097467967,0.014339641058212385,-0.00993177392603977,-0.29012803519340774
9555,2.0,299.6973,27384.037,0.0,0.0,-0.09555001407200703,0.0,0.0,0.0,-2.4036326978200777,-2.3410702796706477,-3.5793604911053767,0.004791465888155865,0.02809416666067837,-0.27995732453213673
9556,2.0,299.78785,27171.736,0.0,0.0,-0.09555998558310363,0.0,0.0,0.0,-2.3340013403479976,-2.3210914194988876,-3.6044365059051864,0.0033147654262418768,0.03767258704224486,-0.2779091205149947
9557,2.0,299.66052,27288.904,0.0,0.0,-0.09556999000347788,0.0,0.0,0.0,-2.371450760068968,-2.3321392906392275,-3.5915553613589166,-0.00915312081109269,0.017493282695952583,-0.28820690287130674
9558,2.0,300.31651,27452.897,0.0,0.0,-0.09557999442385201,0.0,0.0,0.0,-2.366120456592908,-2.339879913453168,-3.6389949204408367,-0.011536672107830888,-0.011245282657322988,-0.2719183603587528
9559,2.0,300.49065,27287.22,0.0,0.0,-0.09558999884422614,0.0,0.0,0.0,-2.4048595410411577,-2.3108156449347477,-3.578958332140686,0.003279069334493947,-0.018166725189416182,-0.28495588992545673
9560,2.0,300.17711,27191.083,0.0,0.0,-0.09560000326460028,0.0,0.0,0.0,-2.344872601995908,-2.324030148763918,-3.5965076212226665,0.015857979107810685,-0.01089170903492799,-0.2907532003726067
9561,2.0,300.45871,27371.092999999997,0.0,0.0,-0.09561000768497463,0.0,0.0,0.0,-2.3977504770145477,-2.342303911667398,-3.5800743258008265,0.012870270346196788,0.011921253209786091,-0.2982586174408337
9562,2.0,300.33409,27588.717,0.0,0.0,-0.09562001210534865,0.0,0.0,0.0,-2.3656059281921276,-2.3686588507434276,-3.652016400125956,0.003859794073582017,0.02132844243045338,-0.2791669185266297
9563,2.0,299.93897999999996,27511.588,0.0,0.0,-0.09562998361644526,0.0,0.0,0.0,-2.363382249522668,-2.3712874241528477,-3.6281661139721164,-0.007674444207508673,0.015841434760177884,-0.2997845619589327
9564,2.0,300.32225,27342.513,0.0,0.0,-0.0956399880368195,0.0,0.0,0.0,-2.3466882448500974,-2.345403443723298,-3.6193495208769866,-0.005280515709871325,-0.0038841798624137066,-0.27226632057559375
9565,2.0,300.39862,27340.716,0.0,0.0,-0.09564999245719363,0.0,0.0,0.0,-2.3890429096301773,-2.3369114959602078,-3.5849406620560966,0.004267319514776646,-0.00892423693540361,-0.2996953959501327
9566,2.0,299.94534,27444.644,0.0,0.0,-0.09565999687756777,0.0,0.0,0.0,-2.3824750224819775,-2.3519043550398875,-3.608106903067426,0.01099602921222359,-0.006795867306124884,-0.2813918637587148
9567,2.0,299.39547000000005,27491.197999999997,0.0,0.0,-0.0956700012979419,0.0,0.0,0.0,-2.393328349603118,-2.3447193985807875,-3.618590191252047,0.012350737503172888,0.0030408802765115174,-0.27691502084188474
9568,2.0,299.21925,27359.621,0.0,0.0,-0.09568000571831603,0.0,0.0,0.0,-2.361527697864638,-2.332629906337648,-3.6224840100613362,-0.008261108922657972,0.018108066114626984,-0.26702446370076277
9569,2.0,299.78114,27314.595,0.0,0.0,-0.09569001013869027,0.0,0.0,0.0,-2.352252406449238,-2.3329818080973777,-3.6177207213412363,-0.005222992488444225,0.0054284293515192645,-0.28061545073708877
9570,2.0,300.4406,27444.991,0.0,0.0,-0.0957000145590644,0.0,0.0,0.0,-2.375945233537538,-2.3470072159815776,-3.619639411730596,-0.01025213442605689,0.007047850750968713,-0.28242127519780974
9571,2.0,299.87902,27527.569,0.0,0.0,-0.09570998607016112,0.0,0.0,0.0,-2.402929806225708,-2.3585006131908877,-3.6062632945104762,-0.007153282463624014,-0.004973288451025355,-0.29478125455514476
9572,2.0,300.54432,27509.111,0.0,0.0,-0.09571999049053503,0.0,0.0,0.0,-2.3998794167996578,-2.3499329756453275,-3.6122703477283262,-0.003101510224070227,0.000100650054724137,-0.3079113749159867
9573,2.0,300.70991000000004,27367.046000000002,0.0,0.0,-0.09572999491090917,0.0,0.0,0.0,-2.3921849981902774,-2.3380091497935376,-3.588704582202567,-0.005384986253481765,-0.002906600117609097,-0.2927094620756747
9574,2.0,300.39512,27331.943,0.0,0.0,-0.09573999933128352,0.0,0.0,0.0,-2.3556777997372977,-2.3395529376458977,-3.6129976586501065,0.01068651879692729,0.012788735123899886,-0.29252101782207673
9575,2.0,300.13441,27495.153,0.0,0.0,-0.09575000375165765,0.0,0.0,0.0,-2.3640232315359273,-2.349199787872968,-3.6446170399456963,0.007488450296627504,0.0069519848285324835,-0.2612192195053297
9576,2.0,300.03457000000003,27597.679,0.0,0.0,-0.0957600081720319,0.0,0.0,0.0,-2.3935382950238377,-2.3535619308784774,-3.6419048734030266,-0.00998096802899485,-0.0032814198720759265,-0.27852440650571875
9577,2.0,299.40439,27514.541,0.0,0.0,-0.09577001259240603,0.0,0.0,0.0,-2.410791917726638,-2.324575682617758,-3.628365825566826,0.0036434102590765963,-0.025602179364738374,-0.27094841656802676
9578,2.0,300.10873,27364.539,0.0,0.0,-0.09577998410350275,0.0,0.0,0.0,-2.3942226441413776,-2.3250123934108577,-3.5989015259089263,-0.010190309957955291,-0.01033695359192789,-0.2989574155047997
9579,2.0,300.13448999999997,27350.662,0.0,0.0,-0.09578998852387688,0.0,0.0,0.0,-2.3780293876682275,-2.325214638130818,-3.6106743774958168,0.003858914673820226,-0.011659523616205389,-0.28850834477605675
9580,2.0,300.23345,27487.063,0.0,0.0,-0.09579999294425079,0.0,0.0,0.0,-2.3637801528369375,-2.3436092817712275,-3.647991264103706,-0.02638331210533018,0.004467679792200665,-0.3007329437875307
9581,2.0,300.25512000000003,27623.5,0.0,0.0,-0.09580999736462503,0.0,0.0,0.0,-2.3906694800157076,-2.3605170822148978,-3.6456677802993966,-0.012844947199697589,0.013165564862590087,-0.27736131698093075
9582,2.0,299.92697000000004,27381.031000000003,0.0,0.0,-0.09582000178499916,0.0,0.0,0.0,-2.365920339698158,-2.344275595036988,-3.612953784920777,0.003189552133209287,0.016845954697316284,-0.29858282707533074
9583,2.0,299.42953,27332.767999999996,0.0,0.0,-0.09583000620537352,0.0,0.0,0.0,-2.3758544463285776,-2.3317856663543277,-3.6008388601001267,0.01886124125845958,0.014135244195039986,-0.2869866863058807
9584,2.0,299.11464,27645.232000000004,0.0,0.0,-0.09584001062574765,0.0,0.0,0.0,-2.4142734450702377,-2.356778189345898,-3.6324084908158065,0.013848980776787987,-0.014378595458306885,-0.3012083100719457
9585,2.0,298.90141,27711.847999999998,0.0,0.0,-0.09585001504612156,0.0,0.0,0.0,-2.4128525644550076,-2.351583458733218,-3.6592738039672064,0.0058697864029528144,-0.03473074709940786,-0.2817657530456147
9586,2.0,299.1307,27436.394,0.0,0.0,-0.09585998655721828,0.0,0.0,0.0,-2.3600454142933476,-2.347929172247568,-3.632004102700896,-0.01055098443705109,-0.012983223414344386,-0.28369629846114475
9587,2.0,299.45477999999997,27281.766,0.0,0.0,-0.09586999097759241,0.0,0.0,0.0,-2.3583756794535575,-2.327373266143858,-3.607226692705557,-4.1679124858909357e-05,-0.014820315759901287,-0.2721988786489377
9588,2.0,300.0005,27392.224,0.0,0.0,-0.09587999539796666,0.0,0.0,0.0,-2.3603871835520778,-2.3519893667232776,-3.6141755618913565,-0.026450514904962575,0.005505213545422275,-0.2815732051291117
9589,2.0,300.15642,27561.849,0.0,0.0,-0.09588999981834079,0.0,0.0,0.0,-2.3937133846411176,-2.3722148519693778,-3.612185640019967,-0.015380253977162885,-0.0006222071171220615,-0.29049659478478174
9590,2.0,300.1778,27601.243,0.0,0.0,-0.09590000423871492,0.0,0.0,0.0,-2.392382379309758,-2.3791554125043577,-3.6185509784731766,-0.008783784766167061,0.009796511421165402,-0.3009039196094047
9591,2.0,299.80556,27384.522999999997,0.0,0.0,-0.09591000865908905,0.0,0.0,0.0,-2.3631676431514874,-2.3483067092348273,-3.6127367467493565,-0.005238462081695955,-0.00026107137618323873,-0.3089712953155927
9592,2.0,300.17776000000003,27393.257999999998,0.0,0.0,-0.0959200130794634,0.0,0.0,0.0,-2.353572975304568,-2.346794838760618,-3.6264986082825463,0.0053588005271724345,-0.0014889717312250685,-0.3014281853436457
9593,2.0,299.99176,27608.965,0.0,0.0,-0.0959299845905599,0.0,0.0,0.0,-2.4077133599478078,-2.3494834979009678,-3.6352391062951663,0.00991899167470326,0.0054353947366816945,-0.2833017388722047
9594,2.0,300.31425,27712.069,0.0,0.0,-0.09593998901093403,0.0,0.0,0.0,-2.4109479582420374,-2.360766949689558,-3.6520620977054663,-6.496281776883094e-05,0.007821003133772913,-0.26993279546279275
9595,2.0,300.52761,27456.471,0.0,0.0,-0.09594999343130828,0.0,0.0,0.0,-2.393466151616718,-2.333729485346168,-3.6188859589562363,0.009201298624197472,-0.0005318425651762745,-0.2705367127873948
9596,2.0,300.04405,27421.894,0.0,0.0,-0.09595999785168241,0.0,0.0,0.0,-2.3750275329219677,-2.342630684824648,-3.6179127322351867,-0.0032773319145474765,-0.006102793801248854,-0.28309889633468577
9597,2.0,299.26633,27675.153,0.0,0.0,-0.09597000227205654,0.0,0.0,0.0,-2.4028917080219476,-2.3664765126780476,-3.6431873440545965,0.026636171707535475,-0.01114073145900459,-0.2811537499852147
9598,2.0,299.17107000000004,27728.046000000002,0.0,0.0,-0.09598000669243067,0.0,0.0,0.0,-2.409692237393108,-2.3720716797302477,-3.646869697568017,-0.0018160654808067082,-0.0014431968407324386,-0.2924185782369667
9599,2.0,299.3411,27545.869,0.0,0.0,-0.09599001111280481,0.0,0.0,0.0,-2.382263455861098,-2.3592311665129877,-3.6317619359269964,0.0051673871468064046,0.0036534400165164566,-0.2790833456583818
9600,2.0,299.8585,27382.828999999998,0.0,0.0,-0.09600001553317905,0.0,0.0,0.0,-2.362203231706308,-2.355389124783808,-3.606104011594757,0.0014533787883373188,0.012439556980438688,-0.2996703281426587
9601,2.0,300.25754,27414.529,0.0,0.0,-0.09600998704427566,0.0,0.0,0.0,-2.374572077002018,-2.350062570333118,-3.6086976278757263,0.0008997853202868971,0.016195654836136684,-0.2846263404629327
9602,2.0,300.16084,27682.519,0.0,0.0,-0.0960199914646499,0.0,0.0,0.0,-2.404217951077838,-2.3584959522404274,-3.652080437532276,-0.00045112197569477255,0.0007478185262514423,-0.28803451863179375
9603,2.0,300.3802,27770.894,0.0,0.0,-0.09602999588502381,0.0,0.0,0.0,-2.4003784424739076,-2.372105319633568,-3.6691744733443263,0.0011945598569938788,-0.0030450074468188373,-0.2796088272927427
9604,2.0,300.33036,27533.07,0.0,0.0,-0.09604000030539794,0.0,0.0,0.0,-2.3840168851591477,-2.348684955497158,-3.6366638372607767,0.013880543517402985,0.014809158863050186,-0.28766262544759075
9605,2.0,300.21464,27609.495,0.0,0.0,-0.0960500047257723,0.0,0.0,0.0,-2.3862717719316877,-2.3634008933245076,-3.642924304328637,0.024048009751853776,0.008606058469476843,-0.2766510995883377
9606,2.0,300.066,27743.932999999997,0.0,0.0,-0.09606000914614643,0.0,0.0,0.0,-2.4135013484940377,-2.3747216327167777,-3.6452397834571566,-0.0013996353950832588,0.024223612073684377,-0.2863025803683647
9607,2.0,300.22143,27618.427000000003,0.0,0.0,-0.09607001356652067,0.0,0.0,0.0,-2.385321545987908,-2.358747643565268,-3.651242783674607,-0.012647717054482487,0.006600744417142754,-0.2748624294518097
9608,2.0,299.96233,27421.542999999998,0.0,0.0,-0.09607998507761717,0.0,0.0,0.0,-2.3606210416751576,-2.3514311672431876,-3.6234122484779463,-0.006616460128843774,0.003869539310393796,-0.30392286788485173
9609,2.0,299.53114,27395.836,0.0,0.0,-0.09608998949799152,0.0,0.0,0.0,-2.3506834899943976,-2.3553763578325477,-3.621590120823117,-0.011345601509973689,-0.012536720572277988,-0.29641023647591275
9610,2.0,300.26993,27511.595,0.0,0.0,-0.09609999391836566,0.0,0.0,0.0,-2.4051811466228976,-2.333967599119668,-3.623689271055287,0.003900850764983996,-0.017601629529145582,-0.3005204551090597
9611,2.0,300.04509,27681.632999999998,0.0,0.0,-0.09610999833873957,0.0,0.0,0.0,-2.4142558145184974,-2.3470690242376775,-3.6532004841928165,-0.018911618026931382,-0.015890416283261984,-0.2854061174748907
9612,2.0,299.38265,27697.585,0.0,0.0,-0.09612000275911381,0.0,0.0,0.0,-2.4365337391671575,-2.3492928042321477,-3.6335478905532566,0.0009187245959885583,0.01092323732503959,-0.28071026054894577
9613,2.0,299.10778999999997,27706.481,0.0,0.0,-0.09613000717948794,0.0,0.0,0.0,-2.401586135268098,-2.362230690784018,-3.658261668442317,0.015738529080021886,0.018851042896203082,-0.2619060814831177
9614,2.0,299.72073,27641.064,0.0,0.0,-0.0961400115998623,0.0,0.0,0.0,-2.397586533148368,-2.3573383140011774,-3.6472686141323867,0.013930496747332988,0.01190820964124879,-0.28530918997032473
9615,2.0,299.58486,27731.027000000002,0.0,0.0,-0.09615001602023643,0.0,0.0,0.0,-2.4061410997676376,-2.3570885478515278,-3.666310116636636,0.01099402804327609,-0.008465171818597413,-0.27126188575146376
9616,2.0,299.68146,27810.139,0.0,0.0,-0.09615998753133292,0.0,0.0,0.0,-2.4328132874499775,-2.3735898323550777,-3.6471847170241065,-0.0027299768449777374,-0.003386393494361017,-0.2947938087238837
9617,2.0,299.90181,27548.783,0.0,0.0,-0.09616999195170706,0.0,0.0,0.0,-2.390978723946228,-2.3647619921838374,-3.6184015240834264,-0.013089140473797589,-0.004025552569366105,-0.3036419341621257
9618,2.0,300.31895,27315.82,0.0,0.0,-0.09617999637208119,0.0,0.0,0.0,-2.3652210958041477,-2.335150467286408,-3.6029555395590265,-0.004737839322638335,0.005196368531466645,-0.2988162292358657
9619,2.0,300.63631000000004,27568.557,0.0,0.0,-0.09619000079245543,0.0,0.0,0.0,-2.3818895665741975,-2.3694382427203475,-3.628825030512146,-0.018047447414144383,0.007377978070024743,-0.2935554752466697
9620,2.0,299.75822999999997,27741.729,0.0,0.0,-0.09620000521282956,0.0,0.0,0.0,-2.397289954844098,-2.374801578149668,-3.6607014733581065,0.007214731319913544,0.005074725931786456,-0.28615378459117974
9621,2.0,299.51279,27749.375,0.0,0.0,-0.0962100096332037,0.0,0.0,0.0,-2.399277444915248,-2.387606120988378,-3.6482334308776063,-0.0027481494855212374,0.0020527972824953182,-0.2901845745489877
9622,2.0,299.57986,27700.124,0.0,0.0,-0.09622001405357783,0.0,0.0,0.0,-2.415918253957568,-2.367429170422068,-3.6367987008490865,-0.006313282425347464,-0.02200026271050688,-0.2853595181027917
9623,2.0,299.62957,27623.357999999997,0.0,0.0,-0.09622998556467455,0.0,0.0,0.0,-2.4116091039322876,-2.3557835830477374,-3.629418389770707,0.004912747973450475,-0.024150953935513576,-0.29452469962982475
9624,2.0,299.56124,27710.153,0.0,0.0,-0.09623998998504868,0.0,0.0,0.0,-2.4145698207244877,-2.368084135286708,-3.6405406334683867,-0.015093799054641987,-0.006200928795959025,-0.27615802169217474
9625,2.0,299.91791,27829.527000000002,0.0,0.0,-0.09624999440542281,0.0,0.0,0.0,-2.398598668673258,-2.3763550932029878,-3.6845275428345565,0.0004526780846683486,-0.0025920486817402875,-0.29049646306226873
9626,2.0,300.4539,27606.49,0.0,0.0,-0.09625999882579706,0.0,0.0,0.0,-2.3722953040273183,-2.3499603333980277,-3.6694278871943364,-0.0032597760393398467,-0.005961147010144404,-0.2701638063530918
9627,2.0,301.44191,27400.927000000003,0.0,0.0,-0.09627000324617119,0.0,0.0,0.0,-2.365572896238868,-2.3372232730159777,-3.6264015389229662,0.015773611851484286,0.0045629520514033056,-0.29943370384680573
9628,2.0,300.8366,27677.237,0.0,0.0,-0.09628000766654532,0.0,0.0,0.0,-2.4172902959179776,-2.3574874644158976,-3.6384110857332166,0.026145385783098676,-0.0016507296116393282,-0.2852977807741987
9629,2.0,300.42047,27889.992000000002,0.0,0.0,-0.09629001208691945,0.0,0.0,0.0,-2.447866434910608,-2.381412528427118,-3.648582292887036,0.0015293627173113486,-0.0026203021475286873,-0.3051744546733737
9630,2.0,299.8416,27819.837000000003,0.0,0.0,-0.09629998359801595,0.0,0.0,0.0,-2.412048651825668,-2.3841960277768273,-3.6602911070676063,-0.016964012519467685,-0.009193774228954872,-0.2787232568378437
9631,2.0,299.6514,27619.677000000003,0.0,0.0,-0.0963099880183903,0.0,0.0,0.0,-2.3721297389609775,-2.3577544558172474,-3.6658081525370965,-0.012579585104508387,0.01035603815756139,-0.2845164636220887
9632,2.0,300.18125,27678.857999999997,0.0,0.0,-0.09631999243876443,0.0,0.0,0.0,-2.3922564323223274,-2.362031485814358,-3.659393671454037,-0.005456046698894885,0.02288131204345968,-0.25536013119958273
9633,2.0,300.3575,27786.851000000002,0.0,0.0,-0.09632999685913868,0.0,0.0,0.0,-2.4255111992793177,-2.360807986318608,-3.660189680732597,-0.004354608173791365,0.0028954777725864068,-0.27439166332284876
9634,2.0,299.76266,27794.042999999998,0.0,0.0,-0.09634000127951259,0.0,0.0,0.0,-2.4269330931446476,-2.3759879926917575,-3.6457738675848668,0.007092727496572703,-0.015454077352948684,-0.2857895515777327
9635,2.0,299.94203,27707.132,0.0,0.0,-0.09635000569988672,0.0,0.0,0.0,-2.415802135496108,-2.3633556010450376,-3.6431184430477965,0.0027561651044123174,-0.00983120804301469,-0.3090872212595337
9636,2.0,299.92708999999996,27635.388,0.0,0.0,-0.09636001012026107,0.0,0.0,0.0,-2.3908712181106178,-2.3640847358169976,-3.645512145084037,0.02556826892364168,-0.01014322929205879,-0.3042632793884477
9637,2.0,299.33873,27678.27,0.0,0.0,-0.09637001454063521,0.0,0.0,0.0,-2.360828859270668,-2.3924151072879876,-3.6602588857144265,0.01010399037133621,0.0016949856402320583,-0.3043810089175667
9638,2.0,299.32743999999997,27828.267999999996,0.0,0.0,-0.0963799860517317,0.0,0.0,0.0,-2.407230140975118,-2.383147111273308,-3.6687214492246163,0.015499984675229384,0.0037435252458071764,-0.2909623655907497
9639,2.0,299.09612000000004,27780.193,0.0,0.0,-0.09638999047210595,0.0,0.0,0.0,-2.4044953789552177,-2.379899138077758,-3.660090483547807,-0.013855112966393185,0.017365447010336186,-0.2868030651227587
9640,2.0,299.86027,27638.576,0.0,0.0,-0.0963999948924803,0.0,0.0,0.0,-2.4203991498747977,-2.3622882433896977,-3.6187495754927763,0.003560400149934137,0.01978317219319708,-0.2944409646415607
9641,2.0,300.09556000000003,27713.263,0.0,0.0,-0.09640999931285421,0.0,0.0,0.0,-2.4143839906561477,-2.3578247753741874,-3.651931084467537,-0.008317064544855363,0.02068007382396438,-0.2733882417488187
9642,2.0,300.03722999999997,27767.082000000002,0.0,0.0,-0.09642000373322834,0.0,0.0,0.0,-2.4108693300342776,-2.374984368467708,-3.654645784135457,-0.0005449334524932445,0.022017224517180876,-0.2841601542244237
9643,2.0,299.58381,27845.439,0.0,0.0,-0.09643000815360259,0.0,0.0,0.0,-2.3810900109202877,-2.3834101509992682,-3.699817993468607,-0.01022344323622529,0.017832133794394585,-0.26414765414934377
9644,2.0,300.06325,27843.683999999997,0.0,0.0,-0.09644001257397672,0.0,0.0,0.0,-2.4301539112375177,-2.366551999810498,-3.667078666837486,0.0022049261458842676,0.014496991705991688,-0.27693005747336874
9645,2.0,300.07227,27722.371,0.0,0.0,-0.09644998408507333,0.0,0.0,0.0,-2.416421332632218,-2.356709896289158,-3.6537772261497365,-0.015078065307089186,0.011718456268521589,-0.2846296436582587
9646,2.0,300.25777999999997,27619.841,0.0,0.0,-0.09645998850544757,0.0,0.0,0.0,-2.414668409959218,-2.3525846511570276,-3.628488834128967,0.013028797377342187,-0.01176207364557629,-0.31024256955355767
9647,2.0,300.0677,27758.749,0.0,0.0,-0.0964699929258217,0.0,0.0,0.0,-2.4076771869192375,-2.3812604395871078,-3.649028832206107,-0.01003905096977719,-0.001165653655491059,-0.2992165136878707
9648,2.0,300.09758,27920.006,0.0,0.0,-0.09647999734619583,0.0,0.0,0.0,-2.4263067019328277,-2.3731629500879476,-3.6875151107544064,0.014686440090438787,-0.007488467217904174,-0.3037286177081807
9649,2.0,299.89826,27706.498,0.0,0.0,-0.09649000176656997,0.0,0.0,0.0,-2.3812792860389678,-2.368763620803768,-3.6720408565522167,0.008042537906486692,-0.0012637898661013488,-0.2932957488485367
9650,2.0,299.61695,27588.766,0.0,0.0,-0.09650000618694421,0.0,0.0,0.0,-2.3995247792646577,-2.3684572139735276,-3.6183139792747867,0.015841111533395985,-0.002140694803495128,-0.2917628129047477
9651,2.0,299.18867,27815.752999999997,0.0,0.0,-0.09651001060731834,0.0,0.0,0.0,-2.409662954465218,-2.373945685790198,-3.6716856110671565,0.004320362448236576,0.015687940542279184,-0.26940252115545876
9652,2.0,299.03107,27882.908,0.0,0.0,-0.09652001502769247,0.0,0.0,0.0,-2.454947127934418,-2.3862610314806276,-3.6344995350471767,-0.005082942984797415,0.011641591115935589,-0.2868981586446437
9653,2.0,299.32945,27723.761000000002,0.0,0.0,-0.09652998653878919,0.0,0.0,0.0,-2.3943599395299278,-2.373505124646718,-3.6594661188361863,-0.019737048035394982,0.004862418017133295,-0.2975800539813647
9654,2.0,299.82445,27587.39,0.0,0.0,-0.09653999095916332,0.0,0.0,0.0,-2.3824579998802977,-2.3457798661354476,-3.657639836855947,-0.020271892100679978,-0.0071877693427026025,-0.2882706869651017
9655,2.0,300.48465,27660.354,0.0,0.0,-0.09654999537953746,0.0,0.0,0.0,-2.3641403632474876,-2.3813298472189577,-3.662586625169156,-0.024911136717037773,0.000952743667628479,-0.30856546838554066
9656,2.0,300.12205,27822.825,0.0,0.0,-0.09655999979991159,0.0,0.0,0.0,-2.4336155788791576,-2.351861494560658,-3.671966889294916,0.0005776904502061085,-0.003776267004238536,-0.28449493205746373
9657,2.0,300.33982000000003,27978.95,0.0,0.0,-0.09657000422028583,0.0,0.0,0.0,-2.446696131045108,-2.382895825248508,-3.675310310649887,0.0013162243428762287,0.002555946580677288,-0.3073260811282227
9658,2.0,300.42422999999997,27801.32,0.0,0.0,-0.09658000864065996,0.0,0.0,0.0,-2.434893895205318,-2.3630887109686975,-3.6529244748655763,0.020535300649676378,-0.001967284445605858,-0.2871876948607187
9659,2.0,299.94802000000004,27649.132,0.0,0.0,-0.0965900130610341,0.0,0.0,0.0,-2.378957626084838,-2.3635718286163776,-3.6621162744727362,0.018746005337836682,0.0017136792939769787,-0.2971080516872817
9660,2.0,299.55647,27877.131,0.0,0.0,-0.09659998457213059,0.0,0.0,0.0,-2.3998723240489577,-2.398285270417327,-3.6757940362476265,0.00971505695490147,-0.00956172323581861,-0.2834981270065867
9661,2.0,299.46047999999996,28073.857999999997,0.0,0.0,-0.09660998899250473,0.0,0.0,0.0,-2.441875492369348,-2.390537858827718,-3.701338476568666,0.0017994831362951585,-0.023104391211975876,-0.27938983354862973
9662,2.0,298.83625,27856.312,0.0,0.0,-0.09661999341287908,0.0,0.0,0.0,-2.431069889327918,-2.384771148533588,-3.651782238027847,-0.021742668190584277,-0.02241827194651118,-0.27414395407090175
9663,2.0,299.29202000000004,27635.529,0.0,0.0,-0.09662999783325321,0.0,0.0,0.0,-2.4029788475305476,-2.362563036816818,-3.6349688724934963,-0.008009506966476792,0.0024150953935513577,-0.2852456794540567
9664,2.0,299.13715,27842.903,0.0,0.0,-0.09664000225362745,0.0,0.0,0.0,-2.4124825255184876,-2.3837646872092577,-3.667300163309346,-0.01871403932368188,0.01826014380888588,-0.2859045655965837
9665,2.0,299.45108,27998.539,0.0,0.0,-0.09665000667400137,0.0,0.0,0.0,-2.396847873825468,-2.4093158149809577,-3.7046929423497263,-0.009638696907490321,0.014808325971467987,-0.3087509235513437
9666,2.0,300.21268,28047.993,0.0,0.0,-0.0966600110943755,0.0,0.0,0.0,-2.413473281466268,-2.386558420384978,-3.725857913088547,-0.016384256143500184,-0.01819077164078938,-0.28966732050543875
9667,2.0,300.59493,27776.36,0.0,0.0,-0.09667001551474985,0.0,0.0,0.0,-2.4012996894648273,-2.3609799348605773,-3.6810401386403764,0.01027837253739639,-0.00970270199113213,-0.2887565302555507
9668,2.0,300.00591000000003,27623.071,0.0,0.0,-0.09667998702584635,0.0,0.0,0.0,-2.402375659746018,-2.366971080051858,-3.627377096119247,0.01137080509296109,-0.01011855148454828,-0.2860151415799967
9669,2.0,300.27721,27836.572,0.0,0.0,-0.09668999144622048,0.0,0.0,0.0,-2.429701292417848,-2.3756832070616776,-3.656238410642636,0.011449753487752689,-0.0016172184924070387,-0.3019442437520767
9670,2.0,300.25408,28083.751,0.0,0.0,-0.09669999586659472,0.0,0.0,0.0,-2.4628264646870477,-2.4109571788179474,-3.662975206582507,-0.0017829939094677982,-0.0036675503347590364,-0.28244440769759277
9671,2.0,300.11907,27884.665,0.0,0.0,-0.09671000028696908,0.0,0.0,0.0,-2.402753602033318,-2.3962233064638276,-3.6772649714177965,-0.001078963118010369,0.010776952381602388,-0.2993322167167897
9672,2.0,299.66783,27665.724,0.0,0.0,-0.09672000470734299,0.0,0.0,0.0,-2.382529130037318,-2.376154672333208,-3.6510055818261966,0.0021550904529658676,0.014857982319118685,-0.28420132257598674
9673,2.0,299.20637,27833.359,0.0,0.0,-0.09673000912771712,0.0,0.0,0.0,-2.392808045676768,-2.4031863611510276,-3.664651831522976,-0.007565564202113053,-0.012974468933480386,-0.29592570027809273
9674,2.0,299.72027,28048.994,0.0,0.0,-0.09674001354809136,0.0,0.0,0.0,-2.4657201043226276,-2.374415529861568,-3.686058259760626,0.0026737139040250175,-0.018262816762649684,-0.2868988071247077
9675,2.0,300.13902,27878.091,0.0,0.0,-0.09674998505918797,0.0,0.0,0.0,-2.432524815146508,-2.3698550938114873,-3.6718637404347367,-0.007202315257163174,0.0016099605819407383,-0.2830214029670377
9676,2.0,299.83964,27561.609,0.0,0.0,-0.09675998947956221,0.0,0.0,0.0,-2.381962621906408,-2.3497412687264077,-3.6463369306654365,0.013769043449898788,0.027829323349540375,-0.2978289588684297
9677,2.0,299.65615,27646.882999999998,0.0,0.0,-0.09676999389993635,0.0,0.0,0.0,-2.3536048926827178,-2.377851460950668,-3.672505938348117,-0.015063981130699185,0.014133232893591486,-0.2890299557950357
9678,2.0,300.39564,27879.8,0.0,0.0,-0.09677999832031048,0.0,0.0,0.0,-2.4232882298849274,-2.376953214737018,-3.6745216980970565,-0.005771947885221905,-0.0002973311997568047,-0.30712796033616974
9679,2.0,299.79453,28104.292,0.0,0.0,-0.09679000274068461,0.0,0.0,0.0,-2.4592379381328877,-2.3846013278168274,-3.6991638392040462,0.004644729947099155,-0.007529819778335353,-0.28390516983675873
9680,2.0,299.9012,27912.023999999998,0.0,0.0,-0.09680000716105874,0.0,0.0,0.0,-2.458805077690168,-2.384425832899508,-3.6413274221710363,0.014099266723739286,-0.0037133054668747165,-0.3068868777398767
9681,2.0,300.05683,27748.299,0.0,0.0,-0.09681001158143299,0.0,0.0,0.0,-2.4044149268972776,-2.387946370371958,-3.6424289263547465,0.013735849376622788,-0.023417450029122377,-0.3029729965786067
9682,2.0,299.95822000000004,28025.202999999998,0.0,0.0,-0.09682001600180712,0.0,0.0,0.0,-2.432144947684018,-2.3961677803583474,-3.6906491946387168,-0.0022430524166720377,-0.016799655247246883,-0.3080908823037027
9683,2.0,300.10951,28321.515,0.0,0.0,-0.09682998751290361,0.0,0.0,0.0,-2.450493691094898,-2.4217279260559375,-3.7368116532945965,0.00012086293412574289,0.024707496751690077,-0.2742317015295617
9684,2.0,299.92152999999996,28061.928,0.0,0.0,-0.09683999193327797,0.0,0.0,0.0,-2.4388071684165276,-2.3900902049335375,-3.7012280323077666,-0.0068947002275039325,0.028320876304302873,-0.29257971540036976
9685,2.0,300.08157,27577.658,0.0,0.0,-0.0968499963536521,0.0,0.0,0.0,-2.362565468617058,-2.363835476292398,-3.6565183716452667,-0.008759656444185783,0.014140303352789287,-0.2925597847709027
9686,2.0,300.74531,27704.225,0.0,0.0,-0.09686000077402623,0.0,0.0,0.0,-2.411250616046908,-2.366779677107968,-3.6433621296968464,-0.00792140284378159,-0.0014159748635458388,-0.28438188374380674
9687,2.0,300.69361000000004,28036.803,0.0,0.0,-0.09687000519440037,0.0,0.0,0.0,-2.4457574561524678,-2.382727423081888,-3.694003255119737,0.006062125488610203,0.016142367000127583,-0.2898014342886747
9688,2.0,300.10101000000003,28058.596,0.0,0.0,-0.09688000961477439,0.0,0.0,0.0,-2.4349408086849476,-2.3992100637835976,-3.6949615870643164,-0.007558442168485163,0.01974308092649038,-0.2912487404665127
9689,2.0,300.49287999999996,27974.182999999997,0.0,0.0,-0.09689001403514874,0.0,0.0,0.0,-2.393152145410727,-2.4044160414723876,-3.705884828442357,-0.0003174572041080867,0.0039723113428616055,-0.3070593633043997
9690,2.0,299.85483,27949.801,0.0,0.0,-0.09689998554624524,0.0,0.0,0.0,-2.423767801157258,-2.3837041961782877,-3.6885696001334765,-0.010770584104723889,0.001101892967773369,-0.27997810629168773
9691,2.0,299.62219,28106.067000000003,0.0,0.0,-0.09690998996661937,0.0,0.0,0.0,-2.4559921940875578,-2.392614514907668,-3.694935951836786,0.0076920426392205025,-0.0026066750482587977,-0.29084586209425173
9692,2.0,299.70779,28317.327999999998,0.0,0.0,-0.0969199943869935,0.0,0.0,0.0,-2.513180739006627,-2.3961009058517475,-3.6984788821364463,0.006776435195707083,-0.005804190415328994,-0.2798098054500777
9693,2.0,300.75939,28044.472999999998,0.0,0.0,-0.09692999880736786,0.0,0.0,0.0,-2.442516575707618,-2.3993749195748677,-3.6829281275517065,0.0075374888656922325,-0.015011342788004185,-0.3028862015750407
9694,2.0,299.86019,27588.097,0.0,0.0,-0.09694000322774199,0.0,0.0,0.0,-2.357574806574518,-2.3721408847120777,-3.6563771245813266,0.002891248162693977,-0.013889413508778386,-0.2860874167096297
9695,2.0,299.91185,27704.032000000003,0.0,0.0,-0.09695000764811623,0.0,0.0,0.0,-2.360670488280038,-2.376909442332698,-3.6837540277082166,0.005948270121248555,0.014861751609490687,-0.2891840508702437
9696,2.0,299.91243,28144.854,0.0,0.0,-0.09696001206849014,0.0,0.0,0.0,-2.4463332861842977,-2.393004109571118,-3.715995443240196,-0.01062943127304319,0.023159466421161377,-0.2840526585213147
9697,2.0,300.2955,28215.432,0.0,0.0,-0.09696998357958686,0.0,0.0,0.0,-2.457341741895748,-2.4147117770634976,-3.7047332697037065,-0.011940245569660488,-0.001277849319188909,-0.2967880065106957
9698,2.0,299.59595,28020.776,0.0,0.0,-0.09697998799996099,0.0,0.0,0.0,-2.439149444300308,-2.398865254774568,-3.6796015261483963,-0.025673167666744375,-0.005891161319112354,-0.2910044863974067
9699,2.0,300.01308,28023.002,0.0,0.0,-0.09698999242033512,0.0,0.0,0.0,-2.4293275044559577,-2.399497320186948,-3.689467846347126,0.0055602006018490744,-0.002845317636985987,-0.28861502987908577
9700,2.0,300.01811000000004,28120.015,0.0,0.0,-0.09699999684070926,0.0,0.0,0.0,-2.4339628196884275,-2.4005531267911477,-3.7132663554208567,0.001121900401597949,-0.013117615841357887,-0.2844740084428988
9701,2.0,300.78623999999996,28144.875,0.0,0.0,-0.0970100012610835,0.0,0.0,0.0,-2.4238451121398876,-2.419516609037698,-3.7119775012936564,0.005314387343489194,-0.011832143942991688,-0.2895763306464587
9702,2.0,299.90459,27932.661,0.0,0.0,-0.09702000568145785,0.0,0.0,0.0,-2.4152190100635575,-2.3920858010054875,-3.6835268570357966,0.0027319756834500073,-0.005855941758886454,-0.27847619606596075
9703,2.0,300.08454,27633.081000000002,0.0,0.0,-0.09703001010183177,0.0,0.0,0.0,-2.3961833844098877,-2.364269755285258,-3.6393134862722762,-0.002051028958420798,0.016912619461145587,-0.29934090027014676
9704,2.0,299.69491,27866.586,0.0,0.0,-0.0970400145222059,0.0,0.0,0.0,-2.4465644085321077,-2.3725910717315077,-3.6515906324339364,0.0047398259007843955,-0.0018824636585346986,-0.3002659469489417
9705,2.0,299.76355,28199.647,0.0,0.0,-0.09704998603330262,0.0,0.0,0.0,-2.4446306207162576,-2.4146666874340474,-3.7126913359891063,0.00945238068175234,-0.015659855276007384,-0.3035208710401777
9706,2.0,299.94026,28122.762000000002,0.0,0.0,-0.09705999045367675,0.0,0.0,0.0,-2.422546936111768,-2.427259562326868,-3.698811025519226,-0.002958126316994337,-0.003452271368162656,-0.29253860784381275
9707,2.0,299.60209,27984.961,0.0,0.0,-0.09706999487405099,0.0,0.0,0.0,-2.400587678619558,-2.3977862447430773,-3.708355537486197,0.017904711885807483,-0.006084463195014764,-0.2905145597090547
9708,2.0,299.5857,28067.918999999998,0.0,0.0,-0.09707999929442512,0.0,0.0,0.0,-2.4507313995683577,-2.392953244416098,-3.6882618760781067,-0.014487025378008085,0.0006390121942705934,-0.2830080179332167
9709,2.0,300.19489,28175.054,0.0,0.0,-0.09709000371479926,0.0,0.0,0.0,-2.4681326528107275,-2.3971754575827977,-3.6992047745080865,0.0026417584276712575,-0.005829899914091324,-0.2864222350726737
9710,2.0,299.33275,28074.697999999997,0.0,0.0,-0.09710000813517339,0.0,0.0,0.0,-2.474967835335308,-2.3892661286272077,-3.6697733041534266,-0.001023059880843149,-0.003792922809382337,-0.2966270719973127
9711,2.0,299.29561,27935.994,0.0,0.0,-0.09711001255554752,0.0,0.0,0.0,-2.403719634678658,-2.3987447793376773,-3.6893803015384865,0.012361508351735887,0.0011733885027794288,-0.29710454584193574
9712,2.0,300.4016,27848.782000000003,0.0,0.0,-0.09711998406664424,0.0,0.0,0.0,-2.4098432116580075,-2.3829012967990475,-3.672589936781407,0.002303167835829968,-0.010180715492758391,-0.3090374200171187
9713,2.0,300.44812,27912.507999999998,0.0,0.0,-0.09712998848701826,0.0,0.0,0.0,-2.4030035708329875,-2.3843872280706977,-3.6973146577715466,-0.0017746726943465583,-0.006909413429556014,-0.2893104031577137
9714,2.0,299.65597,28061.741,0.0,0.0,-0.09713999290739239,0.0,0.0,0.0,-2.435913630105958,-2.4068893849664876,-3.6872654459297665,0.0003838886164393567,0.012666016351288488,-0.3125594976297207
9715,2.0,300.04041,28192.928,0.0,0.0,-0.09714999732776675,0.0,0.0,0.0,-2.4457918053308574,-2.413369828631058,-3.7107843993009064,0.0017348467978410482,0.015567167209859787,-0.2835788222445507
9716,2.0,300.30542,28015.514,0.0,0.0,-0.09716000174814088,0.0,0.0,0.0,-2.4365858202222976,-2.4099143418150275,-3.6695166479030963,-0.003183318010644027,0.012300504616215287,-0.32010392482679767
9717,2.0,299.97961000000004,28001.049,0.0,0.0,-0.09717000616851501,0.0,0.0,0.0,-2.405043243284288,-2.4123132114267776,-3.694263153770386,0.0005451069411753664,-0.0037906713676601365,-0.29573670886944076
9718,2.0,299.53436,28134.807999999997,0.0,0.0,-0.09718001058888914,0.0,0.0,0.0,-2.4389664513322473,-2.3984033140539776,-3.714909239132997,0.016758850652469785,0.0048039335253363255,-0.29056557685158974
9719,2.0,299.71097000000003,28198.407000000003,0.0,0.0,-0.09719001500926316,0.0,0.0,0.0,-2.437860691498118,-2.4118417461552477,-3.721909074798827,-0.015460462855078884,-0.0006221743992763323,-0.2740441286710497
9720,2.0,299.07436,28108.516,0.0,0.0,-0.09719998652036,0.0,0.0,0.0,-2.452430721311068,-2.396607226926718,-3.6952488434676662,-0.005946115850210944,-0.012241868846178387,-0.2891046931224117
9721,2.0,299.66462,28058.507,0.0,0.0,-0.09720999094073401,0.0,0.0,0.0,-2.4706622316853775,-2.379740665762118,-3.6786824069826864,-0.016716003345491084,0.00920470740018389,-0.2943721041647647
9722,2.0,299.92238,28085.581000000002,0.0,0.0,-0.09721999536110815,0.0,0.0,0.0,-2.4601742825502977,-2.393112020706768,-3.6840290237853566,0.0042666406372096465,0.019866182707639582,-0.2918436297327237
9723,2.0,300.39621,28199.17,0.0,0.0,-0.09722999978148228,0.0,0.0,0.0,-2.4357307384629077,-2.410139587312258,-3.7259733222749363,0.011527634930188988,0.0027765143074956274,-0.2997751589980047
9724,2.0,300.29793,28287.986,0.0,0.0,-0.09724000420185663,0.0,0.0,0.0,-2.458326823642968,-2.4188349956954274,-3.7216796749761865,-0.0011468370945090089,-0.0030973405985837165,-0.2770530559030077
9725,2.0,300.03187,28157.879,0.0,0.0,-0.09725000862223077,0.0,0.0,0.0,-2.4294615574441876,-2.410150834388368,-3.7196797219288067,0.012612832880039686,-0.01015986584545069,-0.2907016360750177
9726,2.0,300.02501,28001.339,0.0,0.0,-0.09726001304260501,0.0,0.0,0.0,-2.4379481349817476,-2.390598045883658,-3.6831616816997568,-0.006548119550674084,-0.0007370720868833513,-0.2783935047252998
9727,2.0,300.36031,28158.097,0.0,0.0,-0.0972699845537015,0.0,0.0,0.0,-2.4501701603379678,-2.4153745439539076,-3.6938137773510364,-0.0028155584815489874,0.0024351494368805376,-0.3000465175072857
9728,2.0,299.83616,28246.924,0.0,0.0,-0.09727998897407564,0.0,0.0,0.0,-2.4381571684773773,-2.423956367000868,-3.7242459335044567,-0.01924015221285518,0.008655631527969321,-0.2852772117971687
9729,2.0,299.30663,28089.215,0.0,0.0,-0.09728999339444977,0.0,0.0,0.0,-2.422385120070798,-2.4123048014509476,-3.7037301521047064,-0.008784494953162152,0.0038413158368083558,-0.3061375488934237
9730,2.0,299.0816,28095.117000000002,0.0,0.0,-0.0972999978148239,0.0,0.0,0.0,-2.4246273412170876,-2.3979230335065775,-3.7176637595298465,0.0005100075220138235,-0.003827958059415046,-0.2753276429702227
9731,2.0,299.32256,28073.221,0.0,0.0,-0.09731000223519803,0.0,0.0,0.0,-2.4322963272489577,-2.389576081832798,-3.7116858879148764,0.005611169615004324,-0.012391559323201688,-0.2915074637470467
9732,2.0,299.11636,28143.772,0.0,0.0,-0.09732000665557228,0.0,0.0,0.0,-2.4513870737080676,-2.4156671705827875,-3.6879496937222966,-0.004026316863916536,-0.013297899378650486,-0.29460288200754076
9733,2.0,299.4628,28293.662999999997,0.0,0.0,-0.09733001107594663,0.0,0.0,0.0,-2.488350741331098,-2.405648356244008,-3.7065678603347663,0.006019890083366894,0.0011036764905993889,-0.3008991775989367
9734,2.0,299.79458999999997,28278.903,0.0,0.0,-0.09734001549632054,0.0,0.0,0.0,-2.4567818198904874,-2.4298566236581776,-3.709441741593396,-0.00016896268644281883,0.019048342955675084,-0.3062662113911217
9735,2.0,300.29761,28104.194,0.0,0.0,-0.09734998700741726,0.0,0.0,0.0,-2.4368473400731077,-2.3974398145338878,-3.7086859583438065,0.011608423387162189,0.01025532616387189,-0.29033096892343574
9736,2.0,300.51114,28179.902000000002,0.0,0.0,-0.09735999142779139,0.0,0.0,0.0,-2.4168964456041078,-2.416071254722668,-3.7330189568452865,-2.096263583960108e-06,0.005550338739950785,-0.28468895931911276
9737,2.0,300.8588,28309.731,0.0,0.0,-0.09736999584816552,0.0,0.0,0.0,-2.4528247742749576,-2.4211105527700076,-3.731516002971957,-0.00995583517086443,0.0024399323826525773,-0.27606587672808075
9738,2.0,300.19896,28264.035,0.0,0.0,-0.09738000026853977,0.0,0.0,0.0,-2.4712309689665077,-2.402978442230508,-3.7173514758490263,-0.002223991662415888,0.005753895618790285,-0.27910323575784474
9739,2.0,300.58827,28119.076,0.0,0.0,-0.0973900046889139,0.0,0.0,0.0,-2.445855640087158,-2.4056866570977875,-3.695954572162317,-0.010094263879651282,0.0100253286249979,-0.28674689053721475
9740,2.0,299.48102,28137.927000000003,0.0,0.0,-0.09740000910928803,0.0,0.0,0.0,-2.4505608695765275,-2.401271622437058,-3.7013947119492165,-0.0005047085077008515,0.0036324919826240466,-0.2959401492245187
9741,2.0,299.62512999999996,28246.551,0.0,0.0,-0.09741001352966216,0.0,0.0,0.0,-2.441082826816118,-2.416674037207158,-3.7284892222732364,-0.004385406214555896,0.018064924965119283,-0.28717816017727776
9742,2.0,300.39695,28246.502,0.0,0.0,-0.09741998504075888,0.0,0.0,0.0,-2.461078810914568,-2.4056993227240375,-3.719453159206446,-0.002751654013642107,-0.007013789335607114,-0.3030065554219187
9743,2.0,299.86932,28236.831000000002,0.0,0.0,-0.09742998946113302,0.0,0.0,0.0,-2.4484285860660875,-2.402240593507688,-3.7326223707561463,0.0058853632993901344,-0.023959743509142577,-0.30320079546608875
9744,2.0,299.74948,28153.767000000003,0.0,0.0,-0.09743999388150704,0.0,0.0,0.0,-2.4749920520126976,-2.395995122541308,-3.687054892558986,0.013979118566631588,-0.02318563360499388,-0.29854255038385574
9745,2.0,300.13157,28230.607000000004,0.0,0.0,-0.09744999830188117,0.0,0.0,0.0,-2.4320620638258377,-2.4413031073878577,-3.7080344385295065,0.024287003026440577,-0.012194700027523188,-0.3214089605580947
9746,2.0,300.62253,28361.417999999998,0.0,0.0,-0.09746000272225552,0.0,0.0,0.0,-2.4752679600149277,-2.423772158132688,-3.722122870569926,0.007298354040066462,-0.0006895528762110702,-0.3008608868776577
9747,2.0,300.99422999999996,28301.158,0.0,0.0,-0.09747000714262966,0.0,0.0,0.0,-2.4497206825936075,-2.4255194066051278,-3.7276053642110067,-0.00853894047887781,0.01120871547446409,-0.2997940561123697
9748,2.0,299.97971,28111.176,0.0,0.0,-0.09748001156300379,0.0,0.0,0.0,-2.4283239815569178,-2.399451217307398,-3.7173202677459467,0.004870386925194765,0.003728088887158726,-0.2850422897614837
9749,2.0,300.19887,28119.686,0.0,0.0,-0.09749001598337792,0.0,0.0,0.0,-2.4295162729495874,-2.4061758542460683,-3.7119901669199065,-0.022121276183199978,0.006120287361575333,-0.28617604569587674
9750,2.0,300.55152999999996,28331.091,0.0,0.0,-0.09749998749447464,0.0,0.0,0.0,-2.4687006808167875,-2.4336215570547477,-3.709621897461176,-0.008273138937120242,-0.007802728357619333,-0.29172869677388075
9751,2.0,299.66747999999995,28217.012000000002,0.0,0.0,-0.09750999191484877,0.0,0.0,0.0,-2.4470252346775876,-2.398831310896218,-3.7314106249615566,-0.022072350388871377,-0.0027543733742604872,-0.2805138724145637
9752,2.0,299.49915,28141.429,0.0,0.0,-0.09751999633522279,0.0,0.0,0.0,-2.4479472922685876,-2.3982580139896377,-3.7080862156096166,-0.002793155420512977,-0.00016522400635633983,-0.3075693726097337
9753,2.0,299.81307000000004,28270.554,0.0,0.0,-0.09753000075559692,0.0,0.0,0.0,-2.4593929653981874,-2.399636338100668,-3.734513095442747,0.0035113413158674067,-0.0006054288201736724,-0.2913936554958147
9754,2.0,299.73336,28341.385,0.0,0.0,-0.09754000517597106,0.0,0.0,0.0,-2.459428631801708,-2.4206021038698275,-3.7350427212700166,0.015376833244825286,-0.003146343602569937,-0.3131608919615737
9755,2.0,300.4266,28428.355,0.0,0.0,-0.09755000959634541,0.0,0.0,0.0,-2.4970197038866577,-2.424668073871108,-3.719822184892867,0.006121759107345584,-0.004319751255776256,-0.2982085932833967
9756,2.0,300.11517000000003,28355.425,0.0,0.0,-0.09756001401671954,0.0,0.0,0.0,-2.481302269660468,-2.407714879822958,-3.7303239142293068,0.016610959707624086,-0.01940887557975688,-0.2973912449577307
9757,2.0,299.92585,28207.638,0.0,0.0,-0.09756998552781604,0.0,0.0,0.0,-2.4499782507690275,-2.4254161564199377,-3.6990234027401865,-0.00992452675602453,0.0006899254178753373,-0.28948511787245673
9758,2.0,300.73835,28169.563,0.0,0.0,-0.09757998994819028,0.0,0.0,0.0,-2.426286234280808,-2.416429742608048,-3.7201276797980167,0.0029777314905292166,-0.006715138326932554,-0.28264860799024577
9759,2.0,300.81736,28267.061,0.0,0.0,-0.09758999436856441,0.0,0.0,0.0,-2.433276646720708,-2.4208386977681777,-3.7383654723229465,-0.014270089544848187,0.007616409092131054,-0.27766413690581676
9760,2.0,300.97406,28311.387000000002,0.0,0.0,-0.09759999878893855,0.0,0.0,0.0,-2.4281060314604077,-2.4312432564200273,-3.7466053234611567,-0.005374355436082584,0.01700056146382478,-0.2789692030346167
9761,2.0,300.09425,28225.408,0.0,0.0,-0.09761000320931268,0.0,0.0,0.0,-2.4415240972346677,-2.4160563599461975,-3.7222388877063763,-0.014513053746576885,0.012225140087027388,-0.31290567452638574
9762,2.0,299.52592999999996,28197.144,0.0,0.0,-0.09762000762968692,0.0,0.0,0.0,-2.432039974973658,-2.425979827450568,-3.7132079922150965,-0.007878479239070363,0.008046640252166561,-0.3026824876424357
9763,2.0,300.25397000000004,28422.486,0.0,0.0,-0.09763001205006105,0.0,0.0,0.0,-2.4789979362830477,-2.4284726253465876,-3.7322555742199466,-0.009292420104365462,-0.004175678135982346,-0.31697586978058273
9764,2.0,299.9941,28452.665,0.0,0.0,-0.09763998356115766,0.0,0.0,0.0,-2.472796440371008,-2.422460100578198,-3.753643054680726,-0.0030158944409706067,-0.004158444372981507,-0.27528822754133275
9765,2.0,299.70418,28216.336,0.0,0.0,-0.0976499879815319,0.0,0.0,0.0,-2.4397436141589477,-2.417187248382808,-3.7201309221983365,-0.014679496287503487,0.003150366509441967,-0.3037466231624577
9766,2.0,299.92647,28278.113999999998,0.0,0.0,-0.09765999240190604,0.0,0.0,0.0,-2.4466734342428675,-2.4180883316967376,-3.731078886878817,0.007108225764802263,-0.010941562966348189,-0.27320776164100674
9767,2.0,299.78114,28332.847999999998,0.0,0.0,-0.09766999682228017,0.0,0.0,0.0,-2.4725211403188374,-2.4167630005659375,-3.7231940785756468,0.007426707293833943,0.006580431387088014,-0.2961264352554037
9768,2.0,300.20382,28470.001,0.0,0.0,-0.0976800012426543,0.0,0.0,0.0,-2.4844962366256875,-2.440020434086268,-3.7296527373630664,0.013073387474492885,0.00017293317788717583,-0.2809598949760827
9769,2.0,300.87681000000003,28434.876,0.0,0.0,-0.09769000566302855,0.0,0.0,0.0,-2.4868850750614477,-2.4142781060206975,-3.742329205389136,0.009438019888085042,0.0007460665965635403,-0.29036941163222973
9770,2.0,300.08387,28239.752999999997,0.0,0.0,-0.09770001008340268,0.0,0.0,0.0,-2.438170138078658,-2.423430084898927,-3.722579441064986,-0.018136350991168483,-0.002118061937336438,-0.28181108585508874
9771,2.0,300.02191,28200.067000000003,0.0,0.0,-0.09771001450377681,0.0,0.0,0.0,-2.4149329695603274,-2.4128934997590474,-3.7442897430076263,0.011474154576660888,0.0055656744828643055,-0.2789866512013387
9772,2.0,300.1997,28432.467999999997,0.0,0.0,-0.09771998601487353,0.0,0.0,0.0,-2.4520873308521773,-2.4303523056070975,-3.760320575489746,-0.00966970752812583,0.004009734012779936,-0.2886565630006847
9773,2.0,300.42191,28529.857000000004,0.0,0.0,-0.09772999043524766,0.0,0.0,0.0,-2.487737117070538,-2.4304277927395477,-3.754199227660617,0.01069888044814729,0.018023959263576285,-0.3043432146888367
9774,2.0,299.90051,28287.151,0.0,0.0,-0.09773999485562179,0.0,0.0,0.0,-2.467538989577138,-2.408713944421558,-3.722334639840826,-0.005680358688807755,0.0012531142630477488,-0.3192718742421807
9775,2.0,300.1833,28262.432,0.0,0.0,-0.09774999927599581,0.0,0.0,0.0,-2.4720340709957678,-2.4185029536376574,-3.7005365904395267,0.0056748542076395046,-0.012509389164080589,-0.3108110028596577
9776,2.0,299.91677999999996,28321.129,0.0,0.0,-0.09776000369636995,0.0,0.0,0.0,-2.4608551866174975,-2.4107580751732978,-3.7373027756180663,0.014479839408298886,-0.01107262078728259,-0.3086449071933807
9777,2.0,299.48486,28389.601000000002,0.0,0.0,-0.0977700081167443,0.0,0.0,0.0,-2.455312911220518,-2.4443245178610478,-3.7300924879064667,0.009747617746864971,-0.005818059276072745,-0.30085621579469674
9778,2.0,298.99719,28312.256,0.0,0.0,-0.09778001253711843,0.0,0.0,0.0,-2.4487016569680375,-2.4364086027798075,-3.7211086072198265,0.008557999713258812,-0.002853647971358127,-0.3081588612529117
9779,2.0,299.5581,28192.156000000003,0.0,0.0,-0.09778998404821493,0.0,0.0,0.0,-2.4367062956591874,-2.4179327978063876,-3.7150724737241063,-0.017588839273133285,0.005690374666046255,-0.29576450231968376
9780,2.0,299.9561,28125.105,0.0,0.0,-0.09779998846858906,0.0,0.0,0.0,-2.4413626864937377,-2.416520529817008,-3.6914463184923867,-0.013012430348476886,0.016681043177290786,-0.3013569741266177
9781,2.0,299.84476,28375.978,0.0,0.0,-0.09780999288896342,0.0,0.0,0.0,-2.463929995370958,-2.4184727587846773,-3.7431860096736966,0.00043171283565673956,0.007414595104788563,-0.28488105127307073
9782,2.0,300.16526,28463.516,0.0,0.0,-0.09781999730933755,0.0,0.0,0.0,-2.467818849254758,-2.4270583308570077,-3.7573209498937064,0.0030259005896831376,0.012017905110324887,-0.29596659505212874
9783,2.0,300.6423,28382.996,0.0,0.0,-0.09783000172971157,0.0,0.0,0.0,-2.4376391950262577,-2.4476195058612378,-3.7424632583773665,-0.0026929963574030473,-0.013444182295587487,-0.2806523229082277
9784,2.0,300.82655,28348.278,0.0,0.0,-0.0978400061500857,0.0,0.0,0.0,-2.4563059976435277,-2.4132338504676376,-3.7476289087121764,0.01228991615267029,-0.01014993295472039,-0.3005697193289217
9785,2.0,300.3778,28562.535,0.0,0.0,-0.09785001057045983,0.0,0.0,0.0,-2.499123616394298,-2.445088609761458,-3.7380852073452866,0.005602507238574415,0.004468449862276666,-0.3029629046076107
9786,2.0,299.97234,28672.501,0.0,0.0,-0.09786001499083419,0.0,0.0,0.0,-2.5402347193266475,-2.4357224298120874,-3.739767303836296,0.005053191530061176,0.0069475985701745934,-0.3028186076608697
9787,2.0,299.53249,28479.307999999997,0.0,0.0,-0.09786998650193068,0.0,0.0,0.0,-2.4900614114749273,-2.423446195575518,-3.7434908966287863,-0.01279776520879109,0.003385077282481117,-0.2926689320716747
9788,2.0,299.92412,28320.554,0.0,0.0,-0.09787999092230482,0.0,0.0,0.0,-2.4360565996950676,-2.4326818689120078,-3.7400026818345267,-0.011566500164274688,-0.004976854483427296,-0.2882853385615477
9789,2.0,300.54348,28354.167999999998,0.0,0.0,-0.09788999534267906,0.0,0.0,0.0,-2.454584891023668,-2.415175035009218,-3.749199142392146,0.008317705830843652,-0.0031638295635206667,-0.28104507891198977
9790,2.0,300.21382,28464.212000000003,0.0,0.0,-0.09789999976305319,0.0,0.0,0.0,-2.452372459430318,-2.4479408074679476,-3.752096531053096,0.013855216317903388,0.01153446220936279,-0.29372203329810775
9791,2.0,300.82097000000005,28490.077999999998,0.0,0.0,-0.09791000418342732,0.0,0.0,0.0,-2.4845271407537375,-2.436322273871288,-3.7394229001273063,0.002557724327977738,-0.004434771151477836,-0.28505295928503677
9792,2.0,300.68778,28298.565,0.0,0.0,-0.09792000860380146,0.0,0.0,0.0,-2.4465424210049376,-2.4176127120997974,-3.7379019104021967,0.0004069665121744676,0.01044451110329299,-0.27718545729357474
9793,2.0,300.75381,28290.617000000002,0.0,0.0,-0.0979300130241757,0.0,0.0,0.0,-2.4517199263659175,-2.4273369746345077,-3.7205841489680664,0.0017269193317086683,0.002417917193754848,-0.29884226976343575
9794,2.0,300.89681,28601.931,0.0,0.0,-0.0979399845352723,0.0,0.0,0.0,-2.4723803998799476,-2.445201688472618,-3.7766907454303564,0.014095532897120787,0.012722449315607988,-0.2973178957829917
9795,2.0,300.03454,28728.531000000003,0.0,0.0,-0.09794998895564644,0.0,0.0,0.0,-2.4986789009254076,-2.4598724353455075,-3.774204736310007,-0.005384385294847455,-0.014571229501068386,-0.30653590817023874
9796,2.0,299.5769,28528.382999999998,0.0,0.0,-0.09795999337602068,0.0,0.0,0.0,-2.473479472263418,-2.4436571913451877,-3.7547795159928863,-0.017129739705823682,-0.02145664693910618,-0.3032606684144977
9797,2.0,300.22713,28398.076,0.0,0.0,-0.09796999779639481,0.0,0.0,0.0,-2.4862059948444277,-2.4121579815114575,-3.7339421290113965,-0.009885023377025851,-0.01082879633621899,-0.3052808256688717
9798,2.0,300.32451000000003,28467.356,0.0,0.0,-0.09798000221676895,0.0,0.0,0.0,-2.491206789387968,-2.4216113009694276,-3.740547202438267,-0.010020842764155179,0.014599749451633087,-0.2758112064479467
9799,2.0,300.34985,28531.936,0.0,0.0,-0.09799000663714308,0.0,0.0,0.0,-2.4830864004365476,-2.425306016134068,-3.764603786312467,0.01928329032261258,0.007492931091219722,-0.2894809534145457
9800,2.0,300.12767,28420.806,0.0,0.0,-0.09800001105751732,0.0,0.0,0.0,-2.449542958526068,-2.424812259360338,-3.7648601385877667,-0.01940216786409488,0.003388257671894997,-0.2771901081115338
9801,2.0,299.49571000000003,28356.806,0.0,0.0,-0.09801001547789145,0.0,0.0,0.0,-2.434480185189488,-2.4385827335193775,-3.7466981371703163,-0.005044743354702405,0.007894713025547513,-0.3027809856846567
9802,2.0,299.38692000000003,28500.872000000003,0.0,0.0,-0.09801998698898795,0.0,0.0,0.0,-2.457198063031568,-2.4424393660499977,-3.763915992144587,0.00013802901201990288,0.013372217220485087,-0.27360111546232774
9803,2.0,299.85497999999995,28544.06,0.0,0.0,-0.0980299914093623,0.0,0.0,0.0,-2.4914751993394577,-2.4457625224029678,-3.7394436717543567,-0.0029519573464105073,0.0052674456955064146,-0.2985785308949067
9804,2.0,299.54463,28570.765,0.0,0.0,-0.09803999582973644,0.0,0.0,0.0,-2.4811500794954475,-2.4339582600629774,-3.769690808439517,-0.0099379398568733,-0.005471617819806635,-0.2915403639777937
9805,2.0,300.65942,28549.577999999998,0.0,0.0,-0.09805000025011057,0.0,0.0,0.0,-2.4870258155003375,-2.4301851193405977,-3.761147792871386,-0.004221124328142535,0.007332815891867583,-0.3046536745194767
9806,2.0,300.58061000000004,28524.107999999997,0.0,0.0,-0.09806000467048459,0.0,0.0,0.0,-2.4759172506790077,-2.4428557105160875,-3.7518436238281363,0.004243331933234256,0.018532917828556584,-0.3070504467035197
9807,2.0,300.05469,28477.382999999998,0.0,0.0,-0.09807000909085872,0.0,0.0,0.0,-2.4921576232818077,-2.4139168823600476,-3.750338846104626,0.01776643465791058,-0.012937632226094887,-0.3096453802096197
9808,2.0,299.88045,28471.484,0.0,0.0,-0.09808001351123308,0.0,0.0,0.0,-2.484777616178458,-2.4281485879646074,-3.7416941002264563,0.0038274429230642066,-0.026833368415497272,-0.3129835630615727
9809,2.0,300.57552999999996,28447.287999999997,0.0,0.0,-0.09808998502232957,0.0,0.0,0.0,-2.4939889715125476,-2.426339733886088,-3.7269365178199965,0.0046897603014183055,-0.014982554326162986,-0.28650065049791273
9810,2.0,300.07659,28410.771,0.0,0.0,-0.0980999894427037,0.0,0.0,0.0,-2.4608522481922077,-2.431467488667158,-3.743845230188757,-0.0024069605151235077,0.011240177903319189,-0.2988241832491507
9811,2.0,299.97101000000004,28505.571,0.0,0.0,-0.09810999386307784,0.0,0.0,0.0,-2.473438942259418,-2.4452208388995076,-3.7463221200582066,-0.005905150655292994,0.00928204026901605,-0.2806100805115588
9812,2.0,299.82996,28569.35,0.0,0.0,-0.09811999828345219,0.0,0.0,0.0,-2.460118756444818,-2.4578316483190976,-3.766418719891586,-0.008868356800338673,-0.003816035348138366,-0.29689829878408075
9813,2.0,299.5547,28616.651,0.0,0.0,-0.09813000270382632,0.0,0.0,0.0,-2.4589167378511876,-2.4849498686954576,-3.754880841002886,-0.0044341655318930655,0.01048341078788209,-0.2967959503914797
9814,2.0,299.77943999999997,28595.416,0.0,0.0,-0.09814000712420035,0.0,0.0,0.0,-2.4866122068095176,-2.456968561883918,-3.7487115664440265,-0.00016335605953198785,0.0066922435356230135,-0.3089558736490707
9815,2.0,300.3425,28493.944,0.0,0.0,-0.09815001154457448,0.0,0.0,0.0,-2.4854935786991175,-2.4389775970833476,-3.7369762051108366,0.006835463194857693,-0.025772484415046176,-0.29344444330071173
9816,2.0,300.38036,28302.312,0.0,0.0,-0.09816001596494861,0.0,0.0,0.0,-2.457806519716618,-2.4283962262890477,-3.7169933932636865,0.0032082263325522867,-0.023751467924587377,-0.3124757626414567
9817,2.0,300.24879,28507.105,0.0,0.0,-0.09816998747604533,0.0,0.0,0.0,-2.479906821622748,-2.433103380953608,-3.7524379963367966,0.021535667274654877,-0.010048925902601771,-0.2990957646734537
9818,2.0,300.1873,28561.68,0.0,0.0,-0.09817999189641946,0.0,0.0,0.0,-2.481801194009708,-2.4496880559403875,-3.7505483862253066,0.0018978097365992383,0.01184042118305859,-0.3070104841195757
9819,2.0,299.97721,28452.897999999997,0.0,0.0,-0.09818999631679359,0.0,0.0,0.0,-2.4729537981115377,-2.4279951818994676,-3.748021644450936,0.0001013696335344039,-0.002090000178466958,-0.30063801238566173
9820,2.0,300.02692,28544.647999999997,0.0,0.0,-0.09820000073716784,0.0,0.0,0.0,-2.4794045535481777,-2.436676202131218,-3.7607796791100565,-9.59696255442146e-05,-0.002048085162905268,-0.2988149525407397
9821,2.0,299.89034,28708.565,0.0,0.0,-0.09821000515754197,0.0,0.0,0.0,-2.489248582244708,-2.4629127935955677,-3.7745253286416465,0.006873954944956534,0.017453102263237086,-0.28651668011449477
9822,2.0,299.46062,28750.76,0.0,0.0,-0.0982200095779161,0.0,0.0,0.0,-2.459325786916558,-2.4606200112692878,-3.8195673353369464,0.001033756255523799,0.012987269321993686,-0.2881458646852827
9823,2.0,300.21637999999996,28593.592,0.0,0.0,-0.09823001399829023,0.0,0.0,0.0,-2.4522405342672977,-2.4571766834544575,-3.782320666960987,-0.015038603268694587,0.0028101725506424376,-0.2875614321601037
9824,2.0,299.88067,28416.26,0.0,0.0,-0.09823998550938673,0.0,0.0,0.0,-2.4456424522661178,-2.441856544592478,-3.7503344891291963,-0.00910300292802144,0.0047359506244519355,-0.2974711802581197
9825,2.0,299.75177,28403.811,0.0,0.0,-0.09824998992976108,0.0,0.0,0.0,-2.477601677645248,-2.4237985026352877,-3.7326490192337762,0.005415979851515595,0.022639417833836578,-0.3025308344999687
9826,2.0,300.45355,28560.206000000002,0.0,0.0,-0.09825999435013522,0.0,0.0,0.0,-2.491616851703437,-2.4597710090104976,-3.730201513617226,-0.0013025538765020586,0.016811459610911884,-0.3014874908719987
9827,2.0,300.92264,28598.854,0.0,0.0,-0.09826999877050946,0.0,0.0,0.0,-2.513086506747327,-2.4215482768132075,-3.758702617730067,-0.0016913429047975483,-0.016615197119542284,-0.29350728507191376
9828,2.0,300.22406,28575.161,0.0,0.0,-0.09828000319088359,0.0,0.0,0.0,-2.4817345221531273,-2.4353622194015374,-3.769038680675157,-0.0036323527620603065,-0.013601818679894986,-0.30309171909282373
9829,2.0,300.77629,28672.191000000003,0.0,0.0,-0.09829000761125772,0.0,0.0,0.0,-2.4996356116698273,-2.4365177298155776,-3.779476879230326,-0.0030699723080826772,0.012123762388022189,-0.3075430990346407
9830,2.0,299.92436000000004,28780.85,0.0,0.0,-0.09830001203163186,0.0,0.0,0.0,-2.4892634770211775,-2.449882295984558,-3.809514070494766,-0.0008848450894174111,0.006545328654598643,-0.3004380880084307
9831,2.0,300.38882,28740.565,0.0,0.0,-0.0983100164520061,0.0,0.0,0.0,-2.501690888172668,-2.4589665897561077,-3.775756731488176,-0.008402451637407412,-0.0007705121164886252,-0.3006338681927527
9832,2.0,300.76853,28598.792999999998,0.0,0.0,-0.0983199879631026,0.0,0.0,0.0,-2.464113393639058,-2.430929554189068,-3.7982761136356666,-0.01059499596839469,-0.0017517161961059283,-0.2892411677783807
9833,2.0,299.8999,28488.945,0.0,0.0,-0.09832999238347673,0.0,0.0,0.0,-2.470497578544127,-2.4390175191372876,-3.7504130160119464,0.005801816269019684,0.01272076326744159,-0.2786713784327237
9834,2.0,299.86914,28518.47,0.0,0.0,-0.09833999680385108,0.0,0.0,0.0,-2.452215304339808,-2.4481159984102376,-3.7685715723790567,-0.021442807969240377,-0.006643682511330414,-0.28554246040834674
9835,2.0,299.77629,28679.531000000003,0.0,0.0,-0.09835000122422521,0.0,0.0,0.0,-2.481305208085758,-2.4540469565455774,-3.7825091314795865,0.009481910032066661,-0.010967976369954991,-0.28938640704771473
9836,2.0,299.70829,28749.901,0.0,0.0,-0.09836000564459935,0.0,0.0,0.0,-2.490548176822968,-2.473369230652538,-3.7753345101715063,-0.0014559095831120886,-0.0023515440433043273,-0.3122086192525917
9837,2.0,300.68201,28774.962000000003,0.0,0.0,-0.09837001006497337,0.0,0.0,0.0,-2.537584158390058,-2.4441217665160377,-3.765164012292756,0.02117462903877318,0.013277753940162288,-0.29179503425792774
9838,2.0,300.19844,28550.064,0.0,0.0,-0.0983800144853475,0.0,0.0,0.0,-2.4789265021509976,-2.441254572708068,-3.7583255873678563,-0.008659383897064651,-0.016842150956440885,-0.30306673234535775
9839,2.0,300.16202000000004,28566.754,0.0,0.0,-0.09838998599644422,0.0,0.0,0.0,-2.4865723860805873,-2.4289922199978675,-3.7680153993991667,0.0027127136977239973,-0.02624461336539168,-0.28672265359482274
9840,2.0,300.89002999999997,28853.271,0.0,0.0,-0.09839999041681835,0.0,0.0,0.0,-2.5007760246573776,-2.4582695750123182,-3.8116284194784362,0.0038992188243729365,-0.016154613140836185,-0.29238880894902874
9841,2.0,300.47283,28731.118,0.0,0.0,-0.09840999483719248,0.0,0.0,0.0,-2.5131809416566475,-2.447988430222648,-3.7723731854292466,0.003338276780237267,0.012716280648999186,-0.2953386637001567
9842,2.0,300.35492,28483.867000000002,0.0,0.0,-0.09841999925756661,0.0,0.0,0.0,-2.465562341282058,-2.435518563891968,-3.757303420666976,-0.004975566034600136,-0.007326163702311063,-0.3194075079005667
9843,2.0,300.01975,28463.659,0.0,0.0,-0.09843000367794097,0.0,0.0,0.0,-2.4814566889757077,-2.4303486579067375,-3.7404361502273065,-0.0077581589307706735,0.006023862327733925,-0.2959871640291587
9844,2.0,298.7495,28662.558999999997,0.0,0.0,-0.09844000809831499,0.0,0.0,0.0,-2.491668324808518,-2.4700750532524274,-3.7509588538408165,0.0028767921235172775,0.02092720045710388,-0.3024566037976427
9845,2.0,299.30369,28784.772,0.0,0.0,-0.09845001251868912,0.0,0.0,0.0,-2.5092350417922176,-2.4649553031471476,-3.7756615873037864,-0.004006612189221837,0.02324772354462168,-0.26732227817015475
9846,2.0,300.14751,28626.081000000002,0.0,0.0,-0.09845998402978584,0.0,0.0,0.0,-2.4599303932512275,-2.473467110612198,-3.7682163268939965,-0.017350323239343584,-0.007689089217829023,-0.2925694207793537
9847,2.0,300.346,28391.145,0.0,0.0,-0.09846998845015997,0.0,0.0,0.0,-2.442754284181077,-2.4416316030702774,-3.7458130632079665,-0.022405563763756978,-0.023655229430089377,-0.2942507775977907
9848,2.0,300.28409,28578.259,0.0,0.0,-0.0984799928705341,0.0,0.0,0.0,-2.4732823951189675,-2.4484715478703274,-3.7653231938834666,0.01038809435097509,-0.007680853217041193,-0.31249075874293675
9849,2.0,300.061,28925.417999999998,0.0,0.0,-0.09848999729090824,0.0,0.0,0.0,-2.5341315086743075,-2.4836133918135577,-3.774859903824667,0.0060209980723512435,0.008547368591884602,-0.3035648967570227
9850,2.0,300.37933,28827.871,0.0,0.0,-0.09850000171128237,0.0,0.0,0.0,-2.5235333179283477,-2.4363184235209077,-3.8031011092868567,0.015954796168115785,-0.0017588651821864787,-0.3046704134111287
9851,2.0,300.86657,28521.725,0.0,0.0,-0.09851000613165661,0.0,0.0,0.0,-2.4631863711225677,-2.4404243155761276,-3.766281627153057,-0.004863080885348715,-0.0035761716917156665,-0.29496742912851875
9852,2.0,300.72317999999996,28591.736,0.0,0.0,-0.09852001055203075,0.0,0.0,0.0,-2.4496698174385876,-2.451451313764408,-3.7900527784740863,0.014590198556190485,0.017289093549050682,-0.29994492905225967
9853,2.0,299.97700000000003,28925.621,0.0,0.0,-0.09853001497240488,0.0,0.0,0.0,-2.5098748079053577,-2.4715172121197577,-3.811274491218507,0.010713234149063888,0.015070883390380384,-0.2882792590609477
9854,2.0,299.8248,28816.3,0.0,0.0,-0.0985399864835016,0.0,0.0,0.0,-2.5014481134487077,-2.489280904922898,-3.7687068412674067,-0.009933534549413531,-0.002020118345570158,-0.3151820523335467
9855,2.0,299.89966,28504.865,0.0,0.0,-0.0985499909038755,0.0,0.0,0.0,-2.483835394910468,-2.4354585794860477,-3.7454731177994165,-0.021795337944032378,-0.0024960507328160276,-0.2993769213112017
9856,2.0,300.29564,28524.987999999998,0.0,0.0,-0.09855999532424986,0.0,0.0,0.0,-2.473962488586088,-2.446690456844548,-3.7502310362939864,0.0031646968042812573,0.016454000174383383,-0.29640839236073074
9857,2.0,299.97049,28782.45,0.0,0.0,-0.09856999974462399,0.0,0.0,0.0,-2.4940922216977373,-2.471330064826288,-3.7837237143744566,-0.0014336161557368986,0.020699274913359378,-0.2843937387699767
9858,2.0,300.06665,28885.2,0.0,0.0,-0.09858000416499824,0.0,0.0,0.0,-2.475072706720658,-2.4771545303761178,-3.8281522994592163,0.01073129634534649,-0.009527617338777621,-0.29517584454158774
9859,2.0,300.11895,28749.194,0.0,0.0,-0.09859000858537237,0.0,0.0,0.0,-2.4788006564885774,-2.462626955742358,-3.7976094963948763,0.002341206156509058,-0.005355045118326806,-0.3033981664530677
9860,2.0,300.43122,28679.325,0.0,0.0,-0.0986000130057465,0.0,0.0,0.0,-2.484653594366218,-2.4362600603151474,-3.7968849212483664,-0.0033827906809804466,0.0005534184493606485,-0.31196296689834774
9861,2.0,299.81372000000005,28636.324,0.0,0.0,-0.09860998451684322,0.0,0.0,0.0,-2.5099442155372076,-2.4379485402817878,-3.7568346911707162,0.0005834396819360135,0.003903104233206396,-0.3231037834703607
9862,2.0,300.17527,28841.327999999998,0.0,0.0,-0.09861998893721713,0.0,0.0,0.0,-2.5211600835441272,-2.4569656234586272,-3.7889177357120665,-0.01091618003809309,-0.011693725873330887,-0.2949585530576427
9863,2.0,300.57364,28828.882999999998,0.0,0.0,-0.09862999335759137,0.0,0.0,0.0,-2.5036778716187675,-2.4467570273761177,-3.8128255744715864,-0.004222475801125916,0.011644008730674189,-0.2941138165817737
9864,2.0,300.81068,28570.512000000002,0.0,0.0,-0.0986399977779655,0.0,0.0,0.0,-2.4452373548761375,-2.456618281324348,-3.7828667074398763,-0.0031835719311190873,-0.00044304588603772457,-0.2909732377643227
9865,2.0,300.63027,28705.339,0.0,0.0,-0.09865000219833986,0.0,0.0,0.0,-2.495223819409418,-2.4561631293794277,-3.774319334896317,0.00017262005320877285,-0.007452198031899682,-0.3066077577348297
9866,2.0,300.51242,29048.972999999998,0.0,0.0,-0.09866000661871399,0.0,0.0,0.0,-2.5387740179824876,-2.4868171873047475,-3.804571132531936,0.017574746990742483,-0.02275772288901238,-0.2983928122840777
9867,2.0,300.01731,29052.347999999998,0.0,0.0,-0.09867001103908812,0.0,0.0,0.0,-2.5548648348705276,-2.4896415206334876,-3.786682100691426,0.024669522164442275,0.004139202550932486,-0.29341245499505475
9868,2.0,300.40159,28863.702999999998,0.0,0.0,-0.09868001545946214,0.0,0.0,0.0,-2.5140872938710976,-2.4611018116918375,-3.798655981098156,0.005694442358572705,0.009448658507509991,-0.2814359300055637
9869,2.0,299.94325,28736.305,0.0,0.0,-0.09868998697055897,0.0,0.0,0.0,-2.4957082542822273,-2.4593276107667377,-3.7800834107401866,-0.008856440269887602,0.001125815296009319,-0.29095297276232274
9870,2.0,300.07296,28665.339,0.0,0.0,-0.098699991390933,0.0,0.0,0.0,-2.454187089034408,-2.4538503860261773,-3.8055097060995666,-0.00883837868155506,-0.0020962333891071283,-0.29083553707573273
9871,2.0,299.40719,28736.706000000002,0.0,0.0,-0.09870999581130713,0.0,0.0,0.0,-2.4980445050377975,-2.4508911891091274,-3.7863054756292565,0.004124325911639277,0.017575577855824483,-0.28915100878448274
9872,2.0,299.98569,28889.536,0.0,0.0,-0.09872000023168126,0.0,0.0,0.0,-2.5126013625994474,-2.471494008692468,-3.797602200994156,-0.012303350835746187,-0.0014418085867704286,-0.30445647578501467
9873,2.0,300.32714,28741.852000000003,0.0,0.0,-0.09873000465205539,0.0,0.0,0.0,-2.5160916038939076,-2.451230425242608,-3.7694831934940263,-0.015654587388737484,-0.002066030835426368,-0.3014760208808667
9874,2.0,300.46979,28575.269,0.0,0.0,-0.09874000907242975,0.0,0.0,0.0,-2.4794232986750275,-2.451594789978568,-3.755150264204476,-0.006128548288315624,0.0006545754422290664,-0.2987995916692237
9875,2.0,299.55672999999996,28837.11,0.0,0.0,-0.09875001349280377,0.0,0.0,0.0,-2.5029729535241976,-2.4664887558484874,-3.7962996679906067,0.01096146117181199,0.023633858972230276,-0.29214601396006673
9876,2.0,299.45275,28974.08,0.0,0.0,-0.09875998500390037,0.0,0.0,0.0,-2.5183301773398377,-2.4753918805021575,-3.8136747793803965,0.002550513634966098,0.0032706324062112863,-0.2882263471407257
9877,2.0,300.11197000000004,28776.548,0.0,0.0,-0.09876998942427462,0.0,0.0,0.0,-2.5170586497893477,-2.4774901188092375,-3.7528033743228564,-0.005060358349343485,-0.010778833987038092,-0.3096828501983177
9878,2.0,299.70121,28647.56,0.0,0.0,-0.09877999384464875,0.0,0.0,0.0,-2.4958459549708176,-2.4526453276822475,-3.759651627773726,0.006583859617476354,-0.019619387407282782,-0.2989852900150507
9879,2.0,299.37687,28629.863999999998,0.0,0.0,-0.09878999826502288,0.0,0.0,0.0,-2.508380669307898,-2.4455584538328274,-3.748824543830176,-0.0005198781890554825,-0.006261342921246433,-0.29835589958293474
9880,2.0,299.40207999999996,28846.722,0.0,0.0,-0.09880000268539701,0.0,0.0,0.0,-2.5172960542877774,-2.4518650237802375,-3.7995221072836367,0.007183668314247864,0.002116890822870858,-0.28124246003146974
9881,2.0,299.88013,29003.718999999997,0.0,0.0,-0.09881000710577115,0.0,0.0,0.0,-2.5047358060481777,-2.469171943438298,-3.8424986036500863,-0.005528593987504745,0.003360594424289846,-0.29606669402950775
9882,2.0,300.16881,28768.422000000002,0.0,0.0,-0.09882001152614539,0.0,0.0,0.0,-2.469262730647258,-2.4702399090436975,-3.8053791994866866,0.011462613658021887,0.0035522536191301365,-0.29417484463529675
9883,2.0,300.54882000000003,28581.124,0.0,0.0,-0.09883001594651952,0.0,0.0,0.0,-2.466269488526848,-2.4382127959078677,-3.7834656395739863,-0.004637676915803075,-0.0007651271583021714,-0.2945142530212937
9884,2.0,299.68917999999996,28926.724,0.0,0.0,-0.09883998745761624,0.0,0.0,0.0,-2.5271936839145974,-2.471482761616358,-3.7943253501707566,0.016235228332042283,-0.008396590492203962,-0.3023743177570217
9885,2.0,299.95187000000004,29174.202999999998,0.0,0.0,-0.09884999187799037,0.0,0.0,0.0,-2.563851248682418,-2.4813786687180075,-3.8229993147506565,-0.004027501758583477,-0.011907786102706989,-0.2956014906435957
9886,2.0,300.13105,28849.212000000003,0.0,0.0,-0.09885999629836428,0.0,0.0,0.0,-2.4971182931213876,-2.4665773139072273,-3.805744476147736,0.007774205164654312,0.0032059008222477775,-0.2877158109453397
9887,2.0,300.31377000000003,28607.537,0.0,0.0,-0.09887000071873864,0.0,0.0,0.0,-2.459034984137858,-2.4594735187811376,-3.777468313557096,-0.009222137328404092,0.008206336472602351,-0.30007384486248273
9888,2.0,300.56457,28830.588,0.0,0.0,-0.09888000513911288,0.0,0.0,0.0,-2.5055119556247774,-2.4592053114796677,-3.799061483788176,0.007923922188830233,0.009927689920186712,-0.2963257010200697
9889,2.0,300.57922,29091.381,0.0,0.0,-0.09889000955948701,0.0,0.0,0.0,-2.5446216869596077,-2.492021949093418,-3.8064098774884063,0.005112919077080825,-0.006187625632746104,-0.30134336617777474
9890,2.0,300.23908,28981.308999999997,0.0,0.0,-0.09890001397986115,0.0,0.0,0.0,-2.5196564203957275,-2.4792135559043276,-3.8107240937641866,0.005248043374641555,-0.00956746025788481,-0.3143399705729397
9891,2.0,299.73541,28773.509,0.0,0.0,-0.09890998549095786,0.0,0.0,0.0,-2.4919685508131475,-2.4527379387413877,-3.801721974575746,0.01014298813853499,-0.017032606511487382,-0.28804311099264174
9892,2.0,299.51904,28701.158,0.0,0.0,-0.098919989911332,0.0,0.0,0.0,-2.4549331450830376,-2.463787937706938,-3.805714382619766,-0.003571842783313437,-0.009175696631270751,-0.2949022467495857
9893,2.0,299.20997,28941.081000000002,0.0,0.0,-0.0989299943317059,0.0,0.0,0.0,-2.4994171549482678,-2.474041927393927,-3.8239068828652263,0.00979000858467362,-0.013777829341515885,-0.29574672991292966
9894,2.0,299.53166,29069.452999999998,0.0,0.0,-0.09893999875208015,0.0,0.0,0.0,-2.5173895772720076,-2.484209081547348,-3.834789188939226,-0.01058754959340979,0.005454621562629235,-0.3033182311526787
9895,2.0,300.06155,28888.84,0.0,0.0,-0.09895000317245428,0.0,0.0,0.0,-2.5181780884998273,-2.4823615213150076,-3.780946294525347,0.0011901852510121389,0.01907165480072578,-0.2941036232857677
9896,2.0,300.81799,28693.96,0.0,0.0,-0.09896000759282864,0.0,0.0,0.0,-2.5076038104562275,-2.4498728727586276,-3.764770567278926,-0.005267763653387795,0.024517214462410678,-0.30211079167101373
9897,2.0,300.12582000000003,28905.097999999998,0.0,0.0,-0.09897001201320277,0.0,0.0,0.0,-2.5470680780010477,-2.465750805800658,-3.773609249226236,0.008242809828501993,0.02088720848890698,-0.2940595469064177
9898,2.0,299.86142,29195.373,0.0,0.0,-0.0989800164335769,0.0,0.0,0.0,-2.5337614697377875,-2.5070102485476475,-3.833892665250746,0.0007089646810968664,0.015807324708811483,-0.2896950328956737
9899,2.0,300.06647999999996,28976.813,0.0,0.0,-0.0989899879446734,0.0,0.0,0.0,-2.5117454702399775,-2.4706893867880577,-3.8257927439513466,0.015278644243884785,0.005608220449263264,-0.2936531829538127
9900,2.0,300.71592999999996,28815.277000000002,0.0,0.0,-0.09899999236504753,0.0,0.0,0.0,-2.4991964690764874,-2.4789706798553577,-3.780957440276446,-0.009943921274863621,0.008746679040880011,-0.3083024387920817
9901,2.0,300.25383,28826.542999999998,0.0,0.0,-0.09900999678542177,0.0,0.0,0.0,-2.5235351417785274,-2.4568427162214976,-3.7821715165462666,0.01001056182201553,-0.009543298903950271,-0.3057586237535267
9902,2.0,300.19057999999995,28896.66,0.0,0.0,-0.0990200012057959,0.0,0.0,0.0,-2.5226917123952877,-2.4631584054198075,-3.7980129725846967,-0.008175213381205743,-0.005696656614016234,-0.2948431742687557
9903,2.0,300.02315,29013.208,0.0,0.0,-0.09903000562617004,0.0,0.0,0.0,-2.509864270104318,-2.4846258313134775,-3.824800670778436,0.009764810675886781,-0.008429749000401452,-0.28930025039171176
9904,2.0,299.78311,29025.519,0.0,0.0,-0.09904001004654417,0.0,0.0,0.0,-2.5001543957210277,-2.4883944124104076,-3.8344842006591264,-0.007105984354256053,-0.003764791034930946,-0.27466734841005674
9905,2.0,299.34725,28842.822,0.0,0.0,-0.09905001446691852,0.0,0.0,0.0,-2.4960229697632874,-2.4734144216069978,-3.798060291364367,-0.00027009911033420677,0.002971157219905387,-0.30303501761722773
9906,2.0,300.41306000000003,28857.732999999997,0.0,0.0,-0.09905998597801502,0.0,0.0,0.0,-2.5155660310670376,-2.4645960046616873,-3.7918680160282365,-0.008675036989909492,0.018146864474206086,-0.2982957935870027
9907,2.0,300.03812,29022.051,0.0,0.0,-0.09906999039838915,0.0,0.0,0.0,-2.541967680972677,-2.488031060924548,-3.791979980164286,-0.008052877819782162,0.014583736047052686,-0.3034544524961227
9908,2.0,300.12251000000003,29080.191000000003,0.0,0.0,-0.0990799948187634,0.0,0.0,0.0,-2.5430023106497877,-2.4728624029525177,-3.8237873193534266,-0.015380210407408586,0.013146994014757288,-0.2925009453375957
9909,2.0,300.60067999999995,28816.048,0.0,0.0,-0.09908999923913753,0.0,0.0,0.0,-2.5078297652285277,-2.455918733455308,-3.7956104552725862,-0.009449828102100422,-0.02042101414439718,-0.3152233726726247
9910,2.0,300.65488999999997,28672.532000000003,0.0,0.0,-0.09910000365951166,0.0,0.0,0.0,-2.4701236892572274,-2.4580407831397375,-3.7875693024789863,0.00022961655683638977,-0.013185204689278387,-0.3158257903870787
9911,2.0,300.46963,28898.357999999997,0.0,0.0,-0.09911000807988579,0.0,0.0,0.0,-2.5130587436945877,-2.4545777982729677,-3.8167425967081665,-0.001956840978150168,-0.007604866450966884,-0.3144641139751917
9912,2.0,299.99699,29102.675,0.0,0.0,-0.09912001250025992,0.0,0.0,0.0,-2.520086849038208,-2.494111878749677,-3.832287677092346,0.00985529735486712,0.015477336508994183,-0.3100553209350777
9913,2.0,299.24834,28985.575,0.0,0.0,-0.09912998401135664,0.0,0.0,0.0,-2.5311215479272473,-2.4785767282164772,-3.8011927540485164,-0.012294308591853789,0.012341677020778688,-0.3110433715050907
9914,2.0,299.16127,28846.918999999998,0.0,0.0,-0.09913998843173077,0.0,0.0,0.0,-2.5087846521227677,-2.4458302075096476,-3.8141280061501264,0.001999563858016588,0.03005195735814727,-0.2861596817067617
9915,2.0,299.91316,28877.924,0.0,0.0,-0.09914999285210502,0.0,0.0,0.0,-2.494592057972068,-2.4668053965047374,-3.8167703597609064,-0.005678329047532444,0.003777772997862166,-0.2833695759663997
9916,2.0,299.80438,29096.877,0.0,0.0,-0.09915999727247915,0.0,0.0,0.0,-2.5071725712136677,-2.488895059284818,-3.8486564284828164,0.004278908866770426,-0.010620700096931491,-0.28100174220521273
9917,2.0,299.93298,29136.565,0.0,0.0,-0.09917000169285306,0.0,0.0,0.0,-2.5381950468753476,-2.4938037493942677,-3.8247894237023266,0.002197389591640468,-0.03462195747592117,-0.3004999469270357
9918,2.0,300.4613,28920.694,0.0,0.0,-0.09918000611322741,0.0,0.0,0.0,-2.5097262654406975,-2.4827989413831775,-3.798643619446936,0.0016265522483532083,-0.006310066673505093,-0.30727153787533973
9919,2.0,300.93901,28805.535,0.0,0.0,-0.09919001053360166,0.0,0.0,0.0,-2.5063277232802874,-2.4587148984312677,-3.791120845404496,-0.0017801115169083282,-0.0027942678677977677,-0.3089636858073417
9920,2.0,300.3513,29037.506,0.0,0.0,-0.09920001495397579,0.0,0.0,0.0,-2.5178443239168873,-2.488528668048658,-3.8203035628596065,0.006880019145480023,0.009245080958368452,-0.3039534072428657
9921,2.0,299.82337,29205.301,0.0,0.0,-0.09920998646507229,0.0,0.0,0.0,-2.5203909253932175,-2.5034077391421077,-3.8538836844237063,-0.01122632677445219,-0.0021941539800961383,-0.3110933146025197
9922,2.0,299.9924,29094.414,0.0,0.0,-0.09921999088544664,0.0,0.0,0.0,-2.518814814862668,-2.4872780134502275,-3.8378825401695167,-0.006278188913434004,-0.002849734698146917,-0.3076497334751647
9923,2.0,299.67786,28918.783,0.0,0.0,-0.09922999530582077,0.0,0.0,0.0,-2.5201784468472472,-2.4665320216277578,-3.8038774615134763,-0.012167076803296989,-0.016095829436284684,-0.3061374374359127
9924,2.0,300.02662000000004,28936.171000000002,0.0,0.0,-0.09923999972619468,0.0,0.0,0.0,-2.5184721336788476,-2.470100181854908,-3.8073011322763666,-0.004007849468918946,-0.011908707147047887,-0.3045613674353667
9925,2.0,299.62552,29047.711,0.0,0.0,-0.09925000414656893,0.0,0.0,0.0,-2.5328779156505874,-2.4896663452609373,-3.8072345617447967,0.007527690534575212,-0.012999155758916789,-0.28756436045289274
9926,2.0,300.41,29080.537,0.0,0.0,-0.09926000856694306,0.0,0.0,0.0,-2.5172557269337976,-2.4893524403799576,-3.8331489396773466,0.0037909731135399166,0.003252530287874747,-0.2922413911919797
9927,2.0,299.98195,28996.725,0.0,0.0,-0.09927001298731741,0.0,0.0,0.0,-2.5079391962393274,-2.4768215763932577,-3.8295194778191464,0.0038906679054540264,0.0003901561863904176,-0.27125763010104376
9928,2.0,300.31689,28892.571,0.0,0.0,-0.09927998449841391,0.0,0.0,0.0,-2.4940526036188273,-2.4831657379193777,-3.8054017949639163,0.02176263732355508,0.00046660285655261653,-0.3023186801940307
9929,2.0,299.85236000000003,29123.699,0.0,0.0,-0.09928998891878804,0.0,0.0,0.0,-2.5352275413074774,-2.5053794225116977,-3.8122704147417963,0.023371422130079776,-0.009010353365377642,-0.2994778815511657
9930,2.0,300.26557,29374.119,0.0,0.0,-0.09929999333916217,0.0,0.0,0.0,-2.5789772488252374,-2.5236396078638372,-3.8263820502095065,0.005165726531217515,-0.008813134568563662,-0.3178832453776337
9931,2.0,299.51586000000003,29163.318,0.0,0.0,-0.0993099977595363,0.0,0.0,0.0,-2.5659907262685677,-2.4940089325395176,-3.8049209064664566,-0.010913330778811889,-0.0015405373460391986,-0.2966490392594807
9932,2.0,299.38007999999996,28779.129,0.0,0.0,-0.09932000217991055,0.0,0.0,0.0,-2.4865280057262074,-2.4565518121177874,-3.805056681979857,-0.012451751445392187,0.009732226680495991,-0.3024463902366347
9933,2.0,299.66992999999997,28843.72,0.0,0.0,-0.09933000660028468,0.0,0.0,0.0,-2.4801308512198577,-2.4759255593298275,-3.8117142417619063,0.005597005391856425,0.020618193627107283,-0.29895930014998573
9934,2.0,299.83457000000004,29117.82,0.0,0.0,-0.09934001102065881,0.0,0.0,0.0,-2.5171840901517273,-2.4862674991254976,-3.8476388214073864,-0.004036208211392736,0.02862934003224587,-0.29720211169406474
9935,2.0,299.76853,29130.409,0.0,0.0,-0.09935001544103295,0.0,0.0,0.0,-2.5367043533282274,-2.4911909826864074,-3.8270216136726263,0.005707700330831165,0.0015200799278452086,-0.3107725905483667
9936,2.0,299.87816000000004,29012.6,0.0,0.0,-0.09935998695212966,0.0,0.0,0.0,-2.538101118591077,-2.4820791285121375,-3.798925708274776,-0.018440512459186882,0.002103036046303498,-0.3038485459900167
9937,2.0,300.39871,28994.057,0.0,0.0,-0.0993699913725038,0.0,0.0,0.0,-2.5193650096669677,-2.4814440233494577,-3.812660313380276,-0.017667439109890482,-0.003165776523587817,-0.3087488767861417
9938,2.0,300.8478,29149.377999999997,0.0,0.0,-0.09937999579287793,0.0,0.0,0.0,-2.507162438712668,-2.5078483077053577,-3.8456721029632863,-0.007778278126081283,-0.007149377803038654,-0.2881661195547817
9939,2.0,300.64687000000004,29295.245,0.0,0.0,-0.09939000021325217,0.0,0.0,0.0,-2.5321028806490977,-2.5033824078896076,-3.8695376891936366,-0.014624101904536488,0.003714448818287556,-0.2917292540614357
9940,2.0,300.47081000000003,29293.537999999997,0.0,0.0,-0.0994000046336263,0.0,0.0,0.0,-2.542342583509677,-2.504195237119827,-3.8579662717266263,-0.006684414050775305,0.0062927463789457135,-0.30253664042304174
9941,2.0,300.0313,28991.888,0.0,0.0,-0.09941000905400044,0.0,0.0,0.0,-2.5233377606590475,-2.4907813256709774,-3.798691039551617,0.0033326652998584574,-0.006153643554867334,-0.3347009273574097
9942,2.0,300.18985,28893.382,0.0,0.0,-0.09942001347437457,0.0,0.0,0.0,-2.5243658042105075,-2.4678834946111374,-3.790617361429806,0.02202707128165268,-7.236629579749733e-05,-0.30849329458091773
9943,2.0,299.79138,29181.425,0.0,0.0,-0.09942998498547106,0.0,0.0,0.0,-2.539540136383098,-2.4975286594118873,-3.8333559466727762,0.011660445673796389,0.003978874873034377,-0.3143700337034067
9944,2.0,299.76376,29211.293999999998,0.0,0.0,-0.09943998940584542,0.0,0.0,0.0,-2.5294956868167877,-2.488798091250248,-3.8612101919217765,-0.0026520117080831773,0.027046849065816177,-0.2857208228234497
9945,2.0,299.297,29005.31,0.0,0.0,-0.09944999382621955,0.0,0.0,0.0,-2.5047507008246477,-2.4738101970960575,-3.8383291808135964,-0.023024749754115875,0.022445231491921878,-0.3003382930060817
9946,2.0,300.12855,29061.516,0.0,0.0,-0.0994599982465938,0.0,0.0,0.0,-2.5165968103937675,-2.4822560419795976,-3.835122548222126,-0.017785978225839383,0.03746621636787767,-0.2969452933237187
9947,2.0,300.23056,29198.931,0.0,0.0,-0.0994700026669677,0.0,0.0,0.0,-2.557580953088588,-2.4968292128678575,-3.8213357607364764,-0.00870999766473484,0.008030030955202352,-0.2996513803657887
9948,2.0,300.32243,29350.08,0.0,0.0,-0.09948000708734184,0.0,0.0,0.0,-2.5729391901543273,-2.5127969198687476,-3.8359552371543066,-0.003148482776181057,-0.017173551626897585,-0.3058158521191747
9949,2.0,300.18318,29292.889,0.0,0.0,-0.09949001150771619,0.0,0.0,0.0,-2.5549693009558374,-2.518289242035798,-3.8310483708950365,-0.009040173417145652,-0.036769680891384965,-0.3124178452657407
9950,2.0,300.43994,29007.702,0.0,0.0,-0.09950001592809044,0.0,0.0,0.0,-2.4862463221984075,-2.4937480206387677,-3.8376227428438763,0.02039000565158688,-0.028146121059555874,-0.3074815136935627
9951,2.0,300.21204,28894.121,0.0,0.0,-0.09950998743918693,0.0,0.0,0.0,-2.4804793079292478,-2.4912748797946875,-3.8113370087496765,0.023092481470300477,-0.016230776111102883,-0.3011190326056347
9952,2.0,299.5968,29229.217,0.0,0.0,-0.09951999185956106,0.0,0.0,0.0,-2.5358946651733176,-2.512859234749898,-3.8361981132032765,0.008633912917375862,0.009747402836518761,-0.3106393684252187
9953,2.0,299.20453,29411.379,0.0,0.0,-0.09952999627993542,0.0,0.0,0.0,-2.5935879099671975,-2.515205212706427,-3.831531691192736,-0.010170444176494691,0.012728049548910688,-0.30691089176724673
9954,2.0,299.55969,29105.395,0.0,0.0,-0.09954000070030955,0.0,0.0,0.0,-2.5424536357206375,-2.492212845412258,-3.8126469384789563,-0.028509940666962073,-0.0058669063408685745,-0.31161380091388774
9955,2.0,299.40722999999997,28966.457000000002,0.0,0.0,-0.09955000512068346,0.0,0.0,0.0,-2.5037418077000773,-2.4755987861725774,-3.8257389403710365,-0.007036639138612213,-0.007496719937318654,-0.2957176496350597
9956,2.0,299.32811,29250.709,0.0,0.0,-0.0995600095410577,0.0,0.0,0.0,-2.5294433017866176,-2.4982567809337475,-3.863785063075896,0.012420829078840387,-0.006464549114226324,-0.2983861147009167
9957,2.0,300.07852,29481.306,0.0,0.0,-0.09957001396143184,0.0,0.0,0.0,-2.562389027463108,-2.518382562370008,-3.8808092859560563,0.004548489426100956,-0.001927181627848018,-0.2860392062698717
9958,2.0,300.43297,29307.225,0.0,0.0,-0.09957998547252855,0.0,0.0,0.0,-2.5636070554083177,-2.5041767959680077,-3.840880848540426,-0.004718950111624116,0.001058243774665529,-0.30594591290201073
9959,2.0,300.59662000000003,29120.868,0.0,0.0,-0.09958998989290269,0.0,0.0,0.0,-2.544556332328158,-2.4972946999637977,-3.810165691634076,-0.007254142999778174,0.019248081908137784,-0.30303126859185775
9960,2.0,300.63845,29051.915,0.0,0.0,-0.09959999431327682,0.0,0.0,0.0,-2.538803706210418,-2.4844978578258474,-3.8077550683211663,0.0058469807776520746,0.01781670604837198,-0.3064956010812607
9961,2.0,300.05191,29199.612999999998,0.0,0.0,-0.09960999873365095,0.0,0.0,0.0,-2.5158689928469378,-2.5093420410027774,-3.8507421024886566,-0.003042166597513467,-0.01035053924926869,-0.31032006292120573
9962,2.0,299.7075,29282.002999999997,0.0,0.0,-0.09962000315402508,0.0,0.0,0.0,-2.531787455892968,-2.4936484181539376,-3.875561967663186,-0.012624360626427387,-0.01992068441726848,-0.2922755478528507
9963,2.0,300.18417,29092.882,0.0,0.0,-0.09963000757439933,0.0,0.0,0.0,-2.517803591262868,-2.4807648418074275,-3.844941346991166,-0.00015609175545755686,-0.011692320495442188,-0.28724686866655874
9964,2.0,300.07717,28955.103,0.0,0.0,-0.09964001199477346,0.0,0.0,0.0,-2.5243641830103476,-2.4787344912570477,-3.7985295274856763,0.010809425020807189,-0.002329332182562188,-0.3030006380413347
9965,2.0,300.04134,29311.392999999996,0.0,0.0,-0.09965001641514759,0.0,0.0,0.0,-2.5728345214189976,-2.4924633208369773,-3.8446338255858166,0.014508809241907986,0.0004812797538536136,-0.30758253472853275
9966,2.0,299.7413,29644.474,0.0,0.0,-0.09965998792624431,0.0,0.0,0.0,-2.5973090709594473,-2.524555383304218,-3.889315317895536,0.01117489825237659,-0.0037592314329572564,-0.2985279393174137
9967,2.0,299.17977,29322.337000000003,0.0,0.0,-0.09966999234661844,0.0,0.0,0.0,-2.5247834659017276,-2.5060154395994676,-3.8824593637439064,-0.002535723121931388,0.0013840254666926785,-0.2991939587406447
9968,2.0,299.24012999999997,29071.245,0.0,0.0,-0.09967999676699257,0.0,0.0,0.0,-2.498972743454408,-2.4940760096961374,-3.843883716536786,-0.0022120274078851077,-0.003163190810657627,-0.31528476549618367
9969,2.0,299.75478,29151.275,0.0,0.0,-0.0996900011873667,0.0,0.0,0.0,-2.5251902858168775,-2.490935947636238,-3.8451335605351358,-0.004675078712769345,-0.0027800431536188974,-0.29993715742399274
9970,2.0,299.85213,29156.472,0.0,0.0,-0.09970000560774095,0.0,0.0,0.0,-2.559154834468918,-2.4850645686067776,-3.818620047818456,-0.011110086722980188,-0.0071563337649751535,-0.30554486851243073
9971,2.0,300.29638,29282.311,0.0,0.0,-0.09971001002811508,0.0,0.0,0.0,-2.558770812681018,-2.4962672643623978,-3.846053186325896,0.00015798880282478085,0.015759473972838983,-0.2939115718618137
9972,2.0,299.92409,29238.214,0.0,0.0,-0.09972001444848921,0.0,0.0,0.0,-2.535195015979268,-2.5036977313207274,-3.8487942304964164,0.008405175355001222,0.008730398746223273,-0.3099830660704467
9973,2.0,299.70701,29135.952,0.0,0.0,-0.09972998595958571,0.0,0.0,0.0,-2.5144727342091375,-2.491848379351288,-3.850280871043136,0.015151700218356386,0.010739110530117689,-0.3038464586948107
9974,2.0,300.70461,29375.247000000003,0.0,0.0,-0.09973999037995984,0.0,0.0,0.0,-2.5399571901242575,-2.510306148472927,-3.8790782494852167,0.018333900310165085,-0.00966455616461743,-0.29492583521191373
9975,2.0,300.50817,29625.748,0.0,0.0,-0.0997499948003342,0.0,0.0,0.0,-2.598965329572908,-2.519795134334418,-3.8867271731651063,0.007200986886282073,0.0035687596659091563,-0.28786784912284474
9976,2.0,299.98362000000003,29421.246,0.0,0.0,-0.09975999922070833,0.0,0.0,0.0,-2.5863679963796478,-2.5132838878668076,-3.843672048590896,-0.015898720881081584,-0.007190248056422232,-0.29178434446937274
9977,2.0,299.76009,29097.896,0.0,0.0,-0.09977000364108235,0.0,0.0,0.0,-2.5435017416240777,-2.4888922221845373,-3.812639947053267,-0.022134803072034977,0.018169950364484485,-0.3152179720495917
9978,2.0,299.60598999999996,29071.47,0.0,0.0,-0.09978000806145648,0.0,0.0,0.0,-2.5158707153721074,-2.478977873931068,-3.8421524774159264,0.0025100772552753376,0.010300142215794889,-0.3009456857785267
9979,2.0,299.74197999999996,29278.836,0.0,0.0,-0.09979001248183061,0.0,0.0,0.0,-2.5376086790424774,-2.503234068074968,-3.8591924056726357,-0.003948920261653087,0.01213691336107009,-0.3088071893293967
9980,2.0,299.71616,29270.161,0.0,0.0,-0.09979998399292733,0.0,0.0,0.0,-2.5201195770164375,-2.519781860758108,-3.857496427655256,0.014343306997074187,-0.0041026460071996364,-0.31580378259490666
9981,2.0,299.27477999999996,29081.815,0.0,0.0,-0.09980998841330146,0.0,0.0,0.0,-2.5329168244544276,-2.499172252399098,-3.8080565102259167,0.01081057303317049,-0.013047403688928488,-0.3168538136735367
9982,2.0,299.46079,29090.479,0.0,0.0,-0.09981999283367571,0.0,0.0,0.0,-2.5441576184138075,-2.4895886289782676,-3.809032979347286,0.009841105773966522,-0.009689239848978522,-0.3088808931416707
9983,2.0,299.47234,29202.556,0.0,0.0,-0.09982999725404984,0.0,0.0,0.0,-2.5495453731705378,-2.487490694646218,-3.839811869684926,-0.006677776249370204,-0.0015406253974728887,-0.2913380787278297
9984,2.0,299.99877999999995,29413.952,0.0,0.0,-0.0998400016744242,0.0,0.0,0.0,-2.5359103705498676,-2.5319850396624677,-3.8732116327312265,-0.01112033473449159,0.008159610849540892,-0.3015683583624797
9985,2.0,300.28625,29481.511000000002,0.0,0.0,-0.09985000609479833,0.0,0.0,0.0,-2.5521104157986874,-2.5186450954709176,-3.8908874767506965,-0.02983979393295837,0.020412235345530782,-0.28994231658257874
9986,2.0,299.97359,29262.697999999997,0.0,0.0,-0.09986001051517224,0.0,0.0,0.0,-2.5312368557886273,-2.5037276221986775,-3.8601651257686367,-0.004788853729398065,0.011286843136674688,-0.3090667232100107
9987,2.0,300.64123,29236.646,0.0,0.0,-0.09987001493554648,0.0,0.0,0.0,-2.5618590976608075,-2.486554046253777,-3.838797099709776,0.001195838375970059,0.0027485740373131375,-0.3033476863330857
9988,2.0,300.15116,29450.225,0.0,0.0,-0.09987998644664309,0.0,0.0,0.0,-2.577960351024877,-2.5186691094982874,-3.855503668683586,0.01987580858358958,-0.013544639963501885,-0.2998237747378027
9989,2.0,300.1967,29388.083,0.0,0.0,-0.09988999086701733,0.0,0.0,0.0,-2.547413190985108,-2.5193049239360374,-3.8665253979713463,0.007395599705163863,-0.004138517391214866,-0.2968183128211867
9990,2.0,299.95836,29137.326,0.0,0.0,-0.09989999528739146,0.0,0.0,0.0,-2.494873336199827,-2.4983541542683576,-3.863791953176576,0.005179650816741735,-0.01031593169210319,-0.30026574429892167
9991,2.0,300.24322,29224.751,0.0,0.0,-0.0999099997077656,0.0,0.0,0.0,-2.5186103409924874,-2.4982624551343076,-3.8667216645157163,-0.005823458277905584,0.003670570529332106,-0.2897717055307407
9992,2.0,299.20676000000003,29413.816000000003,0.0,0.0,-0.09992000412813973,0.0,0.0,0.0,-2.5548179213908977,-2.5205937780632377,-3.865653800235326,-0.01579397412549388,-0.005744555682018504,-0.3044086807777977
9993,2.0,299.76068,29497.841,0.0,0.0,-0.09993000854851386,0.0,0.0,0.0,-2.5843072483262675,-2.5287424366924474,-3.853557417891506,-0.004791422521051586,0.007527747681880853,-0.3112655975170227
9994,2.0,299.42402000000004,29418.025,0.0,0.0,-0.0999400129688881,0.0,0.0,0.0,-2.5819383709174777,-2.5045650734063276,-3.8558416889169465,0.003545089434298087,-0.0024761287159748777,-0.2906060663255857
9995,2.0,299.80012999999997,29259.147,0.0,0.0,-0.09994998447998471,0.0,0.0,0.0,-2.5265340580994975,-2.5075063357966076,-3.860009591878286,0.008051528677274012,-0.0017811571910115282,-0.29517583440908673
9996,2.0,299.8512,29231.567000000003,0.0,0.0,-0.09995998890035873,0.0,0.0,0.0,-2.509633755706568,-2.5039189238175577,-3.872113877572886,0.02140199425521238,-0.006874651149100244,-0.30333723972455473
9997,2.0,300.38023,29489.23,0.0,0.0,-0.09996999332073309,0.0,0.0,0.0,-2.5337489054365476,-2.5364293572510874,-3.893811311239256,0.01278577339385759,0.015950613471702985,-0.3155220078745977
9998,2.0,300.61703,29455.346,0.0,0.0,-0.09997999774110722,0.0,0.0,0.0,-2.5631188715101376,-2.5166308555971275,-3.8739400582281167,-0.009813245145241891,0.007093062983680813,-0.3188340691389727
9999,2.0,300.24784,29134.534,0.0,0.0,-0.09999000216148135,0.0,0.0,0.0,-2.5518505171480377,-2.481285956333858,-3.8230343732041168,-0.02080844045263318,-0.01005942905048835,-0.3293571577875207
10000,2.0,299.48179,29142.228,0.0,0.0,-0.10000000658185548,0.0,0.0,0.0,-2.551046199218658,-2.4923738508531477,-3.8150896818200364,-0.015421364573470186,-0.014507847667563085,-0.3238455838685707
10001,2.0,299.69698999999997,29458.874,0.0,0.0,-0.10001001100222973,0.0,0.0,0.0,-2.569739751638568,-2.5127561872147273,-3.872266067737906,-0.0010820434996393791,-0.009974368325793511,-0.3071406563599227
10002,2.0,299.64762,29521.613999999998,0.0,0.0,-0.10002001542260386,0.0,0.0,0.0,-2.5467514373447977,-2.530258968117118,-3.8968230958364964,0.006484383383608813,0.01322894264309499,-0.2920127918369187
10003,2.0,299.39696000000004,29371.956000000002,0.0,0.0,-0.10002998693370035,0.0,0.0,0.0,-2.541463183747888,-2.5089963200686576,-3.8778817024421257,0.005950234711867444,-0.0012724073555518288,-0.29562627474104175
10004,2.0,300.02655,29380.12,0.0,0.0,-0.10003999135407449,0.0,0.0,0.0,-2.5696686214815476,-2.5103737322545974,-3.850780605992456,0.020397947505870682,0.01968938779044128,-0.29922514657872273
10005,2.0,299.81961,29397.127,0.0,0.0,-0.10004999577444862,0.0,0.0,0.0,-2.5991631159924276,-2.5085518072497877,-3.828277739821597,0.01031737354699549,0.014726588099151087,-0.3089055252516017
10006,2.0,300.18902,29506.191000000003,0.0,0.0,-0.10006000019482297,0.0,0.0,0.0,-2.5814570771199774,-2.5144770911845677,-3.873211024781166,0.013635714935490286,-0.008125308787280542,-0.28603797010474974
10007,2.0,300.66735,29536.695,0.0,0.0,-0.1000700046151971,0.0,0.0,0.0,-2.5643111629028077,-2.5208854927670274,-3.893221194381016,-0.017257626053945086,-0.03188259530056717,-0.2865632693540927
10008,2.0,300.35014,29279.145,0.0,0.0,-0.10008000903557135,0.0,0.0,0.0,-2.5086055095050876,-2.5084103575358276,-3.8831131127084264,-0.014440023745619384,-0.015349170503845187,-0.29874481536881775
10009,2.0,299.73732,29215.741,0.0,0.0,-0.10009001345594526,0.0,0.0,0.0,-2.512118244951768,-2.5079789156432475,-3.8607586876772166,0.0003710916020488897,-0.0029485575883499773,-0.3198760448793077
10010,2.0,300.5326,29530.218999999997,0.0,0.0,-0.1000999849670422,0.0,0.0,0.0,-2.5795593610076875,-2.5354625140056677,-3.8614274327432163,-0.0008379695154736521,0.008167325229177243,-0.31914583606224173
10011,2.0,299.61428,29646.859,0.0,0.0,-0.10010998938741611,0.0,0.0,0.0,-2.6099744945594274,-2.5266068094566774,-3.8753235499146563,0.01067081342037729,-0.004058309627873975,-0.3131242731029597
10012,2.0,299.89157,29410.691000000003,0.0,0.0,-0.10011999380779024,0.0,0.0,0.0,-2.5639730413444375,-2.5295984303769274,-3.8465442073243565,-0.0008823971987658233,-0.005329660163571505,-0.3103930067959047
10013,2.0,300.06047,29246.229,0.0,0.0,-0.10012999822816449,0.0,0.0,0.0,-2.5184221804489177,-2.5040585496813375,-3.8676427088566165,0.0004324321419027296,-0.0038691658264069363,-0.29593719053422674
10014,2.0,300.13363,29368.992000000002,0.0,0.0,-0.10014000264853862,0.0,0.0,0.0,-2.5157176132819976,-2.5221641130682175,-3.8895583965945266,-0.0002993549844465367,-0.017672499280889882,-0.28524828350681375
10015,2.0,299.50793,29485.028,0.0,0.0,-0.10015000706891297,0.0,0.0,0.0,-2.5581354035433077,-2.527719763366518,-3.876857002615996,-0.0037907948828473266,-0.008527651454213673,-0.3059907289539337
10016,2.0,299.67766,29635.639,0.0,0.0,-0.1001600114892871,0.0,0.0,0.0,-2.6095065756632474,-2.5206906447727975,-3.878297236308136,0.007623788187309312,0.026534131342964874,-0.3161543873945087
10017,2.0,299.82448,29483.692000000003,0.0,0.0,-0.10017001590966101,0.0,0.0,0.0,-2.599456147921347,-2.5121218926521274,-3.8507283222872966,-0.006739313663718474,0.025913782141491176,-0.32289454732471073
10018,2.0,300.18047,29180.286,0.0,0.0,-0.10017998742075773,0.0,0.0,0.0,-2.532906691953427,-2.4952121670332676,-3.841959351946867,-0.00018410280115953182,0.01972851646955298,-0.3086877575401097
10019,2.0,299.81351,29360.588,0.0,0.0,-0.10018999184113186,0.0,0.0,0.0,-2.5381270577936372,-2.4991990022017374,-3.8875595581222564,-0.002943837768059167,-0.016575617544136084,-0.2937496747608357
10020,2.0,299.52074,29742.918999999998,0.0,0.0,-0.10019999626150611,0.0,0.0,0.0,-2.5784695092001275,-2.5534276409286876,-3.9092076465087566,0.008650765495689081,0.011782984087889989,-0.2984233415095907
10021,2.0,299.24537000000004,29546.157000000003,0.0,0.0,-0.10021000068188024,0.0,0.0,0.0,-2.582308511179008,-2.5218381505110474,-3.8771474000946564,0.005464844445538155,-0.006782279318308853,-0.30847805529941374
10022,2.0,299.8592,29268.278,0.0,0.0,-0.10022000510225437,0.0,0.0,0.0,-2.5643104536277375,-2.508994901518518,-3.8235204292770866,-0.008200228398349533,0.008718793486202922,-0.30958994529664874
10023,2.0,299.95671,29425.237,0.0,0.0,-0.1002300095226285,0.0,0.0,0.0,-2.5776759317218074,-2.5159597800558977,-3.8509015880543966,-0.02052440517135108,0.0011729275753089388,-0.30306496929018373
10024,2.0,299.90314,29664.557999999997,0.0,0.0,-0.10024001394300264,0.0,0.0,0.0,-2.5825416600270175,-2.5376243844190274,-3.897118762215676,0.0013404782065448988,0.02381737275084168,-0.29967314497793673
10025,2.0,300.35671,29595.912,0.0,0.0,-0.10024998545409936,0.0,0.0,0.0,-2.545169247313648,-2.546498732769858,-3.904750359318856,0.007145361482292273,-0.0017311865331798085,-0.3068488909936277
10026,2.0,300.14949,29412.511000000002,0.0,0.0,-0.10025998987447349,0.0,0.0,0.0,-2.5270638865767876,-2.5164390473531975,-3.897165979670336,-0.007788879356577543,-0.00964960363289173,-0.29618935808661373
10027,2.0,300.35826000000003,29299.592,0.0,0.0,-0.10026999429484751,0.0,0.0,0.0,-2.530103434226768,-2.5114524383110575,-3.864788484649926,0.013139441248511886,-0.016570325338863785,-0.32228170326672767
10028,2.0,300.1132,29434.737,0.0,0.0,-0.10027999871522186,0.0,0.0,0.0,-2.5703451685733176,-2.5348293340181773,-3.8422503573755864,0.005062958551750105,0.0015425494580877785,-0.3324427576545457
10029,2.0,299.80236,29649.145,0.0,0.0,-0.100290003135596,0.0,0.0,0.0,-2.5922322826584074,-2.5509305873822474,-3.8694368708086864,0.0069058485117291825,0.011907098105889089,-0.32758331149995573
10030,2.0,299.94652,29552.775,0.0,0.0,-0.10030000755597013,0.0,0.0,0.0,-2.5760009279814975,-2.5252268641454876,-3.8820778750812566,-0.014880395411330686,0.005239115526685445,-0.3016636444018837
10031,2.0,299.675,29339.95,0.0,0.0,-0.10031001197634426,0.0,0.0,0.0,-2.5270796932783477,-2.5127526408393774,-3.8787797460057565,-0.00841752586047012,0.0006584510529340594,-0.2970670555882357
10032,2.0,298.94433,29560.736,0.0,0.0,-0.1003200163967185,0.0,0.0,0.0,-2.5690624952717274,-2.5301207608034773,-3.886542558996886,-0.00030498851314752264,0.005262262211969845,-0.2948535398172787
10033,2.0,299.65468,29941.557999999997,0.0,0.0,-0.10032998790781511,0.0,0.0,0.0,-2.6362903221815976,-2.5649252937884177,-3.9002702740017066,0.006849324962850744,-0.003784640807039966,-0.28919511556133576
10034,2.0,300.59786,29690.291,0.0,0.0,-0.10033999232818913,0.0,0.0,0.0,-2.6085314237670074,-2.5218599353881976,-3.894715535628496,0.009717790095721211,-0.0034585495671072674,-0.2978719105401687
10035,2.0,300.47851,29280.592999999997,0.0,0.0,-0.10034999674856326,0.0,0.0,0.0,-2.5497655524172678,-2.5008569833403675,-3.8499467011601567,-0.002069850281678318,-0.006582893078205964,-0.2985648925485607
10036,2.0,300.73514,29428.752,0.0,0.0,-0.1003600011689374,0.0,0.0,0.0,-2.5479618659142576,-2.5181245888945476,-3.879519215928736,0.0064656605482610145,0.006894280134012473,-0.3110495523307007
10037,2.0,300.64259,29590.612999999998,0.0,0.0,-0.10037000558931175,0.0,0.0,0.0,-2.5554944684826677,-2.5213433804872176,-3.917969625423496,0.007503125603125842,-0.01955333869951428,-0.28807345783313676
10038,2.0,299.92278,29530.627999999997,0.0,0.0,-0.10038001000968588,0.0,0.0,0.0,-2.5630281856261874,-2.527645796109218,-3.885899550483426,0.011285386083030887,-0.005973009635690155,-0.3008873631027707
10039,2.0,299.5765,29499.01,0.0,0.0,-0.10039001443006013,0.0,0.0,0.0,-2.5825760092054075,-2.507662781612048,-3.8767237602278466,0.0067760069962148235,-0.014439310417548985,-0.2970381171653797
10040,2.0,299.99724,29436.652000000002,0.0,0.0,-0.10039998594115662,0.0,0.0,0.0,-2.5798152066579374,-2.5354142833009075,-3.832777684840707,0.004506357980317906,-0.005540899808644235,-0.3138278739723997
10041,2.0,299.63822000000005,29494.713,0.0,0.0,-0.10040999036153098,0.0,0.0,0.0,-2.5878820960040776,-2.5159110427260876,-3.8618631302862165,0.001078838184273039,-0.013392868270773187,-0.30989076911883773
10042,2.0,299.85187,29865.289,0.0,0.0,-0.10041999478190489,0.0,0.0,0.0,-2.6062209095639775,-2.5488562617775274,-3.923224948392156,-0.008092616374129053,0.009175486685850031,-0.29050966571107173
10043,2.0,300.11253999999997,29795.984,0.0,0.0,-0.10042999920227902,0.0,0.0,0.0,-2.5796524786918775,-2.5581320598179773,-3.919450693094667,-0.0022107961063635878,0.010717513104236189,-0.30212148145956874
10044,2.0,299.54432,29439.35,0.0,0.0,-0.10044000362265326,0.0,0.0,0.0,-2.5516170643249976,-2.5179624688785474,-3.879247867551957,-0.015205061008372683,-0.008117369263471971,-0.3113042834058407
10045,2.0,299.63383,29439.861,0.0,0.0,-0.1004500080430274,0.0,0.0,0.0,-2.550553759670058,-2.5229484699706273,-3.875480401030136,-0.013279840222118186,-0.02253732275376058,-0.3276259490641637
10046,2.0,300.20315,29661.046000000002,0.0,0.0,-0.10046001246340175,0.0,0.0,0.0,-2.6020552357528577,-2.5210603797342874,-3.893101833519236,0.001895793571550258,-0.007321603367585993,-0.3165450561030647
10047,2.0,299.87291,29631.987,0.0,0.0,-0.10046998397449824,0.0,0.0,0.0,-2.5699259870069477,-2.5263373862550873,-3.911120561372546,0.01943315305215288,0.012392355737780289,-0.3184430457928817
10048,2.0,300.28387999999995,29544.687,0.0,0.0,-0.10047998839487238,0.0,0.0,0.0,-2.5574810466287277,-2.5277467158191773,-3.895619354717696,0.01274205367854279,0.015815269602845586,-0.30684145373789373
10049,2.0,300.21853,29570.167,0.0,0.0,-0.10048999281524651,0.0,0.0,0.0,-2.5607136184227577,-2.5128941918783476,-3.914984590628896,0.005222878396482965,0.007824654785808302,-0.29101128530557774
10050,2.0,300.00796,29591.665,0.0,0.0,-0.10049999723562064,0.0,0.0,0.0,-2.590759928938098,-2.5163944643487977,-3.887972964163057,-0.001969997828048648,0.008553943571783502,-0.28351791578103974
10051,2.0,300.21706,29842.317000000003,0.0,0.0,-0.10051000165599489,0.0,0.0,0.0,-2.6037146354416274,-2.5590547253590374,-3.9085500471938563,-0.006654375846260764,0.0038943399238164263,-0.2899351326393697
10052,2.0,300.03037,29959.408,0.0,0.0,-0.10052000607636902,0.0,0.0,0.0,-2.641968373091977,-2.554259417935777,-3.910684154554476,-0.011418873677705091,-0.007732579938621222,-0.29133590024011474
10053,2.0,299.8086,29521.749,0.0,0.0,-0.10053001049674315,0.0,0.0,0.0,-2.555318568265308,-2.5359461382783977,-3.8826098313837565,-0.02803936908202027,-0.024180196333399576,-0.3186286833437027
10054,2.0,299.65213,29294.589,0.0,0.0,-0.10054001491711728,0.0,0.0,0.0,-2.5301890538602176,-2.4916595095326475,-3.882974905394786,-0.012002413529545989,7.698898694697143e-05,-0.3137833416305047
10055,2.0,299.23014,29527.645,0.0,0.0,-0.100549986428214,0.0,0.0,0.0,-2.5553661910200076,-2.5206508240438676,-3.899649860965476,0.010060120998981641,0.0007725103166133322,-0.3200676808707207
10056,2.0,299.58205,29720.682999999997,0.0,0.0,-0.10055999084858813,0.0,0.0,0.0,-2.5970383305327274,-2.5497781167185076,-3.887528957969236,0.02121553597181038,0.005146270913397396,-0.32186904703100166
10057,2.0,300.0132,29467.035,0.0,0.0,-0.10056999526896226,0.0,0.0,0.0,-2.5551244295461477,-2.5215537312079777,-3.8805646873819164,0.0075598534232244425,-0.023892573133513374,-0.3244322759414727
10058,2.0,299.90821,29422.363999999998,0.0,0.0,-0.10057999968933629,0.0,0.0,0.0,-2.5637779907001876,-2.5197496394049272,-3.8601364507908063,0.004289981663863226,0.007879438482940032,-0.3160249244292317
10059,2.0,299.73483999999996,29691.125,0.0,0.0,-0.10059000410971064,0.0,0.0,0.0,-2.559260415129337,-2.5412455376264074,-3.9248546598529965,-0.00098351547534792,0.00976587316994164,-0.29431615249424276
10060,2.0,300.06425,29886.472999999998,0.0,0.0,-0.10060000853008477,0.0,0.0,0.0,-2.580603413910727,-2.5696551452552177,-3.9344829676032362,-0.0032569817995390772,0.008593553038067652,-0.2917601075269807
10061,2.0,300.61987,29816.688,0.0,0.0,-0.1006100129504589,0.0,0.0,0.0,-2.5734076156755576,-2.5840627510771377,-3.9060583638729462,-0.010908810670115789,-0.0029339919155124575,-0.30002990020564574
10062,2.0,300.17387,29593.515,0.0,0.0,-0.1006199844615554,0.0,0.0,0.0,-2.5896422127527874,-2.523429662443118,-3.8826178360595467,-0.008781540923820611,0.008371516503904351,-0.2840821947617297
10063,2.0,300.25532999999996,29507.202999999998,0.0,0.0,-0.10062998888192975,0.0,0.0,0.0,-2.570600203623487,-2.5411986241467774,-3.8576541906958264,0.010290981421640791,0.005930393045759224,-0.3097242718624057
10064,2.0,300.24412,29707.254,0.0,0.0,-0.10063999330230389,0.0,0.0,0.0,-2.5983502867622077,-2.5430082888253773,-3.888904850280026,-0.0003982008652943656,-0.012944733082795689,-0.3073629836968647
10065,2.0,299.62422000000004,29832.091,0.0,0.0,-0.10064999772267791,0.0,0.0,0.0,-2.5830306545252775,-2.5587970558586077,-3.926382843653817,0.008258175056993423,-0.027212854895949674,-0.3142595894425067
10066,2.0,300.08056,29571.191000000003,0.0,0.0,-0.10066000214305204,0.0,0.0,0.0,-2.569963173285618,-2.5223183297334373,-3.896622269666676,0.0007383659971285501,-0.00910894817298319,-0.30580155516026375
10067,2.0,300.18376,29456.92,0.0,0.0,-0.10067000656342617,0.0,0.0,0.0,-2.5486492547820974,-2.515209063056808,-3.8903099241936965,0.004502968456083386,0.019280333658820783,-0.3174964979469647
10068,2.0,299.6179,29683.016,0.0,0.0,-0.10068001098380053,0.0,0.0,0.0,-2.6119662402809976,-2.5371678139239675,-3.8737617262105166,-0.002263975929912028,0.0014369365763145987,-0.3183415890603687
10069,2.0,300.02166,29813.087000000003,0.0,0.0,-0.10069001540417477,0.0,0.0,0.0,-2.5994374027944978,-2.552253588037818,-3.910743125710296,-0.0008574875191024291,-0.004000138129032897,-0.3055990976577827
10070,2.0,299.94282999999996,29642.658,0.0,0.0,-0.10069998691527127,0.0,0.0,0.0,-2.582531527526018,-2.532317892320318,-3.895778434983396,0.01109424557091679,-0.006903704474517583,-0.30002989007314473
10071,2.0,299.17938,29557.138,0.0,0.0,-0.1007099913356454,0.0,0.0,0.0,-2.5526262614245976,-2.5410518042072874,-3.8909537433072363,0.00902185851628811,0.0019825905002914482,-0.3068665316778687
10072,2.0,299.3337,29615.99,0.0,0.0,-0.10071999575601975,0.0,0.0,0.0,-2.565551887650258,-2.5378664498679178,-3.899103212536526,-0.006401700148948614,-0.014962743260207786,-0.2964900603187907
10073,2.0,299.10841,29627.071,0.0,0.0,-0.10073000017639366,0.0,0.0,0.0,-2.560201420497208,-2.5540946634695176,-3.8915939147204166,-0.006050677079705334,-0.012007694589067188,-0.3157119720033457
10074,2.0,299.39031,29784.915,0.0,0.0,-0.1007400045967678,0.0,0.0,0.0,-2.5981472314421676,-2.548207579063508,-3.907515721491776,-0.007407894988502313,0.009237320171877521,-0.3099550902351857
10075,2.0,299.44111000000004,29791.357000000004,0.0,0.0,-0.10075000901714204,0.0,0.0,0.0,-2.6022668023737374,-2.545268241848418,-3.908293492268536,-0.010994512376823888,0.016096544790855285,-0.3139106261080667
10076,2.0,299.69166,29527.568,0.0,0.0,-0.10076001343751617,0.0,0.0,0.0,-2.5628925114377976,-2.530683925209058,-3.8820669319801757,-0.00944346691797262,-0.011378665887236888,-0.3280483628983527
10077,2.0,300.09058,29623.412999999997,0.0,0.0,-0.10076998494861289,0.0,0.0,0.0,-2.5542717795869976,-2.5302134731876276,-3.9202925012777463,-0.009225716026432282,-0.016088138868025684,-0.30698651062220966
10078,2.0,299.99465,29932.85,0.0,0.0,-0.10077998936898702,0.0,0.0,0.0,-2.6162988977085977,-2.5450030742972474,-3.937537004729646,0.016528009988187584,-0.007207131640188513,-0.2971146276804307
10079,2.0,299.84956,29883.074,0.0,0.0,-0.10078999378936115,0.0,0.0,0.0,-2.6048794677565876,-2.543047704254268,-3.9357812449563667,0.011485696508549989,0.016834126015648883,-0.3017291712858507
10080,2.0,300.07135,29724.886000000002,0.0,0.0,-0.10079999820973529,0.0,0.0,0.0,-2.604313972875777,-2.531852810524418,-3.899456431521386,0.011350363785443688,0.005585394862935555,-0.3084532914669697
10081,2.0,300.28695,29813.53,0.0,0.0,-0.10081000263010942,0.0,0.0,0.0,-2.6025371375004176,-2.5539444998046976,-3.9060870388507762,-0.011977411583328488,0.007196625452551633,-0.3074569018486337
10082,2.0,300.33837,29925.987,0.0,0.0,-0.10082000705048366,0.0,0.0,0.0,-2.6088032787688373,-2.554047547339868,-3.9339019699958957,-0.006082814941077094,0.0011783733892963989,-0.2987927117010447
10083,2.0,300.48191,29868.702999999998,0.0,0.0,-0.1008300114708578,0.0,0.0,0.0,-2.5836394151853574,-2.5640517708772075,-3.9316488057485257,-0.008882950134903922,0.012187361057048887,-0.32411777324293367
10084,2.0,299.77091,29799.46,0.0,0.0,-0.10084001589123193,0.0,0.0,0.0,-2.5925516590899274,-2.5455380703500476,-3.920202018043817,-0.01016868314782089,-0.005531884314554474,-0.3095957208222187
10085,2.0,299.25547,29575.617000000002,0.0,0.0,-0.10084998740232864,0.0,0.0,0.0,-2.5669489568881376,-2.5143139579184677,-3.908986048711886,-0.0027059566367821273,-0.0033127392300169064,-0.3168817895087977
10086,2.0,299.18627999999995,29513.648999999998,0.0,0.0,-0.10085999182270278,0.0,0.0,0.0,-2.5644444052909576,-2.5252945492521675,-3.881673385641336,0.006209729177052555,-0.005950019193571175,-0.3121305989948917
10087,2.0,299.77123,29857.316000000003,0.0,0.0,-0.10086999624307691,0.0,0.0,0.0,-2.589767146490118,-2.544344563057258,-3.9417669185971067,-0.0033627658192541474,0.0070498135177374235,-0.30839080433330274
10088,2.0,299.754,29963.45,0.0,0.0,-0.10088000066345104,0.0,0.0,0.0,-2.607033637469187,-2.5652817551735976,-3.935825321335716,0.008817038418548941,-0.026561659321681676,-0.2967606994205007
10089,2.0,299.96723,29685.624,0.0,0.0,-0.10089000508382506,0.0,0.0,0.0,-2.5618390353088274,-2.5479852719915677,-3.913864037343306,0.009693439162692961,-0.01974861327203638,-0.3161549548145647
10090,2.0,300.16074,29763.706000000002,0.0,0.0,-0.10090000950419942,0.0,0.0,0.0,-2.5950672551131975,-2.532066099670468,-3.9202899681524963,0.011310223882732189,-0.005683387496006676,-0.29842764782251574
10091,2.0,300.02761,29968.455,0.0,0.0,-0.10091001392457355,0.0,0.0,0.0,-2.6293388185455373,-2.568317047173158,-3.9120061419599463,0.0015652477802029284,0.014064541629562187,-0.3116722249146537
10092,2.0,300.13756,29887.968999999997,0.0,0.0,-0.10091998543567005,0.0,0.0,0.0,-2.6245239553953477,-2.558542527433487,-3.9021297905852266,-0.005292390595743285,0.011363647494254689,-0.3080201979767267
10093,2.0,300.15827,29687.151,0.0,0.0,-0.10092998985604418,0.0,0.0,0.0,-2.5877226104383375,-2.5449023572373077,-3.8915276481638763,-0.01010762935774535,0.023575902079760378,-0.3104604284575587
10094,2.0,299.75982999999997,29665.994,0.0,0.0,-0.10093999427641853,0.0,0.0,0.0,-2.587861729677068,-2.5383474396903876,-3.891512246762357,-0.0034879061582795364,0.014725327616026684,-0.3014146483223097
10095,2.0,299.74077,29808.127,0.0,0.0,-0.10094999869679266,0.0,0.0,0.0,-2.5809781137977077,-2.5507557004149874,-3.9291923835310962,-0.012355817939174289,0.00024975347389124874,-0.3034450596676957
10096,2.0,300.17409,29831.624,0.0,0.0,-0.10096000311716669,0.0,0.0,0.0,-2.5986297411397876,-2.5619300251678077,-3.9075089327161066,-0.003977836393006887,-0.014331490474407986,-0.3115301571181327
10097,2.0,299.74561,29941.602000000003,0.0,0.0,-0.10097000753754082,0.0,0.0,0.0,-2.6109606908817575,-2.5516569863789376,-3.938881688937357,-0.0018419892819651882,-0.012491263133041688,-0.3051260111860927
10098,2.0,299.73177999999996,29815.216,0.0,0.0,-0.10098001195791495,0.0,0.0,0.0,-2.6065436297208273,-2.537663495872888,-3.918874052462756,0.00986356415845799,-0.004493650202863746,-0.29962067888775873
10099,2.0,299.94211,29738.923,0.0,0.0,-0.1009900163782893,0.0,0.0,0.0,-2.5609516308712474,-2.5813204910064975,-3.8976178892149362,-0.007723624124962353,0.009499366710089501,-0.3144615808499417
10100,2.0,299.91057,29947.613999999998,0.0,0.0,-0.1009999878893858,0.0,0.0,0.0,-2.6017288678956474,-2.5632392456220177,-3.938358750560746,-0.009365111173164511,0.0020698529161285776,-0.30588025429553073
10101,2.0,300.0369,29997.979,0.0,0.0,-0.10100999230976004,0.0,0.0,0.0,-2.6085715484709677,-2.574231388006858,-3.9358336299865364,0.0004833217466476425,0.01081003297086719,-0.30801100779831975
10102,2.0,299.8957,29681.974,0.0,0.0,-0.10101999673013418,0.0,0.0,0.0,-2.5863881600566376,-2.5476564723341175,-3.8885344060434663,0.009370784056499382,-0.010485495043337791,-0.32403259943952767
10103,2.0,300.27641,29651.142000000003,0.0,0.0,-0.10103000115050831,0.0,0.0,0.0,-2.5764869840544677,-2.5366718280000176,-3.9000478656047566,0.017460401716957483,-0.0008428239460402471,-0.3212016191901317
10104,2.0,300.01487000000003,29895.718999999997,0.0,0.0,-0.10104000557088244,0.0,0.0,0.0,-2.6061410654560975,-2.5739656125056274,-3.9074455032598463,0.004466035895238426,-0.012405057841033887,-0.3135620174111617
10105,2.0,300.12678,29907.42,0.0,0.0,-0.10105000999125657,0.0,0.0,0.0,-2.5917002250308974,-2.5535913821448477,-3.9458173858718566,0.0028747108064868672,-0.0007750399765479902,-0.29576447192218075
10106,2.0,300.24818,29831.115,0.0,0.0,-0.10106001441163082,0.0,0.0,0.0,-2.5839331563893477,-2.5514462303581373,-3.932534588985946,-0.01032640261863659,0.011600031649833989,-0.2918603078293697
10107,2.0,300.31667000000004,29822.879,0.0,0.0,-0.10106998592272742,0.0,0.0,0.0,-2.5788123930339677,-2.5505274151674575,-3.936070730509936,-0.00957926340564969,0.009941245787974569,-0.2991442284257367
10108,2.0,299.43778,29823.812,0.0,0.0,-0.10107999034310167,0.0,0.0,0.0,-2.6169262008455076,-2.5433056777297276,-3.905462167514106,-0.01137084156996469,-0.007267701096716253,-0.3032453886029898
10109,2.0,300.10609,29967.189,0.0,0.0,-0.1010899947634758,0.0,0.0,0.0,-2.6248735266798477,-2.5622606486754376,-3.9221428986103666,-0.017881145714981683,-0.0007528707432375573,-0.31487180528542774
10110,2.0,299.97159,30117.935,0.0,0.0,-0.10109999918384993,0.0,0.0,0.0,-2.6455835481237675,-2.5617772270527275,-3.9477393186615366,-0.002993683289503537,-0.0050565852086211045,-0.29418124837592874
10111,2.0,299.56671,29850.817000000003,0.0,0.0,-0.10111000360422406,0.0,0.0,0.0,-2.5666600792846275,-2.5679190425338776,-3.9393239726060063,0.012607332958496887,-0.008273320815513192,-0.3154382728863337
10112,2.0,299.87179,29652.365,0.0,0.0,-0.1011200080245982,0.0,0.0,0.0,-2.5673207183498272,-2.5334320621302773,-3.9128257599658367,0.012359592295796789,0.00945754450823697,-0.3080770514398377
10113,2.0,299.81383999999997,29951.968999999997,0.0,0.0,-0.10113001244497244,0.0,0.0,0.0,-2.5878728754281677,-2.5704976627133678,-3.9462800358675163,0.0017658264130234983,-0.0007646884007438692,-0.3128877703971187
10114,2.0,300.12185,29994.755,0.0,0.0,-0.10113998395606894,0.0,0.0,0.0,-2.643908848358487,-2.5542889035136875,-3.9194587990954664,0.012691699201573188,-0.009626163915678412,-0.3077192322995237
10115,2.0,300.85697999999996,29785.112999999998,0.0,0.0,-0.10114998837644307,0.0,0.0,0.0,-2.5874991887912877,-2.548949176811697,-3.9174824547754166,0.01085466157152169,-0.009277572646675131,-0.3284654774345187
10116,2.0,300.31802000000005,29648.012000000002,0.0,0.0,-0.10115999279681742,0.0,0.0,0.0,-2.5692065794359475,-2.5380351560095677,-3.905013804344857,0.009770983496820991,-0.0016632947234794086,-0.3119178772688977
10117,2.0,300.0215,29747.94,0.0,0.0,-0.10116999721719155,0.0,0.0,0.0,-2.5757973660364075,-2.5454551864918677,-3.921378502734926,-0.012406297045906187,-0.0004110639030613486,-0.3133676152469757
10118,2.0,299.55883,29919.918999999998,0.0,0.0,-0.10118000163756569,0.0,0.0,0.0,-2.6019815724705873,-2.5512826917919975,-3.941644011359976,-0.007611874291308503,0.006134232114751574,-0.2964329028806497
10119,2.0,300.12012999999996,30118.548,0.0,0.0,-0.10119000605793982,0.0,0.0,0.0,-2.632241881407048,-2.5841743099131476,-3.9388701378862168,0.0037676008787832565,0.006665717154630063,-0.3092860006641517
10120,2.0,299.53251,30094.335,0.0,0.0,-0.10120001047831384,0.0,0.0,0.0,-2.6515327447609076,-2.5690523627707273,-3.927341175598396,0.01992477085492178,0.02110161930281768,-0.29949710290556275
10121,2.0,299.25482,29832.052000000003,0.0,0.0,-0.1012100148986882,0.0,0.0,0.0,-2.6008003255040077,-2.5583982406192476,-3.909000234213286,0.013060644841235288,-0.0037430785038380866,-0.3173275790227937
10122,2.0,299.38776,29970.227000000003,0.0,0.0,-0.10121998640978469,0.0,0.0,0.0,-2.6072189609124776,-2.5640418410262273,-3.938939849493096,-0.0011933929981787189,-0.004036335576930307,-0.3125627602950427
10123,2.0,300.36836,30183.771,0.0,0.0,-0.10122999083015882,0.0,0.0,0.0,-2.6441761437348674,-2.559450602173108,-3.971485848005136,-0.00937233888877783,0.004514960878966946,-0.3015412437898037
10124,2.0,300.02404,29862.657000000003,0.0,0.0,-0.10123999525053295,0.0,0.0,0.0,-2.6038664203066073,-2.5557413975320373,-3.917894036966036,0.0009385208887573,0.018127841716828682,-0.3124877595226407
10125,2.0,300.53531,29614.051,0.0,0.0,-0.10124999967090731,0.0,0.0,0.0,-2.5761469373209076,-2.5293157335990273,-3.8964694715515966,-0.01064790586211649,0.009481435223069802,-0.30912646443590674
10126,2.0,299.56497,29803.523999999998,0.0,0.0,-0.10126000409128144,0.0,0.0,0.0,-2.6139550475772775,-2.5407611027535975,-3.904810951674836,-0.008762996623140432,0.01161197482876269,-0.3066873181326817
10127,2.0,300.04228,30126.339,0.0,0.0,-0.10127000851165546,0.0,0.0,0.0,-2.6196555926398775,-2.5887161021613876,-3.9492831065138962,-0.00029658173918783873,-0.004636836830145165,-0.3186523832635417
10128,2.0,300.15281,30217.296000000002,0.0,0.0,-0.1012800129320296,0.0,0.0,0.0,-2.6243549452786676,-2.5907051121076874,-3.9702435020575257,0.018489578082029282,0.013589944401973086,-0.3061041116401237
10129,2.0,300.4905,29997.942000000003,0.0,0.0,-0.10128998444312631,0.0,0.0,0.0,-2.5784698131751576,-2.5909515345320075,-3.949204174331107,0.009549182036680893,-0.01129842559856779,-0.31963287498780873
10130,2.0,299.83578,29773.39,0.0,0.0,-0.10129998886350045,0.0,0.0,0.0,-2.5855473651236576,-2.5520662380943273,-3.9127535152337063,-0.0004935827682903265,0.003915743109653756,-0.30972103959458674
10131,2.0,299.98045,29890.792999999998,0.0,0.0,-0.10130999328387458,0.0,0.0,0.0,-2.599592126084768,-2.5651355431841676,-3.9213268269798265,-0.0005642077796054725,0.007861235242243513,-0.3229448349271737
10132,2.0,299.60735,30081.748,0.0,0.0,-0.10131999770424882,0.0,0.0,0.0,-2.6529330563991076,-2.5696033681751076,-3.9215638261782164,0.0006356352444698145,0.014366221648085686,-0.3067204514109517
10133,2.0,299.9167,30026.414,0.0,0.0,-0.10133000212462295,0.0,0.0,0.0,-2.5917848314142473,-2.5726557841013578,-3.9628394809268066,0.005774182506992444,-0.01729214849810218,-0.31227640568428167
10134,2.0,299.17014,29691.145,0.0,0.0,-0.10134000654499709,0.0,0.0,0.0,-2.5762991274859273,-2.5362806121364074,-3.912786851161996,-0.001056732208166349,-0.003248176858820097,-0.30562670872300773
10135,2.0,299.19052,29872.278,0.0,0.0,-0.10135001096537122,0.0,0.0,0.0,-2.5656033607553375,-2.5603860346654272,-3.954437205797567,-0.0012710088677638086,0.004278652007870076,-0.31725306461043973
10136,2.0,299.31707,30310.69,0.0,0.0,-0.10136001538574535,0.0,0.0,0.0,-2.6586149576598674,-2.5718961505013875,-3.983181895234446,-0.0001111516310598119,0.013653834887028586,-0.2986855503704687
10137,2.0,299.29648,30190.267999999996,0.0,0.0,-0.10136998689684196,0.0,0.0,0.0,-2.6261481953056474,-2.581299212754397,-3.969640212947986,-0.004283670736940386,-0.008063515223306991,-0.2988545706196497
10138,2.0,300.00988,29876.017999999996,0.0,0.0,-0.1013799913172162,0.0,0.0,0.0,-2.6045099354451176,-2.5483356538761477,-3.9287178785092665,-0.005133171920079625,0.013634891163158988,-0.3026044167222307
10139,2.0,300.27369,29921.926,0.0,0.0,-0.10138999573759044,0.0,0.0,0.0,-2.5869874974907874,-2.5562129641285773,-3.9523179932134167,-0.0031866798731508173,0.007916575011030122,-0.2987130601106837
10140,2.0,300.12411000000003,30062.031000000003,0.0,0.0,-0.10140000015796458,0.0,0.0,0.0,-2.6431523558338275,-2.5480524504731976,-3.946901968778896,-0.014647401590585987,0.002216440517370648,-0.3123453674860877
10141,2.0,300.09061,30150.496,0.0,0.0,-0.10141000457833871,0.0,0.0,0.0,-2.6093423278220373,-2.5709114740542076,-3.984744124238626,-0.01020279623893759,-0.018543733260123985,-0.30741792211728675
10142,2.0,300.3311,30099.435,0.0,0.0,-0.10142000899871284,0.0,0.0,0.0,-2.6317846016369177,-2.5857712933957577,-3.9319207620753667,-0.007690684276136442,-0.004032103332587616,-0.3135660197490567
10143,2.0,299.60263,29900.217999999997,0.0,0.0,-0.10143001341908697,0.0,0.0,0.0,-2.6034799667184676,-2.5456850929395576,-3.939754502573496,0.014709347648699586,-0.002868263394775557,-0.3214765240747627
10144,2.0,299.85908,29887.678,0.0,0.0,-0.10143998493018369,0.0,0.0,0.0,-2.614618625067768,-2.552646830401627,-3.917842361210936,-0.00038138624332989166,0.003500434387815976,-0.3178510240244537
10145,2.0,299.72307,30093.081000000002,0.0,0.0,-0.10144998935055771,0.0,0.0,0.0,-2.5942089309534873,-2.5774309278476273,-3.9759051383162864,0.008310416104324212,-0.013768680706362987,-0.3123150611755967
10146,2.0,299.4169,30057.308999999997,0.0,0.0,-0.10145999377093184,0.0,0.0,0.0,-2.6050722892506175,-2.5761464306958577,-3.955452583722776,0.0011227692635586988,0.0020428503075886283,-0.3051428818002577
10147,2.0,299.04787000000005,29776.501,0.0,0.0,-0.1014699981913062,0.0,0.0,0.0,-2.5522630112637477,-2.5619072270405576,-3.937142647790726,0.008830791667456282,0.002058970306079548,-0.33106900330146666
10148,2.0,299.43717000000004,29886.697,0.0,0.0,-0.10148000261168033,0.0,0.0,0.0,-2.6106486098509576,-2.5498149990221477,-3.9243459069777864,-0.01241255791827409,0.0013824566515628488,-0.3127682676803247
10149,2.0,299.57186,30091.978,0.0,0.0,-0.10149000703205446,0.0,0.0,0.0,-2.6283685302497775,-2.5680522849220275,-3.9507891001375257,-0.0037042107366271368,-0.030077973567714873,-0.3073736430879167
10150,2.0,299.87894,30218.243,0.0,0.0,-0.10150001145242848,0.0,0.0,0.0,-2.638543891729008,-2.5895309578918075,-3.957516675501486,0.004461849753775286,0.007757892040694331,-0.3157801232050717
10151,2.0,300.06532999999996,30176.045,0.0,0.0,-0.10151001587280262,0.0,0.0,0.0,-2.6096772069800873,-2.5839249490635376,-3.9791620281127167,0.017381052075126285,-0.007499038456197473,-0.3038025444354767
10152,2.0,300.16987,30006.462000000003,0.0,0.0,-0.10151998738389933,0.0,0.0,0.0,-2.6195145482259576,-2.5649878113195874,-3.9367129284233164,0.018444419551572482,-0.012099920613169187,-0.31134392174975273
10153,2.0,299.60091,29923.851000000002,0.0,0.0,-0.10152999180427347,0.0,0.0,0.0,-2.600471120546518,-2.5539440945046574,-3.941688290389346,-0.007934106162935311,-0.028094953956006075,-0.3180716389687267
10154,2.0,299.70527999999996,29948.523999999998,0.0,0.0,-0.1015399962246476,0.0,0.0,0.0,-2.6286969246071874,-2.563563890954058,-3.911342767119476,0.0026155379468834976,0.008923834269813871,-0.3220664686804857
10155,2.0,300.07591,30084.94,0.0,0.0,-0.10155000064502173,0.0,0.0,0.0,-2.6235494114491678,-2.5780221592809776,-3.943498866993036,-0.008504406686319592,0.011813859844937187,-0.30774708654477273
10156,2.0,299.99236,29982.832000000002,0.0,0.0,-0.10156000506539609,0.0,0.0,0.0,-2.6104052271769373,-2.559188271722218,-3.944438656460786,-0.01007600724067449,0.0052262427921150045,-0.3111965445227077
10157,2.0,300.17835,29834.767000000003,0.0,0.0,-0.10157000948577022,0.0,0.0,0.0,-2.5667777176212376,-2.5639296742401574,-3.9383168020066064,-0.006562409822134425,-0.004290812224970196,-0.3078620600336197
10158,2.0,300.31878,30223.276,0.0,0.0,-0.10158001390614424,0.0,0.0,0.0,-2.6310148355359475,-2.5853611297552774,-3.970745364832056,-0.0007560424085680762,0.024136371240074377,-0.30253470511535074
10159,2.0,300.45599999999996,30484.462000000003,0.0,0.0,-0.10158998541724096,0.0,0.0,0.0,-2.626661203831277,-2.6288345239707676,-4.011019624506816,0.0009617365966385122,0.0026778085490041276,-0.3138741187069637
10160,2.0,300.24259,30196.092,0.0,0.0,-0.10159998983761509,0.0,0.0,0.0,-2.6468085674946678,-2.588643958754268,-3.9434054453338168,-0.008200869177712773,-0.020072490560500582,-0.3065012550168187
10161,2.0,299.96837,29995.765,0.0,0.0,-0.10160999425798922,0.0,0.0,0.0,-2.5957099596516273,-2.5713868910011275,-3.950866715095186,-0.0003275781743219487,-0.005563087148733954,-0.3291483877369167
10162,2.0,300.10183,30049.135,0.0,0.0,-0.10161999867836335,0.0,0.0,0.0,-2.6205628567794177,-2.5660243661718876,-3.947599692797756,0.021067608549961078,0.01040399933779479,-0.3107469350558347
10163,2.0,299.49773999999996,30047.065,0.0,0.0,-0.1016300030987376,0.0,0.0,0.0,-2.5883095862212677,-2.5763149341874874,-3.968932964378186,0.007933468524647384,0.02253831675210868,-0.3157265526722847
10164,2.0,299.76261,30102.312,0.0,0.0,-0.10164000751911173,0.0,0.0,0.0,-2.615749817479408,-2.572650819175868,-3.961950657939086,0.006750013686099483,-0.000906292594814115,-0.2992959322307087
10165,2.0,300.67798999999997,30093.335,0.0,0.0,-0.10165001193948586,0.0,0.0,0.0,-2.6111384149492975,-2.5604248421442577,-3.976059152331486,0.0008303223041864312,-0.005246863140925075,-0.3220362535625037
10166,2.0,300.09921,29943.764,0.0,0.0,-0.10166001635986,0.0,0.0,0.0,-2.629502965061737,-2.5293164428740975,-3.943337152277076,-0.006196664026288124,0.02795527540322087,-0.31024899355919167
10167,2.0,299.45331,30149.972,0.0,0.0,-0.10166998787095671,0.0,0.0,0.0,-2.6081083918502577,-2.5863827898311076,-3.970347360192776,-0.013264122686566987,-0.0014206048085527786,-0.3253582852078627
10168,2.0,300.34785,30548.205,0.0,0.0,-0.10167999229133073,0.0,0.0,0.0,-2.6676557830021275,-2.6059774255649475,-4.012258322754066,-0.013805671427763688,-0.012059228489153187,-0.3038669364793317
10169,2.0,299.35256,30309.264,0.0,0.0,-0.10168999671170498,0.0,0.0,0.0,-2.6323588104685873,-2.5845562038758376,-3.996344520658496,-0.018649792174591184,0.005297781288925304,-0.2951859973075897
10170,2.0,299.57966,29958.316000000003,0.0,0.0,-0.10170000113207922,0.0,0.0,0.0,-2.6075321565183875,-2.5701101958751273,-3.9289377537809664,0.014508357332363386,0.017256964401629785,-0.3149618730868167
10171,2.0,300.04322,30053.52,0.0,0.0,-0.10171000555245335,0.0,0.0,0.0,-2.6094109248538078,-2.5702855894674372,-3.9558233319343667,-0.008108356505157482,0.01171252470243619,-0.30468020140709473
10172,2.0,300.51538999999997,30183.72,0.0,0.0,-0.10172000997282749,0.0,0.0,0.0,-2.6446273440043973,-2.5837629303725476,-3.946706918134646,-0.003740764949884756,-0.01046080821790139,-0.3148648341247397
10173,2.0,300.56122,30250.577,0.0,0.0,-0.10173001439320162,0.0,0.0,0.0,-2.6266329341534873,-2.5963132487611675,-3.972473766852636,0.012038704095127589,-0.0035259093191801565,-0.3256623716953737
10174,2.0,300.47538,30175.166,0.0,0.0,-0.10173998590429834,0.0,0.0,0.0,-2.6370206728536774,-2.5726565947014377,-3.9628197225498565,0.013600219771237185,0.019435022498587383,-0.3205274025735917
10175,2.0,299.99437,29964.533,0.0,0.0,-0.10174999032467247,0.0,0.0,0.0,-2.5860698982002273,-2.5762638663824475,-3.9461359517032966,0.005475723205236806,0.007054323595257534,-0.3286028842805797
10176,2.0,299.86578,30068.38,0.0,0.0,-0.10175999474504649,0.0,0.0,0.0,-2.5934736153559177,-2.5877421661652678,-3.9588209310302065,-0.016609396262719782,-0.02038037369613628,-0.3208530814207337
10177,2.0,299.85389,30319.611,0.0,0.0,-0.10176999916542062,0.0,0.0,0.0,-2.630187212854268,-2.6056991870874877,-3.9805182633715663,-0.011509688244417789,-0.006820231107429403,-0.33306737567869066
10178,2.0,299.9855,30354.915,0.0,0.0,-0.10178000358579498,0.0,0.0,0.0,-2.6580403435281577,-2.603028665123927,-3.966067087795347,0.011695029926209589,-0.0014065460647402887,-0.3157992533669597
10179,2.0,299.90097000000003,30097.785,0.0,0.0,-0.10179000800616911,0.0,0.0,0.0,-2.6031447835853876,-2.5836325250846772,-3.9621978909634863,0.015288412988098883,0.0011148216337493288,-0.3260778751638807
10180,2.0,299.59961,29977.53,0.0,0.0,-0.10180001242654324,0.0,0.0,0.0,-2.6034620321916973,-2.5709932433372775,-3.9379653055469164,0.00019479926703269083,-0.0048493993745484555,-0.3046768272842617
10181,2.0,300.17924,30293.072,0.0,0.0,-0.10180998393763974,0.0,0.0,0.0,-2.6362883970064073,-2.5868317609504174,-3.985217413360336,-0.0017093926381039186,0.004454804929805016,-0.28820175556079874
10182,2.0,300.04894,30370.694,0.0,0.0,-0.10181998835801409,0.0,0.0,0.0,-2.6580079195249575,-2.5968336540125274,-3.977091046233326,-0.0026058109485735175,0.026234813210424472,-0.2875347026224657
10183,2.0,299.9928,30171.632999999998,0.0,0.0,-0.10182999277838811,0.0,0.0,0.0,-2.6479826203855374,-2.5705032355889177,-3.9529370890245166,-0.012909004871019588,0.011409004621731089,-0.29866168833061374
10184,2.0,300.70212999999995,30168.4,0.0,0.0,-0.10183999719876224,0.0,0.0,0.0,-2.6327996755870973,-2.5792669370288275,-3.9583736824360667,-0.022462592519135276,-0.02190056599341758,-0.3095314098383717
10185,2.0,300.83114,30321.618,0.0,0.0,-0.10185000161913638,0.0,0.0,0.0,-2.6452406642899273,-2.5966979798241376,-3.9750759957594566,-0.002295244827998028,-0.008567837358479711,-0.3043025225648207
10186,2.0,301.06115,30513.593999999997,0.0,0.0,-0.10186000603951051,0.0,0.0,0.0,-2.6686668039519077,-2.6107137618323875,-3.9959899844485065,0.01090862828509779,-0.0033216480288711368,-0.3173204761395927
10187,2.0,300.80183999999997,30416.773999999998,0.0,0.0,-0.10187001045988486,0.0,0.0,0.0,-2.6458708045271178,-2.601367137609947,-3.9987017456911365,0.017368319574369684,-0.012168835805470589,-0.31798031473721367
10188,2.0,300.39499,30108.54,0.0,0.0,-0.101880014880259,0.0,0.0,0.0,-2.6146139641173076,-2.5871457671564073,-3.9504845171574665,0.004948052950659805,-0.01987992744524608,-0.32495772717833066
10189,2.0,299.73781,30016.386000000002,0.0,0.0,-0.1018899863913556,0.0,0.0,0.0,-2.5872699916186677,-2.573149439550077,-3.9638124036728257,0.0053671735193737856,0.01272903645450809,-0.3133923182844137
10190,2.0,300.29961000000003,30332.504,0.0,0.0,-0.10189999081172973,0.0,0.0,0.0,-2.628599956572618,-2.6100849388203273,-3.9816390193071762,-0.003569707460052697,0.01103796966036279,-0.3130588576765037
10191,2.0,300.33796,30394.127999999997,0.0,0.0,-0.10190999523210387,0.0,0.0,0.0,-2.6341941103747177,-2.6060812837001976,-3.998780779198936,-0.011802115263028089,0.003224597617068007,-0.3219832200522697
10192,2.0,299.94644,30019.495,0.0,0.0,-0.101919999652478,0.0,0.0,0.0,-2.602489616070727,-2.5631287000361076,-3.9595584757779965,-0.007951799130881473,-0.02169875899750078,-0.3252737396195187
10193,2.0,299.74653,30001.246,0.0,0.0,-0.10193000407285213,0.0,0.0,0.0,-2.594412999523627,-2.5821319016865774,-3.9430847516771665,0.005082509719054655,0.01164822689084049,-0.32905481409018167
10194,2.0,300.08967,30349.854,0.0,0.0,-0.10194000849322638,0.0,0.0,0.0,-2.655256742853437,-2.5918344806691476,-3.978506657948036,0.00012509721510113386,0.008613688850679903,-0.3160810888822747
10195,2.0,299.87085,30487.506,0.0,0.0,-0.10195001291360051,0.0,0.0,0.0,-2.654233157602418,-2.622953113765318,-3.9902543809324467,0.0017387676704280085,-0.0017615645817778884,-0.3298220369334007
10196,2.0,299.75883,30384.577,0.0,0.0,-0.10195998442469723,0.0,0.0,0.0,-2.6560803125347174,-2.597491658627468,-3.982580632625106,0.016625480594807184,-0.008669518931189902,-0.3122436777060517
10197,2.0,299.33235,30221.87,0.0,0.0,-0.10196998884507136,0.0,0.0,0.0,-2.6259872911897677,-2.5756983715016375,-3.985008379864706,0.015779668047331986,0.016949043775740382,-0.30445193642456675
10198,2.0,299.10264,30157.443,0.0,0.0,-0.10197999326544549,0.0,0.0,0.0,-2.6302874232891575,-2.5820165938251978,-3.9548056235339257,0.019902901878013482,0.004868920245675016,-0.3224465691904987
10199,2.0,299.60894,30401.293999999998,0.0,0.0,-0.10198999768581951,0.0,0.0,0.0,-2.6504394479030076,-2.5766778803733077,-4.014116927412497,-0.015958467173228085,0.0062735517743513535,-0.3093475353427247
10200,2.0,299.71301,30356.889,0.0,0.0,-0.10200000210619375,0.0,0.0,0.0,-2.665416500281127,-2.5916644573023677,-3.970655388223176,-0.0025628217865808177,-0.006434191837255294,-0.30741352461185273
10201,2.0,299.97187,30109.862,0.0,0.0,-0.102010006526568,0.0,0.0,0.0,-2.623243612568987,-2.563085231606818,-3.966317259245036,-0.012882428334146687,0.015739919259159085,-0.3005033615798727
10202,2.0,299.89812,30109.075,0.0,0.0,-0.10202001094694213,0.0,0.0,0.0,-2.6161773076965975,-2.5812723616267474,-3.9549572057488858,-0.00906806728047356,0.006717573977522933,-0.3160293725971707
10203,2.0,299.83286,30435.467999999997,0.0,0.0,-0.10203001536731626,0.0,0.0,0.0,-2.6497184191318475,-2.618168141493077,-3.983735737739106,-0.009430974658814732,-0.014959808887918185,-0.30656438049804874
10204,2.0,299.91953,30637.455,0.0,0.0,-0.10203998687841298,0.0,0.0,0.0,-2.6640434450706176,-2.6239612976148177,-4.025016458738196,0.0030130166080365875,-0.03725649791518006,-0.3131965381000917
10205,2.0,300.48792000000003,30380.105,0.0,0.0,-0.10204999129878711,0.0,0.0,0.0,-2.6355280541313677,-2.6138746968443476,-3.9853905778024257,0.014440371290403686,-0.013508063661392088,-0.3224256557084347
10206,2.0,300.19924,30245.997000000003,0.0,0.0,-0.10205999571916113,0.0,0.0,0.0,-2.6340402990095373,-2.5971916352728575,-3.962795809847496,0.002171529726563298,-0.0093142874600736,-0.3306251997576667
10207,2.0,300.59665,30319.257999999998,0.0,0.0,-0.10207000013953527,0.0,0.0,0.0,-2.629784243289498,-2.5962713002070275,-3.990241816631206,-0.009764293310385721,0.019539872605685283,-0.3237897740530627
10208,2.0,300.42978999999997,30311.32,0.0,0.0,-0.1020800045599094,0.0,0.0,0.0,-2.6400541410030574,-2.5972022743989074,-3.9766280922626356,-0.0056634233279613646,0.007748118838179794,-0.3097553178454697
10209,2.0,300.20549,30337.682,0.0,0.0,-0.10209000898028375,0.0,0.0,0.0,-2.623367127756177,-2.5870923688761374,-4.011438502098156,0.006917705463074373,0.027184640946915174,-0.2931045384221657
10210,2.0,299.43869,30218.62,0.0,0.0,-0.10210001340065789,0.0,0.0,0.0,-2.6288773844499973,-2.5806760639428976,-3.9761525739907064,0.015025092591861184,0.0031305882727900073,-0.3150946493799207
10211,2.0,299.78643,30197.706000000002,0.0,0.0,-0.10210998491175438,0.0,0.0,0.0,-2.623926340486368,-2.5836068898571476,-3.9718153569376566,0.008459968678008902,-0.00958621582121084,-0.3296228623612437
10212,2.0,299.85364,30407.658,0.0,0.0,-0.10211998933212851,0.0,0.0,0.0,-2.6812461012933873,-2.5803561808863273,-3.9815663692750065,-0.004474310095555026,-0.012549666868805688,-0.3224573805690657
10213,2.0,300.1757,30661.422000000002,0.0,0.0,-0.10212999375250287,0.0,0.0,0.0,-2.6953256167329274,-2.6197002769692874,-4.005280677265426,-0.00035744799693487064,0.0002045416059491848,-0.3121246106868007
10214,2.0,300.08384,30458.757999999998,0.0,0.0,-0.10213999817287689,0.0,0.0,0.0,-2.6724305214483572,-2.6006366856128573,-3.985634771076526,0.00018470445893641085,0.0094391614156477,-0.3090818611665047
10215,2.0,300.37863,30251.961,0.0,0.0,-0.10215000259325102,0.0,0.0,0.0,-2.620811103053918,-2.5827454246221273,-3.9922841235327664,-0.01010405157164225,0.013429313863620089,-0.2953607120223327
10216,2.0,300.36429,30377.057999999997,0.0,0.0,-0.10216000701362515,0.0,0.0,0.0,-2.6430867985523574,-2.5927399209585076,-3.998040397350866,-0.006588315486116114,-0.011755749951702189,-0.2965750720021807
10217,2.0,299.95635,30484.065,0.0,0.0,-0.10217001143399929,0.0,0.0,0.0,-2.6552452931273076,-2.5922612616112675,-4.018888220808386,-0.0008584122922036972,-0.0013508746591959489,-0.2990381411402667
10218,2.0,299.63781,30347.453999999998,0.0,0.0,-0.10218001585437364,0.0,0.0,0.0,-2.6438086379235974,-2.6104559910069476,-3.9706035098180568,0.01076424723859849,-0.001068779751855349,-0.33040489892092473
10219,2.0,299.42286,30213.339,0.0,0.0,-0.10218998736547014,0.0,0.0,0.0,-2.6295961840709374,-2.5797191505484576,-3.9747853956307764,0.007929073045713582,0.008053860672379162,-0.3235487015892707
10220,2.0,299.74157,30114.23,0.0,0.0,-0.10219999178584438,0.0,0.0,0.0,-2.6082132632356076,-2.5701581226048575,-3.975602683161436,-0.013353180277606288,-0.0004704949731017386,-0.32742609561443975
10221,2.0,299.52209,30200.472,0.0,0.0,-0.10220999620621851,0.0,0.0,0.0,-2.6027303642944877,-2.5906968034568676,-3.986762214462796,-0.004121561258741426,0.009636436549167241,-0.3255761947743687
10222,2.0,299.73217999999997,30507.938,0.0,0.0,-0.10222000062659264,0.0,0.0,0.0,-2.6376090671867476,-2.6207734101501976,-4.0152688914511865,-0.014401787739845786,0.007154751980244044,-0.3260266756363277
10223,2.0,299.96434,30455.622000000003,0.0,0.0,-0.10223000504696678,0.0,0.0,0.0,-2.6444019971821575,-2.6190088351010474,-3.994337778835446,0.001081998511334939,-0.002717156698087487,-0.3416349422967437
10224,2.0,301.07285,30329.092,0.0,0.0,-0.10224000946734091,0.0,0.0,0.0,-2.6480615525683273,-2.5964026174199875,-3.974822379259426,-0.000977798454838694,-0.011721674350839189,-0.3253696032114797
10225,2.0,300.54188,30424.832000000002,0.0,0.0,-0.10225001388771515,0.0,0.0,0.0,-2.6425109685205275,-2.5995070130763676,-4.006371440998076,-0.005982488590375654,0.002774559140102667,-0.3162733429562487
10226,2.0,300.60121000000004,30556.379,0.0,0.0,-0.10225998539881176,0.0,0.0,0.0,-2.6757985647807576,-2.603210036891827,-4.009367621543776,-0.0006212648958540714,-0.004740717459547386,-0.29678729723562575
10227,2.0,299.86641000000003,30434.369,0.0,0.0,-0.102269989819186,0.0,0.0,0.0,-2.6266979848099075,-2.6058871449810375,-4.018703201340126,0.006488212253086694,-0.001143476042602299,-0.30757811695809667
10228,2.0,300.13075,30281.89,0.0,0.0,-0.10227999423956013,0.0,0.0,0.0,-2.6343994961699875,-2.579441013396008,-3.991097911640696,0.012900773227207188,0.007650333009454083,-0.29587869560595376
10229,2.0,299.5924,30379.456000000002,0.0,0.0,-0.10228999865993427,0.0,0.0,0.0,-2.6389729018213473,-2.6011184860354075,-3.9945046611269164,0.0013392561255992888,0.007507475891105182,-0.3235634038482217
10230,2.0,299.48143999999996,30438.052000000003,0.0,0.0,-0.10230000308030829,0.0,0.0,0.0,-2.6620363992725378,-2.6076036919754473,-3.9827677799185763,-0.012791994749471588,0.006786794360754454,-0.3111129513894577
10231,2.0,299.89255,30484.161,0.0,0.0,-0.10231000750068253,0.0,0.0,0.0,-2.6544379354476275,-2.6203550391839077,-3.9916308811932963,-0.011123816261835189,0.0034186982380242465,-0.3345936647018237
10232,2.0,300.44633999999996,30552.673,0.0,0.0,-0.10232001192105677,0.0,0.0,0.0,-2.673330490187177,-2.6014635990194677,-4.012455501223526,0.0025684728850385373,0.014753894176095987,-0.29410505196840875
10233,2.0,300.01366,30430.727000000003,0.0,0.0,-0.10233001634143091,0.0,0.0,0.0,-2.629169301803808,-2.6217572759972976,-3.9992546762707066,0.0024455069807277478,0.0025131401076776178,-0.3248686219645367
10234,2.0,300.68731,30405.037999999997,0.0,0.0,-0.1023399878525274,0.0,0.0,0.0,-2.632813658438477,-2.6116272067975377,-3.997931574290126,0.006746857918663033,0.001006985275956709,-0.32438626425443173
10235,2.0,301.26687000000004,30560.042,0.0,0.0,-0.10234999227290176,0.0,0.0,0.0,-2.650475215631537,-2.6245255765955076,-4.0144888915242065,0.0012965177430063388,-0.006430990676214363,-0.33333078017468665
10236,2.0,300.8218,30524.679,0.0,0.0,-0.10235999669327589,0.0,0.0,0.0,-2.659635401835577,-2.6285678365444474,-3.9905368750603256,0.005917394161551333,-0.0048082394329612855,-0.3240908613202777
10237,2.0,300.70673999999997,30216.042999999998,0.0,0.0,-0.10237000111364991,0.0,0.0,0.0,-2.6209616720187774,-2.5892876765427975,-3.974673228844706,-0.003035696083699877,-0.015717588240205183,-0.3377809948788887
10238,2.0,300.13068,30270.659,0.0,0.0,-0.10238000553402404,0.0,0.0,0.0,-2.6104304571044272,-2.607102538475987,-3.9839915833893564,-0.01925658915597738,-0.003022637215086067,-0.3166886133772327
10239,2.0,300.21893,30530.917,0.0,0.0,-0.10239000995439818,0.0,0.0,0.0,-2.6291589666527875,-2.6183788975138773,-4.033098648160846,-0.0016994700825246386,0.002659990849970657,-0.31878408551153975
10240,2.0,300.01581,30586.703999999998,0.0,0.0,-0.10240001437477253,0.0,0.0,0.0,-2.6563289641092576,-2.6110368872892775,-4.030228313277567,0.0060618149274545546,0.022044527554375477,-0.2949460495514087
10241,2.0,299.93453,30535.895,0.0,0.0,-0.10240998588586903,0.0,0.0,0.0,-2.6602676698979772,-2.6186471048153477,-4.0032348239885165,0.013428468813036687,0.003427112165529637,-0.3133737251450787
10242,2.0,299.95391,30547.318,0.0,0.0,-0.10241999030624316,0.0,0.0,0.0,-2.6757644182523874,-2.600633645862558,-4.009223740029576,0.012416194472882988,0.006455662100249244,-0.2987168597985587
10243,2.0,299.7205,30455.786,0.0,0.0,-0.10242999472661729,0.0,0.0,0.0,-2.6630609977736577,-2.6046542222593576,-3.990083344315566,0.0003306703907121267,0.0015697440775216784,-0.3191633956864747
10244,2.0,299.88781,30551.306,0.0,0.0,-0.10243999914699164,0.0,0.0,0.0,-2.6810702010760274,-2.6013521415084675,-4.004411713979667,0.0022780087345219578,0.004827361387523476,-0.2957090674067127
10245,2.0,299.90464,30600.79,0.0,0.0,-0.10245000356736567,0.0,0.0,0.0,-2.6650574044456876,-2.6000501151299678,-4.0367686400230465,-0.006734554326673764,-0.011175846654470188,-0.3170975712500937
10246,2.0,299.7563,30342.847,0.0,0.0,-0.1024600079877398,0.0,0.0,0.0,-2.650771591285787,-2.5924361485785274,-3.9802602898961066,-0.0063304609662178535,0.002160565853856248,-0.3075152751868947
10247,2.0,300.81768999999997,30361.683999999997,0.0,0.0,-0.10247001240811393,0.0,0.0,0.0,-2.6302108215815974,-2.6109464040553476,-3.9880363764635467,0.002188948914332438,-0.002947875468382657,-0.3378972045328577
10248,2.0,300.41835,30522.856,0.0,0.0,-0.10247998391921065,0.0,0.0,0.0,-2.6722737716578875,-2.5983660934637673,-4.007546203164017,-0.01839526172297098,0.011035321024601388,-0.3041743160296677
10249,2.0,299.92486,30541.578999999998,0.0,0.0,-0.10248998833958478,0.0,0.0,0.0,-2.6541288941671275,-2.6106259130487177,-4.019122484231506,0.01055895364908759,-0.011898696236059889,-0.3309552963752447
10250,2.0,299.8444,30553.138,0.0,0.0,-0.10249999275995891,0.0,0.0,0.0,-2.6608468436551376,-2.6049409720376575,-4.021603123126327,-0.006438917635721693,0.010899537405200591,-0.30848548242264673
10251,2.0,299.87072,30470.115,0.0,0.0,-0.10250999718033316,0.0,0.0,0.0,-2.632153323348308,-2.6164334573218775,-4.013567340558256,0.027601455561051577,0.009502964963844621,-0.3264550676461067
10252,2.0,299.80224,30511.21,0.0,0.0,-0.10252000160070729,0.0,0.0,0.0,-2.660448129740787,-2.6131541746982374,-4.001043569322256,-0.013368089239577687,0.017309999938363983,-0.3006560988999467
10253,2.0,300.23644,30534.65,0.0,0.0,-0.10253000602108142,0.0,0.0,0.0,-2.6424191680614677,-2.6199644312703576,-4.019387651782676,0.0043058830029825655,0.0010361019295052991,-0.3174921105740317
10254,2.0,300.06639,30631.476000000002,0.0,0.0,-0.10254001044145555,0.0,0.0,0.0,-2.6799345503639476,-2.6209231685149774,-4.010346117165347,-0.01964000400706748,0.002466268779251778,-0.3157485705969577
10255,2.0,300.32925,30591.921000000002,0.0,0.0,-0.10255001486182969,0.0,0.0,0.0,-2.6583539444341073,-2.622041796625377,-4.018784362673136,-0.0005876254180991134,-0.005033615132829136,-0.3221423307154727
10256,2.0,300.4638,30500.006,0.0,0.0,-0.10255998637292618,0.0,0.0,0.0,-2.6714350032251075,-2.6015757658055376,-3.998229469819526,-0.00933366343643586,-0.0031203609315806472,-0.32316107263101473
10257,2.0,300.83265,30690.013,0.0,0.0,-0.10256999079330054,0.0,0.0,0.0,-2.6656090178001275,-2.6251824666353376,-4.038206137939916,0.01268849125175659,-0.017814619766416084,-0.31713412931370166
10258,2.0,300.39932999999996,30827.566000000003,0.0,0.0,-0.10257999521367478,0.0,0.0,0.0,-2.7139746874734474,-2.624888624106337,-4.0319470894221965,0.012968353969126887,0.0036612719331644067,-0.3006830716176087
10259,2.0,300.00801,30620.493,0.0,0.0,-0.10258999963404891,0.0,0.0,0.0,-2.6587790028510576,-2.6164234261458876,-4.032662747967826,0.028189155817803072,-0.006066503438317275,-0.3159411691759657
10260,2.0,299.85772000000003,30492.987,0.0,0.0,-0.10260000405442304,0.0,0.0,0.0,-2.6727335845532676,-2.6045733649013774,-3.9917997899849667,0.003139173540887307,0.017757128968992186,-0.2971257632990297
10261,2.0,300.2239,30590.548,0.0,0.0,-0.10261000847479707,0.0,0.0,0.0,-2.6558015674322077,-2.615737050528147,-4.027224026731067,-0.012714170049040886,-0.0036274711257285267,-0.3101575173401637
10262,2.0,300.48634,30740.805,0.0,0.0,-0.10262001289517131,0.0,0.0,0.0,-2.6803899049588873,-2.6351387634429475,-4.0289085550223165,0.0033155872733979866,0.01057351607952479,-0.30084580971616975
10263,2.0,300.51681,30627.461,0.0,0.0,-0.10262998440626792,0.0,0.0,0.0,-2.6460610928958976,-2.6407874301004273,-4.023134751977485,-0.01091532688150889,0.0007983901933799772,-0.3251150443888567
10264,2.0,300.05936,30462.763,0.0,0.0,-0.10263998882664205,0.0,0.0,0.0,-2.6542024561243873,-2.608999747963227,-3.996717194045276,-0.006477627335917044,-0.0013185531969060688,-0.3167563086164137
10265,2.0,299.93201,30518.107000000004,0.0,0.0,-0.10264999324701618,0.0,0.0,0.0,-2.6398012337780976,-2.6389964092236675,-3.9979450505164564,-0.008009927262618273,-0.024896917778384476,-0.3378994640805807
10266,2.0,299.76048,30548.736,0.0,0.0,-0.10265999766739053,0.0,0.0,0.0,-2.6702560867337577,-2.6221507210111272,-3.9936459316671664,-0.01060877920950499,-0.008420759546839261,-0.33765374079882965
10267,2.0,299.4017,30600.332000000002,0.0,0.0,-0.10267000208776467,0.0,0.0,0.0,-2.6449954577657273,-2.6325561915880678,-4.024185289681166,0.013140267047343387,-0.01965386324193528,-0.34550595284628266
10268,2.0,299.57988,30536.898999999998,0.0,0.0,-0.10268000650813869,0.0,0.0,0.0,-2.6419591525160677,-2.617993761150868,-4.022501977290037,0.00991271540093384,-0.009586733085386892,-0.3312115473255347
10269,2.0,299.73188999999996,30401.629,0.0,0.0,-0.10269001092851282,0.0,0.0,0.0,-2.6211579385631474,-2.6086542296791273,-4.011523919081586,0.009899669096621272,-0.015601324883980883,-0.32833817269195464
10270,2.0,299.76037,30628.347,0.0,0.0,-0.10270001534888695,0.0,0.0,0.0,-2.6742920645320774,-2.6189023425155376,-4.017058392452796,0.010171192968318591,0.023413989780030876,-0.3178792937022437
10271,2.0,299.58847000000003,30770.492000000002,0.0,0.0,-0.10270998685998367,0.0,0.0,0.0,-2.6910387582098476,-2.6205153353497272,-4.041907236580186,-0.004644161919093095,0.01674581518993328,-0.2923288042781067
10272,2.0,299.84337999999997,30677.415,0.0,0.0,-0.1027199912803578,0.0,0.0,0.0,-2.6777731865756373,-2.631040369438468,-4.0163545889333365,-0.006347628969287204,0.025216531310427875,-0.3024006825246237
10273,2.0,299.76947,30664.904,0.0,0.0,-0.10272999570073194,0.0,0.0,0.0,-2.6513323238911273,-2.6216892869155872,-4.048343401215386,-0.017361450751941784,0.01885970213155768,-0.3035636909894037
10274,2.0,299.9933,30838.877,0.0,0.0,-0.10274000012110607,0.0,0.0,0.0,-2.6911863887494176,-2.630429176978147,-4.052632894188726,0.0013900345464107288,0.012105334408453489,-0.3102400060308047
10275,2.0,300.09662000000003,30823.166,0.0,0.0,-0.10275000454148042,0.0,0.0,0.0,-2.685946973807327,-2.6316399095226375,-4.051886027540016,-0.0006072607155594665,-0.025674716926147274,-0.30999485016910966
10276,2.0,300.31591000000003,30597.487,0.0,0.0,-0.10276000896185444,0.0,0.0,0.0,-2.6774583697695675,-2.6089128111046476,-4.014500847875386,0.00930463979924645,-0.018435120955404782,-0.3140349113653327
10277,2.0,300.6669,30490.652000000002,0.0,0.0,-0.10277001338222858,0.0,0.0,0.0,-2.6569758229730978,-2.6010724844808677,-4.010348548965586,0.02122281516052878,-0.014851465094475486,-0.32080478992096767
10278,2.0,300.58887000000004,30597.442000000003,0.0,0.0,-0.10277998489332507,0.0,0.0,0.0,-2.6656998050090874,-2.611843839668918,-4.023314705195246,0.008791313619710101,0.009410982119766622,-0.31194789986936067
10279,2.0,299.94505,30706.694,0.0,0.0,-0.10278998931369943,0.0,0.0,0.0,-2.6517165483290475,-2.6380572277059775,-4.044294352490776,0.0025256863730658374,0.016768192818391786,-0.3304967500424897
10280,2.0,299.74669,30797.404,0.0,0.0,-0.10279999373407356,0.0,0.0,0.0,-2.6833436303253975,-2.637869675112468,-4.040428600709256,-0.01858257721595758,0.010700740775330888,-0.3294045170971947
10281,2.0,299.59816,30689.05,0.0,0.0,-0.10280999815444769,0.0,0.0,0.0,-2.6538789253674575,-2.6329516631020975,-4.041874305951936,-0.0034766554344691767,0.018764592397671084,-0.33123703056554965
10282,2.0,299.37811,30568.095,0.0,0.0,-0.10282000257482193,0.0,0.0,0.0,-2.6656813638572676,-2.628249979988077,-3.9980063521475064,-0.010719651061947189,0.007886478747284853,-0.32876933087450666
10283,2.0,299.52425,30657.272999999997,0.0,0.0,-0.10283000699519607,0.0,0.0,0.0,-2.6604442793904077,-2.6343758874426575,-4.024225414385126,0.0016262071353691484,-0.002372263285324158,-0.3055963517500117
10284,2.0,299.65166,30685.854,0.0,0.0,-0.1028400114155702,0.0,0.0,0.0,-2.6695981834438274,-2.6302710086375374,-4.027864096819236,-0.01062165761827599,-0.012348387776190989,-0.3177001814820667
10285,2.0,300.16636,30565.548,0.0,0.0,-0.10285001583594433,0.0,0.0,0.0,-2.6290825675952476,-2.624155537658987,-4.037925265012197,0.007815343118714312,-0.0010824604520555288,-0.3139933883762347
10286,2.0,300.10467,30558.134,0.0,0.0,-0.10285998734704083,0.0,0.0,0.0,-2.6600055420971076,-2.6099110651031676,-4.018993193518746,-0.007082953179483053,-0.002738191162213427,-0.3299429683328357
10287,2.0,300.51829,30776.572999999997,0.0,0.0,-0.10286999176741507,0.0,0.0,0.0,-2.688754385859397,-2.6273778756270074,-4.039177540810786,0.010117734703642672,-0.02139750859701968,-0.3202704626132337
10288,2.0,299.79157000000004,30808.863999999998,0.0,0.0,-0.10287999618778931,0.0,0.0,0.0,-2.718568560776827,-2.620668640089858,-4.025888056474216,-0.011182321322609188,-0.02017238080835898,-0.3258688112707477
10289,2.0,299.87597999999997,30774.326,0.0,0.0,-0.10289000060816356,0.0,0.0,0.0,-2.6954473080699373,-2.6039229596621873,-4.055256603997666,0.006905307334850774,-0.006179411518160433,-0.31034139183581066
10290,2.0,300.16348,30749.991,0.0,0.0,-0.10290000502853769,0.0,0.0,0.0,-2.6901784075499373,-2.615787814358158,-4.041263316141636,0.008658331332860772,0.008346558634066203,-0.3118250838247397
10291,2.0,300.3653,30714.356,0.0,0.0,-0.10291000944891182,0.0,0.0,0.0,-2.6584242639910474,-2.6251099179281776,-4.052863205936456,-0.009642744436339782,-0.000955169550487895,-0.3030086528496257
10292,2.0,300.13281,30770.556,0.0,0.0,-0.10292001386928584,0.0,0.0,0.0,-2.6945330525047075,-2.625536496220277,-4.033411134491686,-0.006069340538597275,-0.0027383149813756474,-0.32064548674024573
10293,2.0,299.58094,30863.998,0.0,0.0,-0.10292998538038245,0.0,0.0,0.0,-2.692516279505668,-2.6517354961059176,-4.037633043683356,0.0047214426055451056,0.011664299063926688,-0.3284330635638197
10294,2.0,299.02687000000003,30689.112999999998,0.0,0.0,-0.10293998980075669,0.0,0.0,0.0,-2.6971497708879575,-2.6306623258261577,-4.000912049459276,0.013521351423203485,0.007341950645494113,-0.3315800562544037
10295,2.0,299.61411,30605.69,0.0,0.0,-0.10294999422113082,0.0,0.0,0.0,-2.6395814598314074,-2.6404756530446574,-4.023308321719616,-0.0044014697750162455,0.004622901196219826,-0.3287142809965737
10296,2.0,299.88302999999996,30668.422000000002,0.0,0.0,-0.10295999864150496,0.0,0.0,0.0,-2.6530376238094275,-2.6319754979557577,-4.037421375737466,-0.025779015825190772,-0.012525999372969887,-0.32100126924785866
10297,2.0,299.83513,30705.681,0.0,0.0,-0.10297000306187931,0.0,0.0,0.0,-2.6346583815705373,-2.636853486587177,-4.062248232337686,-0.013886299791221086,-0.0005298016768248545,-0.3241977794708297
10298,2.0,300.53131,30662.347999999998,0.0,0.0,-0.10298000748225344,0.0,0.0,0.0,-2.6543820040421076,-2.6282898007170075,-4.037916348411317,-0.009117013643779192,-0.0007078661356034484,-0.32774316183573166
10299,2.0,300.46546,30621.195,0.0,0.0,-0.10299001190262747,0.0,0.0,0.0,-2.664430101308777,-2.6170677518844774,-4.026580916892597,-0.0030799025643627165,-0.014208097890480088,-0.3337523530112927
10300,2.0,300.25032000000004,30737.049,0.0,0.0,-0.1030000163230016,0.0,0.0,0.0,-2.6919361938234174,-2.6266018273754175,-4.024757269362617,0.011113078850525489,-0.029475092797965174,-0.3333997419764927
10301,2.0,300.69315,30846.982999999997,0.0,0.0,-0.10300998783409832,0.0,0.0,0.0,-2.684210871085987,-2.6415901268296476,-4.050911483593836,0.012279697525411788,0.017270972584262283,-0.3118606185057467
10302,2.0,300.32451000000003,30806.619,0.0,0.0,-0.10301999225447245,0.0,0.0,0.0,-2.6566340537143676,-2.6489709445330774,-4.058837936476116,0.02248642821448768,0.006540165740039103,-0.3172088666410777
10303,2.0,300.09984,30818.879,0.0,0.0,-0.10302999667484658,0.0,0.0,0.0,-2.6701457437978675,-2.6522004765768075,-4.045823346891676,-0.006266721151452223,0.005450189404041814,-0.2983329089381657
10304,2.0,299.69121,30838.267000000003,0.0,0.0,-0.10304000109522071,0.0,0.0,0.0,-2.6923146427357674,-2.6386138059859077,-4.043134789076336,-0.0026715928675906876,0.0055221800130467345,-0.31229752181636566
10305,2.0,299.41558,30896.207000000002,0.0,0.0,-0.10305000551559484,0.0,0.0,0.0,-2.7292305862790873,-2.6342180230770773,-4.028226739030026,-0.0030704957530843374,0.01670442291009818,-0.3060121186635447
10306,2.0,299.96755,30892.117000000002,0.0,0.0,-0.1030600099359692,0.0,0.0,0.0,-2.714560650006277,-2.6368754741143476,-4.038995966392867,-0.0033280071864987366,0.0031808807388534867,-0.3033695928002477
10307,2.0,300.19509,30670.509,0.0,0.0,-0.10307001435634322,0.0,0.0,0.0,-2.6530741008130274,-2.622031157499327,-4.047963432427886,-0.015566482252792186,-0.006220520391942564,-0.3120124844307347
10308,2.0,299.63586000000004,30632.026,0.0,0.0,-0.10307998586743994,0.0,0.0,0.0,-2.6357075007240773,-2.617554618557527,-4.058109004354176,0.0007754638697273252,-0.01075778979571119,-0.3088491480160377
10309,2.0,300.3185,30892.592,0.0,0.0,-0.10308999028781385,0.0,0.0,0.0,-2.6690293448376874,-2.641689729314477,-4.079857505825586,-0.001253906725950959,0.008813744139823821,-0.3243458254429407
10310,2.0,300.79907000000003,30871.056,0.0,0.0,-0.1030999947081882,0.0,0.0,0.0,-2.7020836909248978,-2.6392002751437875,-4.042746308987996,0.018687349302797782,-0.023832866358120777,-0.3174975719920707
10311,2.0,300.15819,30671.824,0.0,0.0,-0.10310999912856234,0.0,0.0,0.0,-2.6842392420887875,-2.632967165828627,-4.006262111312286,0.007821605206982331,-0.01111175655914499,-0.35270674640444566
10312,2.0,300.28039,30850.398999999998,0.0,0.0,-0.10312000354893647,0.0,0.0,0.0,-2.7117780625816574,-2.6450908046001373,-4.020881993030157,0.015350076349434586,-0.016822694528020685,-0.3262832812241527
10313,2.0,300.04377999999997,31004.847,0.0,0.0,-0.10313000796931071,0.0,0.0,0.0,-2.6921559677701077,-2.6609926503445274,-4.071550577530756,0.014761710387367384,0.015088784479897087,-0.33923686302007167
10314,2.0,299.75051,30904.963,0.0,0.0,-0.10314001238968484,0.0,0.0,0.0,-2.6699307321266477,-2.6608053004010372,-4.063601123871206,-0.010309663726984589,-0.00026415169701724276,-0.3078186523993357
10315,2.0,300.06338,30730.346,0.0,0.0,-0.10314998390078156,0.0,0.0,0.0,-2.6406787083646974,-2.644825130423918,-4.055753907146746,0.001124518437206329,0.0029491208540805675,-0.3188665944671827
10316,2.0,299.39159,30642.089,0.0,0.0,-0.1031599883211557,0.0,0.0,0.0,-2.668932883428168,-2.6290583509178576,-4.016438790016646,-0.01038312131948429,-0.002316800609300418,-0.3043972310516677
10317,2.0,299.86596000000003,30770.852000000003,0.0,0.0,-0.1031699927415296,0.0,0.0,0.0,-2.7079664183554772,-2.6227922096494374,-4.022812133145647,0.00042816116100871665,0.028523795848829473,-0.3288544540154077
10318,2.0,300.09815,31048.764,0.0,0.0,-0.10317999716190385,0.0,0.0,0.0,-2.7275840548665875,-2.6499796350076275,-4.060485278488696,-0.02321123438202048,-0.008200594992235712,-0.3197424985161277
10319,2.0,299.44184,30945.523999999998,0.0,0.0,-0.10319000158227809,0.0,0.0,0.0,-2.6870401693402175,-2.6428274065267576,-4.0767990103987355,-0.010594589655104588,-0.0065370142282530725,-0.32907235344941266
10320,2.0,299.74131,30808.017000000003,0.0,0.0,-0.10320000600265233,0.0,0.0,0.0,-2.6596791742398977,-2.6315007902839076,-4.073688028616706,-0.007712948521908752,-0.0037975693716909165,-0.3200208889811027
10321,2.0,300.29037999999997,30887.602000000003,0.0,0.0,-0.10321001042302647,0.0,0.0,0.0,-2.6941055622875174,-2.6372371030750377,-4.057716977890486,0.01150078886878949,0.021548965168967277,-0.3196400386660157
10322,2.0,299.99246,31043.468999999997,0.0,0.0,-0.1032200148434006,0.0,0.0,0.0,-2.748267022532837,-2.6186877361443575,-4.069484763226876,-0.0007909238269706042,-0.01677114238943288,-0.30458446953764673
10323,2.0,300.63291,30931.675,0.0,0.0,-0.10322998635449732,0.0,0.0,0.0,-2.736100827257127,-2.6412052944416677,-4.025150714376446,0.007181928665151174,-0.008539709738353732,-0.3158840927978327
10324,2.0,300.42457,30697.047000000002,0.0,0.0,-0.10323999077487123,0.0,0.0,0.0,-2.6807110039155773,-2.625217727738818,-4.0252069497569956,0.007474955831795703,0.0023505298812792376,-0.3225591108791057
10325,2.0,299.93087,30820.487999999998,0.0,0.0,-0.10324999519524547,0.0,0.0,0.0,-2.667834115019727,-2.6465386376680273,-4.054285910401867,0.00998782438844652,0.012883834725285486,-0.3143258053365417
10326,2.0,300.07876,31014.111,0.0,0.0,-0.1032599996156196,0.0,0.0,0.0,-2.6999201993113773,-2.6510127448095875,-4.076582580177376,-0.0038728631760218367,-0.016441940471693183,-0.3064773321819577
10327,2.0,299.34452000000005,30898.672000000002,0.0,0.0,-0.10327000403599373,0.0,0.0,0.0,-2.681985875191397,-2.653427927747947,-4.057010945220806,-0.013833133545223987,-2.7325799858096477e-05,-0.32809074715003567
10328,2.0,299.70159,30843.801,0.0,0.0,-0.10328000845636809,0.0,0.0,0.0,-2.7072818665879175,-2.642911607610068,-4.025551961416046,-0.003047769769241457,0.011557134693600387,-0.3257150100380687
10329,2.0,300.32578,30935.619,0.0,0.0,-0.10329001287674222,0.0,0.0,0.0,-2.7033337375732676,-2.6546850671470175,-4.0456371115232965,0.00048005802754553855,0.01123658998471509,-0.33906702203830963
10330,2.0,299.74267000000003,30859.972,0.0,0.0,-0.10329998438783872,0.0,0.0,0.0,-2.692156677045177,-2.638469113871627,-4.050035123582346,-0.0014412393428642485,-0.018833451861216984,-0.3427888923056297
10331,2.0,300.08509,30938.966,0.0,0.0,-0.10330998880821285,0.0,0.0,0.0,-2.6656173264509477,-2.6617606939203275,-4.077295097647696,-0.006669680279746193,-0.013243727988554188,-0.3465271062970626
10332,2.0,300.19673,30950.476000000002,0.0,0.0,-0.10331999322858709,0.0,0.0,0.0,-2.681207395139568,-2.6542260648517177,-4.072738511947996,0.019785444913171378,-0.012346404845745288,-0.3223044608639737
10333,2.0,300.16738,30681.762000000002,0.0,0.0,-0.10332999764896122,0.0,0.0,0.0,-2.6640674590979874,-2.6296931521055074,-4.032728811874346,0.006734888091256703,0.00931486207420531,-0.3081217256367467
10334,2.0,300.18922000000003,30698.349,0.0,0.0,-0.10334000206933536,0.0,0.0,0.0,-2.6939317898953674,-2.622172809863308,-4.015426958466786,0.008986173772941301,-0.007463305076845863,-0.30672120121602575
10335,2.0,299.90292,31067.871,0.0,0.0,-0.10335000648970949,0.0,0.0,0.0,-2.726417094726418,-2.6527909987350875,-4.064648925799616,-0.008061870718394693,0.0003852510325238167,-0.2928306670526367
10336,2.0,298.68284,31140.088,0.0,0.0,-0.10336001091008362,0.0,0.0,0.0,-2.6994444783894274,-2.677686452367077,-4.088678253246126,0.008753720926424992,0.012249326366914387,-0.3099447044216607
10337,2.0,299.48127999999997,31006.522999999997,0.0,0.0,-0.10337001533045787,0.0,0.0,0.0,-2.6686478561750375,-2.6747802484302574,-4.081780755840396,0.0013100414907660288,0.01138541514615299,-0.30915377152610174
10338,2.0,299.56816000000003,30984.861,0.0,0.0,-0.10337998684155447,0.0,0.0,0.0,-2.6823116350985474,-2.6629509588127975,-4.0733612554594565,0.012221988879216387,-0.017458241467744284,-0.3199286426919987
10339,2.0,299.53253,31019.857999999997,0.0,0.0,-0.10338999126192872,0.0,0.0,0.0,-2.7164418501419374,-2.653175932448077,-4.059644584880726,-0.01064032776461859,-0.0006058392168616755,-0.3101554807074627
10340,2.0,300.30675,31022.252999999997,0.0,0.0,-0.10339999568230263,0.0,0.0,0.0,-2.720468911339377,-2.6509713028804973,-4.058550173447717,-0.0031980812672510466,-0.0014397322346655086,-0.3150055137686237
10341,2.0,299.88027999999997,30909.244,0.0,0.0,-0.10341000010267698,0.0,0.0,0.0,-2.713849855061127,-2.642394242109008,-4.039394173682166,-0.005154500733359615,0.006974820344711173,-0.31300681715136774
10342,2.0,299.8117,30767.67,0.0,0.0,-0.10342000452305111,0.0,0.0,0.0,-2.6572145446966577,-2.6339532608259475,-4.061435605757485,-0.006303328762990114,-0.004245856749833436,-0.33266290650377267
10343,2.0,300.17498,30821.147999999997,0.0,0.0,-0.10343000894342524,0.0,0.0,0.0,-2.6635307405200175,-2.6393032213539476,-4.0660255273854755,0.005325133772724785,0.003718021943440197,-0.35131857350244367
10344,2.0,300.38063999999997,31022.47,0.0,0.0,-0.10344001336379949,0.0,0.0,0.0,-2.6994732546922675,-2.6630852144510473,-4.067497881105786,0.011834840201507789,0.01130433791290129,-0.33844072201899866
10345,2.0,299.85705,31042.34,0.0,0.0,-0.1034499848748961,0.0,0.0,0.0,-2.7225225666420574,-2.6591556279132273,-4.054417936889896,0.013000764800075587,0.004738414848695136,-0.3367561633302457
10346,2.0,300.51277999999996,30914.192000000003,0.0,0.0,-0.10345998929527034,0.0,0.0,0.0,-2.6940775965847577,-2.6623844506818872,-4.0406802920340965,0.02374405397360568,-0.005799418210008014,-0.3033865140769177
10347,2.0,300.13839,30932.557999999997,0.0,0.0,-0.10346999371564447,0.0,0.0,0.0,-2.688396100624037,-2.6611611538361575,-4.053168092891546,0.014959356978373585,0.006635879978935364,-0.3166439999753297
10348,2.0,299.4364,31164.054,0.0,0.0,-0.10347999813601838,0.0,0.0,0.0,-2.685988517061427,-2.679505742921627,-4.107599888263547,0.009412083319975301,0.002111437409507648,-0.30103537867737873
10349,2.0,299.61567,31115.779,0.0,0.0,-0.10349000255639262,0.0,0.0,0.0,-2.7062265666087675,-2.6688419948941973,-4.083351293495396,-0.003256662625757577,0.003798082481541556,-0.31568510061069366
10350,2.0,299.4578,30952.812,0.0,0.0,-0.10350000697676687,0.0,0.0,0.0,-2.6971208932601076,-2.6449354733598076,-4.066825792314456,-0.02149606439449638,-0.007275163987677784,-0.3210887025989877
10351,2.0,299.44819,30902.279,0.0,0.0,-0.10351001139714111,0.0,0.0,0.0,-2.728883953419877,-2.6183894353149175,-4.046247696033556,0.0030818407091539974,-0.015068563047651385,-0.3318702612155447
10352,2.0,299.82811,30915.234,0.0,0.0,-0.10352001581751524,0.0,0.0,0.0,-2.7205168380691074,-2.628848810797177,-4.048093432415716,-0.007981853040772561,0.003950358975470076,-0.31991431533558473
10353,2.0,299.85651,30847.922000000002,0.0,0.0,-0.10352998732861174,0.0,0.0,0.0,-2.7028609550766074,-2.6163590847645373,-4.057778076871516,0.016521826122827283,0.006593708307123343,-0.3200976730736807
10354,2.0,300.03488,30940.582000000002,0.0,0.0,-0.1035399917489861,0.0,0.0,0.0,-2.6716940912756773,-2.6463834077527078,-4.087086741314057,0.006676534714022674,-0.004140530009888496,-0.3386281834199997
10355,2.0,300.61687,30990.287999999997,0.0,0.0,-0.10354999616936,0.0,0.0,0.0,-2.693914159343627,-2.6417990590002676,-4.0845605061647365,0.03068638465651037,0.021060281738487983,-0.3250598222584067
10356,2.0,299.79224,31091.014,0.0,0.0,-0.10356000058973425,0.0,0.0,0.0,-2.7118382496375975,-2.6687335771334975,-4.070320187934326,-0.0006713586737054424,0.0035028011373995564,-0.3442453481318707
10357,2.0,299.62022,31253.486,0.0,0.0,-0.10357000501010838,0.0,0.0,0.0,-2.7487501401805177,-2.6738886896672676,-4.0776404132817765,-0.005075490732961935,-0.005259131269160845,-0.3175775984849687
10358,2.0,300.05784,31180.937,0.0,0.0,-0.10358000943048251,0.0,0.0,0.0,-2.7166284908103573,-2.679364293207668,-4.082233475985077,-0.024993564612672773,-0.009700229964863161,-0.3119684789788917
10359,2.0,299.93258,30954.428,0.0,0.0,-0.10359001385085687,0.0,0.0,0.0,-2.6668663598492177,-2.6754169747930976,-4.067089845290517,-0.005348931471198435,0.00989050617464196,-0.3030470347634137
10360,2.0,300.39943999999997,30833.546000000002,0.0,0.0,-0.10359998536195336,0.0,0.0,0.0,-2.652065612988497,-2.6473365721217776,-4.073225783921086,-0.0075827461880337834,0.014467829354863586,-0.3196389342234067
10361,2.0,300.71077,30920.218999999997,0.0,0.0,-0.1036099897823275,0.0,0.0,0.0,-2.676318767382097,-2.6543594085648774,-4.068296322184587,-0.006134058848984473,-0.004648095659956326,-0.31336724034443875
10362,2.0,300.41329,30861.596,0.0,0.0,-0.10361999420270163,0.0,0.0,0.0,-2.6838985874051677,-2.6568486600855477,-4.040407423782167,-0.007848137160850832,-0.0023643786796710077,-0.36762091648135964
10363,2.0,299.88962999999995,31015.129,0.0,0.0,-0.10362999862307587,0.0,0.0,0.0,-2.7376686291368575,-2.641184117514577,-4.048972122902436,0.005117736574681275,0.00944252408875457,-0.3328347739857347
10364,2.0,299.80011,31163.054,0.0,0.0,-0.10364000304345,0.0,0.0,0.0,-2.737074560603227,-2.6587863995767873,-4.076929111711576,0.016413392150125685,-0.002024909296017988,-0.34424186255152667
10365,2.0,299.51454,31207.71,0.0,0.0,-0.10365000746382413,0.0,0.0,0.0,-2.7215234007184477,-2.6620108653700174,-4.102830418717836,0.002485512121175948,-0.014658755057956486,-0.3019343442985997
10366,2.0,299.97577,31222.161,0.0,0.0,-0.10366001188419827,0.0,0.0,0.0,-2.708634656796427,-2.6675581056924873,-4.114564665475917,-0.0058716170419084845,-0.0050434655450012945,-0.30936116355656973
10367,2.0,300.29575,31259.336,0.0,0.0,-0.1036700163045724,0.0,0.0,0.0,-2.7172915616757978,-2.6718088925120074,-4.112957042867256,0.00011071458589417889,0.0004240836298237956,-0.28372766868424076
10368,2.0,300.43436,31104.908,0.0,0.0,-0.10367998781566912,0.0,0.0,0.0,-2.713289831730857,-2.660683203763987,-4.081142205627376,-0.0021661339671307776,0.018585752741770982,-0.3073214911052697
10369,2.0,299.61422999999996,30920.853,0.0,0.0,-0.10368999223604325,0.0,0.0,0.0,-2.7098754828688874,-2.6389614520952174,-4.050330283336476,0.004415592657560066,-0.0036813145267674567,-0.3018125009740747
10370,2.0,299.61537000000004,30935.446,0.0,0.0,-0.10369999665641749,0.0,0.0,0.0,-2.6792480734211974,-2.6637407872657475,-4.0606140625764064,-0.0025109644570628976,-0.008292357657066981,-0.3281239614883137
10371,2.0,299.75324,30957.839,0.0,0.0,-0.1037100010767914,0.0,0.0,0.0,-2.6664458610577175,-2.6547406945775074,-4.089223584449947,0.0023969867904141775,-0.001392856447939229,-0.3145937491929857
10372,2.0,299.50331,31018.158,0.0,0.0,-0.10372000549716576,0.0,0.0,0.0,-2.6649533436604176,-2.6772171149207575,-4.086574948688546,-0.005292905833419135,-0.0037527053930381865,-0.3251906531113187
10373,2.0,299.88959,31139.411,0.0,0.0,-0.10373000991753989,0.0,0.0,0.0,-2.6936118055137874,-2.6775556417791675,-4.094435945614367,-0.012561989003271788,-0.01098049102194009,-0.3344116951163647
10374,2.0,300.00882,31132.312,0.0,0.0,-0.10374001433791402,0.0,0.0,0.0,-2.7133458644613873,-2.670202587128477,-4.079897123904495,-0.0015158413000268887,0.004973713205467275,-0.3298820922668277
10375,2.0,299.90587999999997,31189.407000000003,0.0,0.0,-0.10374998584901052,0.0,0.0,0.0,-2.7409990808905476,-2.6669662663090774,-4.0728356826325856,0.009091742477010122,0.007357318001810753,-0.3411151652604457
10376,2.0,300.25969,31298.611,0.0,0.0,-0.10375999026938487,0.0,0.0,0.0,-2.7194358015374176,-2.6795631942022973,-4.114997120618596,0.013697571827595088,0.01114336388276439,-0.3172968876772647
10377,2.0,300.52918999999997,31147.737,0.0,0.0,-0.10376999468975912,0.0,0.0,0.0,-2.7120303618565575,-2.6672598048630474,-4.088844020962486,0.024137474669433275,-0.004418998799096225,-0.3211533074253637
10378,2.0,300.45099,30924.025,0.0,0.0,-0.10377999911013325,0.0,0.0,0.0,-2.6637345051151273,-2.6500168212862976,-4.086380100694316,0.013579152275157989,-0.002998950264848347,-0.31666502491490467
10379,2.0,299.66449,30863.527000000002,0.0,0.0,-0.10379000353050716,0.0,0.0,0.0,-2.679478993118987,-2.6417242811428876,-4.060538271468926,0.003874250214083726,0.0027549633897937173,-0.3231909432439627
10380,2.0,299.41576000000003,31052.057,0.0,0.0,-0.1038000079508814,0.0,0.0,0.0,-2.7146964255196773,-2.6582509982239477,-4.066102433068067,-0.005784126036848795,0.007537836511801543,-0.3167710412728677
10381,2.0,299.28015,31147.574,0.0,0.0,-0.10381001237125564,0.0,0.0,0.0,-2.732894397315677,-2.657424490117377,-4.077765752319146,-0.01836451971493698,0.0007117041141997273,-0.3315958325584607
10382,2.0,299.35577,31074.216,0.0,0.0,-0.10381998388235225,0.0,0.0,0.0,-2.6943005116067575,-2.6690517376648977,-4.082433491554816,-0.011858934275635688,0.023221881614071276,-0.3175189009066757
10383,2.0,299.2486,31103.482999999997,0.0,0.0,-0.10382998830272638,0.0,0.0,0.0,-2.7136713203935074,-2.6468556836243176,-4.0941551740116555,0.004391387936521246,0.011128316105529291,-0.3070223290132447
10384,2.0,299.63196,31213.975,0.0,0.0,-0.10383999272310052,0.0,0.0,0.0,-2.7131482806918874,-2.6597446301963577,-4.115376076155996,0.01165995120774759,0.01023871291523229,-0.3037867782639207
10385,2.0,299.68147,31229.153,0.0,0.0,-0.10384999714347487,0.0,0.0,0.0,-2.7393561971784073,-2.6524403128754774,-4.101086209995696,0.01166513296875899,7.964960641730413e-05,-0.3193339966058117
10386,2.0,299.45588,31246.832000000002,0.0,0.0,-0.10386000156384878,0.0,0.0,0.0,-2.752306850681537,-2.6470741403458775,-4.098875804902546,0.01126011866528719,-0.0002777151844458547,-0.31352596597260374
10387,2.0,300.12048,31145.188,0.0,0.0,-0.10387000598422302,0.0,0.0,0.0,-2.7306905783481774,-2.662034170122318,-4.074634809510146,0.002107632655382148,-0.004973051046526926,-0.3372907540830057
10388,2.0,299.79672,30977.155,0.0,0.0,-0.10388001040459716,0.0,0.0,0.0,-2.6896905276267873,-2.6533620664914475,-4.073228924996396,-0.003585450529506416,0.0027335102507264576,-0.3275818220223087
10389,2.0,300.1507,31120.816000000003,0.0,0.0,-0.10389001482497129,0.0,0.0,0.0,-2.7056782969796576,-2.6667303816857975,-4.087542197234006,0.002060479035478448,-0.007433444393748843,-0.34456071209299466
10390,2.0,299.80376,31249.053,0.0,0.0,-0.103899986336068,0.0,0.0,0.0,-2.706768452762247,-2.6803267794776575,-4.111836590906676,-0.01029545289433209,0.0028950830103474474,-0.3264163412272847
10391,2.0,299.95184,31120.671000000002,0.0,0.0,-0.10390999075644214,0.0,0.0,0.0,-2.7064564730564573,-2.6703778793957773,-4.0830724470678765,0.0033914707892871063,0.005519493380406584,-0.3235088301978357
10392,2.0,300.05223,31158.17,0.0,0.0,-0.10391999517681627,0.0,0.0,0.0,-2.7207611326682173,-2.6797352440692777,-4.070809283757597,-0.0013088913505775188,0.004246126882310095,-0.3123734750438617
10393,2.0,300.47569,31234.987999999998,0.0,0.0,-0.1039299995971904,0.0,0.0,0.0,-2.7222245697876475,-2.6760968656101976,-4.096335181601806,-0.0026336310472941473,0.002190196529180568,-0.3083012228919617
10394,2.0,300.79458999999997,31300.083,0.0,0.0,-0.10394000401756465,0.0,0.0,0.0,-2.7358973666370474,-2.678659273788087,-4.0998869271773355,-0.01198809427913279,0.003448614649876767,-0.3053150025947447
10395,2.0,300.30574,31305.137000000002,0.0,0.0,-0.10395000843793878,0.0,0.0,0.0,-2.720516128794037,-2.6853607072994676,-4.110103021310586,-0.005484145238742994,-0.002198835296883148,-0.30035002644223974
10396,2.0,300.25897000000003,31194.601000000002,0.0,0.0,-0.10396001285831291,0.0,0.0,0.0,-2.7296993157753473,-2.6601624945375972,-4.092517964500076,-0.0006133031920008123,-0.004576337186549316,-0.3176706655066537
10397,2.0,299.60332,31235.822,0.0,0.0,-0.10396998436940941,0.0,0.0,0.0,-2.7317496273526976,-2.6726121971912877,-4.090548104980666,0.01671454730509738,-0.013032365030944288,-0.3353318781946797
10398,2.0,299.78936,31322.471,0.0,0.0,-0.10397998878978376,0.0,0.0,0.0,-2.769104409514327,-2.6591775141153877,-4.092967138269406,0.002107357254004968,-0.004264731471371226,-0.3365553979554317
10399,2.0,299.3849,31294.237999999998,0.0,0.0,-0.1039899932101579,0.0,0.0,0.0,-2.7405466647208976,-2.676380372988177,-4.095739897168056,0.0037970210007367967,-0.007139401241229044,-0.3307504881325317
10400,2.0,299.92357999999996,31103.627999999997,0.0,0.0,-0.10399999763053203,0.0,0.0,0.0,-2.7059357638300674,-2.6624514265134973,-4.086339064065267,0.009512227792283792,-0.0032663350098871666,-0.3370521843469607
10401,2.0,299.76633,31061.488999999998,0.0,0.0,-0.10401000205090627,0.0,0.0,0.0,-2.6805679330014573,-2.6724402486493175,-4.088908868968885,0.0067635751267628936,0.003099998150945997,-0.3327786196651927
10402,2.0,300.35625,31175.272,0.0,0.0,-0.10402000647128018,0.0,0.0,0.0,-2.7097826691597273,-2.6752939662309574,-4.091427504742456,-0.01112221127367679,-0.005819422198782254,-0.3145589947145557
10403,2.0,300.43969,31319.375,0.0,0.0,-0.10403001089165453,0.0,0.0,0.0,-2.726744982458777,-2.681498704543318,-4.112064369529156,-0.025323419063476876,-0.025456614842122274,-0.3030218960284327
10404,2.0,300.65013,31290.702,0.0,0.0,-0.10404001531202867,0.0,0.0,0.0,-2.7101193721679575,-2.6922632709556975,-4.109209334722387,-0.019615027392102483,-0.01059724133061629,-0.3125062817344687
10405,2.0,300.55903,31265.714,0.0,0.0,-0.10404998682312516,0.0,0.0,0.0,-2.714001842576127,-2.689481798106187,-4.100512609114086,-0.0006044655537011054,-0.012394203905962688,-0.3223490540008747
10406,2.0,300.74055,31368.85,0.0,0.0,-0.1040599912434993,0.0,0.0,0.0,-2.715599737983827,-2.6859204266547074,-4.133826955176956,0.014114894080031588,0.015309622339192086,-0.3196610636055907
10407,2.0,300.00453,31377.597999999998,0.0,0.0,-0.10406999566387365,0.0,0.0,0.0,-2.7182422942446274,-2.6958001217547576,-4.1239638773785465,-0.002264482656287038,0.014159256195909787,-0.33078252710069367
10408,2.0,300.15435,31362.162,0.0,0.0,-0.10408000008424789,0.0,0.0,0.0,-2.739680639860427,-2.6776071148842475,-4.116026278745166,0.005286626114599375,-0.00033083855983122366,-0.32475813717363267
10409,2.0,299.74487,31247.892000000003,0.0,0.0,-0.1040900045046218,0.0,0.0,0.0,-2.7418568984252074,-2.6657686046908773,-4.090953303695656,-0.0016102868484729384,-0.013762300270483287,-0.3359159864798267
10410,2.0,299.5879,31142.096,0.0,0.0,-0.10410000892499593,0.0,0.0,0.0,-2.7200205481701274,-2.6607997275254873,-4.085599391492266,0.0031696958762996268,-0.006013893770600104,-0.3227527632382177
10411,2.0,299.62837,31240.587000000003,0.0,0.0,-0.10411001334537018,0.0,0.0,0.0,-2.7271219114959773,-2.6664466716577975,-4.102789888713836,-0.012872336363150688,-0.002841124200122127,-0.3210461156972847
10412,2.0,299.94499,31497.88,0.0,0.0,-0.10411998485646679,0.0,0.0,0.0,-2.7365627679777176,-2.6976433250116676,-4.140362823621996,0.0009031098141299991,0.004383421257609996,-0.3023848555580617
10413,2.0,299.64549,31359.405,0.0,0.0,-0.10412998927684103,0.0,0.0,0.0,-2.7312169617751274,-2.692884697242027,-4.108374416639986,0.00016114253362852987,0.019451284149442284,-0.33421944104239065
10414,2.0,300.3805,31243.947999999997,0.0,0.0,-0.10413999369721516,0.0,0.0,0.0,-2.714887929788577,-2.683568369197577,-4.098923934282296,0.015813120499383486,0.01275303528312659,-0.30336287495208475
10415,2.0,300.47246,31370.522,0.0,0.0,-0.10414999811758929,0.0,0.0,0.0,-2.744509283211977,-2.6925015873792177,-4.098844495474457,0.009607275819239302,0.007272678485182484,-0.32590254236657673
10416,2.0,299.70862999999997,31415.43,0.0,0.0,-0.10416000253796365,0.0,0.0,0.0,-2.7271759177263077,-2.6951183057624677,-4.127211951899106,-0.005875777649469104,-0.013610039177956286,-0.3180109756852397
10417,2.0,300.28405,31282.553,0.0,0.0,-0.10417000695833756,0.0,0.0,0.0,-2.7238459725976676,-2.6854469348829775,-4.099821876520917,-0.016045923829109385,0.002229881786572198,-0.33882740865466165
10418,2.0,300.49009,31218.002999999997,0.0,0.0,-0.1041800113787118,0.0,0.0,0.0,-2.708131172821737,-2.6680339279394474,-4.113328196378886,-0.0018133455122382681,0.011117760065987489,-0.3268569732982717
10419,2.0,300.04697999999996,31155.007,0.0,0.0,-0.10419001579908593,0.0,0.0,0.0,-2.7212436423658373,-2.6626631957843974,-4.086437349324966,-0.01351085516541759,0.022084088891279878,-0.34138923927999465
10420,2.0,299.64432999999997,31213.482000000004,0.0,0.0,-0.10419998731018265,0.0,0.0,0.0,-2.7345837892074076,-2.663928137209237,-4.089607302262816,-0.0026983679001581773,0.015466673064941787,-0.3334992431363127
10421,2.0,300.20626,31430.25,0.0,0.0,-0.10420999173055678,0.0,0.0,0.0,-2.7602450572649775,-2.6924172849708974,-4.101348945746627,-0.014802670009409786,-0.006581975073615363,-0.3316655644303427
10422,2.0,300.1105,31336.096,0.0,0.0,-0.10421999615093092,0.0,0.0,0.0,-2.7318242025600576,-2.6874674569073873,-4.106099163540437,0.02419598884945818,-0.009870344422827151,-0.3274106942129197
10423,2.0,300.27238,31244.667,0.0,0.0,-0.10423000057130505,0.0,0.0,0.0,-2.7152260513469475,-2.6842790628177173,-4.098093575825346,0.025372026697274078,0.00017300532129429586,-0.3246294544109327
10424,2.0,299.86139,31469.222,0.0,0.0,-0.10424000499167918,0.0,0.0,0.0,-2.7429910292621376,-2.7121216556905674,-4.110745117898956,0.024301704272141476,-0.004694979552683405,-0.3249882969338477
10425,2.0,299.86727,31616.901,0.0,0.0,-0.10425000941205342,0.0,0.0,0.0,-2.768254292680427,-2.7076153271958274,-4.134878911430776,-0.013201204921607488,0.0013307217226570089,-0.3074700437024307
10426,2.0,300.30941,31424.319,0.0,0.0,-0.10426001383242756,0.0,0.0,0.0,-2.7693945030179576,-2.6747468111769575,-4.1080669965596455,-0.005086734060046565,0.018606773628345584,-0.3048161491730117
10427,2.0,300.22286,31215.47,0.0,0.0,-0.10426998534352405,0.0,0.0,0.0,-2.7270660814154675,-2.653768075806518,-4.107889272492106,0.002395531661945568,0.013246313802809388,-0.3052381171771567
10428,2.0,299.5944,31310.671000000002,0.0,0.0,-0.10427998976389818,0.0,0.0,0.0,-2.7310926359878573,-2.669018908361658,-4.117550510870596,-0.003784569372907916,-0.012814254840918487,-0.32410274674395073
10429,2.0,299.64374,31446.362999999998,0.0,0.0,-0.10428999418427254,0.0,0.0,0.0,-2.7403856592800073,-2.6815980030531175,-4.136925271332736,0.0033750826848197263,-0.013220561038267787,-0.3300331374592347
10430,2.0,299.30413,31444.726000000002,0.0,0.0,-0.10429999860464667,0.0,0.0,0.0,-2.735406244313577,-2.6924411976732574,-4.130564087204936,-7.237104084771563e-05,-0.018216038045282983,-0.3352170769583497
10431,2.0,299.87812,31421.487999999998,0.0,0.0,-0.1043100030250208,0.0,0.0,0.0,-2.7482220342283976,-2.6885967241438373,-4.114528897747387,0.015613302513412985,0.00952741195298235,-0.3377854937093327
10432,2.0,300.13817,31334.575,0.0,0.0,-0.10432000744539505,0.0,0.0,0.0,-2.7395652306740375,-2.680689826988487,-4.104673317999716,-0.0029179438577786373,-0.01970991522421718,-0.3267180263120587
10433,2.0,300.0068,31425.675,0.0,0.0,-0.10433001186576896,0.0,0.0,0.0,-2.7077298244571275,-2.7124005021180873,-4.132490275645036,0.005233372931743695,-0.006049902348678874,-0.32136275635353473
10434,2.0,300.67347,31614.811,0.0,0.0,-0.10434001628614331,0.0,0.0,0.0,-2.7474167030489176,-2.7112487407294177,-4.151447577065976,-0.02118412217896008,-0.014424409561578384,-0.31613155886975575
10435,2.0,300.23485,31576.08,0.0,0.0,-0.10434998779723981,0.0,0.0,0.0,-2.7412301019133474,-2.7045344389417676,-4.152575223102266,0.00971451952704843,0.00035781889713397565,-0.3103349779626777
10436,2.0,299.89834,31209.443,0.0,0.0,-0.10435999221761394,0.0,0.0,0.0,-2.7037470422890575,-2.687858470120977,-4.095285961123256,-0.0064677974927219144,-0.012261645461630189,-0.3370193955737247
10437,2.0,300.05156,31187.057,0.0,0.0,-0.10436999663798807,0.0,0.0,0.0,-2.7309177490205974,-2.657171684217427,-4.091996951298657,0.008682211813867592,0.004923571814993706,-0.3021288883177997
10438,2.0,299.93248,31434.193,0.0,0.0,-0.10438000105836243,0.0,0.0,0.0,-2.7563415112547274,-2.6797456805453077,-4.119122669725757,0.006896126883644733,0.023316175681627378,-0.3260574683068667
10439,2.0,298.87577999999996,31429.839,0.0,0.0,-0.10439000547873667,0.0,0.0,0.0,-2.7471674435243174,-2.6735734675611575,-4.133145240509676,-0.008056364920001313,0.028142084271157473,-0.3134057235832367
10440,2.0,299.61446,31337.571,0.0,0.0,-0.10440000989911058,0.0,0.0,0.0,-2.7174364564400975,-2.6764988219248678,-4.131903705162146,-0.0032153646795067864,-0.01042936706729839,-0.3510049219339887
10441,2.0,299.45171,31333.228,0.0,0.0,-0.10441001431948471,0.0,0.0,0.0,-2.7266961438039576,-2.686523715764247,-4.111299163053636,-0.024351487276054677,-0.014023126044974786,-0.3329326539453947
10442,2.0,299.7846,31469.017999999996,0.0,0.0,-0.10441998583058143,0.0,0.0,0.0,-2.7303837662178974,-2.6922126084506974,-4.143199417276946,-0.01096030404019779,-0.006914723062730033,-0.33591148764938267
10443,2.0,300.10662,31599.474,0.0,0.0,-0.10442999025095556,0.0,0.0,0.0,-2.789262513628777,-2.6893241363906273,-4.126864508439817,-0.0025370256549349375,0.00017535002255569985,-0.32403086678185666
10444,2.0,300.22291,31513.896,0.0,0.0,-0.1044399946713298,0.0,0.0,0.0,-2.7397276546650677,-2.6956254374375175,-4.144084288589276,0.013714666370032186,-0.006227620843343324,-0.31625308808674973
10445,2.0,300.20797000000005,31218.264,0.0,0.0,-0.10444999909170394,0.0,0.0,0.0,-2.7158984441133076,-2.6710144031085976,-4.102660091376026,0.016448389808579683,0.02103765079750448,-0.31707150032502074
10446,2.0,300.45462000000003,31213.1,0.0,0.0,-0.10446000351207807,0.0,0.0,0.0,-2.6913328033888675,-2.687850262795168,-4.108819942708956,0.021421395968127182,0.028511318687098074,-0.31743740520113267
10447,2.0,299.97643999999997,31521.54,0.0,0.0,-0.10447000793245242,0.0,0.0,0.0,-2.7411222921027076,-2.710786293383777,-4.129852582984716,-0.005773236435374074,0.014107548016806587,-0.34199682456995867
10448,2.0,299.90199,31551.773999999998,0.0,0.0,-0.10448001235282633,0.0,0.0,0.0,-2.7541237094358473,-2.715782224326837,-4.121045615765536,-0.0033449003961409664,-0.030363901600183766,-0.3335507871688997
10449,2.0,299.73694,31325.685,0.0,0.0,-0.10448998386392305,0.0,0.0,0.0,-2.7446173969976475,-2.6766649949412673,-4.100943645706626,-0.02059967546827968,-0.013237859243974989,-0.34394879009260265
10450,2.0,299.4024,31310.822,0.0,0.0,-0.10449998828429719,0.0,0.0,0.0,-2.6998375181032173,-2.696467042970577,-4.121403597025866,0.005526586536406625,0.018283543806695283,-0.3234033508624257
10451,2.0,299.02462,31575.642999999996,0.0,0.0,-0.10450999270467143,0.0,0.0,0.0,-2.7673036614366073,-2.6971160296596275,-4.133787235773036,-0.0055381998011027654,0.020339203318073082,-0.3229267585453897
10452,2.0,298.96105,31749.272999999997,0.0,0.0,-0.10451999712504556,0.0,0.0,0.0,-2.7709615956226177,-2.7159613669445175,-4.164063250086047,-0.004361456629892256,0.0003995055058581236,-0.3245601177065897
10453,2.0,299.28839,31488.903,0.0,0.0,-0.10453000154541969,0.0,0.0,0.0,-2.7643240981925477,-2.6874411124047874,-4.120074922169736,-0.004291816355819295,-0.0026374668068727073,-0.3256938635084817
10454,2.0,299.4817,31290.526,0.0,0.0,-0.10454000596579383,0.0,0.0,0.0,-2.7226877264083575,-2.6790228279239674,-4.1098281265584555,0.016410018027292684,0.006213624313086974,-0.3271883060809717
10455,2.0,299.41724,31347.891,0.0,0.0,-0.10455001038616796,0.0,0.0,0.0,-2.746785549561627,-2.6808280343021273,-4.101362523297966,0.005031706676265785,-0.0013884030110997087,-0.31689111140971765
10456,2.0,299.89616,31684.231,0.0,0.0,-0.1045600148065422,0.0,0.0,0.0,-2.747187809851327,-2.7328240777587376,-4.151203079816846,0.00028533106603998375,-0.026691691733514874,-0.3291747018420137
10457,2.0,300.14005,31652.026,0.0,0.0,-0.10456998631763881,0.0,0.0,0.0,-2.7832639717117678,-2.6941602777929177,-4.144001303406085,0.006133966440575353,-0.003619897689181087,-0.30685097828883373
10458,2.0,300.60452999999995,31360.215,0.0,0.0,-0.10457999073801283,0.0,0.0,0.0,-2.7056056469474874,-2.7062462236607074,-4.120870627473266,0.014244668113089288,0.02059928739349138,-0.34392568799032264
10459,2.0,300.11666,31379.241,0.0,0.0,-0.10458999515838696,0.0,0.0,0.0,-2.726084343393577,-2.688876279846427,-4.123545101112216,0.01936712258288618,0.0026648716757023574,-0.3275143496981497
10460,2.0,299.8409,31686.557,0.0,0.0,-0.10459999957876132,0.0,0.0,0.0,-2.7718409953844074,-2.7046812588812577,-4.155399759081026,-0.001975745590565908,-0.02158710390273128,-0.3321697678126037
10461,2.0,299.27557,31760.033,0.0,0.0,-0.10461000399913545,0.0,0.0,0.0,-2.7814983834125173,-2.7020898717505073,-4.170668627487946,0.006835707084156764,-0.0006166793008040085,-0.3169491706404477
10462,2.0,300.27232000000004,31447.66,0.0,0.0,-0.10462000841950958,0.0,0.0,0.0,-2.7426954642079675,-2.6675946840210973,-4.149013142375716,-0.0019163731877063083,0.010880871311858388,-0.3350513801694967
10463,2.0,299.56766,31380.022999999997,0.0,0.0,-0.10463001283988382,0.0,0.0,0.0,-2.7401448097312375,-2.673037154283227,-4.125561570136226,-0.006365789450829504,0.004504204722530396,-0.3182799023942807
10464,2.0,300.00208,31594.94,0.0,0.0,-0.10463998435098043,0.0,0.0,0.0,-2.7649693358562275,-2.693311883484187,-4.145791615007776,-0.03157124988933977,-0.010284566535257689,-0.33581308079967065
10465,2.0,300.26313,31722.272999999997,0.0,0.0,-0.10464998877135445,0.0,0.0,0.0,-2.782139365425777,-2.7057780007894974,-4.154861419302896,-0.0037047840335337158,-0.0009166744566637252,-0.3152793243431467
10466,2.0,300.57416,31588.72,0.0,0.0,-0.10465999319172858,0.0,0.0,0.0,-2.760995774264068,-2.704259138889597,-4.136927095182916,0.004795390408443186,0.004498840981801036,-0.3276674416557587
10467,2.0,299.7034,31435.092999999997,0.0,0.0,-0.10466999761210272,0.0,0.0,0.0,-2.7180722708778475,-2.7004226700359677,-4.136988194163946,0.017795611194540085,-0.018209158077103983,-0.3026429506235337
10468,2.0,300.12436,31373.933999999997,0.0,0.0,-0.10468000203247696,0.0,0.0,0.0,-2.7113029496097676,-2.7080639943401077,-4.117525686243146,0.017035634102786183,-0.016426378976657382,-0.3348583154954427
10469,2.0,300.06744,31603.812,0.0,0.0,-0.1046900064528512,0.0,0.0,0.0,-2.7605576449208273,-2.694544198255808,-4.151667958962726,0.011652264692488989,0.01043839917868979,-0.3085377458628047
10470,2.0,299.30565,31660.942000000003,0.0,0.0,-0.10470001087322545,0.0,0.0,0.0,-2.7564685728172678,-2.7082118275296976,-4.159455495256296,0.0027348328460819874,0.024978531020939075,-0.34892772883148565
10471,2.0,299.84762,31453.978,0.0,0.0,-0.10471001529359936,0.0,0.0,0.0,-2.7563500225555675,-2.6874608707817376,-4.117413114157036,-0.014317251270752685,0.0051545565634401255,-0.31378097062527066
10472,2.0,299.47475,31392.173,0.0,0.0,-0.10471998680469607,0.0,0.0,0.0,-2.718404819560668,-2.6791962963410874,-4.144835714863436,-0.015865238031527083,-0.01629680962011988,-0.3399958278749757
10473,2.0,299.31171,31687.525,0.0,0.0,-0.10472999122507021,0.0,0.0,0.0,-2.7764862404678574,-2.6937262014500774,-4.162003819257796,0.016990394512321386,0.0022347043504231476,-0.3112957518399987
10474,2.0,300.29852999999997,31936.02,0.0,0.0,-0.10473999564544434,0.0,0.0,0.0,-2.7932878523010474,-2.7235900256224075,-4.190874759657136,-0.004826558082844195,0.007889564296489373,-0.3237159385182757
10475,2.0,299.6307,31581.65,0.0,0.0,-0.10475000006581858,0.0,0.0,0.0,-2.7642631005365272,-2.699598999029677,-4.136170805308276,0.009248556811511491,0.0014773672818047985,-0.3262084425717667
10476,2.0,299.1955,31349.277000000002,0.0,0.0,-0.10476000448619271,0.0,0.0,0.0,-2.7094490059017975,-2.7193547415294175,-4.100593871772106,-0.018479453687030085,-0.007157404770330853,-0.3469826635420227
10477,2.0,300.29152,31519.752999999997,0.0,0.0,-0.10477000890656685,0.0,0.0,0.0,-2.7610657898459774,-2.6928754766661176,-4.127276698580497,0.004771294814440136,0.019888507647092882,-0.3184621151597637
10478,2.0,300.08027999999996,31677.532000000003,0.0,0.0,-0.1047800133269412,0.0,0.0,0.0,-2.7539179183405373,-2.723558209569268,-4.1517026121161456,-0.0042304194792598965,0.01221240049352009,-0.3296085350048297
10479,2.0,300.2041,31657.81,0.0,0.0,-0.1047899848380377,0.0,0.0,0.0,-2.752045938780787,-2.7178857315344374,-4.153252175494075,-0.004465711249906386,-0.01035626208583349,-0.3232111474509567
10480,2.0,300.81265,31475.884,0.0,0.0,-0.10479998925841183,0.0,0.0,0.0,-2.7234378354573874,-2.7040098793649974,-4.140434865704106,-0.0009883765528351709,-0.012272789186229987,-0.3117631438461267
10481,2.0,300.24115,31474.705,0.0,0.0,-0.10480999367878596,0.0,0.0,0.0,-2.7339002506899472,-2.711682513097227,-4.121941632828967,0.014490686250619384,0.0025297440344162975,-0.3421420739717937
10482,2.0,300.0214,31794.754,0.0,0.0,-0.1048199980991602,0.0,0.0,0.0,-2.7849845717065773,-2.718057072126347,-4.161769657159685,0.013014744611705287,0.014337302476981588,-0.32425462280143974
10483,2.0,300.16167,31947.751,0.0,0.0,-0.10483000251953434,0.0,0.0,0.0,-2.8274871710012572,-2.7313576008890075,-4.152473796767256,-0.0066089171911243435,-0.012787553674283289,-0.3347695953166867
10484,2.0,299.31535,31525.644,0.0,0.0,-0.10484000693990847,0.0,0.0,0.0,-2.7231027536493175,-2.7116246565165176,-4.148281271828486,-0.008803528856290653,-0.0014820874060706387,-0.3405178543264957
10485,2.0,299.80259,31248.006,0.0,0.0,-0.1048500113602826,0.0,0.0,0.0,-2.7227557154900675,-2.678495329921908,-4.097362515878196,-0.01030916520793539,-0.001905497163782928,-0.34074774050918366
10486,2.0,299.73093,31488.777000000002,0.0,0.0,-0.10486001578065673,0.0,0.0,0.0,-2.7386696189106474,-2.713322965009127,-4.119809349318525,-0.0032451344740698374,0.004208347345706546,-0.34041818091415865
10487,2.0,299.6192,31739.59,0.0,0.0,-0.10486998729175345,0.0,0.0,0.0,-2.7892314068507074,-2.7045733477456078,-4.1542380678413755,-0.014192111843652386,-0.0008685901462781731,-0.3354982538610997
10488,2.0,299.88935,31696.482000000004,0.0,0.0,-0.10487999171212758,0.0,0.0,0.0,-2.7665279171600474,-2.7211624810328274,-4.1472488713015965,0.0012968445161635888,0.004016767083049046,-0.3336208939433187
10489,2.0,299.75431000000003,31602.807999999997,0.0,0.0,-0.1048899961325016,0.0,0.0,0.0,-2.7712012292712673,-2.6985521090263576,-4.136711272911617,0.00997480331406144,0.014903053710066883,-0.3194305897378447
10490,2.0,299.61098,31700.892999999996,0.0,0.0,-0.10490000055287574,0.0,0.0,0.0,-2.740258496392457,-2.722552660170027,-4.173468642814286,0.01043912669226159,0.0036467581387320067,-0.3184586093144177
10491,2.0,300.32851,31842.914,0.0,0.0,-0.10491000497325009,0.0,0.0,0.0,-2.8056873990747873,-2.7136257241390074,-4.1601377165486255,0.018839320605796184,-0.02002723475803418,-0.3101498774344097
10492,2.0,300.25651,31836.682999999997,0.0,0.0,-0.10492000939362423,0.0,0.0,0.0,-2.7705408941810976,-2.7262274143076977,-4.180788462861696,0.022086492320517077,-0.017935278601574182,-0.31719773102247867
10493,2.0,300.57462999999996,31570.428,0.0,0.0,-0.10493001381399836,0.0,0.0,0.0,-2.7520752217086772,-2.7063603156219673,-4.138186362407196,0.0023944088795097578,-0.001284992225768859,-0.3244053133563117
10494,2.0,300.33879,31417.574,0.0,0.0,-0.10493998532509485,0.0,0.0,0.0,-2.742704178158827,-2.6781119160840676,-4.129342006259326,0.002395633290930598,-0.00038521345107760764,-0.33969149820744066
10495,2.0,299.50219,31676.756,0.0,0.0,-0.10494998974546921,0.0,0.0,0.0,-2.7748871291600374,-2.695263909801837,-4.158791715115786,-0.01922361293147288,-0.006100258142873604,-0.3314858442601057
10496,2.0,300.03746,31917.772999999997,0.0,0.0,-0.10495999416584323,0.0,0.0,0.0,-2.7892516718527074,-2.7287688482085177,-4.184185383821946,0.0027619160080048877,0.01117083613272569,-0.3415202930479287
10497,2.0,299.68642,31721.376,0.0,0.0,-0.10496999858621736,0.0,0.0,0.0,-2.7633133812177975,-2.7213176096231373,-4.1578753317253465,0.004528261610379626,0.017498602258977584,-0.32970569555691864
10498,2.0,299.22494,31606.293999999998,0.0,0.0,-0.1049800030065915,0.0,0.0,0.0,-2.742306680144597,-2.7116817024971476,-4.153535885522076,0.013661829430317587,0.02026130667688528,-0.3451926559153627
10499,2.0,299.68464,31863.872000000003,0.0,0.0,-0.10499000742696574,0.0,0.0,0.0,-2.7790178458427075,-2.741542588244187,-4.165261013029256,0.004831855253041985,-0.005255841955361215,-0.3163672307105147
10500,2.0,299.95232999999996,31733.461,0.0,0.0,-0.10500001184733998,0.0,0.0,0.0,-2.7856022489675376,-2.6973963959622975,-4.163181013223976,-0.004685572944055045,-0.007172441604464874,-0.3121806231523287
10501,2.0,300.10602,31645.845,0.0,0.0,-0.10501001626771422,0.0,0.0,0.0,-2.7342524564247075,-2.7227747645919473,-4.162519360908676,-0.0011995958113158887,-0.004425625657400246,-0.3128742941707887
10502,2.0,300.50827000000004,31717.377999999997,0.0,0.0,-0.10501998777881072,0.0,0.0,0.0,-2.7557042782668373,-2.7073616093707873,-4.178225041433706,-0.01078026874917969,-0.00984723765959669,-0.3095771276828837
10503,2.0,300.46969,31825.92,0.0,0.0,-0.10502999219918485,0.0,0.0,0.0,-2.7825961385708573,-2.7125094265038374,-4.179179523027906,0.017769717588234587,-0.000978513069736721,-0.3247936819871407
10504,2.0,300.52022,31918.688,0.0,0.0,-0.10503999661955898,0.0,0.0,0.0,-2.7756989451401575,-2.7352291281960976,-4.191555866374356,-7.229279159549303e-05,0.002957072942190377,-0.3331212501865077
10505,2.0,300.48127999999997,31995.229,0.0,0.0,-0.10505000103993312,0.0,0.0,0.0,-2.8118203992800677,-2.7211762612341874,-4.192753933292596,0.02991267194640087,0.01048543931458229,-0.3117931056515837
10506,2.0,299.76792,31765.572999999997,0.0,0.0,-0.10506000546030736,0.0,0.0,0.0,-2.7765024524694573,-2.7159274230661676,-4.163511028781546,-0.014733896672122385,-0.005196466107451275,-0.3190404681843427
10507,2.0,299.30527,31616.795,0.0,0.0,-0.10507000988068149,0.0,0.0,0.0,-2.7675105671070273,-2.6943934266409273,-4.148812316205896,0.0034196607242942367,0.004833879828066795,-0.3205467657830027
10508,2.0,299.19622000000004,31723.778,0.0,0.0,-0.10508001430105562,0.0,0.0,0.0,-2.7840608929154174,-2.6903019227371274,-4.168873452285776,-0.013160206796061289,-0.006448155943508443,-0.3246383710118127
10509,2.0,299.612,31825.386000000002,0.0,0.0,-0.10508998581215234,0.0,0.0,0.0,-2.7955063633949973,-2.7197278202162374,-4.158888581825346,-0.0027501280589915075,0.014507207293499884,-0.3204427657927387
10510,2.0,300.23658,31694.987999999998,0.0,0.0,-0.10509999023252647,0.0,0.0,0.0,-2.7371094164066676,-2.735931715815437,-4.1614438972525365,-0.013935348188811788,0.008620625256889471,-0.32852257407765373
10511,2.0,299.60952000000003,31661.87,0.0,0.0,-0.1051099946529006,0.0,0.0,0.0,-2.7679180962972474,-2.720939464685818,-4.135560220798016,5.101522242606045e-05,-0.0033088875624117772,-0.31597590338939374
10512,2.0,300.02215,31937.084,0.0,0.0,-0.10511999907327463,0.0,0.0,0.0,-2.7793380328743074,-2.755266554223637,-4.173471682564586,-7.798117664364292e-05,0.000988587217663462,-0.3157192775365667
10513,2.0,299.77837,31850.109,0.0,0.0,-0.10513000349364898,0.0,0.0,0.0,-2.7690203097560273,-2.738289548798137,-4.174328081549106,0.0030716827755764868,0.001771232304957018,-0.3310609783606747
10514,2.0,300.45089,31773.66,0.0,0.0,-0.10514000791402311,0.0,0.0,0.0,-2.7489770068779076,-2.7477382073056473,-4.161684037526236,0.006009650988456374,0.00011924413536847988,-0.33021777189245666
10515,2.0,300.5822,31738.287999999997,0.0,0.0,-0.10515001233439725,0.0,0.0,0.0,-2.753178752392587,-2.7318336257859874,-4.162634567445045,-0.0015063360008387885,-0.004854047152757155,-0.35843191344447567
10516,2.0,300.28655,31482.851000000002,0.0,0.0,-0.10515998384549374,0.0,0.0,0.0,-2.7472549883329576,-2.6977911582012575,-4.124954329351296,-0.0017231807428146984,0.005769781252533074,-0.3396265184785277
10517,2.0,299.76816,31575.679,0.0,0.0,-0.1051699882658681,0.0,0.0,0.0,-2.7867013213510075,-2.697624681209827,-4.113891968734526,-0.023870564328091277,0.002230290430337528,-0.35929535451719063
10518,2.0,299.54655,31885.395,0.0,0.0,-0.10517999268624223,0.0,0.0,0.0,-2.787303394560427,-2.718448287989957,-4.1866123204614665,-0.018055021458641882,0.003616584564004106,-0.3040753417598997
10519,2.0,298.99306,31852.593999999997,0.0,0.0,-0.10518999710661636,0.0,0.0,0.0,-2.7812585471138473,-2.7390128067195176,-4.162121761569436,-0.0001257029157459119,-0.011456006254119789,-0.3368804181900087
10520,2.0,299.39052999999996,31869.764,0.0,0.0,-0.10520000152699038,0.0,0.0,0.0,-2.7851508460479875,-2.7132605488029675,-4.189201174466966,0.017739618994014085,-0.002193495671506168,-0.3186227760956197
10521,2.0,299.82074,31937.822999999997,0.0,0.0,-0.10521000594736452,0.0,0.0,0.0,-2.8029365263782977,-2.727225566981207,-4.178138509875166,0.007685389537738892,-0.01131634796633659,-0.3357442709853797
10522,2.0,299.3291,31891.556,0.0,0.0,-0.10522001036773887,0.0,0.0,0.0,-2.790742264074818,-2.7352001492432376,-4.168294379853625,0.015424105414990683,-0.0018306128138174183,-0.3247914933669247
10523,2.0,300.55078,31886.561,0.0,0.0,-0.105230014788113,0.0,0.0,0.0,-2.8010525904673673,-2.7230997138990176,-4.168566133530446,-0.029036638201443074,-0.01083633694346319,-0.33673905966855766
10524,2.0,299.75351,31825.533,0.0,0.0,-0.1052399862992095,0.0,0.0,0.0,-2.744646071975477,-2.7473726266695677,-4.1821487511209465,0.0035813078564725666,6.416778526336734e-05,-0.3219195068859817
10525,2.0,300.06366,31663.737999999998,0.0,0.0,-0.10524999071958363,0.0,0.0,0.0,-2.7578879335573476,-2.6931459131178075,-4.173951963111986,-0.01000211162015656,-0.002713283448255227,-0.3064992082516167
10526,2.0,300.01592999999997,31744.654,0.0,0.0,-0.10525999513995798,0.0,0.0,0.0,-2.741517459641708,-2.7163208680799973,-4.191743925592916,0.014721516782400587,0.006959175864492183,-0.3240662697403507
10527,2.0,300.07507000000004,31966.77,0.0,0.0,-0.105269999560332,0.0,0.0,0.0,-2.790516410627527,-2.7492783474576474,-4.177305111667916,0.00871170590307843,-0.008979580858515633,-0.3379634913543997
10528,2.0,299.36732,31950.601000000002,0.0,0.0,-0.10528000398070614,0.0,0.0,0.0,-2.7996683895057575,-2.7207333696154774,-4.191783239696796,0.011431050917406888,-0.004608531992576695,-0.3362782639205807
10529,2.0,300.49962,31850.622000000003,0.0,0.0,-0.10529000840108027,0.0,0.0,0.0,-2.7999299093565675,-2.727617897419927,-4.154246072517166,-0.008714509262130101,-0.005553311210444145,-0.3458218132999557
10530,2.0,299.65412000000003,31771.479,0.0,0.0,-0.10530001282145451,0.0,0.0,0.0,-2.7438012240420973,-2.731416166744787,-4.1825187900574665,-0.008108215460743562,-0.007450782217534953,-0.33743809078004666
10531,2.0,300.05871,31888.199,0.0,0.0,-0.10530998433255112,0.0,0.0,0.0,-2.7740271838001678,-2.7299796820780178,-4.189209483117787,-0.011161309555285489,-0.006580598168054474,-0.3289671780890327
10532,2.0,300.24896,31920.076,0.0,0.0,-0.10531998875292525,0.0,0.0,0.0,-2.768425531947327,-2.7481984255010676,-4.186282102253876,-0.005870036473077494,-0.014638254981933286,-0.3382275949929647
10533,2.0,300.06281,31798.495,0.0,0.0,-0.1053299931732995,0.0,0.0,0.0,-2.7683205592369675,-2.7190570486500376,-4.178570762367825,0.012790778849351588,0.001845586522470208,-0.3341774924882507
10534,2.0,299.59618,31801.961,0.0,0.0,-0.10533999759367363,0.0,0.0,0.0,-2.7985395275693477,-2.7159297535413973,-4.152532767923076,0.0004673521246040636,-0.005035174828708065,-0.3278927276829927
10535,2.0,299.71157999999997,31954.96,0.0,0.0,-0.10535000201404776,0.0,0.0,0.0,-2.778745686865847,-2.7363522146069372,-4.198412225826026,0.009552080235941922,-0.0006608669958099943,-0.3235771941820827
10536,2.0,299.4713,31990.744,0.0,0.0,-0.1053600064344219,0.0,0.0,0.0,-2.789509949303197,-2.730129440442797,-4.204747977376316,-0.005240464669193595,0.011078276749340789,-0.3191728898399117
10537,2.0,299.95796,32093.146,0.0,0.0,-0.10537001085479614,0.0,0.0,0.0,-2.808222956125027,-2.7329365485198376,-4.214355412174496,0.0041044762408552656,0.01236280227211359,-0.30759398445466274
10538,2.0,299.49431,31924.574,0.0,0.0,-0.10538001527517027,0.0,0.0,0.0,-2.7909947659997374,-2.7110049527553572,-4.202273519307107,0.0014839215914016586,0.012505946140240788,-0.32222404933603765
10539,2.0,299.6207,31827.271,0.0,0.0,-0.10538998678626699,0.0,0.0,0.0,-2.7950093642209475,-2.718127999633347,-4.161558191863817,-0.005326308129590685,-0.002010508174996708,-0.3232421022415117
10540,2.0,300.19358,31998.619,0.0,0.0,-0.10539999120664112,0.0,0.0,0.0,-2.8158934620320477,-2.7414769296377073,-4.169410677488796,-0.006504889336482594,-0.0027750027409964473,-0.33473937006620363
10541,2.0,300.18554,32023.855,0.0,0.0,-0.10540999562701525,0.0,0.0,0.0,-2.7796040110255573,-2.7365835396047675,-4.218264835035326,-0.003790879995855726,0.007912666196119352,-0.31675946995672566
10542,2.0,300.34378,31835.443,0.0,0.0,-0.10542000004738938,0.0,0.0,0.0,-2.7452784413628875,-2.7537251981715176,-4.178176101453876,0.005240802892076975,0.006085730973539884,-0.34820978034062966
10543,2.0,299.74598,31798.332000000002,0.0,0.0,-0.1054300044677634,0.0,0.0,0.0,-2.7530318311280872,-2.7274143354748372,-4.185452858372035,0.018467100141810883,-0.0007189337347232352,-0.3177650497534687
10544,2.0,299.41745,31884.374,0.0,0.0,-0.10544000888813776,0.0,0.0,0.0,-2.7571864605131173,-2.7512343254506875,-4.183632757217406,0.00872238819358269,5.070650133259205e-05,-0.34978121978821863
10545,2.0,299.88732999999996,31953.452,0.0,0.0,-0.10545001330851189,0.0,0.0,0.0,-2.7962867686220174,-2.7533383392833373,-4.163426321073185,0.007658840257293682,0.008377336004528693,-0.32999691376815965
10546,2.0,300.60353,31976.039,0.0,0.0,-0.10545998481960839,0.0,0.0,0.0,-2.7914751478721476,-2.7406688626829574,-4.187773201101036,-0.011623100314860689,-0.0041076642296448964,-0.3498589056733857
10547,2.0,299.2802,31923.892999999996,0.0,0.0,-0.10546998923998252,0.0,0.0,0.0,-2.783673324752167,-2.7392983405976974,-4.1810947683669255,-0.006607353138269983,-0.004119656449878436,-0.3315833189197257
10548,2.0,300.36067,31837.971,0.0,0.0,-0.10547999366035687,0.0,0.0,0.0,-2.7616848856570773,-2.7241416389768474,-4.192121766555206,-0.012855988586037289,-0.007686624385635763,-0.33754426925802566
10549,2.0,300.14302000000004,31869.164,0.0,0.0,-0.105489998080731,0.0,0.0,0.0,-2.7771958195128876,-2.720003424243437,-4.190230737893576,-0.0038971725657959864,0.022846371127011277,-0.3409507350342177
10550,2.0,300.45665,32050.706000000002,0.0,0.0,-0.10550000250110514,0.0,0.0,0.0,-2.7930954361070577,-2.746217724205587,-4.2033009549085065,-0.009179597948130782,0.004679913334296485,-0.3404827046805267
10551,2.0,299.89635,31940.262000000002,0.0,0.0,-0.10551000692147916,0.0,0.0,0.0,-2.8243760878942177,-2.715221897021537,-4.169444317392116,-0.006313416377010683,-0.0015872812076024585,-0.33502341446673667
10552,2.0,300.13124,31768.409,0.0,0.0,-0.10552001134185329,0.0,0.0,0.0,-2.751462205398177,-2.736615659632937,-4.168725315121156,-0.004255244512009936,0.002232785660033788,-0.3307625356762207
10553,2.0,299.45991000000004,31904.521,0.0,0.0,-0.10553001576222765,0.0,0.0,0.0,-2.7812548994134874,-2.7302232674020575,-4.186699459970066,0.00011362556223896988,-0.006813264911666894,-0.3281226949256887
10554,2.0,299.93297,32166.782000000003,0.0,0.0,-0.10553998727332414,0.0,0.0,0.0,-2.803463315105287,-2.7482991425610077,-4.226136167112166,0.00875814619491173,-0.0030867664218651274,-0.3049417415229067
10555,2.0,299.58969,32120.482000000004,0.0,0.0,-0.10554999169369828,0.0,0.0,0.0,-2.8191367742771374,-2.748391449645118,-4.196296356967205,0.0010362556395454691,-0.01033539014702359,-0.3288694501168877
10556,2.0,300.03479,32024.407000000003,0.0,0.0,-0.10555999611407241,0.0,0.0,0.0,-2.797199909612137,-2.7401319414549676,-4.197288126165086,0.03452401570800506,-0.007918126499583242,-0.3157964770616857
10557,2.0,300.66881,31994.682999999997,0.0,0.0,-0.10557000053444676,0.0,0.0,0.0,-2.8157871720965577,-2.7270315295870575,-4.182766225731886,0.008438945258309053,-0.006307776221654044,-0.34551866913503765
10558,2.0,300.88527999999997,32127.31,0.0,0.0,-0.10558000495482078,0.0,0.0,0.0,-2.7831052967461076,-2.768587145338277,-4.214207376334886,0.011132082356150989,-0.0028666910332703775,-0.3332701270237007
10559,2.0,300.19066000000004,32125.924,0.0,0.0,-0.10559000937519492,0.0,0.0,0.0,-2.8072565181796474,-2.7393272182255473,-4.218894772622496,-0.006199736808541384,-0.004291766807889405,-0.33935003292374066
10560,2.0,300.22397,31963.311,0.0,0.0,-0.10560001379556905,0.0,0.0,0.0,-2.768191167199197,-2.7488124550616675,-4.199044696538446,0.0012709961008125488,0.011572097357827089,-0.3316979681685407
10561,2.0,299.62403,31672.504,0.0,0.0,-0.10560998530666577,0.0,0.0,0.0,-2.7391069376538075,-2.7284843275804374,-4.160059189665875,-0.008541033346959362,0.015290868093091185,-0.35217220631419066
10562,2.0,299.79168,31821.612,0.0,0.0,-0.1056199897270399,0.0,0.0,0.0,-2.760528260667927,-2.7522145435974275,-4.160232658082997,-0.017224467444422586,-0.005855391260107124,-0.34917978492636165
10563,2.0,299.81197000000003,32233.346,0.0,0.0,-0.10562999414741403,0.0,0.0,0.0,-2.836035151494877,-2.762533685265847,-4.199563581914656,-0.015955917835976482,-0.0015694025109129685,-0.33172350207106066
10564,2.0,299.63703,32097.167,0.0,0.0,-0.10563999856778827,0.0,0.0,0.0,-2.7825952266457676,-2.757168931286387,-4.216973245132856,0.007540691242633283,-0.0009024890768537373,-0.33531782441579266
10565,2.0,299.8109,31884.272,0.0,0.0,-0.1056500029881624,0.0,0.0,0.0,-2.7723688986865076,-2.7279522699529273,-4.1917012677637056,0.018661921791538284,0.006100417121814294,-0.31609545676869266
10566,2.0,300.46131,32196.085,0.0,0.0,-0.10566000740853654,0.0,0.0,0.0,-2.8006591454535372,-2.754289781127237,-4.231857078501776,0.018984518331876084,-0.009371175576338021,-0.3180293256445507
10567,2.0,299.77975,32357.021,0.0,0.0,-0.10567001182891067,0.0,0.0,0.0,-2.8494276833666174,-2.754723350845027,-4.231575192323956,-0.01062767429736979,-0.01040306106820219,-0.3110616606693957
10568,2.0,299.79121000000004,32095.785,0.0,0.0,-0.10568001624928491,0.0,0.0,0.0,-2.8313062119531676,-2.7203592776785572,-4.204651921266836,0.006444479973470654,0.0023305287296052778,-0.3355918984353417
10569,2.0,299.86306,32018.452999999998,0.0,0.0,-0.10568998776038141,0.0,0.0,0.0,-2.825080094063697,-2.7202417406669572,-4.1874882751729166,-0.0005818129291654654,0.0061010264904244335,-0.3151571770435917
10570,2.0,300.4844,32018.7,0.0,0.0,-0.10569999218075576,0.0,0.0,0.0,-2.796944063961887,-2.7359490423921473,-4.199992085381946,3.944657214507356e-05,-0.005500301714237515,-0.34256476138350966
10571,2.0,300.50315,32050.821,0.0,0.0,-0.1057099966011299,0.0,0.0,0.0,-2.794838428929077,-2.7306393078931177,-4.217171436852416,-0.0026446048498521774,-0.017951038693629583,-0.3117062599855127
10572,2.0,300.98821,32244.737,0.0,0.0,-0.10572000102150403,0.0,0.0,0.0,-2.809830984033727,-2.755639835560477,-4.236123975997885,0.001150001575896319,-0.0044685867523651755,-0.34103655731768767
10573,2.0,300.39322999999996,32285.824,0.0,0.0,-0.10573000544187816,0.0,0.0,0.0,-2.8174201259577174,-2.775699755740237,-4.220964538601766,0.012896022097488288,0.0005376531390672336,-0.3253009149872007
10574,2.0,300.59135,31984.839,0.0,0.0,-0.10574000986225218,0.0,0.0,0.0,-2.7933038616526273,-2.7438133830432974,-4.185475149874236,0.008027488204076403,0.013019902054714289,-0.3406530522873387
10575,2.0,300.27061000000003,32055.342999999997,0.0,0.0,-0.10575001428262654,0.0,0.0,0.0,-2.771914658666677,-2.767732671528947,-4.204376519889656,0.003438110894040127,-0.0035910210745811865,-0.33391916437525565
10576,2.0,299.9086,32153.307,0.0,0.0,-0.10575998579372303,0.0,0.0,0.0,-2.7908335579088273,-2.7602053378610574,-4.2227636654793255,-0.014149590803205886,-0.005340179523459684,-0.33502874416226264
10577,2.0,299.59982,32045.006,0.0,0.0,-0.10576999021409716,0.0,0.0,0.0,-2.7900608533825677,-2.7438286831198075,-4.206992123697796,-0.005294321546458855,0.007716875271346293,-0.33561431152755367
10578,2.0,299.91963,31919.552000000003,0.0,0.0,-0.1057799946344713,0.0,0.0,0.0,-2.7581053770288073,-2.751007762728327,-4.193633738354426,-0.003494150615995817,-0.016991781651708285,-0.3437675399147147
10579,2.0,300.1435,32031.388,0.0,0.0,-0.10578999905484565,0.0,0.0,0.0,-2.808691280321247,-2.7421415203782975,-4.185909428867096,0.01966637080116968,0.003225889916245547,-0.3369866473304927
10580,2.0,300.3098,32165.392999999996,0.0,0.0,-0.10580000347521978,0.0,0.0,0.0,-2.819382082126347,-2.7599338881592677,-4.198160230526156,0.0021732754551605877,0.01000615317083043,-0.3427732477240857
10581,2.0,300.28335,32241.118,0.0,0.0,-0.10581000789559392,0.0,0.0,0.0,-2.844502477280537,-2.7526745591428274,-4.203317876185175,0.006962145599210273,0.013621528420840188,-0.34060927988301865
10582,2.0,299.86987,32199.437,0.0,0.0,-0.10582001231596794,0.0,0.0,0.0,-2.8154417551374675,-2.7442753237638873,-4.228107850481756,-0.018307408886300582,0.014528559512857185,-0.3375928546003207
10583,2.0,299.4828,32040.331000000002,0.0,0.0,-0.10582998382706466,0.0,0.0,0.0,-2.8008298780953873,-2.7344055585148177,-4.204225241649726,-0.01253897606700059,0.008183905344538571,-0.3266238143177607
10584,2.0,299.3726,31979.637000000002,0.0,0.0,-0.10583998824743879,0.0,0.0,0.0,-2.760383467228637,-2.742465760410297,-4.218161787500156,-0.01941633208724278,0.003120369341556477,-0.35020526495506865
10585,2.0,299.57327999999995,32225.547000000002,0.0,0.0,-0.10584999266781292,0.0,0.0,0.0,-2.8564101924557375,-2.739442323436908,-4.1999092015237665,-0.016818833031889587,0.00886347475870685,-0.3238997218214137
10586,2.0,299.65859,32203.086,0.0,0.0,-0.10585999708818705,0.0,0.0,0.0,-2.8068468611642174,-2.770945484946027,-4.211141484182306,0.005416246133641875,-0.004731000999038446,-0.3336107817073207
10587,2.0,299.43138999999996,31893.162999999997,0.0,0.0,-0.10587000150856118,0.0,0.0,0.0,-2.775533582723837,-2.7419020893796673,-4.177289406291366,0.006972964678478034,-0.002248916095000738,-0.3385859916858357
10588,2.0,300.05712,32110.444,0.0,0.0,-0.10588000592893554,0.0,0.0,0.0,-2.7620574577188473,-2.7700180571294974,-4.228697663364966,0.030189622582983768,-0.0009733779688924261,-0.3329343866030657
10589,2.0,300.30133,32354.437,0.0,0.0,-0.10589001034930956,0.0,0.0,0.0,-2.8299938504236475,-2.776952538163877,-4.227994771770596,0.015303208466059086,-0.014197599606193987,-0.3271380083460077
10590,2.0,299.56638,32199.635,0.0,0.0,-0.10590001476968369,0.0,0.0,0.0,-2.7903184215579873,-2.769862827214177,-4.227703766341875,0.0017911485462725983,-0.002857121696675957,-0.34508111734435465
10591,2.0,299.62389,31982.042999999998,0.0,0.0,-0.10590998628078041,0.0,0.0,0.0,-2.802471849882437,-2.7464125721998176,-4.172858159629036,-0.005755495034073135,0.004335938635398826,-0.35183472310338365
10592,2.0,299.91095,32007.222999999998,0.0,0.0,-0.10591999070115454,0.0,0.0,0.0,-2.768255913880587,-2.7508252763853176,-4.210315381375776,-0.00942448945287469,0.009002054644408621,-0.3461847088232707
10593,2.0,300.36955,32179.417,0.0,0.0,-0.10592999512152868,0.0,0.0,0.0,-2.815771669370027,-2.7497971315088474,-4.216170244428606,-0.011033905514211689,0.004298071655311647,-0.3401255542852787
10594,2.0,300.53047000000004,32355.558999999997,0.0,0.0,-0.10593999954190292,0.0,0.0,0.0,-2.8110847797074676,-2.772351470784787,-4.251845564549486,-0.0062769913531408135,-0.0021737151043789782,-0.33200928926176565
10595,2.0,300.69857,32308.338,0.0,0.0,-0.10595000396227705,0.0,0.0,0.0,-2.814979814416877,-2.762383217625997,-4.243564980757256,-0.004660255269106386,-0.0006236520928246694,-0.32826728571495867
10596,2.0,300.01771,32139.234,0.0,0.0,-0.10596000838265118,0.0,0.0,0.0,-2.7990563864453573,-2.7510774743352076,-4.219390758546446,0.006725532753083404,-0.003725650196818046,-0.3295825248747627
10597,2.0,300.28671,32252.877,0.0,0.0,-0.10597001280302532,0.0,0.0,0.0,-2.837874200426377,-2.7485688697376274,-4.217626082172286,0.0029772264866793773,-0.011528852856809189,-0.3209298857783137
10598,2.0,300.01944,32458.025,0.0,0.0,-0.10597998431412181,0.0,0.0,0.0,-2.845526873131637,-2.769725025200577,-4.2511774274335465,0.002232743610154638,-0.012958340018388588,-0.3174895065212747
10599,2.0,300.12806,32237.313,0.0,0.0,-0.10598998873449594,0.0,0.0,0.0,-2.827518075129307,-2.7402582937424373,-4.231561918747646,-0.0017711069659196485,-0.007917376795834251,-0.3071859993018977
10600,2.0,299.96198,31977.176,0.0,0.0,-0.10599999315487019,0.0,0.0,0.0,-2.7560986352057575,-2.7420921750984273,-4.222072324936096,-0.0034820335633499572,-0.004969284187955165,-0.32951946018853867
10601,2.0,299.8678,32161.836,0.0,0.0,-0.10600999757524454,0.0,0.0,0.0,-2.7973329493502677,-2.7563186118024676,-4.222743501802336,0.0028594527798560176,0.0014548148677040484,-0.3264427667898927
10602,2.0,300.47115,32418.72,0.0,0.0,-0.10602000199561867,0.0,0.0,0.0,-2.8445934671395174,-2.7724554302450475,-4.237432487177026,0.01043771422162219,0.003170485502102557,-0.3511873474819927
10603,2.0,300.53819,32363.638,0.0,0.0,-0.1060300064159928,0.0,0.0,0.0,-2.8358315895497874,-2.775657604536077,-4.226248739198276,-0.002732916992792907,-0.012045466526294988,-0.3376200198355017
10604,2.0,300.14117999999996,32245.069,0.0,0.0,-0.10604001083636694,0.0,0.0,0.0,-2.801586167970027,-2.7707130453730873,-4.229396603283946,0.00015273937697170287,-0.012201099715154788,-0.35376168161355964
10605,2.0,299.74776,32234.772999999997,0.0,0.0,-0.10605001525674096,0.0,0.0,0.0,-2.8173282241736475,-2.746579049191247,-4.234658715028276,-0.015274882046263486,-0.006314892682406385,-0.3135985146797637
10606,2.0,299.39363,32084.022999999997,0.0,0.0,-0.10605998676783779,0.0,0.0,0.0,-2.758803202372677,-2.7535481833790474,-4.240390569518967,-0.0031066364589761473,-0.017938555452397583,-0.34526374554237865
10607,2.0,298.90314,32207.655,0.0,0.0,-0.10606999118821181,0.0,0.0,0.0,-2.8007830659407675,-2.7560586118268073,-4.233481217087066,-0.014929166178393988,-0.0031847685794871867,-0.3196670215161787
10608,2.0,299.57434,32324.999,0.0,0.0,-0.10607999560858594,0.0,0.0,0.0,-2.8309043569635075,-2.760001471940937,-4.235086610545506,-0.0008340852009503002,0.011454508670471989,-0.3357146131549527
10609,2.0,299.62446,32134.394,0.0,0.0,-0.10609000002896007,0.0,0.0,0.0,-2.8180508741449675,-2.7595163277930572,-4.190486178243786,0.004511032913629286,0.009558090734210111,-0.3234570632502267
10610,2.0,299.87248,32057.368,0.0,0.0,-0.10610000444933443,0.0,0.0,0.0,-2.7816872532311576,-2.7535355177527974,-4.209416628537076,0.011093996311392188,0.01161027864809529,-0.34530935192937967
10611,2.0,300.04766,32418.302000000003,0.0,0.0,-0.10611000886970856,0.0,0.0,0.0,-2.847678205743957,-2.7697527882533177,-4.236923126351756,0.014099761189788089,-0.004018603598855296,-0.31787980032729374
10612,2.0,300.02044,32489.174,0.0,0.0,-0.1061200132900827,0.0,0.0,0.0,-2.8235703514146975,-2.7897978136566075,-4.262529374928896,0.011367777501662289,0.007963829449318774,-0.34746335952196367
10613,2.0,299.56211,32331.772,0.0,0.0,-0.10612998480117919,0.0,0.0,0.0,-2.8413980816241575,-2.7667579249327474,-4.219895357096246,0.006905126165732894,0.005995178129328015,-0.33426349715673864
10614,2.0,299.87122999999997,32252.978,0.0,0.0,-0.10613998922155343,0.0,0.0,0.0,-2.840610482321427,-2.7497221510014476,-4.213767423141467,-0.003024944081588737,-0.0064978214104100445,-0.35152447605526466
10615,2.0,300.15706,32240.585,0.0,0.0,-0.10614999364192756,0.0,0.0,0.0,-2.8391547459027575,-2.7499577316496975,-4.211220416365096,-0.008147473937193072,-0.015389876813362588,-0.34154825875068867
10616,2.0,300.02173,32174.462000000003,0.0,0.0,-0.1061599980623017,0.0,0.0,0.0,-2.806070914237637,-2.750654847718497,-4.2235071884027064,-0.005088545244600316,0.001060124873476179,-0.3295929005557867
10617,2.0,300.7057,32236.634,0.0,0.0,-0.10617000248267583,0.0,0.0,0.0,-2.798609543151257,-2.7643458830696974,-4.236176361028057,0.013571548846407589,0.010928056342515188,-0.3341842812639207
10618,2.0,300.49466,32162.535,0.0,0.0,-0.10618000690304996,0.0,0.0,0.0,-2.769825539610497,-2.7677065296763677,-4.2390755735391865,-0.008161089992036873,0.0086804042770142,-0.34003518250885967
10619,2.0,299.96693,32105.69,0.0,0.0,-0.10619001132342432,0.0,0.0,0.0,-2.7977244691889074,-2.775197690315687,-4.186405820091085,0.016049442846706685,0.0035918057354586267,-0.34813767746351365
10620,2.0,299.88836000000003,32395.155,0.0,0.0,-0.10620001574379834,0.0,0.0,0.0,-2.8291869993690173,-2.790374251638497,-4.227757063297136,-0.008321991676116632,0.015811661419239485,-0.33285123929985966
10621,2.0,299.51937999999996,32597.091,0.0,0.0,-0.10620998725489506,0.0,0.0,0.0,-2.8570646506953272,-2.8147593311951176,-4.236877834072286,0.007359593761535352,0.01939728197211268,-0.34527581335106966
10622,2.0,299.17565,32313.021,0.0,0.0,-0.10621999167526919,0.0,0.0,0.0,-2.799772551616037,-2.7902709001282977,-4.232308076121286,-0.008331233124978693,-0.006162658035706994,-0.3314099923576197
10623,2.0,300.06811,32233.741,0.0,0.0,-0.10622999609564332,0.0,0.0,0.0,-2.7952932768989673,-2.7711321256144474,-4.231826984973806,-0.0029619254982442868,-0.007386815029446884,-0.3443833527954907
10624,2.0,300.62262999999996,32380.574,0.0,0.0,-0.10624000051601745,0.0,0.0,0.0,-2.815347218903137,-2.7684166153464473,-4.259122017492616,0.004047507469882887,0.010233045807422991,-0.3414054715465967
10625,2.0,300.14027999999996,32333.435,0.0,0.0,-0.1062500049363917,0.0,0.0,0.0,-2.8547049938624474,-2.7503884642672074,-4.223463517323395,-0.0014394983765424285,0.013112042965807888,-0.34373700055670064
10626,2.0,300.47234,32254.737999999998,0.0,0.0,-0.10626000935676583,0.0,0.0,0.0,-2.815166455085297,-2.7463845051720477,-4.243083889609776,-0.007506586156192372,-0.006974150079770023,-0.34272118693394765
10627,2.0,299.69537,32218.15,0.0,0.0,-0.10627001377713996,0.0,0.0,0.0,-2.8349250346853174,-2.7335673980320974,-4.225020781402086,-0.0034356379558460673,-0.021822988526011278,-0.3274689560936697
10628,2.0,299.35778999999997,32236.927000000003,0.0,0.0,-0.10627998528823668,0.0,0.0,0.0,-2.803147383724107,-2.7502663676301573,-4.2458068979285155,0.0035316786639245463,0.015619638366288284,-0.3163725401410387
10629,2.0,298.70707000000004,32314.078999999998,0.0,0.0,-0.10628998970861081,0.0,0.0,0.0,-2.808991607650887,-2.7675098578319575,-4.246171566639506,0.0013777020767936085,-0.006321144435523384,-0.3317087896796087
10630,2.0,299.03605,32603.368,0.0,0.0,-0.10629999412898472,0.0,0.0,0.0,-2.8371916751590174,-2.797815864347927,-4.275602226394087,0.002993460070506507,0.0030090162966417873,-0.3250461433820567
10631,2.0,299.46313,32585.4,0.0,0.0,-0.10630999854935896,0.0,0.0,0.0,-2.8768855451764974,-2.788209746774877,-4.240052650610616,-0.007428604604646192,-0.004323442627215566,-0.32806184925718374
10632,2.0,300.1584,32338.881,0.0,0.0,-0.10632000296973332,0.0,0.0,0.0,-2.8270129699544575,-2.7737332399461576,-4.2294661122408055,0.020467727000507377,0.02047800844927208,-0.33561035985216364
10633,2.0,300.44611000000003,32265.778,0.0,0.0,-0.10633000739010745,0.0,0.0,0.0,-2.8235709593647575,-2.750504177428627,-4.233915800054956,0.0022890185074585377,0.003390399581281387,-0.3428687262810087
10634,2.0,300.16565,32369.058999999997,0.0,0.0,-0.10634001181048158,0.0,0.0,0.0,-2.799539909393077,-2.776195133714127,-4.263650738814566,0.009333552181574882,-0.027668270285895673,-0.3318995542759357
10635,2.0,300.37379,32285.355,0.0,0.0,-0.10635001623085572,0.0,0.0,0.0,-2.786290245785437,-2.7645208713619676,-4.263130637538236,-0.005991179439133374,-0.025487655758935773,-0.34599000268405466
10636,2.0,300.17733,32198.332000000002,0.0,0.0,-0.10635998774195243,0.0,0.0,0.0,-2.7971793406351075,-2.7521078483618973,-4.238201746652946,-0.005463624796392785,0.006121205467490944,-0.3333331309149187
10637,2.0,299.33066,32330.918999999998,0.0,0.0,-0.10636999216232657,0.0,0.0,0.0,-2.824169587523837,-2.776385726057937,-4.227236860695796,-0.002468744655871128,-0.0037845618748571764,-0.35894082843970165
10638,2.0,299.06001000000003,32446.394,0.0,0.0,-0.10637999658270059,0.0,0.0,0.0,-2.836075782823887,-2.777133099331697,-4.249684707386226,-0.015930556185973485,-0.01085698799375129,-0.3429604456800607
10639,2.0,300.08042,32568.357999999997,0.0,0.0,-0.10639000100307472,0.0,0.0,0.0,-2.840454745781057,-2.8068369313132373,-4.252676024331445,0.008942715678802322,-0.002682008571993638,-0.33558135050180066
10640,2.0,300.17056,32532.626,0.0,0.0,-0.10640000542344885,0.0,0.0,0.0,-2.8208367039699076,-2.7973099485729973,-4.270959311785866,0.014369406293149986,0.002255065003232588,-0.3188272499657997
10641,2.0,300.19581,32432.471,0.0,0.0,-0.1064100098438232,0.0,0.0,0.0,-2.814551513599607,-2.7830726700928876,-4.261037262831636,-0.002001866975493888,-0.00917930359897673,-0.3188063972787417
10642,2.0,300.33351,32357.728,0.0,0.0,-0.10642001426419734,0.0,0.0,0.0,-2.8439591725769175,-2.7653021885140774,-4.2266800797658455,-0.005230828863392615,-0.014218013555958685,-0.3343887855316037
10643,2.0,300.35976,32465.182,0.0,0.0,-0.10642998577529383,0.0,0.0,0.0,-2.869698967517237,-2.7628295542950476,-4.2360760492681555,-0.008532282513795722,0.0011618121203869289,-0.31032246432394267
10644,2.0,300.10900000000004,32393.022999999997,0.0,0.0,-0.10643999019566797,0.0,0.0,0.0,-2.8552982517959973,-2.7624829214358373,-4.2288888636588355,0.005014132562556355,0.02057875894646538,-0.3418323538137267
10645,2.0,300.23184,32280.127,0.0,0.0,-0.10644999461604221,0.0,0.0,0.0,-2.8239975376568576,-2.7607046675103373,-4.227650368061606,-0.0006067972346987244,-0.0021963412830870084,-0.34580184214048465
10646,2.0,299.54697999999996,32402.171000000002,0.0,0.0,-0.10645999903641634,0.0,0.0,0.0,-2.8101779208679676,-2.7763188515513373,-4.262954230695826,0.01187838259805509,-0.014136987998462086,-0.35495818812664565
10647,2.0,299.65606,32630.228,0.0,0.0,-0.10647000345679047,0.0,0.0,0.0,-2.851842764979968,-2.794491998719887,-4.272439974156995,0.005358712171763714,-0.007992763109899303,-0.3352690870859827
10648,2.0,299.32071,32574.595,0.0,0.0,-0.1064800078771646,0.0,0.0,0.0,-2.8648782275164675,-2.7801394123783973,-4.256845751142966,0.00090101087668035,0.004686398844211555,-0.3497542369380557
10649,2.0,299.58001,32391.236,0.0,0.0,-0.10649001229753885,0.0,0.0,0.0,-2.8355702723489973,-2.781631220500627,-4.228925543312456,0.00016030427182079984,-0.006871892677028003,-0.3475748474304667
10650,2.0,300.13212000000004,32283.825,0.0,0.0,-0.10649998380863546,0.0,0.0,0.0,-2.8232567505087474,-2.7751398337349773,-4.2150799873210065,-0.008032307829502061,-0.008611933496206661,-0.34408964198900366
10651,2.0,299.56032000000005,32242.956000000002,0.0,0.0,-0.10650998822900959,0.0,0.0,0.0,-2.783558523515837,-2.7644734512572873,-4.253021441290536,-0.00995298449303309,0.007892630897917023,-0.3346868330485187
10652,2.0,299.15856,32284.243,0.0,0.0,-0.10651999264938383,0.0,0.0,0.0,-2.783590846194027,-2.7879439712736476,-4.242068815659596,0.0007943031376441163,0.008201837946133383,-0.33953437351443366
10653,2.0,299.91081,32331.197,0.0,0.0,-0.10652999706975796,0.0,0.0,0.0,-2.808286790881327,-2.766568447164047,-4.253021339965526,0.0027285882870406973,0.0047035190218761855,-0.34090489559969367
10654,2.0,299.95195,32275.153,0.0,0.0,-0.1065400014901321,0.0,0.0,0.0,-2.8084371571961677,-2.7779958817918473,-4.224407461116556,-0.004455357455084546,-0.011869361632414789,-0.33210480834869266
10655,2.0,300.36903,32486.621,0.0,0.0,-0.10655000591050623,0.0,0.0,0.0,-2.8283094234574073,-2.7861810174246573,-4.260631253516566,0.011716296019308388,0.011004057192765888,-0.3461874648635427
10656,2.0,300.20745,32824.185,0.0,0.0,-0.10656001033088047,0.0,0.0,0.0,-2.8685406200029173,-2.8027902130638576,-4.306401989683786,0.002154643305696738,0.01954899793608588,-0.3290266254723997
10657,2.0,300.22556000000003,32737.254,0.0,0.0,-0.1065700147512546,0.0,0.0,0.0,-2.8455537242592874,-2.8120021763480074,-4.293751866160316,0.002878018966738357,-2.8746527472561372e-05,-0.3503329648651716
10658,2.0,300.45652,32464.612,0.0,0.0,-0.10657998626235121,0.0,0.0,0.0,-2.8197450283121674,-2.7699639495741573,-4.278722530077037,-0.002084367115861018,-0.004977296665770935,-0.32400791666709167
10659,2.0,300.14172,32357.982000000004,0.0,0.0,-0.10658999068272546,0.0,0.0,0.0,-2.840286850239487,-2.758652430757797,-4.237079268192167,-0.005403988239232114,0.003636811467800346,-0.3326283850728657
10660,2.0,299.8516,32506.986,0.0,0.0,-0.10659999510309959,0.0,0.0,0.0,-2.8635441824348074,-2.7688316425874073,-4.248936118212346,0.0005617442950348455,0.007011286405210093,-0.3179268353969357
10661,2.0,299.9072,32612.437,0.0,0.0,-0.1066099995234735,0.0,0.0,0.0,-2.872985545541597,-2.768752710404618,-4.271628360826896,-0.0051342500181860255,-0.0054615367919117145,-0.3384640470363007
10662,2.0,299.4544,32506.24,0.0,0.0,-0.10662000394384774,0.0,0.0,0.0,-2.833722813441667,-2.7909346802688075,-4.256427785476716,0.01030782163830279,-0.016791739737465682,-0.3292488616168327
10663,2.0,298.7522,32354.1,0.0,0.0,-0.1066300083642221,0.0,0.0,0.0,-2.788711305574377,-2.7747428423457974,-4.271384370202816,0.006242349548121934,0.002038634376572548,-0.33435628046839566
10664,2.0,299.53202000000005,32465.851000000002,0.0,0.0,-0.10664001278459623,0.0,0.0,0.0,-2.797372567429177,-2.7935989200817475,-4.277836544189596,0.008414221955869054,0.008347090894343732,-0.34489864113384566
10665,2.0,299.72163,32678.272,0.0,0.0,-0.10664998429569272,0.0,0.0,0.0,-2.8595630214668972,-2.8058076718616576,-4.268008018219596,-0.0018238781457027581,-0.011982253905556387,-0.3410703086785187
10666,2.0,300.62733,32625.585,0.0,0.0,-0.10665998871606686,0.0,0.0,0.0,-2.851143723735977,-2.7992606576655175,-4.266958899066056,-0.0050235024915310945,-0.014307507857791087,-0.3414724676432087
10667,2.0,300.06792,32261.183999999997,0.0,0.0,-0.10666999313644121,0.0,0.0,0.0,-2.812517616673877,-2.772156825440577,-4.221919729471036,0.01177381620098519,0.007751694091157642,-0.35632871021190565
10668,2.0,299.80695,32335.918999999998,0.0,0.0,-0.10667999755681512,0.0,0.0,0.0,-2.8072017013492374,-2.7768475654535174,-4.245262681299806,0.008438129693303561,0.01969859418084988,-0.3656553430098726
10669,2.0,300.27858,32738.742000000002,0.0,0.0,-0.10669000197718936,0.0,0.0,0.0,-2.856338251698637,-2.801922161703187,-4.293499668210425,-0.00941056131700009,0.006065947873287444,-0.34387468098028867
10670,2.0,300.36888999999996,32716.833,0.0,0.0,-0.1067000063975635,0.0,0.0,0.0,-2.8618205426896974,-2.806678256347577,-4.276601392317696,-0.003044287836597817,-0.005573647646576195,-0.34074677792158864
10671,2.0,299.95583,32479.833,0.0,0.0,-0.10671001081793763,0.0,0.0,0.0,-2.8430747065646274,-2.7764474329890274,-4.253536172341336,-0.014806273126765383,0.027410315048937477,-0.3157288426175107
10672,2.0,300.52022,32469.708,0.0,0.0,-0.10672001523831198,0.0,0.0,0.0,-2.837958097534657,-2.7888099961341175,-4.243212167072436,-0.0030196014164614576,0.01063914327525169,-0.33717948908952466
10673,2.0,300.58769,32558.504,0.0,0.0,-0.10672998674940848,0.0,0.0,0.0,-2.844540372834277,-2.784741391682577,-4.267690465638255,-0.02679144620585987,-0.022452577555146878,-0.32744473941627966
10674,2.0,299.55213,32618.315,0.0,0.0,-0.10673999116978261,0.0,0.0,0.0,-2.8321911845905072,-2.798829621072977,-4.284132373685946,-0.016156150241237885,-0.036051705042776265,-0.3405604918907037
10675,2.0,299.07445,32558.342999999997,0.0,0.0,-0.10674999559015674,0.0,0.0,0.0,-2.8107041016448977,-2.807364226665277,-4.278854860540096,0.005641424553715255,-0.006913113616271193,-0.3397675932899507
10676,2.0,299.59758,32337.355,0.0,0.0,-0.10676000001053099,0.0,0.0,0.0,-2.826557716684527,-2.7583425788772176,-4.244848262008906,0.01895059066552768,0.008999010131833152,-0.3383503603750807
10677,2.0,299.81962999999996,32446.123,0.0,0.0,-0.10677000443090512,0.0,0.0,0.0,-2.831719010043907,-2.7927662311495673,-4.238325971115206,0.014915949344089588,-0.004738329938336756,-0.3488076992246397
10678,2.0,300.09292999999997,32715.453999999998,0.0,0.0,-0.10678000885127925,0.0,0.0,0.0,-2.897224109133757,-2.795286893423337,-4.252170209881526,0.009736574536675091,-0.01777475952073218,-0.33371231949984165
10679,2.0,299.90787,32732.052000000003,0.0,0.0,-0.10679001327165338,0.0,0.0,0.0,-2.8625670040383677,-2.7957195512160373,-4.291439933407146,0.010276056247667791,0.006871269730866524,-0.3305999596976757
10680,2.0,300.48194,32573.017000000003,0.0,0.0,-0.1067999847827501,0.0,0.0,0.0,-2.8242113334279577,-2.810572176481877,-4.266600309855666,0.018426637012317483,-0.005422013553211074,-0.35578291291303965
10681,2.0,299.99967999999996,32523.735,0.0,0.0,-0.10680998920312423,0.0,0.0,0.0,-2.812451856742387,-2.778893621380447,-4.295057844214205,-0.005516924690078074,-0.009208567275114831,-0.34207258527993567
10682,2.0,299.68645,32651.263,0.0,0.0,-0.10681999362349837,0.0,0.0,0.0,-2.869673534939727,-2.7927147580444873,-4.2627803569786655,-0.016726258449753183,-0.013135495652622486,-0.34107021748600963
10683,2.0,299.53831,32609.642999999996,0.0,0.0,-0.10682999804387261,0.0,0.0,0.0,-2.8553722190532973,-2.788630346891387,-4.268514744594605,0.0005678662204165325,0.013663628962495185,-0.3343750559927487
10684,2.0,298.85402,32391.645,0.0,0.0,-0.10684000246424674,0.0,0.0,0.0,-2.8376758060567973,-2.768982008902247,-4.239593648315316,-0.00843222416774573,0.009118663518917021,-0.34887623546140367
10685,2.0,299.91814,32495.31,0.0,0.0,-0.10685000688462087,0.0,0.0,0.0,-2.817472409662877,-2.796744960317237,-4.263545360804166,0.003986115760898996,-0.015008933279266383,-0.3361403301844677
10686,2.0,300.1284,32681.03,0.0,0.0,-0.106860011304995,0.0,0.0,0.0,-2.8274492754475173,-2.803335138967637,-4.303432660265736,0.0008065036213032102,-0.027460766797916678,-0.33951246704727167
10687,2.0,300.23068,32807.888999999996,0.0,0.0,-0.10687001572536925,0.0,0.0,0.0,-2.8650091394293873,-2.811272332300977,-4.296497672606305,0.0019414059367268484,0.013197964547787688,-0.32764190775323865
10688,2.0,300.73976,32978.872,0.0,0.0,-0.10687998723646575,0.0,0.0,0.0,-2.903835667361267,-2.833169984187107,-4.287747954017775,-0.0033607566456308564,-0.005337753397420245,-0.33049313273963266
10689,2.0,300.25244,32650.743,0.0,0.0,-0.1068899916568401,0.0,0.0,0.0,-2.8715210951720676,-2.780074868347027,-4.273414619428186,-0.0008353151143191832,0.0012088740411565788,-0.3318353344845977
10690,2.0,299.53702999999996,32389.324,0.0,0.0,-0.10689999607721423,0.0,0.0,0.0,-2.841294932763977,-2.7782666222185677,-4.225984280922176,0.0018780292707970582,-0.005178105711664245,-0.3395863937745677
10691,2.0,300.09626000000003,32605.262000000002,0.0,0.0,-0.10691000049758836,0.0,0.0,0.0,-2.8268492287382974,-2.7855186558342875,-4.298817508710256,0.017945346254567784,0.013897133461290288,-0.33834143364169966
10692,2.0,299.65915,32751.98,0.0,0.0,-0.10692000491796227,0.0,0.0,0.0,-2.8487716039268673,-2.8021266355733676,-4.304885964884166,0.008087148268639393,-0.009177124199336643,-0.3326101972335707
10693,2.0,299.88176,32552.997000000003,0.0,0.0,-0.10693000933833652,0.0,0.0,0.0,-2.817678606058227,-2.7967686703695773,-4.2808509632370955,0.00918094992773921,-0.0036975401059187968,-0.3370174501335327
10694,2.0,300.45436,32466.597,0.0,0.0,-0.10694001375871087,0.0,0.0,0.0,-2.840872002172237,-2.773596653832677,-4.254566141067986,-0.00969271945114693,0.0014096422530708586,-0.3300062458015807
10695,2.0,299.45364,32714.54,0.0,0.0,-0.10694998526980737,0.0,0.0,0.0,-2.8565847754479674,-2.813100336806387,-4.274718165681836,-0.007742534816878693,0.02904075098359897,-0.3355388345276047
10696,2.0,299.54438,32953.982,0.0,0.0,-0.1069599896901815,0.0,0.0,0.0,-2.8999983879075573,-2.818552331619457,-4.298636947542437,-0.016351462304013686,0.014356960542171686,-0.34074141782855966
10697,2.0,299.003,32941.486000000004,0.0,0.0,-0.10696999411055563,0.0,0.0,0.0,-2.842305751063737,-2.8378727818762375,-4.333210662154595,-0.01024725461357529,0.005134104211496636,-0.3291198140840967
10698,2.0,299.01632,32564.397999999997,0.0,0.0,-0.10697999853092999,0.0,0.0,0.0,-2.816382659180327,-2.8091972974211874,-4.273183902380416,0.02120065335434158,-0.002530756575241228,-0.3427795602722086
10699,2.0,298.85897,32442.798,0.0,0.0,-0.1069900029513039,0.0,0.0,0.0,-2.8314267887150675,-2.768203832825447,-4.262169873793416,0.026924823356273178,0.005881016152486105,-0.32518869753862567
10700,2.0,300.00912,32704.667,0.0,0.0,-0.10700000737167814,0.0,0.0,0.0,-2.8847697455296073,-2.802863065746047,-4.253769422514355,0.022526794071971477,-0.002160030756478438,-0.35067532180895966
10701,2.0,299.74107999999995,32798.477,0.0,0.0,-0.10701001179205227,0.0,0.0,0.0,-2.894160750106427,-2.790580448033847,-4.285176933214037,0.002616722942875448,-0.0020166565766035083,-0.32252826754606173
10702,2.0,299.9337,32645.181,0.0,0.0,-0.1070200162124264,0.0,0.0,0.0,-2.851337862455137,-2.796907992258327,-4.275073917791946,-0.01033526146426089,-0.0027288885130453276,-0.36102196308509366
10703,2.0,299.81436,32558.312,0.0,0.0,-0.10702998772352312,0.0,0.0,0.0,-2.8058103063119177,-2.8067484745795075,-4.284355187382936,-0.01918934481309088,0.014430509327180385,-0.3403062471756117
10704,2.0,299.98255,32753.735,0.0,0.0,-0.10703999214389726,0.0,0.0,0.0,-2.8688247353309575,-2.7900669328831675,-4.297425911022916,-0.018037424344155183,-0.005855721984939765,-0.3484569931000277
10705,2.0,299.77775,32883.407,0.0,0.0,-0.10704999656427139,0.0,0.0,0.0,-2.8738533942522473,-2.812797982976547,-4.309083454748426,-0.010453001125880889,0.0009937724237252022,-0.3216082972502677
10706,2.0,299.77862000000005,32726.428,0.0,0.0,-0.10706000098464552,0.0,0.0,0.0,-2.8817323257048373,-2.807736596077027,-4.258547909985956,-0.001163555315858969,0.0001935460894415118,-0.3408131964656437
10707,2.0,300.3813,32577.189,0.0,0.0,-0.10707000540501976,0.0,0.0,0.0,-2.848459522896068,-2.7711121645874774,-4.283080316107116,-0.0027506516053181773,0.02297648763860278,-0.32095318039811266
10708,2.0,300.37248999999997,32636.757,0.0,0.0,-0.1070800098253939,0.0,0.0,0.0,-2.865420012344937,-2.8026706495520575,-4.252668526280705,0.005573882517949375,0.006774498672115963,-0.3408021824370567
10709,2.0,300.57141,32826.284,0.0,0.0,-0.10709001424576803,0.0,0.0,0.0,-2.8468641606136176,-2.809144000465927,-4.322362502608966,0.004740683211694005,0.0021085353598962377,-0.33039686384763167
10710,2.0,300.3523,32948.349,0.0,0.0,-0.10709998575686452,0.0,0.0,0.0,-2.8926134158787176,-2.8171641789824573,-4.305697882189296,0.01204361329186209,-0.006186031689013795,-0.3309945800816217
10711,2.0,300.5514,32799.492999999995,0.0,0.0,-0.10710999017723888,0.0,0.0,0.0,-2.864718539300707,-2.819219252835277,-4.286288975198786,0.005896703999809374,-0.01024230488683679,-0.34196547461186466
10712,2.0,299.84915,32688.664,0.0,0.0,-0.10711999459761301,0.0,0.0,0.0,-2.887887212112277,-2.7761076902304973,-4.272542515067116,0.0012182391065308387,-0.006378428225951854,-0.3415011426210387
10713,2.0,299.92555,32758.09,0.0,0.0,-0.10712999901798714,0.0,0.0,0.0,-2.858648968551687,-2.8094978274008473,-4.2894944932151455,-0.002123999278947408,-0.0017955280158548183,-0.35563325587326966
10714,2.0,299.24065,32803.212,0.0,0.0,-0.10714000343836139,0.0,0.0,0.0,-2.8477624068272673,-2.820332510720147,-4.303262434248936,0.013208868132113787,0.006838959009027703,-0.3496518378829497
10715,2.0,299.87314,32732.894,0.0,0.0,-0.10715000785873552,0.0,0.0,0.0,-2.8169767277139575,-2.815376501831027,-4.317629104766816,0.00875960750420595,-6.282625935621903e-05,-0.3425600497705447
10716,2.0,299.37796000000003,32581.875,0.0,0.0,-0.10716001227910965,0.0,0.0,0.0,-2.8377711528912073,-2.7959488497136675,-4.270356427976366,0.00027785949152509676,0.002015018252516818,-0.33643582431113067
10717,2.0,299.66234,32718.882999999998,0.0,0.0,-0.10716998379020615,0.0,0.0,0.0,-2.866452108896797,-2.7947367999440473,-4.284534633975646,-0.006741409875525353,-0.006231929993368603,-0.31828002398429267
10718,2.0,300.30601,32936.1,0.0,0.0,-0.10717998821058028,0.0,0.0,0.0,-2.9123671318782574,-2.816218512664127,-4.283166239715595,-0.011733438184500188,-0.012375216612338789,-0.3213860307083317
10719,2.0,300.02759,33034.233,0.0,0.0,-0.10718999263095452,0.0,0.0,0.0,-2.894924842006837,-2.8364797656387575,-4.310177460881396,-0.0036469707186029864,-0.014227957592440088,-0.3286138881766657
10720,2.0,299.50235,32869.358,0.0,0.0,-0.10719999705132888,0.0,0.0,0.0,-2.8640859672632772,-2.8179282708828675,-4.309450048634606,-0.013902908986860286,-0.011195956629204888,-0.33450205676028266
10721,2.0,300.18632,32783.826,0.0,0.0,-0.10721000147170301,0.0,0.0,0.0,-2.8380311528668676,-2.8304951052481173,-4.296938132424775,0.016774681672032183,-0.011101631150895689,-0.35318011658616366
10722,2.0,299.53089,32722.636000000002,0.0,0.0,-0.10722000589207714,0.0,0.0,0.0,-2.862267689958827,-2.793767930198427,-4.290828740946826,0.007461277968695804,0.010938844416329889,-0.3395841443593457
10723,2.0,299.33162000000004,32729.482000000004,0.0,0.0,-0.10723001031245105,0.0,0.0,0.0,-2.8567141674857375,-2.8091038757619673,-4.283127229586746,0.004997527217267535,0.003842989118023496,-0.3626355436043417
10724,2.0,299.97905,32660.235,0.0,0.0,-0.1072400147328253,0.0,0.0,0.0,-2.878704329105997,-2.7864072761719876,-4.262784207329045,-0.002896978193334487,-0.002433312515774248,-0.35044026805076167
10725,2.0,299.42503999999997,32523.641,0.0,0.0,-0.1072499862439219,0.0,0.0,0.0,-2.826268636430997,-2.7791931381100072,-4.280912974143216,-0.013885781007169886,-0.004128009177077786,-0.35636611940559765
10726,2.0,299.87165,32812.447,0.0,0.0,-0.10725999066429615,0.0,0.0,0.0,-2.8492788369269273,-2.8287917305050074,-4.296093892441455,-0.004598986467359626,-0.011161233561527989,-0.33356126417493365
10727,2.0,299.96867000000003,32993.674,0.0,0.0,-0.10726999508467028,0.0,0.0,0.0,-2.852468041616677,-2.831586780905857,-4.345198322762686,-0.010238006679912589,-0.014718918809144187,-0.3262175820876687
10728,2.0,299.97194,33004.186,0.0,0.0,-0.10727999950504441,0.0,0.0,0.0,-2.880705498053497,-2.838680848830987,-4.313062082591086,-0.001008023107504135,0.019249968579823983,-0.3085317271572107
10729,2.0,300.18609,32921.899,0.0,0.0,-0.10729000392541876,0.0,0.0,0.0,-2.8772021858327474,-2.831546656201897,-4.298686394147317,0.005953521999166874,0.020814000155931878,-0.3378826947914257
10730,2.0,300.1911,32863.885,0.0,0.0,-0.10730000834579267,0.0,0.0,0.0,-2.896672597104327,-2.803395933973637,-4.2897321003635955,-0.007646379611538913,0.01935034721423058,-0.3217307687898547
10731,2.0,299.5103,32794.557,0.0,0.0,-0.10731001276616692,0.0,0.0,0.0,-2.8433000533868675,-2.8208764233738273,-4.304549971151006,-0.0009356256583190631,-0.0032260133301077265,-0.3531154104347777
10732,2.0,300.278,32816.07,0.0,0.0,-0.10731998427726352,0.0,0.0,0.0,-2.8567373709130273,-2.806785660858177,-4.3117428309608865,-0.012892652027655686,-0.005295004578351265,-0.34401372929151164
10733,2.0,300.20142999999996,32733.106,0.0,0.0,-0.10732998869763777,0.0,0.0,0.0,-2.8483067247809872,-2.7968645238290373,-4.304875528408137,0.0012444296964406487,0.0009478828535862541,-0.34671531750313767
10734,2.0,300.31203,32644.666,0.0,0.0,-0.1073399931180119,0.0,0.0,0.0,-2.878570377442777,-2.768546716659287,-4.276046232587905,-0.013399335846161488,-0.008444117190794482,-0.33704185932844166
10735,2.0,299.70731,32818.157999999996,0.0,0.0,-0.10734999753838603,0.0,0.0,0.0,-2.8677587962257576,-2.8051244373192272,-4.303017329049745,0.0006349786482725135,-0.0010026712521984482,-0.3350434464212137
10736,2.0,299.89013,33044.206,0.0,0.0,-0.10736000195876017,0.0,0.0,0.0,-2.9201078560172076,-2.8187210377611076,-4.3057846163978555,0.0026793699674082273,0.022593244026779577,-0.3213036534752017
10737,2.0,299.33745,33101.998,0.0,0.0,-0.1073700063791343,0.0,0.0,0.0,-2.8656558969682173,-2.857401151053537,-4.339123787088176,0.003847402734134087,0.002908710920217417,-0.3340240661581087
10738,2.0,299.80957,32941.489,0.0,0.0,-0.10738001079950854,0.0,0.0,0.0,-2.8716233321071574,-2.8177174135370575,-4.324049361375446,-0.007296403432298953,-0.004936063567526545,-0.3310376128133687
10739,2.0,300.08168,32874.261,0.0,0.0,-0.10739001521988267,0.0,0.0,0.0,-2.8400680895428976,-2.8327044970911675,-4.320181988393766,-0.005140850937287485,-0.022112347423318777,-0.3419244278503137
10740,2.0,300.30406,32801.632000000005,0.0,0.0,-0.10739998673097939,0.0,0.0,0.0,-2.868902552938637,-2.8079709608251573,-4.294003557485156,0.007818343048285383,0.013331118783178988,-0.3349565500926377
10741,2.0,300.03956,32726.404,0.0,0.0,-0.1074099911513533,0.0,0.0,0.0,-2.865218983525097,-2.8048125589384476,-4.277978095228566,-0.0021694389863069576,0.013500837161678885,-0.35352489519769065
10742,2.0,300.72039,32732.025,0.0,0.0,-0.10741999557172766,0.0,0.0,0.0,-2.870937665764487,-2.7844362007524572,-4.294344414818796,0.007849308275316413,0.018015169318958784,-0.3409301761896887
10743,2.0,299.91061,32776.911,0.0,0.0,-0.10742999999210179,0.0,0.0,0.0,-2.8256812553480275,-2.8205258388392274,-4.317155511670076,-0.0039834165639576055,-0.01150085169029569,-0.36917856559508766
10744,2.0,300.49523999999997,32866.534,0.0,0.0,-0.10744000441247592,0.0,0.0,0.0,-2.8642297474524674,-2.8106714749916772,-4.315704537526876,0.014201755958104184,0.002843774457083687,-0.34187121195506165
10745,2.0,299.835,33005.392,0.0,0.0,-0.10745000883285016,0.0,0.0,0.0,-2.8673871360890772,-2.8406635766266675,-4.324764411971016,-0.0005404752027157496,-0.011720540523977288,-0.3519500917597697
10746,2.0,299.13835,33062.583,0.0,0.0,-0.10746001325322407,0.0,0.0,0.0,-2.9076197511847273,-2.8253754564678473,-4.317204451649905,-0.005485583344609925,-0.010524276177665189,-0.3126387743175447
10747,2.0,299.43525,32984.317,0.0,0.0,-0.10746998476432101,0.0,0.0,0.0,-2.9045489954316674,-2.8100388016292372,-4.311820952543596,-0.0018123649901164982,0.006921566047280384,-0.3285005662854817
10748,2.0,299.81816000000003,32980.295,0.0,0.0,-0.10747998918469492,0.0,0.0,0.0,-2.887865021935087,-2.8279265162446174,-4.309394522529126,-0.01222059971332929,0.015874971311987684,-0.3196842062378747
10749,2.0,299.59693,32881.349,0.0,0.0,-0.10748999360506906,0.0,0.0,0.0,-2.8526961242141873,-2.814777671021927,-4.327635354804356,0.007245873764387063,-0.012363602739692588,-0.3490107849421827
10750,2.0,300.13232,32913.622,0.0,0.0,-0.1074999980254433,0.0,0.0,0.0,-2.8804869400069273,-2.8107129169207674,-4.313719276605946,-0.01064630188720819,-0.02155689081124948,-0.32395015127889065
10751,2.0,299.84156,32866.4,0.0,0.0,-0.10751000244581765,0.0,0.0,0.0,-2.8638633562163074,-2.8151588557095475,-4.311542612741126,0.01089506593250929,-0.019099071321931584,-0.35866697733517466
10752,2.0,300.16303,32928.027,0.0,0.0,-0.10752000686619179,0.0,0.0,0.0,-2.905543095104777,-2.8066399554937975,-4.2971150458922365,0.018035854819750285,0.004176382446126856,-0.3300569184390817
10753,2.0,299.75005,32962.761,0.0,0.0,-0.10753001128656592,0.0,0.0,0.0,-2.8807031675782673,-2.8347484251928874,-4.304404772411676,0.012910403156157588,0.01160355978668219,-0.35987181276408264
10754,2.0,299.86043,32961.127,0.0,0.0,-0.10754001570693983,0.0,0.0,0.0,-2.869006005773847,-2.8318561027824374,-4.318497460102516,-0.006907578534949924,0.0068606606983444935,-0.3377699099227947
10755,2.0,300.19651,32952.172999999995,0.0,0.0,-0.10754998721803655,0.0,0.0,0.0,-2.8563246741472974,-2.8370487055699076,-4.323264396522975,-0.02077784333936348,-0.0027397840926956375,-0.3590896343493876
10756,2.0,300.10031000000004,33019.663,0.0,0.0,-0.10755999163841068,0.0,0.0,0.0,-2.890548817474957,-2.824688472900047,-4.321915760639875,-0.005295672512817185,0.002959120011367407,-0.33171317705254166
10757,2.0,299.81478,32955.941,0.0,0.0,-0.10756999605878492,0.0,0.0,0.0,-2.8669125297422373,-2.840171339728087,-4.310699284682896,0.0025192752357081076,-0.017604087673888182,-0.3410984365012947
10758,2.0,299.55244,32879.354,0.0,0.0,-0.10758000047915905,0.0,0.0,0.0,-2.8890809220550873,-2.8134157615625175,-4.292006036238016,0.0028506362880858973,-0.0038559963108822067,-0.3195535881674837
10759,2.0,299.79456,33049.352,0.0,0.0,-0.10759000489953319,0.0,0.0,0.0,-2.888252083473287,-2.8347936161473473,-4.323131964734905,0.004499005330967256,-0.005021155095024425,-0.3265224082477527
10760,2.0,299.19577999999996,33041.006,0.0,0.0,-0.10760000931990754,0.0,0.0,0.0,-2.869335312056347,-2.833788269398127,-4.340517005975676,-0.0008312756002780143,0.016515827682235286,-0.3338767395935687
10761,2.0,299.26167000000004,32979.443,0.0,0.0,-0.10761001374028145,0.0,0.0,0.0,-2.856416373281347,-2.8392117918833875,-4.3292989088185365,-0.017282546940154582,-0.0003858848001963646,-0.3556785177552367
10762,2.0,299.71495,33022.934,0.0,0.0,-0.10761998525137817,0.0,0.0,0.0,-2.873429855710447,-2.830719844120297,-4.3339978561572865,-0.01084650085521629,-0.026183681570628177,-0.34157268821059966
10763,2.0,300.31557999999995,33042.757000000005,0.0,0.0,-0.1076299896717523,0.0,0.0,0.0,-2.896386353951077,-2.8297555340001272,-4.3180312637315055,-0.001176437878955379,-0.008786047961590422,-0.3484272643420937
10764,2.0,299.58418,33007.782999999996,0.0,0.0,-0.10763999409212655,0.0,0.0,0.0,-2.927195236491677,-2.803201187304418,-4.303145606512405,0.0036673119170105065,0.0023376380976069177,-0.3336471168559067
10765,2.0,300.35318,33077.247,0.0,0.0,-0.10764999851250068,0.0,0.0,0.0,-2.8977764317632673,-2.8275686363092976,-4.329312081069836,0.016451366737373484,0.012793576432877686,-0.32969461060082467
10766,2.0,300.19361000000004,33106.277,0.0,0.0,-0.10766000293287481,0.0,0.0,0.0,-2.889016479348727,-2.8438920954202973,-4.330572969494276,-0.0030273905739551872,0.015844840293763984,-0.32992624970618567
10767,2.0,299.8754,33027.061,0.0,0.0,-0.10767000735324894,0.0,0.0,0.0,-2.8633818597687872,-2.8254591509261076,-4.350560948916936,0.0027414908111640774,0.025524190517791475,-0.33963671177453364
10768,2.0,299.97244,33074.015,0.0,0.0,-0.10768001177362307,0.0,0.0,0.0,-2.8921311088311175,-2.8418901158727174,-4.319653679791626,-0.009990477786483392,0.027077245555566072,-0.3407115066856077
10769,2.0,299.75009,32994.532,0.0,0.0,-0.10769001619399732,0.0,0.0,0.0,-2.8688820852866175,-2.832469220417947,-4.328162447506376,-0.017893843765234882,-0.0005867228351750354,-0.3615147066087237
10770,2.0,300.09881,32914.402,0.0,0.0,-0.10769998770509392,0.0,0.0,0.0,-2.8956545847288573,-2.8178892607540176,-4.291612591224186,-0.012500055104159387,-0.012776620705704289,-0.3434203092379457
10771,2.0,300.42962,32977.992999999995,0.0,0.0,-0.10770999212546795,0.0,0.0,0.0,-2.851720769667927,-2.8409416124541074,-4.331823826742726,-0.006190989927053135,0.007059208980614682,-0.35436235653784165
10772,2.0,299.93472,32983.572,0.0,0.0,-0.10771999654584208,0.0,0.0,0.0,-2.884197563198137,-2.8207860414649075,-4.321198582219096,0.008974921022630741,-0.0018121016464155081,-0.34484147356320366
10773,2.0,299.86779,33021.789,0.0,0.0,-0.10773000096621643,0.0,0.0,0.0,-2.8653725922402575,-2.836291503770177,-4.336135205918225,0.007457393978412483,-0.002422114480969088,-0.36351204547084565
10774,2.0,300.29902000000004,33083.867999999995,0.0,0.0,-0.10774000538659056,0.0,0.0,0.0,-2.903890686841697,-2.829403125615347,-4.323375854033976,0.0039342117205514665,0.00044503469333400454,-0.3472015863586287
10775,2.0,299.35176,33163.198,0.0,0.0,-0.10775000980696481,0.0,0.0,0.0,-2.929220926091597,-2.827153102443287,-4.324409977086036,0.01959970502409028,0.008484652058394963,-0.33887572041942965
10776,2.0,299.92691,33246.485,0.0,0.0,-0.10776001422733894,0.0,0.0,0.0,-2.954044844266527,-2.828389166240277,-4.323667163437726,0.0024395267786375477,0.004142923914574756,-0.3280284930638917
10777,2.0,299.95597000000004,33195.46,0.0,0.0,-0.10776998573843555,0.0,0.0,0.0,-2.914797817543147,-2.8374376922832973,-4.338355540862356,-0.002663748893266547,-0.0023442781281622378,-0.3209815919309167
10778,2.0,300.22385,33082.204,0.0,0.0,-0.10777999015880979,0.0,0.0,0.0,-2.890934359138007,-2.827808067307927,-4.337421729570195,-0.016016022818658382,-0.010413581643990491,-0.3432620091748227
10779,2.0,301.05454,33112.86,0.0,0.0,-0.1077899945791837,0.0,0.0,0.0,-2.8701942441661172,-2.8331299608081575,-4.362158305586505,-0.011222008302525989,0.014014881228911088,-0.3272229187043877
10780,2.0,300.78161,33070.543,0.0,0.0,-0.10779999899955783,0.0,0.0,0.0,-2.8748892398294768,-2.839286164440727,-4.338443896271076,0.007880339160953924,0.009632248381203901,-0.36513309364333063
10781,2.0,300.27561000000003,33138.551,0.0,0.0,-0.10781000341993208,0.0,0.0,0.0,-2.926687091566527,-2.8204704140587573,-4.3261346300812455,-0.005231361731620206,-0.009021538835881561,-0.3375392739350327
10782,2.0,300.60285,33134.335,0.0,0.0,-0.10782000784030643,0.0,0.0,0.0,-2.9072753474757373,-2.8333508493299573,-4.331384380174355,0.008511811112750352,-0.00945843789085014,-0.3470914866027627
10783,2.0,300.07268,33027.615,0.0,0.0,-0.10783001226068056,0.0,0.0,0.0,-2.878552848216047,-2.8275641780088576,-4.333453132903525,-0.005218511085901946,-0.012135814997961689,-0.3184935461778657
10784,2.0,300.10629,33164.582,0.0,0.0,-0.10783998377177706,0.0,0.0,0.0,-2.8990211081861075,-2.8349396254867574,-4.347243973389576,0.0028778979846764167,-0.01194585188246379,-0.32758668562278864
10785,2.0,299.97502000000003,33307.837,0.0,0.0,-0.10784998819215119,0.0,0.0,0.0,-2.8953887079026175,-2.858501236687107,-4.3708607053953665,-0.00962396881066177,-0.017582825633789784,-0.3335037115692537
10786,2.0,299.78888,33192.651,0.0,0.0,-0.10785999261252532,0.0,0.0,0.0,-2.906471738821427,-2.8523123050763073,-4.330953039606786,0.013447668889181589,-0.001216981764481749,-0.34947510680050764
10787,2.0,300.12116000000003,33092.122,0.0,0.0,-0.10786999703289946,0.0,0.0,0.0,-2.907994248421687,-2.833492906993977,-4.317691723622996,0.018103154891392283,0.013811898862878286,-0.35349118436686366
10788,2.0,300.31365,33177.855,0.0,0.0,-0.1078800014532737,0.0,0.0,0.0,-2.9192861101861074,-2.845550684508987,-4.320402775590556,0.015012000387319088,0.004926226226280675,-0.35354634570230764
10789,2.0,300.0396,33117.119,0.0,0.0,-0.10789000587364783,0.0,0.0,0.0,-2.8798143445905473,-2.8527891405733676,-4.334173756374645,0.005454110276628775,-0.004811789152036615,-0.35891439274459264
10790,2.0,300.42748,33057.906,0.0,0.0,-0.10790001029402196,0.0,0.0,0.0,-2.8813555993176574,-2.8355703736740074,-4.331851995095506,-0.008038581671471243,-0.008607783426447082,-0.33673929271608066
10791,2.0,300.69901,33000.387,0.0,0.0,-0.10791001471439632,0.0,0.0,0.0,-2.8330542710256874,-2.8424830698312373,-4.355756388804687,-0.014195597423996386,0.019613086004910883,-0.35501722007747166
10792,2.0,300.59929,33113.332,0.0,0.0,-0.10791998622549281,0.0,0.0,0.0,-2.9016934539998473,-2.8382742315658573,-4.325658402534247,-0.026046709408860075,0.0043607778536502665,-0.3267965937248127
10793,2.0,301.09609,33296.795,0.0,0.0,-0.10792999064586695,0.0,0.0,0.0,-2.9319127263072575,-2.8359000852565472,-4.353581447465036,-0.023158838206099375,0.016953690540698983,-0.3322756828455567
10794,2.0,300.27076,33352.312000000005,0.0,0.0,-0.10793999506624108,0.0,0.0,0.0,-2.941410122144577,-2.8518956566351874,-4.344964363314595,-0.005003697505076495,-0.007737929797824211,-0.32063936670964166
10795,2.0,299.99844,33223.766,0.0,0.0,-0.10794999948661532,0.0,0.0,0.0,-2.908468854768527,-2.823686875176197,-4.367039333968226,0.015643133609607087,-0.009916590677266302,-0.3193042881128797
10796,2.0,300.4082,33169.02,0.0,0.0,-0.10796000390698945,0.0,0.0,0.0,-2.899958567178627,-2.8398174114681574,-4.342777870923805,0.0065820324235710236,-0.025306594045566375,-0.3354703185558427
10797,2.0,300.72915,33263.835,0.0,0.0,-0.10797000832736359,0.0,0.0,0.0,-2.897472558058277,-2.8527171998162673,-4.361185484165496,0.012929433006285686,-0.016898137077466284,-0.34436673549385066
10798,2.0,300.55481000000003,33194.056000000004,0.0,0.0,-0.10798001274773772,0.0,0.0,0.0,-2.9238329686848474,-2.845862157589727,-4.320469042147096,0.004301887251213216,0.004238678886125036,-0.36659937799554165
10799,2.0,300.09792000000004,33058.951,0.0,0.0,-0.10798998425883444,0.0,0.0,0.0,-2.8994835555317473,-2.8313192828794573,-4.318292682257306,-0.008866868538591791,0.01127428390168519,-0.36062356327827466
10800,2.0,299.58425,33099.379,0.0,0.0,-0.10799998867920857,0.0,0.0,0.0,-2.8856573526172076,-2.854881096729827,-4.320846173834316,-0.0012577585962061089,-0.0098310916205782,-0.37971559656501164
10801,2.0,299.92928,33148.687999999995,0.0,0.0,-0.1080099930995827,0.0,0.0,0.0,-2.8809097692736576,-2.8451945270988372,-4.350269132888137,-0.016507408587154382,-0.006807888707961304,-0.3286527665830027
10802,2.0,300.09086,33108.177,0.0,0.0,-0.10801999751995672,0.0,0.0,0.0,-2.8629479860759672,-2.852046630900087,-4.349064479844246,0.013691709162516488,-0.014019119654079384,-0.3604035664165627
10803,2.0,300.38993999999997,33169.546,0.0,0.0,-0.10803000194033086,0.0,0.0,0.0,-2.873403713857867,-2.8550608472975676,-4.354248976630917,-0.004958474227938305,-0.009010438377061033,-0.3207011749657417
10804,2.0,300.08492,33130.921,0.0,0.0,-0.10804000636070521,0.0,0.0,0.0,-2.9106345755322676,-2.8437357509298673,-4.316602277115475,-0.007706805085227442,0.0007206573238058403,-0.34693892153520567
10805,2.0,299.73839,33172.21,0.0,0.0,-0.10805001078107934,0.0,0.0,0.0,-2.896349066347397,-2.850642266261487,-4.336532197307405,0.002273707082547418,0.008595657153225312,-0.3346619881560667
10806,2.0,299.78899,33234.06,0.0,0.0,-0.10806001520145359,0.0,0.0,0.0,-2.9226719867202675,-2.8424574346037073,-4.337195065522826,-0.0024051138668162576,0.012178961213719888,-0.3515385298341517
10807,2.0,300.32952,33255.761,0.0,0.0,-0.10806998671255008,0.0,0.0,0.0,-2.8967138363833973,-2.847065392083477,-4.365141516530926,0.00032253734626695767,-0.014974944817911987,-0.3358831875740897
10808,2.0,300.12928999999997,33146.046,0.0,0.0,-0.10807999113292432,0.0,0.0,0.0,-2.885751787526527,-2.853422117910837,-4.336396320468996,0.007160241262660794,-0.03203208515407067,-0.36256485927736565
10809,2.0,299.87019,33216.641,0.0,0.0,-0.10808999555329857,0.0,0.0,0.0,-2.9013346621394374,-2.8405402640894972,-4.355154619570296,0.004886365980596776,0.0024194202489531877,-0.3409031021470167
10810,2.0,299.77047000000005,33337.848,0.0,0.0,-0.10809999997367248,0.0,0.0,0.0,-2.950645491506037,-2.8422244884057175,-4.341003467348687,0.019200291967171282,-4.466598249043926e-05,-0.33839698001218166
10811,2.0,300.25314,33291.235,0.0,0.0,-0.10811000439404661,0.0,0.0,0.0,-2.9059118168161673,-2.8493803645869473,-4.3644120777839355,-0.0024327625236199675,0.01170820724376009,-0.3295169371957897
10812,2.0,300.408,33250.773,0.0,0.0,-0.10812000881442085,0.0,0.0,0.0,-2.9180960479436573,-2.839841729470557,-4.349467044108976,-0.001091585275831079,0.0015222350094828984,-0.3267331845335547
10813,2.0,300.67335,33281.657999999996,0.0,0.0,-0.10813001323479521,0.0,0.0,0.0,-2.886695224694637,-2.8492746826015174,-4.380823183028586,-0.0052876364262740855,0.0038728472679952666,-0.32159357472631467
10814,2.0,300.55925,33331.925,0.0,0.0,-0.1081399847458917,0.0,0.0,0.0,-2.9040878653111575,-2.8561938635593873,-4.371791071637186,-0.019529849535696083,-0.0005177594932288836,-0.34286979019361363
10815,2.0,300.70054,33327.968,0.0,0.0,-0.10814998916626584,0.0,0.0,0.0,-2.919370919219477,-2.856895437928627,-4.354603715490926,-0.02024535913356138,-0.010469906190549291,-0.32840717502376465
10816,2.0,300.75924,33346.805,0.0,0.0,-0.10815999358663997,0.0,0.0,0.0,-2.934135898351667,-2.8654465594975576,-4.337013491104905,-0.008728324521943562,0.0027017270268896976,-0.35711337108934565
10817,2.0,300.61999,33350.877,0.0,0.0,-0.1081699980070141,0.0,0.0,0.0,-2.9116634296838075,-2.8752173302118575,-4.350953178030646,0.012683403723004487,0.03400118878890607,-0.3399625932716957
10818,2.0,300.29259,33215.587999999996,0.0,0.0,-0.10818000242738823,0.0,0.0,0.0,-2.905884560388477,-2.845817169285287,-4.345007527768856,0.014839748883569186,0.02624254734843777,-0.3672188183116757
10819,2.0,299.76092,33286.581,0.0,0.0,-0.10819000684776248,0.0,0.0,0.0,-2.873756527542687,-2.8638807841180274,-4.380652045086696,0.006124989956614444,-0.016110137540946787,-0.3451314657418237
10820,2.0,300.28598,33333.344,0.0,0.0,-0.10820001126813661,0.0,0.0,0.0,-2.900251092482497,-2.851701923216068,-4.380551226701746,0.014092441471065687,-0.025215313383807676,-0.36361750454125363
10821,2.0,299.92145,33226.212,0.0,0.0,-0.10821001568851074,0.0,0.0,0.0,-2.910614006555237,-2.8420318695617075,-4.347292913369405,0.007090885509215914,-0.007547200563925702,-0.3458502248327597
10822,2.0,299.44841,33153.704,0.0,0.0,-0.10821998719960746,0.0,0.0,0.0,-2.893979378338527,-2.846242329027247,-4.337676460645336,0.013018768227852388,-0.0016133915481043486,-0.35246432631802066
10823,2.0,299.36217999999997,33276.59,0.0,0.0,-0.10822999161998159,0.0,0.0,0.0,-2.8998980761476574,-2.8472945892560975,-4.368059676818925,-0.009838382562997761,-0.024863133993550272,-0.3246749797379257
10824,2.0,299.63378,33325.115,0.0,0.0,-0.10823999604035572,0.0,0.0,0.0,-2.9162649023629372,-2.8496473559882975,-4.364090573527205,-0.0099533777353969,-0.004694140480275596,-0.3327941223917227
10825,2.0,299.71501,33308.138999999996,0.0,0.0,-0.10825000046072986,0.0,0.0,0.0,-2.886523276152668,-2.8636917116493676,-4.374627766617145,0.002745230008008107,0.02030386115458508,-0.3418671285571587
10826,2.0,300.18815,33352.039,0.0,0.0,-0.1082600048811041,0.0,0.0,0.0,-2.927775930123987,-2.8591979474558675,-4.351213178006305,0.002060737819553988,0.01058601046650789,-0.3466481086240047
10827,2.0,299.99298,33444.068,0.0,0.0,-0.10827000930147823,0.0,0.0,0.0,-2.9493695056551075,-2.8556315097538874,-4.361160558213037,-0.01145938746970349,-0.01002520358993556,-0.3500812836728327
10828,2.0,300.42499,33492.411,0.0,0.0,-0.10828001372185236,0.0,0.0,0.0,-2.9555007833352174,-2.8705936673555374,-4.354762086481555,0.003766583575682856,0.007456296223254142,-0.3452832202093007
10829,2.0,300.43906,33291.976,0.0,0.0,-0.10828998523294886,0.0,0.0,0.0,-2.9112179036148373,-2.8555170124925873,-4.353194487251845,0.004312785262663766,0.01314221654053579,-0.35296719221014966
10830,2.0,300.56537000000003,33195.325,0.0,0.0,-0.10829998965332321,0.0,0.0,0.0,-2.885247391626747,-2.8441268654684673,-4.361175655639526,0.0036312467995761565,-0.009357629435751122,-0.34314971066623967
10831,2.0,300.43227,33232.757000000005,0.0,0.0,-0.10830999407369735,0.0,0.0,0.0,-2.8736259196047973,-2.8538990547329073,-4.3744033317199955,-0.017431665944121485,-0.027340515289298775,-0.3542727649639997
10832,2.0,299.99065,33419.375,0.0,0.0,-0.10831999849407148,0.0,0.0,0.0,-2.9267173877445174,-2.8653654994895574,-4.366572630972167,-0.008616100791217942,-0.012688021103710187,-0.3311325644802397
10833,2.0,300.04154,33409.064,0.0,0.0,-0.1083300029144455,0.0,0.0,0.0,-2.9299585721643973,-2.8600518133151374,-4.365510846192375,0.017296576401039182,-0.006298796191317784,-0.3467978973862877
10834,2.0,299.96903,33362.043,0.0,0.0,-0.10834000733481963,0.0,0.0,0.0,-2.9064690030461575,-2.874279769894327,-4.3604791475207865,-0.0024838409677860173,0.006239424092433214,-0.3447576473824307
10835,2.0,299.59765,33419.832,0.0,0.0,-0.10835001175519399,0.0,0.0,0.0,-2.9175280199375973,-2.874652037981068,-4.366614478201296,-0.00014665337130606088,-0.015627779830841786,-0.34348290782912366
10836,2.0,299.93197000000004,33453.789,0.0,0.0,-0.10836001617556812,0.0,0.0,0.0,-2.9229906538767176,-2.8674633324965972,-4.378662629840355,-0.026094863106612475,0.014801043742999285,-0.33722196453371667
10837,2.0,300.20899,33412.443999999996,0.0,0.0,-0.10836998768666462,0.0,0.0,0.0,-2.906798511978677,-2.8839048352442473,-4.365845218725376,-0.016998314075102983,0.017182393247270184,-0.3503427123311337
10838,2.0,300.12896,33322.074,0.0,0.0,-0.10837999210703886,0.0,0.0,0.0,-2.931943529110297,-2.8474447529209175,-4.349689959130975,-0.011661757832675888,0.005285169972880665,-0.34567213599518365
10839,2.0,300.6318,33322.407999999996,0.0,0.0,-0.1083899965274131,0.0,0.0,0.0,-2.9235639507832976,-2.8552481972410573,-4.350367620797855,0.007661254832281982,-0.01697772381982088,-0.3545760307189297
10840,2.0,300.97008,33321.061,0.0,0.0,-0.10840000094778734,0.0,0.0,0.0,-2.9311483304318173,-2.839347060771737,-4.358275227228276,0.013593184775792888,-0.008781566153748102,-0.34935039597819967
10841,2.0,300.93998,33415.888999999996,0.0,0.0,-0.10841000536816126,0.0,0.0,0.0,-2.9292055246900772,-2.844898962044667,-4.383491475841926,0.021446900486394277,-0.018041805637587584,-0.33169823161356665
10842,2.0,299.93974,33506.837999999996,0.0,0.0,-0.10842000978853539,0.0,0.0,0.0,-2.923733467525027,-2.8581567316531076,-4.403351887076996,0.001954018569996618,-0.013923546864897088,-0.33668264190298974
10843,2.0,299.85164,33539.612,0.0,0.0,-0.10843001420890963,0.0,0.0,0.0,-2.923904706791927,-2.8787764725131173,-4.392523485908316,-0.0013447008250116388,-0.014749923248954086,-0.33470522353783366
10844,2.0,299.86425,33516.744,0.0,0.0,-0.10843998572000624,0.0,0.0,0.0,-2.958130471319747,-2.850291580401877,-4.3798312111806865,-0.013508652359700188,0.01947369318865388,-0.3410457778935977
10845,2.0,300.18085,33525.293,0.0,0.0,-0.10844999014038048,0.0,0.0,0.0,-2.930540886996867,-2.8743835267045674,-4.385927633057356,-0.007472902480468053,0.0009423074145135011,-0.35094203963278264
10846,2.0,300.44625,33420.63,0.0,0.0,-0.10845999456075461,0.0,0.0,0.0,-2.930387480931727,-2.8581960457569875,-4.370453277530156,-0.01199179770824829,-0.022817618128923578,-0.33749778134343766
10847,2.0,300.49985,33227.79,0.0,0.0,-0.10846999898112875,0.0,0.0,0.0,-2.8793839159480674,-2.8578097948188677,-4.363224852641766,0.010613254735196689,-0.03030925499579057,-0.3392458302834567
10848,2.0,299.32097999999996,33281.724,0.0,0.0,-0.10848000340150288,0.0,0.0,0.0,-2.9037267429755174,-2.8572838166919574,-4.355802491684236,0.012819936134229187,-0.0024624532846752177,-0.33537898419182866
10849,2.0,299.86534,33410.708,0.0,0.0,-0.10849000782187701,0.0,0.0,0.0,-2.9298751816811675,-2.8597952583898176,-4.3663506278752555,0.0030884602720572967,0.017106278913008283,-0.3496451909622937
10850,2.0,299.91332,33375.99,0.0,0.0,-0.10850001224225125,0.0,0.0,0.0,-2.9370205200613575,-2.8562448300394174,-4.352202211428916,0.0006241849711847604,0.012490214419188187,-0.34983937021145767
10851,2.0,299.81944,33456.294,0.0,0.0,-0.10850998375334775,0.0,0.0,0.0,-2.9220616048600268,-2.8808237443401676,-4.366992623138616,0.0013054635254892187,-0.007215306541995313,-0.3719738085134566
10852,2.0,300.34434,33648.47,0.0,0.0,-0.1085199881737221,0.0,0.0,0.0,-2.9611622169439573,-2.871675210512277,-4.395457250247855,-0.004933263349550186,0.014310887046874585,-0.34690172512403467
10853,2.0,300.23292999999995,33605.58,0.0,0.0,-0.10852999259409624,0.0,0.0,0.0,-2.913498729589937,-2.8892528705970575,-4.412505385830376,-0.0077828566993081525,-0.008303949238210982,-0.3614286918077346
10854,2.0,300.20194,33456.653,0.0,0.0,-0.10853999701447037,0.0,0.0,0.0,-2.9155609975184675,-2.859837510918987,-4.394588489612116,-0.02094442976180428,-0.004474753088498745,-0.34457482666688766
10855,2.0,300.50347999999997,33523.009,0.0,0.0,-0.1085500014348445,0.0,0.0,0.0,-2.9302038800136074,-2.8660190458040575,-4.393934841972606,-0.005136216027355055,0.012624492348940388,-0.34551337996951564
10856,2.0,300.40406,33421.888,0.0,0.0,-0.10856000585521863,0.0,0.0,0.0,-2.9320551892713174,-2.8622822807602675,-4.365082140075066,0.015276718055444683,0.04573303515749916,-0.34741891837257766
10857,2.0,300.14624,33370.81,0.0,0.0,-0.10857001027559288,0.0,0.0,0.0,-2.914504785614227,-2.8620957414168573,-4.367292342518196,0.01153222799289229,0.01801832255326998,-0.3520891400709926
10858,2.0,300.52601,33495.971,0.0,0.0,-0.10858001469596701,0.0,0.0,0.0,-2.935003341762277,-2.863207682076597,-4.383727765765246,-0.007420395252335992,-0.013647991473701887,-0.3378591772566047
10859,2.0,299.97787999999997,33526.987,0.0,0.0,-0.1085899862070635,0.0,0.0,0.0,-2.9083973193114674,-2.881756745032247,-4.401212916115895,0.0013571374567390387,-0.02219782621500488,-0.3326980156197377
10860,2.0,300.93811,33575.886,0.0,0.0,-0.10859999062743764,0.0,0.0,0.0,-2.9174424003041475,-2.889271413073887,-4.399517140748537,0.0013290060875876888,0.006705924134498183,-0.3277879373576507
10861,2.0,300.2147,33646.547999999995,0.0,0.0,-0.10860999504781199,0.0,0.0,0.0,-2.9629506033704573,-2.8778145941931874,-4.386945240132786,0.006925765462319834,0.0014235706929204884,-0.34409930839495767
10862,2.0,300.28196,33726.68,0.0,0.0,-0.10861999946818612,0.0,0.0,0.0,-2.967211016065927,-2.8936862450845973,-4.391171303649866,-0.0076547162280616735,0.005238290741104045,-0.3423901581262777
10863,2.0,299.71776,33532.074,0.0,0.0,-0.10863000388856026,0.0,0.0,0.0,-2.9493448836776768,-2.8714029502104075,-4.372165264899116,0.011181277675006188,0.005190397347302335,-0.35348718202896867
10864,2.0,299.74437,33367.707,0.0,0.0,-0.10864000830893428,0.0,0.0,0.0,-2.8945311943429872,-2.863011010232187,-4.385407531781025,0.01219716121201609,0.014829938596100985,-0.34418319537073666
10865,2.0,299.66087999999996,33356.07,0.0,0.0,-0.10865001272930841,0.0,0.0,0.0,-2.872435249412287,-2.8729889905919372,-4.393988341577886,0.006717244772565444,0.001024220964132739,-0.36893633802618164
10866,2.0,300.22355,33375.059,0.0,0.0,-0.10865998424040513,0.0,0.0,0.0,-2.9066478416888075,-2.8574530294586573,-4.381083790954306,-0.013389460710686887,-0.0015073583701896887,-0.3408836274800947
10867,2.0,299.80597,33406.706,0.0,0.0,-0.10866998866077926,0.0,0.0,0.0,-2.9239977231511074,-2.8617597476836973,-4.3690469877163665,-0.01810847648091748,0.002372491671896698,-0.35787127203164465
10868,2.0,300.28027000000003,33553.477,0.0,0.0,-0.10867999308115339,0.0,0.0,0.0,-2.938771720209187,-2.884422910020377,-4.376224446124725,-0.01123110222217349,0.013166558860938185,-0.3334132486003257
10869,2.0,300.14865,33594.178,0.0,0.0,-0.10868999750152764,0.0,0.0,0.0,-2.939485048279587,-2.8930904540257973,-4.3792156617449365,0.01128982209196869,-0.002377616082952438,-0.35111576136242767
10870,2.0,300.06759,33681.637,0.0,0.0,-0.10870000192190188,0.0,0.0,0.0,-2.933804160268927,-2.8931343277551274,-4.411438028175036,0.007248923951163093,-0.03478156361842307,-0.3282092771467337
10871,2.0,300.41001,33750.189,0.0,0.0,-0.10871000634227612,0.0,0.0,0.0,-2.9291529370098868,-2.9018277096380976,-4.428234067132675,0.026621932503880175,-0.03470818708593137,-0.3433780668412767
10872,2.0,300.29044,33603.045,0.0,0.0,-0.10872001076265003,0.0,0.0,0.0,-2.949712592138967,-2.864874073191057,-4.3998999466363165,0.001125365818264959,-0.01064227523131079,-0.32963962151789766
10873,2.0,300.84594,33491.602999999996,0.0,0.0,-0.10873001518302416,0.0,0.0,0.0,-2.940255624980637,-2.8613384382921176,-4.379016760750305,0.018133802667166982,0.004618069006492926,-0.36769638334880766
10874,2.0,300.88911,33575.508,0.0,0.0,-0.10873998669412088,0.0,0.0,0.0,-2.9619517414218772,-2.854958205062437,-4.389206105080916,-0.007746287185974024,0.015874300540421483,-0.35535432838574166
10875,2.0,300.28583,33541.628,0.0,0.0,-0.10874999111449501,0.0,0.0,0.0,-2.959702934149937,-2.8511582132124076,-4.384956230186487,-0.018246334223272983,0.015042980509126586,-0.35417551321940166
10876,2.0,299.89382,33507.504,0.0,0.0,-0.10875999553486926,0.0,0.0,0.0,-2.904957639196997,-2.864580737287107,-4.415906055815996,-0.023943138366503774,0.008224909954885413,-0.3510784129637417
10877,2.0,299.87942999999996,33616.827000000005,0.0,0.0,-0.10876999995524339,0.0,0.0,0.0,-2.9116019254027368,-2.8886014521077676,-4.418472516994286,-0.009028712849239581,-0.013664336211064988,-0.34255776995781967
10878,2.0,298.94088,33622.656,0.0,0.0,-0.10878000437561752,0.0,0.0,0.0,-2.9444371054933174,-2.874813752697027,-4.4011970080893255,0.006294839044377244,-0.016597368984032784,-0.3369508998669647
10879,2.0,299.60465,33633.363,0.0,0.0,-0.10879000879599166,0.0,0.0,0.0,-2.9505555148971574,-2.8847078359484972,-4.3884392774052365,0.003473051506513497,-0.0023462400843308677,-0.3335599976123087
10880,2.0,299.77128999999996,33629.136,0.0,0.0,-0.10880001321636579,0.0,0.0,0.0,-2.961358990113377,-2.8793641575711173,-4.381694476789575,0.0036215291231670964,0.005244550802871865,-0.3418024528032757
10881,2.0,300.12532000000004,33556.958,0.0,0.0,-0.1088099847274625,0.0,0.0,0.0,-2.9235227115042273,-2.8907607893958773,-4.386193915183636,0.013687758500376587,0.0020551622082287183,-0.34676680074071864
10882,2.0,300.16697,33450.621,0.0,0.0,-0.10881998914783653,0.0,0.0,0.0,-2.8913124027503176,-2.873504633567827,-4.403336485675475,9.122879044633061e-05,0.002176412376145178,-0.35915835297116966
10883,2.0,300.63681,33592.657999999996,0.0,0.0,-0.10882999356821088,0.0,0.0,0.0,-2.9113265240255575,-2.882715178301837,-4.417287521002336,0.006726618146590525,-0.004935571634602995,-0.34334024221504367
10884,2.0,300.46074,33721.326,0.0,0.0,-0.10883999798858501,0.0,0.0,0.0,-2.9681564797342372,-2.870589006405077,-4.4116954950254454,-0.006796125988875413,-0.015248988439957986,-0.3535895101565677
10885,2.0,300.24099,33638.299,0.0,0.0,-0.10885000240895915,0.0,0.0,0.0,-2.9514310643085677,-2.881625022519247,-4.3921469621711555,-0.0033049528082984467,-0.0018009549833904184,-0.35475676413926666
10886,2.0,299.47048,33509.191,0.0,0.0,-0.10886000682933328,0.0,0.0,0.0,-2.968951374437687,-2.850803879652437,-4.366201984085586,-0.0015733308815506686,-0.001026593387916879,-0.35858190485677865
10887,2.0,299.11244,33672.929,0.0,0.0,-0.10887001124970741,0.0,0.0,0.0,-2.942312522683637,-2.8861950844452773,-4.407221894508936,0.006335223140362844,0.02340680685007198,-0.3481982495544917
10888,2.0,299.90651,33725.328,0.0,0.0,-0.10888001567008165,0.0,0.0,0.0,-2.9353514944966372,-2.8972768994639675,-4.419029095274215,-0.016652101714684484,0.003759459920854806,-0.34238234596800665
10889,2.0,299.69161,33570.991,0.0,0.0,-0.10888998718117815,0.0,0.0,0.0,-2.919120139819727,-2.888674507439977,-4.396948450420026,-0.015582606101633485,-0.016701469286056685,-0.33309196725861767
10890,2.0,300.0674,33567.761,0.0,0.0,-0.10889999160155228,0.0,0.0,0.0,-2.9484666998160076,-2.8789095122512474,-4.376384944940566,-0.016854691952928585,-0.009431291704771022,-0.33513736457298265
10891,2.0,299.82282999999995,33673.683,0.0,0.0,-0.10890999602192641,0.0,0.0,0.0,-2.9561462236489175,-2.896156042203347,-4.3836564329582055,0.002455283729617638,-0.0029916456435524373,-0.3275376848479527
10892,2.0,300.4004,33666.746,0.0,0.0,-0.10892000044230077,0.0,0.0,0.0,-2.9672704938467973,-2.8807092470788676,-4.385870384426705,0.013004182492662886,0.005197744018477396,-0.3444993496669387
10893,2.0,300.17015,33690.209,0.0,0.0,-0.1089300048626749,0.0,0.0,0.0,-2.9090661657024772,-2.897306385041877,-4.434609639411896,0.02101821159433598,-0.0024279331709933477,-0.35339452030732366
10894,2.0,300.49636,33654.475,0.0,0.0,-0.10894000928304903,0.0,0.0,0.0,-2.8998561275935173,-2.901619689392567,-4.428644332098166,0.02198840768433688,-0.0015837462819785885,-0.3571314880011337
10895,2.0,299.73287,33463.302,0.0,0.0,-0.10895001370342305,0.0,0.0,0.0,-2.9078693146843575,-2.8711212666826076,-4.393017647982086,0.0028661999109469067,0.006570136867397024,-0.3591683841471596
10896,2.0,299.88084,33558.667,0.0,0.0,-0.10895998521451988,0.0,0.0,0.0,-2.941686334121837,-2.8715478449747076,-4.3877626289884555,0.0006546735147062453,-0.011195677985427388,-0.3638758630517517
10897,2.0,299.53458,33655.409,0.0,0.0,-0.1089699896348939,0.0,0.0,0.0,-2.989557943046397,-2.8680193028264673,-4.372826613239386,-0.013368323300350787,-0.013974675464943086,-0.34910648641412767
10898,2.0,300.18567,33679.83,0.0,0.0,-0.10897999405526804,0.0,0.0,0.0,-2.9615262777048867,-2.8878652245851075,-4.388435933679905,-0.02194409116471318,0.005542584640910515,-0.3475365060466826
10899,2.0,299.80383,33650.05,0.0,0.0,-0.10898999847564217,0.0,0.0,0.0,-2.912487607315147,-2.897154397526877,-4.419132852084456,0.0019810114513356077,0.027015685545740572,-0.3509089975470217
10900,2.0,299.28857999999997,33715.972,0.0,0.0,-0.10900000289601641,0.0,0.0,0.0,-2.9216866009980174,-2.890293782424787,-4.4368331154313365,-0.003936268314279436,0.019068237108138483,-0.33200565169390667
10901,2.0,299.70033,33832.591,0.0,0.0,-0.10901000731639077,0.0,0.0,0.0,-2.956003963334877,-2.8973099314172273,-4.430949070775625,0.0019198796410023681,0.012680960777013387,-0.3349086841579137
10902,2.0,299.85381,33768.157999999996,0.0,0.0,-0.10902001173676468,0.0,0.0,0.0,-2.957791133861257,-2.901130998869337,-4.405754505714116,0.013148825970938088,-0.0015211333026491686,-0.34090553394725664
10903,2.0,299.99271,33610.102,0.0,0.0,-0.10903001615713881,0.0,0.0,0.0,-2.978077616763377,-2.8665331689047973,-4.372021079409886,0.01124199263424829,0.007374998608105692,-0.35074826568365863
10904,2.0,299.95968,33537.803,0.0,0.0,-0.10903998766823553,0.0,0.0,0.0,-2.9232957434818267,-2.8740660754482374,-4.397292854129016,0.01002678496936663,-0.005716124897462605,-0.3607084533716527
10905,2.0,299.87631,33618.12,0.0,0.0,-0.10904999208860966,0.0,0.0,0.0,-2.908294271776297,-2.8746646022823072,-4.4361101614849865,-0.008536302684892482,-0.023856059652909774,-0.36355506807009164
10906,2.0,299.9511,33791.593,0.0,0.0,-0.10905999650898379,0.0,0.0,0.0,-2.9366036689702173,-2.8961405394768174,-4.439056287475745,0.010438565351706189,0.009920729195974741,-0.3473145333472757
10907,2.0,300.84526,33786.55,0.0,0.0,-0.10907000092935804,0.0,0.0,0.0,-2.960511609054747,-2.8838557939394076,-4.425900045527325,-0.0026037358123687173,0.029279122122624374,-0.3436814339212167
10908,2.0,300.08858,33632.742,0.0,0.0,-0.10908000534973217,0.0,0.0,0.0,-2.9553526461705975,-2.884655450918327,-4.383505661343325,-0.0041201389595760555,0.010254462874786688,-0.3427243280092577
10909,2.0,299.92405,33754.074,0.0,0.0,-0.1090900097701063,0.0,0.0,0.0,-2.9873794553313973,-2.8894132680878872,-4.383603034677936,-0.014146418317142787,-0.013358942630924988,-0.3346365251810537
10910,2.0,299.86298999999997,33977.608,0.0,0.0,-0.10910001419048043,0.0,0.0,0.0,-2.952104976950077,-2.929473124041487,-4.446766411461676,-0.001198044626737799,-0.0017698663424972083,-0.3590214020876537
10911,2.0,300.20739,33857.684,0.0,0.0,-0.10910998570157715,0.0,0.0,0.0,-2.916327521219117,-2.9366531155750972,-4.438909771511286,0.0008410667373193241,0.006553588973388874,-0.3472352059969467
10912,2.0,299.58542,33546.968,0.0,0.0,-0.10911999012195128,0.0,0.0,0.0,-2.902755644079677,-2.8930294563697774,-4.401655503759575,-0.0035659749506593264,-0.012948332147150887,-0.3539717283592897
10913,2.0,299.71217,33482.328,0.0,0.0,-0.1091299945423253,0.0,0.0,0.0,-2.922800770807977,-2.8626094592175573,-4.3923814282442954,-0.015627705863584487,-0.01959084111221548,-0.3325717241272737
10914,2.0,299.7943,33642.387,0.0,0.0,-0.10913999896269966,0.0,0.0,0.0,-2.973749113661187,-2.8735246959198073,-4.379171686690595,0.009697031944897542,-0.00015015647074428985,-0.3479739666448567
10915,2.0,300.56315,33809.207,0.0,0.0,-0.10915000338307379,0.0,0.0,0.0,-2.981493282850477,-2.879555763165027,-4.416105666085696,0.02186754518590868,0.010545273759487491,-0.3266832313036247
10916,2.0,299.82732000000004,33890.773,0.0,0.0,-0.10916000780344792,0.0,0.0,0.0,-2.959900923219477,-2.902277592682497,-4.439770122171196,0.006560476540943624,-0.03615153044262826,-0.36745166318465566
10917,2.0,299.5463,33871.016,0.0,0.0,-0.10917001222382205,0.0,0.0,0.0,-2.952337112547987,-2.8953035948942176,-4.448302295963255,-0.004072759891525106,-0.029680895039026267,-0.3396821661740197
10918,2.0,299.46813,33775.83,0.0,0.0,-0.10917998373491877,0.0,0.0,0.0,-2.969063845198787,-2.8914426053881677,-4.406502588262946,-0.004818970967420405,0.005460507937760175,-0.36535005075474264
10919,2.0,300.23312000000004,33872.56,0.0,0.0,-0.1091899881552929,0.0,0.0,0.0,-2.9679852404673372,-2.913499337539997,-4.414927864169456,-0.00977344853166427,0.028633721325678273,-0.3394782191938917
10920,2.0,300.28702000000004,33756.646,0.0,0.0,-0.10919999257566693,0.0,0.0,0.0,-2.9979280981474674,-2.8799285378768174,-4.383320743200076,-0.007988830990236232,0.018483875510466482,-0.35515378592594965
10921,2.0,300.52914,33609.199,0.0,0.0,-0.10920999699604106,0.0,0.0,0.0,-2.9384503172774674,-2.8820102602072675,-4.395896595491216,-0.019165111923699282,-0.009442089404461671,-0.3338618549495997
10922,2.0,300.1012,33627.847,0.0,0.0,-0.10922000141641519,0.0,0.0,0.0,-2.907713983444027,-2.904122822439607,-4.410188893451756,0.0077218635015885925,-0.01142109573517439,-0.3758078860968507
10923,2.0,299.5988,33804.909,0.0,0.0,-0.10923000583678955,0.0,0.0,0.0,-2.9217155799508774,-2.9119943571664675,-4.442138188979905,0.0006023872662884944,-0.01942354744120488,-0.3536227548923487
10924,2.0,299.75011,33788.766,0.0,0.0,-0.10924001025716368,0.0,0.0,0.0,-2.936297363464987,-2.916696141605497,-4.4179477547674955,0.02184270839945748,-0.027210734163490374,-0.3725804210833246
10925,2.0,299.41154,33877.079,0.0,0.0,-0.10925001467753781,0.0,0.0,0.0,-2.9760663153148768,-2.8999885593815873,-4.421731331965905,0.001119803176540969,-0.009160423608538422,-0.3344885400039487
10926,2.0,299.34618,33885.417,0.0,0.0,-0.10925998618863442,0.0,0.0,0.0,-3.0063943093580177,-2.897341342170327,-4.396584997609155,0.02155220452953698,0.027798364505984975,-0.34632923881753463
10927,2.0,298.91339,33791.918,0.0,0.0,-0.10926999060900855,0.0,0.0,0.0,-2.946632717135007,-2.8965034856626373,-4.428763186334896,0.011441826832220389,0.007993999477671323,-0.3319123820222017
10928,2.0,300.20459,33877.27,0.0,0.0,-0.10927999502938268,0.0,0.0,0.0,-2.9256264213618475,-2.9113351366514073,-4.460882505229826,-0.01131293736649999,-0.016353870799501385,-0.36177450393436367
10929,2.0,300.29507,33942.779,0.0,0.0,-0.10928999944975681,0.0,0.0,0.0,-2.951801103245087,-2.905827007782797,-4.460129255105486,-0.005380028826042505,-0.026093664431744178,-0.3394592714170217
10930,2.0,300.55868,33818.836,0.0,0.0,-0.10930000387013095,0.0,0.0,0.0,-2.946457728842737,-2.9062430482738573,-4.4273811131984955,-0.004525124385420006,0.02085872298884568,-0.36555944902040866
10931,2.0,299.94108,33583.251000000004,0.0,0.0,-0.10931000829050519,0.0,0.0,0.0,-2.962407197341827,-2.8689412590924572,-4.3771212737882355,-0.006934791494210633,0.03446220542540487,-0.35244104183072267
10932,2.0,300.09501,33753.812999999995,0.0,0.0,-0.10932001271087954,0.0,0.0,0.0,-2.9853863923846973,-2.877913386077937,-4.397016439501736,-0.004162039688311336,0.0016389801661297484,-0.3272802990575507
10933,2.0,299.23666000000003,33806.36,0.0,0.0,-0.10932998422197604,0.0,0.0,0.0,-2.950244751091487,-2.893229674589537,-4.432814970834776,-0.005314808044930714,-0.00898332522293517,-0.3428554527046987
10934,2.0,299.74295,33900.787000000004,0.0,0.0,-0.10933998864235017,0.0,0.0,0.0,-2.9277822122746073,-2.9126468902308678,-4.4645636428431255,0.024443675809902976,-0.006612065257860034,-0.3420651986867067
10935,2.0,299.81753,33934.459,0.0,0.0,-0.1093499930627243,0.0,0.0,0.0,-2.955284657088887,-2.9138567108502675,-4.446086824619606,0.015354155694337185,-0.023311601870675977,-0.36332084517697566
10936,2.0,299.97222,33963.335,0.0,0.0,-0.10935999748309844,0.0,0.0,0.0,-2.965035669426237,-2.923062695958827,-4.435907511464986,0.0071718051820770625,-0.016443023636050085,-0.34361294834695766
10937,2.0,301.14612999999997,34006.747,0.0,0.0,-0.10937000190347257,0.0,0.0,0.0,-3.021107207435067,-2.909601161755277,-4.406493469012046,0.008009109063162524,0.007990560608156932,-0.36789123134303764
10938,2.0,300.46089,33994.488,0.0,0.0,-0.10938000632384681,0.0,0.0,0.0,-3.0030611218290573,-2.900957226477187,-4.429457060003376,0.009181170917586022,0.04471827024859966,-0.34225288300272966
10939,2.0,300.22035,33931.227999999996,0.0,0.0,-0.10939001074422094,0.0,0.0,0.0,-2.9528261070462474,-2.9092891820494873,-4.452130861466105,-0.008506744862250351,0.022548922440905377,-0.3624582856318477
10940,2.0,300.18886000000003,33697.988,0.0,0.0,-0.10940001516459508,0.0,0.0,0.0,-2.9030178732055574,-2.901511575606897,-4.438817464427176,-0.01382431928260409,-0.006578291301551805,-0.3577594193531056
10941,2.0,299.96792999999997,33763.858,0.0,0.0,-0.1094099866756918,0.0,0.0,0.0,-2.9366502784748176,-2.9029712637009575,-4.423748408939976,-0.024869309752909772,-0.018462792815635783,-0.36635694777661565
10942,2.0,299.64522999999997,33969.873,0.0,0.0,-0.10941999109606593,0.0,0.0,0.0,-2.980764958678597,-2.915561200168487,-4.429667106749105,0.015639505160998983,0.013070251465433386,-0.36360380539990167
10943,2.0,299.77294,33870.576,0.0,0.0,-0.10942999551644006,0.0,0.0,0.0,-3.0134646672308074,-2.8888174770290873,-4.393527312782386,-0.0035307010802280666,0.003984493243513866,-0.34576259896411166
10944,2.0,299.86349,33825.06,0.0,0.0,-0.10943999993681408,0.0,0.0,0.0,-2.9511709630078973,-2.9058211309322175,-4.424981635636686,0.01151375644356929,-0.0029614451163718775,-0.3342156008245117
10945,2.0,299.97219,34012.513999999996,0.0,0.0,-0.10945000435718844,0.0,0.0,0.0,-2.9585450932606676,-2.9245479179554073,-4.455861850984325,0.001239127054692319,-0.01083431449626359,-0.3286172217694947
10946,2.0,299.58423999999997,34063.517,0.0,0.0,-0.10946000877756257,0.0,0.0,0.0,-2.952533683067387,-2.9303168573997573,-4.471608162838366,0.017182917097571884,0.0058167787305963645,-0.3393034639491447
10947,2.0,299.71443,34015.102,0.0,0.0,-0.1094700131979367,0.0,0.0,0.0,-2.970814234746537,-2.927225735319687,-4.4417015795118155,0.013235814505273186,-0.0024680855366810773,-0.3581285463645356
10948,2.0,300.55543,34026.486000000004,0.0,0.0,-0.1094799847090332,0.0,0.0,0.0,-2.996570545663487,-2.912140062530847,-4.4344915957752455,-0.006341310848288654,-0.004072153967965306,-0.36879049080678766
10949,2.0,299.94653999999997,33807.879,0.0,0.0,-0.10948998912940755,0.0,0.0,0.0,-2.9852786838990673,-2.878719831832527,-4.412752618854776,-0.007646270180528113,-0.002223395466057048,-0.3531913231322697
10950,2.0,300.48783,33705.834,0.0,0.0,-0.10949999354978168,0.0,0.0,0.0,-2.9301576758090473,-2.8882342502715272,-4.427339975244436,-0.009869299761974051,0.03252784107024797,-0.36152782819751866
10951,2.0,300.37483,33843.683,0.0,0.0,-0.1095099979701557,0.0,0.0,0.0,-2.937576693041247,-2.8962451068871373,-4.453812653982086,0.0036620513251413266,0.01043109364546879,-0.3430756927464347
10952,2.0,300.23615,33915.671,0.0,0.0,-0.10952000239052984,0.0,0.0,0.0,-2.965094539257047,-2.900425878124747,-4.443996793638336,-0.008733430694497502,-0.01791453534552698,-0.3498576391107607
10953,2.0,299.80312999999995,33847.722,0.0,0.0,-0.10953000681090397,0.0,0.0,0.0,-2.9347462802119075,-2.9287069043158676,-4.425409328503895,0.008674260131057822,-0.015149654466404485,-0.3690411182190227
10954,2.0,298.98944,33934.285,0.0,0.0,-0.10954001123127832,0.0,0.0,0.0,-3.002158012014927,-2.904939805995237,-4.408077381568366,0.00934275076995771,0.006563293072246594,-0.3601470418887457
10955,2.0,299.39103,34105.46,0.0,0.0,-0.10955001565165245,0.0,0.0,0.0,-3.0004287993942675,-2.9251179724616674,-4.441661454807855,0.006456023830534943,-0.00039217228051189066,-0.34919162982003066
10956,2.0,300.57831,34037.174,0.0,0.0,-0.10955998716274895,0.0,0.0,0.0,-2.9814578190969767,-2.9104336480374373,-4.454559621955806,-0.02120713106223088,-0.007599532094490422,-0.3335979640935557
10957,2.0,300.05704,34033.496,0.0,0.0,-0.1095699915831232,0.0,0.0,0.0,-2.948857105079537,-2.912745276815577,-4.4837306870347655,0.008535844695847283,-0.005785399996199525,-0.3342006959155407
10958,2.0,299.74905,34078.44,0.0,0.0,-0.10957999600349733,0.0,0.0,0.0,-2.9716459104286175,-2.910979789841337,-4.476369121083236,-0.008440945211356432,0.024583141580167178,-0.33810624816098866
10959,2.0,300.11801,34033.223,0.0,0.0,-0.10959000042387146,0.0,0.0,0.0,-2.9696622707078473,-2.919245377532087,-4.456342435506755,0.013121957618036386,-0.0054725316700718245,-0.36610210524396464
10960,2.0,300.38956,33896.098,0.0,0.0,-0.10960000484424559,0.0,0.0,0.0,-2.998137739593157,-2.882934648273497,-4.422495018566275,-0.0017195209847785085,-0.013247168985893789,-0.3608669358197937
10961,2.0,300.36536,34021.578,0.0,0.0,-0.10961000926461972,0.0,0.0,0.0,-3.006474356115917,-2.8988753014967177,-4.436360636909706,3.3396292664707464e-06,0.002364987440331088,-0.3494211309676806
10962,2.0,300.032,33946.935,0.0,0.0,-0.10962001368499397,0.0,0.0,0.0,-2.960693791422727,-2.903311513084537,-4.455015280525776,-0.0031944980095974067,0.022761896466174276,-0.3424144254661727
10963,2.0,299.33636,33874.125,0.0,0.0,-0.10962998519609057,0.0,0.0,0.0,-2.965378553260077,-2.8823532453661174,-4.449156263147536,-0.01872070144308938,0.012754516654772789,-0.32732178151664465
10964,2.0,299.95194,34151.149,0.0,0.0,-0.10963998961646482,0.0,0.0,0.0,-2.9595755686123675,-2.950148087031947,-4.471373088815166,-0.015357723347939285,0.005784997431934795,-0.3466829644274447
10965,2.0,299.65064,34056.095,0.0,0.0,-0.10964999403683895,0.0,0.0,0.0,-2.9924273660045873,-2.925887231937587,-4.433887901365666,-0.0005986411692112835,-0.004951336488933865,-0.35704852308294566
10966,2.0,300.69942000000003,33960.51,0.0,0.0,-0.10965999845721308,0.0,0.0,0.0,-2.970823252672427,-2.9227534520283074,-4.429570240039546,0.004582147365272736,-0.0031479536569788374,-0.36272291616046465
10967,2.0,300.45498,34087.736000000004,0.0,0.0,-0.10967000287758721,0.0,0.0,0.0,-2.9865812169026174,-2.930287878446897,-4.444951275232536,0.013845271268171887,-0.027203554273281774,-0.36121171443132066
10968,2.0,300.41571,34020.245,0.0,0.0,-0.10968000729796135,0.0,0.0,0.0,-2.950447907736537,-2.918990747781957,-4.471866338963846,0.015764212943556684,-0.008049200127219202,-0.3336005985438157
10969,2.0,300.22959,33771.244,0.0,0.0,-0.10969001171833559,0.0,0.0,0.0,-2.938604128642647,-2.898424709177247,-4.428586171542425,0.013694501679792087,0.005743354372699944,-0.36958921559561564
10970,2.0,300.45767,33915.608,0.0,0.0,-0.10970001613870972,0.0,0.0,0.0,-2.926069110330537,-2.9322899593194873,-4.451138889618205,0.0010191002007773591,0.023418958758521277,-0.3457136995142857
10971,2.0,299.81433,33960.265,0.0,0.0,-0.10970998764980644,0.0,0.0,0.0,-2.992910281002247,-2.9230461799821974,-4.407116009873486,-0.027440475451414075,0.007097029857822313,-0.39721389890195963
10972,2.0,299.99534,34016.062999999995,0.0,0.0,-0.10971999207018057,0.0,0.0,0.0,-2.994559649515027,-2.917023421387797,-4.428450598679046,-0.0085900882293507,0.003442033489152257,-0.3487315534796247
10973,2.0,299.67584,34066.876000000004,0.0,0.0,-0.1097299964905547,0.0,0.0,0.0,-2.987673804485447,-2.9279816198942874,-4.439824331051546,0.007027560316391203,-0.003109288539787887,-0.37834685779992766
10974,2.0,300.00314,34071.709,0.0,0.0,-0.10974000091092884,0.0,0.0,0.0,-2.9872124717149173,-2.9058075533808774,-4.4639287403304655,0.00999115058454979,0.0037136285923316066,-0.3119731095318487
10975,2.0,300.29258,34076.922,0.0,0.0,-0.10975000533130286,0.0,0.0,0.0,-2.9673229802019767,-2.9286930227894974,-4.462517384266175,0.014189482459642886,-0.005543806924506145,-0.3552115817116536
10976,2.0,300.21586,34129.202000000005,0.0,0.0,-0.10976000975167721,0.0,0.0,0.0,-2.9744141097018173,-2.9326970832096673,-4.467313907589555,-0.002936220660432417,0.0005899540897439354,-0.33325930551263266
10977,2.0,300.37647999999996,34192.738,0.0,0.0,-0.10977001417205134,0.0,0.0,0.0,-3.0077685804686474,-2.930898462957157,-4.4550716172313365,0.010876228599900188,0.0006095528494056824,-0.36031641677546167
10978,2.0,300.97621000000004,34072.428,0.0,0.0,-0.10977998568314784,0.0,0.0,0.0,-2.9912533131137176,-2.9242101003720675,-4.441703909987046,0.008586827793178922,0.003059297515629157,-0.3562124802929347
10979,2.0,300.27432000000005,33871.808,0.0,0.0,-0.10978999010352197,0.0,0.0,0.0,-2.9485070271699874,-2.9122739128690576,-4.435402912915186,0.01182338236937699,-0.007987887249093092,-0.36176428024085466
10980,2.0,300.12145,34015.217000000004,0.0,0.0,-0.10979999452389633,0.0,0.0,0.0,-2.950823215573577,-2.9100286519724676,-4.478924841810466,-0.004414858051237566,0.0031966814622378975,-0.3456516886081657
10981,2.0,299.68846,34063.01,0.0,0.0,-0.10980999894427046,0.0,0.0,0.0,-2.9629891068742573,-2.913386258828837,-4.477929019612186,-0.014742652166236487,0.014604062857308786,-0.3450343761172417
10982,2.0,299.48446,33975.611000000004,0.0,0.0,-0.10982000336464448,0.0,0.0,0.0,-2.955953807454927,-2.921566632186177,-4.450216933352216,-0.011443305164116289,0.016369507275044586,-0.37274620906468664
10983,2.0,299.88813999999996,34069.833,0.0,0.0,-0.10983000778501861,0.0,0.0,0.0,-3.0001987916215676,-2.9254086739153573,-4.430771245383076,0.014267571618349685,0.008448751492776851,-0.3590264075431477
10984,2.0,300.33754,34123.494,0.0,0.0,-0.10984001220539275,0.0,0.0,0.0,-2.992740865585527,-2.9268957197621175,-4.453053425682155,0.009368298047379032,0.01000726997509065,-0.3699265670839096
10985,2.0,299.84668999999997,34096.227999999996,0.0,0.0,-0.10984998371648946,0.0,0.0,0.0,-2.9709307585080373,-2.927700544316547,-4.465770423712225,0.015508422008812087,-0.009313360741532141,-0.3465619823655047
10986,2.0,300.31401,34190.706,0.0,0.0,-0.1098599881368636,0.0,0.0,0.0,-2.988145877707037,-2.9205826650140674,-4.484392238025055,-0.007326681777087192,-0.023182724563956775,-0.34834764314923566
10987,2.0,299.77844,34189.547,0.0,0.0,-0.10986999255723773,0.0,0.0,0.0,-2.978959650975427,-2.9253457510841474,-4.488463071626816,-0.003426339866303417,-0.010807167499584389,-0.3443105203783027
10988,2.0,299.72534,34005.804,0.0,0.0,-0.10987999697761197,0.0,0.0,0.0,-2.984396751012027,-2.9156459078768475,-4.436872733510246,-0.015238542844677088,0.0017868503393483983,-0.35330542522603064
10989,2.0,299.80429,34133.985,0.0,0.0,-0.1098900013979861,0.0,0.0,0.0,-2.999645962367007,-2.9223734832408073,-4.453859466136705,-0.0075448352328922625,0.007551999012424273,-0.34893793225999264
10990,2.0,299.89693,34280.678,0.0,0.0,-0.10990000581836024,0.0,0.0,0.0,-3.0305152346135675,-2.926992687796687,-4.462962201060076,-0.00993408008326737,0.001293390447897699,-0.3391016954567317
10991,2.0,299.36508,34127.916,0.0,0.0,-0.10991001023873437,0.0,0.0,0.0,-2.9755883652427073,-2.930487995341647,-4.467958030678125,0.013763819132383184,0.015823424239650385,-0.34051404450611966
10992,2.0,299.67201,34010.956,0.0,0.0,-0.1099200146591085,0.0,0.0,0.0,-2.963541834803807,-2.905393134089977,-4.469546502859895,0.008159868012416272,0.006540795171001224,-0.33535719931467867
10993,2.0,300.40455,34238.156,0.0,0.0,-0.10992998617020522,0.0,0.0,0.0,-2.982439253143837,-2.938979943104737,-4.486125300996096,-0.00870666012023045,0.0025115955092251774,-0.34391794675955867
10994,2.0,300.00615,34241.378,0.0,0.0,-0.10993999059057935,0.0,0.0,0.0,-3.0164218376476573,-2.930409569783907,-4.461692497359766,-0.02134830415891358,0.0009089878096826122,-0.35901770372478864
10995,2.0,300.32964,34168.447,0.0,0.0,-0.1099499950109536,0.0,0.0,0.0,-3.0067581674689268,-2.9328939577040973,-4.446702678030386,0.0018747933552776984,0.004788582684996316,-0.37017267540069865
10996,2.0,300.43051,34120.909,0.0,0.0,-0.10995999943132773,0.0,0.0,0.0,-2.977071155439047,-2.931851222026187,-4.462981756787005,0.008156524489736293,0.0026562040303719273,-0.36350618888526764
10997,2.0,300.18512000000004,34071.466,0.0,0.0,-0.10997000385170186,0.0,0.0,0.0,-2.9809294091698266,-2.9122349027402072,-4.463710587583936,0.016728391341213684,-0.02145407531035238,-0.35385107053738163
10998,2.0,299.74523,34077.272000000004,0.0,0.0,-0.10998000827207599,0.0,0.0,0.0,-2.950332295900127,-2.930517176944527,-4.477790103023476,0.012191795039486489,-0.02705686605630477,-0.3614071095806047
10999,2.0,299.62928,34103.34,0.0,0.0,-0.10999001269245012,0.0,0.0,0.0,-2.9896816608836074,-2.930339351551977,-4.446542685839596,0.0011310495433758988,-0.015219113774009587,-0.3631425131593757
11000,2.0,299.49088,34120.823,0.0,0.0,-0.10999998420354673,0.0,0.0,0.0,-2.987999159092557,-2.936263926211687,-4.447615109745436,0.0012586814643971889,-0.008806673376650991,-0.3656677249260947
11001,2.0,299.73212,34036.826,0.0,0.0,-0.11000998862392086,0.0,0.0,0.0,-2.983265862575417,-2.942132265490847,-4.420947076388505,-0.015162673716939384,0.011243548986401888,-0.36333699638356964
11002,2.0,299.2886,34203.166,0.0,0.0,-0.11001999304429522,0.0,0.0,0.0,-2.969016222444087,-2.954176161479487,-4.473715925696386,-0.01876907501611348,0.01100362554822329,-0.34311292968760965
11003,2.0,299.48826,34340.531,0.0,0.0,-0.11002999746466935,0.0,0.0,0.0,-2.993963554481197,-2.9462255932448267,-4.498474793214895,-0.008497132259876663,0.004819171894915235,-0.33713196765983466
11004,2.0,300.30332000000004,34237.849,0.0,0.0,-0.11004000188504348,0.0,0.0,0.0,-2.9737538759366573,-2.9374294678017177,-4.496268035822105,-0.0025681476317564378,0.0020829009429663183,-0.32929378912626667
11005,2.0,300.33448,34164.556000000004,0.0,0.0,-0.1100500063054175,0.0,0.0,0.0,-2.999968277223817,-2.906528379502017,-4.478675278310836,0.016784433190994586,-0.013490961012954187,-0.3510618260596047
11006,2.0,299.99877000000004,34287.407999999996,0.0,0.0,-0.11006001072579163,0.0,0.0,0.0,-3.038294563581327,-2.9196279807698473,-4.464593331071056,0.023156092298328376,-0.0025795865161103676,-0.3401338730685997
11007,2.0,300.06397999999996,34297.277,0.0,0.0,-0.11007001514616599,0.0,0.0,0.0,-3.010862640974007,-2.9366602083257973,-4.477993057018505,0.005914693242084775,0.004720866370213236,-0.3730007577548086
11008,2.0,299.6865,34215.211,0.0,0.0,-0.11007998665726249,0.0,0.0,0.0,-2.9898445914996867,-2.9266691570397576,-4.4840560416418755,0.0027371621054118676,-0.001870255008079798,-0.34415266614522366
11009,2.0,300.0363,34210.147000000004,0.0,0.0,-0.11008999107763662,0.0,0.0,0.0,-2.9805074918281873,-2.934142281827297,-4.484380686973916,-0.012957482808803987,0.004509623077440145,-0.3550427539799917
11010,2.0,300.07748,34224.041,0.0,0.0,-0.11009999549801075,0.0,0.0,0.0,-2.990091419224047,-2.935658509276937,-4.477504062520246,-0.0046924629434100355,-0.008814379143661491,-0.34890938900467566
11011,2.0,299.94757000000004,34203.613,0.0,0.0,-0.1101099999183851,0.0,0.0,0.0,-2.996915354672517,-2.9483197785515074,-4.451809255884366,-0.002275903200814158,-0.0058624528027040445,-0.36883293585347665
11012,2.0,299.67514,34226.523,0.0,0.0,-0.11012000433875924,0.0,0.0,0.0,-3.0112221421094874,-2.929378891782187,-4.463407321829005,0.006345049335857614,-0.003071634646196737,-0.35723733210657965
11013,2.0,300.02725,34282.953,0.0,0.0,-0.11013000875913326,0.0,0.0,0.0,-2.9952707484352072,-2.944652015839527,-4.481238699738826,0.014689474774488285,0.019168313794015283,-0.3510320567716667
11014,2.0,299.27522,34100.876000000004,0.0,0.0,-0.11014001317950739,0.0,0.0,0.0,-2.9651212890596867,-2.929848431878527,-4.470845286838076,0.004569286587053476,0.011529523628375388,-0.3637221631440827
11015,2.0,299.16119,34146.248,0.0,0.0,-0.11014998469060411,0.0,0.0,0.0,-2.973971116758097,-2.915565658468927,-4.4900700862854155,-0.002850050832178117,0.01119266153987969,-0.3378976199653987
11016,2.0,299.74741,34366.827000000005,0.0,0.0,-0.11015998911097824,0.0,0.0,0.0,-3.005250552645137,-2.945571135005237,-4.495835682004436,0.0015711203751325085,-0.004792886262146045,-0.37080144775025364
11017,2.0,299.23877999999996,34122.3,0.0,0.0,-0.11016999353135237,0.0,0.0,0.0,-2.9993292203857473,-2.9000650597641373,-4.472932683369087,-0.0024668041806046176,-0.00978652614540493,-0.3446385094356727
11018,2.0,299.3814,34115.488,0.0,0.0,-0.1101799979517265,0.0,0.0,0.0,-3.010078081421577,-2.9321282446035273,-4.428050263564536,0.01169978510892889,-0.012324879360620888,-0.3878809738208716
11019,2.0,300.39051,34361.428,0.0,0.0,-0.11019000237210075,0.0,0.0,0.0,-3.019730200549167,-2.9408383451131472,-4.484447460155506,0.006987702401182534,-0.012514304440315687,-0.34926004446678266
11020,2.0,300.4525,34322.297999999995,0.0,0.0,-0.11020000679247488,0.0,0.0,0.0,-3.002458035369537,-2.9341773402807574,-4.496486188568636,0.02168628183576938,-0.004024565359793676,-0.3482939104964327
11021,2.0,299.62346,34293.778,0.0,0.0,-0.11021001121284901,0.0,0.0,0.0,-2.970953961935327,-2.9457786486257174,-4.507719484477275,0.005698990230321545,0.015928618851782286,-0.3244804965137317
11022,2.0,300.1166,34387.767,0.0,0.0,-0.11022001563322315,0.0,0.0,0.0,-3.0107061951585674,-2.942051002832827,-4.500265510116626,0.006657175760262094,0.008089948283965732,-0.3373966184534537
11023,2.0,299.43161000000003,34382.308,0.0,0.0,-0.11022998714431964,0.0,0.0,0.0,-3.014199780178357,-2.953956184882777,-4.483207140708095,-0.011400982720689387,-0.003850733185887777,-0.34406391556896465
11024,2.0,299.87879,34317.297999999995,0.0,0.0,-0.110239991564694,0.0,0.0,0.0,-3.020173396142907,-2.9438396932343576,-4.467588599691666,-0.012038125529320489,-0.006369597852655364,-0.36464440312010066
11025,2.0,300.41629,34417.712999999996,0.0,0.0,-0.11024999598506813,0.0,0.0,0.0,-3.0015831952331973,-2.9561294036972576,-4.504412641450916,-0.015461398084921184,0.01053353221732869,-0.34982222601976565
11026,2.0,300.26482000000004,34210.667,0.0,0.0,-0.11026000040544237,0.0,0.0,0.0,-2.9777709059581072,-2.944311867780957,-4.477105652580926,-0.00998352952524765,0.01019826498449039,-0.3579128659482496
11027,2.0,300.39416,33955.752,0.0,0.0,-0.1102700048258165,0.0,0.0,0.0,-2.926471775920277,-2.9195450969116674,-4.4756839613656165,-0.01052400665313859,0.003387425793562897,-0.3641672839130127
11028,2.0,299.90236,34148.145,0.0,0.0,-0.11028000924619064,0.0,0.0,0.0,-2.9839629786442172,-2.9188699683700374,-4.477350555130096,0.007143702791878572,-0.00882598987523238,-0.36510879590593265
11029,2.0,299.55402999999995,34433.683,0.0,0.0,-0.11029001366656477,0.0,0.0,0.0,-3.0268503090018672,-2.958687657549737,-4.481441957708886,0.014475336524854485,0.016317422166904183,-0.3639674608607917
11030,2.0,299.68209,34400.248999999996,0.0,0.0,-0.11029998517766126,0.0,0.0,0.0,-3.030831976594827,-2.9451103088597574,-4.480874233677855,0.005777699903389584,-0.008226036891646632,-0.37525133821442364
11031,2.0,299.71837,34324.261,0.0,0.0,-0.11030998959803551,0.0,0.0,0.0,-3.0139979407584367,-2.938592982891547,-4.481127444877846,-0.006030029677117594,-0.01992967701190598,-0.3554744795825997
11032,2.0,299.90886,34370.431000000004,0.0,0.0,-0.11031999401840964,0.0,0.0,0.0,-3.004194442065907,-2.943532475804037,-4.500025775142966,-0.007810911365426933,-0.01055976931541809,-0.34104836168135266
11033,2.0,300.85197999999997,34409.937000000005,0.0,0.0,-0.110329998438784,0.0,0.0,0.0,-3.012237317384677,-2.9415562328089973,-4.505968183004436,-0.004298482325577176,0.014983783398534286,-0.3207796714509887
11034,2.0,299.85832999999997,34418.623,0.0,0.0,-0.11034000285915813,0.0,0.0,0.0,-3.019825040758527,-2.963933151992427,-4.478643664907716,0.0024167107168607776,0.01049686978896039,-0.35427990837720463
11035,2.0,300.52794,34411.111000000004,0.0,0.0,-0.11035000727953226,0.0,0.0,0.0,-3.0522374929073868,-2.936654939425277,-4.471226268875676,-0.017946829652714182,-0.004840295930350016,-0.3478979627548557
11036,2.0,300.79242999999997,34252.877,0.0,0.0,-0.11036001169990628,0.0,0.0,0.0,-3.0047119088919767,-2.940567199386387,-4.4667401040579255,0.006172047621733675,-0.009411209391764052,-0.36555940849040464
11037,2.0,300.36749,34161.39,0.0,0.0,-0.11037001612028041,0.0,0.0,0.0,-2.9936443806996973,-2.9335510503939473,-4.457014017673036,0.009246595057992881,0.006991936266725383,-0.36825316427875765
11038,2.0,300.00072,34526.492,0.0,0.0,-0.11037998763137713,0.0,0.0,0.0,-3.000728518773847,-2.9569252103257972,-4.537537813720116,0.02084071854781878,-0.004908559096212066,-0.3543009029192767
11039,2.0,300.3568,34470.462999999996,0.0,0.0,-0.11038999205175126,0.0,0.0,0.0,-3.0092029373102074,-2.956895522097867,-4.512061463805796,-0.005670189508154134,-0.020855965935323583,-0.36741660473119564
11040,2.0,299.39895,34194.902,0.0,0.0,-0.1103999964721254,0.0,0.0,0.0,-2.992048917092237,-2.9191345279711474,-4.4832130175586755,0.003468554094619637,-0.013102325897348888,-0.3543205903687197
11041,2.0,299.62764,34375.304,0.0,0.0,-0.11041000089249953,0.0,0.0,0.0,-3.019105734512537,-2.9431824992194975,-4.486946033577095,0.009151056719313981,0.011424961284305887,-0.37114865816202064
11042,2.0,299.74484,34512.104,0.0,0.0,-0.11042000531287388,0.0,0.0,0.0,-3.0258065600738573,-2.970337601899497,-4.494673686789755,0.005072091684176475,0.0024238410591394875,-0.35802665393447963
11043,2.0,299.28366,34374.87,0.0,0.0,-0.11043000973324801,0.0,0.0,0.0,-2.996943523025297,-2.9555288503629873,-4.496629867432816,-0.002180480372646658,-0.01980123742922998,-0.3660523749290566
11044,2.0,300.02297999999996,34367.052,0.0,0.0,-0.11044001415362203,0.0,0.0,0.0,-2.990936469807447,-2.9719595113345676,-4.483829580244526,-0.012494622057123188,-0.005088564496352215,-0.34140397193644867
11045,2.0,300.2271,34248.815,0.0,0.0,-0.11044998566471875,0.0,0.0,0.0,-2.985882074333617,-2.9395927567652174,-4.485309735990605,-0.011098472850333989,0.024752848812915975,-0.3407007763670487
11046,2.0,300.54216,34272.167,0.0,0.0,-0.11045999008509289,0.0,0.0,0.0,-3.0043875675349674,-2.946541929926047,-4.466953393203976,0.006502897489436014,-0.0021047242222951078,-0.35685694788653866
11047,2.0,300.19687999999996,34595.916,0.0,0.0,-0.11046999450546702,0.0,0.0,0.0,-3.034403683197327,-2.9864936720939768,-4.4953972486861655,-0.02446802623630618,-0.013435458212226485,-0.3621116426401367
11048,2.0,300.17019,34672.65,0.0,0.0,-0.11047999892584115,0.0,0.0,0.0,-3.055276635257327,-2.9539451404566868,-4.530397946890465,-0.0029658618735577775,-0.008047186191320442,-0.35648281541961463
11049,2.0,299.65417,34385.054,0.0,0.0,-0.11049000334621528,0.0,0.0,0.0,-3.003537552026077,-2.944058859230987,-4.504601511269556,0.003545666074929997,0.0058700505572538845,-0.34599027626158163
11050,2.0,300.64237,34313.644,0.0,0.0,-0.11050000776658953,0.0,0.0,0.0,-2.980685823845787,-2.9353380182703073,-4.514467020868206,0.02041347759015338,-0.0005674445969174215,-0.36623337179441967
11051,2.0,299.82072,34521.135,0.0,0.0,-0.11051001218696366,0.0,0.0,0.0,-3.030925296929037,-2.953205569208697,-4.509432181121305,0.0014702544687528185,-0.013250648486737187,-0.3368376691682897
11052,2.0,300.08657999999997,34527.708,0.0,0.0,-0.11051998369806038,0.0,0.0,0.0,-3.0482696055157867,-2.954513979062827,-4.492777591877625,0.008888513789878011,0.013256601331074688,-0.36168845873587163
11053,2.0,299.63479,34354.636,0.0,0.0,-0.11052998811843451,0.0,0.0,0.0,-3.014850996017627,-2.9333982522788675,-4.494702260442576,-0.01071385121837479,0.029278213237284675,-0.35241645025079565
11054,2.0,299.94767,34332.989,0.0,0.0,-0.11053999253880842,0.0,0.0,0.0,-2.991213087084747,-2.966956183665777,-4.478202191839146,-0.005965799044003525,0.009924744908771061,-0.37361866806329164
11055,2.0,300.01737,34459.708,0.0,0.0,-0.11054999695918277,0.0,0.0,0.0,-2.984364529658847,-2.9661718267633677,-4.524354315344006,-0.006508200941784425,-0.011521319342315688,-0.3417169446273367
11056,2.0,299.93109,34550.104,0.0,0.0,-0.1105600013795569,0.0,0.0,0.0,-2.9890592213471767,-2.976130352721197,-4.537179427159746,0.006499641308914654,-0.0033775877430419566,-0.36154604643431665
11057,2.0,299.62201,34567.354,0.0,0.0,-0.11057000579993115,0.0,0.0,0.0,-3.0313759905735176,-2.9686081866288174,-4.507628393293286,-0.006353846879850864,0.007225877881613623,-0.3414523039662187
11058,2.0,300.18223,34389.722,0.0,0.0,-0.11058001022030528,0.0,0.0,0.0,-3.0303879704010073,-2.9414843933769075,-4.481744311538725,-0.005693157152145864,-0.006614694135244483,-0.3590606249990247
11059,2.0,299.75594,34305.117,0.0,0.0,-0.11059001464067941,0.0,0.0,0.0,-2.9858445840799175,-2.9602643760303473,-4.481790009118236,0.005952688094334573,-0.004454621734186936,-0.36673477860640463
11060,2.0,299.52566,34527.858,0.0,0.0,-0.11059998615177613,0.0,0.0,0.0,-3.025816388599827,-2.9560949531938574,-4.513695126942026,0.011377647570886388,0.012226446166406288,-0.3576370896685327
11061,2.0,299.29206,34706.522000000004,0.0,0.0,-0.11060999057215004,0.0,0.0,0.0,-3.0366772137717075,-2.958749465805837,-4.554489386568105,0.015432313754050785,0.004891219245925755,-0.35521050766654766
11062,2.0,299.80637,34443.623999999996,0.0,0.0,-0.11061999499252428,0.0,0.0,0.0,-3.008615454902227,-2.954474462308927,-4.506911822822566,-0.003623083347495487,-0.02767572881988177,-0.36277936432353564
11063,2.0,300.11855,34230.357,0.0,0.0,-0.11062999941289842,0.0,0.0,0.0,-3.005520583796787,-2.9137319797629573,-4.485921333750966,0.0026492086530065374,-0.01987992440549578,-0.3571655332044937
11064,2.0,300.13996000000003,34547.32,0.0,0.0,-0.11064000383327277,0.0,0.0,0.0,-3.042214726893217,-2.9640819984321176,-4.495226009419266,0.0026227380007690874,0.011619772801532289,-0.33589794049554567
11065,2.0,300.3323,34643.419,0.0,0.0,-0.1106500082536469,0.0,0.0,0.0,-3.052804305013327,-2.9559115549257573,-4.522018469888476,-0.0005480385472921936,0.02014048774821138,-0.35075052523138167
11066,2.0,300.21428,34637.025,0.0,0.0,-0.11066001267402104,0.0,0.0,0.0,-3.031718063807277,-2.961937859895507,-4.535134891107965,-0.015568242268215885,-0.0034948521903650567,-0.3490461676356747
11067,2.0,300.02794,34518.155,0.0,0.0,-0.11066998418511753,0.0,0.0,0.0,-3.0105552208936674,-2.972619339799687,-4.509482438326266,-0.009051255130839332,0.0002273332078685408,-0.37129756539671666
11068,2.0,299.73463,34341.936,0.0,0.0,-0.11067998860549189,0.0,0.0,0.0,-2.9681927540878177,-2.958008881307747,-4.512889491787516,0.004544306324388116,0.006733859946380233,-0.34942224554279067
11069,2.0,299.37892999999997,34527.439,0.0,0.0,-0.11068999302586591,0.0,0.0,0.0,-3.0381308223651673,-2.966278116698857,-4.491070468109146,0.005820905596928655,0.005974831965995004,-0.3595621230035187
11070,2.0,299.26452,34726.528,0.0,0.0,-0.11069999744624004,0.0,0.0,0.0,-3.0522083113045073,-2.9801602510189174,-4.523628828272405,-0.017870885544469084,-0.007396192760447394,-0.35726857060716266
11071,2.0,299.81965,34444.568999999996,0.0,0.0,-0.11071000186661417,0.0,0.0,0.0,-3.029357799024337,-2.942636661390627,-4.498294333372086,0.006253315548654194,0.0020453225365076183,-0.36143759827611366
11072,2.0,300.13234,34113.308,0.0,0.0,-0.1107200062869883,0.0,0.0,0.0,-2.9438169964321177,-2.942707588897627,-4.483069034719466,0.003995660779491017,0.024811094481664374,-0.37481267184863065
11073,2.0,300.30961,34426.91,0.0,0.0,-0.11073001070736266,0.0,0.0,0.0,-2.996035650935697,-2.9494984923928373,-4.519386755403746,0.02167255736316488,0.003270195898068207,-0.36820545033154867
11074,2.0,300.4506,34870.201,0.0,0.0,-0.11074001512773679,0.0,0.0,0.0,-3.059544444678527,-2.983259681749807,-4.556866268652685,0.0036802712844644964,-0.028124163929888875,-0.3683682694901177
11075,2.0,300.50223,34658.22,0.0,0.0,-0.11074998663883329,0.0,0.0,0.0,-3.0742246147773473,-2.9633792081627575,-4.497629539981475,-0.0004680575391911825,-0.015047948474366885,-0.36329348742427564
11076,2.0,300.18231000000003,34357.585,0.0,0.0,-0.11075999105920753,0.0,0.0,0.0,-3.012903833300457,-2.9320326951190974,-4.498911504007996,-0.004655194287506905,0.016161014854967987,-0.34907213723573766
11077,2.0,299.85438,34528.422999999995,0.0,0.0,-0.11076999547958166,0.0,0.0,0.0,-3.025210465040027,-2.970326861448437,-4.5002409894642055,-0.021691250814259776,0.02083685097218708,-0.3471419261927407
11078,2.0,300.2359,34760.877,0.0,0.0,-0.1107799998999558,0.0,0.0,0.0,-3.0340265515101073,-2.9880363453712273,-4.544375833344976,-0.026414185835877176,-0.0053710058339020055,-0.3497659298442096
11079,2.0,299.62768,34799.627,0.0,0.0,-0.11079000432032993,0.0,0.0,0.0,-3.046754391316247,-2.9807323320253767,-4.550731039297186,-0.0021749156030974577,-0.013900933149165287,-0.3558112535183367
11080,2.0,299.66114,34595.176,0.0,0.0,-0.11080000874070406,0.0,0.0,0.0,-3.0339878453562874,-2.968601397853147,-4.513480317920825,0.018102866115113785,-0.0013219597437422689,-0.3452450814755367
11081,2.0,300.34218,34284.873999999996,0.0,0.0,-0.1108100131610783,0.0,0.0,0.0,-3.0001922054959174,-2.939167900998287,-4.482385394876996,0.02355063972826718,-0.02052652387731018,-0.35997947058720764
11082,2.0,300.53914,34496.833,0.0,0.0,-0.11081998467217491,0.0,0.0,0.0,-3.0293626626248176,-2.960347462538547,-4.496465923566636,0.010367511188443689,-0.024003762133236874,-0.35844078951535163
11083,2.0,300.12224,34773.318999999996,0.0,0.0,-0.11082998909254915,0.0,0.0,0.0,-3.052226955106347,-2.967952208514077,-4.550041421279126,0.004002388456179986,0.0006124351305076414,-0.3581954715336406
11084,2.0,300.21105,34600.07,0.0,0.0,-0.11083999351292328,0.0,0.0,0.0,-3.0143112376893573,-2.9596048515402575,-4.5436412270224755,0.008524890043716142,0.016900864746735484,-0.36788409806233363
11085,2.0,300.19322,34308.592000000004,0.0,0.0,-0.1108499979332972,0.0,0.0,0.0,-2.954314875418177,-2.971551475519297,-4.503088830195266,-0.0012681398501056588,0.002170425182629288,-0.3921692914240956
11086,2.0,299.69449,34625.622,0.0,0.0,-0.11086000235367155,0.0,0.0,0.0,-3.0450335886714175,-2.958072716064047,-4.522218080158176,-0.01050179317119629,-0.012315602042705287,-0.3648483095702247
11087,2.0,299.37157,34924.034,0.0,0.0,-0.11087000677404568,0.0,0.0,0.0,-3.0817770770477173,-2.992721411183607,-4.541535794639686,-0.0038237640146011266,0.0012377679823331888,-0.3627749668181016
11088,2.0,299.67337000000003,34644.678,0.0,0.0,-0.11088001119441993,0.0,0.0,0.0,-3.053613081243147,-2.959586005088397,-4.517917948058786,-0.0019744079991088977,0.02333140179088008,-0.34848182785997867
11089,2.0,300.81622999999996,34559.873,0.0,0.0,-0.11089001561479406,0.0,0.0,0.0,-3.003792384426227,-2.974110641296867,-4.527435507573095,-0.0012466402028588088,0.0032934797774161473,-0.3433860816495677
11090,2.0,300.02004,34589.432,0.0,0.0,-0.11089998712589078,0.0,0.0,0.0,-3.013963388930027,-2.991311169694427,-4.509049172583505,-0.013622225536908988,-0.00043907202047053465,-0.35138538721403767
11091,2.0,300.2347,34713.866,0.0,0.0,-0.11090999154626491,0.0,0.0,0.0,-3.030904930602027,-2.9734676327834073,-4.547775996705545,0.012242822314522488,0.012099606505638188,-0.35039381053367663
11092,2.0,299.74121,34806.16,0.0,0.0,-0.11091999596663882,0.0,0.0,0.0,-3.076047249057227,-2.968248685493337,-4.535907595634225,0.015392868940907883,0.01176304332592199,-0.34625096524730964
11093,2.0,300.58404,34639.378,0.0,0.0,-0.11093000038701306,0.0,0.0,0.0,-3.0521305950218367,-2.949683613186107,-4.527691657198376,0.016524196114811183,-0.005606555578023954,-0.35246282670787266
11094,2.0,300.61887,34438.153,0.0,0.0,-0.1109400048073872,0.0,0.0,0.0,-3.0243977371348176,-2.924039469055227,-4.519901283804526,-0.002923284699055737,-0.00919560912356096,-0.3577847810031087
11095,2.0,300.73523,34612.816,0.0,0.0,-0.11095000922776155,0.0,0.0,0.0,-3.022633466060697,-2.966647142385277,-4.532151274863505,0.01958000845539638,0.014077032976794985,-0.3568943976102346
11096,2.0,300.04259,34956.522000000004,0.0,0.0,-0.11096001364813568,0.0,0.0,0.0,-3.053687048500447,-2.967917859335687,-4.604304915809516,-0.007921880084578692,0.028264038039943373,-0.35124097880978566
11097,2.0,301.14553,34949.211,0.0,0.0,-0.11096998515923218,0.0,0.0,0.0,-3.0581034003863072,-3.010776920015547,-4.554807141799466,0.007572403133663003,0.013505379561877189,-0.3713168779436226
11098,2.0,300.65035,34605.99,0.0,0.0,-0.11097998957960631,0.0,0.0,0.0,-3.0316986094053573,-2.9717882720676676,-4.515869865631656,-0.021964860765262977,0.003461599753883297,-0.3574726189123007
11099,2.0,300.7061,34626.759,0.0,0.0,-0.11098999399998066,0.0,0.0,0.0,-3.0405138852753573,-2.9658263084792673,-4.519330013398146,0.006847125804833703,0.01007287599389046,-0.35748786832630564
11100,2.0,300.08701,34772.449,0.0,0.0,-0.11099999842035468,0.0,0.0,0.0,-3.053169784324397,-2.9927996340913268,-4.5239869108577455,-0.018968422854037582,-0.006121554126850354,-0.34498055227192964
11101,2.0,300.1497,34735.472,0.0,0.0,-0.11101000284072882,0.0,0.0,0.0,-3.0223973787873972,-2.985659260636627,-4.550659402515116,0.0065204184075151935,-0.025837171314680274,-0.36307336897255166
11102,2.0,299.96508,34635.485,0.0,0.0,-0.11102000726110295,0.0,0.0,0.0,-2.9985015977040677,-2.9858543112808773,-4.5439665816295856,-0.002859473450158057,-0.007345547075399053,-0.3505405899431627
11103,2.0,299.99222000000003,34448.724,0.0,0.0,-0.11103001168147708,0.0,0.0,0.0,-2.997032790359107,-2.965935232865017,-4.508583786812576,0.021675332655188777,0.012592178790001289,-0.3798659122173466
11104,2.0,299.94451000000004,34539.366,0.0,0.0,-0.11104001610185144,0.0,0.0,0.0,-3.0382846337303473,-2.939998766080287,-4.520821416220336,0.005711596378790675,0.01061630461799769,-0.34509790689851166
11105,2.0,300.00966,34916.387,0.0,0.0,-0.11104998761294793,0.0,0.0,0.0,-3.082787287397417,-2.989537678044397,-4.541384921699796,0.002037825499017718,0.0004007489461158417,-0.37637783927810065
11106,2.0,299.54614,34917.952000000005,0.0,0.0,-0.11105999203332206,0.0,0.0,0.0,-3.084450233461537,-2.958819785362777,-4.570915487914236,-0.007997974153838593,-0.0018903336733864084,-0.3177910902810387
11107,2.0,299.63336,34577.082,0.0,0.0,-0.1110699964536963,0.0,0.0,0.0,-3.0070051978433074,-2.9776391834451075,-4.525925055649026,0.0028525043159702574,0.008580760654230142,-0.36310936974860464
11108,2.0,300.42312000000004,34614.649,0.0,0.0,-0.11108000087407044,0.0,0.0,0.0,-3.0249907924183472,-2.9649490365426874,-4.532049037928416,-0.016137696930416685,-0.0018464702792074282,-0.34117907094425265
11109,2.0,299.67954,34864.231,0.0,0.0,-0.11109000529444457,0.0,0.0,0.0,-3.079282252651497,-2.977179978499787,-4.5413934330006365,-0.0015331736522624585,-0.011156420623552989,-0.35818187371729865
11110,2.0,299.83297999999996,34865.132000000005,0.0,0.0,-0.1111000097148187,0.0,0.0,0.0,-3.076637365915467,-2.997096321140377,-4.524395959923116,0.0017627565691955283,0.006371917688759314,-0.3480028746702096
11111,2.0,300.28828,34595.416,0.0,0.0,-0.11111001413519284,0.0,0.0,0.0,-3.047844547098837,-2.9541819370050573,-4.514116132358576,0.008647300889622152,0.006633257991651593,-0.36457244209799866
11112,2.0,300.1854,34533.81,0.0,0.0,-0.11111998564628955,0.0,0.0,0.0,-3.0268095763478473,-2.9577480707320074,-4.512858283684436,-0.005207599192925025,-0.017814594435163582,-0.35809270770849866
11113,2.0,299.86967999999996,34675.27,0.0,0.0,-0.11112999006666369,0.0,0.0,0.0,-3.0144906842820673,-2.990864630375357,-4.535060822525655,-0.0029924469217315172,-0.02211026924736368,-0.37692524764462565
11114,2.0,300.32207999999997,34885.909,0.0,0.0,-0.11113999448703793,0.0,0.0,0.0,-3.043417961386967,-2.992202829782427,-4.568824646332886,0.016402256531526684,-0.01084239921881149,-0.3636223985392366
11115,2.0,299.49985,34902.197,0.0,0.0,-0.11114999890741206,0.0,0.0,0.0,-3.049122255474937,-3.017087745613377,-4.543186379052586,0.011480329322770289,0.015341383676826685,-0.3746742821499726
11116,2.0,300.35363,34751.723,0.0,0.0,-0.11116000332778597,0.0,0.0,0.0,-3.0544603609767673,-2.9771544445972675,-4.532041134577636,0.004021169452083527,0.004747449594536796,-0.36978732625516764
11117,2.0,300.6053,34682.931000000004,0.0,0.0,-0.11117000774816033,0.0,0.0,0.0,-3.0440026066946673,-2.969043174896747,-4.529699310946516,0.0004277460324427467,-0.008828910062020582,-0.3679465446659967
11118,2.0,300.17886,34937.013999999996,0.0,0.0,-0.11118001216853446,0.0,0.0,0.0,-3.0696266884735675,-2.997290358534527,-4.553063034402336,0.007993699656966733,-0.0044252524773884154,-0.34640687404019666
11119,2.0,300.25491,35057.527,0.0,0.0,-0.11118998367963107,0.0,0.0,0.0,-3.0432748904728473,-3.0112143400837175,-4.602123388344215,-0.0018381014413314883,-0.01102896186697379,-0.36078156949886864
11120,2.0,299.94215,34698.593,0.0,0.0,-0.1111999881000052,0.0,0.0,0.0,-3.031490183859787,-2.9846159170086572,-4.5313996459393255,0.005294660275967284,-0.026949447360203372,-0.35763359395568767
11121,2.0,299.51899,34472.576,0.0,0.0,-0.11120999252037955,0.0,0.0,0.0,-3.016571596012437,-2.958721398778067,-4.503509227661755,-0.01967756721477468,-0.015809763601802182,-0.36392228003883265
11122,2.0,299.36756,34807.097,0.0,0.0,-0.11121999694075368,0.0,0.0,0.0,-3.088429367929247,-2.978217039977137,-4.513841946881516,-0.0007059120017255903,0.014095022219070386,-0.3397904826097096
11123,2.0,299.80967000000004,34946.029,0.0,0.0,-0.1112300013611276,0.0,0.0,0.0,-3.070209712581107,-3.000555556981777,-4.551954944092975,-0.015733061582482288,0.015906881597386985,-0.35510611250874463
11124,2.0,299.04162,34694.715,0.0,0.0,-0.11124000578150184,0.0,0.0,0.0,-3.031884338148687,-2.968220719790577,-4.546221772377155,-0.0005291689629324105,0.0014894750125497385,-0.3513420099772567
11125,2.0,300.21971,34821.687000000005,0.0,0.0,-0.11125001020187597,0.0,0.0,0.0,-3.0242552741707573,-2.9964611146526874,-4.564206860327145,-0.0021252002842909383,0.0003563409097431097,-0.3682263942111157
11126,2.0,300.41303999999997,34957.916,0.0,0.0,-0.11126001462225033,0.0,0.0,0.0,-3.0821064846552266,-2.977654078221577,-4.566573001960666,0.019070476390859483,0.014264345430031286,-0.3561838965076137
11127,2.0,300.24946,34932.352,0.0,0.0,-0.11126998613334682,0.0,0.0,0.0,-3.078268597251457,-2.979703173898807,-4.560590976020286,0.027770085708944073,0.006404114318636874,-0.3650192347295937
11128,2.0,300.13599999999997,34942.082,0.0,0.0,-0.11127999055372095,0.0,0.0,0.0,-3.065916166607367,-2.999054426958627,-4.556549931971466,0.003452744758609377,0.00857696805910584,-0.37872232775698367
11129,2.0,300.40582,34804.357,0.0,0.0,-0.11128999497409509,0.0,0.0,0.0,-3.064711716213497,-2.9612707360296673,-4.553673112287545,-0.0033335137954921966,0.01133416900909539,-0.3515350138563047
11130,2.0,299.83624,34678.483,0.0,0.0,-0.11129999939446944,0.0,0.0,0.0,-3.0252824057971273,-2.994358114070137,-4.521752491737225,0.005281680643511295,0.014801906018834386,-0.38055196359505467
11131,2.0,300.09507,34818.206,0.0,0.0,-0.11131000381484346,0.0,0.0,0.0,-3.026659615333047,-2.989438379534597,-4.567767218528525,-0.016412657543803184,0.01731897936075018,-0.36134242369422065
11132,2.0,299.64732999999995,34893.864,0.0,0.0,-0.1113200082352176,0.0,0.0,0.0,-3.0482330271871767,-3.005942095838387,-4.552688131865336,-0.0029829599623702268,-0.008834673732564413,-0.38095172115700765
11133,2.0,299.24762999999996,34816.74,0.0,0.0,-0.11133001265559173,0.0,0.0,0.0,-3.046939005484467,-2.990040756719047,-4.546439823798675,-0.018659102929760085,0.0015521105873563888,-0.35117081124036065
11134,2.0,299.90904,34838.244,0.0,0.0,-0.11133998416668844,0.0,0.0,0.0,-3.0738485976652368,-2.9788529557398973,-4.537254711642176,-0.0005954211313209904,0.005130661390306855,-0.36412647019898464
11135,2.0,299.79438999999996,35025.472,0.0,0.0,-0.11134998858706258,0.0,0.0,0.0,-3.098880333435677,-2.9834563535942173,-4.564532214934256,0.0013522925000608787,0.0010651823087003088,-0.33037181630515966
11136,2.0,300.52735,35103.399,0.0,0.0,-0.11135999300743671,0.0,0.0,0.0,-3.071880865971037,-3.0084546521113573,-4.590221347369575,0.007515475500644682,-0.008914672361084662,-0.34910410527639263
11137,2.0,300.97261000000003,35103.43,0.0,0.0,-0.11136999742781084,0.0,0.0,0.0,-3.0656076319519174,-3.011658143627517,-4.5933004117734555,0.005455532069169095,0.015536913588373986,-0.34135678487929166
11138,2.0,300.32262000000003,35040.138,0.0,0.0,-0.11138000184818508,0.0,0.0,0.0,-3.0900107473603176,-2.9934090027014673,-4.567907148367336,-0.005799756635541414,0.012457177399677688,-0.3469031740716777
11139,2.0,300.17112000000003,34909.322,0.0,0.0,-0.11139000626855922,0.0,0.0,0.0,-3.058236744099467,-2.990036906368667,-4.563288551761516,-0.010768945679312188,-0.0025655003132201678,-0.36259352412269463
11140,2.0,300.36973,34777.333,0.0,0.0,-0.11140001068893335,0.0,0.0,0.0,-3.038840806710237,-2.9806243195647175,-4.551975817045036,-0.012667074184392887,-0.0032261793004741066,-0.3670782906553066
11141,2.0,300.02965,34942.664,0.0,0.0,-0.11141001510930748,0.0,0.0,0.0,-3.051093229569457,-2.9999320028702368,-4.570671902590195,0.003511496039157677,0.004070332448260536,-0.35720415829830565
11142,2.0,300.37169,34940.125,0.0,0.0,-0.11141998662040398,0.0,0.0,0.0,-3.0548079057610673,-3.001295938829847,-4.564821801812836,0.01872396512166148,0.0026119349308529076,-0.36895471838299565
11143,2.0,299.66266,34634.794,0.0,0.0,-0.11142999104077833,0.0,0.0,0.0,-3.019719662748127,-2.977197203751487,-4.531195881344216,0.00030811145128073264,-0.007780242108750112,-0.37562633194393263
11144,2.0,299.13001,34806.945,0.0,0.0,-0.11143999546115246,0.0,0.0,0.0,-3.055854289139337,-2.992210429158177,-4.5323773309608155,0.0095698615592968,-0.015359188507583884,-0.36632310522327566
11145,2.0,299.7488,35212.082,0.0,0.0,-0.1114499998815267,0.0,0.0,0.0,-3.092724839078177,-3.0291625457300673,-4.581706196179195,0.015884528286930884,-0.00852575069835108,-0.3539404695937047
11146,2.0,300.09805,35135.212999999996,0.0,0.0,-0.11146000430190084,0.0,0.0,0.0,-3.095690824770897,-3.028223566862397,-4.556313135423095,0.012962314998530887,0.0047855309783451355,-0.36498277799099565
11147,2.0,300.91511,34855.566,0.0,0.0,-0.11147000872227475,0.0,0.0,0.0,-3.048970875909997,-2.985785815574117,-4.560464927707846,-0.005190154876553404,0.00035255636995710474,-0.35889584013526166
11148,2.0,301.12417999999997,34857.595,0.0,0.0,-0.1114800131426491,0.0,0.0,0.0,-3.0440482029491673,-2.9883745682546072,-4.563415511999046,0.0005209606441373125,-0.0004790427002828335,-0.36490538594835764
11149,2.0,300.57861,34846.443999999996,0.0,0.0,-0.1114899846537456,0.0,0.0,0.0,-3.0540851544647367,-2.982507546200577,-4.555856260953005,-0.004296960829227016,0.016958275497401483,-0.35583672662585064
11150,2.0,300.23913999999996,35031.192,0.0,0.0,-0.11149998907411984,0.0,0.0,0.0,-3.077927435942787,-3.0131718379519072,-4.557508263916046,0.008539417618349901,0.002025966318522308,-0.37483048478538866
11151,2.0,300.59952000000004,35058.744,0.0,0.0,-0.11150999349449398,0.0,0.0,0.0,-3.0769171242680766,-3.011477278484667,-4.568588356409566,-0.008567491941520622,-0.0027097073846772974,-0.36100420081084067
11152,2.0,299.96858,34762.957,0.0,0.0,-0.11151999791486833,0.0,0.0,0.0,-3.052768638609807,-2.9740512648410076,-4.5402509935128865,0.00995852778168017,-0.013241822065116088,-0.35937676916272565
11153,2.0,300.14834,34867.291,0.0,0.0,-0.11153000233524246,0.0,0.0,0.0,-3.038382412364997,-2.998390140193067,-4.562013275185656,0.002175294963934898,0.0068922885909409246,-0.3335297824943267
11154,2.0,299.85436,35195.534,0.0,0.0,-0.11154000675561637,0.0,0.0,0.0,-3.083469711339767,-3.025620628680507,-4.589473163495736,0.0004662212361674536,0.0028158475618025175,-0.35727994940578567
11155,2.0,300.09652,35184.629,0.0,0.0,-0.11155001117599062,0.0,0.0,0.0,-3.0974545892199674,-3.0127829525635272,-4.585011012705355,-0.02223853556427258,-0.011676295945110689,-0.34584513831725766
11156,2.0,300.19894,34881.84,0.0,0.0,-0.11156001559636475,0.0,0.0,0.0,-3.0570324963556175,-2.999610599938517,-4.546565264161056,-0.0004057953065163786,0.0017025395210525684,-0.37703416189787464
11157,2.0,300.2408,34835.032,0.0,0.0,-0.11156998710746147,0.0,0.0,0.0,-3.0513047961903372,-2.984385503935917,-4.553289799774716,0.001082780335112099,0.0017039423658160183,-0.3555364094287117
11158,2.0,299.66826000000003,35067.398,0.0,0.0,-0.1115799915278356,0.0,0.0,0.0,-3.069092503020847,-3.0098443246235074,-4.580676531427576,0.02482456868149418,0.001955356364103648,-0.38553424605926767
11159,2.0,299.50561,35165.003,0.0,0.0,-0.11158999594820973,0.0,0.0,0.0,-3.052901880997957,-3.019852601161247,-4.6165283597158755,-0.010440315234628891,-0.002302082138347818,-0.3569406727423017
11160,2.0,300.23426,34991.376000000004,0.0,0.0,-0.11160000036858386,0.0,0.0,0.0,-3.0647093857382672,-2.9893685666027072,-4.582426718325305,0.03198752545442297,0.006749774964375924,-0.3776976481958556
11161,2.0,300.40418,34946.123,0.0,0.0,-0.111610004788958,0.0,0.0,0.0,-3.069883547373917,-2.985304217801587,-4.567561123458186,-0.015595853333440884,0.01129171484315549,-0.3478749417125837
11162,2.0,300.79216,34981.926,0.0,0.0,-0.11162000920933224,0.0,0.0,0.0,-3.078677139691777,-3.011780341589577,-4.543174524026416,-0.005625417836585515,0.0020622820127063884,-0.38225677715330664
11163,2.0,301.01746,35169.128,0.0,0.0,-0.11163001362970637,0.0,0.0,0.0,-3.090888323271927,-3.0106808639060674,-4.588967551695836,-0.017033355303311286,-0.005499369828120546,-0.35549415689954167
11164,2.0,300.00442000000004,35196.183,0.0,0.0,-0.11163998514080287,0.0,0.0,0.0,-3.122787158945097,-3.0015715428570475,-4.5744019801833256,-0.01061876580249059,5.0681658466640254e-05,-0.3423728822120727
11165,2.0,299.91267999999997,35044.178,0.0,0.0,-0.11164998956117722,0.0,0.0,0.0,-3.064322932150127,-3.0010797112585075,-4.587152516791705,0.003895382456844316,0.005125903877112326,-0.3436526069558717
11166,2.0,300.20047,34946.967000000004,0.0,0.0,-0.11165999398155135,0.0,0.0,0.0,-3.069656782001537,-3.0044552526416473,-4.548893206265806,-0.004140330804918837,-0.0027789887655648377,-0.35819254324085165
11167,2.0,299.73508,35078.258,0.0,0.0,-0.11166999840192549,0.0,0.0,0.0,-3.061349752381697,-3.017283809507727,-4.584280864683296,0.006912355806521405,0.015149481200637385,-0.36672975288590864
11168,2.0,299.63009,35235.582,0.0,0.0,-0.11168000282229962,0.0,0.0,0.0,-3.0959638956728472,-3.026389077556347,-4.588384122288255,0.01031795008630239,0.0014842838283124088,-0.36056893896538367
11169,2.0,299.96685,35037.233,0.0,0.0,-0.11169000724267386,0.0,0.0,0.0,-3.062941466963787,-2.993900732974997,-4.593601752353195,0.003964415490132346,0.009177701447918612,-0.3516723497748587
11170,2.0,299.48528,34913.364,0.0,0.0,-0.111700011663048,0.0,0.0,0.0,-3.0384406742457473,-3.0064373724872673,-4.567912822567895,-0.01102713801679379,-0.004233479291911876,-0.3637259526994567
11171,2.0,300.20183,35064.541,0.0,0.0,-0.11171001608342213,0.0,0.0,0.0,-3.048181351432077,-3.003638573061047,-4.6069248765930855,-0.008807510929183651,-0.0026815334590217475,-0.3437040800609517
11172,2.0,300.05784,35132.689,0.0,0.0,-0.11171998759451862,0.0,0.0,0.0,-3.089337240018847,-3.0042019401166473,-4.585921215270186,-0.0075977023674598425,0.005211723627457075,-0.35698528614420466
11173,2.0,300.23126,35160.718,0.0,0.0,-0.11172999201489275,0.0,0.0,0.0,-3.094032438332227,-3.0067074036389174,-4.587240365575376,0.004611287424898636,0.004917250046294795,-0.36112159596742666
11174,2.0,300.53626,35097.183,0.0,0.0,-0.11173999643526711,0.0,0.0,0.0,-3.085668058756727,-3.0222807537008873,-4.5607183415578545,0.00968259738662296,0.004547378903991355,-0.38961379361188764
11175,2.0,300.17515,35015.852999999996,0.0,0.0,-0.11175000085564124,0.0,0.0,0.0,-3.068773734539387,-3.005460194090827,-4.569710936195355,0.014523268320834984,-0.0024136820109868676,-0.3590182204823397
11176,2.0,299.6451,35183.797999999995,0.0,0.0,-0.11176000527601548,0.0,0.0,0.0,-3.080012603323577,-3.026481789940497,-4.5885016592998555,0.007809790204191282,0.0027004597549896273,-0.36234354519052364
11177,2.0,300.26107,35258.297999999995,0.0,0.0,-0.11177000969638962,0.0,0.0,0.0,-3.099262835348427,-3.018581377585787,-4.599798080689726,-0.001916414426985378,-0.01094067333276039,-0.3400337031637137
11178,2.0,299.91044,34996.818,0.0,0.0,-0.11178001411676353,0.0,0.0,0.0,-3.066495745664567,-3.0141795151763575,-4.557483439288596,-0.011609728453290988,0.006556101124361804,-0.37270374375299564
11179,2.0,299.91199,34862.562999999995,0.0,0.0,-0.11178998562786024,0.0,0.0,0.0,-3.042274204674087,-2.999242790152217,-4.555831740300586,-0.012093830980068188,0.008897336462473742,-0.3561354732853347
11180,2.0,299.91845,35046.974,0.0,0.0,-0.11179999004823438,0.0,0.0,0.0,-3.087007879363957,-2.992817061993047,-4.573580133027216,-0.006120518179948114,0.0007125196994702194,-0.35018551671061965
11181,2.0,299.5465,35247.279,0.0,0.0,-0.11180999446860862,0.0,0.0,0.0,-3.104702569835287,-3.0122029682062874,-4.597387356051805,0.005982975963673754,-0.0014917819803774188,-0.3617949918513857
11182,2.0,299.65348,35169.067,0.0,0.0,-0.11181999888898275,0.0,0.0,0.0,-3.0887644497373175,-3.020212710246787,-4.581541239062916,0.002010226998093958,0.002195904876268938,-0.36006504969065367
11183,2.0,299.89984,34985.752,0.0,0.0,-0.1118300033093571,0.0,0.0,0.0,-3.0557888331828766,-3.008706951386257,-4.570299229203416,0.008450627525337002,-0.002339851745100388,-0.3617896621558596
11184,2.0,299.9767,35055.835,0.0,0.0,-0.11184000772973124,0.0,0.0,0.0,-3.078440343143407,-3.018133825016617,-4.5595242263150055,-0.01015068073329419,-0.0008068116290686082,-0.35411764650619065
11185,2.0,300.64855,35277.594,0.0,0.0,-0.11185001215010515,0.0,0.0,0.0,-3.100760824296267,-3.0395079305760766,-4.583239040930475,-0.00860887165705448,-0.012853816177822887,-0.38917364790094866
11186,2.0,300.52873999999997,35353.387,0.0,0.0,-0.11185998366120187,0.0,0.0,0.0,-3.116404595240187,-3.0448419830775073,-4.585300396933915,-0.007398744833474262,0.007467923065501623,-0.36668535226652665
11187,2.0,299.90042,35048.024,0.0,0.0,-0.111869988081576,0.0,0.0,0.0,-3.051735427482837,-3.0233642220328174,-4.578624396000046,-0.005798960828912875,0.008370709247549681,-0.38439598116192963
11188,2.0,300.61001,34891.653,0.0,0.0,-0.11187999250195024,0.0,0.0,0.0,-3.041065498629797,-2.994291239563537,-4.570834630556256,0.021294735652626778,0.004090653381666056,-0.35579230574146664
11189,2.0,300.3079,35163.466,0.0,0.0,-0.11188999692232438,0.0,0.0,0.0,-3.0750101875798768,-3.014199780178357,-4.599605765820745,-0.004218396557548326,-0.009245362337921222,-0.37561434519524967
11190,2.0,299.63755,35401.4,0.0,0.0,-0.11190000134269851,0.0,0.0,0.0,-3.115398133915857,-3.0258926863323574,-4.619850705468766,0.018215656049995282,-0.012912360755350788,-0.37179844531864964
11191,2.0,299.52153,35267.097,0.0,0.0,-0.11191000576307264,0.0,0.0,0.0,-3.0915664915638574,-3.0158747839186675,-4.612875593105375,0.009390774366397271,-0.02056127531598988,-0.35007587291729864
11192,2.0,299.16235,35087.305,0.0,0.0,-0.11192001018344677,0.0,0.0,0.0,-3.063092238578667,-3.007329336550297,-4.595242913540166,0.0005754660014665724,-0.007905586111045602,-0.3569976579279257
11193,2.0,299.4364,35242.363,0.0,0.0,-0.11193001460382102,0.0,0.0,0.0,-3.0925156029325267,-3.019779444504027,-4.600503302759325,-0.002137451389925028,-0.028788735418726973,-0.3569621435119207
11194,2.0,299.96882,35446.487,0.0,0.0,-0.11193998611491762,0.0,0.0,0.0,-3.121210845764527,-3.037230347001297,-4.616405655128766,-0.01347067979895259,0.002344819710340688,-0.36398139304966665
11195,2.0,300.01236,35256.488,0.0,0.0,-0.11194999053529164,0.0,0.0,0.0,-3.097454791869987,-3.0264406519864373,-4.593196452313196,0.0004778319272083396,0.01020868220876849,-0.35460585066937267
11196,2.0,300.00632,35015.263,0.0,0.0,-0.111959994955666,0.0,0.0,0.0,-3.0662013965105173,-2.9991407558671472,-4.578423468505216,-0.0054012632044131755,0.00977800167231363,-0.36321650068167766
11197,2.0,300.692,35156.308,0.0,0.0,-0.11196999937604013,0.0,0.0,0.0,-3.072835246240227,-3.0360967227894173,-4.577707809959586,-0.005223036868798605,-0.0018273061734410782,-0.3639238607089887
11198,2.0,300.42629,35342.267,0.0,0.0,-0.11198000379641426,0.0,0.0,0.0,-3.109340012892967,-3.022754954747687,-4.611071602627336,-0.0007363829653578403,0.0004653702580709686,-0.36600032427141965
11199,2.0,300.23548,35427.288,0.0,0.0,-0.1119900082167884,0.0,0.0,0.0,-3.097601409159457,-3.0513573838705272,-4.620052038263636,0.0016617467813016384,0.0023419463357071076,-0.35837617455647464
11200,2.0,300.62844,35134.117999999995,0.0,0.0,-0.11200001263716264,0.0,0.0,0.0,-3.0891650888268574,-3.002645486638037,-4.5880840989336455,-0.01095640404056289,0.0015776416527761084,-0.35560337512782064
11201,2.0,300.44886,34970.621,0.0,0.0,-0.11200998414825925,0.0,0.0,0.0,-3.0464982416909674,-3.0135106687853472,-4.570186555792296,0.0013160428697833188,-0.01090897481663199,-0.3895930827798436
11202,2.0,299.96801,35097.217000000004,0.0,0.0,-0.11201998856863349,0.0,0.0,0.0,-3.090262742660187,-3.010381549826527,-4.568033095354766,-0.004488196586850516,0.013646526314057288,-0.37048727942424764
11203,2.0,299.96137999999996,35266.171,0.0,0.0,-0.1120299929890074,0.0,0.0,0.0,-3.0904768424063174,-3.022724253269657,-4.606834089384126,0.005181728891371825,0.005767355430468664,-0.38105295497449865
11204,2.0,300.01766000000003,35254.223,0.0,0.0,-0.11203999740938153,0.0,0.0,0.0,-3.1002268414935674,-3.020911852815787,-4.595264799742326,-0.006024998789046084,-0.0008178471790877321,-0.34676968850350365
11205,2.0,299.59531,35117.536,0.0,0.0,-0.11205000182975589,0.0,0.0,0.0,-3.0613356682053072,-3.024924728511827,-4.588593662408936,0.007077664520586104,-0.011784110822001188,-0.37497179264433467
11206,2.0,299.8741,35370.857,0.0,0.0,-0.11206000625013002,0.0,0.0,0.0,-3.116997042573657,-3.020423668917607,-4.614436606209436,0.0072820921865615435,0.0003575302525779887,-0.33410996950158667
11207,2.0,299.66937,35522.459,0.0,0.0,-0.11207001067050426,0.0,0.0,0.0,-3.1189565669420474,-3.0540402674853073,-4.6249438070964155,0.01782763293745038,0.008916736959488423,-0.3563616408401557
11208,2.0,300.35025,35455.22,0.0,0.0,-0.11208001509087817,0.0,0.0,0.0,-3.117663254514407,-3.026608851503037,-4.633229457139145,-0.005056411537553965,-0.002162267607399198,-0.3364537993679047
11209,2.0,300.30465,35322.184,0.0,0.0,-0.11208998660197511,0.0,0.0,0.0,-3.102528743070747,-3.0300460998172674,-4.604487199502505,0.018095808828167283,-0.00990987130922815,-0.3752828604250346
11210,2.0,300.23292999999995,35237.551,0.0,0.0,-0.11209999102234902,0.0,0.0,0.0,-3.086998152162997,-3.0318674168720174,-4.592469951991496,-0.010070669033847651,0.008069022034950472,-0.35447303384626466
11211,2.0,300.46673,35081.256,0.0,0.0,-0.11210999544272315,0.0,0.0,0.0,-3.0771231180134073,-2.994283741512797,-4.592418985511466,0.019212633353389283,0.018191176940829383,-0.36596189169512666
11212,2.0,300.28132,35241.832,0.0,0.0,-0.1121199998630974,0.0,0.0,0.0,-3.0820264378973268,-3.029130121726867,-4.601480278505745,-0.016709500306349285,0.01896437795963838,-0.3650732004299197
11213,2.0,300.40989,35346.42,0.0,0.0,-0.11213000428347153,0.0,0.0,0.0,-3.089899492499337,-3.037631796690917,-4.616897790702336,0.005944412779442864,-0.0011406222236956488,-0.37557205213607564
11214,2.0,300.11884,35253.8,0.0,0.0,-0.11214000870384588,0.0,0.0,0.0,-3.074919501695927,-3.0362592481054573,-4.605095960162586,-0.008306209697859071,0.016863857813333185,-0.36926419536103866
11215,2.0,299.74362,35278.293,0.0,0.0,-0.11215001312422002,0.0,0.0,0.0,-3.088155689077237,-3.036204735250077,-4.599359748696466,-0.001154924856807209,0.013208642177341487,-0.3748536983451796
11216,2.0,300.21939,35464.0,0.0,0.0,-0.11215998463531651,0.0,0.0,0.0,-3.118481453970157,-3.021444417068347,-4.640244592881486,-0.001993722572515098,0.004898578278752035,-0.35707041941760664
11217,2.0,300.27353999999997,35352.138999999996,0.0,0.0,-0.11216998905569064,0.0,0.0,0.0,-3.0879566867575967,-3.050503315361237,-4.607707713620346,1.7189771734498383e-05,-0.015560303453682386,-0.37211905791529165
11218,2.0,299.51203,35110.981,0.0,0.0,-0.11217999347606478,0.0,0.0,0.0,-3.060340555282097,-3.012038619040067,-4.600482227157245,0.003434756630909087,-0.0004325613211579786,-0.35792440686688864
11219,2.0,299.8112,35260.558,0.0,0.0,-0.11218999789643902,0.0,0.0,0.0,-3.075274443205957,-3.027325117998727,-4.615729412012025,0.00988925207499319,-0.0033682844859237965,-0.36068342609418264
11220,2.0,299.55472000000003,35336.407999999996,0.0,0.0,-0.11220000231681315,0.0,0.0,0.0,-3.1059033725287972,-3.028613769475907,-4.606868539887525,0.0038954908746050166,-0.003097834051382417,-0.35347757641802063
11221,2.0,299.44075,35356.712,0.0,0.0,-0.11221000673718728,0.0,0.0,0.0,-3.098840006081697,-3.0254005507587873,-4.623317135385875,-0.008091592788878032,-0.004680528985057246,-0.3783646808691867
11222,2.0,299.20302999999996,35407.949,0.0,0.0,-0.11222001115756142,0.0,0.0,0.0,-3.105254689814777,-3.044373962856317,-4.613503808167375,0.011550632667708689,0.0031655163209621372,-0.3570593547265147
11223,2.0,300.10998,35295.772000000004,0.0,0.0,-0.11223001557793555,0.0,0.0,0.0,-3.090568136240327,-3.022558384228287,-4.615906933429546,0.008142346182412002,0.012882437453397589,-0.37153814136795965
11224,2.0,300.06206000000003,35313.26,0.0,0.0,-0.11223998708903227,0.0,0.0,0.0,-3.0909376685517973,-3.011131456225537,-4.632280244445465,0.008137512168834923,0.0015257930372090485,-0.35637477256145167
11225,2.0,300.49727,35421.337,0.0,0.0,-0.1122499915094064,0.0,0.0,0.0,-3.1099920393323175,-3.053381553595297,-4.603828282962476,-0.017542028131763383,-0.011262205960493188,-0.37356759012575064
11226,2.0,300.44567,35274.657,0.0,0.0,-0.11225999592978042,0.0,0.0,0.0,-3.107935141629317,-3.015332897765187,-4.599346880420195,-0.007095550917976354,-0.00986513945838846,-0.36066796389765665
11227,2.0,300.61306,35125.903,0.0,0.0,-0.11227000035015477,0.0,0.0,0.0,-3.069221084458537,-3.028761703990507,-4.579414528428026,-0.015715022690951985,0.0008431238275398433,-0.37238224962876665
11228,2.0,300.26205,35320.468,0.0,0.0,-0.11228000477052891,0.0,0.0,0.0,-3.090305907114447,-3.047316339821707,-4.598918174302886,0.0025921468656749775,0.0011524282085608089,-0.36653153076884565
11229,2.0,300.1122,35564.735,0.0,0.0,-0.11229000919090304,0.0,0.0,0.0,-3.1062073475587972,-3.0659227527330173,-4.638661389600236,-0.00038044195503169763,-0.014198191344252386,-0.35855180119630764
11230,2.0,299.67458,35430.253,0.0,0.0,-0.11230001361127717,0.0,0.0,0.0,-3.0749412865730767,-3.075867498489487,-4.619103534845025,0.011452776012800989,-0.00047842011889138953,-0.36799298191807966
11231,2.0,299.20937000000004,35259.303,0.0,0.0,-0.11230998512237389,0.0,0.0,0.0,-3.061163922313357,-3.029742226112277,-4.627041640103456,0.00859435076987138,-0.0035046760553845966,-0.36574560332878064
11232,2.0,299.24708,35384.741,0.0,0.0,-0.11231998954274802,0.0,0.0,0.0,-3.0997730067737765,-3.035990635503947,-4.620314166064505,0.014417247909871585,0.0013745327318058188,-0.36493211548599563
11233,2.0,299.36017000000004,35317.856,0.0,0.0,-0.11232999396312227,0.0,0.0,0.0,-3.1084627409563867,-3.0265230292195673,-4.6007606682847255,-0.0024185070066380576,-0.01035873542932759,-0.37992932140860464
11234,2.0,299.59961,35312.833,0.0,0.0,-0.11233999838349618,0.0,0.0,0.0,-3.111089895815667,-3.014866093444117,-4.6082633799751855,0.0007351756981286924,0.003167935252925867,-0.3743287739983736
11235,2.0,300.17511,35387.336,0.0,0.0,-0.11235000280387031,0.0,0.0,0.0,-3.0968108714314373,-3.0441181172060676,-4.615937533582566,-0.016205179387076683,0.00920206200682281,-0.3713446713938656
11236,2.0,300.06338999999997,35285.05,0.0,0.0,-0.11236000722424466,0.0,0.0,0.0,-3.0975140670008368,-3.0082260628887973,-4.620034103736866,-0.0007364390690158773,0.0055694517779120946,-0.3578916586236566
11237,2.0,299.83664,35446.42,0.0,0.0,-0.1123700116446188,0.0,0.0,0.0,-3.116294353629307,-3.035189965274927,-4.623342365313365,-0.012775544634098088,0.0031260364493657772,-0.3564527826866507
11238,2.0,300.08135,35626.256,0.0,0.0,-0.11238001606499304,0.0,0.0,0.0,-3.153550242581177,-3.0425046177468267,-4.633437274734655,-0.011773698663973589,0.0013564046742667187,-0.3454402435772977
11239,2.0,299.76785,35542.357,0.0,0.0,-0.11238998757608953,0.0,0.0,0.0,-3.1370235255001173,-3.0353256394633172,-4.631639971707275,0.011356136271263388,0.003658724115787957,-0.3411692018882787
11240,2.0,300.88425,35441.595,0.0,0.0,-0.11239999199646389,0.0,0.0,0.0,-3.109010199985417,-3.041961009068177,-4.622388694319246,-0.0002302389659753168,-0.0060658992372826445,-0.36493395960117764
11241,2.0,300.2247,35478.145,0.0,0.0,-0.1124099964168378,0.0,0.0,0.0,-3.091096647492487,-3.044288039247837,-4.649085503979015,0.012937479225329788,-0.0098977249736544,-0.3570126438969047
11242,2.0,299.85977,35456.943,0.0,0.0,-0.11242000083721193,0.0,0.0,0.0,-3.1006002241554174,-3.040603963209247,-4.636821023443606,0.0007831487536532643,-0.0068792410707282335,-0.37002233948336166
11243,2.0,300.25987000000003,35398.435,0.0,0.0,-0.11243000525758617,0.0,0.0,0.0,-3.0895772789675373,-3.031552397415927,-4.639110766019586,0.0027742730995994375,0.016404655907763487,-0.35809508884623364
11244,2.0,299.48286,35397.038,0.0,0.0,-0.1124400096779603,0.0,0.0,0.0,-3.0978042618294768,-3.0353165202124175,-4.6266948045942256,-0.0016786869044234985,0.0014134366720453386,-0.37574995858863364
11245,2.0,299.1099,35397.466,0.0,0.0,-0.11245001409833466,0.0,0.0,0.0,-3.115343621060477,-3.038965943097587,-4.605636123790895,-0.004969073229284345,-0.0035914755172510365,-0.3690355757409757
11246,2.0,300.41945,35332.925,0.0,0.0,-0.11245998560943116,0.0,0.0,0.0,-3.089101558045587,-3.036095810864327,-4.615129567952825,-0.00989765313422231,-0.009132015824759792,-0.3716319885922217
11247,2.0,299.50124,35374.49,0.0,0.0,-0.11246999002980529,0.0,0.0,0.0,-3.080077046029937,-3.0483549211742074,-4.624529489130525,0.0023005593247725276,0.015927153692137687,-0.3752468393839796
11248,2.0,299.60756000000003,35625.325,0.0,0.0,-0.11247999445017942,0.0,0.0,0.0,-3.1193525450811266,-3.0567751308302173,-4.653081661048405,-0.006732305519401824,0.016939994439097283,-0.3483346431504527
11249,2.0,300.17247000000003,35545.988,0.0,0.0,-0.11248999887055355,0.0,0.0,0.0,-3.117629006661027,-3.0412931759272674,-4.646170484766325,-0.0005083791075131115,-0.0030158472235159474,-0.35979748073674667
11250,2.0,299.4424,35390.263999999996,0.0,0.0,-0.1125000032909278,0.0,0.0,0.0,-3.105249116939227,-3.046154141957007,-4.606353403536686,-0.0008594832367643912,-0.0015826769991480587,-0.36107336526266665
11251,2.0,300.27069,35493.016,0.0,0.0,-0.11251000771130193,0.0,0.0,0.0,-3.126083464170417,-3.0269914547407972,-4.635915785804266,0.007400094482607463,0.0025826230240100475,-0.35874194771007367
11252,2.0,300.27375,35662.864,0.0,0.0,-0.11252001213167606,0.0,0.0,0.0,-3.131426838572767,-3.065933391859067,-4.643259822529066,0.009304848528767052,-0.0012854190067109787,-0.36936433486842163
11253,2.0,300.09997000000004,35622.562000000005,0.0,0.0,-0.11252998364277278,0.0,0.0,0.0,-3.132446066848357,-3.053130166245487,-4.642793018207996,0.002397066026571998,-0.0055956300061706845,-0.3665721013028496
11254,2.0,300.43393,35443.745,0.0,0.0,-0.11253998806314691,0.0,0.0,0.0,-3.1271113050718573,-3.0232543857219767,-4.623647758893505,0.007135026331272274,0.005457780876441035,-0.36432700252627565
11255,2.0,300.11899,35412.2,0.0,0.0,-0.11254999248352104,0.0,0.0,0.0,-3.1136848293217674,-3.043454641040587,-4.607285188328645,-0.008278094642034332,0.029559858261580873,-0.36362465808695965
11256,2.0,300.58758,35507.589,0.0,0.0,-0.11255999690389518,0.0,0.0,0.0,-3.1304005175464766,-3.0447694343703473,-4.618250682235855,-0.0029727190436095274,0.013070293008687488,-0.36218597466747265
11257,2.0,300.71421000000004,35655.516,0.0,0.0,-0.1125700013242692,0.0,0.0,0.0,-3.1344718577732866,-3.073218254778027,-4.630696433214156,-0.015578953335022985,-0.008228473758137133,-0.3640100376299937
11258,2.0,299.50356,35541.778,0.0,0.0,-0.11258000574464355,0.0,0.0,0.0,-3.103614237902877,-3.0658748260032866,-4.634323868572155,0.012200552560100789,-0.013842823255930288,-0.38121710149069865
11259,2.0,299.73655,35376.748999999996,0.0,0.0,-0.11259001016501768,0.0,0.0,0.0,-3.081745970269647,-3.041536153301247,-4.630366417656586,0.0026289172051789274,0.007132419036114952,-0.3665144980346646
11260,2.0,299.29323,35444.564,0.0,0.0,-0.11260001458539182,0.0,0.0,0.0,-3.1039253056835765,-3.0580088641519767,-4.612328134076346,0.008178129514993542,0.0033412425632799664,-0.3761941370349706
11261,2.0,299.36638,35600.303,0.0,0.0,-0.11260998609648831,0.0,0.0,0.0,-3.123250011590777,-3.0483301978717674,-4.650023064296546,-0.02470523821721718,-0.01049531748980719,-0.35099133425014767
11262,2.0,300.54101,35549.022000000004,0.0,0.0,-0.11261999051686267,0.0,0.0,0.0,-3.120452326739667,-3.052007991759737,-4.633554609096236,1.121336223942269e-05,-0.007420245797946243,-0.3640958295159607
11263,2.0,300.03189,35427.323,0.0,0.0,-0.1126299949372368,0.0,0.0,0.0,-3.0866345980271173,-3.056734904801247,-4.625652068916316,-0.016190805421158087,0.008264790465571312,-0.3505795088795037
11264,2.0,299.87879,35461.782999999996,0.0,0.0,-0.11263999935761082,0.0,0.0,0.0,-3.1051906524084574,-3.046293767820787,-4.628012131049236,0.02701250090067627,-0.0047845241117207655,-0.36717316126216965
11265,2.0,300.29611,35589.418,0.0,0.0,-0.11265000377798495,0.0,0.0,0.0,-3.1149655774481673,-3.068110764998957,-4.635217859135386,-0.005415822189800036,-0.013615025381698386,-0.3687107682889197
11266,2.0,300.05634,35592.035,0.0,0.0,-0.11266000819835909,0.0,0.0,0.0,-3.136471608170647,-3.050629870298727,-4.631988529741675,0.024677821696011376,0.008863897283998553,-0.36921011820320165
11267,2.0,299.97634,35604.685,0.0,0.0,-0.11267001261873344,0.0,0.0,0.0,-3.132620447190567,-3.050283845389577,-4.6400309997604055,0.0024409011510731875,0.021507488789373877,-0.3563944093483897
11268,2.0,299.64074,35610.33,0.0,0.0,-0.11267998412982994,0.0,0.0,0.0,-3.134458178896937,-3.047819621146377,-4.642373228691565,-0.0006304943782324503,0.00954083883403248,-0.36523520898840867
11269,2.0,299.52949,35655.117999999995,0.0,0.0,-0.11268998855020407,0.0,0.0,0.0,-3.104270216017617,-3.0601755981658174,-4.673819850845105,-0.015818007404615784,-0.018213595099291883,-0.36298360514619266
11270,2.0,299.37712999999997,35820.373,0.0,0.0,-0.11269999297057831,0.0,0.0,0.0,-3.137529137300017,-3.084541527295547,-4.666428292690616,-0.01316956112098449,-0.0061416032052540445,-0.36204514303607366
11271,2.0,299.84226,35705.523,0.0,0.0,-0.11270999739095267,0.0,0.0,0.0,-3.126627174174077,-3.0688247010194174,-4.658135549897186,0.0008199025771805843,-0.002328745105454248,-0.3592706818772557
11272,2.0,300.27674,35441.55,0.0,0.0,-0.11272000181132658,0.0,0.0,0.0,-3.1076979397809072,-3.056877063790277,-4.608771220925306,0.006558544779627973,-0.012868521476524187,-0.36707672011765163
11273,2.0,300.69306,35514.297,0.0,0.0,-0.11273000623170071,0.0,0.0,0.0,-3.104188649384567,-3.071963749829217,-4.619307198115125,0.008124909769391161,-0.00987022688581555,-0.36708177623565064
11274,2.0,300.27675,35595.41,0.0,0.0,-0.11274001065207495,0.0,0.0,0.0,-3.122550463721737,-3.059627632511737,-4.637937625053805,0.012819961465481687,-0.004556100454227105,-0.3715628849354016
11275,2.0,300.15029,35555.962999999996,0.0,0.0,-0.11275001507244908,0.0,0.0,0.0,-3.100382172733897,-3.073140538495357,-4.634602208374625,0.017104036590536983,0.027499347308724272,-0.36927725615482765
11276,2.0,299.44461,35538.604,0.0,0.0,-0.1127599865835458,0.0,0.0,0.0,-3.112076497438037,-3.0463923570555176,-4.644379463889566,-0.005254470420025855,0.0018032489816168183,-0.3777048017415616
11277,2.0,299.63347000000005,35594.837999999996,0.0,0.0,-0.11276999100391993,0.0,0.0,0.0,-3.1234177044823266,-3.048870868125127,-4.647653477612685,0.003458540549181377,-0.004110313372031346,-0.36743158056767367
11278,2.0,299.69982999999996,35701.293,0.0,0.0,-0.11277999542429407,0.0,0.0,0.0,-3.136038038452857,-3.0623708045074673,-4.653892666428446,-0.028540372620465475,-0.0006850960855137193,-0.37473286827075464
11279,2.0,299.34159,35702.539,0.0,0.0,-0.1127899998446682,0.0,0.0,0.0,-3.147699027228707,-3.038988335924797,-4.665993101772665,0.006836079453568514,0.008344396155702783,-0.36362489113448265
11280,2.0,299.74575,35739.962999999996,0.0,0.0,-0.11280000426504233,0.0,0.0,0.0,-3.146567125541997,-3.054385988419427,-4.663103413812475,-0.02055024608865138,-0.014280368967112687,-0.35983419078786966
11281,2.0,299.89839,35593.752,0.0,0.0,-0.11281000868541657,0.0,0.0,0.0,-3.1160541120305973,-3.058149503265857,-4.645408318041105,0.012161607279257188,-0.008055136759555102,-0.37046814926235966
11282,2.0,300.19607,35543.529,0.0,0.0,-0.1128200131057907,0.0,0.0,0.0,-3.110093161692297,-3.0449038926586174,-4.649348138404936,0.007964146900575102,-0.01118936239755409,-0.3576018184325517
11283,2.0,299.92082,35790.888999999996,0.0,0.0,-0.1128299846168872,0.0,0.0,0.0,-3.145441202030877,-3.0803925721110765,-4.653702783359705,0.02211407400148918,0.016519154182313586,-0.3616046629526017
11284,2.0,300.32742,35799.793,0.0,0.0,-0.11283998903726156,0.0,0.0,0.0,-3.155455862044247,-3.054333299414227,-4.672453989710305,0.003524298758146207,-0.0058950436881955144,-0.3563918255606347
11285,2.0,300.17086,35635.227,0.0,0.0,-0.11284999345763569,0.0,0.0,0.0,-3.130481374904457,-3.056078217411437,-4.645659502740895,0.00010023914533158341,-0.005479510531460585,-0.38559881035563964
11286,2.0,299.96249,35732.046,0.0,0.0,-0.11285999787800982,0.0,0.0,0.0,-3.1284521389291866,-3.068227896710517,-4.664969820496675,-0.006208134321395154,0.02177219835149868,-0.35515712965127966
11287,2.0,299.97978,35775.051,0.0,0.0,-0.11287000229838395,0.0,0.0,0.0,-3.131551367010057,-3.062014343122287,-4.681156389519166,-0.0005412543109826415,0.02639457944644218,-0.36346135256834267
11288,2.0,300.07423,35665.683,0.0,0.0,-0.11288000671875797,0.0,0.0,0.0,-3.1257565896881574,-3.066773072216937,-4.648947397990386,0.0013627607921440185,0.004776578305761576,-0.3670758892525697
11289,2.0,300.55226,35663.399,0.0,0.0,-0.11289001113913233,0.0,0.0,0.0,-3.120180573062847,-3.068876478099527,-4.6517257297645855,0.0023571641363089877,-0.012347637971116989,-0.37333677175297064
11290,2.0,300.22295,35652.222,0.0,0.0,-0.11290001555950646,0.0,0.0,0.0,-3.122860619577347,-3.065781809644107,-4.648742822795195,0.008164384980037062,0.003319850320543716,-0.37768526627963367
11291,2.0,300.22895,35605.442,0.0,0.0,-0.11290998707060296,0.0,0.0,0.0,-3.1184700042440268,-3.065662144807297,-4.639033049736915,-0.004228438372664376,0.009502069858706282,-0.37873902611863164
11292,2.0,299.27713,35726.87,0.0,0.0,-0.11291999149097709,0.0,0.0,0.0,-3.141354764377577,-3.064405106733237,-4.6543166102702855,-0.004326946547386376,-0.01087529235680779,-0.38548163811407565
11293,2.0,299.91274,35826.296,0.0,0.0,-0.11292999591135144,0.0,0.0,0.0,-3.1477595182596767,-3.089676881452367,-4.652862799026805,-0.007081650747804513,-0.01735958839825798,-0.3735376688502976
11294,2.0,299.58691,35635.616,0.0,0.0,-0.11294000033172558,0.0,0.0,0.0,-3.131080003063537,-3.060461638669047,-4.640795800935886,0.016338785532012585,0.015408673615967684,-0.36699490017207664
11295,2.0,299.89672,35584.183,0.0,0.0,-0.1129500047520996,0.0,0.0,0.0,-3.115423769143387,-3.0585699007323472,-4.642709323749735,0.018943065257034982,0.02424832321712318,-0.3446975717840017
11296,2.0,300.05742000000004,35833.071,0.0,0.0,-0.11296000917247373,0.0,0.0,0.0,-3.159767443869767,-3.0675505390186673,-4.665040950653696,0.004511126639263535,-0.0009265399966598781,-0.35743313255590364
11297,2.0,300.2229,35768.131,0.0,0.0,-0.11297001359284786,0.0,0.0,0.0,-3.156036454351547,-3.049477298309977,-4.667105143757415,-0.013553735909649587,0.006839167029273234,-0.35896713241229766
11298,2.0,300.25935,35639.797999999995,0.0,0.0,-0.11297998510394458,0.0,0.0,0.0,-3.135042114929567,-3.053344367316627,-4.645222183997736,0.003911787786563397,0.03317412643453137,-0.37295078425987666
11299,2.0,300.13862,35746.016,0.0,0.0,-0.11298998952431871,0.0,0.0,0.0,-3.124095568799227,-3.0706449034990575,-4.671155915007196,-0.0022752891712535576,0.019254013474223182,-0.3598998797918527
11300,2.0,299.75177,35789.602999999996,0.0,0.0,-0.11299999394469296,0.0,0.0,0.0,-3.142359503176737,-3.0664455897846175,-4.670340552651725,-4.596045914244416e-05,0.0012429086053905288,-0.3680447792631916
11301,2.0,299.70173,35863.867999999995,0.0,0.0,-0.11300999836506709,0.0,0.0,0.0,-3.129622240144667,-3.0890299212635175,-4.683068189807846,-0.012706233261007588,-0.02002485058054888,-0.36577810839198865
11302,2.0,300.1167,35800.71,0.0,0.0,-0.11302000278544144,0.0,0.0,0.0,-3.1405692929000573,-3.066691505583887,-4.675261097787345,0.008059437499604553,0.003047644126229057,-0.3577686399290157
11303,2.0,299.92386,35670.415,0.0,0.0,-0.11303000720581535,0.0,0.0,0.0,-3.109995991007707,-3.072940320275597,-4.659979057129125,-0.005440790496114215,-0.022463215667946776,-0.36541700632135066
11304,2.0,301.55671,35708.503,0.0,0.0,-0.11304001162618948,0.0,0.0,0.0,-3.127119208422637,-3.0760305304305766,-4.651343430501855,0.0066876428735439634,-0.029752413270834572,-0.38013581164648363
11305,2.0,301.08775,35851.831,0.0,0.0,-0.11305001604656373,0.0,0.0,0.0,-3.139647640609097,-3.094441386072587,-4.6639723770982355,4.360259981524156e-05,-0.018324731410010182,-0.37718569345032965
11306,2.0,300.82591,35723.984,0.0,0.0,-0.11305998755766034,0.0,0.0,0.0,-3.1332441026271174,-3.073116524467987,-4.6528383796993955,0.015509375477156185,0.025053680741105772,-0.37154339000347764
11307,2.0,300.92834,35522.631,0.0,0.0,-0.11306999197803458,0.0,0.0,0.0,-3.109503855434137,-3.0460023570920267,-4.642486712702766,0.008395640063610163,0.007536350783179913,-0.36407736809913865
11308,2.0,299.96376000000004,35644.437999999995,0.0,0.0,-0.11307999639840871,0.0,0.0,0.0,-3.117931664465897,-3.070136454598877,-4.646950991318355,-0.017878256938946582,-0.016733368425704883,-0.3723268552457996
11309,2.0,299.56201,35923.28,0.0,0.0,-0.11309000081878284,0.0,0.0,0.0,-3.1657558532857766,-3.070082347043537,-4.683942016694086,-0.006213372115137084,-0.0013684089521764488,-0.3614820698230026
11310,2.0,300.19923,35972.671,0.0,0.0,-0.11310000523915698,0.0,0.0,0.0,-3.165286921139497,-3.076376048714677,-4.693130776550945,-0.010107565219014021,0.023892395814745875,-0.36864044873197965
11311,2.0,299.89418,35894.06,0.0,0.0,-0.11311000965953111,0.0,0.0,0.0,-3.158486493093347,-3.0690700088686267,-4.683341463359816,-0.0007320218862649353,0.014253824854242985,-0.35994837394163864
11312,2.0,300.28918,35904.911,0.0,0.0,-0.11312001407990535,0.0,0.0,0.0,-3.142185528134567,-3.0817597504710075,-4.690251119766746,-0.01809155824399778,-0.019563805573047283,-0.36209645402113766
11313,2.0,300.44063,35844.748,0.0,0.0,-0.11312998559100185,0.0,0.0,0.0,-3.155417662515477,-3.0633954030085873,-4.677095283118366,0.004457212310717606,-0.0068531179632750835,-0.35375217732762165
11314,2.0,299.87324,35795.318999999996,0.0,0.0,-0.11313999001137598,0.0,0.0,0.0,-3.146824997692447,-3.065496782390977,-4.6685613868011355,-0.004413216991375606,-0.0064750453720122236,-0.34619176104396665
11315,2.0,299.71685,35731.547999999995,0.0,0.0,-0.11314999443175033,0.0,0.0,0.0,-3.147408427100027,-3.0552161442263572,-4.658873803920045,0.014652472907336487,-0.021677201088373184,-0.36211228098769965
11316,2.0,300.20934,35772.502,0.0,0.0,-0.11315999885212447,0.0,0.0,0.0,-3.138716159792167,-3.085069329272637,-4.650161879560246,-0.0010056362449060699,-0.03880591538509567,-0.37189576799075463
11317,2.0,300.23966,35881.885,0.0,0.0,-0.1131700032724986,0.0,0.0,0.0,-3.149114537618407,-3.0857418233640073,-4.672340708349125,0.02111256544364798,-0.01124500705329579,-0.38900730263203165
11318,2.0,300.49727,35995.41,0.0,0.0,-0.11318000769287273,0.0,0.0,0.0,-3.161617841202387,-3.0894388690038768,-4.690649327056046,0.0056166736908725345,0.028132641793475573,-0.36026290703768066
11319,2.0,300.17927000000003,35931.224,0.0,0.0,-0.11319001211324675,0.0,0.0,0.0,-3.153966992347307,-3.0849907010648767,-4.683237301249536,-0.0025038975442404476,0.012950226924837887,-0.37184062692031267
11320,2.0,300.78807,35770.536,0.0,0.0,-0.11319998362434347,0.0,0.0,0.0,-3.137198817767417,-3.0605663074043767,-4.675584831194295,-0.03438185266597467,0.0038158435398944366,-0.37284261981170164
11321,2.0,300.66463,35835.821,0.0,0.0,-0.1132099880447176,0.0,0.0,0.0,-3.140490158067247,-3.079712985269007,-4.672991822863386,-0.01977844132848018,0.008248459508409573,-0.38657735663971465
11322,2.0,300.26474,35789.568,0.0,0.0,-0.11321999246509173,0.0,0.0,0.0,-3.1358817952874367,-3.0697593229116573,-4.673493786962926,-0.023333739358860774,0.01843035361368428,-0.3726604273112207
11323,2.0,299.70204,35710.403,0.0,0.0,-0.11322999688546587,0.0,0.0,0.0,-3.118524517099407,-3.0727901566107767,-4.663756250851906,-0.0048325449723850555,-0.006280330012220314,-0.37397737886369364
11324,2.0,299.46682000000004,35806.379,0.0,0.0,-0.11324000130584022,0.0,0.0,0.0,-3.136767983824897,-3.085416063456857,-4.6620610834346055,-0.007050223478727884,-0.01082459033505389,-0.37195872121946766
11325,2.0,300.15326,35859.102,0.0,0.0,-0.11325000572621435,0.0,0.0,0.0,-3.153727460023667,-3.071940546401927,-4.6746035997974555,0.025415551868569676,-0.0037579915188098866,-0.3491790857837927
11326,2.0,299.99059,35912.787000000004,0.0,0.0,-0.11326001014658837,0.0,0.0,0.0,-3.170441223073187,-3.086330420347097,-4.659818862288316,0.01893381124387168,0.016767840207356985,-0.35922455873270365
11327,2.0,299.98955,36013.954,0.0,0.0,-0.1132700145669625,0.0,0.0,0.0,-3.171282321981197,-3.091569936614197,-4.684490488973216,0.024091869295682376,-0.01112983294092899,-0.3601597480449997
11328,2.0,300.35398,36076.464,0.0,0.0,-0.11327998607805922,0.0,0.0,0.0,-3.187749662606397,-3.0909652289545173,-4.687629436458005,0.017649310039101286,-0.018519534821235785,-0.3711473713343937
11329,2.0,300.10433,35905.848,0.0,0.0,-0.11328999049843336,0.0,0.0,0.0,-3.150545652059647,-3.080681652364607,-4.6832538172261655,-0.004837193763843855,0.006283579302640994,-0.37975120217352565
11330,2.0,300.21337,35818.3,0.0,0.0,-0.11329999491880749,0.0,0.0,0.0,-3.144572238745117,-3.057403953842277,-4.685892523136586,0.005117742552856865,0.01959807875767978,-0.37655939343101863
11331,2.0,300.02483,35804.148,0.0,0.0,-0.11330999933918173,0.0,0.0,0.0,-3.139008381121007,-3.0689270392795174,-4.675631744673925,-0.02447472787246758,0.009008542180823892,-0.37588367720433064
11332,2.0,299.57892999999996,35723.788,0.0,0.0,-0.11332000375955587,0.0,0.0,0.0,-3.136616908234987,-3.0677651453898473,-4.654757678038816,0.002136638054069758,0.010019403949013178,-0.37691534819114864
11333,2.0,299.8145,35793.149,0.0,0.0,-0.11333000817993022,0.0,0.0,0.0,-3.1241065119003073,-3.0713227678159574,-4.684794362678205,-0.015996832875014487,-0.0009659552330323591,-0.3757241105785826
11334,2.0,300.16906,35951.959,0.0,0.0,-0.11334001260030413,0.0,0.0,0.0,-3.149408380147407,-3.1067729437646174,-4.672316592996746,0.014087768361604486,0.006827501987496983,-0.37248623948652965
11335,2.0,299.20142000000004,35983.471,0.0,0.0,-0.11334998411140085,0.0,0.0,0.0,-3.144973992409767,-3.100935711263527,-4.6921669730558255,0.005872344251505254,-0.02288831056190038,-0.36723792820856166
11336,2.0,299.76538999999997,35997.206,0.0,0.0,-0.11335998853177476,0.0,0.0,0.0,-3.155953874468397,-3.112975959551807,-4.673321939745966,0.012956903229746788,-0.012842831533488789,-0.38150269616388466
11337,2.0,299.59566,36011.633,0.0,0.0,-0.11336999295214911,0.0,0.0,0.0,-3.159288480547497,-3.108258267086207,-4.679090575215286,-0.0005019777682838486,0.003276940192058817,-0.35662851065149365
11338,2.0,300.20448999999996,35937.181000000004,0.0,0.0,-0.11337999737252336,0.0,0.0,0.0,-3.166160241400687,-3.081579493278217,-4.676265836586506,-0.005628727719362175,0.012737549781848288,-0.36631151364213166
11339,2.0,299.93498999999997,35872.529,0.0,0.0,-0.11339000179289749,0.0,0.0,0.0,-3.143506704939957,-3.0857127430861366,-4.6751336309247655,-0.0014608592085255784,0.01070713539671199,-0.36089129435219763
11340,2.0,300.00107,35831.663,0.0,0.0,-0.11340000621327162,0.0,0.0,0.0,-3.144084460146977,-3.053889495870427,-4.693956879357476,0.0004744757490346105,0.005060539923761405,-0.3870084438947596
11341,2.0,300.12175,35919.879,0.0,0.0,-0.11341001063364575,0.0,0.0,0.0,-3.162865962675567,-3.076343219411437,-4.679537215859366,0.007640720103105362,-0.002087427131163018,-0.3774975718311096
11342,2.0,300.55803,35939.837,0.0,0.0,-0.11342001505401988,0.0,0.0,0.0,-3.146363664921917,-3.0861736705566267,-4.692275593466546,-0.003740518426135427,-0.012649205518879388,-0.38083189420018165
11343,2.0,299.79787999999996,35942.576,0.0,0.0,-0.1134299865651166,0.0,0.0,0.0,-3.159018246745827,-3.0694163377528074,-4.697211134703645,-0.006361686598524583,-0.008052522776947122,-0.36820376833638263
11344,2.0,300.08349,36096.123,0.0,0.0,-0.11343999098549062,0.0,0.0,0.0,-3.157243539195677,-3.116529326327497,-4.698547206285506,-0.005944070908859124,0.003230846938384767,-0.3587369118570767
11345,2.0,299.96927,36116.739,0.0,0.0,-0.11344999540586476,0.0,0.0,0.0,-3.1666089085449673,-3.092514589682427,-4.7194634241247755,-0.008312961185925392,0.018326584644443082,-0.36564851370419865
11346,2.0,299.64036,36008.922,0.0,0.0,-0.11345999982623911,0.0,0.0,0.0,-3.147253906459777,-3.0949591568736867,-4.703599980559176,-0.008299208544968113,0.024115994780563376,-0.3579382985257596
11347,2.0,299.39305,35974.864,0.0,0.0,-0.11347000424661324,0.0,0.0,0.0,-3.151125231116847,-3.0908659304447172,-4.693469303409355,0.001067232113652609,0.017488220498452983,-0.37784950398834266
11348,2.0,299.75879,35998.943,0.0,0.0,-0.11348000866698738,0.0,0.0,0.0,-3.154631684412907,-3.085481722063337,-4.702666371917036,0.01953984727443278,-0.005202729411619415,-0.3583085299797986
11349,2.0,300.10036,35876.429,0.0,0.0,-0.11349001308736151,0.0,0.0,0.0,-3.1370755052302473,-3.090953373928347,-4.677509601084256,0.026348751157669274,-0.008031413129663764,-0.3809498162468197
11350,2.0,299.9988,35901.044,0.0,0.0,-0.11349998459845823,0.0,0.0,0.0,-3.1403777886311572,-3.081969797216737,-4.690673442408426,0.003988149759149736,-0.014244279025050885,-0.35733582001629965
11351,2.0,300.14152,35970.25,0.0,0.0,-0.11350998901883225,0.0,0.0,0.0,-3.147182776302757,-3.082352501779507,-4.704522443450216,0.0005783447868556866,0.006441509630802505,-0.37632389384277665
11352,2.0,299.9863,36033.05,0.0,0.0,-0.11351999343920638,0.0,0.0,0.0,-3.170668495070617,-3.0873123610190074,-4.695166497326855,-0.02001158105723928,-0.00036938184383014964,-0.37560615813444165
11353,2.0,300.61199,36060.197,0.0,0.0,-0.11352999785958051,0.0,0.0,0.0,-3.1689387758249072,-3.088167442778397,-4.7042932462775955,-0.0022494945594828276,-0.001083766936734469,-0.38337752295641564
11354,2.0,300.54258,36090.178,0.0,0.0,-0.11354000227995464,0.0,0.0,0.0,-3.184999701834997,-3.1059862563869767,-4.679526880708345,-0.02006437746694988,-0.01240102206588559,-0.38150557379416866
11355,2.0,300.20209,36030.801,0.0,0.0,-0.113550006700329,0.0,0.0,0.0,-3.166256601485197,-3.094731276926197,-4.6914760378126354,-0.008190745795963673,-0.01922484200384418,-0.36805696866189463
11356,2.0,299.61295,36055.654,0.0,0.0,-0.11356001112070313,0.0,0.0,0.0,-3.1785129760198068,-3.080006219847947,-4.701499513101875,-0.008407089485765133,-0.02180878681260968,-0.3503545369598007
11357,2.0,299.68635,36137.684,0.0,0.0,-0.11357001554107715,0.0,0.0,0.0,-3.183415080003607,-3.103004869292737,-4.698533730059175,0.004394838863711826,0.001164357100663099,-0.3460691577818667
11358,2.0,299.78224,36041.358,0.0,0.0,-0.11357998705217387,0.0,0.0,0.0,-3.1632045908589865,-3.085054738471197,-4.707413549960545,0.02494320304295248,0.01741722105069588,-0.36179734259161767
11359,2.0,299.90702000000005,35965.013,0.0,0.0,-0.113589991472548,0.0,0.0,0.0,-3.147320780966377,-3.0954914171512176,-4.689653606182775,0.007131308817980383,0.012877882894198089,-0.37013504329198466
11360,2.0,300.14059,36076.613,0.0,0.0,-0.11359999589292213,0.0,0.0,0.0,-3.1708870531171867,-3.091323919489917,-4.704178445041266,0.005938971626405864,-0.002228785145988968,-0.3771796646122346
11361,2.0,300.56757000000005,36186.442,0.0,0.0,-0.11361000031329627,0.0,0.0,0.0,-3.1734900926240868,-3.099619296733607,-4.726665403185555,-0.0024891533367353076,-0.001025111306995609,-0.36414243902056065
11362,2.0,300.12188,36015.58,0.0,0.0,-0.11362000473367051,0.0,0.0,0.0,-3.1686126106177173,-3.094211074324857,-4.685013427349825,0.015321817817395686,0.01021199756309569,-0.38197705933070064
11363,2.0,299.95288,36036.151,0.0,0.0,-0.11363000915404464,0.0,0.0,0.0,-3.160477124239807,-3.0832949256975173,-4.710318132697205,-0.0015576612727291985,-0.006190074455587785,-0.3596850201081477
11364,2.0,300.26103,36084.15,0.0,0.0,-0.113640013574419,0.0,0.0,0.0,-3.1734388221690266,-3.103930371934077,-4.691311384671386,0.006685365695269224,-0.00893700084691331,-0.3840512532129077
11365,2.0,300.73315,36056.625,0.0,0.0,-0.11364998508551549,0.0,0.0,0.0,-3.164345105171547,-3.094183108622097,-4.701785654930116,-0.0058540314784729245,0.006305900797043954,-0.36827178781559566
11366,2.0,300.62152000000003,36052.712999999996,0.0,0.0,-0.11365998950588962,0.0,0.0,0.0,-3.158151613935297,-3.1055114473901173,-4.695461353105955,0.014329624067723788,0.006783135210668324,-0.38169655117301665
11367,2.0,300.25137,36009.911,0.0,0.0,-0.11366999392626354,0.0,0.0,0.0,-3.1433811632525672,-3.1185230985492676,-4.6842093120704655,-0.008496524715116702,0.005293174952645695,-0.37420155031581764
11368,2.0,300.15044,35949.707,0.0,0.0,-0.11367999834663789,0.0,0.0,0.0,-3.154095168484957,-3.0799534295177367,-4.693764564488496,0.0006463357937408764,-0.007069675955472692,-0.36025315957171866
11369,2.0,299.94132,36144.282999999996,0.0,0.0,-0.11369000276701213,0.0,0.0,0.0,-3.158658441635317,-3.1205037998447467,-4.707797166448405,-0.01210321772899459,0.014077727053113488,-0.36985117114396865
11370,2.0,299.90092999999996,36220.321,0.0,0.0,-0.11370000718738626,0.0,0.0,0.0,-3.176207021442227,-3.117341243632627,-4.716524897509766,0.013693390144432386,0.026622393532675676,-0.36869050328691966
11371,2.0,299.7875,36025.627,0.0,0.0,-0.1137100116077604,0.0,0.0,0.0,-3.158867475130947,-3.085522758692387,-4.706500915595475,0.00952425071399536,-0.001971489433520858,-0.37810555228861265
11372,2.0,299.76918,36106.792,0.0,0.0,-0.11372001602813453,0.0,0.0,0.0,-3.1665118391853873,-3.095945150545997,-4.713106191672366,0.010153412455563792,0.002221226806868018,-0.36269604476781264
11373,2.0,300.07732000000004,36148.443,0.0,0.0,-0.11372998753923125,0.0,0.0,0.0,-3.186030177186697,-3.066437686433837,-4.735756080432736,-0.007891809557385962,-0.0032125408528030966,-0.3682970785380917
11374,2.0,300.29346,36122.341,0.0,0.0,-0.11373999195960516,0.0,0.0,0.0,-3.185628220872027,-3.084372314528847,-4.710289052419336,0.004835224917574545,0.00897189120218172,-0.3674651191459836
11375,2.0,300.00672000000003,36066.231,0.0,0.0,-0.1137499963799794,0.0,0.0,0.0,-3.179189827086607,-3.0792708029253673,-4.704772918874936,-0.026754440285707674,-0.004690670706633155,-0.3651348060359996
11376,2.0,300.51252999999997,36118.233,0.0,0.0,-0.11376000080035353,0.0,0.0,0.0,-3.177349156954947,-3.089956943780007,-4.711734858987025,-0.0001040958031934559,0.00015802685036603586,-0.3697826045097017
11377,2.0,300.74397,36131.994,0.0,0.0,-0.11377000522072789,0.0,0.0,0.0,-3.173072734907897,-3.1133018207839673,-4.696849404417946,-0.02011335899003398,0.01932863630433788,-0.3781921750396616
11378,2.0,300.49011,36244.685,0.0,0.0,-0.11378000964110202,0.0,0.0,0.0,-3.170555720334487,-3.123979652987787,-4.722943938218275,0.006910704310183414,0.014819226516043785,-0.37916580706075165
11379,2.0,300.42109,36308.31,0.0,0.0,-0.11379001406147615,0.0,0.0,0.0,-3.188855726415557,-3.132875279590717,-4.715088716818025,0.007825330927600033,-0.0005067528411026116,-0.3711677984564096
11380,2.0,300.31692999999996,36129.039,0.0,0.0,-0.11379998557257265,0.0,0.0,0.0,-3.1662233668819173,-3.100120956858117,-4.715981288831116,0.009703227766609021,0.0011541932902350087,-0.35773178802287864
11381,2.0,300.43502,36058.518,0.0,0.0,-0.113809989992947,0.0,0.0,0.0,-3.158069540677197,-3.095961666522627,-4.706857782280696,0.017367851452823484,0.006745948830673313,-0.36543855815097764
11382,2.0,300.29174,36181.85,0.0,0.0,-0.11381999441332102,0.0,0.0,0.0,-3.1711797810710767,-3.110516801559107,-4.7166824579003155,-0.017558262424865585,-0.006475141326796693,-0.36284955215796266
11383,2.0,299.89524,36258.137,0.0,0.0,-0.11382999883369516,0.0,0.0,0.0,-3.180993108289577,-3.1145089056280972,-4.726066167076415,-0.005967981179418884,-0.015519754197930485,-0.3710352248133257
11384,2.0,300.02382,36175.035,0.0,0.0,-0.11384000325406929,0.0,0.0,0.0,-3.163283219066747,-3.100299187550707,-4.7327251454086054,-0.017345773746394583,0.0005437845889998605,-0.36434319426287365
11385,2.0,300.43232,36112.002,0.0,0.0,-0.11385000767444342,0.0,0.0,0.0,-3.170707910499507,-3.108907659075297,-4.697531321735245,0.01030253753903129,0.027980077739168677,-0.38730201284623267
11386,2.0,300.01403999999997,36168.029,0.0,0.0,-0.11386001209481778,0.0,0.0,0.0,-3.186914845849007,-3.0918128126631674,-4.715450244453706,-0.004118565787470795,0.004949664119643815,-0.37210047490845766
11387,2.0,300.1389,36248.233,0.0,0.0,-0.11386998360591427,0.0,0.0,0.0,-3.1955509791013266,-3.1242765352670867,-4.698730199253566,0.00962786870897166,-0.019058748020951984,-0.38880450062451666
11388,2.0,300.39419,36286.415,0.0,0.0,-0.1138799880262884,0.0,0.0,0.0,-3.1900880411871766,-3.110921290999027,-4.7291546547062255,0.006571311528237954,-0.02478875940971008,-0.3680586709220626
11389,2.0,300.88195,36093.027,0.0,0.0,-0.11388999244666265,0.0,0.0,0.0,-3.169185603549267,-3.107902920276137,-4.694290339965386,0.016925140192631284,0.007282894477990722,-0.3841170435419006
11390,2.0,300.61327,35997.161,0.0,0.0,-0.11389999686703678,0.0,0.0,0.0,-3.163381504326447,-3.0965533032560173,-4.682303287307355,-0.006633164164692333,-0.00963793524739015,-0.37178057158688566
11391,2.0,300.31944,36212.263999999996,0.0,0.0,-0.11391000128741091,0.0,0.0,0.0,-3.190574907860227,-3.095678057819637,-4.721371070088045,-0.004176756132763736,-0.01103154058847829,-0.3695934307160316
11392,2.0,299.57251,36454.58,0.0,0.0,-0.11392000570778504,0.0,0.0,0.0,-3.221910173827777,-3.133079652135887,-4.726292121848716,-0.012112224509133488,0.007398877771887384,-0.36831092966695866
11393,2.0,299.6449,36300.287000000004,0.0,0.0,-0.11393001012815929,0.0,0.0,0.0,-3.1854988288342567,-3.1157985703553766,-4.733083633293986,0.01132943105162779,0.017910866366914885,-0.38080854891787763
11394,2.0,299.74814,36210.91,0.0,0.0,-0.11394001454853342,0.0,0.0,0.0,-3.159839587276887,-3.117145179738277,-4.730227787887136,-0.004388384156599795,-0.012002653669819688,-0.3763660754444397
11395,2.0,300.07392000000004,36208.457,0.0,0.0,-0.11394998605963014,0.0,0.0,0.0,-3.1530775614095266,-3.132558638934467,-4.720830703809716,-0.0044920389325547256,-0.014678313824636788,-0.3834250139886026
11396,2.0,299.86697999999996,36281.477999999996,0.0,0.0,-0.11395999048000427,0.0,0.0,0.0,-3.179758260392707,-3.111234081304897,-4.7376711231217365,0.005997007248408535,-0.0020829566717218183,-0.3717650080653496
11397,2.0,300.54953,36321.632000000005,0.0,0.0,-0.1139699949003784,0.0,0.0,0.0,-3.191403949092047,-3.130501538581447,-4.718963891825475,-0.0018681074244928484,0.029470305191242677,-0.37837955538065465
11398,2.0,299.73062999999996,36100.915,0.0,0.0,-0.11397999932075231,0.0,0.0,0.0,-3.1701653150709572,-3.0974558051200867,-4.706155498636385,0.006494410607923425,-0.009380671756275221,-0.3763822874460397
11399,2.0,299.92793,36113.371,0.0,0.0,-0.11399000374112667,0.0,0.0,0.0,-3.1663138501158468,-3.1077493115609767,-4.703499871449296,-0.01114969162963889,-0.03249439773744737,-0.3595215018070096
11400,2.0,299.56081,36396.205,0.0,0.0,-0.11400000816150091,0.0,0.0,0.0,-3.188540099009407,-3.128640704772797,-4.746356601653925,0.018216723002350586,-0.02078232899755618,-0.37624952128543665
11401,2.0,300.09506,36561.565,0.0,0.0,-0.11401001258187504,0.0,0.0,0.0,-3.206797143286237,-3.138888614959187,-4.768117059476515,0.010335918050325691,0.0024222818698856076,-0.3583783429116887
11402,2.0,300.51774,36320.656,0.0,0.0,-0.11401998409297154,0.0,0.0,0.0,-3.196571929902087,-3.112280869983207,-4.731719697334375,0.02210188358953608,0.016425741642344484,-0.37955861372701866
11403,2.0,300.10566,36137.935,0.0,0.0,-0.11402998851334589,0.0,0.0,0.0,-3.179091440501897,-3.0997372390452473,-4.706201196215895,-0.016099803403176884,0.012628215029807788,-0.3696259053817366
11404,2.0,300.00049,36169.66,0.0,0.0,-0.11403999293372002,0.0,0.0,0.0,-3.175144730037387,-3.098362967934617,-4.721165684292775,0.0056242230120675946,0.022298184584409478,-0.3947620160449776
11405,2.0,300.34219,36340.61,0.0,0.0,-0.11404999735409416,0.0,0.0,0.0,-3.194790129601237,-3.132258108954807,-4.719589675087236,-0.029860095411961968,0.018507545032802483,-0.3837334979815476
11406,2.0,299.33611,36241.415,0.0,0.0,-0.11406000177446818,0.0,0.0,0.0,-3.172956008496377,-3.1051348223279467,-4.738394381043116,-0.005660676508265275,-0.011244433553739188,-0.3917922205318816
11407,2.0,299.19242,36082.512,0.0,0.0,-0.11407000619484231,0.0,0.0,0.0,-3.158585791603147,-3.0969169587169074,-4.712679816030286,-0.017058892245581582,-0.02158749096426948,-0.37935759503967964
11408,2.0,300.16438,36182.263999999996,0.0,0.0,-0.11408001061521666,0.0,0.0,0.0,-3.173664776941327,-3.103474409389077,-4.721365497212496,0.014277722357851486,0.013482863118154985,-0.36528351062067566
11409,2.0,300.29337000000004,36465.367,0.0,0.0,-0.1140900150355908,0.0,0.0,0.0,-3.2039243766027172,-3.1235442594198175,-4.757092493088475,0.0028853322006601174,0.027421472959038674,-0.37227594956077564
11410,2.0,300.04745,36593.682,0.0,0.0,-0.1140999865466873,0.0,0.0,0.0,-3.213681671090687,-3.152763149903497,-4.757120864091275,0.005099138875720825,0.009222324475697562,-0.35845065857132563
11411,2.0,299.71508,36300.878,0.0,0.0,-0.11410999096706143,0.0,0.0,0.0,-3.186705913678387,-3.106451642157907,-4.741402720590015,-0.0015024403581793185,-0.015828150038116787,-0.3695550589347446
11412,2.0,299.68305,36175.291,0.0,0.0,-0.11411999538743578,0.0,0.0,0.0,-3.1608579036273867,-3.113640246317367,-4.721887118363975,-0.0054135906077797955,-0.0027547144342441477,-0.37393824714483165
11413,2.0,300.01119,36275.032999999996,0.0,0.0,-0.1141299998078098,0.0,0.0,0.0,-3.184844674569697,-3.121270931495457,-4.720588638360826,0.0013528323597141588,-0.0037070471276320666,-0.3838246702255456
11414,2.0,299.96821,36415.083,0.0,0.0,-0.11414000422818393,0.0,0.0,0.0,-3.199298180621147,-3.132254562579457,-4.737723102851866,-0.005468101740634625,-0.015026070378207686,-0.36253377276429766
11415,2.0,299.79387,36311.969,0.0,0.0,-0.11415000864855807,0.0,0.0,0.0,-3.182503965513687,-3.1273774858731267,-4.728050516072255,-0.01115037962645679,-0.008231890842774373,-0.38652625843717164
11416,2.0,299.94658,36268.202000000005,0.0,0.0,-0.1141600130689322,0.0,0.0,0.0,-3.181976568836637,-3.108307815016097,-4.734343305818306,0.009648369392944922,0.007939501922367831,-0.37154880075901164
11417,2.0,300.11601,36343.006,0.0,0.0,-0.11416998458002892,0.0,0.0,0.0,-3.205557431788887,-3.117101306008947,-4.724707500017326,0.0017486782696561082,0.017064765043161186,-0.3826599696330987
11418,2.0,300.10289,36358.266,0.0,0.0,-0.11417998900040305,0.0,0.0,0.0,-3.186599319767867,-3.128117057121117,-4.737288519883975,-0.0020730958230736284,-0.0031861387975974167,-0.37678635132091765
11419,2.0,300.03494,36400.75,0.0,0.0,-0.11418999342077718,0.0,0.0,0.0,-3.212503970499457,-3.111716894977547,-4.7406983091204955,-0.004197723215758026,-0.014582047972386087,-0.37035853586654166
11420,2.0,299.37138,36412.165,0.0,0.0,-0.11419999784115142,0.0,0.0,0.0,-3.1943584850586366,-3.1277939316642267,-4.746236531517075,-0.005278215936119355,-0.006086059874522344,-0.37333333683513165
11421,2.0,299.6681,36263.138999999996,0.0,0.0,-0.11421000226152556,0.0,0.0,0.0,-3.185894908298347,-3.108547752639777,-4.728646307131055,0.00039943709121137167,0.009359215476132651,-0.3804199371070246
11422,2.0,299.99073,36255.767,0.0,0.0,-0.11422000668189969,0.0,0.0,0.0,-3.1641179344991266,-3.119873051657497,-4.7368569766663855,-0.01068389853216869,-0.005561346689037184,-0.3673957013816327
11423,2.0,299.71369,36411.537000000004,0.0,0.0,-0.11423001110227382,0.0,0.0,0.0,-3.1957430913202867,-3.131463720876407,-4.7409913410494156,0.0007521943481333023,0.002349698002947138,-0.3679325212846126
11424,2.0,300.08762,36567.215,0.0,0.0,-0.11424001552264806,0.0,0.0,0.0,-3.205598265767917,-3.141093447176787,-4.768828462371725,0.0077624644330955925,0.004990105666910086,-0.3759138213948056
11425,2.0,300.56896,36486.314,0.0,0.0,-0.11424998703374467,0.0,0.0,0.0,-3.232046221203127,-3.138046604126087,-4.720835668735205,0.015268142919848383,0.01035016232023149,-0.3759370349545966
11426,2.0,300.06511,36324.432,0.0,0.0,-0.11425999145411891,0.0,0.0,0.0,-3.1906029748879967,-3.117177502416467,-4.733939829628485,-0.007530516185129082,-0.022120473689120776,-0.37774742917326865
11427,2.0,300.51689,36343.075,0.0,0.0,-0.11426999587449305,0.0,0.0,0.0,-3.192639202288957,-3.114671126969107,-4.740076882834166,-0.00954297344801815,-0.01048524375731299,-0.36871334194417366
11428,2.0,300.08061000000004,36496.227,0.0,0.0,-0.11428000029486718,0.0,0.0,0.0,-3.207344095690217,-3.138171841838447,-4.748425759683136,-0.028118935559372876,0.0027726742922666477,-0.37367539993639065
11429,2.0,298.93957,36510.461,0.0,0.0,-0.11429000471524109,0.0,0.0,0.0,-3.2131070569589766,-3.117848577957697,-4.767312842872145,-0.004998423234330965,0.010241094052967291,-0.37341832825351967
11430,2.0,299.44026,36316.467000000004,0.0,0.0,-0.11430000913561544,0.0,0.0,0.0,-3.1875691014385765,-3.116149154889977,-4.735580889490445,-0.01018285142396919,-0.01021266833466189,-0.38725523108911564
11431,2.0,300.11075,36232.034,0.0,0.0,-0.11431001355598969,0.0,0.0,0.0,-3.169983234027987,-3.109485515607327,-4.734164973800705,0.017592107004705784,-0.015860991500357986,-0.39189733509725566
11432,2.0,299.94982999999996,36469.108,0.0,0.0,-0.11431998506708618,0.0,0.0,0.0,-3.194467004144347,-3.134338818035157,-4.756892477518736,0.009326880233641411,0.0017387107257723885,-0.38764171507475864
11433,2.0,300.04644,36608.614,0.0,0.0,-0.11432998948746032,0.0,0.0,0.0,-3.2175486387723264,-3.149500687231517,-4.7610553142295755,0.01026142998247429,0.00950153486265348,-0.3784652459416116
11434,2.0,299.83437000000004,36343.301,0.0,0.0,-0.11433999390783467,0.0,0.0,0.0,-3.1891582828954173,-3.107976380908387,-4.750321246645205,-0.0055543415844708345,-0.00020057502565021382,-0.37541570764564564
11435,2.0,300.17267000000004,36276.769,0.0,0.0,-0.1143499983282088,0.0,0.0,0.0,-3.167450412753017,-3.128198522429157,-4.731583009895886,-0.01228961217764029,0.015159588370384884,-0.37496500386866466
11436,2.0,300.16355,36479.297999999995,0.0,0.0,-0.11436000274858293,0.0,0.0,0.0,-3.219733104662917,-3.1290307047362873,-4.740031995854736,-0.0043505679403426254,0.017471496805552482,-0.3748263507249806
11437,2.0,300.67214,36699.05,0.0,0.0,-0.11437000716895696,0.0,0.0,0.0,-3.2486452843413267,-3.144848856022417,-4.762100684357746,-0.008777415273388442,-0.004915493171946405,-0.3630583728710716
11438,2.0,300.57346,36538.193999999996,0.0,0.0,-0.11438001158933109,0.0,0.0,0.0,-3.2169377502870367,-3.143800648793967,-4.745960420864826,0.012243570093096288,-0.026798521731308172,-0.37632734902561765
11439,2.0,300.68071000000003,36376.219,0.0,0.0,-0.11439001600970544,0.0,0.0,0.0,-3.2067904558355766,-3.103791455345367,-4.746880249305605,0.005614044104213015,-0.022430037806672378,-0.3580410927484046
11440,2.0,300.86253,36531.407,0.0,0.0,-0.11439998752080194,0.0,0.0,0.0,-3.203703690730937,-3.137766440473437,-4.763165407562825,0.013590900910067488,0.0034561935579747465,-0.37609995543817565
11441,2.0,300.82056,36638.271,0.0,0.0,-0.11440999194117607,0.0,0.0,0.0,-3.213161873789387,-3.141516985718587,-4.782440768190155,0.0014217422831150387,0.011497280996943289,-0.36832860074870266
11442,2.0,300.01002,36582.751000000004,0.0,0.0,-0.1144199963615502,0.0,0.0,0.0,-3.210470073573727,-3.132934960021607,-4.7768379004371955,0.00974622929025294,0.00874427328116758,-0.3869728382862456
11443,2.0,300.23807999999997,36468.309,0.0,0.0,-0.11443000078192456,0.0,0.0,0.0,-3.197696130888037,-3.138798537025297,-4.748960654410926,-0.006214897968462674,-0.0020626367515663977,-0.3770870332880926
11444,2.0,299.80779,36331.065,0.0,0.0,-0.11444000520229858,0.0,0.0,0.0,-3.174998619372967,-3.125257260038877,-4.743480896545115,0.014987881995188785,0.004919617505153445,-0.3818120819494186
11445,2.0,300.35200000000003,36413.859,0.0,0.0,-0.11445000962267271,0.0,0.0,0.0,-3.190333247711377,-3.1420441797456173,-4.736526454483766,0.00036869373555473866,-0.006479819401183384,-0.38123810616527165
11446,2.0,300.51255,36579.85,0.0,0.0,-0.11446001404304684,0.0,0.0,0.0,-3.195669022737977,-3.161011107042507,-4.762680770039996,0.007407943320532083,-0.0006693612537833123,-0.37083877588393765
11447,2.0,300.08434,36556.207,0.0,0.0,-0.11446998555414356,0.0,0.0,0.0,-3.182948275682537,-3.154886415488047,-4.774339529665625,0.0022986743756114978,0.019024639996085783,-0.38295280904449963
11448,2.0,299.53258,36441.718,0.0,0.0,-0.11447998997451769,0.0,0.0,0.0,-3.186373263670557,-3.139620789481447,-4.751378269149526,-0.0034846398452571766,0.03588965899403357,-0.3787494423296596
11449,2.0,299.62014,36466.757000000005,0.0,0.0,-0.11448999439489183,0.0,0.0,0.0,-3.195217214518387,-3.1348385529844767,-4.754927684249825,-0.007136572449599862,0.009482721848046782,-0.38561786959002065
11450,2.0,299.27745,36502.105,0.0,0.0,-0.11449999881526596,0.0,0.0,0.0,-3.2053380631422366,-3.1269735030582573,-4.763416896237645,-0.02010313833627528,-0.017390676937826182,-0.38175751843153366
11451,2.0,299.84054,36533.818,0.0,0.0,-0.1145100032356402,0.0,0.0,0.0,-3.2296266812893366,-3.105549241618847,-4.770192499656345,0.010195614322228791,-0.017754820785264382,-0.37344585825873666
11452,2.0,299.86587000000003,36477.388999999996,0.0,0.0,-0.11452000765601433,0.0,0.0,0.0,-3.215968779216407,-3.112455858275477,-4.759790778104775,-0.0016145623585948985,0.006509126039125723,-0.37110837133804464
11453,2.0,300.56955,36399.565,0.0,0.0,-0.11453001207638847,0.0,0.0,0.0,-3.205358125494217,-3.123052934446327,-4.736147802921395,0.02027277565476718,0.0041788912533744565,-0.38898621689745067
11454,2.0,300.41267,36523.794,0.0,0.0,-0.11453998358748496,0.0,0.0,0.0,-3.2092370495270366,-3.128661881699887,-4.764422546961896,0.0006147080227344585,-0.011265484837816789,-0.3790203246113936
11455,2.0,300.32286,36819.992,0.0,0.0,-0.1145499880078591,0.0,0.0,0.0,-3.268727698673307,-3.150456790025877,-4.773173785425575,0.006512696023203054,0.00970871117217519,-0.3821282767756246
11456,2.0,299.99436000000003,36746.801,0.0,0.0,-0.11455999242823345,0.0,0.0,0.0,-3.230909253265917,-3.1614151911823867,-4.7777854919307154,-0.00905489634639869,0.004771002491786285,-0.37184836815107664
11457,2.0,300.20612,36362.729,0.0,0.0,-0.11456999684860769,0.0,0.0,0.0,-3.200491687913937,-3.1192414928701675,-4.733628457872755,-0.005312547281307595,-0.019131425410874682,-0.3726511358078037
11458,2.0,299.79385,36378.979,0.0,0.0,-0.11458000126898182,0.0,0.0,0.0,-3.163292844942697,-3.1389659259418172,-4.756042360684836,-0.03302708661976967,-0.027007737611956177,-0.36128889369143763
11459,2.0,299.84614,36573.495,0.0,0.0,-0.11459000568935596,0.0,0.0,0.0,-3.201811344844177,-3.139186105188547,-4.776431587147095,0.003557266066049827,-0.0075386019209270835,-0.36007968102209764
11460,2.0,299.27522,36573.727,0.0,0.0,-0.11460001010972987,0.0,0.0,0.0,-3.193532179602087,-3.148052550188597,-4.775914930921105,0.007379546986479582,0.016051775348436884,-0.37950370570409964
11461,2.0,299.28734,36404.476,0.0,0.0,-0.11461001453010422,0.0,0.0,0.0,-3.1894068331449468,-3.139593330403737,-4.737051520685585,0.017902437139332983,0.016281097150819185,-0.39436938163122764
11462,2.0,299.85508,36396.761,0.0,0.0,-0.11461998604120072,0.0,0.0,0.0,-3.180396911930737,-3.1248319989719073,-4.758477504650165,0.005665606577951834,-0.01099323669494799,-0.40273819924216564
11463,2.0,300.01704,36612.797999999995,0.0,0.0,-0.11462999046157496,0.0,0.0,0.0,-3.221877445849547,-3.145891693025337,-4.761607130234036,-0.0062987359029368336,-0.00027443350041947775,-0.3875482326205326
11464,2.0,300.02605,36794.102999999996,0.0,0.0,-0.11463999488194909,0.0,0.0,0.0,-3.2380284497935268,-3.157515191547487,-4.788944921907065,-0.006926788439620794,0.0015420183123853583,-0.38246420971377865
11465,2.0,300.02457999999996,36674.939,0.0,0.0,-0.11464999930232345,0.0,0.0,0.0,-3.228937063271277,-3.1520288475560267,-4.767299771945855,-0.018249400318075582,0.0026239853116421874,-0.37991733465992167
11466,2.0,300.08541,36357.147000000004,0.0,0.0,-0.11466000372269758,0.0,0.0,0.0,-3.183063380893897,-3.124787213317487,-4.743814255828016,-0.017091545243304182,0.006134695474022305,-0.3796041187890096
11467,2.0,299.98331,36533.116,0.0,0.0,-0.11467000814307149,0.0,0.0,0.0,-3.204729403807167,-3.148175052125687,-4.752250576160616,-0.004387378708525566,0.01836616016684888,-0.36959554840874065
11468,2.0,300.41378,36881.839,0.0,0.0,-0.11468001256344573,0.0,0.0,0.0,-3.252016975374087,-3.168592852240767,-4.790548288865305,0.004646471724021056,0.01853594541985538,-0.37217384434819867
11469,2.0,300.68345,36750.236000000004,0.0,0.0,-0.11468998407454234,0.0,0.0,0.0,-3.2290719268595867,-3.159042767398247,-4.783039396349236,0.013849675866356588,-0.017939949684535182,-0.36261660595997264
11470,2.0,300.11234,36484.613,0.0,0.0,-0.11469998849491658,0.0,0.0,0.0,-3.192139467339637,-3.131865879841097,-4.766405882707636,0.0032148536974813567,-0.030984519312933972,-0.3565972417534077
11471,2.0,300.05113,36572.614,0.0,0.0,-0.11470999291529071,0.0,0.0,0.0,-3.204095818519637,-3.136322559080937,-4.776743060227836,0.008088415945839502,-0.012055636517548688,-0.36074191088995466
11472,2.0,300.03036000000003,36710.651,0.0,0.0,-0.11471999733566485,0.0,0.0,0.0,-3.226505161706267,-3.1414078586828174,-4.791208319980445,0.011841498267914887,0.0026148378923894077,-0.3863669755214516
11473,2.0,300.28456,36673.185,0.0,0.0,-0.11473000175603898,0.0,0.0,0.0,-3.216793868772837,-3.1510978733641473,-4.779840768433555,-0.0010754604137396789,0.016425491369569785,-0.4084673179575856
11474,2.0,300.17215,36589.725,0.0,0.0,-0.11474000617641333,0.0,0.0,0.0,-3.2262403994551367,-3.135149215465137,-4.760973240971476,-0.0025825955649323375,0.0015598671181968984,-0.3940096778457276
11475,2.0,300.02528,36467.075,0.0,0.0,-0.11475001059678736,0.0,0.0,0.0,-3.2054666445799267,-3.1236415314294175,-4.755972041127896,-0.004904406088027196,0.002114828048317278,-0.38705918745976764
11476,2.0,300.23454,36519.657,0.0,0.0,-0.11476001501716149,0.0,0.0,0.0,-3.2154652952417173,-3.1382449984956673,-4.7473535384273156,0.001239295456858939,-0.007371770595937112,-0.37980683973651663
11477,2.0,299.88507999999996,36737.937999999995,0.0,0.0,-0.1147699865282582,0.0,0.0,0.0,-3.2322910224272867,-3.1564078105131967,-4.778716972747645,0.004589549765203296,-0.022940071430008774,-0.3779712054578537
11478,2.0,300.13277999999997,36803.797999999995,0.0,0.0,-0.11477999094863234,0.0,0.0,0.0,-3.216325139276577,-3.174247395748827,-4.796862964813515,-0.006943872140281823,-0.012641876680906088,-0.3703981843429547
11479,2.0,299.53704,36559.645,0.0,0.0,-0.11478999536900647,0.0,0.0,0.0,-3.194118243459927,-3.148517429334477,-4.770583512869936,-0.008347942024427731,0.017014234260674183,-0.37693661631074765
11480,2.0,299.82105,36654.892,0.0,0.0,-0.1147999997893806,0.0,0.0,0.0,-3.2115969090099368,-3.1561046460832767,-4.7744703402535364,-0.00990196096702246,0.02037060089892178,-0.3826294302750846
11481,2.0,299.90051,36890.287000000004,0.0,0.0,-0.11481000420975485,0.0,0.0,0.0,-3.242232019158387,-3.167614559269217,-4.803879620431005,-0.008095566958420251,0.0002805162434197977,-0.36581608500573665
11482,2.0,300.15136,36701.636,0.0,0.0,-0.11482000863012898,0.0,0.0,0.0,-3.214966472217487,-3.141041670096677,-4.800372761834905,0.014152707560513489,-0.02700819661425147,-0.3710160642539347
11483,2.0,299.7514,36618.208,0.0,0.0,-0.11483001305050311,0.0,0.0,0.0,-3.210210580223117,-3.136417500615307,-4.7843928958328155,0.012513074354694289,-0.01053065357379459,-0.36486719655208866
11484,2.0,300.30239,36734.937000000005,0.0,0.0,-0.11483998456159983,0.0,0.0,0.0,-3.217851701877237,-3.147777452786447,-4.800874523284425,0.014387448224430588,0.005223812714400175,-0.38325554790937766
11485,2.0,300.2082,36743.877,0.0,0.0,-0.11484998898197374,0.0,0.0,0.0,-3.2482170848490672,-3.1462315371088767,-4.7747725927583655,-0.0012305493859707689,0.01077263492292629,-0.3784209162497366
11486,2.0,299.81914,36708.263,0.0,0.0,-0.11485999340234787,0.0,0.0,0.0,-3.229021872304647,-3.1549614973204574,-4.774411977047775,-0.011763625944729489,0.008147113524132502,-0.3914639578969846
11487,2.0,300.09137000000004,36771.02,0.0,0.0,-0.11486999782272223,0.0,0.0,0.0,-3.259107699573887,-3.1402963233231174,-4.778067783408575,-0.01052452746368999,0.011495250443742888,-0.37865338622017963
11488,2.0,299.7849,36691.751000000004,0.0,0.0,-0.11488000224309647,0.0,0.0,0.0,-3.2280172348304967,-3.1573799226591373,-4.767978953487886,-0.017346335086949983,0.004014968158821506,-0.38897508127885166
11489,2.0,299.81964,36638.14,0.0,0.0,-0.1148900066634706,0.0,0.0,0.0,-3.2264322076990672,-3.153743469375247,-4.756904028569875,0.0024449448295722678,-0.00932744441129709,-0.3880901289065137
11490,2.0,299.5672,36771.734,0.0,0.0,-0.11490001108384473,0.0,0.0,0.0,-3.212911094389637,-3.166808822789697,-4.797969129947686,0.005285885226126255,-0.015703868833851185,-0.39065343887699266
11491,2.0,299.8354,36764.416,0.0,0.0,-0.11491001550421864,0.0,0.0,0.0,-3.229167678994037,-3.160964598862917,-4.785332077350505,0.02300237009915718,0.006731056384678544,-0.37997860589346866
11492,2.0,299.37661,36576.457,0.0,0.0,-0.11491998701531558,0.0,0.0,0.0,-3.2018973697776674,-3.146171755352977,-4.770260488738055,-0.0022471851598549076,0.01981194444303668,-0.38741993489287063
11493,2.0,299.33572000000004,36600.111000000004,0.0,0.0,-0.1149299914356895,0.0,0.0,0.0,-3.218854819476237,-3.134191491470617,-4.772473629606475,-0.002370636106988568,0.010338450162325591,-0.38428419941089764
11494,2.0,299.60354,36728.797999999995,0.0,0.0,-0.11493999585606374,0.0,0.0,0.0,-3.236442308086987,-3.154056361006127,-4.774138804820816,-0.024512497783195177,-0.013574914863239789,-0.3597565353002056
11495,2.0,299.57724,36661.058,0.0,0.0,-0.11495000027643787,0.0,0.0,0.0,-3.210505841302257,-3.141815083898007,-4.7917251788564545,-0.0043649171829587856,-0.0014222818387932888,-0.3752394831882537
11496,2.0,299.73637,36780.547999999995,0.0,0.0,-0.11496000469681222,0.0,0.0,0.0,-3.2115421935045365,-3.182314487744987,-4.7865117031169255,-0.0038404464682225566,7.598305352594353e-05,-0.38243138041053865
11497,2.0,299.61651,36834.266,0.0,0.0,-0.11497000911718636,0.0,0.0,0.0,-3.2341760729133266,-3.1660799919927674,-4.796441148796886,0.007135597703003664,-0.002877013822639157,-0.38864594724886864
11498,2.0,300.06116000000003,36757.138999999996,0.0,0.0,-0.11498001353756027,0.0,0.0,0.0,-3.234125714383357,-3.1464501964804574,-4.792676620700354,-0.017819005112848882,0.001088559913682499,-0.37670994213087666
11499,2.0,300.33968,36823.047,0.0,0.0,-0.11498998504865698,0.0,0.0,0.0,-3.2528859386598468,-3.1588938196335468,-4.781506956897996,0.006158444333841134,0.01199627627369029,-0.3880824383382546
11500,2.0,300.63603,36924.982,0.0,0.0,-0.11499998946903112,0.0,0.0,0.0,-3.2626804194264865,-3.163586282171657,-4.798005708276295,0.001959247041837628,0.005560460601824735,-0.36581000550513665
11501,2.0,299.91866,36763.464,0.0,0.0,-0.11500999388940536,0.0,0.0,0.0,-3.2226147879473173,-3.161005331516937,-4.791555054164665,0.002731108544014427,-0.016168732780979685,-0.38368749642700767
11502,2.0,299.68581,36659.052,0.0,0.0,-0.11501999830977949,0.0,0.0,0.0,-3.201162358155127,-3.159162330910047,-4.783111742406375,0.006215646658961563,-0.02936224409457787,-0.37308480685060363
11503,2.0,299.74913,36772.117,0.0,0.0,-0.11503000273015362,0.0,0.0,0.0,-3.2252685912842267,-3.162778721841957,-4.789758055112316,0.006253243810547114,-0.01056756526168749,-0.37356534071052866
11504,2.0,299.80053,36813.459,0.0,0.0,-0.11504000715052776,0.0,0.0,0.0,-3.227504732929917,-3.1777912379735764,-4.785076333025265,0.020664510302428378,0.008266710371860794,-0.38962332829532864
11505,2.0,300.19692000000003,36753.94,0.0,0.0,-0.11505001157090211,0.0,0.0,0.0,-3.231198029544417,-3.175263584274117,-4.765818400299655,0.01283944525165459,0.001041864282823999,-0.38679287493598463
11506,2.0,300.79,36821.016,0.0,0.0,-0.11506001599127613,0.0,0.0,0.0,-3.2270217166072466,-3.178494737518007,-4.787152887780205,0.008627659543058702,0.01018611915554169,-0.3855735702956486
11507,2.0,300.99016,36849.627,0.0,0.0,-0.11506998750237274,0.0,0.0,0.0,-3.223381412972977,-3.1808657427520073,-4.797119418413826,0.002882968794801867,0.01941214635107968,-0.37874590608681064
11508,2.0,300.24079,36826.247,0.0,0.0,-0.11507999192274698,0.0,0.0,0.0,-3.215214819816997,-3.176935041639077,-4.8021095738313155,0.00016880118450937986,0.01115941781734879,-0.3930971954681726
11509,2.0,300.28422,36843.79,0.0,0.0,-0.11508999634312111,0.0,0.0,0.0,-3.2220340943150068,-3.1672122989795173,-4.810345675944155,-0.014344384081930487,-0.015427581876083786,-0.37867683282749365
11510,2.0,299.84605,36784.791,0.0,0.0,-0.11510000076349525,0.0,0.0,0.0,-3.2362923470721867,-3.146642511349437,-4.798723190672105,-0.012524562584328089,-0.01160357295893349,-0.3790854867253246
11511,2.0,300.27134,36814.537000000004,0.0,0.0,-0.11511000518386938,0.0,0.0,0.0,-3.2489825952996174,-3.143078505447697,-4.798638888263786,-0.01992465331791018,0.020897712852693682,-0.37150615306230267
11512,2.0,299.77557,36880.433,0.0,0.0,-0.11512000960424362,0.0,0.0,0.0,-3.243150834349067,-3.1617836089187468,-4.805796486970185,0.012230455597051989,0.015367543767908486,-0.3794865311149046
11513,2.0,299.54321,36974.416,0.0,0.0,-0.11513001402461776,0.0,0.0,0.0,-3.254725291566377,-3.1778268030520866,-4.806747118214005,0.009193155335793792,-0.01977185114982978,-0.3757452165781657
11514,2.0,299.5513,36881.221,0.0,0.0,-0.11513998553571436,0.0,0.0,0.0,-3.2425004291098767,-3.155584038181897,-4.812885792619846,0.028295962510844073,-0.03216000595269547,-0.3594656615939986
11515,2.0,299.87143,36848.355,0.0,0.0,-0.1151499899560886,0.0,0.0,0.0,-3.2360021522435467,-3.169794161559327,-4.795183401447755,0.00964159216832606,-0.017771619458672283,-0.37131370647080963
11516,2.0,300.25498999999996,36953.303,0.0,0.0,-0.11515999437646252,0.0,0.0,0.0,-3.2736036608045267,-3.156366773884147,-4.802910852010395,0.011687527822469188,-0.0025256528344875274,-0.36424611477079266
11517,2.0,300.74047,36914.77,0.0,0.0,-0.11516999879683665,0.0,0.0,0.0,-3.2791359050255173,-3.145309276867857,-4.796723136299716,-0.0077193337200639235,-0.001932279694401158,-0.38378212385384664
11518,2.0,300.21055,36762.151,0.0,0.0,-0.115180003217211,0.0,0.0,0.0,-3.225592122041157,-3.1587914813734472,-4.790392248349905,0.006364763332453233,0.03087719586234197,-0.3974530968530666
11519,2.0,300.67914,36858.149,0.0,0.0,-0.11519000763758525,0.0,0.0,0.0,-3.2436946456777367,-3.161493008790067,-4.798769293551655,4.124012817358376e-05,0.03259389585751707,-0.3842971892771796
11520,2.0,300.84177999999997,36979.237,0.0,0.0,-0.11520001205795938,0.0,0.0,0.0,-3.2328097051534765,-3.1966953437642673,-4.811259627534355,-0.005355669483038425,0.007739972307375793,-0.3933000177406897
11521,2.0,300.13773,36848.58,0.0,0.0,-0.11520998356905587,0.0,0.0,0.0,-3.2184850845147466,-3.184966872531757,-4.797596355235895,-0.009163619095378791,-0.049271719939240156,-0.39052253709657364
11522,2.0,300.37568,36873.726,0.0,0.0,-0.11521998798943023,0.0,0.0,0.0,-3.238978067787247,-3.1768265225533674,-4.792887478046166,-0.0012278144213008488,-0.027588728126545472,-0.37653425469603763
11523,2.0,299.95027000000005,36954.413,0.0,0.0,-0.11522999240980414,0.0,0.0,0.0,-3.2565972711261266,-3.181846163548767,-4.794775365632486,0.00016970210570329384,0.02217262465851768,-0.3826702743866156
11524,2.0,300.18814,36859.635,0.0,0.0,-0.11523999683017827,0.0,0.0,0.0,-3.2299836492995673,-3.1780833579774073,-4.796341546312055,0.0016686649490094086,0.04473693634194186,-0.38289042323584266
11525,2.0,300.19342,36803.242999999995,0.0,0.0,-0.11525000125055251,0.0,0.0,0.0,-3.229992261925417,-3.158608691055407,-4.798666043366466,-0.01098452274408799,0.01037074041651239,-0.38109793314643764
11526,2.0,299.83873,36860.257000000005,0.0,0.0,-0.11526000567092665,0.0,0.0,0.0,-3.229857702312137,-3.162651558954407,-4.812088466116155,0.007244823530658414,0.004091270653626976,-0.36519054492400066
11527,2.0,299.14918,36827.864,0.0,0.0,-0.115270010091301,0.0,0.0,0.0,-3.243525534236047,-3.1510751765619074,-4.800150454762965,0.023831312032467376,0.005747843881243025,-0.38236528610651566
11528,2.0,300.14411,37054.026,0.0,0.0,-0.11528001451167513,0.0,0.0,0.0,-3.292449808689497,-3.1595825257265173,-4.811466229229746,0.015107310744725487,0.006045341304678735,-0.3722329674915337
11529,2.0,299.93367,37264.969,0.0,0.0,-0.11528998602277163,0.0,0.0,0.0,-3.309919962938667,-3.1792291411904867,-4.838470864269895,-0.01048998576778099,-0.012059390609169189,-0.3813990710761576
11530,2.0,299.78606,37120.782,0.0,0.0,-0.11529999044314576,0.0,0.0,0.0,-3.267559623958027,-3.185974853731237,-4.830256243059175,-0.02300000314692358,0.007546977040953643,-0.3752542766397136
11531,2.0,299.99851,36980.383,0.0,0.0,-0.1153099948635199,0.0,0.0,0.0,-3.2445488155120366,-3.176521230298237,-4.8200429860262055,-0.011767959615407188,0.026700747149658578,-0.38313465703994665
11532,2.0,300.68272,37026.676,0.0,0.0,-0.11531999928389414,0.0,0.0,0.0,-3.2455325800341264,-3.193840106307477,-4.815812362883675,-0.015791921280791283,0.002976630898270597,-0.36237250387838166
11533,2.0,300.62989,36861.962999999996,0.0,0.0,-0.11533000370426827,0.0,0.0,0.0,-3.2399054956037765,-3.170124683741947,-4.795086332088175,-0.01173364995377109,-0.03384434881917717,-0.3630603689737687
11534,2.0,300.67191,36806.443999999996,0.0,0.0,-0.1153400081246424,0.0,0.0,0.0,-3.235277779747057,-3.163426897930927,-4.789535140090315,0.0027047058808586876,-0.023539883065205578,-0.3582974044937007
11535,2.0,299.75894,36938.622,0.0,0.0,-0.11535001254501653,0.0,0.0,0.0,-3.238802572869927,-3.1759445896663268,-4.813671568072396,0.02954888374974777,0.01271217597284409,-0.38256729777895265
11536,2.0,299.62146,37078.071,0.0,0.0,-0.11535998405611325,0.0,0.0,0.0,-3.2461755885475867,-3.207273573483257,-4.817358582536275,0.02153982362656508,0.023827627855103777,-0.4010056834261796
11537,2.0,300.04681,37025.34,0.0,0.0,-0.11536998847648738,0.0,0.0,0.0,-3.247334240036937,-3.1910232710294766,-4.816421427518786,0.015148203492261288,-0.00995097856181012,-0.40481076179171166
11538,2.0,300.15168,36978.771,0.0,0.0,-0.11537999289686152,0.0,0.0,0.0,-3.2302057537214868,-3.1889207770719765,-4.821496594619666,-0.00917471702107407,0.0077296397908060525,-0.3983375628653566
11539,2.0,300.50292,37054.612,0.0,0.0,-0.11538999731723576,0.0,0.0,0.0,-3.267570567059107,-3.1766177930327673,-4.819488332921466,-0.0030824313326372867,-0.004982950398678915,-0.37783213688162864
11540,2.0,300.24397,36918.612,0.0,0.0,-0.11540000173760989,0.0,0.0,0.0,-3.251042026127867,-3.168748386131117,-4.802545676674355,-0.005394605036681065,-0.013983966968360087,-0.38313032032951866
11541,2.0,300.22271,36913.812000000005,0.0,0.0,-0.11541000615798402,0.0,0.0,0.0,-3.257180193908657,-3.162201473259987,-4.801495442945705,-0.023082269935792682,-0.03161903375080567,-0.3689290730229646
11542,2.0,299.96362,37082.488,0.0,0.0,-0.11542001057835816,0.0,0.0,0.0,-3.265811058260457,-3.174252461999327,-4.832086780689836,-0.003041017065275017,-0.005723795302044614,-0.36751409965581766
11543,2.0,300.18498,37055.265,0.0,0.0,-0.1154300149987324,0.0,0.0,0.0,-3.2603393050704366,-3.1782345348923267,-4.825301348745166,0.009418907458073791,0.013474031630283387,-0.3533767884305737
11544,2.0,299.5903,37085.032,0.0,0.0,-0.115439986509829,0.0,0.0,0.0,-3.248480631200077,-3.1872236844794872,-4.837219399071386,0.018870032216327184,0.0053768042589242655,-0.3726970968323397
11545,2.0,300.02005,37234.703,0.0,0.0,-0.11544999093020314,0.0,0.0,0.0,-3.291501609245917,-3.1793207389995266,-4.847597815870655,0.014904845136243685,-0.029059300553179675,-0.34599560595710765
11546,2.0,300.19627,37110.227,0.0,0.0,-0.11545999535057738,0.0,0.0,0.0,-3.267577051859747,-3.1774849324683467,-4.835520279978696,0.007101423411580924,-0.015147569197698685,-0.37044223032480167
11547,2.0,300.4627,37000.289,0.0,0.0,-0.11546999977095129,0.0,0.0,0.0,-3.2504411688185675,-3.178577520051177,-4.818145371238925,0.0005419658354678634,-0.012618986347896988,-0.3727407375141466
11548,2.0,300.40736,37024.057,0.0,0.0,-0.11548000419132542,0.0,0.0,0.0,-3.262656000099077,-3.1823669741001672,-4.809365964422466,0.007823593507653562,-0.0006419976444977344,-0.4132490376970046
11549,2.0,300.22094,37046.724,0.0,0.0,-0.11549000861169978,0.0,0.0,0.0,-3.2423087221909572,-3.197050183949287,-4.821920234486475,-0.006657076157777263,0.003296057485670547,-0.3932938875775846
11550,2.0,299.49793999999997,36918.424,0.0,0.0,-0.11550001303207402,0.0,0.0,0.0,-3.230848559584927,-3.1911402000910174,-4.800290485926785,0.007901688644535951,0.009187130955999231,-0.40637739843382664
11551,2.0,299.34612999999996,37024.226,0.0,0.0,-0.11550998454317052,0.0,0.0,0.0,-3.2396060801992266,-3.192772444677107,-4.822061886850455,-0.01966071078611108,0.013611027096803787,-0.3711517080448216
11552,2.0,299.80959,37108.344,0.0,0.0,-0.11551998896354465,0.0,0.0,0.0,-3.2500202647270267,-3.209089317662457,-4.820900499585836,0.0013783405256816187,0.0014228035612697787,-0.38594974952777467
11553,2.0,299.74502,37001.437000000005,0.0,0.0,-0.115529993383919,0.0,0.0,0.0,-3.247986874426347,-3.180796841745207,-4.818729104621536,-0.014962289324162987,-0.012283150681752588,-0.37189430891061065
11554,2.0,300.17711,37059.95,0.0,0.0,-0.11553999780429292,0.0,0.0,0.0,-3.2609731943329967,-3.184483248259027,-4.819842970456466,0.007579636016851832,0.014419779008621385,-0.38375682299884967
11555,2.0,299.78882999999996,37107.455,0.0,0.0,-0.11555000222466705,0.0,0.0,0.0,-3.2378156672725265,-3.2011950861333567,-4.840728892117745,-0.011033213464393388,0.012097826225212488,-0.3756037060691996
11556,2.0,300.47172,36961.234,0.0,0.0,-0.11556000664504129,0.0,0.0,0.0,-3.239283258717367,-3.177790528698507,-4.818218629221155,0.0023612669886139076,0.013924861050276788,-0.38979505392227665
11557,2.0,300.70362,36981.905,0.0,0.0,-0.11557001106541542,0.0,0.0,0.0,-3.251670747814917,-3.162504232389867,-4.8274006003023455,0.005707520681588434,-0.002543523526501228,-0.37560753615457765
11558,2.0,301.40853,37133.323,0.0,0.0,-0.11558001548578978,0.0,0.0,0.0,-3.275017347344047,-3.1896197169909573,-4.822965908589675,0.015862661336522785,0.0024311469976605275,-0.38070756841291165
11559,2.0,300.77785,37134.62,0.0,0.0,-0.11558998699688627,0.0,0.0,0.0,-3.301490532706747,-3.1704263282967173,-4.816080570185146,0.01109294759753869,-0.00891016238488956,-0.37176307275765863
11560,2.0,300.52263,37217.65,0.0,0.0,-0.1155999914172604,0.0,0.0,0.0,-3.283249396456487,-3.194336801506497,-4.835650178641515,-0.0024015334462628977,-0.006199584314401334,-0.38843686309073366
11561,2.0,300.048,37294.078,0.0,0.0,-0.11560999583763454,0.0,0.0,0.0,-3.304406666494547,-3.198739373190997,-4.8333224391867855,-0.02489413235385958,-0.0006262217660057764,-0.37346179668280965
11562,2.0,300.79872,37218.057,0.0,0.0,-0.11562000025800867,0.0,0.0,0.0,-3.271991478570417,-3.179349312652347,-4.862019303218945,-0.01796899956490218,0.012477056353389589,-0.3731123267233197
11563,2.0,300.07807,37037.962,0.0,0.0,-0.11563000467838291,0.0,0.0,0.0,-3.252173826489567,-3.169343467914847,-4.837098315684436,-0.007830095128245222,0.03601871260627017,-0.37130762697020964
11564,2.0,299.47837999999996,37127.365,0.0,0.0,-0.11564000909875705,0.0,0.0,0.0,-3.239865674874847,-3.203243168560487,-4.842683147585616,-0.015527313043676485,0.008260481518196052,-0.38619359829684063
11565,2.0,299.56536,37113.994,0.0,0.0,-0.11565001351913118,0.0,0.0,0.0,-3.262373303321177,-3.183389546101087,-4.835964590147545,0.013943538289370087,-0.015297922340287384,-0.37185654507938365
11566,2.0,300.01538999999997,36992.877,0.0,0.0,-0.1156599850302279,0.0,0.0,0.0,-3.212505186399577,-3.2106831600697574,-4.821722650716975,0.0017585518852555582,-0.01117065476095779,-0.40821700465288163
11567,2.0,299.93056,37107.872,0.0,0.0,-0.11566998945060203,0.0,0.0,0.0,-3.2531115894571174,-3.198058367798787,-4.828696547180246,0.029440596698310676,0.0026163786404914675,-0.3969781054711886
11568,2.0,300.41632999999996,37183.934,0.0,0.0,-0.11567999387097616,0.0,0.0,0.0,-3.259332945071117,-3.204119427246967,-4.839535080849925,-0.005132445115782896,-0.0003533945101748226,-0.4023735203986746
11569,2.0,300.1488,37138.034,0.0,0.0,-0.1156899982913503,0.0,0.0,0.0,-3.2645108557321367,-3.1953593735074173,-4.829164770051455,-0.01050026924304589,-0.0016765501626126182,-0.38862471965927364
11570,2.0,300.59511000000003,37092.547,0.0,0.0,-0.11570000271172431,0.0,0.0,0.0,-3.266028805706947,-3.181849405949087,-4.8273299767703755,-0.007195864197751503,0.013236353554326386,-0.38017312964766664
11571,2.0,300.42415,37164.528,0.0,0.0,-0.11571000713209867,0.0,0.0,0.0,-3.301129005071067,-3.170644785018277,-4.825314824971495,0.007777495187729013,0.01911241683899868,-0.37067827706809764
11572,2.0,300.14532,37205.955,0.0,0.0,-0.1157200115524728,0.0,0.0,0.0,-3.281293621113467,-3.176958143741357,-4.851429522448816,0.006069626579100504,-0.013638507452765885,-0.3777760940185977
11573,2.0,299.81098,37243.399,0.0,0.0,-0.11573001597284693,0.0,0.0,0.0,-3.287009364927567,-3.1916417588905173,-4.842412305833886,-0.0037699702628170963,-0.02201835023804198,-0.37416354330456664
11574,2.0,299.85371000000004,37292.384,0.0,0.0,-0.11573998748394343,0.0,0.0,0.0,-3.2667736458554573,-3.195084478755287,-4.874095319235755,-0.008469191989694171,0.007154956454114223,-0.3719873556672937
11575,2.0,299.58518,37184.552,0.0,0.0,-0.11574999190431778,0.0,0.0,0.0,-3.2666770831209266,-3.187361587818097,-4.849136436147505,-0.004458555576375176,0.012370906246413387,-0.3707148959267117
11576,2.0,300.10231,37164.446,0.0,0.0,-0.11575999632469192,0.0,0.0,0.0,-3.261137746149237,-3.193604525659227,-4.842321315974905,-0.005486491824649584,-0.0017254480925634683,-0.38177205857046864
11577,2.0,299.89577,37233.488,0.0,0.0,-0.11577000074506616,0.0,0.0,0.0,-3.2669635289241965,-3.199907042606237,-4.851179958949186,-0.017350338438095084,-0.024865029784487378,-0.3738778878363746
11578,2.0,299.46117000000004,37151.596,0.0,0.0,-0.11578000516544007,0.0,0.0,0.0,-3.253115642457517,-3.204763550335537,-4.8352784171798255,0.008995933803204542,-0.008893020017047741,-0.3826803663576116
11579,2.0,299.75741,37165.093,0.0,0.0,-0.1157900095858142,0.0,0.0,0.0,-3.258197800984087,-3.1965905737039266,-4.842471986264775,0.010123264110763381,0.012233670639619288,-0.37073457324365366
11580,2.0,299.42278999999996,37248.017,0.0,0.0,-0.11580001400618856,0.0,0.0,0.0,-3.2747303949157267,-3.201305226419227,-4.846431362355536,0.01936592998751848,0.001057033852721119,-0.38365783859658065
11581,2.0,299.96648999999996,37262.234,0.0,0.0,-0.11580998551728505,0.0,0.0,0.0,-3.277457861534907,-3.1986453435817173,-4.850685492900386,0.007668764940698174,0.0004819241201222075,-0.3846439943889066
11582,2.0,300.25971,37266.68,0.0,0.0,-0.1158199899376593,0.0,0.0,0.0,-3.276762873291317,-3.1962866999989368,-4.855090699035145,0.014831046078460287,0.02167957006710698,-0.4050863962164146
11583,2.0,299.85187,37283.954,0.0,0.0,-0.11582999435803343,0.0,0.0,0.0,-3.270876295510357,-3.2158122320759572,-4.846702406757286,0.0012675381821962788,0.016773263121892184,-0.38677376503909866
11584,2.0,299.90822000000003,37268.81,0.0,0.0,-0.11583999877840778,0.0,0.0,0.0,-3.287510113126987,-3.204254189510267,-4.837023233852025,-0.015193317439713685,-0.02344274075161838,-0.4042864555274666
11585,2.0,300.54522000000003,37174.857,0.0,0.0,-0.11585000319878169,0.0,0.0,0.0,-3.254917302460327,-3.200192779134437,-4.845118088900925,-0.01966875700515518,-0.037368839993517367,-0.38451228200840765
11586,2.0,300.22629,37053.021,0.0,0.0,-0.11586000761915582,0.0,0.0,0.0,-3.2376388551300765,-3.191725655998797,-4.833828760261755,-0.005395214202641185,0.008663220669893312,-0.3805792909502516
11587,2.0,300.59362999999996,37262.535,0.0,0.0,-0.11587001203953007,0.0,0.0,0.0,-3.2720079945470473,-3.1967815713477767,-4.858090831256236,0.004006855470570846,0.025429598554705973,-0.3617303363625047
11588,2.0,300.05047,37342.404,0.0,0.0,-0.11587998355062668,0.0,0.0,0.0,-3.301704429802857,-3.2033991077508768,-4.8460547372933656,0.0030393307131335876,-0.0006118372014911304,-0.37173208756960063
11589,2.0,299.42069,37270.215,0.0,0.0,-0.11588998797100092,0.0,0.0,0.0,-3.297181382681467,-3.198254127718107,-4.8337793136568745,-0.0016601796886969785,-0.014778490822273485,-0.38183877095705265
11590,2.0,300.01873,37297.027,0.0,0.0,-0.11589999239137505,0.0,0.0,0.0,-3.2997593949108968,-3.182345695848067,-4.8552597091518255,0.017616179800581583,0.014765201033961884,-0.36346519278622164
11591,2.0,300.04753,37341.355,0.0,0.0,-0.11590999681174918,0.0,0.0,0.0,-3.295290050044807,-3.2100371118059967,-4.845512445839845,0.005284069076647016,-0.0008288907337826462,-0.3884636331583756
11592,2.0,299.52321,37365.597,0.0,0.0,-0.11592000123212332,0.0,0.0,0.0,-3.2945162309434366,-3.194831976830367,-4.868860058619075,-0.004080565868970496,-0.02039608312568668,-0.3767869998009816
11593,2.0,299.78086,37364.695,0.0,0.0,-0.11593000565249745,0.0,0.0,0.0,-3.2934436043875768,-3.1978744629056366,-4.866616216272625,-0.00956464980608244,-0.018111338912449985,-0.3945039716420106
11594,2.0,300.05036,37165.462999999996,0.0,0.0,-0.11594001007287169,0.0,0.0,0.0,-3.2550945199028174,-3.191690800195357,-4.850587511615715,-0.0018541132247117283,0.030814703662424472,-0.38448051661777266
11595,2.0,300.81951000000004,37170.693999999996,0.0,0.0,-0.11595001449324582,0.0,0.0,0.0,-3.2609719784328766,-3.188869810591947,-4.849121136070996,-0.002892137188331717,0.01119083161019909,-0.39279695933104164
11596,2.0,300.68619,37405.421,0.0,0.0,-0.11595998600434232,0.0,0.0,0.0,-3.278374244925347,-3.226805995660957,-4.865133628726305,-0.01027984580304179,-0.014468195138149684,-0.3792840938774256
11597,2.0,300.30608,37332.93,0.0,0.0,-0.11596999042471667,0.0,0.0,0.0,-3.278010386814437,-3.226576595838317,-4.843691635410146,-0.006099515734525334,-0.004796582193210806,-0.3858675749446646
11598,2.0,299.94617,37207.84,0.0,0.0,-0.1159799948450908,0.0,0.0,0.0,-3.2457712004326766,-3.2077201128023267,-4.856762764350165,0.017319421137793785,0.02144766245046948,-0.35965802712548367
11599,2.0,300.31626,37261.957,0.0,0.0,-0.11598999926546494,0.0,0.0,0.0,-3.271452328192207,-3.208751905379157,-4.846500364687345,0.005117115249719956,0.019060846461909083,-0.3793731585612156
11600,2.0,299.84682999999995,37428.293,0.0,0.0,-0.11600000368583907,0.0,0.0,0.0,-3.276065655897507,-3.2182478826663368,-4.882952948959936,-0.008429260208553212,-0.011453745693146689,-0.3720411491151026
11601,2.0,299.77935,37418.561,0.0,0.0,-0.11601000810621309,0.0,0.0,0.0,-3.314264880692477,-3.216950010613247,-4.843093412551105,-0.004880129932856326,-0.004418449110916976,-0.4017675056463656
11602,2.0,299.62978,37369.775,0.0,0.0,-0.11602001252658745,0.0,0.0,0.0,-3.305206222148457,-3.190900363792347,-4.863371890777436,0.004133473938842116,0.002988431512910227,-0.3806381810460637
11603,2.0,299.57066000000003,37305.692,0.0,0.0,-0.11602998403768394,0.0,0.0,0.0,-3.2936914453620365,-3.191367066788407,-4.854940434045315,0.020250356483054583,-0.011347871190197688,-0.38814952562737565
11604,2.0,300.39893,37293.182,0.0,0.0,-0.11603998845805807,0.0,0.0,0.0,-3.276819615296917,-3.198019560319957,-4.8613570429535855,-0.017210547414548784,-0.015517180542676486,-0.37586256107224664
11605,2.0,300.04815,37362.98,0.0,0.0,-0.1160499928784322,0.0,0.0,0.0,-3.293874539655107,-3.1963586407560367,-4.867179887303255,-0.011563618480990289,-0.004092775127375456,-0.38060706413549267
11606,2.0,300.1725,37346.125,0.0,0.0,-0.11605999729880656,0.0,0.0,0.0,-3.284109645791387,-3.212093097583907,-4.856086622558436,-0.01036381586532899,0.03093553272359937,-0.36872300835012767
11607,2.0,300.29491,37221.62,0.0,0.0,-0.1160700017191808,0.0,0.0,0.0,-3.2855390377074567,-3.198754774592517,-4.830149345173625,-0.007344265111372533,0.014110597899607587,-0.38849939075440465
11608,2.0,300.71292,37298.521,0.0,0.0,-0.11608000613955494,0.0,0.0,0.0,-3.2806965128295364,-3.208662638045347,-4.848459889055736,0.01116064790297019,-0.01119189754930429,-0.39076977012097364
11609,2.0,299.96367000000004,37495.104,0.0,0.0,-0.11609001055992885,0.0,0.0,0.0,-3.3037930422339867,-3.238989720163397,-4.8547927021807356,0.01171420669760219,-0.0026049043937090475,-0.3975357375312226
11610,2.0,300.37746,37527.517,0.0,0.0,-0.11610001498030298,0.0,0.0,0.0,-3.3076374144383967,-3.218907812456467,-4.880882879005636,0.017653798737044285,0.01103867386918229,-0.37816765438724165
11611,2.0,299.93942999999996,37308.205,0.0,0.0,-0.1161099864913997,0.0,0.0,0.0,-3.257348494750267,-3.224054109714367,-4.859360129656505,0.008309796096588022,-0.006002873662512505,-0.39099499535320165
11612,2.0,299.64543,37337.105,0.0,0.0,-0.11611999091177383,0.0,0.0,0.0,-3.273153271135077,-3.2167241571659573,-4.859669981537086,-0.016499861900409585,0.0017819787341926082,-0.3858463473550696
11613,2.0,300.04841,37469.341,0.0,0.0,-0.11612999533214807,0.0,0.0,0.0,-3.318674646452687,-3.199438313109977,-4.871631196317566,-0.005175666008073464,0.0047363983796711254,-0.39048586757545467
11614,2.0,299.68228,37413.215,0.0,0.0,-0.1161399997525222,0.0,0.0,0.0,-3.289520705300417,-3.227145738419487,-4.856016708301536,-0.01127313994232229,0.006927522437993234,-0.38231394472394864
11615,2.0,299.72942,37322.77,0.0,0.0,-0.11615000417289656,0.0,0.0,0.0,-3.286530300280287,-3.1887083998510173,-4.869951328976775,-0.008041114695396232,-0.019132357600966682,-0.38280423618233667
11616,2.0,299.86102999999997,37375.465,0.0,0.0,-0.11616000859327047,0.0,0.0,0.0,-3.278352156073167,-3.220162317405277,-4.862693722485505,0.012531905607802788,-0.02398287195592518,-0.3826928901288476
11617,2.0,300.19197,37390.754,0.0,0.0,-0.1161700130136446,0.0,0.0,0.0,-3.262142586273407,-3.2388437108239865,-4.864869373100225,0.012761319615944186,0.009320170187504181,-0.39015114040491966
11618,2.0,300.02653,37489.04,0.0,0.0,-0.11617998452474132,0.0,0.0,0.0,-3.310875761757997,-3.1997361073143673,-4.8851200882738155,0.018274477244800483,0.005088670684962696,-0.37359514039596964
11619,2.0,300.38541000000004,37604.416,0.0,0.0,-0.11618998894511545,0.0,0.0,0.0,-3.3224765634779065,-3.237712417087337,-4.870614602492235,-0.011244413288737189,0.002189409132527858,-0.38014383658727563
11620,2.0,299.9957,37333.515,0.0,0.0,-0.1161999933654897,0.0,0.0,0.0,-3.286231188850767,-3.2066988580265368,-4.855526497903155,-0.0019774035717045383,-0.012061396844367188,-0.3842429398668256
11621,2.0,300.48361,37389.263,0.0,0.0,-0.11620999778586383,0.0,0.0,0.0,-3.286862139688037,-3.218077251349497,-4.8604630523903545,0.009853240761139151,0.002886615684561787,-0.37382975845662464
11622,2.0,300.3463,37623.867,0.0,0.0,-0.11622000220623796,0.0,0.0,0.0,-3.310959760191287,-3.2390736172716768,-4.886682722578036,-0.004951120970637595,0.011857947370038289,-0.3845654877711586
11623,2.0,299.72314,37627.421,0.0,0.0,-0.11623000662661209,0.0,0.0,0.0,-3.3071849982687467,-3.213164710889667,-4.917446718139205,0.0017444691274156984,-0.0067652026090735135,-0.36575053785676764
11624,2.0,299.87746,37464.295,0.0,0.0,-0.11624001104698622,0.0,0.0,0.0,-3.2945936432510767,-3.2386169454516067,-4.854999506526145,0.0033732316795370464,0.0034370834584387263,-0.4013129819165076
11625,2.0,300.18557999999996,37496.574,0.0,0.0,-0.11625001546736047,0.0,0.0,0.0,-3.3072000956952365,-3.209832131310767,-4.880989979541205,0.020539314133322478,0.03578056438226676,-0.37911029108777267
11626,2.0,299.44371,37448.372,0.0,0.0,-0.11625998697845696,0.0,0.0,0.0,-3.293931382985717,-3.207763986531657,-4.881674632633775,0.018389988769450583,0.009002833225785462,-0.3893937359551697
11627,2.0,299.53652999999997,37420.177,0.0,0.0,-0.1162699913988311,0.0,0.0,0.0,-3.296467851961047,-3.225400516447247,-4.8529311590970154,-0.018345706700330283,-0.006644359970347275,-0.39314028899492565
11628,2.0,299.58224,37462.83,0.0,0.0,-0.11627999581920545,0.0,0.0,0.0,-3.281473776981247,-3.1994354760096972,-4.906855721468955,-0.00954224147614591,-0.01102557254538929,-0.3848278891495556
11629,2.0,299.81615,37328.001000000004,0.0,0.0,-0.11629000023957958,0.0,0.0,0.0,-3.278899311127167,-3.214291039700827,-4.853589872987025,-0.012656193904819089,0.0016095888204790483,-0.39623389353774063
11630,2.0,300.23434,37350.835,0.0,0.0,-0.11630000465995372,0.0,0.0,0.0,-3.277248118764207,-3.213051936153537,-4.863421236057305,-0.013372952840057689,0.001222673798243509,-0.37182809301657566
11631,2.0,299.87557000000004,37467.949,0.0,0.0,-0.11631000908032785,0.0,0.0,0.0,-3.299706705905697,-3.212131803737727,-4.877482512995045,-0.011680595165284989,-0.011945137541143288,-0.3943915312784136
11632,2.0,300.0168,37647.308,0.0,0.0,-0.11632001350070187,0.0,0.0,0.0,-3.3275771631562967,-3.237959447461717,-4.8783048667762055,0.005279964907116965,0.007893814272708811,-0.37312114199918966
11633,2.0,300.78971,37583.44,0.0,0.0,-0.1163299850117987,0.0,0.0,0.0,-3.301873237269517,-3.221274359390027,-4.901279704843645,0.02157306228284548,0.016993012750579784,-0.38295765237997764
11634,2.0,300.27265,37475.595,0.0,0.0,-0.11633998943217272,0.0,0.0,0.0,-3.2908024666769173,-3.2387592057656467,-4.862083441950276,0.007971773836727822,0.009026931555563783,-0.38056003919835163
11635,2.0,299.83109,37567.956,0.0,0.0,-0.11634999385254685,0.0,0.0,0.0,-3.3093785834102367,-3.221983229159987,-4.888358739568446,-0.007747315634825523,-6.711768155774943e-05,-0.40169071142128665
11636,2.0,300.0329,37636.135,0.0,0.0,-0.11635999827292098,0.0,0.0,0.0,-3.314102963326497,-3.219461452311107,-4.906880951396445,-0.008642333431006902,9.323248036007941e-05,-0.38289412159870767
11637,2.0,300.1598,37450.297,0.0,0.0,-0.11637000269329534,0.0,0.0,0.0,-3.2905066989727265,-3.231458536145127,-4.861989817641036,-0.005527526325874375,0.003344458112472317,-0.4056600072305256
11638,2.0,299.80512000000004,37383.011,0.0,0.0,-0.11638000711366958,0.0,0.0,0.0,-3.274974284214797,-3.197466832390407,-4.891060672285105,-0.003141430555485057,-0.006308979152172764,-0.3735953025159856
11639,2.0,300.01227,37355.095,0.0,0.0,-0.11639001153404371,0.0,0.0,0.0,-3.268552811706047,-3.217579948200417,-4.868883363371375,0.008577949999777752,0.0003167314029289557,-0.3940014097249116
11640,2.0,299.86111,37443.229,0.0,0.0,-0.11640001595441762,0.0,0.0,0.0,-3.2717953133510567,-3.227846907488687,-4.882164336407105,-5.0613906485453654e-05,-0.012467482153194686,-0.3884975770367256
11641,2.0,300.05644,37623.854,0.0,0.0,-0.11640998746551434,0.0,0.0,0.0,-3.3252712085787173,-3.227956541149507,-4.8834843986373855,0.007355767526507733,-0.01744878176481068,-0.38196785901979263
11642,2.0,300.26575,37629.005,0.0,0.0,-0.11641999188588847,0.0,0.0,0.0,-3.302264351808117,-3.259583623145857,-4.876430050116175,-0.0026536252075424174,-0.019142247935192782,-0.4063808840141706
11643,2.0,300.07538,37564.742,0.0,0.0,-0.1164299963062626,0.0,0.0,0.0,-3.3155665017709364,-3.2141857630154367,-4.8889912102808655,-0.004148368107362056,-0.0016084413147407985,-0.38158580293708666
11644,2.0,299.67475,37606.379,0.0,0.0,-0.11644000072663685,0.0,0.0,0.0,-3.2923154517262367,-3.247159555719697,-4.891925278595435,-0.015360512825464585,0.008994580709021,-0.39037710530972064
11645,2.0,299.63431,37549.621,0.0,0.0,-0.11645000514701098,0.0,0.0,0.0,-3.296019995416847,-3.2333297051047967,-4.884797266791955,-0.016953002543881088,0.01124955451974459,-0.37191942738058964
11646,2.0,299.63702,37425.917,0.0,0.0,-0.11646000956738534,0.0,0.0,0.0,-3.2684255474934867,-3.214524695173887,-4.893594101510136,-0.003124048959294627,0.003055265590831237,-0.39250441376216966
11647,2.0,299.46967,37493.628,0.0,0.0,-0.11647001398775925,0.0,0.0,0.0,-3.308934475891407,-3.226380430618957,-4.8618116882734554,0.014431130449491687,0.0039024590968677257,-0.38930862294676966
11648,2.0,300.34865,37711.197,0.0,0.0,-0.11647998549885596,0.0,0.0,0.0,-3.349785072223047,-3.215175404388107,-4.898301762799745,0.007333237099934153,-0.025992703178530075,-0.3920558682079016
11649,2.0,299.81671,37631.217000000004,0.0,0.0,-0.1164899899192301,0.0,0.0,0.0,-3.327694396192867,-3.2270928467642674,-4.884163276204386,0.014794846705387686,-0.031579399459894075,-0.3886335045376406
11650,2.0,299.79762999999997,37532.803,0.0,0.0,-0.11649999433960423,0.0,0.0,0.0,-3.298179130054937,-3.231465426245807,-4.879390361608335,-0.001071568418780569,-0.006020522858054344,-0.39511635973744863
11651,2.0,300.19023,37749.626000000004,0.0,0.0,-0.11650999875997847,0.0,0.0,0.0,-3.308010999750267,-3.2380964388752367,-4.928836257213265,0.014355788211805985,0.01165950740420379,-0.3621296683594157
11652,2.0,300.62695,37766.942,0.0,0.0,-0.1165200031803526,0.0,0.0,0.0,-3.334735673787787,-3.2509415117179468,-4.894530141952515,-0.01117191321758199,0.007163359337193523,-0.38620026548249864
11653,2.0,300.49433,37574.138,0.0,0.0,-0.11653000760072674,0.0,0.0,0.0,-3.298145692801637,-3.2359234227107767,-4.887530610261715,-0.002198107276686298,0.00904510470273233,-0.38313875057035063
11654,2.0,300.63313,37503.654,0.0,0.0,-0.11654001202110087,0.0,0.0,0.0,-3.310041755600687,-3.2176084205282267,-4.872524376280715,0.0033433964290175366,0.014286877072504985,-0.3958841905307276
11655,2.0,300.46412999999995,37580.681000000004,0.0,0.0,-0.116550016441475,0.0,0.0,0.0,-3.311605808455047,-3.241760553886857,-4.870222170728505,0.006531599014418635,0.008860260628064642,-0.38625007685741464
11656,2.0,300.07783,37637.208,0.0,0.0,-0.11655998795257172,0.0,0.0,0.0,-3.3136518643819763,-3.2229310233035267,-4.904188441905715,0.00959243626489975,-0.01062683026003649,-0.3916535369906946
11657,2.0,300.03713,37706.763,0.0,0.0,-0.11656999237294574,0.0,0.0,0.0,-3.312503244068617,-3.2454722916531766,-4.903938777081075,-0.011822245502764788,0.003923647372358847,-0.3809528965271236
11658,2.0,299.57574,37575.356,0.0,0.0,-0.11657999679331987,0.0,0.0,0.0,-3.296841335947907,-3.215656292885567,-4.909472135877175,-0.0026989277208384274,0.0028721767693117776,-0.3896581638337666
11659,2.0,299.71501,37599.187000000005,0.0,0.0,-0.11659000121369423,0.0,0.0,0.0,-3.2994704159823764,-3.2226743670531968,-4.907069010615005,-0.018624816572876284,-0.003065076283599477,-0.37998511095911064
11660,2.0,300.07221,37830.076,0.0,0.0,-0.11660000563406836,0.0,0.0,0.0,-3.342866296565217,-3.254878798956527,-4.9016534928055355,-0.0027596902015102173,-0.01742054957727438,-0.40143218065827163
11661,2.0,299.99805,37779.931000000004,0.0,0.0,-0.11661001005444249,0.0,0.0,0.0,-3.346082352382617,-3.2188633307770766,-4.919210077288235,-0.00957635669508782,-0.012608002716812988,-0.37487724627750363
11662,2.0,300.52065,37498.562000000005,0.0,0.0,-0.11662001447481674,0.0,0.0,0.0,-3.2808325923179673,-3.2358413494526768,-4.881952668461215,0.00992996334943608,0.017357143425766684,-0.4021481735764346
11663,2.0,300.90628,37561.162000000004,0.0,0.0,-0.11662998598591334,0.0,0.0,0.0,-3.287596746010537,-3.2256405553959366,-4.904417841728355,0.0008899851146571923,0.006065773391620224,-0.3600041128296397
11664,2.0,300.63101,37739.156,0.0,0.0,-0.11663999040628747,0.0,0.0,0.0,-3.301201351128207,-3.250955595894337,-4.9196040289271155,0.008341475158314501,-0.006962409044236274,-0.3866723792340926
11665,2.0,300.33596,37795.751000000004,0.0,0.0,-0.1166499948266615,0.0,0.0,0.0,-3.3253292678094466,-3.2537845901735367,-4.909850483464516,-0.004618725795207746,-0.003805591880682676,-0.3792945708834596
11666,2.0,299.95345,37691.226,0.0,0.0,-0.11665999924703563,0.0,0.0,0.0,-3.3353567960990866,-3.220020665041297,-4.901814092946386,0.004522460550907105,-0.000948448145817044,-0.3856511041933006
11667,2.0,299.89513,37681.286,0.0,0.0,-0.11667000366740976,0.0,0.0,0.0,-3.3283722605097665,-3.2515803659059968,-4.874217314547796,-0.004503411145052076,0.0025351792092777074,-0.39394674488201664
11668,2.0,299.37708,37717.509,0.0,0.0,-0.11668000808778412,0.0,0.0,0.0,-3.315586260147887,-3.248079586810497,-4.901514880191855,-0.014340331081530487,0.0008712937103274942,-0.38389369282235764
11669,2.0,300.02237,37843.897000000004,0.0,0.0,-0.11669001250815836,0.0,0.0,0.0,-3.3362965855668367,-3.245500054705917,-4.921802882969125,0.004761997231522535,0.01592323444075088,-0.3784361757962426
11670,2.0,300.25655,37843.448,0.0,0.0,-0.11669998401925485,0.0,0.0,0.0,-3.327633499861857,-3.2512454867479468,-4.924584355818635,-0.0025963496244397577,0.019042118560310784,-0.3705493511253737
11671,2.0,301.08147,37696.102,0.0,0.0,-0.11670998843962899,0.0,0.0,0.0,-3.3238929857926967,-3.219657313555437,-4.915123436984915,0.0016237163639733281,0.0029097117073411875,-0.38180747166146367
11672,2.0,300.56498,37678.053,0.0,0.0,-0.11671999286000312,0.0,0.0,0.0,-3.3204807647559367,-3.245457802176747,-4.8872487240838955,-0.0052242158866149645,-0.03320322799065347,-0.3938853621909586
11673,2.0,300.5888,37798.557,0.0,0.0,-0.11672999728037725,0.0,0.0,0.0,-3.3328550816021867,-3.242684536653047,-4.914277778451455,0.0015954000766787285,-0.014243520100725986,-0.4058665379984086
11674,2.0,299.67991,37835.294,0.0,0.0,-0.11674000170075138,0.0,0.0,0.0,-3.328164645564277,-3.2521564999128567,-4.920663584556685,0.008685440636636252,-0.01029407386094599,-0.3940407744912966
11675,2.0,300.45016,37689.418,0.0,0.0,-0.11675000612112563,0.0,0.0,0.0,-3.312961131788807,-3.2489856350499173,-4.894695099068795,-0.003112546138859387,0.008240012751600941,-0.3865270690372516
11676,2.0,299.99861,37591.131,0.0,0.0,-0.11676001054149976,0.0,0.0,0.0,-3.2852472216786572,-3.238142440429777,-4.903375511350486,-0.002730891100542967,0.0009720603789923902,-0.38233779663130263
11677,2.0,299.66192,37610.556000000004,0.0,0.0,-0.11677001496187411,0.0,0.0,0.0,-3.319397397749017,-3.2419721205077368,-4.871300471484925,0.0004877527501299485,0.010158795853345089,-0.3808750383894397
11678,2.0,299.65559,37804.693,0.0,0.0,-0.11677998647297061,0.0,0.0,0.0,-3.346739749047497,-3.241710803306947,-4.903232035136326,0.012310179128170088,0.0020232372307029682,-0.38132202353855366
11679,2.0,300.2976,37874.41,0.0,0.0,-0.11678999089334474,0.0,0.0,0.0,-3.3482816117246674,-3.2627999829382865,-4.901793422644345,0.010365139169959589,-0.009040114648639852,-0.3855245695208126
11680,2.0,299.96758,37658.401,0.0,0.0,-0.11679999531371887,0.0,0.0,0.0,-3.307774507176927,-3.247471738075507,-4.891967429799595,-0.008932036428048361,-0.034804415447928366,-0.40023434678755465
11681,2.0,300.43476,37651.344,0.0,0.0,-0.116809999734093,0.0,0.0,0.0,-3.313947733411177,-3.221147297827487,-4.9099732893766355,-0.004859222834267956,-0.017705530220899785,-0.3851715937159766
11682,2.0,300.29052,37853.142,0.0,0.0,-0.11682000415446725,0.0,0.0,0.0,-3.3384337326777564,-3.256090848726147,-4.911885596290365,-0.01018906366033229,0.014365030065968088,-0.40280568169882564
11683,2.0,300.05187,37939.018,0.0,0.0,-0.11683000857484138,0.0,0.0,0.0,-3.373412646004907,-3.245692065599867,-4.913409423115755,0.0005785110510645955,0.004156861068375246,-0.38891636343555663
11684,2.0,300.5581,37796.08,0.0,0.0,-0.11684001299521551,0.0,0.0,0.0,-3.3159900403127365,-3.2550418308976172,-4.918032680672036,0.005778591158177545,-0.0036426331975749062,-0.4032550074556706
11685,2.0,300.49372,37626.981,0.0,0.0,-0.11684998450631223,0.0,0.0,0.0,-3.292119083856857,-3.2520319714755668,-4.893511724277005,0.007536650097259452,-0.0015585310466150386,-0.3956536963979796
11686,2.0,299.98129,37736.862,0.0,0.0,-0.11685998892668636,0.0,0.0,0.0,-3.3164943348875067,-3.2242402437577367,-4.930329078585595,0.002925500170399387,-0.001117951765958249,-0.37974539625045267
11687,2.0,300.17302,37920.879,0.0,0.0,-0.1168699933470605,0.0,0.0,0.0,-3.3265533752552567,-3.2720791247040673,-4.928367933017046,-0.004330778963239606,-0.006073685051051045,-0.3773134845529416
11688,2.0,300.2146,37764.092000000004,0.0,0.0,-0.11687999776743452,0.0,0.0,0.0,-3.3171653091037268,-3.2482253934998866,-4.913950397344146,-0.015373858342531686,-0.013319927435824486,-0.38592648530547863
11689,2.0,300.13352000000003,37702.193,0.0,0.0,-0.11689000218780865,0.0,0.0,0.0,-3.319713531780217,-3.2304991909504466,-4.910312424185105,-0.0021442537431463683,0.002166714660763088,-0.3606912585174557
11690,2.0,300.16296,37858.585,0.0,0.0,-0.116900006608183,0.0,0.0,0.0,-3.329398682861067,-3.266951977873057,-4.9117138503984155,-0.009122355498306391,0.014436028500475087,-0.38917994018406965
11691,2.0,300.08477,38019.107,0.0,0.0,-0.11691001102855714,0.0,0.0,0.0,-3.352492577815257,-3.2554961722424567,-4.948870440840486,0.004486471832530296,-0.00015473774934892686,-0.38263532739066664
11692,2.0,299.3214,37982.663,0.0,0.0,-0.11692001544893127,0.0,0.0,0.0,-3.349281588248357,-3.2541585807854467,-4.942340955871075,0.0033287856665505664,-0.008733108784940732,-0.39231281830076065
11693,2.0,300.2819,37902.422,0.0,0.0,-0.11692998696002777,0.0,0.0,0.0,-3.319496493608797,-3.261267442162037,-4.940625928751816,-0.0007828815798668962,0.0035343822178413664,-0.38753394579412265
11694,2.0,300.03465,37708.369,0.0,0.0,-0.11693999138040212,0.0,0.0,0.0,-3.320961957228427,-3.2281166346653074,-4.913323904807315,-0.0019800600094917083,0.017699439574548684,-0.37638010895832463
11695,2.0,299.8037,37777.929,0.0,0.0,-0.11694999580077625,0.0,0.0,0.0,-3.334923327706307,-3.249918737067007,-4.898705137664555,-0.014135603898825488,0.016805729681596382,-0.3932766927233876
11696,2.0,300.00376,37980.329,0.0,0.0,-0.11696000022115027,0.0,0.0,0.0,-3.335827754745567,-3.275039841496267,-4.934204050943025,0.00026575260177773974,0.007455797602879933,-0.37711788675363767
11697,2.0,300.72337000000005,37856.657999999996,0.0,0.0,-0.1169700046415244,0.0,0.0,0.0,-3.3227678728816565,-3.258856109574057,-4.925854870119025,0.004531787923377646,-0.0024624897616788177,-0.38621656867660764
11698,2.0,300.46098,37743.562000000005,0.0,0.0,-0.11698000906189854,0.0,0.0,0.0,-3.2918481407801172,-3.2588940051277966,-4.922358144023925,0.0052567331088241645,0.016854992888208284,-0.37592501780841064
11699,2.0,300.53785,37836.839,0.0,0.0,-0.11699001348227289,0.0,0.0,0.0,-3.3102813892493366,-3.255606515178347,-4.935566467027486,0.012184376022254289,-0.016054717826727287,-0.4058338606826836
11700,2.0,300.06927,37930.984,0.0,0.0,-0.11699998499336939,0.0,0.0,0.0,-3.355708329657627,-3.256484091089957,-4.917879477256916,-0.004489579267936976,-0.006868899232257573,-0.3811371459253076
11701,2.0,299.90648,37891.412000000004,0.0,0.0,-0.11700998941374363,0.0,0.0,0.0,-3.340287473735707,-3.269553294854787,-4.908202432176866,0.0063631189288659434,0.00031634127124295267,-0.4058690305936546
11702,2.0,299.97459,37893.165,0.0,0.0,-0.11701999383411776,0.0,0.0,0.0,-3.3205850281912266,-3.269537184178197,-4.928453755300516,0.0007913779757979252,0.018259564229828683,-0.3815470157232586
11703,2.0,299.68549,37774.215,0.0,0.0,-0.1170299982544919,0.0,0.0,0.0,-3.3216941317506863,-3.256362095777917,-4.904362112972855,-0.008246546289570753,0.0051336296051497955,-0.40353259745306663
11704,2.0,300.2144,37855.901,0.0,0.0,-0.11704000267486603,0.0,0.0,0.0,-3.3229678884513967,-3.246563764660897,-4.937717090364735,0.0004081048277343107,-0.005764576490744405,-0.37866028645336064
11705,2.0,300.01572999999996,38010.258,0.0,0.0,-0.11705000709524016,0.0,0.0,0.0,-3.3577077760799567,-3.2623412846180173,-4.934120153834745,0.004855006700601855,-0.010825693764412789,-0.3961008335346086
11706,2.0,299.92707,37973.709,0.0,0.0,-0.1170600115156144,0.0,0.0,0.0,-3.3656946186681966,-3.2569631557372367,-4.920401558080825,0.012231752557179986,-0.005340864075227245,-0.3803766105327486
11707,2.0,299.58041000000003,37887.255,0.0,0.0,-0.11707001593598854,0.0,0.0,0.0,-3.3440215030042264,-3.2674806917752366,-4.905277483113196,0.00030850239356681574,-0.002813666135662227,-0.40026565621564464
11708,2.0,300.02291,37932.525,0.0,0.0,-0.11707998744708525,0.0,0.0,0.0,-3.338708627429887,-3.262998681282897,-4.928833217462965,-0.017426905695151686,0.006284984781854704,-0.37188985061017066
11709,2.0,300.41379,37968.967000000004,0.0,0.0,-0.11708999186745939,0.0,0.0,0.0,-3.3478427731063567,-3.254250989194567,-4.939524221918085,-0.003077524061077977,0.003136977219970547,-0.38373427818412464
11710,2.0,300.45544,37917.476,0.0,0.0,-0.11709999628783352,0.0,0.0,0.0,-3.3023728708938265,-3.265333108188287,-4.9582600268671655,-0.022549423999704877,0.003174226320146747,-0.37195482020658266
11711,2.0,300.22583,37878.781,0.0,0.0,-0.11711000070820765,0.0,0.0,0.0,-3.329191777190647,-3.265754620229887,-4.9192570920928755,0.006848930909886854,0.0023960881389004877,-0.40623999158776564
11712,2.0,300.08466,37955.339,0.0,0.0,-0.11712000512858178,0.0,0.0,0.0,-3.3509774649407267,-3.2524636160181672,-4.934034128901255,0.0056842392340407345,-0.014541498716634186,-0.3917315977783986
11713,2.0,300.17762,37930.51,0.0,0.0,-0.11713000954895603,0.0,0.0,0.0,-3.3486671533877175,-3.260438806230257,-4.9208221581973355,0.014192022677643589,-0.0005146905106634986,-0.4165168604620136
11714,2.0,299.65128,37905.894,0.0,0.0,-0.11714001396933016,0.0,0.0,0.0,-3.3216369844450466,-3.2485369679056366,-4.952271313476125,0.012816309712121289,0.0036137598253753265,-0.38105478895717965
11715,2.0,299.37722,37875.904,0.0,0.0,-0.11714998548042665,0.0,0.0,0.0,-3.3027553728065766,-3.265848447189147,-4.9447252346813855,0.015258794674425785,0.007332218884908664,-0.4060620344727026
11716,2.0,299.47402,37878.94,0.0,0.0,-0.11715998990080101,0.0,0.0,0.0,-3.3140886765000865,-3.2517985186525267,-4.948364829040585,-0.007569230850249923,0.0004895101209708876,-0.37406041470938867
11717,2.0,300.05754,37890.691,0.0,0.0,-0.11716999432117514,0.0,0.0,0.0,-3.348399351386287,-3.240225277335337,-4.929199406049104,-0.016400286773332284,-0.003931500668583906,-0.4039625600005006
11718,2.0,299.88146,38057.789,0.0,0.0,-0.11717999874154927,0.0,0.0,0.0,-3.387027586273597,-3.262121105371287,-4.919468760038765,-0.019860695958348083,0.013825564566976986,-0.3871073472370206
11719,2.0,299.98774,38098.49,0.0,0.0,-0.1171900031619233,0.0,0.0,0.0,-3.370662077283447,-3.2778506985986766,-4.932476662172545,-0.007310776688942483,-0.004527097183364706,-0.4112761384272946
11720,2.0,300.72251,37937.971,0.0,0.0,-0.11720000758229743,0.0,0.0,0.0,-3.3382268270073365,-3.255210537039267,-4.938758610142525,0.0032538168115267166,-0.0019546342207573783,-0.37233689655429064
11721,2.0,300.06737999999996,37849.852,0.0,0.0,-0.11721001200267178,0.0,0.0,0.0,-3.299136448749417,-3.257497442514967,-4.948776208581186,0.0013153643975163587,-0.0060286822571346136,-0.38769828482784163
11722,2.0,300.53444,37995.758,0.0,0.0,-0.11722001642304591,0.0,0.0,0.0,-3.330223063142426,-3.247299485558507,-4.972239129221795,0.018135803836114482,0.007376185731922853,-0.3736725729686116
11723,2.0,300.20179,38007.105,0.0,0.0,-0.11722998793414241,0.0,0.0,0.0,-3.3363031716924865,-3.2776389293277766,-4.9392687815678755,0.004232206751111286,-0.012259449748663487,-0.4024069373869726
11724,2.0,299.24309,37904.636,0.0,0.0,-0.11723999235451654,0.0,0.0,0.0,-3.3349176535057463,-3.2563355486252967,-4.930809561783016,0.006262327597693614,-0.024170701166712476,-0.4028097144342236
11725,2.0,299.17137,38035.198,0.0,0.0,-0.1172499967748909,0.0,0.0,0.0,-3.3453597024112964,-3.272696396664987,-4.9436943540296445,-0.017544184327976182,-0.01132437290712859,-0.4064055667866066
11726,2.0,299.80113,37956.646,0.0,0.0,-0.11726000119526492,0.0,0.0,0.0,-3.3397438650570566,-3.255453615738257,-4.942675227079065,-0.002962729512198637,0.006006842360504184,-0.3874467758880196
11727,2.0,299.35979,38040.134,0.0,0.0,-0.11727000561563905,0.0,0.0,0.0,-3.325435051119887,-3.2862611810537268,-4.951554743005405,-0.0035087788063645066,0.002255580747533488,-0.3825101200758096
11728,2.0,300.4048,38117.128,0.0,0.0,-0.11728001003601318,0.0,0.0,0.0,-3.353368836501737,-3.277129467177497,-4.956156924959605,-0.0009395656610679112,-0.004115037650622596,-0.3681659639751516
11729,2.0,300.03359,38017.659,0.0,0.0,-0.11729001445638731,0.0,0.0,0.0,-3.3742512117876666,-3.262218681355917,-4.9199490405861654,0.000940456632145843,0.004635605021998596,-0.3789926122211586
11730,2.0,300.13541000000004,37995.019,0.0,0.0,-0.11729998596748403,0.0,0.0,0.0,-3.373459660809547,-3.263118852744757,-4.912958628146265,0.0050797363522059455,0.01803854094576538,-0.39641941963105065
11731,2.0,299.58475,38089.51,0.0,0.0,-0.11730999038785817,0.0,0.0,0.0,-3.365722483045947,-3.2750669965989467,-4.937470465290396,-0.001208127579807909,0.00011954374329054888,-0.41049568253776964
11732,2.0,300.75641,38097.101,0.0,0.0,-0.11731999480823241,0.0,0.0,0.0,-3.348641720810207,-3.287901025015567,-4.944024673562245,-0.004914783390251355,-0.010158331784799291,-0.3942922125036116
11733,2.0,300.59709,37900.193,0.0,0.0,-0.11732999922860654,0.0,0.0,0.0,-3.304752792728707,-3.2696878544680668,-4.946271758309016,-0.02051410447083448,0.020351259981012983,-0.39492692249875266
11734,2.0,300.7294,37997.042,0.0,0.0,-0.11734000364898067,0.0,0.0,0.0,-3.3391969126530765,-3.2647532251560567,-4.946201742727105,-0.011145856478010389,0.018035733229738282,-0.3815214412907346
11735,2.0,300.32832,38215.17,0.0,0.0,-0.1173500080693548,0.0,0.0,0.0,-3.386418521638487,-3.275151197682257,-4.954887626559335,-0.008790960704700273,-0.01171459578564059,-0.39336924298752163
11736,2.0,299.93306,38257.248999999996,0.0,0.0,-0.11736001248972894,0.0,0.0,0.0,-3.381619971814907,-3.289363651534917,-4.958264890467645,0.005911326921277545,-0.016025647681358286,-0.37526167336544364
11737,2.0,298.74573,38040.207,0.0,0.0,-0.11736998400082554,0.0,0.0,0.0,-3.3582790464863366,-3.281240425483217,-4.923753693386655,0.036671224392418066,0.00039957104287459167,-0.4053895403813326
11738,2.0,299.81391,38099.873,0.0,0.0,-0.11737998842119979,0.0,0.0,0.0,-3.3525914710250166,-3.2706061630336967,-4.958212302787455,0.023190493152473478,0.009593456607750449,-0.36612424475864963
11739,2.0,300.07936,38111.543,0.0,0.0,-0.11738999284157403,0.0,0.0,0.0,-3.3453562573609568,-3.2902832773256767,-4.949317790759636,0.004305267048246776,-0.012089534799644188,-0.4040681507934216
11740,2.0,299.99814,38101.45,0.0,0.0,-0.11739999726194816,0.0,0.0,0.0,-3.361600784289167,-3.273286108223187,-4.947002615606145,-0.013248596655284687,-0.005699824945753926,-0.37413076466383166
11741,2.0,299.86305,38121.33,0.0,0.0,-0.1174100016823223,0.0,0.0,0.0,-3.3781160516440973,-3.276635406428737,-4.933180769667036,-0.0036244827472085963,0.04047937999850376,-0.4009378868619886
11742,2.0,299.97027,38040.083,0.0,0.0,-0.11742000610269643,0.0,0.0,0.0,-3.356166521352847,-3.271936661740007,-4.935132289359636,-0.006061932768441184,0.018449552676579082,-0.3953876574517236
11743,2.0,299.87928,37997.424,0.0,0.0,-0.11743001052307056,0.0,0.0,0.0,-3.351041502347047,-3.258254137689647,-4.940972358961004,-0.01063985255032169,-0.005627772731142925,-0.4159634840523996
11744,2.0,300.78665,38139.251000000004,0.0,0.0,-0.1174400149434448,0.0,0.0,0.0,-3.350926194485667,-3.281046388089067,-4.961407485652795,-0.006216487453894544,-0.011552404842133589,-0.3966286051141956
11745,2.0,300.15899,38155.044,0.0,0.0,-0.1174499864545413,0.0,0.0,0.0,-3.3423710199163366,-3.279660971227337,-4.9761487547326455,0.019321101776594282,0.013816560826588385,-0.38295981060269063
11746,2.0,300.37284,38127.446,0.0,0.0,-0.11745999087491543,0.0,0.0,0.0,-3.3611583992955065,-3.269107667460807,-4.9595253735920455,0.01013088142104015,-0.0008524274798255424,-0.38422556262761065
11747,2.0,299.78085,38221.976,0.0,0.0,-0.11746999529528979,0.0,0.0,0.0,-3.381144960168027,-3.284801999584717,-4.952579442831536,-0.005766658618374895,-0.027100417572102974,-0.3874248086258516
11748,2.0,299.26119,38223.087999999996,0.0,0.0,-0.11747999971566392,0.0,0.0,0.0,-3.3791356852197265,-3.289213791845127,-4.9505149457527855,-0.014417588361905185,-0.035765158927746364,-0.3966646464202526
11749,2.0,300.11722000000003,38128.195,0.0,0.0,-0.11749000413603805,0.0,0.0,0.0,-3.361634221542467,-3.279127697699707,-4.949257198403655,-0.0035943400766087464,0.012186268773441089,-0.39355256019561363
11750,2.0,299.8126,38196.15,0.0,0.0,-0.11750000855641207,0.0,0.0,0.0,-3.344091113286097,-3.305943969546267,-4.960640759302125,-0.0028547044872373976,-0.01005769335306705,-0.4008316374565026
11751,2.0,299.53572,38229.738,0.0,0.0,-0.1175100129767862,0.0,0.0,0.0,-3.371727712413617,-3.2816406592727168,-4.967517282430785,-0.005825201068077584,-0.016357674540376784,-0.3897449183073286
11752,2.0,300.18111,38049.073,0.0,0.0,-0.11751998448788292,0.0,0.0,0.0,-3.356265617212627,-3.2688712762124768,-4.940831213222075,0.0033955682713664973,-0.002172457863654898,-0.3966082995821916
11753,2.0,300.1342,37914.636,0.0,0.0,-0.11752998890825705,0.0,0.0,0.0,-3.331731387241287,-3.255209523789167,-4.938161603183605,0.02203243542768208,0.03453511282310026,-0.4031090082487616
11754,2.0,300.62942000000004,38084.1,0.0,0.0,-0.11753999332863119,0.0,0.0,0.0,-3.374245132287067,-3.255743506591867,-4.946626902469065,0.0042362851840887965,-0.0012114998787907288,-0.3933110013717736
11755,2.0,301.28741,38207.655,0.0,0.0,-0.11754999774900532,0.0,0.0,0.0,-3.3605515638106174,-3.290697493966557,-4.9629241184024755,-0.012705243315659887,-0.01967955115847048,-0.4052421124917826
11756,2.0,300.13259,38146.259,0.0,0.0,-0.11756000216937967,0.0,0.0,0.0,-3.348399756686327,-3.279946809080547,-4.967163759470895,-0.018542767632778682,-0.015995755790158182,-0.39343905591941164
11757,2.0,299.69169,38260.395,0.0,0.0,-0.1175700065897537,0.0,0.0,0.0,-3.3620340500319266,-3.2869456314962764,-4.981225137733645,-0.004509480817126105,0.03060238419672017,-0.36305886936362064
11758,2.0,300.14526,38343.734,0.0,0.0,-0.11758001101012783,0.0,0.0,0.0,-3.4038795566367566,-3.289382903286817,-4.962275233038436,0.00016447908514782185,0.004038323877601536,-0.3802591545811566
11759,2.0,299.72546,38224.138999999996,0.0,0.0,-0.11759001543050196,0.0,0.0,0.0,-3.367671773588327,-3.286883519265147,-4.964628506395686,-0.005190359451748595,-0.025396060989646075,-0.38192228303029463
11760,2.0,299.85426,38213.996,0.0,0.0,-0.11759998694159868,0.0,0.0,0.0,-3.3908759101533965,-3.2832951953610072,-4.941929576330475,0.012252090513187187,-0.007856490394675232,-0.40551901347911057
11761,2.0,299.8586,38108.885,0.0,0.0,-0.11760999136197281,0.0,0.0,0.0,-3.328773710199387,-3.262553459188957,-4.9928221904281855,0.018234430561098185,0.02122421445891688,-0.38552280646563863
11762,2.0,299.9095,37914.354,0.0,0.0,-0.11761999578234694,0.0,0.0,0.0,-3.305206627448497,-3.2667988757829467,-4.953011391349166,0.014504412749724086,-0.0021397604855779183,-0.4097241939116296
11763,2.0,300.33121,38211.288,0.0,0.0,-0.11763000020272119,0.0,0.0,0.0,-3.3689236440868764,-3.267139429141557,-4.979214342910195,-0.016166018283961785,-0.014969501638374787,-0.38506956956340765
11764,2.0,300.5732,38319.855,0.0,0.0,-0.11764000462309532,0.0,0.0,0.0,-3.395527538712477,-3.271609888582757,-4.981141747250415,-0.015387764186904086,0.01020533747018839,-0.3912043024263587
11765,2.0,300.36795,38101.234,0.0,0.0,-0.11765000904346945,0.0,0.0,0.0,-3.346228767022067,-3.289495070072887,-4.946099809767046,-0.017569655408989984,0.03391022020817817,-0.3882222567195536
11766,2.0,299.75241,38310.133,0.0,0.0,-0.11766001346384358,0.0,0.0,0.0,-3.3749324198298964,-3.3061862376451763,-4.9642049678538855,-0.01155661388304899,-0.008252783857186351,-0.4049173151722276
11767,2.0,300.33434,38675.227999999996,0.0,0.0,-0.1176699849749403,0.0,0.0,0.0,-3.4021086994369867,-3.3354752450357767,-5.018719545759055,-0.008075483733488192,-0.019287119394740482,-0.38315144659410366
11768,2.0,299.88649,38359.303,0.0,0.0,-0.11767998939531432,0.0,0.0,0.0,-3.370654376582687,-3.3115372114232766,-4.9780787935231245,0.02329738293202268,0.0094707231430126,-0.4089828596084656
11769,2.0,299.70479,37981.386,0.0,0.0,-0.11768999381568856,0.0,0.0,0.0,-3.339741838556857,-3.254823070201027,-4.950828040033686,0.003935076225536786,0.021201539948179082,-0.3740074115966577
11770,2.0,299.78752000000003,38096.675,0.0,0.0,-0.11769999823606281,0.0,0.0,0.0,-3.3632379938007464,-3.2790513999671766,-4.938148633582325,0.004419235291669566,-0.015102675125517984,-0.40407735110432963
11771,2.0,299.67954,38175.111000000004,0.0,0.0,-0.11771000265643694,0.0,0.0,0.0,-3.360550449235507,-3.2806107918710765,-4.9631192703717355,-0.008599495749904153,0.0013314716290560187,-0.3980131303158376
11772,2.0,299.94088,38079.979,0.0,0.0,-0.11772000707681107,0.0,0.0,0.0,-3.3580107378598574,-3.2764909169644767,-4.940861306750045,0.0098486583375619,0.02068494350394498,-0.41843165997098963
11773,2.0,300.18947000000003,38172.831,0.0,0.0,-0.1177300114971851,0.0,0.0,0.0,-3.318120702623017,-3.286184781996187,-4.9992819637907155,0.0025372359043306877,0.017043419916554586,-0.4026754283984706
11774,2.0,300.3973,38148.437000000005,0.0,0.0,-0.11774001591755934,0.0,0.0,0.0,-3.360907619895757,-3.269118205261847,-4.966146557695505,-0.00862491981611331,-0.02428535750827818,-0.3966036994267376
11775,2.0,300.26599999999996,38278.992999999995,0.0,0.0,-0.11774998742865594,0.0,0.0,0.0,-3.3538537779995967,-3.3055380615562067,-4.9764662059889755,-0.0003788930806638357,-0.00972918318117062,-0.39059367738609463
11776,2.0,300.40786,38509.95,0.0,0.0,-0.11775999184903008,0.0,0.0,0.0,-3.4200736237099862,-3.3089022545382267,-4.977087328300275,0.007710963463637843,0.022079613365588183,-0.38916853098794363
11777,2.0,299.98408,38363.067,0.0,0.0,-0.11776999626940421,0.0,0.0,0.0,-3.390398264056257,-3.2978015930676765,-4.973214585093065,0.0026622038895140676,-0.0035381146259097266,-0.3733039120522276
11778,2.0,300.21102,38154.193999999996,0.0,0.0,-0.11778000068977856,0.0,0.0,0.0,-3.355667698328617,-3.3000891064934366,-4.942165359628746,-0.011875581974778688,-0.031936618756148866,-0.39451927171852064
11779,2.0,299.95712000000003,38217.181000000004,0.0,0.0,-0.1177900051101527,0.0,0.0,0.0,-3.3381727194519963,-3.295357937801507,-4.983537881086895,-0.0002890293174474727,-0.01115802966471179,-0.41089923978759757
11780,2.0,299.38322999999997,38306.942,0.0,0.0,-0.11780000953052683,0.0,0.0,0.0,-3.396003563609457,-3.283652062046227,-4.964698319327575,0.015305649385549985,0.02156019299332538,-0.39628680545796263
11781,2.0,299.68552999999997,38125.911,0.0,0.0,-0.11781001395090085,0.0,0.0,0.0,-3.3600154531827067,-3.265350637415017,-4.963958950729605,-0.006544539839395794,0.008461155396526022,-0.39266485178300364
11782,2.0,299.5132,38134.75,0.0,0.0,-0.11781998546199757,0.0,0.0,0.0,-3.352728867738577,-3.2888756702867568,-4.950407338592166,-0.01856502569772538,-0.018373330937806586,-0.40047949251674864
11783,2.0,299.25937000000005,38324.464,0.0,0.0,-0.1178299898823717,0.0,0.0,0.0,-3.3658825765617473,-3.297099208098357,-4.986698410798816,0.0036298606734393563,-0.0024172738812663574,-0.3905507662443596
11784,2.0,299.48058,38359.94,0.0,0.0,-0.11783999430274583,0.0,0.0,0.0,-3.346877956361137,-3.3152838049930367,-4.998302252269025,-0.0008839124737603692,0.03286167962044527,-0.4084315198315526
11785,2.0,299.61012,38397.278,0.0,0.0,-0.11784999872311996,0.0,0.0,0.0,-3.343861814788467,-3.307815543805977,-5.020136272048875,0.004424366998126026,-0.007688597588880503,-0.38911048188971464
11786,2.0,299.83279,38544.831,0.0,0.0,-0.1178600031434941,0.0,0.0,0.0,-3.4153599842447866,-3.3029895349046865,-4.998316640420445,-0.015380193182156884,-0.03355256318788017,-0.3919965120170436
11787,2.0,300.56041,38346.345,0.0,0.0,-0.11787000756386845,0.0,0.0,0.0,-3.383202263171067,-3.297663183104017,-4.9754660268152655,-0.01043444649004969,-0.0013552823984559587,-0.38543362019183663
11788,2.0,300.3624,38075.13,0.0,0.0,-0.11788001198424247,0.0,0.0,0.0,-3.366583745630947,-3.276497503090127,-4.930807636607825,0.005551568217622125,0.007419531557950753,-0.4089236351401206
11789,2.0,299.87347,38242.604,0.0,0.0,-0.1178900164046166,0.0,0.0,0.0,-3.367524244373767,-3.2740964043281573,-4.983175846826165,0.00039238148626003763,-0.02055043455316998,-0.36785455168941766
11790,2.0,300.16935,38371.893,0.0,0.0,-0.11789998791571332,0.0,0.0,0.0,-3.3714416719103864,-3.312150126408767,-4.980505628837635,0.001116298344445069,-0.018146430803163284,-0.4142036814112206
11791,2.0,300.01704,38338.691,0.0,0.0,-0.11790999233608745,0.0,0.0,0.0,-3.3602342138792967,-3.299151951475947,-4.994618480205465,0.011299709386444489,-0.0006899072806985473,-0.3910854684546306
11792,2.0,299.77213,38364.859,0.0,0.0,-0.11791999675646159,0.0,0.0,0.0,-3.401027764230307,-3.2844597237009365,-4.976471677539516,0.014241053849982586,0.026869371218050473,-0.4069183118672106
11793,2.0,299.45564,38516.909,0.0,0.0,-0.11793000117683572,0.0,0.0,0.0,-3.397748076306627,-3.309132464960947,-5.001297926189675,-0.002809264779877847,-0.01042220642884169,-0.38005581555108864
11794,2.0,299.67331,38441.303,0.0,0.0,-0.11794000559720996,0.0,0.0,0.0,-3.4014844360503766,-3.300072995816847,-4.983638800796855,-0.01893268349651038,-0.015499443599675986,-0.3947423792580396
11795,2.0,300.01273,38518.702000000005,0.0,0.0,-0.1179500100175841,0.0,0.0,0.0,-3.3641094902117565,-3.324115292864637,-5.020498812934655,-0.012757979943614588,0.002366283488533998,-0.3952770814683106
11796,2.0,300.80393,38433.869,0.0,0.0,-0.11796001443795823,0.0,0.0,0.0,-3.3481687356635264,-3.320036859887127,-5.014730886740405,-0.009730248613650771,0.017553079650604084,-0.39330786029646364
11797,2.0,300.51042,38144.695,0.0,0.0,-0.11796998594905495,0.0,0.0,0.0,-3.3372037483813672,-3.2761410417049466,-4.981689915554516,0.0037378150748686267,-0.002921345439689347,-0.3851899031452837
11798,2.0,299.87888,38275.566,0.0,0.0,-0.11797999036942908,0.0,0.0,0.0,-3.393352293397797,-3.282441532151757,-4.959022497567415,0.014601475016553385,-0.011132806829972489,-0.4054477009370726
11799,2.0,299.60898,38464.316,0.0,0.0,-0.1179899947898031,0.0,0.0,0.0,-3.406942713014067,-3.3033082020611366,-4.9819406949542655,0.018600733644499483,-0.0016884636533133887,-0.3885979090616276
11800,2.0,300.61297,38355.703,0.0,0.0,-0.11799999921017734,0.0,0.0,0.0,-3.396301357813847,-3.2993979686002266,-4.963476542356995,0.003137222629144767,0.005869598242409244,-0.40822848477651463
11801,2.0,300.04157000000004,38325.206,0.0,0.0,-0.11801000363055159,0.0,0.0,0.0,-3.3534493898846867,-3.2906784448646764,-5.005777707531795,0.0012833804488347888,-0.011747119087350388,-0.3998831340378926
11802,2.0,299.18567,38584.934,0.0,0.0,-0.11802000805092572,0.0,0.0,0.0,-3.3893420521520174,-3.3256558383166768,-5.013858681054325,-0.003434817932540137,-0.0023682324751013476,-0.3980999861144096
11803,2.0,298.93245,38627.273,0.0,0.0,-0.11803001247129985,0.0,0.0,0.0,-3.4160423068621264,-3.319583633117397,-5.006100529013655,-0.0016322102369116082,0.013853948742028287,-0.38727589125865464
11804,2.0,299.64232999999996,38494.232,0.0,0.0,-0.11803998398239657,0.0,0.0,0.0,-3.406526165897957,-3.3101449044608673,-4.984614357993136,-0.003651461443046186,0.023149464629424275,-0.4014537426203996
11805,2.0,300.01115,38395.095,0.0,0.0,-0.1180499884027707,0.0,0.0,0.0,-3.3973208900644667,-3.290609239882847,-4.983220125855536,-0.014731006882837185,-0.014335252672029288,-0.37535052526671264
11806,2.0,300.10938,38339.734,0.0,0.0,-0.11805999282314472,0.0,0.0,0.0,-3.392879713551157,-3.2832477752563265,-4.978194304034526,-0.0001126589520410729,0.005533846270723104,-0.38594198803200863
11807,2.0,300.2862,38329.075,0.0,0.0,-0.11806999724351885,0.0,0.0,0.0,-3.356442733330107,-3.306098287536497,-4.988540600805624,-0.007974275551224722,0.0006771225975617973,-0.3917637178065686
11808,2.0,299.87606,38385.257000000005,0.0,0.0,-0.11808000166389299,0.0,0.0,0.0,-3.362334276036557,-3.310353431331447,-4.995472042089705,-0.002696499770948807,0.014483511426661287,-0.3833950521831456
11809,2.0,299.98442,38477.133,0.0,0.0,-0.11809000608426734,0.0,0.0,0.0,-3.394934078128907,-3.3114380142384867,-4.989715565621586,-0.02224767811992488,-0.014130345130806486,-0.38943244210898964
11810,2.0,299.81455,38383.334,0.0,0.0,-0.11810001050464147,0.0,0.0,0.0,-3.385985053245707,-3.3026794803740867,-4.978910367880195,-0.0002717780454849047,-0.0019136062043332283,-0.40113446751388965
11811,2.0,299.58038,38541.216,0.0,0.0,-0.1181100149250156,0.0,0.0,0.0,-3.395855730419867,-3.3271290026370672,-4.992582556779536,0.010577777809445391,-0.014084011230233687,-0.41650804518614365
11812,2.0,299.88163,38719.758,0.0,0.0,-0.1181199864361121,0.0,0.0,0.0,-3.4081588157840867,-3.334495330864067,-5.027185351669566,0.017712607772848284,-0.0004884594414121936,-0.38750177510344763
11813,2.0,299.8666,38481.905,0.0,0.0,-0.11812999085648634,0.0,0.0,0.0,-3.363843208085476,-3.3175358546652967,-5.016159164081365,0.004147303789457016,-0.02027852483583458,-0.3956863635812036
11814,2.0,299.04147,38407.844,0.0,0.0,-0.11813999527686048,0.0,0.0,0.0,-3.3753594034220367,-3.312695153637557,-4.986971076400725,0.00947177915226682,0.007691799357871492,-0.37957268777090764
11815,2.0,298.88492,38417.58,0.0,0.0,-0.11814999969723461,0.0,0.0,0.0,-3.406738441793907,-3.288133565913517,-4.9831132279699855,0.009366183394420332,0.016161992641314484,-0.3949422124427616
11816,2.0,299.84806000000003,38510.204,0.0,0.0,-0.11816000411760874,0.0,0.0,0.0,-3.4122681528896464,-3.303956783450147,-4.989915378541305,0.0035549929407754865,0.015435053582321185,-0.38304302883340363
11817,2.0,300.15966000000003,38544.236000000004,0.0,0.0,-0.11817000853798287,0.0,0.0,0.0,-3.403053453830227,-3.3062586850273266,-5.007173256894525,-0.005592679725854515,-0.014914534846949986,-0.4023623341175706
11818,2.0,299.47157999999996,38567.16,0.0,0.0,-0.11818001295835723,0.0,0.0,0.0,-3.4165044502327366,-3.307740765948597,-4.999208401833455,-0.017006693653429984,0.004625618631663016,-0.38936361202969666
11819,2.0,299.66196,38455.4,0.0,0.0,-0.11818998446945372,0.0,0.0,0.0,-3.383236612349457,-3.3105280143236766,-4.995716741988855,-0.004291521196065166,-0.004752157863776465,-0.4199248765108586
11820,2.0,300.43584,38487.957,0.0,0.0,-0.11819998888982797,0.0,0.0,0.0,-3.390702137761247,-3.3043345230874266,-5.004341222865025,-0.0014857990425119487,-0.002204642435856268,-0.39622286937665263
11821,2.0,300.42692,38623.508,0.0,0.0,-0.1182099933102021,0.0,0.0,0.0,-3.410692245009117,-3.318337538144417,-5.011552321176705,-0.0013820923881518986,-0.004361634353959796,-0.3894848271391596
11822,2.0,299.99021,38598.106,0.0,0.0,-0.11821999773057623,0.0,0.0,0.0,-3.411727887936327,-3.312292488047817,-5.008840053309025,0.01203273807853879,0.004076286711148176,-0.37482745516758964
11823,2.0,300.13933,38411.191,0.0,0.0,-0.11823000215095036,0.0,0.0,0.0,-3.3805883818880966,-3.306680501043957,-4.988773850978645,0.003707966348122786,0.0017510797737181182,-0.4060660976056036
11824,2.0,299.61377000000005,38468.775,0.0,0.0,-0.1182400065713245,0.0,0.0,0.0,-3.3923929482031174,-3.303566783486657,-4.997587404323475,0.0024483066920790576,-0.0009557540134105772,-0.37949636977337564
11825,2.0,299.64934,38695.076,0.0,0.0,-0.11825001099169874,0.0,0.0,0.0,-3.3989189881221864,-3.3323271783000865,-5.031090620204986,0.0027535308568023375,-0.007857531813128014,-0.39128160327648764
11826,2.0,299.1028,38551.863,0.0,0.0,-0.11826001541207287,0.0,0.0,0.0,-3.389026424745867,-3.3161698922054867,-5.013607395029525,-0.0019368248303747284,0.01091213007744339,-0.3868838850599666
11827,2.0,299.18358,38433.036,0.0,0.0,-0.11826998692316959,0.0,0.0,0.0,-3.3755886005946567,-3.315020461292047,-4.9920742092043655,0.012111755374337188,0.007167807910432562,-0.4086818534012586
11828,2.0,299.91336,38373.384,0.0,0.0,-0.11827999134354372,0.0,0.0,0.0,-3.381301405983467,-3.289750206448067,-4.993499041494986,0.00014966858068863885,0.01971143915236758,-0.40284257413496666
11829,2.0,299.81957,38338.275,0.0,0.0,-0.11828999576391763,0.0,0.0,0.0,-3.3601598413219573,-3.3142299235640267,-4.979488427062245,-0.01115520269693279,0.007193862015553904,-0.4183588680838056
11830,2.0,299.77714,38581.211,0.0,0.0,-0.11830000018429188,0.0,0.0,0.0,-3.397358177668147,-3.3262013721705173,-5.0041653226476654,-0.007765785157648322,0.009245603896745062,-0.40888022750583664
11831,2.0,299.92438,38777.289,0.0,0.0,-0.11831000460466612,0.0,0.0,0.0,-3.4224655018960473,-3.3552076827832167,-5.009654199764375,-0.0069724265413499235,0.0011621821593234489,-0.4115657557033776
11832,2.0,300.46778,38507.587999999996,0.0,0.0,-0.11832000902504036,0.0,0.0,0.0,-3.414727716182387,-3.299441234379497,-4.991176064315725,0.01001043040347756,-0.014406016032513087,-0.3727487016599327
11833,2.0,300.29106,38506.066,0.0,0.0,-0.1183300134454145,0.0,0.0,0.0,-3.3954507343548967,-3.293574820275527,-5.015857012901545,0.020655876398326282,-0.02937318111615727,-0.37482088930694163
11834,2.0,300.17904,38895.19,0.0,0.0,-0.11833998495651099,0.0,0.0,0.0,-3.447313535423357,-3.3157886061928568,-5.060064405489475,0.030115438490162367,-0.005046714328796925,-0.35334277362471667
11835,2.0,299.64724,38809.656,0.0,0.0,-0.11834998937688535,0.0,0.0,0.0,-3.430043802043967,-3.3303326968032465,-5.036789746717446,0.013161699313458588,0.01096581612074179,-0.4000651948158606
11836,2.0,300.10829,38478.18,0.0,0.0,-0.11835999379725948,0.0,0.0,0.0,-3.4001374213674365,-3.299245879760217,-4.997022517392725,0.001959812131418398,0.012928643684457787,-0.38813525906596763
11837,2.0,299.5816,38363.11,0.0,0.0,-0.1183699982176335,0.0,0.0,0.0,-3.3775870337668867,-3.305617804339077,-4.978222675037325,-0.022798700749556578,0.00914630923729544,-0.4257436779926296
11838,2.0,299.41694,38537.684,0.0,0.0,-0.11838000263800763,0.0,0.0,0.0,-3.3962228309310967,-3.317855940371887,-5.000414878727525,-0.013190381384039288,0.006067481731288823,-0.3850161104881316
11839,2.0,299.70675,38643.312999999995,0.0,0.0,-0.11839000705838176,0.0,0.0,0.0,-3.3816252407154264,-3.358270129885457,-5.006706959198505,-0.00992177527537798,-0.0017948265428105884,-0.43767608607276665
11840,2.0,299.55076,38759.466,0.0,0.0,-0.11840001147875612,0.0,0.0,0.0,-3.423698019317687,-3.3259728842729666,-5.032238936543315,-0.0013972319658460586,-0.007465202488983124,-0.35801455572828567
11841,2.0,299.64614,38597.349,0.0,0.0,-0.11841001589913025,0.0,0.0,0.0,-3.3957574451601666,-3.3305775993524165,-5.006295377007886,-0.0006389605691779984,-0.010122105053973991,-0.41956697631053663
11842,2.0,300.08172,38555.957,0.0,0.0,-0.11841998741022675,0.0,0.0,0.0,-3.4049292837403566,-3.3139265564840867,-5.001192142879236,0.012849089366106388,0.004822896703607845,-0.3843258237250056
11843,2.0,300.252,38827.555,0.0,0.0,-0.11842999183060088,0.0,0.0,0.0,-3.4185049099051668,-3.3607956557597065,-5.023306528961755,0.005583238970697785,0.013382364920236589,-0.43394988922751965
11844,2.0,299.69484,38830.899,0.0,0.0,-0.11843999625097512,0.0,0.0,0.0,-3.449135055128126,-3.308741755722387,-5.045746776276435,0.009131084141292841,0.009262802803942462,-0.3685515157707026
11845,2.0,300.30516,38370.127,0.0,0.0,-0.11845000067134925,0.0,0.0,0.0,-3.3653526467594466,-3.2893795595614868,-5.008828400932876,0.014508827480409785,0.0006571211925753123,-0.4121060307891986
11846,2.0,300.22193,38366.876000000004,0.0,0.0,-0.11846000509172339,0.0,0.0,0.0,-3.3540700055709367,-3.292239761943767,-5.016262515591565,-0.005396256634344065,-0.005776465866092795,-0.37670815881070063
11847,2.0,300.07248,38703.263999999996,0.0,0.0,-0.11847000951209752,0.0,0.0,0.0,-3.3936730883794572,-3.338976125456287,-5.032176722987176,-0.005516967955857344,0.01121937182576579,-0.4280488726326346
11848,2.0,299.67049,38804.453,0.0,0.0,-0.11848001393247165,0.0,0.0,0.0,-3.418176616872767,-3.3416997417250864,-5.035708203560705,-0.0071307496052501924,-0.007189303707329033,-0.39266610821312764
11849,2.0,299.68237999999997,38658.311,0.0,0.0,-0.11848998544356837,0.0,0.0,0.0,-3.4179442786248364,-3.3293050585518267,-5.003911807472645,-0.004221446237699306,-0.012118549216257688,-0.4195817697619966
11850,2.0,299.05392,38569.385,0.0,0.0,-0.1184999898639425,0.0,0.0,0.0,-3.4094474672612667,-3.295721694587407,-5.018960699282855,-0.006543350790403443,-0.015648294092366382,-0.3800862535840926
11851,2.0,299.86872999999997,38536.643,0.0,0.0,-0.11850999428431674,0.0,0.0,0.0,-3.400636649691707,-3.324738239026117,-4.988802323306454,0.009297597103101391,-0.0024976549103743477,-0.4125070447812756
11852,2.0,300.27862000000005,38739.42,0.0,0.0,-0.11851999870469088,0.0,0.0,0.0,-3.417842143014757,-3.321954739676407,-5.036019575316435,0.0003124254142439877,-0.018349162896421384,-0.36181463877082465
11853,2.0,300.21682999999996,38829.232,0.0,0.0,-0.11853000312506501,0.0,0.0,0.0,-3.4352393432567263,-3.3375628442168073,-5.030314673278404,-0.009931454448283241,-0.00101275371890851,-0.39584455218681563
11854,2.0,299.87703999999997,38667.581,0.0,0.0,-0.11854000754543914,0.0,0.0,0.0,-3.4116534140539767,-3.321207771702687,-5.0211179087457545,-0.0057686899821753745,0.009803174351172981,-0.38416286271142264
11855,2.0,300.29107,38536.453,0.0,0.0,-0.11855001196581327,0.0,0.0,0.0,-3.3826557160671262,-3.3310465314986972,-5.000417411852775,-0.0016588098758867885,0.032571870840093366,-0.42581764524992954
11856,2.0,299.86652000000004,38719.832,0.0,0.0,-0.11856001638618752,0.0,0.0,0.0,-3.4074893614430173,-3.328423733614847,-5.033949100062095,0.00953942261436771,0.00039246419786570063,-0.38623437148086465
11857,2.0,299.30219,38863.876000000004,0.0,0.0,-0.11856998789728412,0.0,0.0,0.0,-3.3975669071887467,-3.355472951659397,-5.060608115493136,0.007924008011113702,-0.0027840319139625573,-0.4010440552074666
11858,2.0,299.44704,38614.655,0.0,0.0,-0.11857999231765837,0.0,0.0,0.0,-3.3861552792625074,-3.325130873439867,-5.026604658037255,0.016942106052305683,-0.016827867169781182,-0.4001336297276146
11859,2.0,299.57575,38459.509,0.0,0.0,-0.1185899967380325,0.0,0.0,0.0,-3.3643849929139464,-3.331305619549267,-4.995039789597046,0.0076913861544807135,0.0006613600230436524,-0.4150527951275216
11860,2.0,299.81233,38633.693999999996,0.0,0.0,-0.11860000115840641,0.0,0.0,0.0,-3.4247118773677467,-3.3019539933024866,-5.017012624640595,-0.01895108817132678,-0.008037626176626941,-0.3789413113685956
11861,2.0,300.53632000000005,38856.131,0.0,0.0,-0.11861000557878065,0.0,0.0,0.0,-3.4331910581795766,-3.3379844575834174,-5.040117867995905,-0.03473200150303167,-0.008765676770979941,-0.40226895298835463
11862,2.0,301.0031,39030.037000000004,0.0,0.0,-0.1186200099991549,0.0,0.0,0.0,-3.4793651692116065,-3.332451402762347,-5.052339994677136,-0.018501196007675882,-0.006660878885402562,-0.38054874145973666
11863,2.0,300.40558,39006.792,0.0,0.0,-0.11863001441952914,0.0,0.0,0.0,-3.435888937895837,-3.354747363262787,-5.066454568570135,-0.0006559004795173374,0.013742105182740187,-0.38635191862496565
11864,2.0,300.18104,38715.598,0.0,0.0,-0.11863998593062564,0.0,0.0,0.0,-3.4146193997466967,-3.3259765319733265,-5.027978929147886,0.017319981465099082,-0.0015345488352981784,-0.38067866038755865
11865,2.0,300.1861,38806.07,0.0,0.0,-0.11864999035099977,0.0,0.0,0.0,-3.4088286754251964,-3.347935586815517,-5.039312131516385,0.008925646163642692,0.0006600367893405594,-0.39355418139577364
11866,2.0,299.63017,39090.017,0.0,0.0,-0.11865999477137412,0.0,0.0,0.0,-3.4579928875023267,-3.3591105195183966,-5.065285885904795,0.014132330087752385,0.0096597459624177,-0.39716765416739563
11867,2.0,299.67627000000005,38727.789,0.0,0.0,-0.11866999919174825,0.0,0.0,0.0,-3.400379284166307,-3.3307178331662572,-5.0411837057760955,0.005612542670214835,0.024320180887714978,-0.4156600865749566
11868,2.0,300.02125,38295.083,0.0,0.0,-0.11868000361212228,0.0,0.0,0.0,-3.363430308669727,-3.2853928257180267,-4.991926072039745,0.0022887383438058876,0.0015752929390443083,-0.42072414845474065
11869,2.0,300.22841,38564.3,0.0,0.0,-0.11869000803249641,0.0,0.0,0.0,-3.383257890601557,-3.310417266087747,-5.0289091940646955,-0.00894151771320909,-0.0034388163187597464,-0.39890987691933966
11870,2.0,300.05332000000004,38928.646,0.0,0.0,-0.11870001245287054,0.0,0.0,0.0,-3.4451914857389263,-3.342705088474307,-5.0454397614961355,-0.016379297297510784,-0.004131157243813475,-0.4109293839780726
11871,2.0,300.42787000000004,38888.945,0.0,0.0,-0.11870998396396726,0.0,0.0,0.0,-3.4363920165704864,-3.339534324936377,-5.045341982861486,-0.013776549606639588,0.021250765664537277,-0.3937715134097226
11872,2.0,299.68739,38840.059,0.0,0.0,-0.11871998838434139,0.0,0.0,0.0,-3.4288966002807464,-3.3478060934527365,-5.029705405993275,-0.016281202528829586,0.003437218626002067,-0.4056849230504846
11873,2.0,300.09112000000005,38837.568,0.0,0.0,-0.11872999280471552,0.0,0.0,0.0,-3.4086998913374864,-3.347153155088297,-5.049797851501245,-0.004502133234025956,-0.0017353060027863684,-0.37698255707028167
11874,2.0,299.4686,38899.888,0.0,0.0,-0.11873999722508966,0.0,0.0,0.0,-3.428153280007387,-3.362862888613727,-5.0335783518505055,0.006412973265586183,-0.004524456856254125,-0.4047068631264576
11875,2.0,299.72029,39080.659,0.0,0.0,-0.1187500016454639,0.0,0.0,0.0,-3.4346055553191763,-3.3795430117599263,-5.065395823540645,0.025314255229572473,0.0038552469111082462,-0.39544420693980464
11876,2.0,299.48809,38737.562000000005,0.0,0.0,-0.11876000606583803,0.0,0.0,0.0,-3.421404426391327,-3.3221218246178967,-5.031725218742616,0.004271071377246926,-0.0061961168712341246,-0.40125153843044364
11877,2.0,300.13239,38429.957,0.0,0.0,-0.11877001048621216,0.0,0.0,0.0,-3.3688690299064867,-3.2997637518863265,-5.013114651505895,-0.0001130303892627309,-0.013669377130312486,-0.3993518566129596
11878,2.0,299.98465,38698.55,0.0,0.0,-0.1187800149065863,0.0,0.0,0.0,-3.423449063768117,-3.299171000577827,-5.040773035510565,0.0064954372329247435,-0.0006725030181033803,-0.39676170564733165
11879,2.0,300.75076,39123.457,0.0,0.0,-0.11878998641768301,0.0,0.0,0.0,-3.4775344289309267,-3.340442804976037,-5.074576781371736,0.000874441290703136,0.022420045134186183,-0.3854039319639066
11880,2.0,299.75518999999997,38911.282999999996,0.0,0.0,-0.11879999083805715,0.0,0.0,0.0,-3.447968500287997,-3.339369469145107,-5.040720650480395,-0.007856881813188863,0.0018249942406879083,-0.3987328925243726
11881,2.0,300.05602999999996,38711.488,0.0,0.0,-0.11880999525843128,0.0,0.0,0.0,-3.411470015785876,-3.331051496424187,-5.024804011284545,-0.012560246213099788,-0.018100442420874583,-0.4054421685915266
11882,2.0,300.06857,38922.019,0.0,0.0,-0.11881999967880552,0.0,0.0,0.0,-3.4375994053896464,-3.371405904181857,-5.022316482289045,0.003527413083653567,0.0036383853491806766,-0.4110718976046376
11883,2.0,299.64706,38984.892,0.0,0.0,-0.11883000409917965,0.0,0.0,0.0,-3.459069769708607,-3.353690543408487,-5.037673402129655,-0.0036265448124871064,0.012517798126660488,-0.38640669492537166
11884,2.0,299.57877,38854.327000000005,0.0,0.0,-0.11884000851955379,0.0,0.0,0.0,-3.4247641610729063,-3.361412319770567,-5.024568734611325,0.0016734117217528787,-0.018957236572933585,-0.39213167958038364
11885,2.0,300.42891000000003,38726.708,0.0,0.0,-0.11885001293992792,0.0,0.0,0.0,-3.404790772451687,-3.3335696255727068,-5.033591726751825,-0.002409070912431788,-0.014458144710407787,-0.38768096838363264
11886,2.0,300.29845,38739.96,0.0,0.0,-0.11885998445102441,0.0,0.0,0.0,-3.395523891012117,-3.3453439970347465,-5.035112615151925,0.016881497484324087,0.005164833351254366,-0.40967720950449266
11887,2.0,300.71209,38844.669,0.0,0.0,-0.11886998887139866,0.0,0.0,0.0,-3.4106031803253263,-3.3470491956280366,-5.050157149986704,0.030416859116660266,0.016178235040417484,-0.4042010284115356
11888,2.0,300.80228,39039.648,0.0,0.0,-0.1188799932917729,0.0,0.0,0.0,-3.451253862412237,-3.3481332719100263,-5.067691037667165,-0.006096960925723194,-0.018536544250664484,-0.40526054351110163
11889,2.0,300.90019,38963.829,0.0,0.0,-0.11888999771214714,0.0,0.0,0.0,-3.436128774194507,-3.3455184787019667,-5.062383836293386,-0.011736555955057888,-0.018401564138592983,-0.38516816893063865
11890,2.0,300.61129,38809.345,0.0,0.0,-0.11890000213252128,0.0,0.0,0.0,-3.4255961407300166,-3.348101861156927,-5.023373707443386,-0.026914049467959875,0.00962498935616249,-0.4041187727684176
11891,2.0,300.21171,38984.086,0.0,0.0,-0.11891000655289519,0.0,0.0,0.0,-3.442119007460697,-3.354088750697787,-5.053980851889075,-0.015515656614526085,0.01935997309018058,-0.3849263567942736
11892,2.0,299.57244,39068.64,0.0,0.0,-0.11892001097326943,0.0,0.0,0.0,-3.4608236043066967,-3.366887720660947,-5.048179691091545,-0.012650836851540387,0.006837273264836333,-0.40434148514039764
11893,2.0,299.86703,38897.257000000005,0.0,0.0,-0.11893001539364367,0.0,0.0,0.0,-3.429819164496797,-3.3462787202519966,-5.047696877418895,-0.01077884513278919,-0.00019009204144062382,-0.3963057228373296
11894,2.0,299.76707000000005,38769.935,0.0,0.0,-0.11893998690474028,0.0,0.0,0.0,-3.421665540942097,-3.3420133426310366,-5.021413169824895,0.016679205141609383,0.005326810195015234,-0.42769708233041553
11895,2.0,299.52161,38899.047,0.0,0.0,-0.11894999132511441,0.0,0.0,0.0,-3.4298181512466965,-3.334949672208907,-5.059571357990816,0.009385713790097831,0.001250458737185669,-0.3851695469507746
11896,2.0,299.4747,38856.417,0.0,0.0,-0.11895999574548854,0.0,0.0,0.0,-3.4350793510659363,-3.310536018999467,-5.065765153202095,0.008371532209280903,-0.009228056026213221,-0.3987483851184016
11897,2.0,299.58468,38930.401,0.0,0.0,-0.1189700001658629,0.0,0.0,0.0,-3.403357428860227,-3.3420923761388366,-5.088420006887954,0.004165664083919035,-0.025992247215985073,-0.3714063073974487
11898,2.0,299.89236,39091.934,0.0,0.0,-0.11898000458623703,0.0,0.0,0.0,-3.4480591861719465,-3.364781781653107,-5.070130943907965,0.0011414025275976588,0.024728454816758477,-0.4025881166373536
11899,2.0,300.53287,39057.492,0.0,0.0,-0.11899000900661105,0.0,0.0,0.0,-3.4383380647125463,-3.364263605551967,-5.069900834810255,0.0008448857884037351,0.014118414110878986,-0.38041198309373964
11900,2.0,300.51375,39009.416,0.0,0.0,-0.11900001342698519,0.0,0.0,0.0,-3.4380858667626573,-3.380751211179167,-5.039051320940645,-0.012330042883130488,-0.005054210555686745,-0.41620116212835656
11901,2.0,300.39312,39183.231,0.0,0.0,-0.1190099849380819,0.0,0.0,0.0,-3.4623784365851464,-3.364834977283357,-5.083510404853415,-0.006642698848133334,-0.0069693365338449635,-0.38065680458290163
11902,2.0,300.55522,39110.108,0.0,0.0,-0.11901998935845604,0.0,0.0,0.0,-3.4595262388786567,-3.370203277638167,-5.058766634761395,-0.0032718602626824666,9.544888389382141e-05,-0.40767182543657665
11903,2.0,299.94766,38797.92,0.0,0.0,-0.11902999377883017,0.0,0.0,0.0,-3.400753477428237,-3.342051744809827,-5.050793775024536,0.008826033444986682,0.008267901143378312,-0.39465866453477766
11904,2.0,300.20004,38793.104,0.0,0.0,-0.1190399981992043,0.0,0.0,0.0,-3.424363521983367,-3.335017357315587,-5.032754072894155,-0.013908106959873287,-0.009318675035656622,-0.4249769516419596
11905,2.0,299.6706,38904.067,0.0,0.0,-0.11905000261957843,0.0,0.0,0.0,-3.4380224373063966,-3.333332525049307,-5.054509971091295,0.015124448856916883,0.0013876655676769286,-0.4028382576895406
11906,2.0,299.35806,38885.547,0.0,0.0,-0.11906000703995268,0.0,0.0,0.0,-3.4352508943078672,-3.340678689599317,-5.0443056306592045,-0.0055740705771679345,0.017752088049744683,-0.4282833691032776
11907,2.0,299.81262000000004,38919.543,0.0,0.0,-0.11907001146032681,0.0,0.0,0.0,-3.425130856284097,-3.3496838485380573,-5.055754647514136,0.013201944594180486,-0.0056137756942615255,-0.39944482230963463
11908,2.0,299.58442,38932.505,0.0,0.0,-0.11908001588070094,0.0,0.0,0.0,-3.4214380662946464,-3.3611093579906672,-5.0519619510648255,-0.007879183650539882,-0.022814948214910077,-0.3930875493272206
11909,2.0,299.26955,39060.302,0.0,0.0,-0.11908998739179744,0.0,0.0,0.0,-3.4142177474070565,-3.373388834627557,-5.085749788899425,0.001267870629554089,-0.01013526717277299,-0.3790609660729046
11910,2.0,300.03643999999997,39184.845,0.0,0.0,-0.11909999181217179,0.0,0.0,0.0,-3.462744827821307,-3.393377725975307,-5.055091880623725,0.02185874308228998,0.017928566832911785,-0.40521119823123164
11911,2.0,299.96071,39106.366,0.0,0.0,-0.11910999623254592,0.0,0.0,0.0,-3.4595317104291965,-3.3645692017821265,-5.0632578658296445,-0.01086531285657289,0.008409848363137414,-0.39164279653963463
11912,2.0,300.08911,38840.882000000005,0.0,0.0,-0.11912000065292006,0.0,0.0,0.0,-3.4315993435974863,-3.3451847141190267,-5.029874314784945,-0.003440729537598567,-0.016411054582144983,-0.41475643973827364
11913,2.0,300.2394,38804.21,0.0,0.0,-0.1191300050732943,0.0,0.0,0.0,-3.420699001671707,-3.323500047403917,-5.0513118498006655,-0.014575836749273088,-0.01832682174496648,-0.40597704305431465
11914,2.0,299.66769,39012.429,0.0,0.0,-0.11914000949366843,0.0,0.0,0.0,-3.4476644239329866,-3.343507177253467,-5.067632573136395,0.005202754337571875,0.013559330063451686,-0.4022604112900116
11915,2.0,299.85287999999997,39038.149,0.0,0.0,-0.11915001391404256,0.0,0.0,0.0,-3.4392625541037867,-3.3591384852211568,-5.0682213727695045,-0.00027980381714198674,-0.02042979496976378,-0.40594693939384363
11916,2.0,300.4013,38833.758,0.0,0.0,-0.11915998542513906,0.0,0.0,0.0,-3.401466805498637,-3.347718042019047,-5.0553078042200355,-0.0069106961028576035,-0.012836931378156488,-0.4138662083329146
11917,2.0,300.04692,38927.045,0.0,0.0,-0.11916998984551319,0.0,0.0,0.0,-3.4269014095088366,-3.356153450426557,-5.049794913075955,0.0069218872475620835,0.0025306259673033376,-0.40957613780701757
11918,2.0,299.59865,39267.859,0.0,0.0,-0.11917999426588743,0.0,0.0,0.0,-3.464042497224376,-3.3964895183574164,-5.075916601978966,0.01145652402492089,0.014829254652283486,-0.3938991525248196
11919,2.0,299.47806,39217.373,0.0,0.0,-0.11918999868626168,0.0,0.0,0.0,-3.449101313899797,-3.378718023528507,-5.093282796767875,-0.0008970890313732942,-0.01937001439867158,-0.4013103879962516
11920,2.0,299.90817999999996,39093.151,0.0,0.0,-0.11920000310663592,0.0,0.0,0.0,-3.425468167242387,-3.388377438056817,-5.069496345370336,-0.0016049669814729084,-0.030519219668262473,-0.37889606975163065
11921,2.0,299.66094,39034.8,0.0,0.0,-0.11921000752701005,0.0,0.0,0.0,-3.4405831229591173,-3.341744730029527,-5.083276648055345,0.0022610634438245875,-0.002465435887669578,-0.38937358241068065
11922,2.0,300.12606,39026.42,0.0,0.0,-0.11922001194738396,0.0,0.0,0.0,-3.4550747272143263,-3.355322078719507,-5.052660384358755,0.01046725958128809,0.021499695882854778,-0.40003652997053163
11923,2.0,300.35624,39076.577000000005,0.0,0.0,-0.11923001636775821,0.0,0.0,0.0,-3.4632763788237666,-3.3528765996031566,-5.0621508900953955,-0.00879906832670043,-0.012173083349889788,-0.42843627867586864
11924,2.0,300.46312,39167.5,0.0,0.0,-0.11923998787885481,0.0,0.0,0.0,-3.4692378357871165,-3.349864308380867,-5.086839944682016,-0.007490821301861503,-0.0012512167495854786,-0.39785514436024566
11925,2.0,300.34148,39077.802,0.0,0.0,-0.11924999229922906,0.0,0.0,0.0,-3.4403452118356364,-3.3564365525044964,-5.081894169618905,0.004290881227302006,0.01208894610133609,-0.4247553031825846
11926,2.0,299.63327000000004,39097.846,0.0,0.0,-0.11925999671960319,0.0,0.0,0.0,-3.444155336186667,-3.3527566307913172,-5.087857045132395,0.0009144605051952251,0.014813687077747087,-0.3812389471628546
11927,2.0,299.99072,39215.619,0.0,0.0,-0.11927000113997732,0.0,0.0,0.0,-3.4638184676272665,-3.373668998280207,-5.083081496086086,0.005022194790952035,-0.01972525481748108,-0.40336997081201664
11928,2.0,299.91585,39164.705,0.0,0.0,-0.11928000556035168,0.0,0.0,0.0,-3.4538930749477066,-3.3694917734179466,-5.081707528950486,-0.007360287331228803,-0.004996912985056915,-0.3752411753159206
11929,2.0,300.19012000000004,39018.376000000004,0.0,0.0,-0.11929000998072581,0.0,0.0,0.0,-3.4291704817827764,-3.3554440740315465,-5.075997358011936,0.020383613056705982,0.006690253208451583,-0.3982345963901946
11930,2.0,299.67784,39037.511,0.0,0.0,-0.11930001440109983,0.0,0.0,0.0,-3.4416509872395067,-3.356244946910587,-5.068532643200225,0.006604595274147804,0.011903078542742388,-0.38888184200464965
11931,2.0,299.65441,39039.466,0.0,0.0,-0.11930998591219644,0.0,0.0,0.0,-3.424620887508767,-3.3574293349524766,-5.084972524747716,-0.003967590711970716,-0.003564817413745087,-0.4039760463593316
11932,2.0,299.52813,38988.664,0.0,0.0,-0.11931999033257068,0.0,0.0,0.0,-3.4317579172381367,-3.345593965834417,-5.074228527312365,-0.011908929048819789,0.0007566866735116602,-0.40164315959409363
11933,2.0,299.59926,39196.101,0.0,0.0,-0.11932999475294481,0.0,0.0,0.0,-3.4655552796236764,-3.369382241082137,-5.0796984566522045,-0.005722958965412074,0.01945043808560878,-0.3990309907037926
11934,2.0,299.67505,39247.312000000005,0.0,0.0,-0.11933999917331894,0.0,0.0,0.0,-3.4718568846455966,-3.370906979832617,-5.087438876816125,-0.020120292660468282,0.02362714923006808,-0.4078920756108136
11935,2.0,300.10762,39071.596,0.0,0.0,-0.11935000359369308,0.0,0.0,0.0,-3.446410020309187,-3.3714088426071465,-5.058970703331536,-0.013921750372469788,-0.003022696996841967,-0.4182641291994556
11936,2.0,300.43235,39203.117999999995,0.0,0.0,-0.11936000801406721,0.0,0.0,0.0,-3.459579130533877,-3.362487783426707,-5.0947019548579355,-0.007316577849740013,0.014847010847035883,-0.3942992039293016
11937,2.0,300.13844,39367.961,0.0,0.0,-0.11937001243444145,0.0,0.0,0.0,-3.466932387834587,-3.384355747084907,-5.115589092419335,0.009469477453339661,0.015198120245187683,-0.38807626764514563
11938,2.0,299.65817000000004,39143.998999999996,0.0,0.0,-0.11937998394553806,0.0,0.0,0.0,-3.4588784680897264,-3.359222888954487,-5.080696811975735,0.01938373785802598,0.0018985446468967682,-0.38163648570708864
11939,2.0,299.94999,39073.386,0.0,0.0,-0.1193899883659123,0.0,0.0,0.0,-3.442347596683257,-3.366489513371647,-5.068496368846645,0.008029675000442223,-0.023194589722627775,-0.3948954914806506
11940,2.0,300.18046,39166.916,0.0,0.0,-0.11939999278628621,0.0,0.0,0.0,-3.4618677585347464,-3.370460237863526,-5.073436571034205,0.01849925259398408,-0.013462734904918488,-0.37972823179375864
11941,2.0,299.66837999999996,39184.832,0.0,0.0,-0.11940999720666057,0.0,0.0,0.0,-3.452251711110717,-3.3797521465805667,-5.079206726378675,0.007812900578023252,0.01000158706057979,-0.41106487578144457
11942,2.0,299.83302000000003,39224.266,0.0,0.0,-0.1194200016270347,0.0,0.0,0.0,-3.458193105722087,-3.3914956139145565,-5.073508815766336,0.0017950396293066181,0.012850500823495687,-0.41638680981167864
11943,2.0,299.22764,39189.888999999996,0.0,0.0,-0.11943000604740883,0.0,0.0,0.0,-3.4399220785938764,-3.3838687790868467,-5.0889569281159455,-0.008970264327821161,-0.008641885777112722,-0.41894400988405456
11944,2.0,299.40393,39117.638,0.0,0.0,-0.11944001046778308,0.0,0.0,0.0,-3.456284446508717,-3.3595745880641967,-5.074926150006215,-0.018234105307816086,-0.0008558839596266702,-0.3922460653841726
11945,2.0,299.41965,39151.814,0.0,0.0,-0.11945001488815721,0.0,0.0,0.0,-3.4557013210761665,-3.3711024357769066,-5.0743699770263255,0.013381938341944486,0.0012730537077906188,-0.40857101397281964
11946,2.0,299.18976000000004,39269.547999999995,0.0,0.0,-0.11945998639925393,0.0,0.0,0.0,-3.4835007494947567,-3.3800182260568263,-5.073443055834845,0.003924366779929846,-0.010989692346098189,-0.3980678255562356
11947,2.0,299.23117,39177.286,0.0,0.0,-0.11946999081962784,0.0,0.0,0.0,-3.4417781501270563,-3.382723603823827,-5.084414933217685,-0.003326299454780197,-0.015076879804472183,-0.42358098684668855
11948,2.0,300.04939,39035.45,0.0,0.0,-0.11947999524000197,0.0,0.0,0.0,-3.430576467621537,-3.3555434738663568,-5.079681940675575,-0.01009308415255985,-0.005614937182851155,-0.39215497420018264
11949,2.0,299.92,39189.039,0.0,0.0,-0.11948999966037621,0.0,0.0,0.0,-3.4398288595846767,-3.374140362226726,-5.098520083884755,-0.016317074622119884,0.012577318464034688,-0.4089855244562286
11950,2.0,300.16241,39246.594,0.0,0.0,-0.11950000408075045,0.0,0.0,0.0,-3.4615301436014265,-3.3820650925838365,-5.086389251037535,-0.005472559230474545,-0.0015024545436807186,-0.40142463194502664
11951,2.0,300.12068999999997,39029.748,0.0,0.0,-0.1195100085011247,0.0,0.0,0.0,-3.440115609362976,-3.3629835667006365,-5.060969744453826,-0.006346708938196404,-0.02035186995757318,-0.4202375857567206
11952,2.0,300.03296,39057.84,0.0,0.0,-0.11952001292149883,0.0,0.0,0.0,-3.451728874059117,-3.3560396624403266,-5.064839549235745,0.017770927408853984,-0.00975665229005661,-0.40742786520999963
11953,2.0,299.74812000000003,39262.251000000004,0.0,0.0,-0.11952998443259533,0.0,0.0,0.0,-3.473218186154947,-3.3737539086385864,-5.087771932123995,0.020912667410919582,0.005618467751499595,-0.42082083277928256
11954,2.0,299.59671000000003,39410.778,0.0,0.0,-0.11953998885296968,0.0,0.0,0.0,-3.479136276014017,-3.3957176244312364,-5.105038524428075,0.015517513901959384,0.005510616600255515,-0.4029777619633086
11955,2.0,299.98706,39433.15,0.0,0.0,-0.11954999327334359,0.0,0.0,0.0,-3.490204006856317,-3.385499909097826,-5.110988936965335,-0.005030495437096246,-0.003233050858677277,-0.4072175955492476
11956,2.0,300.29165,39353.671,0.0,0.0,-0.11955999769371783,0.0,0.0,0.0,-3.499758955299317,-3.3614972301289465,-5.101277036081845,-0.0057977744143707845,-0.0030745213957316373,-0.3715183019310016
11957,2.0,300.6621,39128.516,0.0,0.0,-0.11957000211409197,0.0,0.0,0.0,-3.4707788878642067,-3.350453006688967,-5.072859930402296,-0.01880359036751988,-0.0019770726442218784,-0.40110228669071357
11958,2.0,300.75703,39173.547999999995,0.0,0.0,-0.1195800065344661,0.0,0.0,0.0,-3.4562723888325264,-3.3650693420314863,-5.086438596317405,-0.004836485805998985,-0.015459205411704785,-0.40547162377193363
11959,2.0,300.02398999999997,39307.305,0.0,0.0,-0.11959001095484045,0.0,0.0,0.0,-3.450289754942087,-3.382452458097067,-5.115696902229975,-0.01140856081818729,-0.004408644193674306,-0.4066314810289026
11960,2.0,299.79578,39258.81,0.0,0.0,-0.11960001537521436,0.0,0.0,0.0,-3.4357327960554267,-3.3893420521520174,-5.108622997981835,0.007568067436485103,0.008817828854951951,-0.3949930168027756
11961,2.0,299.52485,39136.614,0.0,0.0,-0.11960998688631108,0.0,0.0,0.0,-3.438835570511647,-3.379429021123676,-5.078288721788075,0.007403311146374923,0.023308772876396777,-0.4173679398835086
11962,2.0,298.89645,39327.303,0.0,0.0,-0.11961999130668521,0.0,0.0,0.0,-3.467044757270677,-3.4056292369094363,-5.081844013738954,0.006440249249003114,0.01035217159517979,-0.4071779470728346
11963,2.0,299.4104,39538.975,0.0,0.0,-0.11962999572705946,0.0,0.0,0.0,-3.4950918240137065,-3.4120510133932167,-5.111718173062305,0.008201912825315773,-0.007673549305020352,-0.40862551669569863
11964,2.0,299.93043,39499.337,0.0,0.0,-0.11964000014743359,0.0,0.0,0.0,-3.4870145995165465,-3.396169837950867,-5.123627610762675,0.00020742162750342084,-0.004459119247405805,-0.38347713557374663
11965,2.0,300.16517999999996,39377.76,0.0,0.0,-0.11965000456780772,0.0,0.0,0.0,-3.460127704138017,-3.3919517791095766,-5.1177762940851945,-0.004331657957701356,0.0021443287236537676,-0.3960990096844286
11966,2.0,299.62639,39250.431000000004,0.0,0.0,-0.11966000898818185,0.0,0.0,0.0,-3.458407813418277,-3.3740995282476964,-5.098643497746935,-0.0007882536089820742,-0.00026116250789723274,-0.39441940578866463
11967,2.0,300.237,39250.816,0.0,0.0,-0.11967001340855599,0.0,0.0,0.0,-3.4805892766574167,-3.3607215871773968,-5.089957005964645,-0.01102755344933479,-0.008572947685359062,-0.3941785157098906
11968,2.0,300.26187999999996,39341.454,0.0,0.0,-0.1196799849196527,0.0,0.0,0.0,-3.506442758258957,-3.360214151527317,-5.092162851432345,0.005087419625064225,0.005655527272582084,-0.3970757625158266
11969,2.0,300.09719,39295.027,0.0,0.0,-0.11968998934002684,0.0,0.0,0.0,-3.4826067589315266,-3.3668974478619065,-5.095203007032385,-0.00030400457637291573,0.006018335656388484,-0.4051197726747086
11970,2.0,299.76999,39063.882000000005,0.0,0.0,-0.11969999376040108,0.0,0.0,0.0,-3.4396129359883667,-3.3589148609240866,-5.075917108604015,0.012497351752892589,-0.009762794916137841,-0.42992853262814257
11971,2.0,299.587,39362.566,0.0,0.0,-0.11970999818077499,0.0,0.0,0.0,-3.459951905245667,-3.3838732373872866,-5.121412139419025,0.008450773028051362,-0.014917756982267985,-0.4037330487203496
11972,2.0,299.49437,39637.053,0.0,0.0,-0.11972000260114934,0.0,0.0,0.0,-3.5133750101431174,-3.398907741046077,-5.136391724922395,0.006873575685444103,0.014657507747083385,-0.40541758714410064
11973,2.0,299.78334,39531.248,0.0,0.0,-0.11973000702152348,0.0,0.0,0.0,-3.5101928982040667,-3.396628536271137,-5.109690760937215,-0.0053317437097521354,0.020247130294736182,-0.37989319904253965
11974,2.0,299.75699,39284.672999999995,0.0,0.0,-0.11974001144189761,0.0,0.0,0.0,-3.4739177340239866,-3.381995077001927,-5.085647045339286,-0.015359515787366183,0.004789533012265105,-0.4163515385756976
11975,2.0,299.61523,39259.921,0.0,0.0,-0.11975001586227185,0.0,0.0,0.0,-3.4628324739549567,-3.3831702444679066,-5.088032844024745,-0.005511807675748065,-0.003258726514886267,-0.38268149106522265
11976,2.0,299.8297,39251.727999999996,0.0,0.0,-0.11975998737336846,0.0,0.0,0.0,-3.446781781770876,-3.3800705097619868,-5.1046929048189655,0.004690876295078446,0.001190394487157789,-0.4084271020611166
11977,2.0,300.14687999999995,39299.791,0.0,0.0,-0.1197699917937427,0.0,0.0,0.0,-3.434893926297636,-3.401787701805307,-5.109473520115776,0.0005803042200315674,-0.000980096941763037,-0.41488168758313465
11978,2.0,300.54256000000004,39322.969,0.0,0.0,-0.11977999621411661,0.0,0.0,0.0,-3.4727273678065065,-3.3917559178652468,-5.088717497117315,-0.005508448650341556,-0.017534255490246283,-0.4305907928935026
11979,2.0,299.91033,39306.966,0.0,0.0,-0.11979000063449075,0.0,0.0,0.0,-3.4854333214104867,-3.376706823405017,-5.086196024243465,-0.009356713660310741,0.008385024647612501,-0.42074815234960955
11980,2.0,299.5407,39377.241,0.0,0.0,-0.11980000505486499,0.0,0.0,0.0,-3.4786643041174368,-3.3954165878265266,-5.0956172236732655,0.013041407274836686,0.016890737311985985,-0.4231157834607766
11981,2.0,300.56667999999996,39589.808,0.0,0.0,-0.11981000947523923,0.0,0.0,0.0,-3.491059696565767,-3.3977308510549262,-5.145522425548525,0.002984931037789757,0.008648851263600162,-0.41755983931994767
11982,2.0,299.98233999999997,39623.52,0.0,0.0,-0.11982001389561348,0.0,0.0,0.0,-3.4954362277226965,-3.404434817691557,-5.144689837941355,-0.007756897029096133,-0.014624376495313588,-0.3861003083601336
11983,2.0,299.95516000000003,39345.568999999996,0.0,0.0,-0.11982998540670997,0.0,0.0,0.0,-3.451941757905127,-3.391604538300307,-5.116524322261635,-0.003001978666747227,-0.017096564884299583,-0.3966884577976026
11984,2.0,299.46032,39235.47,0.0,0.0,-0.1198399898270841,0.0,0.0,0.0,-3.4812115135438266,-3.366639373061437,-5.078752182383815,0.005771696599197104,0.003531163527573707,-0.36547659555973167
11985,2.0,299.66651,39410.325,0.0,0.0,-0.11984999424745824,0.0,0.0,0.0,-3.4992746217515167,-3.399513765930887,-5.080966437827345,-0.004362708905690846,0.003915438729323715,-0.4007035930413656
11986,2.0,299.18291,39438.07,0.0,0.0,-0.11985999866783237,0.0,0.0,0.0,-3.5053195705231066,-3.392273486016327,-5.090595353527645,-0.012651808558386287,-0.008730736361156592,-0.3975547258380966
11987,2.0,299.29492,39333.722,0.0,0.0,-0.11987000308820661,0.0,0.0,0.0,-3.463436269689547,-3.3962087467547066,-5.096824409842404,-0.01077412338732319,-0.0033105857695793772,-0.4116335826650716
11988,2.0,299.02885,39346.184,0.0,0.0,-0.11988000750858074,0.0,0.0,0.0,-3.440686069169277,-3.4023759948133665,-5.117195296477854,0.013991736570126884,-0.0006472311015292364,-0.41490011860245357
11989,2.0,299.79134,39451.23,0.0,0.0,-0.11989001192895488,0.0,0.0,0.0,-3.4615232535007463,-3.3937860657656067,-5.136879604845545,0.016175743458421585,-0.011981062323438789,-0.4270933372583306
11990,2.0,300.01777999999996,39524.43,0.0,0.0,-0.11990001634932923,0.0,0.0,0.0,-3.4967279189501763,-3.404462276769267,-5.1132497005884545,0.012213208053849789,-0.013299247001283489,-0.4236623102997146
11991,2.0,300.51257000000004,39498.539,0.0,0.0,-0.11990998786042573,0.0,0.0,0.0,-3.508437645055837,-3.382371600739087,-5.115760331686236,-0.002104111205984608,0.0014293949558202984,-0.39652624658909363
11992,2.0,299.91975,39239.216,0.0,0.0,-0.11991999228079986,0.0,0.0,0.0,-3.442956154693317,-3.3738824900762765,-5.110903216006875,-0.008439539529492703,0.013979362759905686,-0.40404091463073366
11993,2.0,299.5812,39231.382000000005,0.0,0.0,-0.11992999670117399,0.0,0.0,0.0,-3.4404294129189466,-3.3959071021999367,-5.089023903947554,0.004179986678057566,0.010797059316586791,-0.3964023261018636
11994,2.0,300.30172000000005,39680.253,0.0,0.0,-0.11994000112154823,0.0,0.0,0.0,-3.4739669779788467,-3.4230936156330363,-5.1647457051207155,0.0028753134876463473,-0.014651052330696286,-0.38839343519144764
11995,2.0,299.69829,39687.487,0.0,0.0,-0.11995000554192237,0.0,0.0,0.0,-3.5080128906139167,-3.421920272017237,-5.134071990143455,-0.009359854026345673,-0.014637039081813286,-0.38522918685166063
11996,2.0,299.65834,39347.922,0.0,0.0,-0.1199600099622965,0.0,0.0,0.0,-3.469196292533017,-3.394120438298607,-5.0974690395560245,0.004920170030432975,-0.006319006072512344,-0.40708708893636764
11997,2.0,300.44344,39479.206,0.0,0.0,-0.11997001438267063,0.0,0.0,0.0,-3.4973664691631967,-3.3929675623348268,-5.110358695403136,-0.01210208795513309,0.0023357739200729377,-0.4026217666731746
11998,2.0,300.07937999999996,39612.02,0.0,0.0,-0.11997998589376735,0.0,0.0,0.0,-3.5132921262849366,-3.3932710307397764,-5.134501912160886,-0.0076948737613249125,0.009003623155563422,-0.4100341065872156
11999,2.0,299.6354,39492.372,0.0,0.0,-0.11998999031414148,0.0,0.0,0.0,-3.470876565173847,-3.3762208686570565,-5.157597428315236,-0.004129333190983456,0.0025956015418909274,-0.4014013170602256
12000,2.0,299.23235,39437.933,0.0,0.0,-0.11999999473451561,0.0,0.0,0.0,-3.4503410253971465,-3.389002816018537,-5.148803025397296,0.009415366554274331,0.005254357138664675,-0.4137682574457476
12001,2.0,299.07403,39450.003,0.0,0.0,-0.12000999915488986,0.0,0.0,0.0,-3.480938037341837,-3.3728376265731566,-5.138040080185076,0.016520825031728484,-0.002101972842973568,-0.4015184893017896
12002,2.0,299.40661,39458.351,0.0,0.0,-0.12002000357526377,0.0,0.0,0.0,-3.5097564913859967,-3.383704328595617,-5.100892710318915,0.016193440884668186,-0.014217220181130386,-0.4039098709953006
12003,2.0,299.79123,39579.446,0.0,0.0,-0.12003000799563812,0.0,0.0,0.0,-3.5021390797842167,-3.4099108265319966,-5.119113378917154,-0.0005280185896963774,-0.01037582591876429,-0.40721301565879564
12004,2.0,299.58401000000003,39613.282,0.0,0.0,-0.12004001241601225,0.0,0.0,0.0,-3.5044227428595964,-3.412913694528357,-5.124112248285505,-0.008233263492684842,0.005291178647298674,-0.39536476813196464
12005,2.0,300.25015,39539.648,0.0,0.0,-0.12004998392710875,0.0,0.0,0.0,-3.456958055175196,-3.421540505879757,-5.140567227259485,-0.005853603076330645,0.006283206223954175,-0.4053500337599336
12006,2.0,300.0812,39554.169,0.0,0.0,-0.120059988347483,0.0,0.0,0.0,-3.471776027287617,-3.4225307552024864,-5.129172925909955,0.0032333054884274067,0.003915165861071787,-0.4118892155328006
12007,2.0,300.54367,39610.181000000004,0.0,0.0,-0.12006999276785724,0.0,0.0,0.0,-3.492813024538807,-3.4079379272622865,-5.139755005979325,-0.0034040117857748065,0.0029178198359663975,-0.3991881153967996
12008,2.0,300.51857,39506.07,0.0,0.0,-0.12007999718823148,0.0,0.0,0.0,-3.5072111058097866,-3.4032613727507464,-5.098386233546545,-0.025157466935598678,-0.002015193240809088,-0.4366520347267006
12009,2.0,300.11748,39415.09,0.0,0.0,-0.12009000160860539,0.0,0.0,0.0,-3.495122829466767,-3.3730197076161264,-5.113060729444805,-0.014904086211918787,0.0018360328912523382,-0.4074251598322326
12010,2.0,299.7612,39406.583,0.0,0.0,-0.12010000602897952,0.0,0.0,0.0,-3.489531512764947,-3.3829472281208965,-5.106138306086615,-0.0062223438368225244,-0.003559808310550727,-0.4226892760961836
12011,2.0,299.85785,39448.689,0.0,0.0,-0.12011001044935377,0.0,0.0,0.0,-3.455624212743557,-3.402170507693087,-5.133621803124025,0.024623937055693376,0.004556670508733366,-0.3849469865663096
12012,2.0,299.6966,39562.606,0.0,0.0,-0.12012001486972801,0.0,0.0,0.0,-3.4735089889336463,-3.411861028999467,-5.140674226470045,0.015095389857298984,0.016950476511381787,-0.4174058759672526
12013,2.0,299.43286,39699.519,0.0,0.0,-0.12012998638082462,0.0,0.0,0.0,-3.532316606187507,-3.4007992763327564,-5.134546495165285,0.02242387015331368,0.001112972857616869,-0.38109737585888265
12014,2.0,299.33142999999995,39613.396,0.0,0.0,-0.12013999080119875,0.0,0.0,0.0,-3.5315771362645267,-3.4044246851905573,-5.105481416046786,-0.00986882535827723,-0.01250833639722669,-0.4238740593056126
12015,2.0,299.72721,39467.266,0.0,0.0,-0.12014999522157288,0.0,0.0,0.0,-3.497707123846817,-3.3976791752998268,-5.101677067221325,0.0024366538093040075,-0.007614266068169553,-0.3924197263188116
12016,2.0,299.7734,39563.093,0.0,0.0,-0.12015999964194701,0.0,0.0,0.0,-3.483758520320196,-3.4148711923965465,-5.127562668851036,-0.009481306438982092,0.0029013725576931774,-0.41992784533365163
12017,2.0,299.96538,39788.096,0.0,0.0,-0.12017000406232115,0.0,0.0,0.0,-3.4914360176529065,-3.430232570537597,-5.172919087052366,-0.01167844707507299,0.0041394021612021865,-0.3847365041230366
12018,2.0,300.18552999999997,39558.417,0.0,0.0,-0.12018000848269539,0.0,0.0,0.0,-3.4710818496441065,-3.427948704812197,-5.125740237221175,-0.016651466406871786,0.004570099618933715,-0.4178717480982306
12019,2.0,300.38788,39379.121,0.0,0.0,-0.12019001290306952,0.0,0.0,0.0,-3.4624696290941466,-3.3936270868249165,-5.1141728727545654,-0.0034854676705888764,0.001057954390436969,-0.41419660892552257
12020,2.0,300.16745,39571.931000000004,0.0,0.0,-0.12019998441416624,0.0,0.0,0.0,-3.497759103576947,-3.413379789574357,-5.1177398170815955,-0.009606713465433802,0.01908897529793518,-0.4159935978453716
12021,2.0,300.30395,39733.653,0.0,0.0,-0.12020998883454037,0.0,0.0,0.0,-3.5129378940499767,-3.418735829602957,-5.146364740356655,-0.008006875859942123,-0.004731237086311745,-0.4167159945041666
12022,2.0,299.77,39655.252,0.0,0.0,-0.1202199932549145,0.0,0.0,0.0,-3.4840195335459563,-3.4160778719406366,-5.154108909545945,-0.009781165545750882,-0.02066406953863488,-0.3978047351677706
12023,2.0,299.60413,39657.018,0.0,0.0,-0.12022999767528864,0.0,0.0,0.0,-3.469678092955567,-3.415069688091137,-5.169995556538836,-0.0024343621415528374,-0.009828849906056961,-0.41083235514849664
12024,2.0,299.10852,39684.513,0.0,0.0,-0.12024000209566277,0.0,0.0,0.0,-3.505065954023076,-3.402716345521957,-5.155318831490354,0.01964109527742518,0.01067005854905279,-0.38386276842930567
12025,2.0,299.07797,39649.767,0.0,0.0,-0.12025000651603701,0.0,0.0,0.0,-3.520848236255667,-3.3983266421137266,-5.133364336273615,0.004178124830998816,0.0023491886421218677,-0.4028836006315156
12026,2.0,299.45561000000004,39731.811,0.0,0.0,-0.12026001093641114,0.0,0.0,0.0,-3.5350161071039263,-3.4145520186150464,-5.127910314960346,-0.012331200014744687,-0.017215450531782684,-0.3895074834113956
12027,2.0,300.02783,39650.377,0.0,0.0,-0.12027001535678528,0.0,0.0,0.0,-3.5207272541937265,-3.386269776523807,-5.145727406043755,-0.014220359229940187,-0.017808632471575183,-0.3994716329072806
12028,2.0,299.94347,39593.574,0.0,0.0,-0.12027998686788177,0.0,0.0,0.0,-3.4660587635983666,-3.4272892816471168,-5.142109799211725,0.015870108724757782,-0.008986486461922162,-0.3951578928590476
12029,2.0,299.76264,39667.733,0.0,0.0,-0.12028999128825613,0.0,0.0,0.0,-3.4828950285849767,-3.4066826117133964,-5.168422789733615,0.02202077291903108,-0.014212936159707586,-0.3969330665042436
12030,2.0,299.93602999999996,39807.377,0.0,0.0,-0.12029999570863026,0.0,0.0,0.0,-3.4997672639501363,-3.4261798741126266,-5.1745015810585455,-4.198516489261316e-05,-0.0017313351769694782,-0.40015848475256766
12031,2.0,300.05027,39689.44,0.0,0.0,-0.12031000012900439,0.0,0.0,0.0,-3.5130971769656965,-3.4176869130994363,-5.133814523293045,-0.0012582709967816788,0.003967917890428007,-0.4135850111651626
12032,2.0,300.30852999999996,39686.85,0.0,0.0,-0.12032000454937841,0.0,0.0,0.0,-3.5079493598326468,-3.406134139434267,-5.1497279200885755,-0.002135199542902788,0.017332517395336283,-0.41744109654072864
12033,2.0,300.29163,39797.747,0.0,0.0,-0.12033000896975254,0.0,0.0,0.0,-3.5181834898176763,-3.4209146212929866,-5.158423328471746,0.0052983592467823444,-0.005497106328722155,-0.4036578554304286
12034,2.0,300.48776000000004,39718.633,0.0,0.0,-0.1203400133901269,0.0,0.0,0.0,-3.4690963860731565,-3.4274804819409868,-5.176895688394825,0.01738321435083968,-0.012991104473622188,-0.42288376945287864
12035,2.0,300.05582000000004,39651.878,0.0,0.0,-0.1203499849012234,0.0,0.0,0.0,-3.487140951804017,-3.4082361267667167,-5.157803523385575,0.014007969849978985,0.0009317900304630161,-0.40951418769590364
12036,2.0,299.4849,39589.763999999996,0.0,0.0,-0.12035998932159753,0.0,0.0,0.0,-3.5049875284653367,-3.408485082316287,-5.1208271901362945,0.008839285641719572,0.01774518984306388,-0.4243653234840966
12037,2.0,299.3036,39579.405,0.0,0.0,-0.12036999374197177,0.0,0.0,0.0,-3.5166687822431864,-3.3996127604656565,-5.114869178223286,-0.0034302215261115066,0.0036579590106374463,-0.4068933149872436
12038,2.0,299.17877000000004,39533.415,0.0,0.0,-0.12037999816234601,0.0,0.0,0.0,-3.500516866374117,-3.405698847191307,-5.110955195737004,-0.024726823484097476,-0.008205311367476181,-0.42772146112782156
12039,2.0,299.68369,39752.773,0.0,0.0,-0.12039000258272026,0.0,0.0,0.0,-3.504032438921077,-3.4312493670129465,-5.148568457999145,-0.010794785583362389,-0.00040205780180001564,-0.4052199121820916
12040,2.0,299.48602,39782.703,0.0,0.0,-0.12040000700309417,0.0,0.0,0.0,-3.5019744266429664,-3.4250391571500463,-5.165934855438075,-0.009084002158171211,0.0003786232318972036,-0.3961095677504706
12041,2.0,299.09193,39719.1,0.0,0.0,-0.1204100114234683,0.0,0.0,0.0,-3.5021289472832167,-3.417127903019267,-5.154357865095515,-0.010743109828262388,-0.01002206281860059,-0.39055047240183066
12042,2.0,299.80845,39819.191,0.0,0.0,-0.12042001584384254,0.0,0.0,0.0,-3.537944703867957,-3.409169431433827,-5.156925846148955,-0.0013116197291217887,0.003362882545665667,-0.4031476738725776
12043,2.0,300.32336000000004,39908.931000000004,0.0,0.0,-0.12042998735493915,0.0,0.0,0.0,-3.5490221619112168,-3.4262432022438767,-5.156053032512815,0.011882705122981688,0.029916311540760073,-0.3937831252558686
12044,2.0,299.61843,39721.404,0.0,0.0,-0.1204399917753134,0.0,0.0,0.0,-3.528513473262167,-3.4163020028627566,-5.129499395092175,0.004150467054944206,0.024725435331460478,-0.4061925613505846
12045,2.0,300.15563,39719.138999999996,0.0,0.0,-0.12044999619568753,0.0,0.0,0.0,-3.4976083319620668,-3.4130785503196264,-5.162939688142475,0.0028121218411848174,-0.010666260887677989,-0.4065414030950126
12046,2.0,300.07407,39709.087,0.0,0.0,-0.12046000061606166,0.0,0.0,0.0,-3.4965350974561464,-3.436410964347357,-5.137624850294095,-0.004297850462814816,-0.014039210377062187,-0.42505170923433755
12047,2.0,300.11143,39592.837999999996,0.0,0.0,-0.12047000503643579,0.0,0.0,0.0,-3.481797374751647,-3.409270959093847,-5.144165784989636,0.02083672938217508,0.008492721683516372,-0.4182067691112946
12048,2.0,300.32244,39632.708,0.0,0.0,-0.12048000945680992,0.0,0.0,0.0,-3.4976681137179666,-3.424721097943657,-5.124964391619605,-0.005320136017931546,0.011504058626862188,-0.4297648724719906
12049,2.0,300.24933,39653.076,0.0,0.0,-0.12049001387718417,0.0,0.0,0.0,-3.4977514028761867,-3.4338999279495366,-5.121893635866545,-0.004485212869281046,0.006177434768540344,-0.4212203268962096
12050,2.0,300.14092,39647.535,0.0,0.0,-0.12049998538828066,0.0,0.0,0.0,-3.477887141290737,-3.421203296246477,-5.152770102188816,-0.01987585316659398,-0.0017086337137790183,-0.4211587212901296
12051,2.0,300.10076000000004,39785.804,0.0,0.0,-0.12050998980865502,0.0,0.0,0.0,-3.471876237722507,-3.449830752646786,-5.172183974104815,0.008563337413460602,0.001019621011328759,-0.4147423048993786
12052,2.0,299.50417000000004,39868.788,0.0,0.0,-0.12051999422902915,0.0,0.0,0.0,-3.492469330104887,-3.4342107930802173,-5.192435803853515,0.01049874835464579,0.005299753276269925,-0.40349794429964664
12053,2.0,299.4232,39850.113,0.0,0.0,-0.12052999864940328,0.0,0.0,0.0,-3.5189291405662666,-3.4316022820227765,-5.1629078720893355,-0.006777744517486303,-0.016613783635652784,-0.4103577386691556
12054,2.0,299.70166,39771.196,0.0,0.0,-0.12054000306977741,0.0,0.0,0.0,-3.519709647118297,-3.428581378174637,-5.141159674592955,-0.0053207180287889845,-0.0024957495948863075,-0.4151070040078716
12055,2.0,299.59781,39816.72,0.0,0.0,-0.12055000749015155,0.0,0.0,0.0,-3.5546342502400865,-3.4026804764684173,-5.145973828468075,-0.0072147157158620025,0.011820742852866488,-0.3994910670441986
12056,2.0,299.62438,39841.48,0.0,0.0,-0.12056001191052579,0.0,0.0,0.0,-3.5177686652267366,-3.426268026871327,-5.166778487471336,0.0036150846498810766,-0.004305075645302886,-0.4009398525671826
12057,2.0,300.18285,39773.195,0.0,0.0,-0.12057001633089992,0.0,0.0,0.0,-3.4988195711316066,-3.418758627730207,-5.172479843134015,-0.0010460131366834592,-0.032453945753705075,-0.40573885835330764
12058,2.0,299.94222,39738.464,0.0,0.0,-0.12057998784199642,0.0,0.0,0.0,-3.494591785089357,-3.4074732507664263,-5.177435649373115,0.006777292303966674,-0.014587074706132188,-0.39997822755977763
12059,2.0,299.82473,39877.955,0.0,0.0,-0.12058999226237055,0.0,0.0,0.0,-3.547352224421407,-3.4269048545591767,-5.147645387158045,0.0053903774532888344,-0.012830831612554487,-0.4111482459996726
12060,2.0,299.81627000000003,39890.4,0.0,0.0,-0.1205999966827449,0.0,0.0,0.0,-3.5356510096165867,-3.4171446216459174,-5.172889702799465,0.0005057005504762586,-0.0016736745588288185,-0.40316838470462163
12061,2.0,300.23399,39816.754,0.0,0.0,-0.12061000110311904,0.0,0.0,0.0,-3.527802678317017,-3.4386616967944867,-5.136834717866115,-0.014481288355941885,0.011631921670231289,-0.4235555542691786
12062,2.0,300.44854,39941.411,0.0,0.0,-0.12062000552349317,0.0,0.0,0.0,-3.4951895013233467,-3.445514915170847,-5.200487190473124,-0.015979173952271684,0.010819544349555888,-0.38900984588978266
12063,2.0,300.04907000000003,39884.346,0.0,0.0,-0.12063000994386719,0.0,0.0,0.0,-3.4891201332243464,-3.432821931168147,-5.201903106162866,-0.008552454094136502,0.02144608583331388,-0.41074052429193364
12064,2.0,299.31651,39796.551,0.0,0.0,-0.12064001436424132,0.0,0.0,0.0,-3.483723563191747,-3.4334865219087365,-5.1799475976960245,0.0030004833122496475,0.00016811486968664583,-0.4033829708107996
12065,2.0,299.46112,39854.207,0.0,0.0,-0.12064998587533804,0.0,0.0,0.0,-3.5350267462299767,-3.417503312181317,-5.1621539126899245,0.015789177399520488,-0.009468969612389543,-0.44691621770969653
12066,2.0,299.63869,39938.89,0.0,0.0,-0.12065999029571217,0.0,0.0,0.0,-3.551827952763126,-3.436447745325987,-5.152149486502566,0.01244240826622009,-0.0038589915795028164,-0.4176859180298906
12067,2.0,299.70827,39859.659,0.0,0.0,-0.1206699947160863,0.0,0.0,0.0,-3.5414635188152364,-3.4200643018090666,-5.154813321015465,0.006728970001397633,0.005075709291008505,-0.4250076733849916
12068,2.0,300.03336,39868.047,0.0,0.0,-0.12067999913646055,0.0,0.0,0.0,-3.4992999530040167,-3.4244122593131765,-5.195178570549205,-0.01112248485120379,0.004938188859611295,-0.3828698035963076
12069,2.0,299.76295,39772.667,0.0,0.0,-0.12069000355683479,0.0,0.0,0.0,-3.487429930732537,-3.4250526333763767,-5.177415181721095,-0.015323314387793384,0.005453577509726194,-0.40203550016531464
12070,2.0,300.46897,39839.119,0.0,0.0,-0.12070000797720903,0.0,0.0,0.0,-3.5020958140049467,-3.4243116435782466,-5.183690036940375,-0.0065018690405845144,0.001023596903396149,-0.38026120134635866
12071,2.0,300.21828,40021.562000000005,0.0,0.0,-0.12071001239758294,0.0,0.0,0.0,-3.5551160506626363,-3.4534716642311167,-5.156967896028105,-0.0068603473000885635,0.011009506451803689,-0.4143291825686066
12072,2.0,299.91789,40048.108,0.0,0.0,-0.12071998390867966,0.0,0.0,0.0,-3.574670055067467,-3.4381602393199966,-5.160794739005786,0.002319973196688528,0.005315311630230415,-0.4072777420751836
12073,2.0,300.04687,39888.241,0.0,0.0,-0.1207299883290538,0.0,0.0,0.0,-3.5177482988997264,-3.432136062175457,-5.175144792222025,0.0046154382039332855,-0.002724634990450537,-0.4217482301983096
12074,2.0,299.96506,39769.195,0.0,0.0,-0.12073999274942793,0.0,0.0,0.0,-3.4867737499677767,-3.4301637708558066,-5.171904823702265,0.008627447469812772,0.01337433491319409,-0.4100282196041346
12075,2.0,300.05706000000004,39899.413,0.0,0.0,-0.12074999716980217,0.0,0.0,0.0,-3.5088557120470965,-3.422138222113747,-5.197431329496535,-0.004879053354625076,0.014855989256171986,-0.39375988129857464
12076,2.0,300.14275,39909.709,0.0,0.0,-0.1207600015901763,0.0,0.0,0.0,-3.544670556706747,-3.4276035918281367,-5.159280842031375,-0.01012593392345187,0.0027597080347119773,-0.4197425016253596
12077,2.0,299.42503999999997,39906.327000000005,0.0,0.0,-0.12077000601055043,0.0,0.0,0.0,-3.5592076558914463,-3.4296225939773963,-5.141696595820945,-0.008772033395482293,0.0013333828213946389,-0.4359600254384046
12078,2.0,299.15545,39910.564,0.0,0.0,-0.12078001043092457,0.0,0.0,0.0,-3.5611121607794063,-3.4301228355517672,-5.140579994210745,0.0056896263808474045,-0.009551442698979,-0.4327926664208106
12079,2.0,299.28758999999997,39934.805,0.0,0.0,-0.1207900148512987,0.0,0.0,0.0,-3.5089186348783064,-3.455035514435457,-5.1752292972803655,0.015761754798814084,-0.013606651882871988,-0.4156402167404956
12080,2.0,299.2772,39871.446,0.0,0.0,-0.12079998636239542,0.0,0.0,0.0,-3.4872166415864863,-3.4338941524239672,-5.198813098657904,0.005746611262496375,-0.0031450704538192866,-0.41616356041714564
12081,2.0,300.33185,40006.235,0.0,0.0,-0.12080999078276944,0.0,0.0,0.0,-3.515701027072676,-3.4399865213002365,-5.205209037264136,-0.008070440686415483,0.008298544055552533,-0.3813848551772546
12082,2.0,300.46851000000004,39937.227,0.0,0.0,-0.12081999520314379,0.0,0.0,0.0,-3.5232744636201168,-3.436694573050347,-5.1799507387713355,-0.001055303018900299,0.007356153068170784,-0.40902438259756363
12083,2.0,299.94847999999996,39860.877,0.0,0.0,-0.12082999962351793,0.0,0.0,0.0,-3.5396585150870967,-3.4271618147845366,-5.149890952029666,-0.017478724318515784,0.01723644203410438,-0.4098608813501196
12084,2.0,299.95142000000004,40098.195,0.0,0.0,-0.12084000404389206,0.0,0.0,0.0,-3.5611900797120963,-3.4505354680913367,-5.177124378942395,-0.004483853796921916,-0.007677654690450523,-0.42831504330140363
12085,2.0,300.50305,40177.757000000005,0.0,0.0,-0.12085000846426619,0.0,0.0,0.0,-3.5448613517005763,-3.451504236511947,-5.216669402520185,-0.0096944538313431,0.0020611833456229576,-0.4121470167557436
12086,2.0,300.36789,39995.598,0.0,0.0,-0.12086001288464032,0.0,0.0,0.0,-3.5029767336418867,-3.4458006516990465,-5.208885513926974,0.0067294722694722035,-0.008567609985157272,-0.3993264645654536
12087,2.0,299.90603,39871.646,0.0,0.0,-0.12086998439573704,0.0,0.0,0.0,-3.5003340760560766,-3.432425243753997,-5.1872253678642855,0.008198129450767382,0.0044718053413078255,-0.39102625411878666
12088,2.0,299.38052999999996,39985.474,0.0,0.0,-0.12087998881611106,0.0,0.0,0.0,-3.5341053979140464,-3.4370313773835863,-5.183448883416575,0.02329629368816518,-0.003482940422189457,-0.3975997648050416
12089,2.0,299.74447999999995,40112.823,0.0,0.0,-0.1208899932364852,0.0,0.0,0.0,-3.5612490508679167,-3.460639902063567,-5.171407723203204,0.005767894175546835,0.0005239351917933774,-0.4203135085867136
12090,2.0,299.68948,40047.739,0.0,0.0,-0.12089999765685933,0.0,0.0,0.0,-3.5340936442128865,-3.4538504171184967,-5.185568602625775,0.006470295458193443,-0.007980999276238304,-0.41937002075609864
12091,2.0,299.7064,39903.835,0.0,0.0,-0.12091000207723368,0.0,0.0,0.0,-3.4856739683092366,-3.448431758233717,-5.195663613372075,-0.026971582821887975,0.002759874511703407,-0.42938243135424653
12092,2.0,299.50199,39829.044,0.0,0.0,-0.12092000649760781,0.0,0.0,0.0,-3.482312916402526,-3.4267024071891967,-5.198019419854575,-0.02017743692635798,-0.0035040166322195167,-0.4101452195931816
12093,2.0,299.76204,39978.638,0.0,0.0,-0.12093001091798194,0.0,0.0,0.0,-3.5317373311053366,-3.423919921089587,-5.1968504332142045,-0.030323265204923268,0.012323670553251589,-0.4019261907445266
12094,2.0,299.9828,40155.93,0.0,0.0,-0.12094001533835597,0.0,0.0,0.0,-3.576716313644417,-3.4523032855408067,-5.177380325917655,0.0015240554146125585,0.017143675947699086,-0.3963528896294846
12095,2.0,300.03366,39990.992,0.0,0.0,-0.1209499868494528,0.0,0.0,0.0,-3.570925791972937,-3.4323781276243466,-5.152959174657475,0.00983425954701585,0.015398646492978086,-0.4213025521418246
12096,2.0,300.20729,39935.23,0.0,0.0,-0.12095999126982682,0.0,0.0,0.0,-3.5334283441972265,-3.438573848010817,-5.167310443773836,0.03751209025290506,-0.004723894873437125,-0.41319068462374564
12097,2.0,300.04532,40204.007000000005,0.0,0.0,-0.12096999569020095,0.0,0.0,0.0,-3.5478982649002964,-3.465735232841437,-5.207380634878454,0.016574134145989683,-0.016282639317471384,-0.4237951271228226
12098,2.0,300.01596,40208.476,0.0,0.0,-0.12098000011057508,0.0,0.0,0.0,-3.5409770574422264,-3.4558667848174967,-5.2255290587445655,0.00947223146711146,-0.023704463252448377,-0.3919119258986956
12099,2.0,300.30453,39948.918,0.0,0.0,-0.12099000453094932,0.0,0.0,0.0,-3.5277757258643567,-3.4364201849232674,-5.179277839379925,-0.020912068580110483,-0.0027571789624623775,-0.41222866444880163
12100,2.0,300.26996,39944.504,0.0,0.0,-0.12100000895132357,0.0,0.0,0.0,-3.5396947894406767,-3.4329570987314866,-5.169479913562945,-0.016409150685207086,-0.0029077471167222968,-0.40082074501792764
12101,2.0,299.72278,40061.665,0.0,0.0,-0.12101001337169781,0.0,0.0,0.0,-3.5650257379656467,-3.4412792257778166,-5.171440957806485,-0.00942338369304056,0.001821319486550238,-0.42875849220766854
12102,2.0,299.78893999999997,40166.817,0.0,0.0,-0.12101998488279431,0.0,0.0,0.0,-3.536817260481687,-3.4778504616371166,-5.195041781785704,0.016847045967673984,-0.004076797794498616,-0.4246449906441976
12103,2.0,300.096,40067.622,0.0,0.0,-0.12102998930316844,0.0,0.0,0.0,-3.5056885962095268,-3.4521981101804267,-5.221669791763686,0.006481613461810444,0.00970637330021946,-0.4191294346523546
12104,2.0,299.72822,40049.156,0.0,0.0,-0.12103999372354257,0.0,0.0,0.0,-3.5093360939195066,-3.4507595990134563,-5.213847703641704,0.00968013559418,-0.003175936382340517,-0.4042921094630246
12105,2.0,300.12299,40118.99,0.0,0.0,-0.1210499981439167,0.0,0.0,0.0,-3.5420829186013667,-3.4518627243973268,-5.201225545820995,-0.004758096015987516,0.007227746213473013,-0.39246914252618864
12106,2.0,299.36227,40225.156,0.0,0.0,-0.12106000256429095,0.0,0.0,0.0,-3.5831616988555264,-3.4578159740348666,-5.186465227639266,-0.02197266279103298,0.013007663006756388,-0.4030552755959586
12107,2.0,299.53776,40255.297999999995,0.0,0.0,-0.12107000698466508,0.0,0.0,0.0,-3.5735628766831966,-3.4615058255990268,-5.201536714926704,-0.007650616415507053,0.02226203790034208,-0.4142622371344996
12108,2.0,300.37376,40075.525,0.0,0.0,-0.12108001140503921,0.0,0.0,0.0,-3.5431862466352566,-3.452465912181857,-5.1863069579736445,-0.005550998264440874,-0.01079283811667019,-0.4289784282743746
12109,2.0,300.4879,40092.957,0.0,0.0,-0.12109001582541334,0.0,0.0,0.0,-3.5230740427503364,-3.4487689678669966,-5.2154148975713746,0.008798566261275882,-0.01643481428373988,-0.42203805012441264
12110,2.0,299.97261000000003,40143.772000000004,0.0,0.0,-0.12109998733651006,0.0,0.0,0.0,-3.558949175790936,-3.434843061142617,-5.208912061079595,0.014129320734955386,-0.009300907695153121,-0.4140902480625256
12111,2.0,300.64671,40140.522000000004,0.0,0.0,-0.1211099917568842,0.0,0.0,0.0,-3.5583087004027267,-3.444205796041647,-5.199201984046285,0.007949039949534163,0.0025999763505226876,-0.40431059114484863
12112,2.0,300.08826,40028.587,0.0,0.0,-0.12111999617725822,0.0,0.0,0.0,-3.5623057693972062,-3.439854089512167,-5.165530973948215,-0.0044070098212630054,-0.004511585337583806,-0.4214862138549506
12113,2.0,300.13012000000003,40149.912000000004,0.0,0.0,-0.12113000059763257,0.0,0.0,0.0,-3.5448848591028965,-3.4654661136148763,-5.194219833304586,-0.015829857364535287,-0.015902406071695286,-0.4131312777703826
12114,2.0,299.55215,40202.434,0.0,0.0,-0.1211400050180067,0.0,0.0,0.0,-3.533656426794737,-3.4653823178316068,-5.221497235271655,-0.007761295142480191,0.005002155338424295,-0.41978859437240856
12115,2.0,299.69646,40142.231,0.0,0.0,-0.12115000943838083,0.0,0.0,0.0,-3.5127202479284967,-3.4598103542066965,-5.229705270356725,-0.011652456196757888,0.012120199800670589,-0.3978872947859186
12116,2.0,299.82939,40137.392,0.0,0.0,-0.12116001385875497,0.0,0.0,0.0,-3.5425446566719363,-3.459996994875117,-5.198223387099705,0.002909395674634997,-0.002092387801002598,-0.4075517856972296
12117,2.0,299.6021,40151.571,0.0,0.0,-0.12116998536985168,0.0,0.0,0.0,-3.5588695343330765,-3.4589160596684363,-5.1872894052706044,0.003027981197438477,-0.01156189088956979,-0.38376341925700064
12118,2.0,299.51892999999995,40013.882000000005,0.0,0.0,-0.12117998979022582,0.0,0.0,0.0,-3.5512865732346968,-3.449758305264637,-5.162176204192125,0.026350410861333076,0.01011643186666409,-0.42936347344487563
12119,2.0,299.9606,40106.282999999996,0.0,0.0,-0.12118999421059984,0.0,0.0,0.0,-3.5352300042000366,-3.4583892709414465,-5.197689201646985,0.024912331338905677,0.007075339314256623,-0.4191867136805076
12120,2.0,299.41677000000004,40166.943999999996,0.0,0.0,-0.12119999863097397,0.0,0.0,0.0,-3.5287248372330264,-3.4612853423772667,-5.219737726473005,0.004472075777759516,-0.005757005182022175,-0.43219629780945357
12121,2.0,299.91667,40051.121,0.0,0.0,-0.1212100030513481,0.0,0.0,0.0,-3.5145301152571164,-3.4550631761631863,-5.204947416088316,-0.02354451868441308,-0.023173778578823877,-0.42765703868646354
12122,2.0,300.88338999999996,40070.672,0.0,0.0,-0.12122000747172246,0.0,0.0,0.0,-3.5493005017136867,-3.4371054459658965,-5.194077674315555,-0.018363179185054684,-0.0029811150365881473,-0.4140835403468636
12123,2.0,300.48005,40170.377,0.0,0.0,-0.12123001189209659,0.0,0.0,0.0,-3.5684259013262167,-3.457304384059376,-5.185061369625715,-0.024814075463458575,0.014321948698216286,-0.4045114274471696
12124,2.0,299.8468,40258.987,0.0,0.0,-0.12124001631247072,0.0,0.0,0.0,-3.5784826112187362,-3.446619965729907,-5.212624001495936,-0.008465643385193952,-0.0052161451469184454,-0.4001812626148156
12125,2.0,299.75987000000003,40270.572,0.0,0.0,-0.12124998782356722,0.0,0.0,0.0,-3.5401390996095268,-3.4748855905195066,-5.2262235403631045,0.005814735815744744,-0.007693942381832993,-0.4261036350906546
12126,2.0,299.44023,40258.871,0.0,0.0,-0.12125999224394157,0.0,0.0,0.0,-3.5355411733057465,-3.476804078258847,-5.225346268426525,0.013607321641188087,0.02158916687993488,-0.4097021658544556
12127,2.0,299.92336,40232.211,0.0,0.0,-0.1212699966643156,0.0,0.0,0.0,-3.5376980787936168,-3.460958467895007,-5.230930897677685,0.020005456973634882,0.008519319701291392,-0.43046914208649656
12128,2.0,299.73827,40159.615,0.0,0.0,-0.12128000108468973,0.0,0.0,0.0,-3.5761487922634068,-3.447738999140347,-5.183632281684675,-0.012685599435971188,-0.0003456719434776647,-0.4026081283268286
12129,2.0,299.80591,40146.637,0.0,0.0,-0.12129000550506386,0.0,0.0,0.0,-3.566172433103817,-3.4524658108568467,-5.184936942513436,-0.016615767579348583,-0.004751247255911595,-0.42755216730111356
12130,2.0,300.07025,40132.159,0.0,0.0,-0.1213000099254381,0.0,0.0,0.0,-3.5452304787120066,-3.458346613112237,-5.195597144165515,-0.013094270559053888,0.020399020537726582,-0.4061304187219516
12131,2.0,300.32174,40062.21,0.0,0.0,-0.12131001434581234,0.0,0.0,0.0,-3.514187434073297,-3.4597844150041364,-5.203939637538855,-0.0037816029819151557,0.013505472780886386,-0.43362240679519964
12132,2.0,299.72602,40247.517,0.0,0.0,-0.12131998585690895,0.0,0.0,0.0,-3.5240370356453767,-3.471242956410007,-5.238960195445115,0.007564679330800723,-0.004446047206540696,-0.40506692154949264
12133,2.0,300.11862,40359.413,0.0,0.0,-0.12132999027728308,0.0,0.0,0.0,-3.561856798277897,-3.4788750601382366,-5.2275218177162355,0.005986655682736915,-0.019133823773861382,-0.41483462211598965
12134,2.0,300.25115,40301.59,0.0,0.0,-0.12133999469765722,0.0,0.0,0.0,-3.5769269683402065,-3.462228475570347,-5.211521484062125,-0.001093022773747949,-0.0008198497361878691,-0.4055419230638716
12135,2.0,299.91062,40238.436,0.0,0.0,-0.12134999911803135,0.0,0.0,0.0,-3.5751499303148266,-3.460980050122137,-5.195349911141115,0.007320512907828374,-0.012630605286793687,-0.4028959116202306
12136,2.0,299.30374,40313.524,0.0,0.0,-0.12136000353840548,0.0,0.0,0.0,-3.563749549464697,-3.4676540245558067,-5.222900991960195,-0.014811547093535885,-0.008152775059066251,-0.4155837584449236
12137,2.0,300.02901,40321.257000000005,0.0,0.0,-0.12137000795877972,0.0,0.0,0.0,-3.546352450547736,-3.468903463254117,-5.241399291085835,0.007653366578928473,-0.007739997435978273,-0.4190259412871406
12138,2.0,299.83705,40131.747,0.0,0.0,-0.12138001237915386,0.0,0.0,0.0,-3.511289133487257,-3.4663483504769466,-5.221411615638204,-0.0038980810458356468,0.02341489967862068,-0.43226787379651754
12139,2.0,299.97362999999996,40203.89,0.0,0.0,-0.12138998389025057,0.0,0.0,0.0,-3.5670968211700465,-3.4460052268942367,-5.207876620802405,0.015986372080982084,0.02250945837601058,-0.4116851672276626
12140,2.0,299.73795,40298.525,0.0,0.0,-0.1213999883106247,0.0,0.0,0.0,-3.5957386657217767,-3.4500094899644265,-5.203997291469546,-0.007969641350567361,-0.008176161479324312,-0.4159226095433656
12141,2.0,299.47204,40270.414,0.0,0.0,-0.12140999273099884,0.0,0.0,0.0,-3.5884392120013766,-3.4636186547075463,-5.189142639703505,0.015536695739602485,-0.014941775062638387,-0.4111412241764796
12142,2.0,299.73247000000003,40380.763,0.0,0.0,-0.12141999715137297,0.0,0.0,0.0,-3.565781318565217,-3.4707240710337963,-5.238238153423855,0.003871615358523686,0.013722860523590886,-0.42065777044068964
12143,2.0,299.9284,40428.877,0.0,0.0,-0.12143000157174699,0.0,0.0,0.0,-3.535025125029817,-3.476637297292387,-5.2777065752940855,0.013967591833493987,-0.0003622150954753467,-0.40379468472393265
12144,2.0,299.41107999999997,40292.072,0.0,0.0,-0.12144000599212135,0.0,0.0,0.0,-3.544395357979587,-3.4595704165830172,-5.243818020399545,-0.02753475533346877,-0.02334740202320918,-0.4056496923445076
12145,2.0,299.79954,40342.067,0.0,0.0,-0.12145001041249548,0.0,0.0,0.0,-3.5680868678427564,-3.457600557063607,-5.237293703005645,-0.011887741989228788,-0.013053956377325187,-0.4006810279616386
12146,2.0,299.66447999999997,40319.752,0.0,0.0,-0.12146001483286961,0.0,0.0,0.0,-3.5943454468342764,-3.4650059967444666,-5.196846380213804,-0.010096841689230689,0.012599142857938589,-0.40524343984941363
12147,2.0,299.64423,40219.989,0.0,0.0,-0.12146998634396611,0.0,0.0,0.0,-3.5504800261550966,-3.461694188792617,-5.213698249251955,0.02786283355684757,0.02033715047337048,-0.4169337115531536
12148,2.0,300.2233,40236.461,0.0,0.0,-0.12147999076434046,0.0,0.0,0.0,-3.5482811721130867,-3.465848716852636,-5.2167496519281045,0.006244269758386443,0.0046162918671425355,-0.4246240163671276
12149,2.0,300.21777000000003,40323.449,0.0,0.0,-0.1214899951847146,0.0,0.0,0.0,-3.524078376249457,-3.4880336251421165,-5.245209516761874,0.02143871241233618,-0.004413631511991516,-0.43764859659755356
12150,2.0,300.30781,40303.767,0.0,0.0,-0.12149999960508873,0.0,0.0,0.0,-3.5548448036108664,-3.475945855424147,-5.220548123902986,0.007334630724121693,0.011216964343528188,-0.43819401899388255
12151,2.0,300.16461,40307.662000000004,0.0,0.0,-0.12151000402546275,0.0,0.0,0.0,-3.5644702742608265,-3.474396292046217,-5.213656098047795,0.0012773134112110188,-0.004423088681799866,-0.4185941954195306
12152,2.0,300.07271000000003,40444.128,0.0,0.0,-0.12152000844583688,0.0,0.0,0.0,-3.6020926557738666,-3.4714529018307263,-5.220459363194225,-0.009314474810017091,-0.014924142484398184,-0.4121370159772566
12153,2.0,300.12557999999996,40386.442,0.0,0.0,-0.12153001286621123,0.0,0.0,0.0,-3.570997023454967,-3.4655215383953473,-5.239951559342955,-0.016329918580387483,-0.015596067129211985,-0.39327249786797364
12154,2.0,300.05814,40303.176,0.0,0.0,-0.12153998437730773,0.0,0.0,0.0,-3.5481544145255763,-3.467198872610887,-5.235805745233795,0.007909045650862033,0.025860954321027474,-0.4113085421654926
12155,2.0,299.66568,40340.017,0.0,0.0,-0.12154998879768186,0.0,0.0,0.0,-3.530426894751007,-3.4626394498109065,-5.269291634538595,-0.002199983714546488,0.015270854377115986,-0.40057953069912167
12156,2.0,299.5685,40305.627,0.0,0.0,-0.121559993218056,0.0,0.0,0.0,-3.562398177806327,-3.4758114984608866,-5.213694500226586,0.013560857031352387,0.005797243572643394,-0.4193165616808226
12157,2.0,299.88212000000004,40422.492,0.0,0.0,-0.12156999763843035,0.0,0.0,0.0,-3.5945072628752466,-3.475192503974797,-5.217728451524705,-0.018122476557549182,-0.017116274625244784,-0.4082466928808116
12158,2.0,299.87997,40445.521,0.0,0.0,-0.12158000205880437,0.0,0.0,0.0,-3.6134982041995065,-3.475170617772636,-5.205759637368475,-0.001916285440247648,0.017706591093754484,-0.4220394585420516
12159,2.0,299.73061,40324.197,0.0,0.0,-0.1215900064791785,0.0,0.0,0.0,-3.5656593232531764,-3.4758622622908963,-5.216027407256825,-0.0030824838189924667,-0.012325644364446388,-0.4081999617861996
12160,2.0,299.52027999999996,40323.751000000004,0.0,0.0,-0.12160001089955264,0.0,0.0,0.0,-3.5356620540426764,-3.485505566142617,-5.236245698427215,0.008462092754193531,-0.004226045481228216,-0.4183462227225576
12161,2.0,299.60528999999997,40397.885,0.0,0.0,-0.12161001531992688,0.0,0.0,0.0,-3.5496885765019868,-3.4911833130779666,-5.239076313906574,0.0046874380335141155,-0.001183121681915019,-0.42350107181130153
12162,2.0,300.46155,40390.216,0.0,0.0,-0.12161998683102349,0.0,0.0,0.0,-3.573871715313676,-3.4840572264496767,-5.2196880772181045,0.012364751765305989,0.016189289599008484,-0.41230812352164364
12163,2.0,300.88923,40359.084,0.0,0.0,-0.12162999125139773,0.0,0.0,0.0,-3.570606922166467,-3.4757159489764566,-5.221830695879565,0.012265954814305488,0.01221048241108079,-0.4118462537285606
12164,2.0,300.24714,40456.327000000005,0.0,0.0,-0.12163999567177186,0.0,0.0,0.0,-3.5751058539354763,-3.492816672239167,-5.229790586015145,-0.01112252943420819,0.006896103578892433,-0.4026198820279886
12165,2.0,300.04736,40512.818999999996,0.0,0.0,-0.121650000092146,0.0,0.0,0.0,-3.5712521598301463,-3.4939252691735767,-5.249707840580825,0.006651447958771805,0.0027685015257048274,-0.42263251382558165
12166,2.0,299.93917999999996,40415.731,0.0,0.0,-0.12166000451252013,0.0,0.0,0.0,-3.5362061693463764,-3.496896017141767,-5.252270856708774,-0.011779351586281489,0.010089682773299162,-0.4113208734192096
12167,2.0,299.73177999999996,40339.363,0.0,0.0,-0.12167000893289426,0.0,0.0,0.0,-3.544903705554757,-3.4805285829764263,-5.236726890899705,0.000954269916121608,-0.002074833546995128,-0.43379441613217556
12168,2.0,300.08468999999997,40450.253,0.0,0.0,-0.1216800133532685,0.0,0.0,0.0,-3.5816176070281363,-3.488775425540326,-5.225473735289104,-0.008413125517935842,-0.005972790469693525,-0.4143051786737376
12169,2.0,299.43217000000004,40368.327000000005,0.0,0.0,-0.121689984864365,0.0,0.0,0.0,-3.595125750736287,-3.4755966894396866,-5.200240970698825,0.0004489183796422945,0.003108468212506927,-0.4333063436915066
12170,2.0,299.26308,40331.364,0.0,0.0,-0.12169998928473935,0.0,0.0,0.0,-3.596250357022276,-3.453588593292657,-5.209888631525975,0.016890251965188084,0.011662776149026388,-0.3969688950277796
12171,2.0,299.74787000000003,40367.771,0.0,0.0,-0.12170999370511348,0.0,0.0,0.0,-3.5651152079494763,-3.4582626146789464,-5.247416780779715,0.00954176433667382,0.0017546122675417483,-0.4001211363538816
12172,2.0,300.28726,40434.741,0.0,0.0,-0.12171999812548762,0.0,0.0,0.0,-3.561870477154247,-3.477523283179827,-5.251757746858136,0.005060955761602445,-0.014053237811446587,-0.4130839285932096
12173,2.0,300.03182000000004,40570.109,0.0,0.0,-0.12173000254586175,0.0,0.0,0.0,-3.5856859075046463,-3.4827121369419265,-5.263901954606675,0.004621534625809956,-0.013971243586854386,-0.4119147190378176
12174,2.0,300.28122,40668.524,0.0,0.0,-0.12174000696623577,0.0,0.0,0.0,-3.6140767700066068,-3.502796476449097,-5.245342353849986,-0.0062401804836328635,0.01012821586400208,-0.4319907093641636
12175,2.0,300.12501000000003,40496.06,0.0,0.0,-0.12175001138661012,0.0,0.0,0.0,-3.5955550648036567,-3.4772006643479867,-5.237035222905135,-0.01061091818046609,0.0027649366078779975,-0.40618536727487464
12176,2.0,300.24174,40380.926,0.0,0.0,-0.12176001580698426,0.0,0.0,0.0,-3.5672803207631567,-3.483662970835767,-5.2238500020038545,-0.006816598504495894,-0.0031473433764436067,-0.4219526432734836
12177,2.0,299.71254,40486.466,0.0,0.0,-0.12176998731808075,0.0,0.0,0.0,-3.5535397374820668,-3.5037420414424165,-5.249593039344495,0.0008452916355987892,0.006883655598763913,-0.3952290128835666
12178,2.0,299.34002999999996,40477.253,0.0,0.0,-0.12177999173845488,0.0,0.0,0.0,-3.5546858246701762,-3.488515425564667,-5.260872843432725,0.006837984971706574,0.0006135016775629014,-0.4214283370092386
12179,2.0,299.48517000000004,40411.727999999996,0.0,0.0,-0.12178999615882924,0.0,0.0,0.0,-3.568800297238167,-3.479497094374626,-5.2358590421890545,-0.0016495102664689882,-0.0062836631997492745,-0.4135565692348556
12180,2.0,299.93818999999996,40351.835,0.0,0.0,-0.12180000057920337,0.0,0.0,0.0,-3.5786370305339767,-3.472462402905357,-5.214850719915695,-0.0011143904958317789,-0.020017848009107782,-0.4320936454418226
12181,2.0,300.46416,40540.605,0.0,0.0,-0.12181000499957739,0.0,0.0,0.0,-3.611575764784776,-3.4818817784849765,-5.229874077823386,-0.0009461148841492691,0.0013391705059658387,-0.40654303442767364
12182,2.0,300.16579,40623.784,0.0,0.0,-0.12182000941995152,0.0,0.0,0.0,-3.608009023107767,-3.4884347708567067,-5.252172166149035,0.0071783897878519125,0.005343930676654895,-0.4214430291356886
12183,2.0,300.09263,40605.291,0.0,0.0,-0.12183001384032566,0.0,0.0,0.0,-3.573895526691026,-3.490398145575476,-5.278700978942225,0.00952266730806409,-0.004860600145128886,-0.4075218644217766
12184,2.0,300.48082999999997,40492.288,0.0,0.0,-0.12183998535142238,0.0,0.0,0.0,-3.577098004957087,-3.4949968824793367,-5.236549774782225,0.013696107681200588,-0.015820189945331183,-0.43006474383908555
12185,2.0,300.34355,40603.087999999996,0.0,0.0,-0.12184998977179651,0.0,0.0,0.0,-3.5753229934319064,-3.5075089000141766,-5.259492999446545,0.011506305002333888,-0.002696440090517917,-0.42147889818922857
12186,2.0,299.85331,40654.829,0.0,0.0,-0.12185999419217064,0.0,0.0,0.0,-3.6233118353930363,-3.500001932673297,-5.234739198178536,-0.0006719807383393354,0.0062204335564089944,-0.42829515320194056
12187,2.0,299.15108,40521.306000000004,0.0,0.0,-0.12186999861254488,0.0,0.0,0.0,-3.581651449581477,-3.484353196803886,-5.251460459278794,-0.03259090069022147,0.004782764602922116,-0.4062361918998906
12188,2.0,298.87318,40396.414,0.0,0.0,-0.12188000303291913,0.0,0.0,0.0,-3.5721795876466764,-3.466369122103997,-5.240952245141715,-0.03121738343766587,-0.008689987900435032,-0.3999888058908216
12189,2.0,299.7751,40469.628,0.0,0.0,-0.12189000745329315,0.0,0.0,0.0,-3.540875124482167,-3.4999369833418865,-5.260944277564774,-0.025612624960019276,-0.005482791536609395,-0.4059889994054946
12190,2.0,300.34143,40568.261,0.0,0.0,-0.12190001187366728,0.0,0.0,0.0,-3.584753008137577,-3.493409626197687,-5.253575618862545,0.010939188921363889,-0.0023352641539476277,-0.4006264948412566
12191,2.0,300.40522999999996,40524.258,0.0,0.0,-0.12191001629404141,0.0,0.0,0.0,-3.5818895633549768,-3.4934700159036463,-5.243002962019104,0.006299241109436694,-0.0014939408110404787,-0.4218380953496786
12192,2.0,300.4848,40583.655,0.0,0.0,-0.12191998780513813,0.0,0.0,0.0,-3.6037471918621566,-3.501372150783526,-5.231298403488954,0.02399762487738118,-0.017029987259978886,-0.41867847756284854
12193,2.0,300.37843,40625.034,0.0,0.0,-0.12192999222551226,0.0,0.0,0.0,-3.605460901756287,-3.4926836325010364,-5.250851394643686,0.006664212579556573,0.006848617308980904,-0.4178265672762716
12194,2.0,300.13126,40619.726,0.0,0.0,-0.1219399966458865,0.0,0.0,0.0,-3.5744780441735164,-3.5101898584537667,-5.262714526814485,0.008858704377236052,0.011865608554044388,-0.4141812784515096
12195,2.0,300.55841000000004,40619.486000000004,0.0,0.0,-0.12195000106626064,0.0,0.0,0.0,-3.5753930090138173,-3.4997710129755064,-5.272145453445245,-0.013673852656004187,0.008024156435097582,-0.4132521686398136
12196,2.0,300.39601,40635.6,0.0,0.0,-0.12196000548663477,0.0,0.0,0.0,-3.5916139272146967,-3.4994685578206566,-5.261125244032636,-0.02170732197409588,-0.007303181163542863,-0.4173005587518586
12197,2.0,299.67436000000004,40559.887,0.0,0.0,-0.1219700099070089,0.0,0.0,0.0,-3.5943832410630066,-3.4874435082838766,-5.247366118274715,-0.01871572942484868,-0.01003745570881975,-0.42739503247560556
12198,2.0,299.44221,40554.511,0.0,0.0,-0.12198001432738304,0.0,0.0,0.0,-3.585695128080557,-3.488042339092976,-5.253821129361775,0.011514621759154688,0.0001887661124922648,-0.42615087281031655
12199,2.0,299.61622,40509.796,0.0,0.0,-0.12198998583847953,0.0,0.0,0.0,-3.5939021499155266,-3.477466541174226,-5.242597661979104,-0.006217396643209274,0.015024915273093685,-0.4095028798247876
12200,2.0,299.90622,40548.022000000004,0.0,0.0,-0.12199999025885377,0.0,0.0,0.0,-3.571805191734726,-3.4819439920411166,-5.271836918789795,0.02609817440793927,-0.007296298256938572,-0.4130726409870956
12201,2.0,300.0812,40625.776,0.0,0.0,-0.12200999467922813,0.0,0.0,0.0,-3.5885634364636365,-3.492885066620917,-5.2677729752887155,-0.003563708310185627,0.006478926829170294,-0.4133956955164786
12202,2.0,300.08457999999996,40647.787000000004,0.0,0.0,-0.12201999909960226,0.0,0.0,0.0,-3.5798983242584566,-3.523380550905587,-5.252633296269545,0.008826587692791382,-0.006398219634855114,-0.4157989221036586
12203,2.0,300.58672,40768.246,0.0,0.0,-0.1220300035199764,0.0,0.0,0.0,-3.6105188436054663,-3.505556772371517,-5.276452982270365,-0.013182347323996388,-0.006386876401310624,-0.4122381383372366
12204,2.0,300.74349,40826.892,0.0,0.0,-0.12204000794035053,0.0,0.0,0.0,-3.6160636521276963,-3.5160497877570966,-5.278242179296945,-0.00906970803636049,-0.01872034781880448,-0.4108060815734036
12205,2.0,300.27611,40662.532999999996,0.0,0.0,-0.12205001236072455,0.0,0.0,0.0,-3.6059164590012465,-3.4887615440139568,-5.265716786860786,-0.0015925720956496286,0.014897773663795787,-0.4206277174427236
12206,2.0,300.13374,40552.144,0.0,0.0,-0.12205998387182115,0.0,0.0,0.0,-3.569453742227657,-3.4874785667373365,-5.269906778674304,0.01020517028392189,0.014874777952776285,-0.41123002541524356
12207,2.0,299.61633,40432.008,0.0,0.0,-0.1220699882921954,0.0,0.0,0.0,-3.5631025892758466,-3.483523040996957,-5.2436953158124355,0.013349509272493988,0.018442919941424482,-0.42433250431335756
12208,2.0,299.37633,40554.538,0.0,0.0,-0.12207999271256953,0.0,0.0,0.0,-3.5914145195950167,-3.486876493527917,-5.249275892063195,0.005059146299573865,-0.007367306215996514,-0.4094739920644366
12209,2.0,299.36531,40668.623999999996,0.0,0.0,-0.12208999713294366,0.0,0.0,0.0,-3.5976970755150566,-3.5112499207083867,-5.253299305560275,-0.012442096185189289,0.01016795968724949,-0.42766765754751157
12210,2.0,299.77362999999997,40653.732,0.0,0.0,-0.12210000155331802,0.0,0.0,0.0,-3.599108026279307,-3.511409102299097,-5.247202275733545,-0.024111855653904876,-0.008260522554825102,-0.41682282146220956
12211,2.0,299.68382,40706.972,0.0,0.0,-0.12211000597369215,0.0,0.0,0.0,-3.5819711299880264,-3.5125953141911666,-5.279336489404945,-0.02433064978774818,0.0006091091370543914,-0.4165994200801616
12212,2.0,300.57837,40906.523,0.0,0.0,-0.12212001039406617,0.0,0.0,0.0,-3.626079426716176,-3.5268518444231765,-5.281630386306335,-0.008812535433779531,-0.00989427627561404,-0.4111886138836566
12213,2.0,300.44186,40936.09,0.0,0.0,-0.1221300148144403,0.0,0.0,0.0,-3.622588678796667,-3.524489553140037,-5.296470852570975,0.00944675035492167,0.016294955372436883,-0.4079280257243616
12214,2.0,300.14713,40725.102999999996,0.0,0.0,-0.12213998632553702,0.0,0.0,0.0,-3.6132926157542165,-3.506281246193017,-5.259840442905835,0.028541973555623473,-0.0006605720691033874,-0.41877392572226857
12215,2.0,300.03736000000004,40572.312999999995,0.0,0.0,-0.12214999074591115,0.0,0.0,0.0,-3.5753577479103367,-3.4972244114991766,-5.260387800609855,0.027644215728521677,-0.0039782823243758965,-0.40437940095913966
12216,2.0,299.41811,40582.184,0.0,0.0,-0.12215999516628528,0.0,0.0,0.0,-3.6002100370880665,-3.4742177573785966,-5.261542804398845,0.011836224301144388,-0.016360465031152183,-0.4122381180722346
12217,2.0,299.64389,40647.568,0.0,0.0,-0.12216999958665942,0.0,0.0,0.0,-3.579570132551067,-3.4986014183850767,-5.277674151290886,-0.0048080305007906655,-0.0016492568526189787,-0.4118995202863176
12218,2.0,299.52169,40617.369,0.0,0.0,-0.12218000400703366,0.0,0.0,0.0,-3.5996626793840463,-3.4856050673024366,-5.261398314934585,-0.013961662293908788,0.001157650499576209,-0.4191412390160196
12219,2.0,299.20861,40681.507000000005,0.0,0.0,-0.12219000842740779,0.0,0.0,0.0,-3.5898886662694265,-3.5059834519886266,-5.270290293837154,-0.03237275402319207,0.0023822278907825877,-0.4060665839656516
12220,2.0,299.36692,40899.035,0.0,0.0,-0.12220001284778192,0.0,0.0,0.0,-3.6275137835577365,-3.5267919613422665,-5.277979747521045,-0.013827573841925287,-0.003294898631531177,-0.41871140819109864
12221,2.0,300.46743,41009.902,0.0,0.0,-0.12220998435887864,0.0,0.0,0.0,-3.6271675559985668,-3.5388398090062965,-5.299978825742185,0.0002569255418090768,0.008143464810522402,-0.41056099663921564
12222,2.0,299.69747,40834.515,0.0,0.0,-0.12221998877925255,0.0,0.0,0.0,-3.610037245832937,-3.5222501690940264,-5.280385507233475,0.01960361819597648,-0.008054875037054272,-0.41533594786796657
12223,2.0,300.00358,40641.185,0.0,0.0,-0.12222999319962691,0.0,0.0,0.0,-3.563232994563717,-3.5051320179295966,-5.285540417117224,0.01913340935457048,-0.015511930893908383,-0.4168658136639526
12224,2.0,299.25914,40614.211,0.0,0.0,-0.12223999762000104,0.0,0.0,0.0,-3.587301737439117,-3.503570599525497,-5.254833771511715,0.016855458983254287,-0.03040833261706877,-0.41658545749378356
12225,2.0,299.41625,40763.512,0.0,0.0,-0.12225000204037528,0.0,0.0,0.0,-3.614489061472297,-3.504689328960907,-5.2719114939971545,-0.0062608324458460545,-0.004366429864033076,-0.42432610057272563
12226,2.0,299.95747,40754.46,0.0,0.0,-0.12226000646074942,0.0,0.0,0.0,-3.6070336685615065,-3.5039003111080365,-5.277404221464245,-0.017949819753759283,-0.006525723177088734,-0.42325453792947065
12227,2.0,300.02468,40498.488,0.0,0.0,-0.12227001088112355,0.0,0.0,0.0,-3.5733829234654366,-3.488665893204517,-5.248480288084675,-0.00980486759341509,-0.0027368444515055174,-0.42979474308493865
12228,2.0,299.76407,40652.546,0.0,0.0,-0.12228001530149768,0.0,0.0,0.0,-3.5920140596791867,-3.4929945989567264,-5.272350129965445,-0.006521426591364694,0.0019287970524824484,-0.4171976632042036
12229,2.0,300.38673,40932.066,0.0,0.0,-0.1222899868125944,0.0,0.0,0.0,-3.615793620976047,-3.522055321099797,-5.304477149561135,-0.0061778001465264045,0.01147199534069779,-0.43075424026713355
12230,2.0,300.58133,40951.506,0.0,0.0,-0.12229999123296831,0.0,0.0,0.0,-3.629970307100176,-3.5223744948812965,-5.295890462913695,-0.003777694876279457,0.005875293518571324,-0.4056118069232686
12231,2.0,300.70825,40842.274,0.0,0.0,-0.12230999565334255,0.0,0.0,0.0,-3.6154884300459265,-3.505973623462657,-5.293569512234636,-0.020678763691585084,0.020280223043002178,-0.4153769439670126
12232,2.0,299.90556000000004,40802.73,0.0,0.0,-0.1223200000737169,0.0,0.0,0.0,-3.611056879408567,-3.5215284310477966,-5.270425866700536,-0.006871445631083883,0.013160252392315788,-0.40557422547705957
12233,2.0,298.81479,40788.428,0.0,0.0,-0.12233000449409104,0.0,0.0,0.0,-3.6180106121948468,-3.5026443876090867,-5.278008523823885,-0.003793263869365996,0.007337627816592482,-0.41768971771776564
12234,2.0,299.73211000000003,40918.316,0.0,0.0,-0.12234000891446517,0.0,0.0,0.0,-3.6129221715176567,-3.5095346909391067,-5.315689471192704,0.004768325079722045,0.005080894902370285,-0.39088213955706363
12235,2.0,299.75217999999995,40746.549,0.0,0.0,-0.1223500133348393,0.0,0.0,0.0,-3.6019624531360166,-3.517092118134967,-5.266878883400475,0.003069165355703037,-0.016856036535811286,-0.41508690112588764
12236,2.0,299.64113,40596.695,0.0,0.0,-0.12235998484593602,0.0,0.0,0.0,-3.5908113318104866,-3.4845488553981965,-5.265021494642165,0.020783416214913482,-0.012218958248167289,-0.4013756919651966
12237,2.0,299.9191,40646.537000000004,0.0,0.0,-0.12236998926630993,0.0,0.0,0.0,-3.6085056169817764,-3.506903787054457,-5.240122798609855,0.01115055390547399,0.0005464111561740825,-0.45053982298231854
12238,2.0,299.85078,40895.212999999996,0.0,0.0,-0.12237999368668417,0.0,0.0,0.0,-3.617630542082336,-3.5218282517523867,-5.291664906021665,0.01300960034094759,0.016787241920271784,-0.4225471171071536
12239,2.0,300.03905,40978.844,0.0,0.0,-0.1223899981070583,0.0,0.0,0.0,-3.6259883355321865,-3.5345264033305965,-5.296030494077515,-0.013325483086122789,0.007585490575929633,-0.42927091304824055
12240,2.0,300.35961000000003,40876.367999999995,0.0,0.0,-0.12240000252743244,0.0,0.0,0.0,-3.582970093261617,-3.5498188804648465,-5.292606316689575,-0.009146697717383781,0.0023518852046129977,-0.4165837754986176
12241,2.0,300.17195,40755.367,0.0,0.0,-0.1224100069478068,0.0,0.0,0.0,-3.5778267344290065,-3.5219304886874765,-5.288856480719494,-0.022690457267873776,0.0015775997042219686,-0.42569631868295565
12242,2.0,299.61303,40905.614,0.0,0.0,-0.12242001136818093,0.0,0.0,0.0,-3.624589746419156,-3.526271758740927,-5.283423636333315,-0.009688262974557112,0.008399523344618413,-0.4086519422583066
12243,2.0,299.80888999999996,40984.25,0.0,0.0,-0.12243001578855495,0.0,0.0,0.0,-3.6247803387629665,-3.532740854004376,-5.300667430510145,-0.002514316693693738,-0.003357864627195437,-0.4140324320118196
12244,2.0,300.7122,40829.299,0.0,0.0,-0.12243998729965155,0.0,0.0,0.0,-3.623716932783017,-3.505290794220267,-5.282079762725686,-0.001999717669381768,-0.0015726115753046785,-0.4196918695178626
12245,2.0,301.45724,40615.627,0.0,0.0,-0.1224499917200258,0.0,0.0,0.0,-3.5715465089841962,-3.5086678554785564,-5.265921970006036,0.02945014354075287,-0.0063897354891177946,-0.42790459595089564
12246,2.0,300.24584,40603.504,0.0,0.0,-0.12245999614039993,0.0,0.0,0.0,-3.580189228362167,-3.4882101333095363,-5.274051984833404,0.013063005713968288,-0.011419808907547388,-0.41849925388516057
12247,2.0,300.21988999999996,40993.373,0.0,0.0,-0.12247000056077406,0.0,0.0,0.0,-3.6422412724362263,-3.5211083375563366,-5.297612076158605,0.015105944883590685,-0.019961943961340482,-0.4117754478115726
12248,2.0,299.78742,41098.425,0.0,0.0,-0.1224800049811482,0.0,0.0,0.0,-3.6783690087267567,-3.5171020479859467,-5.297424016940044,-0.028304765627712874,-0.018686965281009882,-0.41337055678149764
12249,2.0,300.14841,40883.677,0.0,0.0,-0.12249000940152244,0.0,0.0,0.0,-3.6319398626445563,-3.5123699673689264,-5.283307112571815,-0.002837637809178047,-0.0016368991530743685,-0.4200235569380976
12250,2.0,300.15418,40857.931000000004,0.0,0.0,-0.12250001382189657,0.0,0.0,0.0,-3.6334184985154865,-3.5103837945229066,-5.275988407099516,-0.01067329183012189,0.015124088139881288,-0.41872764045770056
12251,2.0,300.29262,41116.551,0.0,0.0,-0.12250998533299318,0.0,0.0,0.0,-3.627206667452426,-3.5340349770320967,-5.337163077911985,0.025141274185750576,0.025672793777457473,-0.3984559915370446
12252,2.0,299.96566,41081.029,0.0,0.0,-0.12251998975336742,0.0,0.0,0.0,-3.6194499339618966,-3.5479710162574767,-5.320186072486486,-0.005802277095165165,0.002927529811674697,-0.4310106128074356
12253,2.0,300.04241,40850.885,0.0,0.0,-0.12252999417374133,0.0,0.0,0.0,-3.592027941205557,-3.5243457729508467,-5.301275279245135,0.009071965760233312,-0.005439342460396305,-0.4074768457198336
12254,2.0,299.13662999999997,40659.224,0.0,0.0,-0.12253999859411568,0.0,0.0,0.0,-3.588878354594717,-3.5064818697128164,-5.2640286108691745,-0.024706433852335178,-0.0035336954369235866,-0.4376706854497336
12255,2.0,299.08497,40781.373999999996,0.0,0.0,-0.12255000301448982,0.0,0.0,0.0,-3.599108735554376,-3.513102445866217,-5.2843080010205945,0.004580393733324665,-0.014992347388379486,-0.4084648050973376
12256,2.0,299.46272,40975.989,0.0,0.0,-0.12256000743486406,0.0,0.0,0.0,-3.6229533475076567,-3.5324216802228765,-5.300302457824125,-0.019687477814002784,0.003658965370636767,-0.4422182025610386
12257,2.0,299.66224,40982.019,0.0,0.0,-0.12257001185523819,0.0,0.0,0.0,-3.5920246988052362,-3.546617820748926,-5.318868036756404,-0.007376980930601332,0.007813496977032113,-0.4199135686397426
12258,2.0,299.62188,40803.579,0.0,0.0,-0.12258001627561232,0.0,0.0,0.0,-3.599023318570947,-3.5141031316649767,-5.290142700396435,0.008096056459543562,0.005603879685834865,-0.42649535757931456
12259,2.0,299.7758,40917.2,0.0,0.0,-0.12258998778670904,0.0,0.0,0.0,-3.6223759976006766,-3.519309717303827,-5.296121382611485,0.008247820856871544,-0.011896409330584189,-0.4122101726344766
12260,2.0,300.11852000000005,41191.365,0.0,0.0,-0.12259999220708317,0.0,0.0,0.0,-3.6708527194849565,-3.5461538535281365,-5.304139939927854,0.012008697706666188,-0.012622391881483088,-0.42637894527532555
12261,2.0,299.7286,41224.955,0.0,0.0,-0.12260999662745709,0.0,0.0,0.0,-3.684879647244307,-3.5281709947283666,-5.318306290900965,-0.00914841710147847,-0.012550661880403886,-0.4151467335442926
12262,2.0,300.0374,40962.551,0.0,0.0,-0.12262000104783133,0.0,0.0,0.0,-3.650540601355307,-3.517311081481576,-5.283740884939625,-0.01163078480361909,0.012219303766451388,-0.4203922685169866
12263,2.0,300.58246,40853.643,0.0,0.0,-0.12263000546820568,0.0,0.0,0.0,-3.6022291405623363,-3.5205070749469964,-5.295751039699936,-0.01977523337866358,-0.009197386364236362,-0.43528831154961156
12264,2.0,300.15955,40942.623999999996,0.0,0.0,-0.12264000988857982,0.0,0.0,0.0,-3.6222616016643863,-3.5283446657955064,-5.294928989893805,-0.016367667212862987,0.003218381023729477,-0.4195983262686306
12265,2.0,299.30902000000003,41088.647000000004,0.0,0.0,-0.12265001430895395,0.0,0.0,0.0,-3.630237399826537,-3.5437132380122667,-5.3159719653205855,-0.01266102406804579,-0.006856856653494062,-0.41466759796950564
12266,2.0,300.59477999999996,40957.344,0.0,0.0,-0.12265998582005044,0.0,0.0,0.0,-3.622531936791067,-3.5236274799549565,-5.303850353049275,0.0008884309105938041,0.009667001745058792,-0.39940043182275364
12267,2.0,300.32232999999997,40763.565,0.0,0.0,-0.1226699902404248,0.0,0.0,0.0,-3.6119291864196565,-3.5104105443255467,-5.268766365686755,0.01068612666913859,-0.007846672305181263,-0.41768754936255154
12268,2.0,300.18318,40910.843,0.0,0.0,-0.12267999466079871,0.0,0.0,0.0,-3.6034351108313563,-3.540458476041047,-5.291981040052866,0.018631603322046084,0.014403203250235487,-0.43027052480189465
12269,2.0,299.83991000000003,41104.077000000005,0.0,0.0,-0.12268999908117295,0.0,0.0,0.0,-3.6301138846393464,-3.5488483895190663,-5.315650866363895,-0.0003825927911514686,0.0005040680931076476,-0.4357882491489516
12270,2.0,299.4016,41118.217000000004,0.0,0.0,-0.12270000350154708,0.0,0.0,0.0,-3.625077322367276,-3.5622903679956863,-5.3115435557585355,-0.006407205643366963,0.007369385607851733,-0.42224645540498057
12271,2.0,299.42753,40898.275,0.0,0.0,-0.12271000792192122,0.0,0.0,0.0,-3.6149695446697168,-3.5299555308044868,-5.2871291932740245,-0.012485236321446887,-0.018586882515632484,-0.4250969913813066
12272,2.0,299.96927,40873.372,0.0,0.0,-0.12272001234229557,0.0,0.0,0.0,-3.6100237696066064,-3.544612598801026,-5.269848212818524,-0.0008374700439693583,-0.00949077252539132,-0.43363166790111357
12273,2.0,300.02473,40945.475,0.0,0.0,-0.12272998385339207,0.0,0.0,0.0,-3.6470240155582463,-3.5200701615038765,-5.279307611777095,0.013808856072827988,0.0027806756243313174,-0.4305996385668756
12274,2.0,300.10229,41108.799,0.0,0.0,-0.1227399882737662,0.0,0.0,0.0,-3.6319400652945766,-3.5466803382800967,-5.317427803064265,-0.0007735536298437993,0.01991806415250988,-0.41857820633295256
12275,2.0,300.18996,41065.594,0.0,0.0,-0.12274999269414033,0.0,0.0,0.0,-3.618851204477807,-3.551819745437317,-5.312244116877674,0.006554837500162093,0.004735887904270745,-0.43601001919833854
12276,2.0,299.85927000000004,40986.239,0.0,0.0,-0.12275999711451457,0.0,0.0,0.0,-3.6111274016155264,-3.5257708078914862,-5.321895121430154,-0.018012969552991684,0.013504693591559485,-0.41078738710905865
12277,2.0,300.01194,41134.107,0.0,0.0,-0.1227700015348887,0.0,0.0,0.0,-3.641509401888997,-3.5457586859891363,-5.316473422795075,0.0048955464318028155,0.006461853666310305,-0.4160235900483316
12278,2.0,300.13473999999997,41190.56,0.0,0.0,-0.12278000595526284,0.0,0.0,0.0,-3.6710780663071967,-3.5277583992876465,-5.322065246121945,-0.008325977295384982,-0.01148858224483479,-0.3895109588592386
12279,2.0,301.02256,41110.016,0.0,0.0,-0.12279001037563697,0.0,0.0,0.0,-3.6522027368193464,-3.5277147282083368,-5.316500679222765,0.004012544059282266,-0.01959461749533818,-0.4278057635361416
12280,2.0,300.70794,41119.297,0.0,0.0,-0.12280001479601121,0.0,0.0,0.0,-3.6392659648425862,-3.5449251864568763,-5.3150484891794445,0.002269578595014968,-0.01241043515931459,-0.4258287099410216
12281,2.0,300.56121,41144.912000000004,0.0,0.0,-0.12280998630710782,0.0,0.0,0.0,-3.6448638676700567,-3.538753784072807,-5.323408106479475,0.02253855385263208,0.013510952437427186,-0.4328197505959836
12282,2.0,300.38407,41067.699,0.0,0.0,-0.12281999072748195,0.0,0.0,0.0,-3.639400625780876,-3.534445748622636,-5.309708661152445,-0.003189891673317797,0.015103268890076585,-0.41906917666890764
12283,2.0,300.70846,41175.286,0.0,0.0,-0.1228299951478562,0.0,0.0,0.0,-3.638868264178337,-3.540947571864317,-5.336443062390925,-0.002132061507343088,-0.002456935225955628,-0.4191357877304816
12284,2.0,300.02289,41110.145,0.0,0.0,-0.12283999956823011,0.0,0.0,0.0,-3.665025923459896,-3.5292913453639367,-5.302140189530495,-0.027188020135998678,-0.015158327887260485,-0.42653909958613156
12285,2.0,299.95984,41014.637,0.0,0.0,-0.12285000398860446,0.0,0.0,0.0,-3.623501211836726,-3.534761274703776,-5.309162924648585,0.005489786306024725,-0.015196048148733186,-0.4072813897755436
12286,2.0,299.97077,40998.614,0.0,0.0,-0.1228600084089786,0.0,0.0,0.0,-3.610749054028186,-3.5329800823529864,-5.318825885552245,-0.005559920843496465,-0.015996115493943686,-0.44433831693777753
12287,2.0,299.66855,41164.161,0.0,0.0,-0.12287001282935284,0.0,0.0,0.0,-3.6231749453045268,-3.558655535911957,-5.3310464923583245,0.014585160676693286,-0.01251645658352809,-0.40837008647798967
12288,2.0,299.85258999999996,41158.39,0.0,0.0,-0.12287998434044933,0.0,0.0,0.0,-3.6305652875588965,-3.5528833540672866,-5.327674193375505,0.014154469602437386,0.001041832669420879,-0.44400239413212456
12289,2.0,300.33776,41025.3,0.0,0.0,-0.12288998876082369,0.0,0.0,0.0,-3.620290323594836,-3.5346337065161864,-5.315742869472975,0.03456940931248507,0.02828578137383927,-0.39459089836808964
12290,2.0,300.28058,41098.913,0.0,0.0,-0.12289999318119782,0.0,0.0,0.0,-3.659103577950406,-3.5334029116197168,-5.300536721247245,0.000958180433292546,0.002027129529637108,-0.4279202709299426
12291,2.0,300.30176,41292.312999999995,0.0,0.0,-0.12290999760157173,0.0,0.0,0.0,-3.6661004751909467,-3.550785521060247,-5.334945985368175,0.003385013751699847,-0.007467967344530994,-0.4177466218433816
12292,2.0,300.97472,41249.373999999996,0.0,0.0,-0.12292000202194586,0.0,0.0,0.0,-3.6546147786823964,-3.560214927815857,-5.323950093957965,-0.03034299926387087,-0.0040327403629254865,-0.4441595796201375
12293,2.0,300.72946,41127.51,0.0,0.0,-0.1229300064423201,0.0,0.0,0.0,-3.6381803686854464,-3.5333734260418073,-5.330182392673045,-0.009023198539545361,0.016764691026046184,-0.4232289533644456
12294,2.0,300.53186,41052.117,0.0,0.0,-0.12294001086269446,0.0,0.0,0.0,-3.641095489223147,-3.523468501014267,-5.314254405076075,-0.025953742698934978,0.0027337775461028376,-0.43281942635595155
12295,2.0,299.93989,41086.617999999995,0.0,0.0,-0.12295001528306859,0.0,0.0,0.0,-3.6506379746899165,-3.527273863089827,-5.311394202693795,-0.004153798823923026,-1.2293664164790187e-05,-0.41249839162542157
12296,2.0,299.47292000000004,41218.661,0.0,0.0,-0.12295998679416509,0.0,0.0,0.0,-3.6723422984569667,-3.528712779556837,-5.328388636021015,0.014019185515335885,0.011428782250432989,-0.4066920024573756
12297,2.0,299.82493,41252.574,0.0,0.0,-0.12296999121453922,0.0,0.0,0.0,-3.6301820763710766,-3.5691041709431564,-5.340466070587965,0.008631605442923131,0.004995402938432886,-0.4141483680882616
12298,2.0,300.38694,41106.723,0.0,0.0,-0.12297999563491357,0.0,0.0,0.0,-3.6302153109743567,-3.547213003857667,-5.317988940969644,0.019075236639829282,-0.01772933349224898,-0.4155991801114456
12299,2.0,300.17402999999996,41212.441,0.0,0.0,-0.12299000005528749,0.0,0.0,0.0,-3.6191495053072464,-3.570652113120927,-5.3377514722450545,-0.019776903214828383,-0.0017160201043579983,-0.42818305734337764
12300,2.0,299.73865,41286.703,0.0,0.0,-0.12300000447566173,0.0,0.0,0.0,-3.641797164917396,-3.5715939290888765,-5.336735790344815,0.011514415056134288,0.01671274473316948,-0.4247403982736136
12301,2.0,299.54654,41002.396,0.0,0.0,-0.12301000889603586,0.0,0.0,0.0,-3.6286753734723765,-3.5251188827771465,-5.309910196597335,-0.023937521921199478,0.005678421861241604,-0.4098663832981626
12302,2.0,300.2874,40954.683,0.0,0.0,-0.12302001331640999,0.0,0.0,0.0,-3.6077053520527964,-3.5371003625596265,-5.304395278953055,0.01026318797139779,0.005952254524616785,-0.4260724472525766
12303,2.0,300.17851,41122.143,0.0,0.0,-0.12302998482750671,0.0,0.0,0.0,-3.6348968304113862,-3.530874649970196,-5.334333070382685,0.0008904048839086201,0.0003258905860153967,-0.4262947340595146
12304,2.0,299.31413,41209.574,0.0,0.0,-0.12303998924788084,0.0,0.0,0.0,-3.6413705866252966,-3.5455729572458066,-5.339738050391115,0.027972847186455076,0.0006728594693560594,-0.43332300152315056
12305,2.0,299.52689,41247.712999999996,0.0,0.0,-0.12304999366825498,0.0,0.0,0.0,-3.6489845531767364,-3.552597921514117,-5.336692321915525,-0.014364679481433487,-0.008067633679663453,-0.43306722680040755
12306,2.0,299.84747999999996,41279.117,0.0,0.0,-0.12305999808862911,0.0,0.0,0.0,-3.636187204413736,-3.5543774926647465,-5.357256131370015,-0.004695000121660436,-0.021217281801732678,-0.4244512774900796
12307,2.0,300.15653,41224.739,0.0,0.0,-0.12307000250900335,0.0,0.0,0.0,-3.6805955244964967,-3.541363308380347,-5.309332238740295,-0.02448253597773818,0.006881689589594883,-0.42252599084256864
12308,2.0,300.09855,41291.797,0.0,0.0,-0.12308000692937748,0.0,0.0,0.0,-3.6514025732153765,-3.5563765337870366,-5.343896023501475,-0.0029294754545167168,0.005025133621542076,-0.4088139305517936
12309,2.0,300.09057,41306.93,0.0,0.0,-0.12309001134975162,0.0,0.0,0.0,-3.666286507909307,-3.544555654145406,-5.345433225228185,0.0007873600237188842,0.0005987544809699665,-0.4052771000177356
12310,2.0,299.83815,41357.003,0.0,0.0,-0.12310001577012575,0.0,0.0,0.0,-3.649434841521176,-3.5635297755180066,-5.358531509270886,0.02126344952928908,-0.018150114980526884,-0.4003667988406266
12311,2.0,300.35272000000003,41301.087,0.0,0.0,-0.12310998728122247,0.0,0.0,0.0,-3.6609943026370066,-3.5466930039063467,-5.346811853314245,0.03471251974335896,0.0002024305094983358,-0.4119018710265496
12312,2.0,300.28537,41174.647000000004,0.0,0.0,-0.1231199917015966,0.0,0.0,0.0,-3.636551873124726,-3.5505565265376466,-5.328956157402025,0.009244623982573351,-0.003146457694531197,-0.41154685858901263
12313,2.0,300.52328,41166.909,0.0,0.0,-0.12312999612197084,0.0,0.0,0.0,-3.658944700334726,-3.526813746219417,-5.327954053053125,-0.007031804719735094,0.003441814019180596,-0.41457562525792857
12314,2.0,300.65352,41254.291,0.0,0.0,-0.12314000054234497,0.0,0.0,0.0,-3.6491185048399566,-3.5457738847406364,-5.3453818534481155,-0.014801246393019286,-0.01026139451872079,-0.4320244404599926
12315,2.0,300.22332,41335.622,0.0,0.0,-0.12315000496271888,0.0,0.0,0.0,-3.6615324397651166,-3.566523726913487,-5.336940669515035,-0.013467574187396088,0.019304359845191982,-0.44169866870476454
12316,2.0,299.61372,41252.539,0.0,0.0,-0.12316000938309324,0.0,0.0,0.0,-3.6367491529191964,-3.5606720049359666,-5.342320622245995,-0.003205703846428337,-0.01010556556994167,-0.44656173216221157
12317,2.0,299.19225,41252.45,0.0,0.0,-0.12317001380346737,0.0,0.0,0.0,-3.6302619204789566,-3.569770180233886,-5.339682625610645,-0.01233177351430129,-0.002171604403095668,-0.4270768820767066
12318,2.0,299.2596,41325.638999999996,0.0,0.0,-0.12317998531456387,0.0,0.0,0.0,-3.6603451132979368,-3.5590970089805265,-5.342520131190685,-0.004476395161610806,-0.01034805273352329,-0.4317474280151536
12319,2.0,299.85946,41404.873999999996,0.0,0.0,-0.12318998973493811,0.0,0.0,0.0,-3.6767249091144962,-3.5576369155864263,-5.351685991595285,0.01868012989583528,0.020547115145842378,-0.39349443003737666
12320,2.0,300.49244,41224.836,0.0,0.0,-0.12319999415531246,0.0,0.0,0.0,-3.6478802118927467,-3.557892153286617,-5.325548293340695,0.004509649320617736,0.0008321524669145541,-0.42487392437179156
12321,2.0,300.11001,41079.084,0.0,0.0,-0.1232099985756866,0.0,0.0,0.0,-3.6216674318057462,-3.5283554062465665,-5.3369930545452045,0.009238982813966611,0.0030692840072897467,-0.4017883380684216
12322,2.0,300.44806,41292.748999999996,0.0,0.0,-0.12322000299606051,0.0,0.0,0.0,-3.6494397051216563,-3.5581993707169364,-5.344325540218865,-0.0095411997537181,-0.01979369682198578,-0.4428242477108506
12323,2.0,300.23118,41473.248999999996,0.0,0.0,-0.12323000741643464,0.0,0.0,0.0,-3.6865811981372367,-3.573249579752276,-5.3470014324079544,0.006226663018023795,-0.008319135526734751,-0.42509870377397563
12324,2.0,299.0837,41317.456,0.0,0.0,-0.12324001183680888,0.0,0.0,0.0,-3.694460737539887,-3.5480576491410263,-5.316956439117745,0.002353940582440848,-0.011898112604002288,-0.45278076743348256
12325,2.0,298.97533,41258.09,0.0,0.0,-0.12325001625718324,0.0,0.0,0.0,-3.668041457082507,-3.549576713690947,-5.3238111773692545,-0.006822801114983045,0.02113000753086938,-0.41503854883111563
12326,2.0,299.76775,41294.787000000004,0.0,0.0,-0.12325998776827973,0.0,0.0,0.0,-3.673596702080767,-3.5383121083542166,-5.3406753067336155,0.008145682814991303,0.007382984437443833,-0.43788394419828053
12327,2.0,299.59751,41373.386,0.0,0.0,-0.12326999218865387,0.0,0.0,0.0,-3.666392797844797,-3.563117281402297,-5.346966272629485,-0.009114597346265721,0.03466307111197876,-0.4187304066304736
12328,2.0,300.20027000000005,41401.929,0.0,0.0,-0.123279996609028,0.0,0.0,0.0,-3.669039407105996,-3.564721965585667,-5.351391135816185,-0.009057762020331511,-0.009392892160431281,-0.43213898838379755
12329,2.0,300.85052,41260.129,0.0,0.0,-0.12329000102940235,0.0,0.0,0.0,-3.6459701341292363,-3.541328351251897,-5.354750363872715,-0.014476861466254985,-0.02449505468272368,-0.4089600108187106
12330,2.0,300.27875,41057.018,0.0,0.0,-0.12330000544977626,0.0,0.0,0.0,-3.630589200261257,-3.5401013053807966,-5.309617772618474,-0.012817867077524988,-0.011996434340705887,-0.4255405720100846
12331,2.0,300.13916,41358.369,0.0,0.0,-0.12331000987015062,0.0,0.0,0.0,-3.6462539454822465,-3.5616082480283664,-5.364049264015445,-0.0015928644183034787,0.003142526588118227,-0.4184553396258266
12332,2.0,299.84342000000004,41564.852999999996,0.0,0.0,-0.12332001429052464,0.0,0.0,0.0,-3.6802366313110766,-3.5940372161538563,-5.360403488830635,0.005423757863258225,0.005417892462404355,-0.4219993541030936
12333,2.0,299.64655,41382.046,0.0,0.0,-0.12332998580162136,0.0,0.0,0.0,-3.642313111868317,-3.570897623620157,-5.365897938822895,0.008146788473500423,0.012687327027391688,-0.42863715550819365
12334,2.0,299.99856,41244.27,0.0,0.0,-0.12333999022199549,0.0,0.0,0.0,-3.6301509695930063,-3.5694826198555067,-5.337594519804565,0.017195158172029983,0.012575347692590189,-0.4375607072838796
12335,2.0,300.76212999999996,41471.605,0.0,0.0,-0.12334999464236962,0.0,0.0,0.0,-3.6882499197269265,-3.5802122291394363,-5.337870225156775,-0.007516849467780283,-0.0012105205725690788,-0.43965763849833056
12336,2.0,300.33373,41518.916,0.0,0.0,-0.12335999906274375,0.0,0.0,0.0,-3.6862579713553365,-3.5672015912303863,-5.367254174081745,0.008044165591447331,-0.02016054604719098,-0.4135772294043946
12337,2.0,300.08398,41414.782,0.0,0.0,-0.12337000348311788,0.0,0.0,0.0,-3.6784106533058663,-3.5601012411546367,-5.3505478077579545,-0.014655665658401587,-0.002473587383399068,-0.42798393343372554
12338,2.0,299.62639,41330.505,0.0,0.0,-0.12338000790349213,0.0,0.0,0.0,-3.6405470169440166,-3.551300252111047,-5.371594430885095,0.00016483974138841587,0.009617624446485631,-0.39579155920658565
12339,2.0,299.12397999999996,41192.717000000004,0.0,0.0,-0.12339001232386626,0.0,0.0,0.0,-3.6388559025271165,-3.538029918201367,-5.344671666453025,-0.029061543888901073,0.006873843487445534,-0.42458519875579664
12340,2.0,299.09469,41394.137,0.0,0.0,-0.12339998383496276,0.0,0.0,0.0,-3.622901773077567,-3.5866316751479865,-5.373250486848535,0.00980215552819743,0.00861474435330907,-0.42288738675573556
12341,2.0,300.11231000000004,41490.851,0.0,0.0,-0.12340998825533689,0.0,0.0,0.0,-3.689168329617567,-3.549526456485987,-5.373487992671975,0.007696284205464113,0.0029533311108960875,-0.4280161649194066
12342,2.0,299.77859,41476.784,0.0,0.0,-0.12341999267571124,0.0,0.0,0.0,-3.6521797360420765,-3.5892339040548067,-5.366493020606625,0.03389571654624677,-0.002774070854879477,-0.4228342823179946
12343,2.0,300.48536,41381.122,0.0,0.0,-0.12342999709608538,0.0,0.0,0.0,-3.683074744841176,-3.558463423692997,-5.337289531524465,-0.009257462874590451,-0.013025714057287887,-0.44185379729507457
12344,2.0,300.74012,41482.645,0.0,0.0,-0.12344000151645962,0.0,0.0,0.0,-3.669947076545576,-3.5770446066768167,-5.362696777781965,0.007740652096867882,-0.005522323286610875,-0.41401330184993157
12345,2.0,300.08717,41589.803,0.0,0.0,-0.12345000593683375,0.0,0.0,0.0,-3.6948363493519567,-3.5867718076368167,-5.360653457630304,-0.016916865992314685,0.00015369911733392183,-0.4370622996921906
12346,2.0,300.09548,41509.129,0.0,0.0,-0.12346001035720766,0.0,0.0,0.0,-3.6638404208428965,-3.570532448284117,-5.383365863921845,0.014020174447433486,-0.0013849584673847587,-0.41221498557245156
12347,2.0,300.10497999999995,41304.253,0.0,0.0,-0.12347001477758202,0.0,0.0,0.0,-3.6671685421213565,-3.560318178001047,-5.327974926005185,-0.0006605174549229974,-0.00966246441111099,-0.4248706211764656
12348,2.0,299.3396,41333.502,0.0,0.0,-0.12347998628867851,0.0,0.0,0.0,-3.6538858465604567,-3.5577931587518465,-5.352673403817735,0.01187701977667059,-0.008329951262277181,-0.4207696737817336
12349,2.0,299.88496000000004,41506.95,0.0,0.0,-0.12348999070905264,0.0,0.0,0.0,-3.6894493038702962,-3.5530822550619168,-5.374544812526275,0.01071441559868049,-0.0018593533489288882,-0.41825139264569866
12350,2.0,299.89647,41526.276,0.0,0.0,-0.12349999512942689,0.0,0.0,0.0,-3.672624893909857,-3.5789858925434066,-5.371340307760015,-0.013949169933425886,-0.01136537305917499,-0.41628397505902964
12351,2.0,300.20328,41479.797999999995,0.0,0.0,-0.12350999954980124,0.0,0.0,0.0,-3.6497060885729464,-3.5784709588425865,-5.380645895353404,0.001251087357547709,-0.012921294581482489,-0.42514696487623854
12352,2.0,300.52182,41327.65,0.0,0.0,-0.12352000397017537,0.0,0.0,0.0,-3.643598723595196,-3.564302885344307,-5.354671836989965,-0.014191701477361885,0.007577833140948903,-0.45016646058547055
12353,2.0,300.09546,41396.922,0.0,0.0,-0.12353000839054928,0.0,0.0,0.0,-3.6513263768078565,-3.5788962199095566,-5.353408010140235,0.01152026353571149,0.004261724347724446,-0.4331181324854316
12354,2.0,300.22035,41641.182,0.0,0.0,-0.12354001281092342,0.0,0.0,0.0,-3.7056217887163965,-3.581085144100587,-5.3711725135434545,0.003009417948981427,-0.011388317094439387,-0.4306595621777896
12355,2.0,300.48149,41611.516,0.0,0.0,-0.12354998432202013,0.0,0.0,0.0,-3.6931521250357364,-3.6016005202002965,-5.354109179209435,0.013682459202353586,-0.016361782256282185,-0.4095713653990466
12356,2.0,300.33847000000003,41322.856,0.0,0.0,-0.12355998874239427,0.0,0.0,0.0,-3.6699905449748664,-3.5669706715325966,-5.324155074453195,-0.005652402814573724,-0.0014200591733739285,-0.4373775623283046
12357,2.0,299.85039,41423.99,0.0,0.0,-0.12356999316276851,0.0,0.0,0.0,-3.6614282776548364,-3.568697047052976,-5.361733176936865,0.002879307719540547,-0.004787766309390745,-0.4146349105212796
12358,2.0,299.67228,41688.712,0.0,0.0,-0.12357999758314264,0.0,0.0,0.0,-3.725826806310476,-3.574008200102146,-5.372492474448725,-0.02178112913788008,0.0018435056107398383,-0.43473361791486753
12359,2.0,299.25687999999997,41617.607,0.0,0.0,-0.12359000200351677,0.0,0.0,0.0,-3.692418633288346,-3.5781882620646863,-5.380106339675154,0.004441306310647806,0.0012335130411882589,-0.42067499569238964
12360,2.0,299.39376,41373.802,0.0,0.0,-0.12360000642389113,0.0,0.0,0.0,-3.677328806174097,-3.561708661113277,-5.337565236876674,-0.001989791060802088,0.02326197186752788,-0.4517386194406306
12361,2.0,299.65254,41299.386,0.0,0.0,-0.12361001084426504,0.0,0.0,0.0,-3.649665862543977,-3.537704563594257,-5.3666116721933355,0.005350186077472255,0.015033419481182987,-0.4114539638198446
12362,2.0,299.63068,41388.439,0.0,0.0,-0.12362001526463928,0.0,0.0,0.0,-3.6509835942990265,-3.5633294559732365,-5.3667390377309045,-0.00905151654936513,0.0017912476421323782,-0.4374617228816106
12363,2.0,300.31076,41647.517,0.0,0.0,-0.12362998677573589,0.0,0.0,0.0,-3.6825914245434763,-3.5901584947710568,-5.387055310185965,-0.0014668815618199386,0.0013590998182077087,-0.41977505735107257
12364,2.0,299.95792,41598.393,0.0,0.0,-0.12363999119611013,0.0,0.0,0.0,-3.6917255702199467,-3.5764811382962067,-5.376666152935636,-0.006974782753132463,0.023384679494388178,-0.4304446416990786
12365,2.0,299.67787000000004,41467.849,0.0,0.0,-0.12364999561648427,0.0,0.0,0.0,-3.6705139899765262,-3.586667138901486,-5.348009616257455,-0.007992082307157112,-0.002148799689720018,-0.4141401303649486
12366,2.0,300.51363,41583.32,0.0,0.0,-0.1236600000368584,0.0,0.0,0.0,-3.6953790461055167,-3.5642774527667966,-5.380634546952286,-0.018667660840104683,-0.003242679470402547,-0.4024244666137026
12367,2.0,300.32511,41801.166,0.0,0.0,-0.12367000445723253,0.0,0.0,0.0,-3.7197011015059167,-3.5923715343144664,-5.394437951739575,-0.012416883482950988,-0.015414876733079882,-0.4078851449801296
12368,2.0,299.88524,41656.95,0.0,0.0,-0.12368000887760677,0.0,0.0,0.0,-3.675514581870046,-3.603333684496347,-5.383824460917104,0.022671601696762876,0.008088839585706312,-0.42748764353474555
12369,2.0,300.07358,41361.497,0.0,0.0,-0.1236900132979809,0.0,0.0,0.0,-3.660593866197486,-3.550686931825517,-5.361581493396895,0.02084165884391158,-0.017957702839537286,-0.4268371572355476
12370,2.0,300.2341,41364.15,0.0,0.0,-0.12369998480907751,0.0,0.0,0.0,-3.6377179213398065,-3.5700836798148265,-5.365867034694845,0.02410530093900798,-0.011126510493851091,-0.4484523757888036
12371,2.0,299.72277,41691.134,0.0,0.0,-0.12370998922945153,0.0,0.0,0.0,-3.7000084844874066,-3.585937598829487,-5.387117726392124,0.007247558191353303,-0.015632458006553485,-0.44453999423768165
12372,2.0,299.54089,41781.391,0.0,0.0,-0.12371999364982567,0.0,0.0,0.0,-3.683555532013626,-3.602788758592567,-5.414155393385535,0.015391285231001585,0.02363327534017268,-0.4349477987210056
12373,2.0,299.43368,41583.151,0.0,0.0,-0.12372999807020002,0.0,0.0,0.0,-3.691130083136176,-3.5767522840229664,-5.372357104235365,-0.014093595562929587,-0.014717606650264684,-0.42856399885097357
12374,2.0,300.12425,41601.506,0.0,0.0,-0.12374000249057415,0.0,0.0,0.0,-3.6564157294101363,-3.582545034844667,-5.406858472790385,-0.019726869938140483,-0.01062337507719549,-0.40220756016479564
12375,2.0,299.88046,41605.216,0.0,0.0,-0.1237500069109484,0.0,0.0,0.0,-3.7114447343910766,-3.5805637255991267,-5.354938220441254,-0.011777692895867789,-0.004527013691556466,-0.42276101420326356
12376,2.0,300.14932999999996,41756.623999999996,0.0,0.0,-0.12376001133132253,0.0,0.0,0.0,-3.689565422331756,-3.6109592020989263,-5.3924463073430156,0.0026285546642931474,0.020565780225934478,-0.4026773029111556
12377,2.0,300.43023,41590.087,0.0,0.0,-0.12377001575169644,0.0,0.0,0.0,-3.7036657093983463,-3.5754298913174565,-5.363252444136805,0.012071811028894989,-0.017236015455812284,-0.42749489840546157
12378,2.0,300.37377999999995,41451.67,0.0,0.0,-0.12377998726279316,0.0,0.0,0.0,-3.6445519892892766,-3.592955976972146,-5.3627646655386645,-0.007289968990188923,0.0015581340552258585,-0.41825316583337363
12379,2.0,300.58058,41517.066,0.0,0.0,-0.12378999168316729,0.0,0.0,0.0,-3.684114136793757,-3.5697336019052766,-5.366303441512915,0.00967777401217193,0.007649835098354941,-0.4408384598998686
12380,2.0,300.21435,41756.34,0.0,0.0,-0.12379999610354142,0.0,0.0,0.0,-3.6879586103231765,-3.6113910492915466,-5.393535145900475,-0.00015501266436605883,0.013852035725839486,-0.4242099314487606
12381,2.0,299.68344,41671.543,0.0,0.0,-0.12381000052391566,0.0,0.0,0.0,-3.695321290849817,-3.581966469037567,-5.389820571033875,0.0023296038349139977,-0.02327244076756108,-0.43897955126640864
12382,2.0,300.18753,41682.705,0.0,0.0,-0.12382000494429002,0.0,0.0,0.0,-3.687537300931597,-3.578942221464097,-5.404021879135435,-0.005557576689390115,-0.018065222860648683,-0.41758531242746155
12383,2.0,299.87787000000003,41692.918,0.0,0.0,-0.12383000936466415,0.0,0.0,0.0,-3.690647877413586,-3.6031484623780665,-5.379809761370885,0.02008869141634948,0.007981313485094312,-0.4355470246976446
12384,2.0,299.69296,41569.806000000004,0.0,0.0,-0.12384001378503806,0.0,0.0,0.0,-3.680737582160517,-3.568953298003267,-5.386492044455375,0.007386403751231294,0.025082068969157476,-0.42303954652325265
12385,2.0,300.24872,41555.429,0.0,0.0,-0.12384998529613478,0.0,0.0,0.0,-3.6690850033604967,-3.5811497894569664,-5.381578085445405,-0.0001173386780254259,-0.012817041278693488,-0.4210606690779526
12386,2.0,299.88137,41577.777,0.0,0.0,-0.12385998971650891,0.0,0.0,0.0,-3.6864470438239967,-3.594390435138717,-5.357768633270594,-0.021635092440717377,0.0021593219880334876,-0.42808224909092857
12387,2.0,299.89027999999996,41536.525,0.0,0.0,-0.12386999413688304,0.0,0.0,0.0,-3.674271931947407,-3.5798549571541765,-5.371939543869154,-0.003356963746531527,-0.0032698082285799474,-0.43084012334560956
12388,2.0,300.46157,41555.292,0.0,0.0,-0.12387999855725729,0.0,0.0,0.0,-3.6872147834247664,-3.6010208398180867,-5.3435355091158945,0.0007975309066326721,0.0003048534570416937,-0.46082272069466157
12389,2.0,300.34697,41758.794,0.0,0.0,-0.12389000297763142,0.0,0.0,0.0,-3.6777534592910066,-3.610330379086867,-5.405547023185955,0.008808043898736252,-0.03357164775351367,-0.43026576252642457
12390,2.0,300.47265,41812.524,0.0,0.0,-0.12390000739800555,0.0,0.0,0.0,-3.702573121815517,-3.6021509176546167,-5.405238995155554,0.005869794002328564,-0.004890575832112255,-0.4457552560101186
12391,2.0,300.57392999999996,41798.296,0.0,0.0,-0.1239100118183799,0.0,0.0,0.0,-3.6983948837031564,-3.6080805585648266,-5.399162838280885,0.01740358270434988,0.01028433754073509,-0.4107265515730546
12392,2.0,300.23512999999997,41658.711,0.0,0.0,-0.12392001623875382,0.0,0.0,0.0,-3.6950379861218567,-3.5692187695294666,-5.398951170334995,-0.0007505725400232423,0.008371820884234393,-0.43918988172216655
12393,2.0,299.77856,41685.149,0.0,0.0,-0.12392998774985053,0.0,0.0,0.0,-3.7031646572238963,-3.5801812236863766,-5.387898638244195,-0.003827135401658856,-0.025234358432687273,-0.3915077100363026
12394,2.0,299.95799,41752.094,0.0,0.0,-0.12393999217022456,0.0,0.0,0.0,-3.7267431897009167,-3.5783358926042563,-5.386514943907635,-0.005270650402922695,0.0071172439946672935,-0.4354644549469956
12395,2.0,299.42022000000003,41804.022000000004,0.0,0.0,-0.12394999659059891,0.0,0.0,0.0,-3.732851263953736,-3.581675159633817,-5.392852316658085,0.008873181086714792,0.02410215581069758,-0.4066975550679236
12396,2.0,299.53022000000004,41711.766,0.0,0.0,-0.12396000101097304,0.0,0.0,0.0,-3.707796730056047,-3.5911371930426466,-5.380401296779265,-0.016477770008479282,0.019303707312127584,-0.4512839639882596
12397,2.0,300.27662999999995,41656.445,0.0,0.0,-0.12397000543134717,0.0,0.0,0.0,-3.7041334256445064,-3.571421879221897,-5.386963712376925,-0.00976251353658507,0.0025331808774304875,-0.4020517628294196
12398,2.0,300.06494,41787.671,0.0,0.0,-0.1239800098517213,0.0,0.0,0.0,-3.700820300467526,-3.611115951889397,-5.390472192173185,-0.00922704784236372,0.02710767649581937,-0.4505144309348126
12399,2.0,300.23736,41976.922,0.0,0.0,-0.12399001427209555,0.0,0.0,0.0,-3.7237727457077563,-3.6234780084094362,-5.412685370140454,0.0074930442712558935,0.021404329796692878,-0.4129348592384976
12400,2.0,301.01762,41811.676,0.0,0.0,-0.12399998578319216,0.0,0.0,0.0,-3.6909841751217765,-3.611423574619757,-5.407297615383725,-0.0008317806243928563,-0.007672023856994803,-0.4368545023616826
12401,2.0,300.56722,41663.609,0.0,0.0,-0.12400999020356629,0.0,0.0,0.0,-3.674313576526517,-3.5957386657217767,-5.394644452109954,-0.0029404507769498975,-0.014537059667946087,-0.41651702258202955
12402,2.0,300.52435,41835.626000000004,0.0,0.0,-0.12401999462394031,0.0,0.0,0.0,-3.6989102227040167,-3.5953871692620867,-5.422688479102685,0.006553957593775253,0.01055679339987439,-0.4095611518380386
12403,2.0,300.78283999999996,41929.818,0.0,0.0,-0.12402999904431444,0.0,0.0,0.0,-3.7310336959243564,-3.6028335442469865,-5.411750444273185,-0.002095214363481558,0.008681493115571662,-0.4269914448282746
12404,2.0,300.65726,41798.134,0.0,0.0,-0.1240400034646888,0.0,0.0,0.0,-3.6882542767023567,-3.5925412537062167,-5.424793607510445,-0.01139959051505199,-0.004367034976992796,-0.4202896769443616
12405,2.0,300.29843,41665.617,0.0,0.0,-0.12405000788506293,0.0,0.0,0.0,-3.6895322890534867,-3.5801965237628863,-5.395578263402115,-0.0017508181525422981,-0.006045773253196364,-0.4274352585045756
12406,2.0,300.13422,41767.044,0.0,0.0,-0.12406001230543717,0.0,0.0,0.0,-3.6905967082835365,-3.6028651576501063,-5.402676485652655,0.024741883420333774,0.024303938488611978,-0.41767446830376065
12407,2.0,299.7162,41846.632000000005,0.0,0.0,-0.12406998381653367,0.0,0.0,0.0,-3.7145471035472566,-3.616648398760406,-5.389135613966275,0.017245436655242086,0.01934537012973938,-0.44684105481727854
12408,2.0,300.19547,41810.282,0.0,0.0,-0.12407998823690791,0.0,0.0,0.0,-3.6973715011021566,-3.6241076420215763,-5.387802582134715,0.0023031233541505776,-0.01564023064807059,-0.4252544301818446
12409,2.0,300.10193,41780.646,0.0,0.0,-0.12408999265728193,0.0,0.0,0.0,-3.7201058949208665,-3.5965050880974165,-5.383662036926075,-0.01993509182044038,-0.011300078209480889,-0.43898590434453555
12410,2.0,300.35274,41873.52,0.0,0.0,-0.12409999707765607,0.0,0.0,0.0,-3.7020022567091764,-3.6137378378481566,-5.412764200998235,0.009003348564786321,0.0095094343630831,-0.4049700953699366
12411,2.0,300.22607999999997,41965.07,0.0,0.0,-0.1241100014980302,0.0,0.0,0.0,-3.728678092091876,-3.628428140447976,-5.3992270783372245,-0.016242946258053982,-0.007034751656325933,-0.4462373198776946
12412,2.0,300.00732999999997,41912.093,0.0,0.0,-0.12412000591840444,0.0,0.0,0.0,-3.6989238002553564,-3.6044309330296365,-5.436874993752785,0.007174481783541223,-0.03024957659140077,-0.3991166204697436
12413,2.0,299.1673,41615.987,0.0,0.0,-0.1241300103387788,0.0,0.0,0.0,-3.696959817586526,-3.5766718319650264,-5.376589247253045,0.0093704215156136,-0.004908515425132756,-0.43556490856190955
12414,2.0,299.45319,41718.467000000004,0.0,0.0,-0.12414001475915293,0.0,0.0,0.0,-3.6793392970225165,-3.589852493240857,-5.412180264965604,0.03520170067963737,0.0038104554811626765,-0.4111957370318596
12415,2.0,299.59532,41794.091,0.0,0.0,-0.12414998627024942,0.0,0.0,0.0,-3.725453727623657,-3.5799053156841465,-5.399000920914904,0.015830442009842984,-0.011879191171634888,-0.4443680760932146
12416,2.0,299.50706,41785.977999999996,0.0,0.0,-0.12415999069062356,0.0,0.0,0.0,-3.6855853759389565,-3.6184531998385263,-5.397855340351844,-0.0022567237949712975,-0.028125040391225372,-0.4344724729665946
12417,2.0,300.31366,41789.302,0.0,0.0,-0.12416999511099769,0.0,0.0,0.0,-3.714326822975517,-3.5931465693159566,-5.395430835512565,0.0004973634982559555,0.006198115304406354,-0.4443739630762956
12418,2.0,300.09072000000003,41882.73,0.0,0.0,-0.12417999953137182,0.0,0.0,0.0,-3.7003336364444963,-3.6203091700466965,-5.410661200415685,-0.0032073704401928173,0.013308584100954986,-0.44078485896957864
12419,2.0,299.95066,41988.316,0.0,0.0,-0.12419000395174606,0.0,0.0,0.0,-3.7338632981536164,-3.6331728866912467,-5.396363329579595,-0.007192553200399732,-0.004727248427293095,-0.44122316056533556
12420,2.0,300.2206,41994.058,0.0,0.0,-0.1242000083721202,0.0,0.0,0.0,-3.7197181241075965,-3.6139738237964463,-5.431452991142675,-0.01121129115621829,-0.024006189880476477,-0.42682784546712865
12421,2.0,300.27152,41852.794,0.0,0.0,-0.12421001279249433,0.0,0.0,0.0,-3.717060369095296,-3.618924361135026,-5.386219784153504,-0.016503064783975684,0.022424290652105182,-0.42908468781236164
12422,2.0,300.21595,41747.432,0.0,0.0,-0.12421998430359105,0.0,0.0,0.0,-3.6993975960021164,-3.5942642855012665,-5.396514911794554,0.006793324656323943,0.01195723574733729,-0.42319820122391055
12423,2.0,300.83755,41913.178,0.0,0.0,-0.12422998872396518,0.0,0.0,0.0,-3.7126952876644963,-3.620845483324626,-5.407018870281215,-0.007040627291005813,0.013954201733422487,-0.43847845856195455
12424,2.0,299.34087,41891.266,0.0,0.0,-0.12423999314433931,0.0,0.0,0.0,-3.7174218967309764,-3.6090002856805965,-5.407476656676395,0.00042741528734510463,-0.005355307448777694,-0.42891252648787054
12425,2.0,299.69834,41907.161,0.0,0.0,-0.12424999756471333,0.0,0.0,0.0,-3.7089446410943365,-3.605445804329797,-5.424339975440675,0.00935257686412747,0.022773774797096576,-0.40897682063786966
12426,2.0,300.01921,41908.704,0.0,0.0,-0.12426000198508769,0.0,0.0,0.0,-3.7160569475212664,-3.6193836674053568,-5.403759143384504,0.009663578580920951,0.007961317804970893,-0.4385711912111066
12427,2.0,299.27474,41999.157999999996,0.0,0.0,-0.12427000640546182,0.0,0.0,0.0,-3.7216005401433763,-3.6224305104560566,-5.422664262425295,0.00024585115391361975,-0.010018037378603309,-0.4107671423720606
12428,2.0,299.31089,42069.935999999994,0.0,0.0,-0.12428001082583595,0.0,0.0,0.0,-3.734740772740217,-3.6173357876282464,-5.436133396004594,0.004409036828088056,-0.025687140385623374,-0.44487418438566356
12429,2.0,299.80259,42036.490999999995,0.0,0.0,-0.12429001524621008,0.0,0.0,0.0,-3.7214977965832365,-3.623790798715307,-5.432754916196164,0.004810983618207115,0.026313426219432976,-0.4094790076524316
12430,2.0,300.02651000000003,41758.027,0.0,0.0,-0.1242999867573068,0.0,0.0,0.0,-3.6841770596249668,-3.585034792990386,-5.424185556125435,-0.0028041638762244274,-0.00031764452365407367,-0.4533593535055846
12431,2.0,300.08599,41860.988,0.0,0.0,-0.12430999117768093,0.0,0.0,0.0,-3.718830415694986,-3.614290261802676,-5.391574405631965,-0.012540983315448688,-0.0038125236259417858,-0.4188777838575186
12432,2.0,300.19449,41974.837999999996,0.0,0.0,-0.12431999559805507,0.0,0.0,0.0,-3.716749605289626,-3.6139048214646365,-5.428648314865875,-0.015132778785988983,-0.009723200344630163,-0.4390532246811795
12433,2.0,299.90016,41916.193999999996,0.0,0.0,-0.12433000001842909,0.0,0.0,0.0,-3.722537593835857,-3.6003874571805765,-5.4185512776193745,-0.00047906241812977954,0.017454019254577586,-0.4112545562001646
12434,2.0,300.10744,42023.77099999999,0.0,0.0,-0.12434000443880322,0.0,0.0,0.0,-3.7064331993964768,-3.6329404471183064,-5.434803302598325,-0.004897803345075555,-0.01094795454797899,-0.4320963609520906
12435,2.0,299.69845,42134.825,0.0,0.0,-0.12435000885917757,0.0,0.0,0.0,-3.738049236966736,-3.6323425282342967,-5.437543029543715,0.005134002278536575,-0.004566389705017575,-0.41761415965780857
12436,2.0,299.68474,42078.91099999999,0.0,0.0,-0.1243600132795517,0.0,0.0,0.0,-3.7169864018379966,-3.6286946252242767,-5.445257307855054,0.01052931709691269,-0.0008529859022206542,-0.4281379474489256
12437,2.0,299.93091,42093.48,0.0,0.0,-0.1243699847906482,0.0,0.0,0.0,-3.7433594780908166,-3.6196189440785767,-5.4323886262850145,0.02443203457950408,0.03452199934030607,-0.42418702186399954
12438,2.0,300.26805,42035.695,0.0,0.0,-0.12437998921102245,0.0,0.0,0.0,-3.7254679131250565,-3.605461205731317,-5.446872529839465,0.003050632403423977,0.0032550786118762465,-0.42574434673769557
12439,2.0,300.75154,41884.85,0.0,0.0,-0.1243899936313968,0.0,0.0,0.0,-3.7121343524091364,-3.6080907923908367,-5.411723491820525,-0.01967171265569688,-0.004933005477399735,-0.4424741596687996
12440,2.0,300.95355,41822.994,0.0,0.0,-0.12439999805177071,0.0,0.0,0.0,-3.680999000686317,-3.598495820568886,-5.4336511359096145,-0.004201087510065056,-0.009941309622730871,-0.4220395902645646
12441,2.0,300.81615,42001.127,0.0,0.0,-0.12441000247214484,0.0,0.0,0.0,-3.724269136931747,-3.6119316182198964,-5.431092983382144,-0.01087517380654609,0.025434809699970272,-0.44196167803322156
12442,2.0,300.90994,42089.04,0.0,0.0,-0.12442000689251898,0.0,0.0,0.0,-3.7153794885044062,-3.635083775054836,-5.443553831786935,0.011374557158081389,-0.0037333290113758864,-0.4172920677160206
12443,2.0,300.12248999999997,42000.674000000006,0.0,0.0,-0.12443001131289322,0.0,0.0,0.0,-3.7356957609594663,-3.6139890225479463,-5.417471153012775,-0.0009451389824479551,0.006685734518305624,-0.4373734687979006
12444,2.0,299.98952,42154.142,0.0,0.0,-0.12444001573326757,0.0,0.0,0.0,-3.7273288482587166,-3.6400605555710066,-5.446417073919515,0.02235685885795018,0.00028355689551238676,-0.4119482981461316
12445,2.0,299.95153,42204.874,0.0,0.0,-0.12444998724436407,0.0,0.0,0.0,-3.764704706022426,-3.622574189320236,-5.441948843628536,-0.0002339143787255518,0.008616349848092522,-0.4226386845186906
12446,2.0,300.37651,42188.03599999999,0.0,0.0,-0.1244599916647382,0.0,0.0,0.0,-3.7327101182148064,-3.6355046791463765,-5.455894711379885,0.013562010109966187,-0.018975314981217784,-0.41840192108055463
12447,2.0,300.01882,42074.323,0.0,0.0,-0.12446999608511233,0.0,0.0,0.0,-3.755254223664737,-3.6221690919302563,-5.412120381884695,-0.0048769036432129145,-0.016210358108337784,-0.43371494692683255
12448,2.0,300.38686,41928.706,0.0,0.0,-0.12448000050548647,0.0,0.0,0.0,-3.6949302776362263,-3.6229800973102964,-5.427369289264645,0.027227638214908673,-0.0027598625553522274,-0.4322518239149336
12449,2.0,300.0912,41866.895,0.0,0.0,-0.1244900049258606,0.0,0.0,0.0,-3.739403445725386,-3.6026816580569965,-5.384405559849455,-1.6571097435439983e-05,0.005794288834026785,-0.44555927317577654
12450,2.0,300.11249,42143.142,0.0,0.0,-0.12450000934623484,0.0,0.0,0.0,-3.726710157747657,-3.6483305002371864,-5.435422297084415,0.00899323227578792,-0.021372350610286778,-0.43268032738222356
12451,2.0,299.56365,42069.082,0.0,0.0,-0.12451001376660897,0.0,0.0,0.0,-3.7506796021132565,-3.6219174006054167,-5.415353460303774,-0.02081550077932998,-0.01136451483634029,-0.44268832020993554
12452,2.0,299.64266000000003,41941.949,0.0,0.0,-0.12451998527770569,0.0,0.0,0.0,-3.6878105744835668,-3.6311183194634764,-5.430376412911424,0.010968091880466388,-0.005113698367732736,-0.43342674820088956
12453,2.0,299.48533,41987.515,0.0,0.0,-0.12452998969807982,0.0,0.0,0.0,-3.7376668363789967,-3.6016205825522762,-5.423868712819165,-0.015961196868997485,0.005344345703895855,-0.4317605597364496
12454,2.0,299.44165,42187.299000000006,0.0,0.0,-0.12453999411845396,0.0,0.0,0.0,-3.7265261515294963,-3.6582493067910966,-5.439109818173344,-0.003598834550077317,-0.0062512378793241445,-0.4410826227764656
12455,2.0,300.20754,42139.317,0.0,0.0,-0.12454999853882809,0.0,0.0,0.0,-3.7507242864426664,-3.6296320842167966,-5.428943778595035,-0.006268999849602114,0.005591954036132895,-0.42758668873202066
12456,2.0,300.42924,41968.165,0.0,0.0,-0.12456000295920211,0.0,0.0,0.0,-3.7043992011457365,-3.6311601666926063,-5.4217149484066045,-0.0015246903171252186,0.0013229396579139787,-0.4389398115974866
12457,2.0,300.23642,42031.32,0.0,0.0,-0.12457000737957646,0.0,0.0,0.0,-3.7246736263716667,-3.6241976186304568,-5.4276003102874455,-0.004847420193128125,0.00939015709443635,-0.41910392101483657
12458,2.0,300.51682,42107.512,0.0,0.0,-0.1245800117999506,0.0,0.0,0.0,-3.7297886142014764,-3.627607205216957,-5.442236302681905,0.004078365292403316,-0.007421222571042643,-0.42581492973966156
12459,2.0,300.7115,42104.489,0.0,0.0,-0.12459001622032473,0.0,0.0,0.0,-3.7409857370815462,-3.6422246551345867,-5.4155029146935245,0.007365803870073242,0.0015568981940788887,-0.4340959390969336
12460,2.0,300.04397,42060.364,0.0,0.0,-0.12459998773142122,0.0,0.0,0.0,-3.7310758471285164,-3.620222739813167,-5.434001720444215,0.019091750589959083,0.00026697051826543876,-0.4421071706150806
12461,2.0,299.52452,42104.352999999996,0.0,0.0,-0.12460999215179558,0.0,0.0,0.0,-3.730658590737336,-3.634538950476067,-5.433474425092175,0.0005147369377830805,0.003343977122649847,-0.42542437248861664
12462,2.0,299.49179,42102.009000000005,0.0,0.0,-0.12461999657216971,0.0,0.0,0.0,-3.7306708510635467,-3.6273761841941563,-5.439912312252544,-0.02180066459980808,-4.309213150761226e-06,-0.43856495972299164
12463,2.0,299.72575,42298.66099999999,0.0,0.0,-0.12463000099254384,0.0,0.0,0.0,-3.7592396402830666,-3.6267650930588466,-5.4717321144179145,-0.015930510589718984,-0.0026103467626461675,-0.40594188327584463
12464,2.0,300.05282,42255.331,0.0,0.0,-0.12464000541291786,0.0,0.0,0.0,-3.7457071785725167,-3.648223197051597,-5.450635132760804,-0.017503101089421585,0.008547097952782893,-0.44043743577529054
12465,2.0,299.63247,42070.473,0.0,0.0,-0.124650009833292,0.0,0.0,0.0,-3.722483283630497,-3.6211928254589067,-5.444697081874764,0.005693281072633094,0.003662928901052937,-0.4134175209236326
12466,2.0,299.69635,42075.119000000006,0.0,0.0,-0.12466001425366635,0.0,0.0,0.0,-3.715876285028436,-3.640673166581467,-5.433236007343645,0.011094063185898789,0.014113665007660287,-0.4492462775071556
12467,2.0,299.8383,42233.952000000005,0.0,0.0,-0.12466998576476285,0.0,0.0,0.0,-3.7376913570314163,-3.644065933216307,-5.456309434645815,0.002207545701367798,0.008630298552944152,-0.4196419162879326
12468,2.0,300.01161,42114.904,0.0,0.0,-0.12467999018513698,0.0,0.0,0.0,-3.7235032211811565,-3.6134732782470467,-5.4649026060938946,-0.007059537577622114,0.0013150867669889587,-0.42904828173626863
12469,2.0,300.49958,42145.37,0.0,0.0,-0.12468999460551122,0.0,0.0,0.0,-3.723695637375146,-3.6362566120455866,-5.451187759365345,-0.006485223469266724,0.0036412503138384266,-0.40991600215555957
12470,2.0,300.36705,42240.627,0.0,0.0,-0.12469999902588558,0.0,0.0,0.0,-3.751082065052976,-3.638521327344097,-5.4504924671467245,-0.0007837267520403083,0.012979929338269289,-0.4310131965951906
12471,2.0,299.98282,42318.827000000005,0.0,0.0,-0.12471000344625949,0.0,0.0,0.0,-3.774590075323036,-3.6405108439154463,-5.448765585001294,0.017915971120918684,0.0001888750166130128,-0.4189615897732897
12472,2.0,300.31897000000004,42390.742999999995,0.0,0.0,-0.12472000786663362,0.0,0.0,0.0,-3.7700403797240165,-3.655469657791767,-5.460217438956505,0.0015637383415289584,-0.0051397899631077755,-0.4291845030797126
12473,2.0,300.19682,42297.19,0.0,0.0,-0.12473001228700775,0.0,0.0,0.0,-3.7556585104546363,-3.6294830351270866,-5.4721480535839655,0.013167710926301887,-0.022489279500269077,-0.4195193231583336
12474,2.0,299.41412,42134.106,0.0,0.0,-0.12473998379810447,0.0,0.0,0.0,-3.7255490744580664,-3.6335997689583763,-5.448567190631715,-0.0030967743944278377,0.004647723087894556,-0.4273591938195686
12475,2.0,299.7577,42113.46,0.0,0.0,-0.1247499882184786,0.0,0.0,0.0,-3.7386804917790366,-3.6147156241946568,-5.448044049605086,-0.0034309447840328872,-0.008593771292139191,-0.43154142413732255
12476,2.0,299.33168,42170.633,0.0,0.0,-0.12475999263885285,0.0,0.0,0.0,-3.7425365163595963,-3.6211016329499066,-5.455181383309485,-0.017444094469848084,0.00033243300005608267,-0.43110773282952064
12477,2.0,299.3253,42203.555,0.0,0.0,-0.12476999705922698,0.0,0.0,0.0,-3.757080809620007,-3.6359357157389165,-5.435810270547704,-0.0010833871705969891,0.0002221818240951388,-0.4487364201893365
12478,2.0,300.02031,42132.799000000006,0.0,0.0,-0.12478000147960111,0.0,0.0,0.0,-3.7234372585996462,-3.6394269702834765,-5.444454611125835,0.006060257764700874,0.014798732519521187,-0.4367422342506026
12479,2.0,299.83024,42068.12,0.0,0.0,-0.12479000589997524,0.0,0.0,0.0,-3.730050438027317,-3.6374660273649466,-5.420141674976335,0.012079153039119588,-0.02271307604985608,-0.44280833968428057
12480,2.0,299.68127999999996,42353.175,0.0,0.0,-0.12480001032034937,0.0,0.0,0.0,-3.758287489164097,-3.6348153651033464,-5.4812047869527944,0.009366906145716662,0.007857044743804942,-0.39683667602223066
12481,2.0,299.83443,42423.753,0.0,0.0,-0.12481001474072362,0.0,0.0,0.0,-3.794396986952826,-3.651601676860026,-5.449763028399735,0.014972428917913685,0.0009604396669080151,-0.4253130568326306
12482,2.0,300.21726,42300.126,0.0,0.0,-0.12481998625182011,0.0,0.0,0.0,-3.7459019252417365,-3.6611341311508063,-5.451145912136215,0.01015434363240569,0.03002816219279887,-0.43015858093084663
12483,2.0,300.08484,42191.897000000004,0.0,0.0,-0.12482999067219447,0.0,0.0,0.0,-3.767184331667146,-3.6287879455584866,-5.429310676456245,-0.004021004292317226,-0.015653476866627884,-0.4370211516056296
12484,2.0,300.07531,42216.375,0.0,0.0,-0.1248399950925686,0.0,0.0,0.0,-3.732229128392336,-3.6560792290519264,-5.444415499671974,-0.007440783870848193,-0.007842344815329173,-0.45230288828881965
12485,2.0,299.6942,42227.787000000004,0.0,0.0,-0.12484999951294273,0.0,0.0,0.0,-3.758789757238666,-3.6229800973102964,-5.454422864284624,-0.01045245093107659,-0.027733536764586977,-0.44904885585767157
12486,2.0,300.35764,42226.393,0.0,0.0,-0.12486000393331687,0.0,0.0,0.0,-3.7311505236608866,-3.641277975566157,-5.463340681064745,-0.0037565755017951365,0.013202296191965186,-0.44113131957627155
12487,2.0,299.9592,42099.763,0.0,0.0,-0.12487000835369089,0.0,0.0,0.0,-3.7363442410234664,-3.6263706347949163,-5.4345619464245045,-0.01013703124119709,-0.016151476118526586,-0.4382604172729356
12488,2.0,300.04747000000003,42201.84,0.0,0.0,-0.12488001277406524,0.0,0.0,0.0,-3.7419941235810668,-3.6345938686314865,-5.451717486517625,0.01140403462999059,0.012521919014817187,-0.4344207972114946
12489,2.0,299.8477,42461.16099999999,0.0,0.0,-0.12488998428516174,0.0,0.0,0.0,-3.794960455333436,-3.676861089927937,-5.435311042223435,0.004914046048153586,0.004571802183076746,-0.43609675340689863
12490,2.0,299.59739,42497.706,0.0,0.0,-0.12489998870553587,0.0,0.0,0.0,-3.7672072311194063,-3.665519477583607,-5.485514747578154,0.015643020125595885,0.016844765141698883,-0.42994575787984257
12491,2.0,299.85722999999996,42280.835,0.0,0.0,-0.12490999312591,0.0,0.0,0.0,-3.747974832296317,-3.648471544651107,-5.455871811927625,-0.008945249715977412,-0.025668426669526477,-0.4097452999112126
12492,2.0,300.72297000000003,42231.689000000006,0.0,0.0,-0.12491999754628436,0.0,0.0,0.0,-3.743649470269436,-3.6370816002770066,-5.456647961504224,-0.018973087857497982,0.006750204785068343,-0.42460634528538366
12493,2.0,300.68149,42379.611,0.0,0.0,-0.12493000196665849,0.0,0.0,0.0,-3.765079000609367,-3.6410793785465567,-5.476185145957395,-0.007218303634466103,0.004689105336553666,-0.42126535573065366
12494,2.0,300.58925,42312.570999999996,0.0,0.0,-0.12494000638703273,0.0,0.0,0.0,-3.7467348168239365,-3.6620642947426063,-5.453165927535575,-0.01197846840318279,0.037372890967417166,-0.4630111787906455
12495,2.0,300.24786,42183.79,0.0,0.0,-0.12495001080740664,0.0,0.0,0.0,-3.7167915538437666,-3.645790788861537,-5.460236488058386,0.008185674681863191,-0.010752203747909889,-0.4491404637992126
12496,2.0,300.21911,42222.314000000006,0.0,0.0,-0.12496001522778077,0.0,0.0,0.0,-3.7317460107446565,-3.6430551149165464,-5.4597281404832145,0.01039100339201219,-0.013915922157894587,-0.4553513728046816
12497,2.0,299.99687,42344.792,0.0,0.0,-0.12496998673887749,0.0,0.0,0.0,-3.7395277715126567,-3.6545910686300567,-5.477640477076024,0.024419826942299275,-0.016682525562187085,-0.4384959371261795
12498,2.0,299.44057000000004,42349.067,0.0,0.0,-0.12497999115925162,0.0,0.0,0.0,-3.7504700619925764,-3.6434260657781565,-5.479162885351275,0.002770566225433597,-0.006973215559202795,-0.4242456687797876
12499,2.0,299.48401,42441.582,0.0,0.0,-0.12498999557962576,0.0,0.0,0.0,-3.7622682448319664,-3.6695846369848066,-5.469328381205685,0.0008665131558256901,-0.007166700428073263,-0.4065337733217596
12500,2.0,299.88346,42373.019,0.0,0.0,-0.125,0.0,0.0,0.0,-3.7741891322584666,-3.638926627384097,-5.467223962072995,-0.024958858770247574,0.018966540235351784,-0.41736599444331657
12501,2.0,299.75346,42287.835999999996,0.0,0.0,-0.12501000442037435,0.0,0.0,0.0,-3.7371581848287962,-3.6536273664599466,-5.463660766771335,0.017649044567575083,0.007808506314989572,-0.4168584270707236
12502,2.0,300.10216,42495.999,0.0,0.0,-0.12502000884074826,0.0,0.0,0.0,-3.7850300977283866,-3.664197287528117,-5.468495286973465,-0.012341861432296888,0.030842081680126473,-0.43076823325101454
12503,2.0,300.14592999999996,42552.708,0.0,0.0,-0.1250300132611224,0.0,0.0,0.0,-3.771391954032407,-3.660845861497357,-5.502722976676475,0.007898746976845634,-0.01123247112305859,-0.4197758578186516
12504,2.0,300.22829,42318.168,0.0,0.0,-0.12503998477221911,0.0,0.0,0.0,-3.7579984089105665,-3.648631334191876,-5.457036644242585,-0.019022005545825782,-0.006732728044693524,-0.4411878487993505
12505,2.0,300.47977000000003,42352.905,0.0,0.0,-0.12504998919259325,0.0,0.0,0.0,-3.754316865997226,-3.648927304546086,-5.470981296093815,-0.0029420247596552373,0.0003215140953884707,-0.4487463095103125
12506,2.0,300.83069,42415.858,0.0,0.0,-0.12505999361296738,0.0,0.0,0.0,-3.7693439729302867,-3.649032581231477,-5.474985255188975,-0.014173503505565885,-0.0032777228264360566,-0.45664466496731954
12507,2.0,300.45609,42365.981,0.0,0.0,-0.12506999803334162,0.0,0.0,0.0,-3.7388598370467365,-3.671003693749857,-5.468336713332815,0.0047808017348283955,-0.021743065384623478,-0.4504734348357665
12508,2.0,299.6525,42409.537000000004,0.0,0.0,-0.12508000245371576,0.0,0.0,0.0,-3.7564126725040663,-3.647541989009367,-5.487485417697645,-0.014677139467770887,-0.004140383899224076,-0.4416187739343796
12509,2.0,299.57631000000003,42380.225999999995,0.0,0.0,-0.1250900068740899,0.0,0.0,0.0,-3.7630661792857163,-3.668963312023487,-5.4505009784475655,0.015305642292799286,0.0020861708023640277,-0.4299099597538095
12510,2.0,300.02025,42346.605,0.0,0.0,-0.12510001129446402,0.0,0.0,0.0,-3.7697113774165465,-3.643639253599196,-5.4589598942573945,-0.003599537745646716,0.014208585263778188,-0.4081026695115976
12511,2.0,299.64962,42396.469000000005,0.0,0.0,-0.12511001571483815,0.0,0.0,0.0,-3.7737686334669664,-3.6510019341258366,-5.462697368576254,0.012280859723276489,0.0066710773489840735,-0.41792318067330664
12512,2.0,300.28965,42533.002,0.0,0.0,-0.12511998722593476,0.0,0.0,0.0,-3.776782140589376,-3.669511986952636,-5.482676532723045,-0.011460833377596189,0.013990027217208186,-0.42203410858152357
12513,2.0,300.47212,42508.177,0.0,0.0,-0.1251299916463089,0.0,0.0,0.0,-3.7768636058974163,-3.6606884024318167,-5.483872269166055,-0.007334358666469843,0.00027703976206169573,-0.44943232035801656
12514,2.0,300.49464,42402.596,0.0,0.0,-0.12513999606668325,0.0,0.0,0.0,-3.7598199286153364,-3.657731839965026,-5.471778622597505,-0.012071873850401187,-0.009351407674837081,-0.4416561628630696
12515,2.0,300.23031000000003,42398.067,0.0,0.0,-0.12515000048705738,0.0,0.0,0.0,-3.7723424839512165,-3.6513139138316264,-5.464297391809165,0.0006074585323764894,-0.014894274911200486,-0.45711828846156255
12516,2.0,300.09989,42476.037000000004,0.0,0.0,-0.1251600049074315,0.0,0.0,0.0,-3.7763807922247663,-3.656460211089527,-5.478813618041804,0.015998833030711885,0.013088799008513887,-0.4353887854295276
12517,2.0,299.80646,42373.66099999999,0.0,0.0,-0.12517000932780564,0.0,0.0,0.0,-3.7764258818542165,-3.6505674524829566,-5.453541336697625,0.008236299696609491,0.01057641498806089,-0.45668347244614954
12518,2.0,300.27366,42373.388,0.0,0.0,-0.12518001374817966,0.0,0.0,0.0,-3.759930372876236,-3.6454067670736365,-5.475114849876765,-0.0068173320975682935,0.0036960496150216966,-0.42481155882813654
12519,2.0,300.00498,42332.53,0.0,0.0,-0.1251899852592765,0.0,0.0,0.0,-3.7595710743907764,-3.647393041244667,-5.461067859765435,0.00044601512426326555,-0.003568684989376786,-0.43884165806029957
12520,2.0,299.57907,42385.085999999996,0.0,0.0,-0.12519998967965051,0.0,0.0,0.0,-3.7518231561761164,-3.661863671222807,-5.470320859678635,-0.0022093935655751683,-0.007333868760046493,-0.4185821681408436
12521,2.0,299.75692000000004,42540.212,0.0,0.0,-0.12520999410002465,0.0,0.0,0.0,-3.7745717354962265,-3.670501830975326,-5.486088551109786,0.014018954494313087,-0.013647217350625485,-0.4407233952185126
12522,2.0,299.67542000000003,42562.717000000004,0.0,0.0,-0.12521999852039878,0.0,0.0,0.0,-3.7772076043063665,-3.6829673403305763,-5.477828333644565,0.011002511986363388,-0.028717384373185172,-0.41730904978769656
12523,2.0,299.32937999999996,42362.61,0.0,0.0,-0.12523000294077313,0.0,0.0,0.0,-3.7565514877677666,-3.6473284972132967,-5.473295559322215,0.004196347627422266,-0.01022953489582649,-0.4432020380106356
12524,2.0,299.70647,42523.627,0.0,0.0,-0.12524000736114727,0.0,0.0,0.0,-3.7516357049076166,-3.682729327882087,-5.491755557594074,0.01995974926162388,0.0016544972808111686,-0.4455582497931756
12525,2.0,300.19993,42682.282999999996,0.0,0.0,-0.1252500117815213,0.0,0.0,0.0,-3.7825274713063965,-3.678888806028057,-5.512931876734015,-0.007631285022149193,0.025318429819984476,-0.4493376625336746
12526,2.0,300.60613,42527.54,0.0,0.0,-0.12526001620189542,0.0,0.0,0.0,-3.7818436288139066,-3.6509566418463666,-5.494510077990925,-0.013647178847121688,0.005027811337581345,-0.4322371419209846
12527,2.0,300.54145,42365.007000000005,0.0,0.0,-0.12526998771299214,0.0,0.0,0.0,-3.7645072235779367,-3.645501201982957,-5.467895746889295,-0.02874363565677597,0.0034813779905352566,-0.4350408049476846
12528,2.0,300.3633,42422.71,0.0,0.0,-0.12527999213336627,0.0,0.0,0.0,-3.7976082804947566,-3.6194076814327265,-5.478428481678795,-0.015783003666661185,0.002782660074652167,-0.4042406464904456
12529,2.0,300.34751,42659.382000000005,0.0,0.0,-0.1252899965537404,0.0,0.0,0.0,-3.785356769560626,-3.6807891565906066,-5.501240997080215,-0.005873869902180824,0.012018563722889888,-0.4101075570869646
12530,2.0,300.19231,42672.941,0.0,0.0,-0.12530000097411453,0.0,0.0,0.0,-3.7948731131748166,-3.6738509265308568,-5.502784582282554,0.008983232409226011,-0.007228701505667293,-0.4184816435984226
12531,2.0,299.63142,42631.117999999995,0.0,0.0,-0.12531000539448878,0.0,0.0,0.0,-3.774552078444286,-3.6878365136861264,-5.496406882178124,0.010185742226504492,0.006152268777131655,-0.4263310388105976
12532,2.0,300.36667,42522.265,0.0,0.0,-0.12532000981486313,0.0,0.0,0.0,-3.7847294664237165,-3.6763790868553667,-5.464598225763854,0.02129353393800818,0.006750981643920014,-0.4509212204524596
12533,2.0,299.8257,42510.384000000005,0.0,0.0,-0.12533001423523704,0.0,0.0,0.0,-3.7704405121885065,-3.671965166769746,-5.4796894714282445,0.02408718504047008,0.01689166950207798,-0.43789857552972455
12534,2.0,299.86208,42656.102,0.0,0.0,-0.12533998574633376,0.0,0.0,0.0,-3.7918317416746565,-3.6834446824526865,-5.4911133596806945,0.0036721732883402865,-0.016266021002581284,-0.43410317370264756
12535,2.0,300.06369,42603.017,0.0,0.0,-0.1253499901667079,0.0,0.0,0.0,-3.763331650811917,-3.6642754091108265,-5.522646209417745,-0.01083464076279579,-0.0013054262378855387,-0.4318818863034236
12536,2.0,300.0411,42351.905999999995,0.0,0.0,-0.12535999458708202,0.0,0.0,0.0,-3.7393941238244666,-3.6464116071978068,-5.488116267209905,-0.02112149319027908,-0.00974346119230475,-0.4442044564670665
12537,2.0,299.57018,42299.42,0.0,0.0,-0.12536999900745616,0.0,0.0,0.0,-3.7300538830776566,-3.6578546458771464,-5.470058934527785,0.0025004915040292976,0.004945466427129535,-0.4381766822846716
12538,2.0,299.98394,42583.435999999994,0.0,0.0,-0.1253800034278304,0.0,0.0,0.0,-3.774189638883516,-3.6616586907275765,-5.508453108641994,0.002915365541574177,-0.015727519104435286,-0.4308737632489296
12539,2.0,298.78076,42637.780999999995,0.0,0.0,-0.12539000784820453,0.0,0.0,0.0,-3.7829327713463963,-3.674265852446807,-5.503622033490204,0.02398965566534468,0.015072630233552785,-0.41930428108961065
12540,2.0,300.11400000000003,42551.432,0.0,0.0,-0.12540001226857866,0.0,0.0,0.0,-3.7677099044940165,-3.6788111910703964,-5.488051621853525,0.012567714879586887,0.011658677552371887,-0.43312340138595157
12541,2.0,300.12203,42578.005999999994,0.0,0.0,-0.12540998377967538,0.0,0.0,0.0,-3.7692335286693863,-3.671359445859967,-5.5020575753358045,-0.009551148248499942,0.026077820239930473,-0.4355985484652296
12542,2.0,300.47326,42684.776,0.0,0.0,-0.12541998820004951,0.0,0.0,0.0,-3.783130152465876,-3.6970670194471067,-5.494908791905274,-0.02174071869739188,-0.015306593734643187,-0.43890809686935656
12543,2.0,300.25178999999997,42752.274000000005,0.0,0.0,-0.12542999262042354,0.0,0.0,0.0,-3.794879800625476,-3.6894509250704566,-5.5112929446972645,-0.02212908428847058,0.012695846434232487,-0.44280215885867064
12544,2.0,300.822,42727.779,0.0,0.0,-0.12543999704079767,0.0,0.0,0.0,-3.814539790990767,-3.6806615884030167,-5.4929765239645745,-0.015274073472683685,-0.008351434292222392,-0.43794254045156356
12545,2.0,300.51941,42542.740999999995,0.0,0.0,-0.12545000146117202,0.0,0.0,0.0,-3.800454702675676,-3.6656303271445467,-5.465846043262004,-0.004478003088194496,0.015094947067005284,-0.4373791126009576
12546,2.0,301.32405,42458.02,0.0,0.0,-0.12546000588154615,0.0,0.0,0.0,-3.7702418138438962,-3.6359404780143865,-5.499995712707315,0.015898865775845882,-0.027431942872321972,-0.4204099395987306
12547,2.0,301.00697,42606.319,0.0,0.0,-0.1254700103019203,0.0,0.0,0.0,-3.7705092105452866,-3.6810360856399766,-5.499711800029295,0.01994000912317568,-0.010409380709075891,-0.4428425166101536
12548,2.0,300.78700000000003,42841.565,0.0,0.0,-0.12548001472229442,0.0,0.0,0.0,-3.804105442785976,-3.6908884229873267,-5.527772140348635,0.006032171485178974,-0.006915059664413253,-0.41902654923720056
12549,2.0,300.22697,42654.495,0.0,0.0,-0.12548998623339114,0.0,0.0,0.0,-3.7922037057863665,-3.686027254307567,-5.487670437165904,-0.012717697172638988,0.0066535721362814436,-0.4676666678326065
12550,2.0,300.60844,42542.645,0.0,0.0,-0.12549999065376516,0.0,0.0,0.0,-3.7798535042924963,-3.6794819626365967,-5.472566221900236,0.0007302833112133513,-0.017526467649977683,-0.4378180728092796
12551,2.0,300.51604,42660.512,0.0,0.0,-0.1255099950741393,0.0,0.0,0.0,-3.7942345629617966,-3.6663085967614863,-5.507187255292065,-0.014955284726221686,0.01804876970552488,-0.4515252492345726
12552,2.0,300.31723,42728.869000000006,0.0,0.0,-0.12551999949451342,0.0,0.0,0.0,-3.795501024261786,-3.6919135281134965,-5.501094785090785,0.02165190023337618,0.0023456282839204876,-0.42649551969933064
12553,2.0,300.23804,42638.87,0.0,0.0,-0.12553000391488756,0.0,0.0,0.0,-3.7876123656082363,-3.6619545597567766,-5.511584760726065,-0.0020977316820299983,0.005065133999714805,-0.4452054766383595
12554,2.0,299.97378,42537.997,0.0,0.0,-0.1255400083352619,0.0,0.0,0.0,-3.7827854447818567,-3.6665364767089765,-5.481166891399054,0.004797950182170815,-0.02052703759511088,-0.42665493433756363
12555,2.0,299.9417,42489.517,0.0,0.0,-0.12555001275563604,0.0,0.0,0.0,-3.770151229284956,-3.6691248240894265,-5.476476151386115,-0.0024574166210781377,-0.008347296989414072,-0.4512178291542326
12556,2.0,300.44513,42796.319,0.0,0.0,-0.12555998426673254,0.0,0.0,0.0,-3.8121579439806963,-3.6841196083442966,-5.512734900914575,0.0061807854852960345,0.005059831155316456,-0.41848505825125965
12557,2.0,299.94876,42858.928,0.0,0.0,-0.12556998868710678,0.0,0.0,0.0,-3.807743213294996,-3.698205203284436,-5.522095406663386,-0.012634931864720688,0.02111068485146238,-0.4442430815608786
12558,2.0,299.78799,42697.778,0.0,0.0,-0.12557999310748091,0.0,0.0,0.0,-3.7898658338306364,-3.672724800369717,-5.516467612957965,-0.011196169411725888,-0.013414218463630289,-0.43095815684975863
12559,2.0,299.95418,42527.22,0.0,0.0,-0.12558999752785505,0.0,0.0,0.0,-3.742961878751576,-3.6794131629548064,-5.504838034935215,-0.017736502236706482,0.005187264783293176,-0.4476541778900276
12560,2.0,299.33822000000004,42640.797999999995,0.0,0.0,-0.12560000194822918,0.0,0.0,0.0,-3.784641009689986,-3.690257573475067,-5.486839166783865,0.014105718087125987,-0.008971683688561242,-0.4453896247115336
12561,2.0,299.66773,42952.278,0.0,0.0,-0.1256100063686033,0.0,0.0,0.0,-3.7989594495031067,-3.6974629975861864,-5.559997647854044,0.015780287143143088,-0.0030939219940713273,-0.4327593406250216
12562,2.0,300.52887999999996,42721.386,0.0,0.0,-0.12562001078897755,0.0,0.0,0.0,-3.8068591525827467,-3.6889696312729567,-5.490405807135865,0.01862998414838628,-0.02268935079876458,-0.4396005823851996
12563,2.0,300.22456,42402.567,0.0,0.0,-0.1256300152093519,0.0,0.0,0.0,-3.740458847029547,-3.642642620800837,-5.506220006746604,0.015788311070684985,0.016471842495394285,-0.4168136414163036
12564,2.0,300.2521,42538.834,0.0,0.0,-0.1256399867204484,0.0,0.0,0.0,-3.7862517733739565,-3.6538775379096364,-5.490613928706404,0.008878259901516031,0.010997445735863389,-0.4322387529886436
12565,2.0,300.38882,42775.365,0.0,0.0,-0.12564999114082254,0.0,0.0,0.0,-3.776135687025576,-3.707849723036276,-5.518657449074086,-0.01817719712919968,0.0032405912632714573,-0.42282795963737063
12566,2.0,300.29281000000003,42868.989,0.0,0.0,-0.12565999556119667,0.0,0.0,0.0,-3.8204719650262264,-3.6931947828649467,-5.517435570778495,-0.025658694402315975,-0.026260124197922476,-0.44643181323438963
12567,2.0,299.79116,42913.984000000004,0.0,0.0,-0.1256699999815708,0.0,0.0,0.0,-3.7975729180662663,-3.713674593886146,-5.533532163192104,-0.013319098597242686,0.015639472736995785,-0.4265738337995596
12568,2.0,298.96558,42697.384000000005,0.0,0.0,-0.12568000440194493,0.0,0.0,0.0,-3.7877614146979464,-3.6831539809989966,-5.508023287949575,0.007070567210260654,0.023152615837235276,-0.45887403810234156
12569,2.0,299.56086,42796.886,0.0,0.0,-0.12569000882231918,0.0,0.0,0.0,-3.785338227083796,-3.698975678660476,-5.524870597362274,0.008133305357069742,0.01232622090375329,-0.4307673517234276
12570,2.0,299.91333,42946.772000000004,0.0,0.0,-0.1257000132426933,0.0,0.0,0.0,-3.8225110295274667,-3.713884944606906,-5.518350332968774,0.01143264779956449,-0.003013721728781177,-0.45044008877497554
12571,2.0,299.63484,42715.543,0.0,0.0,-0.12570998475379003,0.0,0.0,0.0,-3.7939253190312763,-3.6719767178208866,-5.5185564280391155,0.004495694232290476,0.0036655660870882067,-0.42215672197612464
12572,2.0,300.1779,42403.519,0.0,0.0,-0.12571998917416416,0.0,0.0,0.0,-3.7757176200343165,-3.6501231423141065,-5.463770400432154,0.004422538486995566,-0.00990543519896534,-0.4579269937638756
12573,2.0,300.1793,42564.429000000004,0.0,0.0,-0.1257299935945383,0.0,0.0,0.0,-3.775397635652736,-3.662664544101846,-5.500461503778285,0.0003222908833126337,-0.015366288351034586,-0.4286480276817666
12574,2.0,299.67535,42803.21599999999,0.0,0.0,-0.1257399980149123,0.0,0.0,0.0,-3.812075870722597,-3.6822972780394463,-5.516735617609415,-0.002311743579376328,0.0025646778581139974,-0.44184965310216556
12575,2.0,300.50457,42890.419,0.0,0.0,-0.12575000243528645,0.0,0.0,0.0,-3.8006838998482966,-3.7033983126969567,-5.533534189692305,-0.005049724796169035,0.023504794214242578,-0.4327288215320096
12576,2.0,300.07896,42804.532,0.0,0.0,-0.1257600068556608,0.0,0.0,0.0,-3.7992561291323863,-3.6870079790793566,-5.525244790624204,0.00046987890690843747,0.020846619716401178,-0.4428118049996226
12577,2.0,299.04456,42694.556,0.0,0.0,-0.12577001127603493,0.0,0.0,0.0,-3.7620413781345765,-3.703655678222357,-5.512381884579735,-0.006295723409064525,-0.01213795700867309,-0.45241470043735454
12578,2.0,299.84179,42837.364,0.0,0.0,-0.12578001569640906,0.0,0.0,0.0,-3.8171063534940664,-3.687795173082047,-5.516587480444795,-0.0032056642283494266,-0.02228545309690298,-0.44115987296408965
12579,2.0,300.04202000000004,43005.157999999996,0.0,0.0,-0.12578998720750556,0.0,0.0,0.0,-3.8243866567875764,-3.6940314234725165,-5.554076112944635,0.013889036579741186,-0.005451196473316205,-0.4366698679284606
12580,2.0,299.8331,42827.996,0.0,0.0,-0.12579999162787991,0.0,0.0,0.0,-3.8239105305655863,-3.6869809253016865,-5.507749811747585,0.007964125723648012,-0.005131216347386625,-0.4264383014661836
12581,2.0,299.99517000000003,42604.66099999999,0.0,0.0,-0.12580999604825394,0.0,0.0,0.0,-3.792636566229086,-3.652051053279376,-5.506065587431365,0.0074339598340747125,-0.013720379074095988,-0.4452540923781576
12582,2.0,299.95086000000003,42667.775,0.0,0.0,-0.12582000046862807,0.0,0.0,0.0,-3.7996588960471365,-3.680682461355077,-5.489596828256024,0.007453998374677363,-0.01021831315096899,-0.44047136952113963
12583,2.0,299.89325,42987.954000000005,0.0,0.0,-0.1258300048890022,0.0,0.0,0.0,-3.8346256503730864,-3.7031893805263363,-5.529449474564174,0.008838407761832931,0.0008683959771615101,-0.44226027270519064
12584,2.0,299.98377999999997,43039.579000000005,0.0,0.0,-0.12584000930937633,0.0,0.0,0.0,-3.8326339046515163,-3.7196709066529365,-5.530652607732915,0.006077981839425105,0.005132266783765296,-0.44235686583722356
12585,2.0,299.83777000000003,42725.361,0.0,0.0,-0.1258500137297507,0.0,0.0,0.0,-3.7912467923919264,-3.699721126759046,-5.496474972584845,0.0003250234668448187,-0.01304027648772509,-0.46377642579616957
12586,2.0,299.48389,42738.414000000004,0.0,0.0,-0.12585998524084718,0.0,0.0,0.0,-3.7729123358074563,-3.6887360771249065,-5.529762366195054,0.00936615046379208,0.00954133948090689,-0.4309617336226116
12587,2.0,300.32693,42907.143,0.0,0.0,-0.12586998966122132,0.0,0.0,0.0,-3.802990462375936,-3.706473729400476,-5.533235990187875,-0.005071784872046195,0.012127349293376189,-0.4437702281367116
12588,2.0,300.37747,43027.492,0.0,0.0,-0.12587999408159556,0.0,0.0,0.0,-3.8152658860124258,-3.7087012584203163,-5.555315824441985,-0.014748133849277487,0.02378733495162718,-0.4306318801850576
12589,2.0,300.26975,42882.727,0.0,0.0,-0.1258899985019697,0.0,0.0,0.0,-3.8190452075604164,-3.6861658669212467,-5.530067151825135,-0.016636021435597486,-0.014173324160298185,-0.43863755909265656
12590,2.0,299.83904,42644.102,0.0,0.0,-0.12590000292234382,0.0,0.0,0.0,-3.7975581246148065,-3.683494129057567,-5.481690032425685,-0.0008124911086616292,0.02181155298538268,-0.43717052493537156
12591,2.0,299.88658,42714.816,0.0,0.0,-0.12591000734271796,0.0,0.0,0.0,-3.7858131374056665,-3.676398439932276,-5.522025897706524,0.01817111864184978,0.020263564198108083,-0.4381005365396566
12592,2.0,300.20327000000003,43031.66099999999,0.0,0.0,-0.1259200117630921,0.0,0.0,0.0,-3.8331879498061965,-3.7217800880610965,-5.525582506882535,0.010295015170288892,0.02923954558696847,-0.4441728025339426
12593,2.0,299.94487000000004,43027.413,0.0,0.0,-0.12593001618346633,0.0,0.0,0.0,-3.8226652461926864,-3.7148936350814563,-5.541700174898224,-0.0011545723470974187,-0.012602561563775988,-0.44673482567679457
12594,2.0,299.55602000000005,42761.183,0.0,0.0,-0.12593998769456294,0.0,0.0,0.0,-3.8075536342012866,-3.6904196934910667,-5.500358557568124,-0.007793921187750132,0.004004899391252797,-0.44600926767768756
12595,2.0,299.73297,42864.219000000005,0.0,0.0,-0.12594999211493718,0.0,0.0,0.0,-3.805609713884436,-3.6993810800254865,-5.524661563866645,-0.0020527845155440577,-0.019295331786800984,-0.43399499912197154
12596,2.0,299.99637,43063.68,0.0,0.0,-0.1259599965353113,0.0,0.0,0.0,-3.8359957671583063,-3.6932732084226867,-5.561014343004385,-0.009520279280228411,-0.005736398410763444,-0.4264231736421906
12597,2.0,300.00892000000005,43081.208,0.0,0.0,-0.12597000095568545,0.0,0.0,0.0,-3.8151347714494865,-3.7179478748578862,-5.562528746603845,0.0049115536555576055,-0.018793586549282582,-0.4284400175687376
12598,2.0,300.29341,42911.441,0.0,0.0,-0.12598000537605958,0.0,0.0,0.0,-3.8043210624072565,-3.6963272455490968,-5.543358358686874,0.0020786025333920984,0.013606103714567887,-0.42781249151680556
12599,2.0,300.1155,42783.778,0.0,0.0,-0.1259900097964337,0.0,0.0,0.0,-3.7821136599655567,-3.683517535134876,-5.539569107287904,0.016648312159310483,0.0059357984310676945,-0.42235367753056263
12600,2.0,299.89453,42949.947,0.0,0.0,-0.12600001421680795,0.0,0.0,0.0,-3.8213896656417963,-3.704948281374926,-5.529373582131685,-0.01131486051518979,0.014784985755414485,-0.44284759299315457
12601,2.0,299.86962,43159.842000000004,0.0,0.0,-0.12600998572790445,0.0,0.0,0.0,-3.831359337350726,-3.7170291609922166,-5.571125768402305,-0.0037220062454834165,-0.013154299547978289,-0.41656077472134756
12602,2.0,299.79795,43079.292,0.0,0.0,-0.1260199901482788,0.0,0.0,0.0,-3.836384753871696,-3.7215426835626664,-5.537101539319374,-0.014654661527552485,0.022990055057441776,-0.44695530889855456
12603,2.0,300.05846,42845.355,0.0,0.0,-0.12602999456865294,0.0,0.0,0.0,-3.7795983679173166,-3.698844665422546,-5.545475038145775,0.01002505869517126,-0.0006656083983279343,-0.4229217967291316
12604,2.0,300.0938,42778.746,0.0,0.0,-0.12603999898902707,0.0,0.0,0.0,-3.7972426998586757,-3.691924167239547,-5.514503731614145,0.0017431204915325984,0.004054808848778476,-0.45794348947550356
12605,2.0,299.97646000000003,42995.234000000004,0.0,0.0,-0.1260500034094011,0.0,0.0,0.0,-3.8036729876432966,-3.7149747964144666,-5.5508296596242355,0.009849720831616761,-0.005047942489243135,-0.4310270274590556
12606,2.0,299.80503,43045.37,0.0,0.0,-0.12606000782977522,0.0,0.0,0.0,-3.8487126638633664,-3.697198336660067,-5.538806737912664,0.01089969851196649,0.0015340875025276486,-0.44896873817226457
12607,2.0,300.0938,42931.53599999999,0.0,0.0,-0.12607001225014958,0.0,0.0,0.0,-3.8105766658746365,-3.713058740475367,-5.526479638521074,0.016433343044594685,-0.019190370222192082,-0.44094437493282157
12608,2.0,299.53116,42864.977,0.0,0.0,-0.12607998376124607,0.0,0.0,0.0,-3.825403453262926,-3.6911396076871164,-5.5133395072492455,-0.0003511150014248526,-0.0038949212253987964,-0.4519066973672185
12609,2.0,299.0999,43056.181,0.0,0.0,-0.1260899881816202,0.0,0.0,0.0,-3.8222520428019062,-3.716788412768456,-5.548963556915065,0.013586617901894789,-0.015015158687880788,-0.44125896882386956
12610,2.0,299.04129,43243.737,0.0,0.0,-0.12609999260199434,0.0,0.0,0.0,-3.837581199589776,-3.742650810970876,-5.564784241326445,-0.01110470636494919,0.00997768803709614,-0.4294753463884166
12611,2.0,299.57962000000003,43120.484000000004,0.0,0.0,-0.1261099970223687,0.0,0.0,0.0,-3.823219899297426,-3.717558280194436,-5.566772035372624,-0.0008942818219712441,-0.010958207625740889,-0.4405470795686116
12612,2.0,299.89061,42772.76,0.0,0.0,-0.1261200014427427,0.0,0.0,0.0,-3.806333883730906,-3.6924302856644964,-5.503086834787385,-0.015293897710890186,-0.002996377217544407,-0.4378721600996176
12613,2.0,300.40346,42656.452000000005,0.0,0.0,-0.12613000586311685,0.0,0.0,0.0,-3.7863956548881563,-3.6828127183653163,-5.497287903140075,0.016816328277642383,0.006356644868677004,-0.45954869041642454
12614,2.0,299.94872999999995,42887.969000000005,0.0,0.0,-0.12614001028349098,0.0,0.0,0.0,-3.826598581755876,-3.695958929137747,-5.514314152520435,-4.154816532323466e-05,0.02024764603903708,-0.43504915412850864
12615,2.0,300.49743,43112.84099999999,0.0,0.0,-0.1261500147038651,0.0,0.0,0.0,-3.8307617224417467,-3.7268995341913467,-5.547566082377144,0.012155380857392688,-0.00910173383227119,-0.4579369844098616
12616,2.0,299.78463999999997,42967.151,0.0,0.0,-0.12615998621496183,0.0,0.0,0.0,-3.8106131428782364,-3.6929619379919667,-5.557365730719295,-0.00925857299140001,0.001024112445047029,-0.4360958516143095
12617,2.0,299.62751000000003,42905.162000000004,0.0,0.0,-0.12616999063533596,0.0,0.0,0.0,-3.8033147024079366,-3.6965355697696567,-5.542247735252265,0.005252062431163205,-0.008707414383604891,-0.4564910663846605
12618,2.0,299.58929,43287.687999999995,0.0,0.0,-0.1261799950557101,0.0,0.0,0.0,-3.8577212678524466,-3.723375349018536,-5.577279742884654,0.003705376784842216,-0.0020996681042961076,-0.4350861985521646
12619,2.0,299.6729,43486.307,0.0,0.0,-0.12618999947608434,0.0,0.0,0.0,-3.867326676150426,-3.7634465533732566,-5.587978346715524,0.009556504693828582,-0.026508266107662173,-0.45776052690494656
12620,2.0,300.74605,43234.306,0.0,0.0,-0.12620000389645847,0.0,0.0,0.0,-3.8301962275609363,-3.741038831386786,-5.570914505756454,0.006931734822633963,-0.011352290987133888,-0.42917253659603155
12621,2.0,301.01342999999997,42851.33,0.0,0.0,-0.1262100083168326,0.0,0.0,0.0,-3.774921306780726,-3.6929962871703563,-5.557816829663815,0.03000294645081027,-0.006925091448353313,-0.4356931252295636
12622,2.0,299.87766,42811.67,0.0,0.0,-0.12622001273720673,0.0,0.0,0.0,-3.7701082674807163,-3.691093910107606,-5.552476596336775,0.007793913588374383,0.016177070816052585,-0.42716409251281356
12623,2.0,300.16474,43045.112,0.0,0.0,-0.12622998424830323,0.0,0.0,0.0,-3.8090479754487663,-3.7072090449980464,-5.568382089781524,-9.075413951648623e-06,-0.00959140893062336,-0.4421792329621926
12624,2.0,300.38473,43203.10400000001,0.0,0.0,-0.12623998866867758,0.0,0.0,0.0,-3.8348002333653164,-3.7306387310353766,-5.567225971417424,-0.01991340522855008,0.012865310486957288,-0.4265966623243126
12625,2.0,300.22159,42965.307,0.0,0.0,-0.12624999308905172,0.0,0.0,0.0,-3.8313707870768563,-3.7069639397988565,-5.522045858733494,-0.018688724283183484,0.00982234392848987,-0.45895322359765656
12626,2.0,299.90839,42919.042,0.0,0.0,-0.12625999750942596,0.0,0.0,0.0,-3.8231341783389667,-3.6866473633687664,-5.536535436488505,-0.02225203712185508,0.004520683411556715,-0.44440756244961155
12627,2.0,299.63701000000003,43222.023,0.0,0.0,-0.1262700019298001,0.0,0.0,0.0,-3.8433362575077563,-3.7341603830829366,-5.560918996169975,-0.008284541851095622,0.01250428238357659,-0.45337919294254253
12628,2.0,299.85856,43507.442,0.0,0.0,-0.126280006350174,0.0,0.0,0.0,-3.8783063555590367,-3.736879338401276,-5.609990191887924,0.009354327355000231,0.009989638612750571,-0.41970876039702953
12629,2.0,300.20713,43196.969000000005,0.0,0.0,-0.12629001077054836,0.0,0.0,0.0,-3.8344332341790968,-3.7193064405919665,-5.577060272912995,0.008537940502354121,0.011514914588433591,-0.4355200519799826
12630,2.0,299.94412,42822.527,0.0,0.0,-0.1263000151909225,0.0,0.0,0.0,-3.8107013969619463,-3.695634993080777,-5.510642640783085,-0.007537955670013303,0.009612932085272531,-0.44034185589335756
12631,2.0,299.49439,42905.828,0.0,0.0,-0.1263099867020191,0.0,0.0,0.0,-3.796517719412126,-3.6995982195219166,-5.546184515865795,0.0023043744140490477,-0.011369423019824689,-0.44434820625875354
12632,2.0,299.69024,43183.583,0.0,0.0,-0.12631999112239323,0.0,0.0,0.0,-3.841556889007146,-3.723361467492167,-5.561812581433165,-0.003932763178208507,-0.0002117591080014968,-0.44532628644778255
12633,2.0,299.76533,43219.508,0.0,0.0,-0.12632999554276758,0.0,0.0,0.0,-3.7993937284959665,-3.7489238423399764,-5.589333568724275,-0.0059574128795508744,-0.0004120488632185566,-0.4403772791168536
12634,2.0,300.69381,42993.078,0.0,0.0,-0.1263399999631417,0.0,0.0,0.0,-3.814134085650726,-3.7028716252949763,-5.551816463896625,-0.005286043597116885,-0.006686228781704404,-0.43067295734411154
12635,2.0,300.59798,42960.259000000005,0.0,0.0,-0.12635000438351585,0.0,0.0,0.0,-3.7726173787033463,-3.738248036636356,-5.5479806029930545,-0.011766082062971887,0.0032028464811463373,-0.43093164009464163
12636,2.0,300.45686,43238.972,0.0,0.0,-0.12636000880388987,0.0,0.0,0.0,-3.861081407834066,-3.728135901963366,-5.554350602396724,0.0020633961825163483,0.003209954531922847,-0.4302488007197506
12637,2.0,300.07001,43521.34099999999,0.0,0.0,-0.126370013224264,0.0,0.0,0.0,-3.8716056313227263,-3.7670795616068067,-5.590715641860674,0.002685274581040967,0.01110328072205849,-0.43845413042705356
12638,2.0,299.89055,43257.763,0.0,0.0,-0.12637998473536072,0.0,0.0,0.0,-3.8525158981137166,-3.7412360098562463,-5.5555279990129245,-0.007733893921350902,-0.0013002412344738188,-0.45077341766037254
12639,2.0,299.24455,42837.630999999994,0.0,0.0,-0.12638998915573485,0.0,0.0,0.0,-3.7833135507339763,-3.6875805667108663,-5.550676152234085,-0.008932725944741413,-0.009251828900059423,-0.4449917112647626
12640,2.0,299.92262999999997,42947.306,0.0,0.0,-0.12639999357610898,0.0,0.0,0.0,-3.8095195420453067,-3.7028128567891763,-5.542576332259695,0.0016742544418610484,-0.013298325956942587,-0.43926225817680953
12641,2.0,299.68634,43258.812000000005,0.0,0.0,-0.12640999799648311,0.0,0.0,0.0,-3.8395989858389163,-3.722576907939737,-5.587422883010705,0.014775901968267986,-0.0026296678208530076,-0.43731310948944363
12642,2.0,299.49191,43274.164000000004,0.0,0.0,-0.12642000241685747,0.0,0.0,0.0,-3.8699754132368365,-3.7246122234156065,-5.559677663472465,0.013473068029438286,-0.01264291526225859,-0.4518397620656126
12643,2.0,299.88444,43050.025,0.0,0.0,-0.1264300068372315,0.0,0.0,0.0,-3.839608307739836,-3.7086494813402067,-5.537874750470685,0.015818371161401685,-0.00917875806512289,-0.46177522645116653
12644,2.0,300.55047,42919.477999999996,0.0,0.0,-0.12644001125760562,0.0,0.0,0.0,-3.818139463296026,-3.6981428884032863,-5.530167362260024,0.016756718774259383,-0.0008901009190111209,-0.4468585333815036
12645,2.0,299.78244,43209.928,0.0,0.0,-0.12645001567797975,0.0,0.0,0.0,-3.835196414154417,-3.7378864076756666,-5.561656338267745,0.008263037846873343,0.004847686880554446,-0.44214751823406256
12646,2.0,299.98507,43597.224,0.0,0.0,-0.12645998718907647,0.0,0.0,0.0,-3.8832668227485962,-3.753554597946996,-5.615645951296105,-0.00999740193236675,-0.001072227436645609,-0.4232227624063346
12647,2.0,299.92261,43433.772000000004,0.0,0.0,-0.1264699916094506,0.0,0.0,0.0,-3.8708829813514067,-3.750246944320557,-5.581652322366195,-0.026694024235245077,0.0006409797334472744,-0.4314066010790166
12648,2.0,300.3211,43031.346,0.0,0.0,-0.12647999602982474,0.0,0.0,0.0,-3.831775783141826,-3.703633994670217,-5.545045014803335,-0.01968333159459358,0.0011077949469558489,-0.43071155204042055
12649,2.0,300.39022,43085.145,0.0,0.0,-0.12649000045019887,0.0,0.0,0.0,-3.8331220885496964,-3.7077678524281965,-5.555918201626435,-0.01019954775911699,0.015626615606476886,-0.45689679198970257
12650,2.0,300.21162000000004,43416.887,0.0,0.0,-0.1265000048705731,0.0,0.0,0.0,-3.863639053736486,-3.7384792603091763,-5.595531214285935,0.013600799350294386,-0.012749778697305187,-0.44498836753943255
12651,2.0,299.93486,43363.524000000005,0.0,0.0,-0.12651000929094725,0.0,0.0,0.0,-3.8516993198581257,-3.719464304957546,-5.610264883990035,0.02082675089519028,0.003010823934820187,-0.4491079080734996
12652,2.0,299.64024,42973.227,0.0,0.0,-0.12652001371132138,0.0,0.0,0.0,-3.8003636114916866,-3.702637159221837,-5.559786993158254,0.01642798295156568,-0.003147424436451607,-0.43331343644220655
12653,2.0,299.58376,42892.653,0.0,0.0,-0.12652998522241787,0.0,0.0,0.0,-3.801305528784646,-3.7043468161155664,-5.532643238879374,0.0017005054214768184,0.008365944236304412,-0.4557490836014325
12654,2.0,299.4873,43255.538,0.0,0.0,-0.126539989642792,0.0,0.0,0.0,-3.8509924765883663,-3.7258842575911464,-5.571726625711604,-0.013880776564925987,-0.005754613405161125,-0.4253889897951246
12655,2.0,299.71348,43553.556,0.0,0.0,-0.12654999406316636,0.0,0.0,0.0,-3.892452745505176,-3.762768283756317,-5.5839725637701845,-0.007802891389560423,0.01098947044432629,-0.4554865808980256
12656,2.0,299.64252,43411.172999999995,0.0,0.0,-0.1265599984835405,0.0,0.0,0.0,-3.855155414624216,-3.737658122428136,-5.603098875307804,0.0037014776971324064,-0.0061795571221998045,-0.4200306800863006
12657,2.0,299.97659,43049.735,0.0,0.0,-0.12657000290391474,0.0,0.0,0.0,-3.812511568265596,-3.7192695582883264,-5.5542635642131355,0.006634633782637374,-0.0003881821928105996,-0.45375141036677763
12658,2.0,300.25364,43164.172,0.0,0.0,-0.12658000732428887,0.0,0.0,0.0,-3.8163363847430762,-3.730234241595457,-5.574259953611625,0.022900948830397682,-0.025164816038573977,-0.4259148564645236
12659,2.0,299.9395,43475.31,0.0,0.0,-0.12659001174466278,0.0,0.0,0.0,-3.8796276336894358,-3.7345986137511864,-5.601182515393674,0.014591841034602588,0.005675680918396094,-0.4426948252755775
12660,2.0,300.3848,43515.898,0.0,0.0,-0.12660001616503713,0.0,0.0,0.0,-3.880674219717726,-3.7537653539677964,-5.593306927666415,0.013733847194425186,0.013560554069572486,-0.43700427085896354
12661,2.0,300.05552,43038.582,0.0,0.0,-0.12660998767613363,0.0,0.0,0.0,-3.8224206476185465,-3.7104109153140463,-5.549822792999865,-0.01831638324243628,0.028101145927367174,-0.4589449656093415
12662,2.0,300.04094,42987.346,0.0,0.0,-0.12661999209650787,0.0,0.0,0.0,-3.8044990904498266,-3.7171623020553564,-5.545418397465185,-0.015860242708534086,0.007299819402361084,-0.45307316101483963
12663,2.0,300.36914,43471.199,0.0,0.0,-0.126629996516882,0.0,0.0,0.0,-3.866053932699817,-3.7500239279735466,-5.598081260812605,-0.02082928503369038,0.00910922428363544,-0.44580834018285753
12664,2.0,300.37147999999996,43605.920999999995,0.0,0.0,-0.12664000093725636,0.0,0.0,0.0,-3.8928385911432564,-3.7467060405210963,-5.615566309838244,0.011879562021171488,-0.01045814033038809,-0.4195122202751326
12665,2.0,299.43705,43319.236,0.0,0.0,-0.1266500053576305,0.0,0.0,0.0,-3.8475735681009464,-3.7532467725666168,-5.567145823334515,0.0008965389277615031,-0.007583549492713062,-0.43579510885212863
12666,2.0,300.30272,43114.282999999996,0.0,0.0,-0.12666000977800462,0.0,0.0,0.0,-3.8374539353772166,-3.719273915263757,-5.548937719037514,0.023356450346602182,-0.024395144169863277,-0.4291895591977116
12667,2.0,299.82387,43247.615999999995,0.0,0.0,-0.12667001419837864,0.0,0.0,0.0,-3.8255839131057363,-3.7473577629854167,-5.573253694937315,-0.0014396556329579488,-0.0029203002722111974,-0.4388748014710706
12668,2.0,299.71997000000005,43540.152,0.0,0.0,-0.12667998570947525,0.0,0.0,0.0,-3.8667244002909866,-3.758665938076446,-5.609728773362124,0.0007874363214514142,-0.006116200923922035,-0.4302681335316586
12669,2.0,299.96536000000003,43472.899000000005,0.0,0.0,-0.1266899901298495,0.0,0.0,0.0,-3.8403979335427665,-3.7582968110650166,-5.6159809317791645,-0.037612739425088366,0.0065530452633852125,-0.44251660471548854
12670,2.0,300.03109,43048.876,0.0,0.0,-0.12669999455022363,0.0,0.0,0.0,-3.8064621611935667,-3.7210530811143463,-5.558268131258354,-0.01803607368177188,-0.0025124195855315075,-0.45443163555641053
12671,2.0,300.01471000000004,43035.89599999999,0.0,0.0,-0.12670999897059776,0.0,0.0,0.0,-3.8037650920773864,-3.717294835168436,-5.560777850431045,-0.02157260328055018,0.018634196229051984,-0.44671712419754755
12672,2.0,300.25515,43414.369000000006,0.0,0.0,-0.1267200033909719,0.0,0.0,0.0,-3.8726509001258864,-3.7354545061106563,-5.588778814294525,0.006006699390915074,0.00850853405927693,-0.4585640544992486
12673,2.0,300.11,43552.629,0.0,0.0,-0.12673000781134625,0.0,0.0,0.0,-3.880490416149587,-3.769481673618876,-5.588939617085395,0.0026697421662830374,0.02335154114986768,-0.44730939927850055
12674,2.0,300.41449,43264.0,0.0,0.0,-0.12674001223172027,0.0,0.0,0.0,-3.8445161872492064,-3.733431957586047,-5.573227553084735,0.022095789903434682,-0.003469680322105786,-0.45804221043274657
12675,2.0,299.89706,43158.372,0.0,0.0,-0.12674998374281687,0.0,0.0,0.0,-3.817769525684517,-3.740057498664936,-5.5612403991016945,0.007873978990076223,0.006426663490337305,-0.4349169047254566
12676,2.0,299.55051000000003,43371.545,0.0,0.0,-0.12675998816319112,0.0,0.0,0.0,-3.8604675809234865,-3.7342108429379164,-5.589188369984945,0.015633545223910784,-0.008119813931988242,-0.44156924626949157
12677,2.0,299.66927000000004,43668.609000000004,0.0,0.0,-0.12676999258356525,0.0,0.0,0.0,-3.8945688170140165,-3.7611480968464166,-5.6184498169728245,-0.0024503457565802976,-0.00974027543266534,-0.4239714630377256
12678,2.0,299.60361,43585.166,0.0,0.0,-0.12677999700393938,0.0,0.0,0.0,-3.8897744215158463,-3.7609833423801566,-5.598044479833975,5.400235464836745e-05,-0.006974991482653063,-0.44781156602806055
12679,2.0,299.79796,43186.995,0.0,0.0,-0.12679000142431351,0.0,0.0,0.0,-3.8427767408025364,-3.7148362851257968,-5.570155074806505,-0.01984907904595158,0.008306642659626802,-0.44282910117882957
12680,2.0,300.33806,43074.804000000004,0.0,0.0,-0.12680000584468765,0.0,0.0,0.0,-3.817784825761026,-3.7174275709315365,-5.558452542776554,0.009192744969503291,0.00034960785269610864,-0.4614492740264976
12681,2.0,300.29686,43409.917,0.0,0.0,-0.1268100102650619,0.0,0.0,0.0,-3.858056552310536,-3.740452970178967,-5.597021299882995,0.0018216837499611884,0.002111848181098188,-0.45466413592435656
12682,2.0,300.3889,43571.584,0.0,0.0,-0.12682001468543602,0.0,0.0,0.0,-3.9021587695380866,-3.741905666847336,-5.600609015837074,0.02061123665192068,-0.024029416612518773,-0.43710682190158456
12683,2.0,300.06284,43257.901,0.0,0.0,-0.12682998619653274,0.0,0.0,0.0,-3.845895524610336,-3.7336104922536664,-5.5698158386730245,0.0065383719833870734,-0.026803161403516074,-0.4532898850787286
12684,2.0,299.82928,43176.744000000006,0.0,0.0,-0.12683999061690665,0.0,0.0,0.0,-3.8288327982263763,-3.723664125297036,-5.572155027853885,-0.0018070628549932183,-0.005664647739382205,-0.4385886393778286
12685,2.0,299.82236,43520.379,0.0,0.0,-0.12684999503728078,0.0,0.0,0.0,-3.876193425125506,-3.7587485179595963,-5.594166467726245,-0.009257442102963403,0.01067898224268349,-0.45475455836328055
12686,2.0,299.80662,43867.735,0.0,0.0,-0.12685999945765514,0.0,0.0,0.0,-3.9099202653040863,-3.789658218885146,-5.6351175784678045,0.007762128236712414,0.015955748623209785,-0.4248287840798366
12687,2.0,299.55329,43584.704000000005,0.0,0.0,-0.12687000387802927,0.0,0.0,0.0,-3.875953994126876,-3.7540250499684267,-5.618682763170815,0.003769063302652587,0.008906808425733551,-0.4375355178863936
12688,2.0,300.21644,43250.842000000004,0.0,0.0,-0.1268800082984035,0.0,0.0,0.0,-3.831596133899097,-3.728537149002966,-5.587042610248175,-0.00028107043042949176,-0.01133782076245579,-0.4166961854647116
12689,2.0,300.65058999999997,43287.96599999999,0.0,0.0,-0.12689001271877764,0.0,0.0,0.0,-3.8322871704672967,-3.7324299545621566,-5.593743537134504,0.005128478849591456,0.0004142190017527326,-0.4415763086226886
12690,2.0,300.55465,43591.390999999996,0.0,0.0,-0.12689998422987436,0.0,0.0,0.0,-3.8888128471709464,-3.751473382241597,-5.610408056229165,-0.002576393967695288,0.0061268123882443045,-0.43180235630307456
12691,2.0,300.25962999999996,43692.005999999994,0.0,0.0,-0.1269099886502485,0.0,0.0,0.0,-3.879901211216436,-3.7806962244006668,-5.620681398993065,4.9943822916071555e-05,0.012955563713114588,-0.44895601175100863
12692,2.0,300.2874,43469.545,0.0,0.0,-0.1269199930706224,0.0,0.0,0.0,-3.850302554595276,-3.750266500047486,-5.613087089493565,-0.012181950301514886,0.013625962403277786,-0.44900879194871757
12693,2.0,299.7159,43354.143,0.0,0.0,-0.12692999749099665,0.0,0.0,0.0,-3.8452937553759465,-3.7423476465409564,-5.5909354158073645,0.006425891393761104,0.02274054526006708,-0.4492872736062016
12694,2.0,300.2087,43656.16099999999,0.0,0.0,-0.12694000191137078,0.0,0.0,0.0,-3.8847768693726263,-3.769149226261067,-5.6164567540261245,0.015125175357238587,0.004199069115865856,-0.44495866917900156
12695,2.0,299.73417,43811.253,0.0,0.0,-0.12695000633174514,0.0,0.0,0.0,-3.9039789720177263,-3.782361196964986,-5.6311868773548746,0.012869190221590186,-0.004331861316996426,-0.43250046535697256
12696,2.0,299.54815,43417.433,0.0,0.0,-0.12696001075211927,0.0,0.0,0.0,-3.851252983189076,-3.7508954243845563,-5.595667192449354,0.008059860531521303,-0.005799944289459934,-0.4478638598657215
12697,2.0,299.87315,43101.169,0.0,0.0,-0.1269700151724934,0.0,0.0,0.0,-3.8108903681055963,-3.7263274531848865,-5.564461521169594,-0.002018671728402388,-0.004183070099436876,-0.4441102748702716
12698,2.0,299.88048,43324.413,0.0,0.0,-0.1269799866835899,0.0,0.0,0.0,-3.8435955482083464,-3.7482571237741764,-5.577687069424854,-0.0026153391472138778,-0.0029182724547860673,-0.4517736677615896
12699,2.0,299.34254,43545.094000000005,0.0,0.0,-0.12698999110396403,0.0,0.0,0.0,-3.877464547375956,-3.7419560253773065,-5.617200682249544,-0.010032320658637961,-0.018109180689736982,-0.43807223646436355
12700,2.0,299.73221,43582.850999999995,0.0,0.0,-0.12699999552433827,0.0,0.0,0.0,-3.8752478601321863,-3.765187013070026,-5.607663567008305,-0.02021760722657248,-0.004368778375114856,-0.4446213886182146
12701,2.0,299.27187000000004,43383.960999999996,0.0,0.0,-0.1270099999447124,0.0,0.0,0.0,-3.852880566824706,-3.7468801168882764,-5.587880162780835,-0.019289062808432282,-0.004063934077854066,-0.4359857923884476
12702,2.0,299.19534,43376.217000000004,0.0,0.0,-0.12702000436508654,0.0,0.0,0.0,-3.858286762733256,-3.7563561331484867,-5.570644069304764,-0.01189813286900429,0.0011724071700575788,-0.4632722629439126
12703,2.0,299.54902000000004,43652.518,0.0,0.0,-0.12703000878546067,0.0,0.0,0.0,-3.873018912562206,-3.7760343620155763,-5.620222092722735,-0.004709664586382706,0.003354326965796297,-0.4460555326772536
12704,2.0,299.79483999999997,43774.318,0.0,0.0,-0.12704001320583502,0.0,0.0,0.0,-3.9129159392247366,-3.7674366309420466,-5.6259471584377545,0.014750296124990884,0.006979008107374473,-0.45726683092622256
12705,2.0,300.11436000000003,43505.115,0.0,0.0,-0.12704998471693152,0.0,0.0,0.0,-3.864541352950536,-3.7416268204198166,-5.618300565233095,0.014110480362595988,0.0005046272045128276,-0.4314027203311336
12706,2.0,301.14507000000003,43238.15,0.0,0.0,-0.12705998913730565,0.0,0.0,0.0,-3.849994121264836,-3.7313364550542363,-5.561987265750404,-0.008126384149611672,-0.0011207141897058791,-0.46369175861781353
12707,2.0,299.96885,43351.98,0.0,0.0,-0.1270699935576799,0.0,0.0,0.0,-3.8480067325186966,-3.721403260348907,-5.608509326866774,-0.012633335995813188,-0.02699741360668727,-0.4350351206146236
12708,2.0,299.65417,43690.422999999995,0.0,0.0,-0.12707999797805403,0.0,0.0,0.0,-3.8961792767229566,-3.7628506609894465,-5.621767603100265,-0.007686024541576562,0.003513100014065976,-0.46208664886940154
12709,2.0,300.1991,43834.945,0.0,0.0,-0.12709000239842816,0.0,0.0,0.0,-3.8770488108599257,-3.7976024036441762,-5.650077506919235,-0.003197974268040487,0.012449297353649988,-0.4320890148888656
12710,2.0,299.4067,43437.502,0.0,0.0,-0.1271000068188023,0.0,0.0,0.0,-3.8598630759138266,-3.746001629051576,-5.598051268609645,0.0007361040986653183,0.008479493602135861,-0.4636111849698616
12711,2.0,299.74182,43530.956,0.0,0.0,-0.12711001123917642,0.0,0.0,0.0,-3.856131985070596,-3.769107986981996,-5.607083683976074,-0.0029603617493649576,-0.0007934553512854462,-0.4289993417564386
12712,2.0,299.96035,43729.9,0.0,0.0,-0.12712001565955067,0.0,0.0,0.0,-3.9038980133347363,-3.764484121475656,-5.624415630911604,0.0012907672447138086,0.004093772469448886,-0.4523999981784036
12713,2.0,299.23352,43675.13,0.0,0.0,-0.12712998717064727,0.0,0.0,0.0,-3.889738349812286,-3.7684915256211564,-5.617918975245435,0.002138260571454888,-0.013120920049933989,-0.4270865991451656
12714,2.0,299.15553,43456.917,0.0,0.0,-0.12713999159102152,0.0,0.0,0.0,-3.856249420757186,-3.7588972630742763,-5.594670863626024,-0.008189584408699052,-0.006573305908409784,-0.45752083246129055
12715,2.0,299.52515,43340.126,0.0,0.0,-0.12714999601139543,0.0,0.0,0.0,-3.8464576757658167,-3.7198847024240367,-5.607973722863915,-0.004255692165904115,-0.012570962346157387,-0.42647678470498157
12716,2.0,299.07362,43502.495,0.0,0.0,-0.12716000043176956,0.0,0.0,0.0,-3.8814747886217362,-3.7451896104214364,-5.597007823656665,0.000958941789417686,0.01982187733376698,-0.4470847819963326
12717,2.0,300.27042,43785.828,0.0,0.0,-0.12717000485214391,0.0,0.0,0.0,-3.906813539172476,-3.760747964381926,-5.642236977645434,0.012640310196251489,0.003918673023642917,-0.4351680184977396
12718,2.0,299.30571000000003,43749.774000000005,0.0,0.0,-0.12718000927251805,0.0,0.0,0.0,-3.8986586997176564,-3.7836053667627763,-5.616574696337765,-0.0005334895930813235,0.007056740196746033,-0.4559393213077076
12719,2.0,299.62127999999996,43494.263,0.0,0.0,-0.1271900136928923,0.0,0.0,0.0,-3.854509062385426,-3.767806872528586,-5.598854066663875,0.0025946209184441477,0.002095682485027758,-0.4595051409271266
12720,2.0,300.16868,43559.248,0.0,0.0,-0.12719998520398879,0.0,0.0,0.0,-3.8668877362071066,-3.764362734113676,-5.609673145931635,-0.003962609473154107,0.009112951422803281,-0.44626228636015863
12721,2.0,300.43185,43771.999,0.0,0.0,-0.12720998962436314,0.0,0.0,0.0,-3.878616916714686,-3.787493511371506,-5.639484281098765,0.014671681089482184,-0.02171341768669748,-0.4491273726079205
12722,2.0,300.23579,43720.236,0.0,0.0,-0.12721999404473727,0.0,0.0,0.0,-3.8891922080083865,-3.7721059913778765,-5.628561951645815,-0.008222674725164813,-0.00959455081653344,-0.42520451748191856
12723,2.0,299.84831,43521.512,0.0,0.0,-0.12722999846511118,0.0,0.0,0.0,-3.8505525233949465,-3.7506238733577564,-5.628276417767635,0.015692925732771184,-0.009026244875971012,-0.4435689156068436
12724,2.0,299.24138999999997,43551.802,0.0,0.0,-0.12724000288548543,0.0,0.0,0.0,-3.8737645633107967,-3.752306780448847,-5.612588874419395,-0.002214392333618508,0.014712282020989184,-0.42748199973168854
12725,2.0,299.59109,43749.621,0.0,0.0,-0.12725000730585956,0.0,0.0,0.0,-3.887765146567546,-3.772926419983847,-5.638100789412224,0.017358568055407284,0.0012969773532516987,-0.45441862542512657
12726,2.0,299.73939,43905.151,0.0,0.0,-0.1272600117262339,0.0,0.0,0.0,-3.8940236884602166,-3.7989138532486066,-5.653132050670695,0.01037563846749579,-0.0019984958924111882,-0.45328416021566353
12727,2.0,299.35127,43741.553,0.0,0.0,-0.12727001614660804,0.0,0.0,0.0,-3.886616019629136,-3.779125889395686,-5.630598077721765,0.02389664943866568,-0.01092887099559559,-0.45528037437017455
12728,2.0,300.14488,43517.605,0.0,0.0,-0.12727998765770454,0.0,0.0,0.0,-3.8664767619665463,-3.755288268868096,-5.6065003558935045,-0.007533658577664213,0.00955270267547835,-0.4557273392542866
12729,2.0,300.5438,43606.13,0.0,0.0,-0.12728999207807867,0.0,0.0,0.0,-3.884414632461876,-3.7590582685151666,-5.611701571306824,0.0033285335699256868,-0.002774135398910847,-0.45200229751415355
12730,2.0,300.76297999999997,43798.926,0.0,0.0,-0.1272999964984528,0.0,0.0,0.0,-3.893605317493926,-3.783318515659466,-5.636855910339365,-0.015528517798045384,0.02073979377160828,-0.44701940709988053
12731,2.0,300.13669,43776.931,0.0,0.0,-0.12731000091882705,0.0,0.0,0.0,-3.895887663344176,-3.778944011002736,-5.632262239686004,0.01046849777291029,0.013461958755341886,-0.4390289269437816
12732,2.0,300.24156,43571.087999999996,0.0,0.0,-0.12732000533920118,0.0,0.0,0.0,-3.852901034476726,-3.765607106561486,-5.626014438244395,-0.012409179742440688,0.008005142087696013,-0.4439801836899326
12733,2.0,299.7834,43559.174000000006,0.0,0.0,-0.1273300097595753,0.0,0.0,0.0,-3.887546183220936,-3.750040849250217,-5.603314292279064,0.005449851079833426,-0.012552697499854788,-0.43912467907823155
12734,2.0,299.92793,43744.448,0.0,0.0,-0.12734001417994945,0.0,0.0,0.0,-3.9001472654395664,-3.7760078148629566,-5.621064914155915,-0.01048862902589709,0.0014830342882890886,-0.4486813399139005
12735,2.0,299.84521,43782.26,0.0,0.0,-0.12734998569104616,0.0,0.0,0.0,-3.914131738019726,-3.7648257894093757,-5.6297561682136745,0.002451354751029878,0.013610223589474488,-0.4392501194406116
12736,2.0,299.54042999999996,43708.649000000005,0.0,0.0,-0.1273599901114203,0.0,0.0,0.0,-3.8956868371743565,-3.770468376566257,-5.620182677293845,-0.010790826815221689,0.025609926675002975,-0.4476668029862736
12737,2.0,299.87245,43620.97900000001,0.0,0.0,-0.12736999453179443,0.0,0.0,0.0,-3.8809735337972664,-3.7655769117085067,-5.613137954648585,-0.006917461371125284,-0.004895580375681165,-0.4611571641551685
12738,2.0,299.31913,43624.47900000001,0.0,0.0,-0.12737999895216867,0.0,0.0,0.0,-3.868791126519956,-3.774203925709926,-5.617757057879454,0.004954907790236326,-0.010750573428498991,-0.4701574898909316
12739,2.0,299.4462,43843.415,0.0,0.0,-0.1273900033725428,0.0,0.0,0.0,-3.894596276091726,-3.7835784143101168,-5.649128598200584,0.016799233735205286,-0.03376734282482727,-0.44442319689865456
12740,2.0,299.53306000000003,43938.16,0.0,0.0,-0.12740000779291694,0.0,0.0,0.0,-3.924584730026356,-3.793039130493817,-5.638479744949624,0.014020362911952088,-0.01894549604402488,-0.43786795511170257
12741,2.0,299.89813,43776.987,0.0,0.0,-0.12741001221329107,0.0,0.0,0.0,-3.8879432759351262,-3.7761735825793163,-5.642994078120155,-0.002293783316053788,-0.014352754541006587,-0.4432122313066416
12742,2.0,299.84702000000004,43659.992,0.0,0.0,-0.12741998372438756,0.0,0.0,0.0,-3.884774944197436,-3.7591092349951962,-5.627663401457135,-0.003753346476376457,0.015687497751985486,-0.4434325220108826
12743,2.0,300.40756,43840.526,0.0,0.0,-0.12742998814476192,0.0,0.0,0.0,-3.8609171599928565,-3.791270198469236,-5.674237948928686,-0.006220485637464135,0.015665152547530183,-0.4467195256002846
12744,2.0,300.21712,43872.252,0.0,0.0,-0.12743999256513605,0.0,0.0,0.0,-3.8982607964033864,-3.7967636352113963,-5.6410447875777745,0.0015531907119629884,0.017960749682587984,-0.44362807928018255
12745,2.0,300.48983,43728.892,0.0,0.0,-0.1274499969855103,0.0,0.0,0.0,-3.873773682561696,-3.790414306109766,-5.628303370220294,-0.004653242767814306,-0.007249780248822603,-0.46007508397587554
12746,2.0,300.32914,43620.484000000004,0.0,0.0,-0.1274600014058842,0.0,0.0,0.0,-3.896989775477946,-3.769562024351807,-5.5929861326847545,-0.0037739041050053363,0.006766282733680114,-0.44972278876418353
12747,2.0,299.46291,43719.971,0.0,0.0,-0.12747000582625834,0.0,0.0,0.0,-3.8904536030578765,-3.7752781734659466,-5.624047719800295,0.005569946649260934,0.0033176747712540073,-0.4412477724102646
12748,2.0,299.86252,43916.919,0.0,0.0,-0.1274800102466327,0.0,0.0,0.0,-3.915404380145326,-3.7926227860277266,-5.641619503034494,0.0012503833513782287,0.008701054415377212,-0.4369926792778196
12749,2.0,299.91128,43950.617,0.0,0.0,-0.12749001466700682,0.0,0.0,0.0,-3.895012012607756,-3.8074171494128164,-5.657460959072925,0.0035615375231713865,-0.004468695980725956,-0.46228962312943356
12750,2.0,299.82088,43782.517,0.0,0.0,-0.12749998617810343,0.0,0.0,0.0,-3.9095647158439966,-3.7679173167894864,-5.631309885917015,-0.0064961381993439244,-0.02070432495185778,-0.4489781512656936
12751,2.0,300.25691,43761.989,0.0,0.0,-0.12750999059847756,0.0,0.0,0.0,-3.8919648655820263,-3.7742017978847167,-5.636385255667915,0.0017983931831625883,-0.021354905483315083,-0.45137935135267354
12752,2.0,300.69045,43826.928,0.0,0.0,-0.12751999501885192,0.0,0.0,0.0,-3.908519751015866,-3.762861705415536,-5.650910195851415,0.007277053293814242,-0.007254202274909024,-0.42604753143261764
12753,2.0,300.86593,43942.779,0.0,0.0,-0.12752999943922605,0.0,0.0,0.0,-3.9159348165726757,-3.7893855532832363,-5.652187397602465,0.013708191701893187,0.0016517834930683383,-0.4495962135616916
12754,2.0,300.71019,43786.1,0.0,0.0,-0.12754000385959996,0.0,0.0,0.0,-3.8980499390575765,-3.774603551549367,-5.637227570476045,0.016167907995398283,0.006918095159062832,-0.4423878915552855
12755,2.0,299.93331,43644.874,0.0,0.0,-0.1275500082799742,0.0,0.0,0.0,-3.8671723581601958,-3.7685542458023464,-5.631225279533664,0.008535259746564553,0.0038732173069317864,-0.4683494058824876
12756,2.0,299.79997000000003,43894.293,0.0,0.0,-0.12756001270034834,0.0,0.0,0.0,-3.906267194718556,-3.790275085546026,-5.6462265485891745,0.017153277505646682,-0.0009127881663026782,-0.4530141999915206
12757,2.0,299.9535,44096.46,0.0,0.0,-0.12756998421144505,0.0,0.0,0.0,-3.9169766403254966,-3.8199938123040367,-5.667252197439245,0.0007410920654625922,0.0042462655962487855,-0.4580449766055195
12758,2.0,299.67982,43915.58900000001,0.0,0.0,-0.12757998863181919,0.0,0.0,0.0,-3.8958227140127666,-3.7893623498559466,-5.6640573185489345,-0.013299818474339885,-0.003592878159364466,-0.4261880084264816
12759,2.0,299.89434,43801.469000000005,0.0,0.0,-0.12758999305219332,0.0,0.0,0.0,-3.8892987005938964,-3.772572795698946,-5.6526812557012045,-0.01900461209460918,0.00027956423415584174,-0.4386716042960166
12760,2.0,299.59268,43830.852,0.0,0.0,-0.12759999747256745,0.0,0.0,0.0,-3.8829026606626567,-3.775758757988376,-5.664823031649504,-0.010236524295016291,0.019106388000903682,-0.42737598337372557
12761,2.0,299.46783999999997,43909.804000000004,0.0,0.0,-0.12761000189294158,0.0,0.0,0.0,-3.8986565718924466,-3.793079052547756,-5.655748262428895,0.01044268421336269,0.0036761626566340065,-0.45902884245261955
12762,2.0,300.33808,44011.792,0.0,0.0,-0.12762000631331583,0.0,0.0,0.0,-3.9144083552970264,-3.793705038459536,-5.6703722984721745,0.020229042767201083,-0.0070592475854434926,-0.4504069960267095
12763,2.0,300.69611000000003,43737.022000000004,0.0,0.0,-0.12763001073368996,0.0,0.0,0.0,-3.882907929563176,-3.771559950898986,-5.640494694098485,0.002042809169634568,-0.0032623039970143372,-0.47753707142923957
12764,2.0,299.89718,43671.175,0.0,0.0,-0.1276400151540641,0.0,0.0,0.0,-3.886306167748556,-3.7706450873836967,-5.617995374302974,0.01152765620844109,-0.01206843487956179,-0.4537784134819426
12765,2.0,300.35468,43875.067,0.0,0.0,-0.1276499866651608,0.0,0.0,0.0,-3.9121566095997964,-3.7803399656655063,-5.644428232311695,-0.004637819378767136,0.007489239618455403,-0.47310259249909054
12766,2.0,299.99672999999996,44108.585,0.0,0.0,-0.12765999108553494,0.0,0.0,0.0,-3.9276497102538466,-3.808588061228376,-5.671670474500295,-0.0007620381741798122,-0.017739879399289782,-0.4331377996698726
12767,2.0,300.10663999999997,43850.522000000004,0.0,0.0,-0.12766999550590907,0.0,0.0,0.0,-3.9004738359467965,-3.7935277196920363,-5.635462083501804,-0.0012325786219460387,-0.009748735361725271,-0.47586570525678856
12768,2.0,299.92132999999995,43707.685999999994,0.0,0.0,-0.1276799999262832,0.0,0.0,0.0,-3.8937625739094464,-3.7736488673051465,-5.618633519215955,-0.0070733261889579435,0.018254765477355085,-0.43300609742187457
12769,2.0,299.93761,43843.878,0.0,0.0,-0.12769000434665745,0.0,0.0,0.0,-3.8891616078553666,-3.7982054901036966,-5.640077032407264,-0.001827946142204238,0.013128426206674789,-0.4613470776214116
12770,2.0,299.13099,44031.191,0.0,0.0,-0.12770000876703158,0.0,0.0,0.0,-3.946488056113046,-3.781920433171486,-5.655974217201195,0.008602974440147472,0.004908588885765005,-0.41340229177462956
12771,2.0,299.79639,43996.257000000005,0.0,0.0,-0.1277100131874057,0.0,0.0,0.0,-3.9072318088137568,-3.8096977727378967,-5.656834061236054,-0.006928252383365274,0.011925696311474589,-0.45864442549718054
12772,2.0,299.26324,43752.367999999995,0.0,0.0,-0.1277199846985022,0.0,0.0,0.0,-3.8994278578685666,-3.7731774020336166,-5.627022014143836,0.00950182191640681,-0.007382675902788383,-0.45416744072533655
12773,2.0,299.3591,43773.079000000005,0.0,0.0,-0.12772998911887634,0.0,0.0,0.0,-3.8783552955388667,-3.7848997937655264,-5.642668115562985,-0.027489507637003172,-0.006404532081653104,-0.4818000071174585
12774,2.0,299.54271,43967.816,0.0,0.0,-0.1277399935392507,0.0,0.0,0.0,-3.9194674117213166,-3.8007910003838665,-5.644859775529285,-0.0009904702213843,-0.026039335987882377,-0.46810224378559456
12775,2.0,300.28272000000004,44174.209,0.0,0.0,-0.12774999795962483,0.0,0.0,0.0,-3.9227000848403564,-3.8206583017196163,-5.684498119441285,-0.01111481961419729,-0.011171358969777289,-0.4505976491655256
12776,2.0,300.48278,43963.513,0.0,0.0,-0.12776000237999907,0.0,0.0,0.0,-3.9312770442868366,-3.7754830526361665,-5.657050187482385,0.018701004874395483,0.007983727046832511,-0.4351976560631646
12777,2.0,300.45284,43826.344000000005,0.0,0.0,-0.12777000680037298,0.0,0.0,0.0,-3.879305116182606,-3.7888821706335563,-5.653926844049135,-0.0020174174261035982,0.0034217642315018367,-0.43428877072346456
12778,2.0,300.33108,43969.907999999996,0.0,0.0,-0.12778001122074711,0.0,0.0,0.0,-3.915020054382396,-3.7801120857180166,-5.6706219632968144,0.003616932716738466,-0.014326439422659487,-0.4302621756210706
12779,2.0,299.83222,44224.185,0.0,0.0,-0.12779001564112147,0.0,0.0,0.0,-3.9291547919523864,-3.8365432261873362,-5.677349842635804,-0.011075950327111188,0.0025599626987736477,-0.4443540527118306
12780,2.0,299.47796,44040.52099999999,0.0,0.0,-0.12779998715221796,0.0,0.0,0.0,-3.9181764297689066,-3.8014058405445468,-5.667636624527185,0.006864455927919054,0.005681973606817135,-0.44956180358829556
12781,2.0,299.2716,43694.292,0.0,0.0,-0.1278099915725922,0.0,0.0,0.0,-3.875251913132586,-3.7817021790999465,-5.625019629296215,-0.017064389127374086,0.009383838770787783,-0.4640888918620075
12782,2.0,299.5265,43779.35400000001,0.0,0.0,-0.12781999599296634,0.0,0.0,0.0,-3.889189269583096,-3.7814545407755062,-5.637186736497015,-0.0038608864585148264,-0.013354961571282088,-0.44780377413479155
12783,2.0,299.8413,44111.678,0.0,0.0,-0.1278300004133407,0.0,0.0,0.0,-3.8994848025241864,-3.805635247786957,-5.703728491764174,-0.010280429435099391,-7.559491591613733e-06,-0.45716053085823155
12784,2.0,299.97988,44263.09,0.0,0.0,-0.1278400048337146,0.0,0.0,0.0,-3.939852382533156,-3.836553966638396,-5.678467862796144,0.02843353046367097,-0.00015784412084300184,-0.4525120028444576
12785,2.0,299.6774,44048.507000000005,0.0,0.0,-0.12785000925408874,0.0,0.0,0.0,-3.9139159157484262,-3.798527197010446,-5.677203225346335,0.01286394259932229,0.002328705487375338,-0.4614222405138295
12786,2.0,299.81091000000004,43893.251,0.0,0.0,-0.12786001367446298,0.0,0.0,0.0,-3.915792657583646,-3.7846007836610163,-5.642058645627835,0.016160445408411786,-0.018090618961155085,-0.45244267627261553
12787,2.0,299.61131,44024.537000000004,0.0,0.0,-0.1278699851855596,0.0,0.0,0.0,-3.916271215605876,-3.7980140871598063,-5.668074551220404,-0.0068433940047154035,0.007335451456702693,-0.45086882528978856
12788,2.0,299.56912,44319.435999999994,0.0,0.0,-0.12787998960593383,0.0,0.0,0.0,-3.9622489587685257,-3.8067868065256065,-5.7029661223889345,0.0039921579738953165,-0.0005757761269246795,-0.4217044881914926
12789,2.0,300.11941,44178.389,0.0,0.0,-0.12788999402630796,0.0,0.0,0.0,-3.9254641297881463,-3.8258920424611462,-5.677770949377365,-0.012340513809663887,-0.003420622298639137,-0.45136439578119764
12790,2.0,300.27456,43807.876,0.0,0.0,-0.1278999984466821,0.0,0.0,0.0,-3.908748036263396,-3.7673241601809466,-5.640428224891925,0.009578239617748651,-0.017742704340568585,-0.4353504035157396
12791,2.0,300.51623,43842.924000000006,0.0,0.0,-0.12791000286705623,0.0,0.0,0.0,-3.8985129943532764,-3.790373370805726,-5.638267874353715,0.003926049079070876,0.0006094059686711865,-0.4815603126738025
12792,2.0,300.26646,44184.123,0.0,0.0,-0.12792000728743036,0.0,0.0,0.0,-3.9455614388965965,-3.806942948366016,-5.678365524536045,0.004429474893205136,0.005588359328753125,-0.4503724239332976
12793,2.0,300.08153,44267.425,0.0,0.0,-0.1279300117078046,0.0,0.0,0.0,-3.9513724282200964,-3.8142355119857365,-5.690583699541885,-0.007301916222118024,0.010988843242514389,-0.4627842715632516
12794,2.0,299.96411,44022.420999999995,0.0,0.0,-0.12794001612817874,0.0,0.0,0.0,-3.919756390649836,-3.8030485216066663,-5.658911831891115,-0.0059815772732357145,-0.019201337641274484,-0.4565496930354466
12795,2.0,299.83484,43817.744000000006,0.0,0.0,-0.12794998763927523,0.0,0.0,0.0,-3.9040839447280864,-3.7764375342303667,-5.638978365323835,-0.000950899309266455,0.00011148103866732189,-0.4605568033384176
12796,2.0,299.46952000000005,44032.419,0.0,0.0,-0.12795999205964959,0.0,0.0,0.0,-3.919751121749316,-3.808463026166036,-5.656541637257194,-0.004265700442441856,-0.004861876738929875,-0.4533103122007445
12797,2.0,299.70157,44353.899000000005,0.0,0.0,-0.12796999648002372,0.0,0.0,0.0,-3.9504579700048463,-3.846062406901807,-5.6859571995852844,-0.0016585159320327784,-0.0023666974011998477,-0.4630201359215296
12798,2.0,300.00551,44165.79,0.0,0.0,-0.12798000090039785,0.0,0.0,0.0,-3.9328896318209865,-3.8107060579124066,-5.681701853140314,0.002178825937883378,-0.003724603914764786,-0.4493607139734496
12799,2.0,300.20534,43855.170999999995,0.0,0.0,-0.12799000532077198,0.0,0.0,0.0,-3.897879409065746,-3.7993167214883665,-5.633680789826004,0.01071399611313909,0.01895016206073538,-0.45490882569100555
12800,2.0,300.22747999999996,43985.03599999999,0.0,0.0,-0.12800000974114623,0.0,0.0,0.0,-3.903023983798476,-3.8072902905002963,-5.660038464677305,0.012364883487818987,0.012778395919879488,-0.44866717467750256
12801,2.0,300.33894,44197.367,0.0,0.0,-0.12801001416152036,0.0,0.0,0.0,-3.9467180638857458,-3.8178162365141266,-5.670361760671135,-0.012631303416112589,-0.0014704658327236784,-0.4467404694798516
12802,2.0,299.26286,44268.38,0.0,0.0,-0.12801998567261685,0.0,0.0,0.0,-3.9412130760924464,-3.8305387060947367,-5.684730457689215,0.0057258778349751445,-0.009900838285911661,-0.4508438284098216
12803,2.0,299.64375,44032.365,0.0,0.0,-0.128029990092991,0.0,0.0,0.0,-3.903470725767567,-3.8095166036200165,-5.671752142458354,-0.007369635677976413,0.02194743894304358,-0.4678093942416925
12804,2.0,299.20673999999997,43861.064000000006,0.0,0.0,-0.12803999451336512,0.0,0.0,0.0,-3.9143575914670166,-3.775389225676906,-5.642921630738004,0.007103261751237353,0.009311059447905022,-0.45194058045056257
12805,2.0,299.58117000000004,44145.751,0.0,0.0,-0.12804999893373947,0.0,0.0,0.0,-3.936162024343946,-3.7942028482336663,-5.688840909369885,-0.01313405987723079,0.002561970757821827,-0.46395531510132454
12806,2.0,299.23214,44476.085,0.0,0.0,-0.1280600033541136,0.0,0.0,0.0,-3.989596781617546,-3.8246284182614363,-5.705393970953545,0.00986424840625052,-0.008072953546663483,-0.43112390430111663
12807,2.0,299.49474,44300.565,0.0,0.0,-0.12807000777448785,0.0,0.0,0.0,-3.9580744696815366,-3.8072299007943364,-5.700961204416065,0.013399945822721686,0.0017396270078378184,-0.4447177588352256
12808,2.0,299.89875,43992.322,0.0,0.0,-0.12808001219486176,0.0,0.0,0.0,-3.912208082704876,-3.7891745946124162,-5.671184722402354,0.005080504294456735,-0.007558098170076212,-0.4357115562488825
12809,2.0,300.44943,44076.551,0.0,0.0,-0.12808998370595848,0.0,0.0,0.0,-3.8928264321420563,-3.824549283428626,-5.680795196950835,-0.017446020658288184,-0.00955928758522823,-0.4563006564258686
12810,2.0,299.90373999999997,44307.21,0.0,0.0,-0.1280999881263326,0.0,0.0,0.0,-3.9549418043473663,-3.8083859178334265,-5.704957665460485,-0.012457380049697687,-0.008914067146799931,-0.45429567765799256
12811,2.0,300.32201000000003,44274.405999999995,0.0,0.0,-0.12810999254670674,0.0,0.0,0.0,-3.932512297483746,-3.8322897035925463,-5.693512093655894,-0.01991240413745128,0.019241356967224083,-0.4526070659688396
12812,2.0,300.63965,43958.9,0.0,0.0,-0.12811999696708098,0.0,0.0,0.0,-3.9294417443807066,-3.7755865054713764,-5.657379595089894,0.004685978041445026,0.00014401921488858986,-0.4666335985606505
12813,2.0,300.26509,43913.02,0.0,0.0,-0.12813000138745512,0.0,0.0,0.0,-3.901829868555626,-3.788308468426936,-5.658323336233035,0.0076084763570981526,-0.011466545068409889,-0.43616652580878457
12814,2.0,299.94972,44197.670999999995,0.0,0.0,-0.12814000580782947,0.0,0.0,0.0,-3.9185508256808568,-3.8298947856561862,-5.686542756818074,0.012284717166407187,-0.0038184806246046965,-0.4700498320678066
12815,2.0,299.11033,44402.797,0.0,0.0,-0.12815001022820338,0.0,0.0,0.0,-3.9458461621746963,-3.8223873116902563,-5.729108177618954,0.015233603250439586,-0.0009887688123463838,-0.42934598474814956
12816,2.0,299.84009,44354.335999999996,0.0,0.0,-0.1281600146485775,0.0,0.0,0.0,-3.9563860910399065,-3.829552712422426,-5.696671812767735,-0.006161634855756015,0.0028692958966274576,-0.46695159697203453
12817,2.0,299.63378,44170.455,0.0,0.0,-0.12816998615967423,0.0,0.0,0.0,-3.9433251959258957,-3.8091264010065062,-5.674263888131245,-0.022747879164290878,0.004791800463338886,-0.44416090697776855
12818,2.0,300.01358,44064.739,0.0,0.0,-0.12817999058004836,0.0,0.0,0.0,-3.936720325149046,-3.7863830905869165,-5.671477045056204,-0.011314424817646789,0.016362554352858383,-0.46545336484417055
12819,2.0,299.82581,44240.288,0.0,0.0,-0.1281899950004226,0.0,0.0,0.0,-3.9323408555668258,-3.8101427921818165,-5.705459325584995,-0.006994005931379643,0.016223531372887883,-0.43389632882723356
12820,2.0,299.79554,44251.895,0.0,0.0,-0.12819999942079674,0.0,0.0,0.0,-3.9195121973757363,-3.8053764637114162,-5.726582347769675,0.007671370310680303,0.001225181389590989,-0.44544637684963456
12821,2.0,299.63056,44053.794,0.0,0.0,-0.12821000384117087,0.0,0.0,0.0,-3.895949978225326,-3.802996947176576,-5.692306326036895,0.014761554346851986,-0.01329431348654659,-0.44339257969194057
12822,2.0,300.69437999999997,44041.388,0.0,0.0,-0.128220008261545,0.0,0.0,0.0,-3.9017456674723165,-3.803400220716376,-5.682336249027925,0.016845175507989384,-0.0014546907445667984,-0.4600086350343176
12823,2.0,300.59108,44360.556,0.0,0.0,-0.12823001268191914,0.0,0.0,0.0,-3.942498181194276,-3.8372564529327264,-5.704746605464654,0.023901865650180477,-0.010669582321505791,-0.4527606645514986
12824,2.0,300.30974,44543.29,0.0,0.0,-0.12823998419301585,0.0,0.0,0.0,-3.9910892990148463,-3.8442229526702665,-5.704735763688585,-0.003153924638493127,-0.009871973830312962,-0.45666581149690655
12825,2.0,299.67077,44458.037000000004,0.0,0.0,-0.12824998861339,0.0,0.0,0.0,-3.955009084154006,-3.8434044492394865,-5.715719698747614,-0.0016319517568110986,-0.017361307883677683,-0.44755465646520554
12826,2.0,300.02646,44101.725,0.0,0.0,-0.128259993033764,0.0,0.0,0.0,-3.913291753686826,-3.804504156700326,-5.688027168214575,-0.02868769209225477,0.0012818867155373688,-0.44403593271043457
12827,2.0,300.03037,44009.129,0.0,0.0,-0.12826999745413836,0.0,0.0,0.0,-3.900309993405626,-3.800084055789097,-5.677282360179145,-0.00988634627635641,-0.0029488289367267575,-0.4502598721121896
12828,2.0,299.6412,44284.307,0.0,0.0,-0.1282800018745125,0.0,0.0,0.0,-3.935598150663296,-3.822969727847736,-5.702755569018154,-0.009567377475351642,0.0021498642102750778,-0.44893652695158554
12829,2.0,299.9293,44297.335,0.0,0.0,-0.12829000629488663,0.0,0.0,0.0,-3.9651343910782963,-3.818050702587266,-5.6820987432044845,0.015343625999297986,-0.003927154636254986,-0.4743107716533286
12830,2.0,300.15938,44119.357,0.0,0.0,-0.12830001071526076,0.0,0.0,0.0,-3.929486631360136,-3.8112528076663668,-5.670443327304185,0.01079888620651709,0.005679425688115675,-0.46971580403984053
12831,2.0,299.90679,43924.441,0.0,0.0,-0.12831001513563478,0.0,0.0,0.0,-3.8950913500905866,-3.787451866792396,-5.669389952500225,0.006348485976221784,-0.010720922690822688,-0.47399318867448553
12832,2.0,299.86824,44257.433,0.0,0.0,-0.1283199866467316,0.0,0.0,0.0,-3.9090222217404564,-3.8407859070060564,-5.703346395151465,-0.0015011433980513186,0.001127529411203489,-0.45241969576034763
12833,2.0,300.06498999999997,44516.613,0.0,0.0,-0.12832999106710563,0.0,0.0,0.0,-3.9602787952740863,-3.850503786065136,-5.721156292159165,-0.01029016980831069,-0.008210749379437872,-0.4435618228561436
12834,2.0,300.15715,44420.244000000006,0.0,0.0,-0.12833999548747976,0.0,0.0,0.0,-3.9437035435132364,-3.8510353370675965,-5.707906223251485,-0.007366552965872173,0.013200588865546686,-0.4570220499670646
12835,2.0,300.60609,44214.517,0.0,0.0,-0.1283499999078539,0.0,0.0,0.0,-3.961481827117816,-3.8144223553041763,-5.664204847763495,-0.006445897003735504,-0.0016824921651740483,-0.44114740998785956
12836,2.0,299.79988,44190.672999999995,0.0,0.0,-0.12836000432822825,0.0,0.0,0.0,-3.960226612893936,-3.8037987319807067,-5.668835704695525,0.0036029972854631468,0.012048322878326887,-0.4539575966296266
12837,2.0,299.30517000000003,44374.81,0.0,0.0,-0.12837000874860238,0.0,0.0,0.0,-3.9630016009428064,-3.825563546778726,-5.700268951947745,0.014166827200656986,-0.006223197094731734,-0.4569286587053476
12838,2.0,299.08173999999997,44418.262,0.0,0.0,-0.12838001316897663,0.0,0.0,0.0,-3.968757672110886,-3.8079539693157964,-5.725330781246154,0.003307781903902657,0.008072151964509371,-0.44503577751161155
12839,2.0,299.33185,44254.22,0.0,0.0,-0.12838998468007312,0.0,0.0,0.0,-3.9369138559181467,-3.8169249817261663,-5.698339014482274,0.0045293530833873455,-0.0003578522938572717,-0.44775730648520556
12840,2.0,299.2474,44058.832,0.0,0.0,-0.12839998910044725,0.0,0.0,0.0,-3.9211836547406964,-3.8038664170873866,-5.667734707136865,-0.005212449215853685,0.00973497968101769,-0.4659456118752516
12841,2.0,300.54327,44236.477999999996,0.0,0.0,-0.12840999352082139,0.0,0.0,0.0,-3.943508695519006,-3.8146405080507066,-5.688635523574614,-0.0014480192019333685,0.007462341374675753,-0.46717324543140953
12842,2.0,300.53326,44532.327000000005,0.0,0.0,-0.12841999794119552,0.0,0.0,0.0,-3.979980126243456,-3.847607106679256,-5.709128202872085,-0.012957224430028487,0.01747729259612448,-0.46580392911376856
12843,2.0,300.37928,44537.140999999996,0.0,0.0,-0.12843000236156976,0.0,0.0,0.0,-3.9373692105130864,-3.849710917861886,-5.7510985418892355,0.013889333462020488,-0.0036647865937862773,-0.4526264089132485
12844,2.0,300.37327999999997,44318.572,0.0,0.0,-0.1284400067819439,0.0,0.0,0.0,-3.9296824926044662,-3.8444568107933463,-5.697600051184344,-0.00025385381333592076,0.016619917851758183,-0.45925684399012157
12845,2.0,300.43298,44294.789000000004,0.0,0.0,-0.12845001120231825,0.0,0.0,0.0,-3.8987787698545064,-3.846960855765476,-5.718770290823685,0.012217443439267789,0.014644622245561687,-0.4354965648426646
12846,2.0,299.9574,44439.889,0.0,0.0,-0.12846001562269216,0.0,0.0,0.0,-3.960313549752516,-3.827503008795136,-5.720799932098995,0.005166937365087015,0.026906651728979773,-0.4564669206347775
12847,2.0,299.28828,44556.013,0.0,0.0,-0.12846998713378888,0.0,0.0,0.0,-3.9749570401977166,-3.8413265772594167,-5.727631872223254,-0.004018786895798387,-0.0013890507818886389,-0.4324408153235855
12848,2.0,299.35381,44331.287000000004,0.0,0.0,-0.128479991554163,0.0,0.0,0.0,-3.963015279819156,-3.8137254418853965,-5.698863776709064,-0.015632801498337384,0.004021302491821656,-0.4816954397071385
12849,2.0,299.98368999999997,44223.52,0.0,0.0,-0.12848999597453714,0.0,0.0,0.0,-3.9102730789889066,-3.815813243716446,-5.716759597325245,-0.009883814468331541,-0.020266721485419678,-0.4474427936541655
12850,2.0,300.32171,44375.364,0.0,0.0,-0.12850000039491138,0.0,0.0,0.0,-3.9535710796120864,-3.824643515687926,-5.710788109185904,-0.007874204843523512,-0.004538826059897256,-0.47594341140695756
12851,2.0,299.94486,44642.375,0.0,0.0,-0.12851000481528552,0.0,0.0,0.0,-3.969927165376306,-3.8397434753031763,-5.760496537891745,0.005490808472725605,-0.014636887094298287,-0.4216290922515516
12852,2.0,300.16241,44546.376,0.0,0.0,-0.12852000923565965,0.0,0.0,0.0,-3.991594809489736,-3.8468471691042563,-5.702543901072264,0.01109228797172359,0.0026386164404361674,-0.4629585303154496
12853,2.0,300.18697000000003,44313.324,0.0,0.0,-0.12853001365603378,0.0,0.0,0.0,-3.944687004060296,-3.8123711318017364,-5.713085653787654,0.007905073203844983,-0.017214697686958384,-0.42512769285933655
12854,2.0,300.37504,44391.97,0.0,0.0,-0.1285399851671305,0.0,0.0,0.0,-3.963982629689626,-3.8385926258395964,-5.691475156979864,-0.012352496505346488,0.0030077939117211473,-0.4575648075156306
12855,2.0,299.68923,44632.208,0.0,0.0,-0.12854998958750463,0.0,0.0,0.0,-3.9711354661205567,-3.853979436558156,-5.7419617617625045,0.013437432023421288,-0.018687346263047484,-0.4340056078505186
12856,2.0,299.53257,44580.265,0.0,0.0,-0.12855999400787876,0.0,0.0,0.0,-3.979661560412017,-3.836786912836386,-5.734838816209525,-0.0011652377163250088,-0.003011492578561177,-0.45419854750340655
12857,2.0,299.25433,44329.279,0.0,0.0,-0.12856999842825279,0.0,0.0,0.0,-3.9226008876555665,-3.8490916194007667,-5.703301406847025,0.01320502588773459,-0.017176808212718983,-0.4577137248828276
12858,2.0,299.44642999999996,44230.967000000004,0.0,0.0,-0.12858000284862714,0.0,0.0,0.0,-3.957699769794556,-3.8050401660032263,-5.682369584956215,-0.00965487922086239,-7.784524103672713e-05,-0.4567024810180256
12859,2.0,299.85926,44391.34099999999,0.0,0.0,-0.12859000726900127,0.0,0.0,0.0,-3.9557482501019567,-3.834716538907056,-5.703394423206205,0.006720956206356734,-0.0009226220118357031,-0.4763710333466606
12860,2.0,299.76291000000003,44594.849,0.0,0.0,-0.1286000116893754,0.0,0.0,0.0,-3.968144959775416,-3.866422249111166,-5.721153252408865,-0.004994274279146496,0.004746941044311606,-0.47309331112817454
12861,2.0,300.16989,44563.490999999995,0.0,0.0,-0.12861001610974954,0.0,0.0,0.0,-3.9518272761899857,-3.8654439561396163,-5.728917281300115,0.002149223430911838,-0.004265723544544136,-0.48254072333806153
12862,2.0,300.07388,44392.69,0.0,0.0,-0.12861998762084625,0.0,0.0,0.0,-3.9383054536054862,-3.848507582043126,-5.707456238882075,-0.013842763474174385,0.00911418282564981,-0.45780296181913455
12863,2.0,300.43717999999996,44430.777,0.0,0.0,-0.1286299920412204,0.0,0.0,0.0,-3.955185490996416,-3.8470192189712358,-5.703642162855655,0.002121780565203438,0.005754018830002444,-0.4623671772920876
12864,2.0,300.7484,44636.952000000005,0.0,0.0,-0.1286399964615944,0.0,0.0,0.0,-3.9926280206167064,-3.846816467626226,-5.729074436390624,-0.0013979093235379086,-0.0014748599944323486,-0.4268102047828876
12865,2.0,300.55298999999997,44559.587999999996,0.0,0.0,-0.12865000088196854,0.0,0.0,0.0,-3.9663286076461564,-3.8645916101554967,-5.7140817799609644,0.005155015261760395,-0.005106955492292265,-0.4554412379560505
12866,2.0,299.86592,44392.717000000004,0.0,0.0,-0.12866000530234267,0.0,0.0,0.0,-3.9456116961015564,-3.8509692731610765,-5.697696512593865,0.0005828970257124574,-0.0015468942745165784,-0.4380838787080126
12867,2.0,300.39018,44422.780999999995,0.0,0.0,-0.12867000972271703,0.0,0.0,0.0,-3.9597038771673465,-3.839620973366086,-5.704091336624985,0.011150979470515989,-0.007024906918354333,-0.46618995713686656
12868,2.0,299.88667999999996,44641.157,0.0,0.0,-0.12868001414309116,0.0,0.0,0.0,-3.9751668842934262,-3.860080418060276,-5.734549837281004,0.014241548316031385,-0.0027707199354737675,-0.45016286354761553
12869,2.0,299.78766,44584.887,0.0,0.0,-0.12868998565418777,0.0,0.0,0.0,-3.9932389091019957,-3.835132376748096,-5.724320976196495,0.01044215023055999,-0.008051354296931804,-0.4712376347625335
12870,2.0,299.81597,44564.708,0.0,0.0,-0.1286999900745619,0.0,0.0,0.0,-3.984250164814876,-3.8408584557132164,-5.721449830713135,0.006210126573741774,0.003627201398551907,-0.45184146432578054
12871,2.0,299.79524,44354.927,0.0,0.0,-0.12870999449493603,0.0,0.0,0.0,-3.965519527441306,-3.8138413576968366,-5.703429380334654,-0.014438997323268086,-0.006296066698198405,-0.48496646434246354
12872,2.0,300.37732,44396.747,0.0,0.0,-0.12871999891531016,0.0,0.0,0.0,-3.9572548516756463,-3.8247556824739966,-5.713491967077754,-0.002152881770397888,-0.0017691303176245682,-0.4380873237583526
12873,2.0,300.19552999999996,44560.057,0.0,0.0,-0.1287300033356843,0.0,0.0,0.0,-3.9596724664142466,-3.8400066163541466,-5.745465580608304,0.003451870323773077,0.006613883129864443,-0.46084769730962655
12874,2.0,300.13901,44751.097,0.0,0.0,-0.12874000775605854,0.0,0.0,0.0,-3.9834636800872563,-3.856234222005686,-5.763518252339964,0.010249753288321891,0.02226964234234258,-0.42343297127208057
12875,2.0,300.25047,44606.255,0.0,0.0,-0.12875001217643267,0.0,0.0,0.0,-3.9707463780821564,-3.861310098381636,-5.727131124023835,0.0008970932464937102,0.0020612853799080277,-0.45981785017298854
12876,2.0,299.86772,44478.524000000005,0.0,0.0,-0.1287599836875294,0.0,0.0,0.0,-3.9741010465132365,-3.843437582517756,-5.702822038224714,-0.01243863390959759,0.003939276856476355,-0.44944033516630755
12877,2.0,299.36347,44625.357,0.0,0.0,-0.12876998810790352,0.0,0.0,0.0,-3.9694658326057763,-3.868716956612636,-5.726811443617285,0.006520795640527424,0.000921638916058679,-0.4633930930183376
12878,2.0,299.62865,44683.725999999995,0.0,0.0,-0.12877999252827765,0.0,0.0,0.0,-3.982124974055136,-3.8566764043493262,-5.743935674282315,0.015287542606262984,-0.002973604421546907,-0.44951602494877757
12879,2.0,299.23847,44513.240999999995,0.0,0.0,-0.12878999694865179,0.0,0.0,0.0,-3.918596117960326,-3.851754845963607,-5.7605630070983045,0.00012787611429538988,0.003498346484659916,-0.4582100350468095
12880,2.0,299.62991,44460.492,0.0,0.0,-0.12880000136902592,0.0,0.0,0.0,-3.961889254983026,-3.8262455654210363,-5.726744569110685,0.003647157865896457,-0.0031582077479908374,-0.4588994301498476
12881,2.0,299.68003,44559.375,0.0,0.0,-0.12881000578940016,0.0,0.0,0.0,-3.973969324000236,-3.8346630393017764,-5.736305090429235,0.0006291774165474764,0.027533814024125875,-0.44215858292515464
12882,2.0,300.17312000000004,44682.718,0.0,0.0,-0.1288200102097743,0.0,0.0,0.0,-4.014202243070916,-3.8453300297295265,-5.722898170406075,-0.009018522491658871,0.016743194925174683,-0.4568106150686976
12883,2.0,300.5577,44900.817,0.0,0.0,-0.12883001463014843,0.0,0.0,0.0,-3.9868526976967256,-3.9000074369257667,-5.761867059977003,-0.007781511812450423,0.002937653193423797,-0.44026049191032757
12884,2.0,299.83968,44731.46400000001,0.0,0.0,-0.12883998614124514,0.0,0.0,0.0,-3.993787989331186,-3.846649281359726,-5.756810840652995,-0.013412333818444287,-0.004342212072067965,-0.43407542078240857
12885,2.0,299.85549,44581.165,0.0,0.0,-0.12884999056161928,0.0,0.0,0.0,-3.9346299901927466,-3.8655810488781466,-5.751349929239044,-0.007405436945084723,0.014026650128822588,-0.43094046550301257
12886,2.0,300.42758,44627.676,0.0,0.0,-0.1288599949819934,0.0,0.0,0.0,-3.998054177552226,-3.832240966262736,-5.735404007115304,0.004353583879265276,-0.004813481685003655,-0.4436616685209976
12887,2.0,300.42811,44688.373,0.0,0.0,-0.12886999940236743,0.0,0.0,0.0,-3.9833811002041064,-3.8582781501074064,-5.742490171689654,-0.005247236827561955,0.006403463001472594,-0.46118921325583156
12888,2.0,300.46555,44669.865999999995,0.0,0.0,-0.12888000382274156,0.0,0.0,0.0,-4.011792531683096,-3.8506058203502063,-5.7161255054126645,0.014025748336233587,-0.005490184209338995,-0.47283228776991354
12889,2.0,300.3285,44577.273,0.0,0.0,-0.12889000824311592,0.0,0.0,0.0,-3.949568640392076,-3.8506843472329564,-5.750125112518165,0.003333217723812977,-0.0012356750129266288,-0.4651945199736246
12890,2.0,300.13139,44580.441,0.0,0.0,-0.12890001266349005,0.0,0.0,0.0,-3.9528481256657364,-3.8560827411157366,-5.742410124931754,0.014958649729803786,-0.014719475083449087,-0.45791203819239956
12891,2.0,300.31492000000003,44682.63,0.0,0.0,-0.12890998417458654,0.0,0.0,0.0,-3.936261626828776,-3.8770108139811756,-5.769131353918935,0.0032858122099344166,-0.011720470609720389,-0.4567939876345566
12892,2.0,299.65785,44780.084,0.0,0.0,-0.12891998859496068,0.0,0.0,0.0,-4.007739024658046,-3.8632489524479863,-5.7410395015214855,0.006195207377944364,-0.014065732198429687,-0.4334207193627945
12893,2.0,299.54835,44639.502,0.0,0.0,-0.12892999301533503,0.0,0.0,0.0,-3.997596188507026,-3.8540692105170167,-5.717628661936015,0.0010140509728790391,0.0037567709577394264,-0.4679678665573325
12894,2.0,299.64156,44488.629,0.0,0.0,-0.12893999743570916,0.0,0.0,0.0,-3.9832913262452463,-3.8378494068912463,-5.702291500472354,0.001978420672154918,-0.01826267490763568,-0.44735921065341655
12895,2.0,299.81041,44593.973,0.0,0.0,-0.12895000185608319,0.0,0.0,0.0,-3.9473787029509464,-3.868980806938676,-5.739094973254574,0.0055876144886046145,-0.002026596560084508,-0.46851282285861556
12896,2.0,299.95477999999997,44802.630999999994,0.0,0.0,-0.12896000627645732,0.0,0.0,0.0,-3.9627925674471762,-3.8623524287595066,-5.793736207422245,0.003048905622603557,-0.006822870826589924,-0.42508022209215157
12897,2.0,300.64703,44807.41099999999,0.0,0.0,-0.12897001069683145,0.0,0.0,0.0,-3.989060569664626,-3.863888313261086,-5.767385220021604,-0.0037799150085735663,0.011792589698837988,-0.4641170399497856
12898,2.0,300.33609,44640.949,0.0,0.0,-0.1289800151172058,0.0,0.0,0.0,-3.9961125877106065,-3.838274363983186,-5.735346758484654,0.002202281056498218,-0.012437452459980987,-0.45874691574479554
12899,2.0,300.02966000000004,44621.203,0.0,0.0,-0.1289899866283023,0.0,0.0,0.0,-4.001502267642526,-3.858616170340767,-5.703613183902794,-0.007277483621131713,0.009186629903824782,-0.5083030833581086
12900,2.0,300.3575,44852.514,0.0,0.0,-0.12899999104867654,0.0,0.0,0.0,-3.9995582460006665,-3.8956872424743967,-5.738798800250345,0.001112880550532759,-0.014007859405718089,-0.4726253415694896
12901,2.0,299.95544,44730.757000000005,0.0,0.0,-0.12900999546905068,0.0,0.0,0.0,-3.979919736537496,-3.8679222645592066,-5.749191098575984,-0.0005939604806393353,0.003881317532206216,-0.4869985374180136
12902,2.0,299.98607000000004,44529.167,0.0,0.0,-0.1290199998894248,0.0,0.0,0.0,-3.9308796475976164,-3.8474121573600164,-5.757463069742364,0.0025768506395153572,-0.014586306662556385,-0.4412082759213666
12903,2.0,299.9512,44526.032999999996,0.0,0.0,-0.12903000430979894,0.0,0.0,0.0,-3.970322028940276,-3.839400996769376,-5.725079393896345,0.004650904895858576,0.014124585817238086,-0.4439957370789676
12904,2.0,300.44284,44771.084,0.0,0.0,-0.12904000873017307,0.0,0.0,0.0,-3.997174271165386,-3.860225110174556,-5.751892322017575,0.014692425358779486,0.016640598286299182,-0.4244492408573786
12905,2.0,300.0416,44918.736,0.0,0.0,-0.12905001315054732,0.0,0.0,0.0,-4.029916738871816,-3.887327422524346,-5.736930063090915,-0.014446226862731587,0.025422502764255676,-0.4742910335413806
12906,2.0,300.34416,44911.518,0.0,0.0,-0.12905998466164392,0.0,0.0,0.0,-4.003208884785956,-3.8738265742169165,-5.774944673717664,0.00042785641590864054,-0.00997034491229643,-0.4599859686295805
12907,2.0,299.33362,44673.163,0.0,0.0,-0.12906998908201817,0.0,0.0,0.0,-3.949756294310596,-3.8731859975036964,-5.7565838726305945,-0.00989069362591046,0.005984369790511313,-0.48805319904960054
12908,2.0,300.03955,44665.04,0.0,0.0,-0.1290799935023923,0.0,0.0,0.0,-3.941400426035936,-3.8721952415559167,-5.763461003709315,0.011835966935618988,0.003126579044794327,-0.44590012037691557
12909,2.0,300.23553,44724.513,0.0,0.0,-0.12908999792276643,0.0,0.0,0.0,-3.9771207344612565,-3.857928578822906,-5.7600858676262146,-0.014483222650382785,0.013827108760129388,-0.4648249977946556
12910,2.0,300.49048,44812.361,0.0,0.0,-0.12910000234314056,0.0,0.0,0.0,-4.028662841873066,-3.8639208385892965,-5.729254997558445,0.0032129614529196066,-0.01000121793356836,-0.4560206852907376
12911,2.0,299.86163999999997,44740.865999999995,0.0,0.0,-0.1291100067635147,0.0,0.0,0.0,-4.020364019579036,-3.843072508506726,-5.736669657815215,0.005081317934287035,0.014622998475177588,-0.47699391871313457
12912,2.0,299.92666,44722.77099999999,0.0,0.0,-0.12912001118388894,0.0,0.0,0.0,-4.008373319220646,-3.847449242313676,-5.738782993548784,0.006267706435849464,0.007313427655179114,-0.4484078130494056
12913,2.0,299.60986,44923.334,0.0,0.0,-0.12913001560426307,0.0,0.0,0.0,-3.9676514056517065,-3.8793606422880864,-5.808559651085204,-0.0015090225321539284,0.004908989930154586,-0.44844639761321353
12914,2.0,299.93458,45049.962,0.0,0.0,-0.12913998711535957,0.0,0.0,0.0,-4.016750364422396,-3.8691637999067363,-5.8081492847947045,0.0014910538588555585,-0.0033096317946102265,-0.4211303198898266
12915,2.0,299.55228999999997,44838.129,0.0,0.0,-0.12914999153573392,0.0,0.0,0.0,-3.9933898833668966,-3.861229544998686,-5.775052179553275,-0.005022511634258305,0.024990712313641274,-0.4359898149913446
12916,2.0,299.65283999999997,44609.365999999995,0.0,0.0,-0.12915999595610805,0.0,0.0,0.0,-3.9888770700715166,-3.8480316584711565,-5.723224639588294,0.016855586652766884,0.01019884962979809,-0.46254766753240056
12917,2.0,299.76149,44636.892,0.0,0.0,-0.12917000037648219,0.0,0.0,0.0,-3.9600236588989066,-3.860809958132276,-5.747667069100574,-0.006851146786530544,0.019994407481294378,-0.4776993839627585
12918,2.0,299.64288999999997,44850.820999999996,0.0,0.0,-0.1291800047968562,0.0,0.0,0.0,-4.0038776298519565,-3.8786251240404965,-5.751026905107165,0.0074924303430203044,-0.01664958581468618,-0.4912024006254025
12919,2.0,300.28806000000003,45013.60400000001,0.0,0.0,-0.12919000921723034,0.0,0.0,0.0,-3.988432861227676,-3.8898256919709064,-5.8047530731095245,-0.010960896791506289,0.003669460716497577,-0.4579135378025475
12920,2.0,300.42383,44755.85,0.0,0.0,-0.1292000136376047,0.0,0.0,0.0,-4.000102057329336,-3.8573267082635065,-5.747232182157654,0.004135668942533746,0.0033364858606855174,-0.46560514970915057
12921,2.0,299.96462,44673.431,0.0,0.0,-0.1292099851487012,0.0,0.0,0.0,-3.9807501963194567,-3.858211782225857,-5.740645651207615,-0.008728416423727632,0.010394907444647489,-0.4215484780735956
12922,2.0,300.01274,44937.291,0.0,0.0,-0.12921998956907532,0.0,0.0,0.0,-4.039432170560916,-3.861644369589626,-5.7587378396931745,0.009141301552651221,-0.0032317610926249868,-0.4537827603248715
12923,2.0,299.9672,45118.191,0.0,0.0,-0.12922999398944945,0.0,0.0,0.0,-4.028339513766157,-3.8910415920909065,-5.795422458238664,-0.0028764881484872776,0.0025981219001896677,-0.43338957205472056
12924,2.0,299.41046,44859.051,0.0,0.0,-0.1292399984098238,0.0,0.0,0.0,-3.989991442531496,-3.8750518975628467,-5.770987932077165,0.017111412038014882,-0.0028540147678943273,-0.4774461727627685
12925,2.0,300.05543,44709.528,0.0,0.0,-0.12925000283019794,0.0,0.0,0.0,-3.943106637879326,-3.871654469977546,-5.775819007228954,0.0013352595632298587,0.0025280288046470173,-0.46128538082282255
12926,2.0,300.36194,44747.499,0.0,0.0,-0.12926000725057218,0.0,0.0,0.0,-3.9784551848429563,-3.870914290779496,-5.7527529766525145,0.02064576010932788,-0.00880201546594129,-0.4638769908685945
12927,2.0,300.14287,44933.855,0.0,0.0,-0.1292700116709461,0.0,0.0,0.0,-4.012408790393916,-3.8832973215766065,-5.763063708345104,-0.008085101807412422,0.007964985567682872,-0.45131451347877455
12928,2.0,300.23629,44969.598,0.0,0.0,-0.12928001609132023,0.0,0.0,0.0,-4.0297712361574565,-3.882644788512206,-5.757218876468265,-0.005584569165429065,0.002140073275883788,-0.4669631986856796
12929,2.0,299.94485,44775.468,0.0,0.0,-0.12928998760241694,0.0,0.0,0.0,-3.9953693687622565,-3.8666168944553765,-5.748637864021385,-0.02083902439365158,-0.004873468117423855,-0.4607848758034266
12930,2.0,299.79737,44826.619000000006,0.0,0.0,-0.12929999202279108,0.0,0.0,0.0,-3.9803303054780166,-3.8848765731824666,-5.760965875338065,-0.026747596794532275,-0.01091884488585609,-0.46222523108557856
12931,2.0,300.60508,45099.304000000004,0.0,0.0,-0.12930999644316532,0.0,0.0,0.0,-4.0191625076104565,-3.8949121061478964,-5.794987773945765,0.008698798008729521,-0.008475609105227492,-0.4724634546010126
12932,2.0,300.37647000000004,45071.685999999994,0.0,0.0,-0.12932000086353945,0.0,0.0,0.0,-4.038040370223556,-3.8889785135622965,-5.773648118889704,0.006656221886617953,0.0008409068971160493,-0.45375493647712556
12933,2.0,300.18847,44807.735,0.0,0.0,-0.12933000528391358,0.0,0.0,0.0,-4.004301472368787,-3.870320222245866,-5.7458109975673946,0.023744791619678476,-0.009006636054735772,-0.46089226004902456
12934,2.0,300.43289,44707.13,0.0,0.0,-0.12934000970428772,0.0,0.0,0.0,-3.9815910925774465,-3.8629690927703666,-5.745290997616075,0.0009184295375594381,-0.024941519021286277,-0.45729616451661753
12935,2.0,300.49957,44871.139,0.0,0.0,-0.12935001412466185,0.0,0.0,0.0,-3.986113937048817,-3.882304133828586,-5.771287752781754,0.00969078313020583,-0.014636420999252286,-0.4816592869435706
12936,2.0,300.15686,45120.34,0.0,0.0,-0.12935998563575835,0.0,0.0,0.0,-3.9977186904441164,-3.9177025326971364,-5.800035380643924,-0.0035223916188079863,-0.022155648666342277,-0.46836642848416754
12937,2.0,299.52535,44971.42,0.0,0.0,-0.1293699900561327,0.0,0.0,0.0,-4.011024082807256,-3.876366893542626,-5.782797767292704,0.005201652934713175,0.0020580309219118383,-0.46709426258611453
12938,2.0,299.71688,44786.72900000001,0.0,0.0,-0.12937999447650694,0.0,0.0,0.0,-3.994455822472096,-3.8727391542095964,-5.746852314695165,0.0014133898598907187,0.01055235536443639,-0.4454370144187106
12939,2.0,299.91287,44782.051,0.0,0.0,-0.12938999889688108,0.0,0.0,0.0,-3.9966198207106665,-3.887652473156426,-5.728353002319425,0.007141762519262082,0.004439722094116456,-0.46005914555180255
12940,2.0,299.79646,45018.761,0.0,0.0,-0.1294000033172552,0.0,0.0,0.0,-4.012766265029196,-3.8908644759734266,-5.780948383210185,-0.01749707833082718,-0.0009654559337805822,-0.44390403794491756
12941,2.0,299.73187,45130.876,0.0,0.0,-0.12941000773762934,0.0,0.0,0.0,-4.025097518746197,-3.9008330331072463,-5.792728935497835,-0.0025019280900210774,0.0042587527891561755,-0.4456292380951816
12942,2.0,300.29371000000003,44991.727,0.0,0.0,-0.12942001215800347,0.0,0.0,0.0,-3.9899663139290165,-3.8954656446775258,-5.790929707295264,0.005232247008232575,0.02059659822772598,-0.4572816142451816
12943,2.0,299.9487,44845.808,0.0,0.0,-0.12942998366909997,0.0,0.0,0.0,-4.020565149723886,-3.870103893349517,-5.7413369917508446,-0.007566473391427783,0.00993037635017684,-0.4742611831934345
12944,2.0,300.40291,45004.183,0.0,0.0,-0.1294399880894742,0.0,0.0,0.0,-4.0281412207215865,-3.8948895106706667,-5.757117247483235,0.0014047756128405587,0.0007408209197358323,-0.46971052500681953
12945,2.0,299.95878999999996,45076.876,0.0,0.0,-0.12944999250984834,0.0,0.0,0.0,-4.050904390843136,-3.8703905418028066,-5.7809498017603245,0.00045762254250632863,-0.008515012679091322,-0.45367774708450753
12946,2.0,299.78434,44966.441,0.0,0.0,-0.1294599969302227,0.0,0.0,0.0,-4.0035446758690965,-3.8822790052261067,-5.782851672198024,0.014991740451569587,0.006880841600586193,-0.46751605833774257
12947,2.0,299.66011000000003,44886.93,0.0,0.0,-0.12947000135059683,0.0,0.0,0.0,-3.9822649038939457,-3.8831922475412357,-5.779048640597694,-0.007338299702733794,-0.0076647581445027325,-0.4653338418623746
12948,2.0,299.78365,44935.74,0.0,0.0,-0.12948000577097096,0.0,0.0,0.0,-4.000191628638176,-3.8702885075177362,-5.788862879741284,-0.014509533715729486,0.017520290877368085,-0.46305816319778254
12949,2.0,300.3243,45125.007000000005,0.0,0.0,-0.12949001019134498,0.0,0.0,0.0,-4.0528917795892765,-3.8842723721478363,-5.779711306163095,0.0006220440446509674,0.015551028162266984,-0.4408707319155536
12950,2.0,300.04413,45244.732,0.0,0.0,-0.12950001461171912,0.0,0.0,0.0,-4.063836603194446,-3.8919579754813465,-5.797474087041144,-0.008483102495017032,0.009049711849612022,-0.4455533963251966
12951,2.0,299.64668,45066.803,0.0,0.0,-0.12950998612281583,0.0,0.0,0.0,-4.022056653871086,-3.898962168122606,-5.778163870610374,-0.0003362289085082097,-0.01156082900346499,-0.44536216563382364
12952,2.0,299.9958,44880.134000000005,0.0,0.0,-0.12951999054318997,0.0,0.0,0.0,-3.9826212639541168,-3.8766899176745064,-5.783128796100375,0.006889034943544813,-0.004143912745347346,-0.4500187996483975
12953,2.0,300.09326,45066.652,0.0,0.0,-0.1295299949635641,0.0,0.0,0.0,-4.000592977002786,-3.8795891301856362,-5.818954583861104,0.014565414458744486,0.015597721766625286,-0.4591047855476145
12954,2.0,299.63436,45171.127,0.0,0.0,-0.12953999938393823,0.0,0.0,0.0,-4.048469550852836,-3.8837181243431362,-5.798706908437814,0.016028373324127286,0.017882485231613884,-0.47763324912873156
12955,2.0,300.50804,45049.365,0.0,0.0,-0.12955000380431259,0.0,0.0,0.0,-4.025102179696656,-3.881114172911146,-5.787665826073145,0.009243236640536431,0.0012267994486756786,-0.4837922189340746
12956,2.0,299.75456,44866.257000000005,0.0,0.0,-0.12956000822468672,0.0,0.0,0.0,-4.019604993929126,-3.8642012048919665,-5.754415517416595,-0.0026770599598302477,0.01149338302380859,-0.47781003087367857
12957,2.0,299.89603,45021.392,0.0,0.0,-0.12957001264506074,0.0,0.0,0.0,-4.016493809497076,-3.874589247567186,-5.794295825452474,-0.004897580835353595,-0.007859180269715701,-0.4521583177645516
12958,2.0,300.21504,45232.124,0.0,0.0,-0.12957998415615746,0.0,0.0,0.0,-4.031233052076725,-3.903567491152116,-5.814635605309854,-0.008506069835033731,-0.007771931026129873,-0.4630605443355176
12959,2.0,300.26818,45252.074,0.0,0.0,-0.1295899885765316,0.0,0.0,0.0,-4.012704152798066,-3.939119701385846,-5.803676494878275,-0.004366350830525276,-0.026420129560963772,-0.44979925874923055
12960,2.0,300.66607,45066.142,0.0,0.0,-0.12959999299690572,0.0,0.0,0.0,-4.015131089437586,-3.892741015158626,-5.791109660513024,0.0016488972501584884,0.03224523244510667,-0.46121015713539854
12961,2.0,300.35722000000004,44940.482,0.0,0.0,-0.12960999741727985,0.0,0.0,0.0,-4.004129321176796,-3.8978004768829564,-5.758854667429704,0.0033110328155234966,-0.0014375344951986085,-0.4457817119702296
12962,2.0,300.28917,45000.84,0.0,0.0,-0.1296200018376541,0.0,0.0,0.0,-4.029047167635996,-3.8812927075787664,-5.768791712485415,-0.007265064113331003,0.0024144540062380577,-0.47707581971871754
12963,2.0,300.08537,45103.844000000005,0.0,0.0,-0.12963000625802823,0.0,0.0,0.0,-4.018084206854036,-3.889894896952736,-5.802463330533545,0.0005601396615139805,-0.03231789666277807,-0.4555478217340696
12964,2.0,300.26818,44961.855,0.0,0.0,-0.12964001067840236,0.0,0.0,0.0,-3.983745059640026,-3.896501692904776,-5.787034368610825,0.008786437150953832,0.006458257439055384,-0.47819269490644456
12965,2.0,299.94527,44918.736,0.0,0.0,-0.1296500150987765,0.0,0.0,0.0,-3.9992150581917962,-3.8767643915568564,-5.778194774738425,0.008594991954534663,0.0025873549019770473,-0.4602394128770935
12966,2.0,299.50764,45093.559,0.0,0.0,-0.1296599866098732,0.0,0.0,0.0,-4.032656972442257,-3.8865825823758366,-5.788076192363644,-0.017477636087908383,-0.008024100807667092,-0.4840295626374985
12967,2.0,299.54791,45265.602999999996,0.0,0.0,-0.12966999103024712,0.0,0.0,0.0,-4.070848496536467,-3.9013135163046666,-5.787451118376954,0.004171723826142086,-0.017658070599465885,-0.45578389887486853
12968,2.0,300.47262,45245.204000000005,0.0,0.0,-0.12967999545062148,0.0,0.0,0.0,-4.043670798379236,-3.9039586056907165,-5.805782940511165,-0.007434509623578972,0.007848402227076993,-0.4485855067194426
12969,2.0,300.03166,45057.785,0.0,0.0,-0.12968999987099572,0.0,0.0,0.0,-4.011027325207577,-3.902578761704536,-5.782835358871415,0.03180034978995017,-0.01094136943557909,-0.4528377120891025
12970,2.0,300.07815,45014.4,0.0,0.0,-0.12970000429136985,0.0,0.0,0.0,-3.989075059141056,-3.9019925965216866,-5.792186036094255,-0.010432104869068589,-0.01753204559177818,-0.4397871014636076
12971,2.0,300.27689,45132.645,0.0,0.0,-0.12971000871174398,0.0,0.0,0.0,-4.021375952453907,-3.9118898208484665,-5.785931243226954,0.011616511149460388,0.0023504954307758375,-0.46354142270047655
12972,2.0,300.75675,45145.776,0.0,0.0,-0.12972001313211812,0.0,0.0,0.0,-4.002662540332036,-3.9149750660779565,-5.805551007563275,-0.0027026596222817375,0.02164605985979978,-0.46557631261130455
12973,2.0,300.59725,45044.939000000006,0.0,0.0,-0.12972998464321484,0.0,0.0,0.0,-4.018405812435776,-3.8868245464997164,-5.787306324937664,0.0038817817020770262,0.012215238607050188,-0.48184215832161853
12974,2.0,299.75023,45026.653,0.0,0.0,-0.12973998906358875,0.0,0.0,0.0,-3.9971106390591062,-3.911782618987886,-5.778084837102575,-0.015995640279646783,-0.0074772095026681236,-0.46646736474924455
12975,2.0,299.50246,45104.695,0.0,0.0,-0.129749993483963,0.0,0.0,0.0,-4.015999444773286,-3.8901890434567665,-5.804512628860794,0.009257804441199162,-0.00030920062421072573,-0.48313796334450454
12976,2.0,300.04519,45322.367,0.0,0.0,-0.12975999790433712,0.0,0.0,0.0,-4.0308591627898265,-3.9121089868450967,-5.833899718861074,0.005555473182182515,0.027343457767589174,-0.43980707262307855
12977,2.0,299.36321,45302.539000000004,0.0,0.0,-0.12977000232471148,0.0,0.0,0.0,-4.035658320563466,-3.914336515864936,-5.820845713847745,0.012124732068367889,-0.0040318990613674565,-0.4721840610184385
12978,2.0,299.76065,45233.361,0.0,0.0,-0.1297800067450856,0.0,0.0,0.0,-4.039251305418066,-3.883749231121206,-5.826811831761554,-0.015792898053887682,-0.015701306324348286,-0.4396011599377566
12979,2.0,300.28042999999997,45140.248,0.0,0.0,-0.12979001116545974,0.0,0.0,0.0,-4.049683323147626,-3.8801156149375964,-5.791709301922205,-0.0019868165638085283,-0.016746240754975286,-0.4672707302235306
12980,2.0,300.21787,45266.555,0.0,0.0,-0.12980001558583376,0.0,0.0,0.0,-4.038765553320126,-3.8955691988377463,-5.825567661963764,0.004206802645929096,0.017432381298692085,-0.43675510252687255
12981,2.0,300.44782999999995,45254.949,0.0,0.0,-0.1298099870969306,0.0,0.0,0.0,-4.031269833055356,-3.9006383877630357,-5.824466259105065,1.3678368711699888e-05,-0.0033094530572925873,-0.46876251808075853
12982,2.0,300.37552,45238.632000000005,0.0,0.0,-0.1298199915173046,0.0,0.0,0.0,-4.029317502762676,-3.9058420349765965,-5.816255082944685,0.005523135609216045,-0.004165057653734186,-0.4492906173315315
12983,2.0,300.43381,45157.3,0.0,0.0,-0.12982999593767874,0.0,0.0,0.0,-4.026265188161436,-3.8960794715881066,-5.804346962469444,0.0008791676261920891,0.007305878840609102,-0.46755710509929355
12984,2.0,301.04816,45170.707,0.0,0.0,-0.12984000035805288,0.0,0.0,0.0,-4.035531360325936,-3.9006578421649563,-5.794577914280314,0.013948459645105788,0.030691286760494173,-0.4510265680653566
12985,2.0,300.97156,45317.273,0.0,0.0,-0.129850004778427,0.0,0.0,0.0,-4.051193065796626,-3.9141189710684663,-5.8100073828280845,-0.012730523905654887,0.007178939780006192,-0.45068606536925154
12986,2.0,300.32394,45453.952000000005,0.0,0.0,-0.12986000919880136,0.0,0.0,0.0,-4.067850593465596,-3.918419103167856,-5.830596726185095,-0.015445914610143085,0.00012692243316876885,-0.4479103477803096
12987,2.0,299.87192999999996,45337.121,0.0,0.0,-0.1298700136191755,0.0,0.0,0.0,-4.041414594381566,-3.9166091345142258,-5.823328987192824,-0.0066945053124962345,0.0054119371862666145,-0.45108910586152856
12988,2.0,299.71004,45226.974,0.0,0.0,-0.129879985130272,0.0,0.0,0.0,-4.037811781000996,-3.8861682644099464,-5.823890733048265,0.001313582090590459,0.00921377092232839,-0.4639845473667095
12989,2.0,299.9778,45278.0,0.0,0.0,-0.12988998955064623,0.0,0.0,0.0,-4.013091416986287,-3.9239881283674762,-5.826301862986225,-0.0017766426551909782,-0.01015207800518209,-0.46488459716553754
12990,2.0,300.42757,45285.274000000005,0.0,0.0,-0.12989999397102037,0.0,0.0,0.0,-4.044521117863156,-3.903394732010067,-5.817676774159994,0.0007370006122212972,-0.013367498514769387,-0.48098304382683055
12991,2.0,299.76684,45242.91099999999,0.0,0.0,-0.1299099983913945,0.0,0.0,0.0,-4.015593638108236,-3.914685783174406,-5.822435807229675,0.009129695380705781,0.005448839856233625,-0.4746266929020075
12992,2.0,299.83984,45161.943,0.0,0.0,-0.12992000281176863,0.0,0.0,0.0,-4.030990277352767,-3.8975982321629967,-5.799514367442504,0.02020908174023108,0.016610089325788183,-0.4963703915679435
12993,2.0,299.77887000000004,45232.84099999999,0.0,0.0,-0.12993000723214287,0.0,0.0,0.0,-4.016648634112356,-3.9188290641583166,-5.814176501689545,-0.0005714592356686355,0.006149254864709204,-0.45305699967574453
12994,2.0,300.31557000000004,45360.799000000006,0.0,0.0,-0.129940011652517,0.0,0.0,0.0,-4.0615014670139855,-3.926145337830376,-5.800903634654614,0.005289658670823665,-0.009706397820871881,-0.45909782451942754
12995,2.0,300.5704,45494.574,0.0,0.0,-0.12995001607289114,0.0,0.0,0.0,-4.063107063122446,-3.940881338009706,-5.825226095355053,0.0013781326067610986,0.00015161402088063885,-0.4327122447603736
12996,2.0,300.1642,45287.577000000005,0.0,0.0,-0.12995998758398786,0.0,0.0,0.0,-4.068257514705756,-3.900840125857946,-5.797194936638594,-0.008081518245783752,-0.007606197861598283,-0.4468533050109875
12997,2.0,300.1086,45271.977999999996,0.0,0.0,-0.129969992004362,0.0,0.0,0.0,-4.035769170124406,-3.9156573886952963,-5.810124413214635,-0.0018425470761452383,-0.02211352178018468,-0.44767114982920253
12998,2.0,300.33948,45422.165,0.0,0.0,-0.1299799964247359,0.0,0.0,0.0,-4.059642457055516,-3.922630373233476,-5.824931138250944,-0.0005308206213904165,-0.007581672649552833,-0.4635428615156185
12999,2.0,300.10983,45342.039000000004,0.0,0.0,-0.12999000084511025,0.0,0.0,0.0,-4.044363861447636,-3.922988151843786,-5.815495753319745,-0.006502168759964093,0.0059275113624748235,-0.47486611376813653
13000,2.0,299.70309,45105.169,0.0,0.0,-0.1300000052654845,0.0,0.0,0.0,-4.017422047913686,-3.893616463245026,-5.799806588771345,0.010488985689932291,0.012190157627324887,-0.4827253881687866
