,case,Temp,Pressure,e11,e22,e33,e12,e23,e13,s11,s22,s33,s12,s23,s13
0,1.0,300.0,149.82622,0.0,0.0,0.0,0.0,0.0,0.0,-0.009295542535873622,-0.017348715211434884,-0.01889917126270298,-0.02314068887030818,-0.015225639104653587,0.0072585791100409835
1,1.0,300.79689,-162.3168,0.0,-9.995987419131325e-06,0.0,0.0,0.0,0.0,0.02226138435402758,0.014751610310370587,0.012327258471855687,-0.017170365968583182,0.01990783032649988,0.003418105588040757
2,1.0,300.58426000000003,-23.824701,0.0,-1.9991974838484694e-05,0.0,0.0,0.0,0.0,0.01089654527765529,0.0027323733841142575,-0.006386804257903504,-0.0007727294927424633,0.017576769437942084,0.009191467869077251
3,1.0,299.32966,282.65583,0.0,-2.9987962257949086e-05,0.0,0.0,0.0,0.0,-0.03694109545055226,-0.024843829552645077,-0.02413538940072748,0.017598834985369783,0.0018488567871679583,-0.007164848308215473
4,1.0,298.84044,218.67279,0.0,-3.998394967708041e-05,0.0,0.0,0.0,0.0,-0.017454834920908085,-0.03252304738402487,-0.016493186608750786,0.023455598895387376,-0.007246057162655164,-0.022289969152598683
5,1.0,299.18894,202.59384,0.0,-5.001292715389738e-05,0.0,0.0,0.0,0.0,-0.02394669183460448,-0.03180547379570587,-0.005831303974754895,0.015787816604636185,-0.01060788450966669,-0.01846993724209088
6,1.0,299.88852,322.04837000000003,0.0,-6.000891457325075e-05,0.0,0.0,0.0,0.0,-0.054767189261100746,-0.02139534429480608,-0.021732130389544278,-0.0011343918501557587,-0.022211085605813478,0.008377698545414472
7,1.0,300.28439,424.23186,0.0,-7.00049019924931e-05,0.0,0.0,0.0,0.0,-0.05129682286735225,-0.044422047595114755,-0.033237022921238764,-0.012844647277667988,-0.008767756264160173,0.0016555966571696688
8,1.0,299.77244,517.75752,0.0,-8.000088941184647e-05,0.0,0.0,0.0,0.0,-0.04822003827619725,-0.051611495791908046,-0.05755382563312035,-0.005385562792788665,-0.002098618073217478,0.004351916981525766
9,1.0,299.86357999999996,441.70995999999997,0.0,-8.999687683108881e-05,0.0,0.0,0.0,0.0,-0.05030363106633186,-0.046570692054919455,-0.03739447420779726,-0.020061050966871583,0.02083129228213848,0.00893466591338287
10,1.0,299.7835,123.52498999999999,0.0,-9.999286425044218e-05,0.0,0.0,0.0,0.0,-0.017255035173439383,-0.007678261120635373,-0.012615215031024788,-0.003596686054565277,0.00978821584127169,0.018516508243187086
11,1.0,299.90731,76.46503,0.0,-0.00010998885166979555,0.0,0.0,0.0,0.0,-0.011667325641975389,-0.006276637019580844,-0.005299497227969655,-0.006479029268755404,0.0022981397848587377,0.012898948363777089
12,1.0,299.33567,376.67814,0.0,-0.0001199848390890379,0.0,0.0,0.0,0.0,-0.045040974193448054,-0.03862226887072116,-0.030837505842674872,0.015358958499811184,-0.017455847157757984,0.006011169242406214
13,1.0,299.61652999999995,457.26529000000005,0.0,-0.00013001381656585487,0.0,0.0,0.0,0.0,-0.041647427356031066,-0.04210861725829696,-0.05524118563138054,0.012691385094042187,0.00869739465734102,0.0043467660233174055
14,1.0,300.16045,288.88383999999996,0.0,-0.00014000980398520824,0.0,0.0,0.0,0.0,-0.019786561514781583,-0.03607841836841267,-0.03194849303407077,0.0051729709654574855,-0.0025618710540119874,-0.0030509064875760272
15,1.0,300.26996,341.9617,0.0,-0.00015000579140445058,0.0,0.0,0.0,0.0,-0.02152861201420858,-0.05618392163042135,-0.026235284371720975,-0.006089492157911084,0.0030018390408834473,-0.005976618731221344
16,1.0,300.47866,530.27932,0.0,-0.00016000177882380395,0.0,0.0,0.0,0.0,-0.06416055268415354,-0.05007841799310505,-0.04695270152812086,-0.0015888217530544986,-0.008758970575193092,-0.015724192604356986
17,1.0,300.46145,434.70825999999994,0.0,-0.0001699977662430463,0.0,0.0,0.0,0.0,-0.04236623508297186,-0.05866578959761264,-0.03110843169416317,-0.006322465004378714,0.016063916111135085,-0.0034395464667818067
18,1.0,300.24031,241.8146,0.0,-0.00017999375366239967,0.0,0.0,0.0,0.0,-0.03651034662104066,-0.017737164902271882,-0.01925808977937548,-0.005564430819691564,-0.0042688520555528965,0.016935872537690484
19,1.0,299.4897,161.09112,0.0,-0.00018998974108175304,0.0,0.0,0.0,0.0,0.002079686812324108,-0.014183297581032487,-0.036864068177950265,-0.014767364322925384,-0.006133356058715114,0.009446958476492212
20,1.0,299.28767999999997,124.96758999999999,0.0,-0.00019998572850099539,0.0,0.0,0.0,0.0,-0.0010449517572037091,-0.020666595571134178,-0.016275479692264786,0.0018974725269659582,-0.008661936071416533,0.012145240250391888
21,1.0,299.03109,392.15084,0.0,-0.00021001470597781235,0.0,0.0,0.0,0.0,-0.024894569064652677,-0.04038695841713246,-0.05392253485848985,0.004860685663437326,0.01172667575333279,0.0037854358030684266
22,1.0,300.10155,576.91657,0.0,-0.00022001069339716572,0.0,0.0,0.0,0.0,-0.06379114905544624,-0.050436161139661546,-0.06114092046488904,-0.01100872219622629,-0.005780805818921115,0.009456117852096171
23,1.0,300.59589,367.40811,0.0,-0.00023000668081640807,0.0,0.0,0.0,0.0,-0.04207700588167716,-0.037127601356708964,-0.03247828503435717,-0.008064028738457673,-0.003673308939052366,-0.01042729699734409
24,1.0,301.29648,250.83166,0.0,-0.00024000266823576144,0.0,0.0,0.0,0.0,-0.030102469902132473,-0.03363940885395117,-0.012504682617366088,-0.011875120945983189,-0.007550181545719904,-0.004229410890110356
25,1.0,300.27426,483.00412,0.0,-0.0002499986556551148,0.0,0.0,0.0,0.0,-0.04635399737528336,-0.057003484920805945,-0.043463710584284256,-0.0006613831960734394,0.014943844119342586,-0.0017230915768058981
26,1.0,300.1217,541.6904,0.0,-0.00025999464307435716,0.0,0.0,0.0,0.0,-0.07305600298156613,-0.030478973374290473,-0.06112537923485525,0.0025548887475728877,-0.007970608700437832,0.01964977376453168
27,1.0,299.83936,282.7059,0.0,-0.0002699906304937105,0.0,0.0,0.0,0.0,-0.03051581210817617,-0.022117147189042476,-0.03330257513645826,-0.0034473370428256766,0.006529444946031044,0.004675113872547816
28,1.0,299.85854,177.08864,0.0,-0.0002799866179129529,0.0,0.0,0.0,0.0,-0.02243700795411028,-0.02211749777357708,-0.00927601913162181,-0.0009154119369066241,-0.02138924351595398,0.00912042860059122
29,1.0,300.04979,219.10351,0.0,-0.0002900155953896588,0.0,0.0,0.0,0.0,-0.02350731822024168,-0.00974215369437571,-0.03335252532663797,-0.0032897404792471066,0.0005340567192947945,0.007499330272226274
30,1.0,299.98881,287.31807000000003,0.0,-0.0003000115828091232,0.0,0.0,0.0,0.0,-0.021885186883399778,-0.03912349329768817,-0.026328838766704075,-0.01027188368375599,-0.004492145627790256,0.004816662277067555
31,1.0,299.8622,395.58722,0.0,-0.00031000757022825454,0.0,0.0,0.0,0.0,-0.021712133898820776,-0.04119691103031856,-0.05733959315122725,-0.006867190689938953,-0.0013324659313791486,-0.016725837950961685
32,1.0,300.83196,331.09544,0.0,-0.00032000355764771893,0.0,0.0,0.0,0.0,-0.029099226660120072,-0.040768744975311855,-0.030776775684681273,-0.005196797744209005,-0.0019850658702857482,-0.0046048423436625555
33,1.0,300.93707,96.28312,0.0,-0.0003299995450670723,0.0,0.0,0.0,0.0,0.009691920402118071,-0.03512159008698107,-0.0038379944029805564,-0.0029846194633840074,0.02927379242709837,-0.032081319989679766
34,1.0,300.73596000000003,275.40103,0.0,-0.00033999553248631464,0.0,0.0,0.0,0.0,-0.028029721927818173,-0.022725507615332978,-0.032959808839629866,0.0005917698744531395,0.002050858327103958,-0.003830716936787326
35,1.0,299.96291,517.2239400000001,0.0,-0.000349991519905668,0.0,0.0,0.0,0.0,-0.06760465867506034,-0.05196412303870965,-0.037654380964448064,-0.01161954684675999,0.003949603800170546,-0.015361322412294487
36,1.0,299.68793999999997,336.58297999999996,0.0,-0.00035998750732479934,0.0,0.0,0.0,0.0,-0.03681381603924076,-0.03259774823439727,-0.03290125615610117,0.012829042212877886,-0.008107102101533682,0.0032177664875438273
37,1.0,299.40262,31.910283000000003,0.0,-0.0003700164848016163,0.0,0.0,0.0,0.0,0.004798228116673246,0.0017316152392971183,-0.016229772993503883,0.002298085778628408,-0.0044212915814225056,0.007285459419293863
38,1.0,299.47269,211.84472999999997,0.0,-0.0003800124722210807,0.0,0.0,0.0,0.0,-0.02090755151116468,-0.009834001472215382,-0.03365395405913667,0.007445785172016783,-0.01027873122793179,0.017838767542799283
39,1.0,299.52563,479.97992,0.0,-0.000390008459640212,0.0,0.0,0.0,0.0,-0.04378735685172566,-0.03578849813054976,-0.06632605458587194,-0.013022215304692587,-0.01249915229832029,0.013127621686095388
40,1.0,300.00525,434.48474000000004,0.0,-0.0004000044470595654,0.0,0.0,0.0,0.0,-0.04286498515319467,-0.04651317896599336,-0.04269434775685405,0.003166248191509367,-0.014985165471670685,-0.003048797306167867
41,1.0,299.93432,321.80753,0.0,-0.0004100004344790298,0.0,0.0,0.0,0.0,-0.03297935747380917,-0.03301756206882967,-0.031824534043336974,-0.015451469247191287,0.010449759738810991,0.002321752463864128
42,1.0,300.2482,313.21134,0.0,-0.0004199964218981611,0.0,0.0,0.0,0.0,-0.03075190850072707,-0.02971333930722827,-0.03474317765163467,0.00988068909839809,0.015761129623502384,0.0031217905261467366
43,1.0,300.31661,375.31768999999997,0.0,-0.0004299924093176255,0.0,0.0,0.0,0.0,-0.024544269253330774,-0.05366881500694965,-0.03587412080375006,-0.015225033181093785,0.01140956596228649,-0.008593881939050111
44,1.0,300.22668999999996,515.99353,0.0,-0.0004399883967367568,0.0,0.0,0.0,0.0,-0.06929514285039813,-0.04127692941721576,-0.04627707649394186,0.004734874856820765,-0.00018425497105954982,0.0028372404124888274
45,1.0,300.15147,295.65538,0.0,-0.0004499843841562212,0.0,0.0,0.0,0.0,-0.030855896331989867,-0.016381334943461882,-0.042634621729709554,-0.0063531131854534535,0.002915149516652857,-0.003442590776707257
46,1.0,300.32266,0.62264536,0.0,-0.00046001336163292716,0.0,0.0,0.0,0.0,-0.013594498961172588,0.00036033536455233167,0.013044894881680888,-0.009448131414807971,-0.007162665159550014,0.0002581913546290027
47,1.0,299.41258,183.29692,0.0,-0.0004700093490521695,0.0,0.0,0.0,0.0,-0.020028152762624783,-0.010436401049492589,-0.02525313294379018,-0.002049174710737798,-0.02014246865215688,-0.00934016556365257
48,1.0,299.71477000000004,544.00252,0.0,-0.0004800053364717449,0.0,0.0,0.0,0.0,-0.05230973048881845,-0.050613343118398046,-0.06244010771660884,0.00994403445489979,-0.015807516213080384,-0.0036840224376597066
49,1.0,300.09085,422.69519,0.0,-0.0004900013238908763,0.0,0.0,0.0,0.0,-0.031200119682462075,-0.04303433065565776,-0.05425433069648554,0.026269412661589178,0.008726270258690822,-0.008096951362031883
50,1.0,299.58486,207.90521,0.0,-0.0004999973113101186,0.0,0.0,0.0,0.0,-0.016244291854186785,-0.025825243334503076,-0.02112845624496628,0.014122586674790789,0.007245595525909603,-0.0020555594022679184
51,1.0,299.2838,387.81167999999997,0.0,-0.000509993298729472,0.0,0.0,0.0,0.0,-0.02765998088682757,-0.06128289098940044,-0.02894219518612227,-0.003921837403705216,-0.008114840089897362,-0.0017026486480883382
52,1.0,299.38717,528.5129,0.0,-0.0005199892861487143,0.0,0.0,0.0,0.0,-0.07201275155935523,-0.04300633759514506,-0.045635636491636655,0.0018074580225322186,-0.003312648037507906,-0.0053979149194577246
53,1.0,299.24003999999996,432.11168,0.0,-0.0005299852735680677,0.0,0.0,0.0,0.0,-0.04376326480409796,-0.056345197609088044,-0.031242697464914173,-0.0007875100860586943,0.012890020617145987,-0.004956813105724365
54,1.0,300.37922000000003,364.73933,0.0,-0.0005400142510448847,0.0,0.0,0.0,0.0,-0.02878715069557057,-0.046282288652456254,-0.03580220943090297,-0.01007432352298332,0.007817713110698211,-0.013554518138726789
55,1.0,300.26928,228.10606,0.0,-0.000550010238464238,0.0,0.0,0.0,0.0,-0.021014862802755482,-0.021951265988671278,-0.026372417640254976,-0.015861280276636483,-0.0025168082756896375,0.010501306811148291
56,1.0,300.03652,181.52965,0.0,-0.0005600062258837024,0.0,0.0,0.0,0.0,-0.018914148112431084,-0.022025589910006478,-0.014240742782201886,-0.02081853242362918,0.008492188106013711,-0.011995966219159689
57,1.0,299.95909,404.17117,0.0,-0.0005700022133028337,0.0,0.0,0.0,0.0,-0.05191064977793225,-0.02032477362339898,-0.050622520124553747,0.012731220008473588,-0.0034795834232831464,0.01221760758578399
58,1.0,299.58921000000004,418.5546,0.0,-0.0005799982007220761,0.0,0.0,0.0,0.0,-0.05528390222909635,-0.026351969239986874,-0.04559427460930455,0.0010030988842706522,-0.0002644874779678818,0.004113791656974626
59,1.0,299.89401000000004,270.59553,0.0,-0.0005899941881414295,0.0,0.0,0.0,0.0,-0.01820283742298018,-0.04728634148129855,-0.016765105445337082,0.008174302165390812,-0.03105242429488567,-0.02168591503923318
60,1.0,299.77948,371.9156,0.0,-0.0005999901755606718,0.0,0.0,0.0,0.0,-0.027472230709548077,-0.03536031890329176,-0.050220505041377955,-0.001111867807057809,-0.01882131717801938,-0.01198012506709629
61,1.0,299.13978,412.83384,0.0,-0.0006099861629802472,0.0,0.0,0.0,0.0,-0.039384330217930766,-0.03959416316788966,-0.04651268449994455,0.005888665785441064,0.004300719176497936,-0.00930641703992185
62,1.0,299.86685,315.84182000000004,0.0,-0.0006200151404568421,0.0,0.0,0.0,0.0,-0.019583339008475083,-0.043268438038262365,-0.03315624864976697,-0.007387528661492311,0.006070416812853494,0.008547827898154932
63,1.0,299.91815,197.12055,0.0,-0.0006300111278761955,0.0,0.0,0.0,0.0,-0.02251140280295248,-0.027778673003541574,-0.00962965020529748,-0.013252940458463387,-0.015613640938946386,-0.004510060396183306
64,1.0,299.66486000000003,248.92746,0.0,-0.0006400071152955489,0.0,0.0,0.0,0.0,-0.03882134718411867,-0.026866687118535577,-0.00997969862926957,-0.030331545484740468,-0.013882311638827485,0.008129402621659572
65,1.0,300.55965,343.8415,0.0,-0.0006500031027147912,0.0,0.0,0.0,0.0,-0.024917991353964275,-0.03862139950213536,-0.04097984043489536,0.006982775979196333,0.012311543976054789,-0.008657635027392052
66,1.0,300.36124,432.18987000000004,0.0,-0.0006599990901340336,0.0,0.0,0.0,0.0,-0.025197248147774774,-0.04805536993619575,-0.05812231061497545,-0.0005362631727125545,0.02006798261080568,0.007732144139753212
67,1.0,299.97404,532.20415,0.0,-0.0006699950775533869,0.0,0.0,0.0,0.0,-0.04635992691486855,-0.04978905301629696,-0.06562779050470864,0.001960603986371548,-0.009372621889530761,-0.008066383835665101
68,1.0,299.75243,440.06338,0.0,-0.0006799910649727403,0.0,0.0,0.0,0.0,-0.036294249758963566,-0.03682586155642957,-0.060648167822008145,-0.015313567935081485,0.0038930292848120764,0.00886110618527309
69,1.0,299.4689,279.39347000000004,0.0,-0.0006899870523922047,0.0,0.0,0.0,0.0,-0.03131853011564827,-0.039065914347505566,-0.014544192948650086,-0.003981609027104216,0.0076682543639727836,-0.008624286737450831
70,1.0,299.58031,460.68609000000004,0.0,-0.0007000160298687996,0.0,0.0,0.0,0.0,-0.04828198129456055,-0.04228410406961616,-0.04947098367740595,0.0012739266227517689,0.005048271896850646,0.006048003011366425
71,1.0,300.10606,482.93384000000003,0.0,-0.000710012017288153,0.0,0.0,0.0,0.0,-0.03355629194824817,-0.06361846894690404,-0.04962506659361275,-0.007575714941614853,-0.01987509120251878,-0.013341593762712788
72,1.0,299.59397,287.66924,0.0,-0.0007200080047075064,0.0,0.0,0.0,0.0,-0.017026035584588883,-0.05058309861616315,-0.01983513165832508,0.006787016465176373,-0.002334860475107788,-0.005707087010545635
73,1.0,299.1508,328.67543,0.0,-0.0007300039921267487,0.0,0.0,0.0,0.0,-0.030746300161423573,-0.030596054423345467,-0.038566770122993865,0.017393463375601183,-0.004330908963227436,0.008120618756542674
74,1.0,299.28962,421.56472,0.0,-0.00073999997954588,0.0,0.0,0.0,0.0,-0.035829746528870665,-0.04193719763287916,-0.05037820526044175,0.004516020434596516,0.026451577804317478,0.03055130017967857
75,1.0,299.40307,347.22359,0.0,-0.0007499959669653444,0.0,0.0,0.0,0.0,-0.029619954125011873,-0.03616651134535676,-0.03976083470333886,-0.0037938245006463264,-0.024267419941757875,0.004561175722652996
76,1.0,299.74242999999996,517.25464,0.0,-0.0007599919543846978,0.0,0.0,0.0,0.0,-0.04761339125582586,-0.04790991180484015,-0.061709191650973036,-0.02135446877252198,0.007865426247307133,0.013795061685966586
77,1.0,299.44581,598.5799,0.0,-0.0007699879418040512,0.0,0.0,0.0,0.0,-0.04938504892317486,-0.06863964197645524,-0.06392865114701665,-0.015278278460598683,0.0018665027403094786,-0.010611470401770589
78,1.0,300.11227,349.60795,0.0,-0.0007800169192808681,0.0,0.0,0.0,0.0,-0.027043319915717876,-0.03196960308665417,-0.047259164087116355,-0.002306982215831418,0.011270705102331989,0.002521100808413278
79,1.0,300.36276000000004,289.36077,0.0,-0.0007900129067001105,0.0,0.0,0.0,0.0,-0.012756209795689886,-0.049782686765918654,-0.025419552179964475,-0.02001216468929688,-0.01029496146803359,-0.02410823429804748
80,1.0,300.23686000000004,505.25569,0.0,-0.0008000088941194639,0.0,0.0,0.0,0.0,-0.06267818399985514,-0.053876591059205545,-0.03703033846635986,0.008437476450964092,1.051673759692119e-05,-0.003122022560419637
81,1.0,300.09535,424.80519000000004,0.0,-0.0008100048815387062,0.0,0.0,0.0,0.0,-0.055336427087780145,-0.04187467402220856,-0.031919069264416865,0.01096636732879619,-0.00948296056977034,-0.0007500944379635573
82,1.0,300.564,239.44654,0.0,-0.0008200008689578375,0.0,0.0,0.0,0.0,-0.016351151236232986,-0.05240973523393815,-0.004024883115025036,0.01165696718620309,-0.0020526954508602677,-0.0036779536775107665
83,1.0,299.54027,343.17305,0.0,-0.0008299968563773019,0.0,0.0,0.0,0.0,-0.016457609371239586,-0.055999985326518245,-0.03185844347118357,0.01838266601097788,-0.028597803636133474,-0.0073992620976503125
84,1.0,299.60712,427.01795999999996,0.0,-0.0008399928437966553,0.0,0.0,0.0,0.0,-0.042657394525707056,-0.046655006622240654,-0.04049039504034086,0.007496633811060154,0.008010924807341722,-0.003143737421987727
85,1.0,299.41848,377.44411,0.0,-0.0008499888312160087,0.0,0.0,0.0,0.0,-0.035755480362791164,-0.05079379485520725,-0.02818431045582487,0.007418650334338783,0.003069943025154787,-0.00984211993599161
86,1.0,299.90002999999996,414.20462000000003,0.0,-0.0008600178086928256,0.0,0.0,0.0,0.0,-0.06693501282972145,-0.01269673606782029,-0.04627611390634686,-0.014086907099019486,0.010326028729349691,0.0093501767786156
87,1.0,299.84949,429.48893,0.0,-0.000870013796112068,0.0,0.0,0.0,0.0,-0.050909939661169856,-0.05333915611341485,-0.026304813593582974,-0.02863263208182077,-0.0035546709298937065,-0.0033826133622129467
88,1.0,299.64839,332.56656,0.0,-0.0008800097835314213,0.0,0.0,0.0,0.0,-0.030954042776426174,-0.03807236790895017,-0.03206551936762037,-0.008238292252931143,0.017031035973832383,-0.005818950936160745
89,1.0,298.93051,477.77819000000005,0.0,-0.0008900057709505527,0.0,0.0,0.0,0.0,-0.04891457461024266,-0.04680926483071476,-0.049508799184388046,0.006653337771533313,0.0024616075248167476,-0.0035315446109363165
90,1.0,299.54977,584.45595,0.0,-0.000900001758369795,0.0,0.0,0.0,0.0,-0.06063030320949504,-0.059174407710559346,-0.057855304014873946,0.005077716640781616,0.006222811857043714,0.013595409873012488
91,1.0,299.95522,258.55096000000003,0.0,-0.0009099977457893704,0.0,0.0,0.0,0.0,-0.015416865743026184,-0.03986385184100586,-0.02331231722524658,0.014015673590489289,-0.020709135863332583,-0.006884204780318114
92,1.0,299.94583,201.67432,0.0,-0.0009199937332086128,0.0,0.0,0.0,0.0,-0.006783256395380285,-0.04973633260034385,-0.004784368881805446,-0.005331086009112225,-0.0026895868721415576,-0.0037920921469503563
93,1.0,300.09463999999997,496.27525,0.0,-0.0009299897206279661,0.0,0.0,0.0,0.0,-0.051088259519768656,-0.060561328235437736,-0.03920569726505106,0.0096922510256257,-0.016365507976899882,-7.775282046860592e-05
94,1.0,300.024,543.7918,0.0,-0.0009399857080472085,0.0,0.0,0.0,0.0,-0.03809784202971426,-0.057834268942797945,-0.06936701875949172,-0.008323646110879912,-0.0026185130518271175,0.017058841583076585
95,1.0,300.38597999999996,388.81043999999997,0.0,-0.0009500146855239144,0.0,0.0,0.0,0.0,-0.017573406460860183,-0.06391057983148314,-0.03670467785771967,0.004706134524359315,-0.015675673123318485,-0.019053776002711284
96,1.0,300.1975,465.52567999999997,0.0,-0.0009600106729433788,0.0,0.0,0.0,0.0,-0.03203394649450437,-0.05545114219785165,-0.05402309587791446,-0.006076388300992833,0.005040398538273605,0.0032870145325030772
97,1.0,300.0274,524.30493,0.0,-0.0009700066603625102,0.0,0.0,0.0,0.0,-0.054997003503031654,-0.04997938090183086,-0.054399221407785144,0.0022366080447110276,0.002411191138266038,-0.009842281954682602
98,1.0,300.0765,541.50025,0.0,-0.0009800026477818635,0.0,0.0,0.0,0.0,-0.06487344100401014,-0.05965561436855075,-0.040073501392696664,-0.026018726480848374,0.006429416693509024,-0.008105181485969132
99,1.0,299.93914,578.14918,0.0,-0.000989998635201328,0.0,0.0,0.0,0.0,-0.06358443184954483,-0.05342168533405985,-0.058736795124870345,-0.012570879259649188,-0.008515275516167261,-0.002123609177658908
100,1.0,298.62155,343.44699999999995,0.0,-0.0009999946226204592,0.0,0.0,0.0,0.0,-0.01897703345338738,-0.05403052401439754,-0.03139175364737486,-0.01188792437424679,0.018116546004713883,-0.007328608978777394
101,1.0,299.65764,197.33722,0.0,-0.0010099906100399236,0.0,0.0,0.0,0.0,-0.003703086940941226,-0.02843552960611827,-0.027846971126532075,0.01665791473050818,0.005170246031963555,-0.003595265173950046
102,1.0,299.75601,421.71592000000004,0.0,-0.001019986597459055,0.0,0.0,0.0,0.0,-0.024168789163773775,-0.04397197000669555,-0.06005035127625823,0.0023372355333421877,0.0041605921592184755,0.011819797490523188
103,1.0,300.26564,663.59537,0.0,-0.001030015574935872,0.0,0.0,0.0,0.0,-0.06598533505424553,-0.07530588936486263,-0.06042519707125264,0.009202409652932122,-0.01254790989313229,0.0033397392041065966
104,1.0,300.08722,444.72407999999996,0.0,-0.0010400115623552253,0.0,0.0,0.0,0.0,-0.04772239366183355,-0.044611602370822366,-0.04285101750056616,-0.002968331366701497,0.00949630821466265,0.0052728196700617845
105,1.0,300.21592000000004,365.05959,0.0,-0.0010500075497744676,0.0,0.0,0.0,0.0,-0.03648835706737047,-0.05480419619450305,-0.01967644757341418,0.002675625299013657,0.0017359572186256386,0.0030974951192239667
106,1.0,300.18365,612.76961,0.0,-0.001060003537193821,0.0,0.0,0.0,0.0,-0.05355517698173445,-0.06293846971204335,-0.06977301591556052,0.0067794289444525445,-0.00961373437670171,0.004062109315748976
107,1.0,300.06641,621.13756,0.0,-0.0010699995246132854,0.0,0.0,0.0,0.0,-0.058602215246588346,-0.04813502963255755,-0.08207306456923083,-0.0018725242830037582,-0.00994066479036723,0.011578880053996488
108,1.0,299.03922,497.26336,0.0,-0.0010799955120324167,0.0,0.0,0.0,0.0,-0.03246853554189497,-0.08390507445228612,-0.034782035792969665,0.0010134847687231592,0.004829058176140936,-0.014723896906885485
109,1.0,299.44781,427.27952999999997,0.0,-0.00108999149945177,0.0,0.0,0.0,0.0,-0.054151007557288355,-0.03110446887302207,-0.04462683050657525,0.0003053228046205147,0.0010872974040578988,0.016937431929594383
110,1.0,299.88507000000004,255.46813999999998,0.0,-0.0010999874868710124,0.0,0.0,0.0,0.0,-0.035695483797869965,-0.037958718737983864,-0.004001732376740235,-0.014144071629911185,0.005518398057048485,-0.02134364726145398
111,1.0,299.45811000000003,321.25924,0.0,-0.0011100164643478294,0.0,0.0,0.0,0.0,-0.017062415316179285,-0.05867723324424204,-0.021915138556355778,-0.014612071586099184,-0.0008869360931187773,-0.009175513435652672
112,1.0,300.06179,613.40936,0.0,-0.0011200124517671828,0.0,0.0,0.0,0.0,-0.060190238558564035,-0.058444405596513746,-0.06782648343995273,0.006325894248017154,0.020260200207776084,-0.014702180930742286
113,1.0,299.90469,425.85924000000006,0.0,-0.0011300084391864251,0.0,0.0,0.0,0.0,-0.027854650549039975,-0.06583112548177623,-0.03576479821071076,-0.001815046657831158,0.013632644787687288,-0.004732431201554595
114,1.0,300.24079,192.32675,0.0,-0.0011400044266057785,0.0,0.0,0.0,0.0,-0.0026535102036560677,-0.045493178593827156,-0.01031584151284429,0.00994835343345104,-0.006970224444907592,-0.016817874497294983
115,1.0,300.3171,467.97872,0.0,-0.0011500004140251319,0.0,0.0,0.0,0.0,-0.03890091062172096,-0.05149538340994865,-0.05185755141969185,-0.004621536247010116,-0.02149908590629458,0.005959376254269645
116,1.0,299.88951000000003,677.17434,0.0,-0.0011599964014443742,0.0,0.0,0.0,0.0,-0.06700577416370503,-0.09938650550493441,-0.03945180963484046,0.015725976937783086,-0.012809226080672188,-0.01033728087171019
117,1.0,300.00352999999996,578.5206099999999,0.0,-0.0011699923888637276,0.0,0.0,0.0,0.0,-0.059367924294157944,-0.05840869866298975,-0.05807919682322044,0.004743148550512316,-0.0017010641275819582,0.008922190778151672
118,1.0,300.75786,454.94097999999997,0.0,-0.00117998837628297,0.0,0.0,0.0,0.0,-0.04723678747190796,-0.06433448820956963,-0.02671942438875187,0.0030639097287593468,0.001809275083936548,-0.013423398509536288
119,1.0,299.74728,428.69565,0.0,-0.001190017353759787,0.0,0.0,0.0,0.0,-0.04591748213945266,-0.05458908117177285,-0.02980620874514377,-0.004959030299593186,0.018039691997878984,0.0049406683839310055
120,1.0,300.13268,569.58712,0.0,-0.0012000133411791403,0.0,0.0,0.0,0.0,-0.05826935448273755,-0.05297960735518015,-0.06189130106494585,0.00015843426809874486,0.018366019325084984,-0.007805512262269082
121,1.0,300.21693999999997,749.51792,0.0,-0.0012100093285984936,0.0,0.0,0.0,0.0,-0.07719016471457613,-0.08632881023474022,-0.06431575828147114,0.0025623345146077274,0.006411055588446925,-0.002962330291659237
122,1.0,299.89599999999996,564.8408099999999,0.0,-0.001220005316017736,0.0,0.0,0.0,0.0,-0.05244703600986945,-0.05802238996961404,-0.06122807618549065,-0.012570995783410688,-0.02001961815703248,-0.00945324549071269
123,1.0,300.0334,264.4368,0.0,-0.0012300013034370894,0.0,0.0,0.0,0.0,-0.013079270404573486,-0.04260808572284066,-0.024694826059189576,-0.0054775372268908345,-0.0027276518412982778,-0.0007029689661476353
124,1.0,299.38349,336.21499,0.0,-0.0012399972908563317,0.0,0.0,0.0,0.0,-0.01138356900447079,-0.06570282876736434,-0.025114561873364274,0.01072568091329229,-0.004999528082240005,-0.02045116441437278
125,1.0,299.56026,707.7913,0.0,-0.001249993278275685,0.0,0.0,0.0,0.0,-0.07709044975898502,-0.05611130807525494,-0.08194912584349902,0.011773127190917188,0.012360783877914387,0.023584135750072975
126,1.0,300.36292000000003,619.7386,0.0,-0.0012599892656949274,0.0,0.0,0.0,0.0,-0.043909429170773256,-0.08592660567379573,-0.05854902366933875,-0.004248109407455756,-0.007032830331486313,-0.012091255298313989
127,1.0,300.25689,256.62119,0.0,-0.0012700182431716334,0.0,0.0,0.0,0.0,-0.02221839113903448,-0.03291247182145807,-0.02287557096839308,0.001970771748475028,0.004045034936988866,0.005972938404208124
128,1.0,300.17991,380.54204,0.0,-0.0012800142305910978,0.0,0.0,0.0,0.0,-0.02530147003981068,-0.04229251303219606,-0.04808129292675416,0.007403651091783473,-0.002710870089167047,0.001149721817543709
129,1.0,300.78103,678.95128,0.0,-0.0012900102180104511,0.0,0.0,0.0,0.0,-0.07366631290104902,-0.07643637351468273,-0.05628154726430624,0.0006615689450817714,-0.0019025333059154185,-0.003734497187416176
130,1.0,300.41171,690.2337,0.0,-0.0013000062054296935,0.0,0.0,0.0,0.0,-0.06857899895797023,-0.052957087871707643,-0.08827772384808301,-0.011963073081163388,-0.01120787954313159,-0.013103359412450886
131,1.0,300.38219,562.1177,0.0,-0.0013100021928490468,0.0,0.0,0.0,0.0,-0.05186020208195345,-0.06792735755365822,-0.051082184072169044,-0.018149868760752582,0.023063728472212778,-0.0046210400584361455
132,1.0,299.95749,357.79121000000004,0.0,-0.0013199981802682892,0.0,0.0,0.0,0.0,-0.015735484263471385,-0.04704869785584495,-0.04597541066091975,0.007283503745275853,0.007038107135357093,-0.003064673212709697
133,1.0,299.64699,285.33173,0.0,-0.0013299941676876426,0.0,0.0,0.0,0.0,-0.03503301378973926,-0.02125953027790228,-0.03044117711906027,-0.002154439642426638,0.017068483671028183,-0.0025193703798924976
134,1.0,299.71672,526.2889700000001,0.0,-0.001339990155106996,0.0,0.0,0.0,0.0,-0.04240536072233326,-0.07177528423941902,-0.045798059469416556,-0.0005503524153530545,-0.029936965630798475,-0.015714516065901987
135,1.0,300.01193,562.09597,0.0,-0.0013499861425262383,0.0,0.0,0.0,0.0,-0.05992813912869685,-0.05830747295149954,-0.052627526250182445,0.006025815468626684,-0.007248447520966073,-0.0005491120553756404
136,1.0,300.15069,318.43872000000005,0.0,-0.0013600151200031663,0.0,0.0,0.0,0.0,-0.02071132043054818,-0.047514460555812155,-0.02857163949205127,0.008996279625463673,-0.005297917672388765,-0.012536006230957488
137,1.0,300.55275,424.75726,0.0,-0.0013700111074224086,0.0,0.0,0.0,0.0,-0.04258580840614205,-0.05892617562156074,-0.02760361581026477,0.0034124312861557467,0.015194543472334687,-0.008458901523003581
138,1.0,300.3173,691.13528,0.0,-0.00138000709484154,0.0,0.0,0.0,0.0,-0.08266570036721942,-0.05073439712109515,-0.07668777099699373,-0.010694187073684091,-0.01072693835666639,-0.0011566887225812888
139,1.0,300.34875,768.18563,0.0,-0.0013900030822610043,0.0,0.0,0.0,0.0,-0.07802220212694182,-0.08529692950515151,-0.07019011829272533,-0.015698175381539285,0.02247568675017758,0.002368329949760968
140,1.0,300.13297,584.65324,0.0,-0.0013999990696801357,0.0,0.0,0.0,0.0,-0.04413430685821696,-0.05936341938421335,-0.07422225891291663,0.008672274160861821,-0.004497705229763945,-0.0042473960793853556
141,1.0,300.29033,435.65943,0.0,-0.0014099950570996,0.0,0.0,0.0,0.0,-0.042717572462396165,-0.03644994880907986,-0.05326206601930665,-0.010455203931598291,0.016087382983451085,0.0034635885611795764
142,1.0,300.15657000000004,374.31346,0.0,-0.0014199910445189534,0.0,0.0,0.0,0.0,-0.009071085144571401,-0.06037420525997015,-0.04433665594293725,0.005670908206450064,-0.01963173588625148,-0.017578257902338985
143,1.0,299.48113,385.01965,0.0,-0.0014299870319381958,0.0,0.0,0.0,0.0,-0.025946596245979676,-0.052400995951825645,-0.03868876847478416,-0.00865155329764183,-0.000996159407913279,-0.01150916540736619
144,1.0,299.32972,500.8826,0.0,-0.0014400160094151238,0.0,0.0,0.0,0.0,-0.038647014464663364,-0.07398553734505402,-0.039623252565010564,0.014134265395443386,0.004060202480385786,-0.013909412026002089
145,1.0,300.09639,471.96713,0.0,-0.001450011996834366,0.0,0.0,0.0,0.0,-0.05207915630931254,-0.05445351033489305,-0.03693355484330806,-0.006455348803318323,0.0032717070592673467,-0.005767409538024005
146,1.0,299.91438,360.19473999999997,0.0,-0.0014600079842534974,0.0,0.0,0.0,0.0,-0.012868982505319686,-0.05517157230976025,-0.041449652082262166,0.005838678408982694,-0.027099889668800874,-0.015265904650377485
147,1.0,299.86442,565.6773,0.0,-0.0014700039716728508,0.0,0.0,0.0,0.0,-0.04909552790585135,-0.07445206200909643,-0.048404182296370855,-0.01082828261841829,-0.015533748195061585,0.002336359173330698
148,1.0,300.259,813.72998,0.0,-0.0014799999590920931,0.0,0.0,0.0,0.0,-0.07105061384739964,-0.07688853029230713,-0.09941444992944232,0.014526319216886088,-0.007485824560318362,-0.0017221423641122183
149,1.0,300.4626,666.1595900000001,0.0,-0.0014899959465114465,0.0,0.0,0.0,0.0,-0.07390325231768313,-0.07882386027480934,-0.049768769775795155,-0.00893375662274313,0.014971596026331486,0.01076646422981729
150,1.0,300.92963,426.35585999999995,0.0,-0.001499991933930911,0.0,0.0,0.0,0.0,-0.04821570561876965,-0.04478448512938456,-0.03660134559927157,0.0001985424763471168,-0.004583952976950936,-0.009319710273283792
151,1.0,300.59527,556.14866,0.0,-0.0015099879213500422,0.0,0.0,0.0,0.0,-0.06267121689216754,-0.05270699140252505,-0.05367709731326705,-0.014144721123225287,0.02930796935297137,0.0076722079645379715
152,1.0,299.99235,556.4828200000001,0.0,-0.0015200168988270812,0.0,0.0,0.0,0.0,-0.03344619725863267,-0.08391770562803272,-0.051792976990818855,-0.003691354011408277,0.027039852573875676,-0.015455630665351985
153,1.0,299.79804,624.99015,0.0,-0.0015300128862462126,0.0,0.0,0.0,0.0,-0.06026998438118435,-0.07298023619208852,-0.05673118003593154,-0.012309769775129688,0.01943730231131238,-0.0050360830047726955
154,1.0,299.806,578.08248,0.0,-0.001540008873665455,0.0,0.0,0.0,0.0,-0.03704542981334926,-0.07335801331962223,-0.06531919505425264,-0.003105496856588677,-0.016478849119835784,-0.01085324606113199
155,1.0,299.60491,355.62485,0.0,-0.0015500048610848083,0.0,0.0,0.0,0.0,-0.03280028173063577,-0.061664159776778735,-0.013636630913580687,-0.0035925381126309065,-0.00966079143387088,-0.01904691731278438
156,1.0,299.25282999999996,472.69762000000003,0.0,-0.0015600008485042727,0.0,0.0,0.0,0.0,-0.038005213745322564,-0.062455032890581845,-0.04322802557127396,0.013590036607732187,-0.018763210324534683,-0.008727070928919842
157,1.0,300.24295,697.6931599999999,0.0,-0.001569996835923626,0.0,0.0,0.0,0.0,-0.07506091588818563,-0.08339284916898343,-0.05362753519787565,0.005543130681389405,-0.005423311222614145,-0.006687628080092503
158,1.0,300.57639,554.7729400000001,0.0,-0.0015799928233427574,0.0,0.0,0.0,0.0,-0.03433129959198547,-0.06969011483212884,-0.06461570564232363,0.00989599140405831,-0.02140676767643348,-0.005486839876058934
159,1.0,300.68665,337.56411,0.0,-0.0015899888107619997,0.0,0.0,0.0,0.0,-0.017999488260411183,-0.04243264349452586,-0.042178929722486255,0.01070607249735709,0.007700164446722062,-0.007592737036669803
160,1.0,300.26243,491.1284,0.0,-0.0016000177882390387,0.0,0.0,0.0,0.0,-0.024591659973757875,-0.07558353711751434,-0.049115575059079854,0.007018959545567373,0.012957651008320588,-0.00963069334627543
161,1.0,299.82382,713.70082,0.0,-0.00161001377565817,0.0,0.0,0.0,0.0,-0.08032207315092142,-0.07365763441394253,-0.06296751959241034,0.007427957239157304,0.006419202423225954,-0.0005385892504371204
162,1.0,300.08644,680.29435,0.0,-0.0016200097630774124,0.0,0.0,0.0,0.0,-0.06395724303833844,-0.08393637881412562,-0.05889887359761624,-0.02130060034420558,-0.013414740287431788,-0.019511544159389483
163,1.0,300.15184,501.6571,0.0,-0.0016300057504967658,0.0,0.0,0.0,0.0,-0.04060252230965696,-0.07226656057690423,-0.03962215014890176,-0.006526537728844124,-0.003846114487956947,-0.016579419258511287
164,1.0,299.82517,438.60855999999995,0.0,-0.0016400017379161191,0.0,0.0,0.0,0.0,-0.020286499114121583,-0.061116500124228944,-0.05192304993265605,-0.024856326979378476,0.008649976072536173,-0.005584505431997774
165,1.0,300.14532,530.9409099999999,0.0,-0.0016499977253355835,0.0,0.0,0.0,0.0,-0.040523447258602865,-0.07409510615786763,-0.046774225629006655,-0.003809703649588476,0.028040609300142676,-0.002187520839641498
166,1.0,299.74442999999997,736.21077,0.0,-0.0016599937127547149,0.0,0.0,0.0,0.0,-0.05782513854614685,-0.07268384331258683,-0.09328071005158932,-0.011663063912054789,0.0060567713737567945,0.01086109064340619
167,1.0,299.39307,713.97093,0.0,-0.0016699897001739572,0.0,0.0,0.0,0.0,-0.07913517427528363,-0.07070308426185114,-0.06719107734199303,-0.002050833198501478,0.006725102527090943,0.01332832829240359
168,1.0,299.97443,474.44075999999995,0.0,-0.0016800186776508852,0.0,0.0,0.0,0.0,-0.034070875064533566,-0.07317165433473002,-0.03697561586820917,0.0030265727797994767,-0.006273606287206733,-0.0027456844506779576
169,1.0,300.19208,529.84445,0.0,-0.0016900146650701275,0.0,0.0,0.0,0.0,-0.04928060006311655,-0.06012497309312284,-0.05165390942784395,0.018111105864926983,-0.02510068338674458,-0.006899042004182432
170,1.0,300.29447000000005,829.66214,0.0,-0.0017000106524893699,0.0,0.0,0.0,0.0,-0.07877022489401593,-0.0855144398511181,-0.0879119111777301,0.008753801074507902,-0.02344325953566958,-0.013265621283464885
171,1.0,300.34179,737.5042,0.0,-0.0017100066399087233,0.0,0.0,0.0,0.0,-0.07691237105391002,-0.08093654144881472,-0.06633394983065113,0.011357231594621488,-0.0020081497340639484,-0.026531758311230676
172,1.0,300.07486,350.00102000000004,0.0,-0.0017200026273280766,0.0,0.0,0.0,0.0,-0.012322624879148387,-0.04799631062761705,-0.04607263606101516,-0.003245730366453647,0.008334282197179611,-0.008792592341336303
173,1.0,300.03846,356.47655,0.0,-0.00172999861474743,0.0,0.0,0.0,0.0,-0.041923127641990555,-0.061489986137589145,-0.004946854985066575,-0.008645422729236792,0.0036682859543316366,-0.02144814577076718
174,1.0,299.66927000000004,563.95236,0.0,-0.0017399946021666723,0.0,0.0,0.0,0.0,-0.05211471530832194,-0.06061657873689054,-0.05869614150435815,-0.01913918690664068,-0.004862190441160836,-0.0029233734597644973
175,1.0,299.56412,603.70482,0.0,-0.0017499905895859147,0.0,0.0,0.0,0.0,-0.05133938950405325,-0.08534845327273652,-0.046823345967354456,-0.00894968298913994,-0.00043757938148322257,-0.02081722735750038
176,1.0,299.85652999999996,578.15567,0.0,-0.001759986577005268,0.0,0.0,0.0,0.0,-0.016618729309390883,-0.07923957855233751,-0.07988657724469134,-0.01100247753585999,0.013628303011008787,-0.0008639544764081682
177,1.0,299.85252,468.29883,0.0,-0.001770015554482085,0.0,0.0,0.0,0.0,-0.02756798487049827,-0.052740313145313654,-0.062042850855902644,0.0004688321080976265,0.008797584523253991,-0.009164847965100071
178,1.0,300.24074,456.11544000000004,0.0,-0.0017800115419012164,0.0,0.0,0.0,0.0,-0.02968106222529277,-0.059690358714479745,-0.04927628564419075,-0.008219328872009601,0.002272131782616948,-0.011763693832486188
179,1.0,300.11413999999996,800.46493,0.0,-0.0017900075293207918,0.0,0.0,0.0,0.0,-0.09563539283972841,-0.08386244195432863,-0.06382351530339053,0.004120155171577656,0.0038250704992800664,0.00010186408945070292
180,1.0,300.11253,880.1569099999999,0.0,-0.0018000035167400341,0.0,0.0,0.0,0.0,-0.07810344654646002,-0.09653350023811472,-0.09290877836388252,0.008961724554653352,-0.004777573925309836,0.0043426142310326555
181,1.0,300.49035,575.50231,0.0,-0.0018099995041593875,0.0,0.0,0.0,0.0,-0.052236305320321946,-0.07608926240142552,-0.04661276321232155,0.01116950877509469,-0.02703650986179577,0.004642373532666596
182,1.0,301.02074,512.95205,0.0,-0.0018199954915786298,0.0,0.0,0.0,0.0,-0.029183333511170768,-0.05510873864455904,-0.07163254161833144,-0.0014806220437760184,-0.008486051255458054,-0.008761088470552111
183,1.0,299.86987,641.91088,0.0,-0.0018299914789977612,0.0,0.0,0.0,0.0,-0.06886509924295614,-0.06497186102597344,-0.06128791873639665,0.002856764120715667,-0.009174542134106812,0.002045071047832798
184,1.0,299.73512,649.61523,0.0,-0.0018399874664172255,0.0,0.0,0.0,0.0,-0.05672187637351334,-0.06202705732659394,-0.07871787634084952,-0.0024968182697667775,0.015206568724521485,0.003752514192744317
185,1.0,299.64599,627.25352,0.0,-0.0018500164438939315,0.0,0.0,0.0,0.0,-0.06723788341711243,-0.07175857878502033,-0.05167294738397286,-0.02258603475231808,0.0034754811789282866,0.003989431824501267
186,1.0,299.73017999999996,587.7901400000001,0.0,-0.0018600124313133959,0.0,0.0,0.0,0.0,-0.049014700945374357,-0.08544760688777223,-0.04421121760705746,-0.023805220842392377,0.005423783194510725,-0.0029645159734499474
187,1.0,299.53347,576.05677,0.0,-0.0018700084187327493,0.0,0.0,0.0,0.0,-0.052468084254196745,-0.08265438337685252,-0.03998440631140367,-0.008997205229430021,-0.004985439751524595,-0.003886808942448176
188,1.0,300.04078,628.82469,0.0,-0.0018800044061519916,0.0,0.0,0.0,0.0,-0.03774638508677817,-0.08210229784786592,-0.07129832005959634,0.0026084943388133474,0.017219312027913783,-0.005806036354361175
189,1.0,299.64089,700.11319,0.0,-0.001890000393571345,0.0,0.0,0.0,0.0,-0.05807134008194505,-0.1004491252028068,-0.05429646163564354,0.016658574356323286,-0.011809238411231089,-0.02160615097811108
190,1.0,300.17482,567.38506,0.0,-0.0018999963809905873,0.0,0.0,0.0,0.0,-0.04675469422007905,-0.07135203042089713,-0.05436416599407545,-0.011364642505852889,-0.003987832409218416,-0.011506064862060189
191,1.0,300.13408,283.30319,0.0,-0.0019099923684097186,0.0,0.0,0.0,0.0,-0.018823379141972883,-0.06334694527785674,-0.003946770752890947,0.010345686794539791,-0.012503344113983987,-0.032489257519690076
192,1.0,299.98087999999996,379.43621,0.0,-0.001919988355829294,0.0,0.0,0.0,0.0,-0.028269725412754673,-0.05230208045056345,-0.034767328467768165,-0.000944334218688531,0.007360222888522442,-0.008818549782398101
193,1.0,300.27394,674.15387,0.0,-0.001930017333305889,0.0,0.0,0.0,0.0,-0.06042860665783914,-0.07453328312386234,-0.06996405206291434,0.016649246375902683,-0.01083631059896059,-0.018342373107501284
194,1.0,300.11352,643.88131,0.0,-0.0019400133207253534,0.0,0.0,0.0,0.0,-0.03833111652073667,-0.09287897361219101,-0.06451375140401154,-0.01232788770016779,-0.0063741201905016835,-0.0005811398575215385
195,1.0,300.03477000000004,582.6551599999999,0.0,-0.0019500093081447067,0.0,0.0,0.0,0.0,-0.04345341089701776,-0.07812371661471051,-0.05553549121567625,0.016629849729238384,-0.010705062287007388,-0.01908868348190638
196,1.0,299.80072,643.24838,0.0,-0.001960005295563838,0.0,0.0,0.0,0.0,-0.055700654021726546,-0.07826395042855051,-0.06156684014442403,-0.0034973953467910463,0.011385612729922489,0.007716414141225782
197,1.0,299.51682,722.2357599999999,0.0,-0.0019700012829833025,0.0,0.0,0.0,0.0,-0.07945868780696193,-0.09389399892636621,-0.04618894906649436,0.005633252792983765,-0.00984638571891261,-0.0035619222542343566
198,1.0,299.84862999999996,809.7651,0.0,-0.001979997270402434,0.0,0.0,0.0,0.0,-0.08188799038546543,-0.09179509187422022,-0.07246528830576714,-0.023989030490032977,-0.005496748550111844,1.4109543106253485e-05
199,1.0,299.87604,673.39793,0.0,-0.001989993257821898,0.0,0.0,0.0,0.0,-0.07509011572956743,-0.08036330432399064,-0.04924273693337975,0.0004849509413509315,-0.00946863979948199,0.0007572175152390502
200,1.0,299.05972,413.10919,0.0,-0.0019999892452412515,0.0,0.0,0.0,0.0,-0.02165981979615778,-0.052458547544255545,-0.051456509056612046,-0.008652615791696691,0.025806641075917177,0.0024187770377897076
201,1.0,299.96157,537.11598,0.0,-0.0020100182227178465,0.0,0.0,0.0,0.0,-0.04179641362423486,-0.060497579605396236,-0.06097585290434814,0.02138930329770988,0.001109610691135049,0.0017841368555805985
202,1.0,300.43036,850.99998,0.0,-0.0020200142101372,0.0,0.0,0.0,0.0,-0.07853827269437402,-0.1039133371154479,-0.07623113869367762,-0.008077213959358953,-0.006570727896180353,-0.010558085293751891
203,1.0,300.009,768.36584,0.0,-0.0020300101975566642,0.0,0.0,0.0,0.0,-0.07846124643502213,-0.0965211669578975,-0.058581615872055355,0.009219193330238542,-0.02035597058072788,-0.018790724117750086
204,1.0,300.20856000000003,513.86198,0.0,-0.0020400061849757956,0.0,0.0,0.0,0.0,-0.03349251697370407,-0.07409311613467123,-0.048615577677983954,0.004398553843878465,0.004617475039284306,-0.016201519527715483
205,1.0,300.28837999999996,488.83430999999996,0.0,-0.00205000217239526,0.0,0.0,0.0,0.0,-0.03452165686177226,-0.07928166794824143,-0.034790100250515564,-0.0006405416345015374,-0.01065661778647629,-0.018218258076252086
206,1.0,300.37965,639.2901400000001,0.0,-0.0020599981598143913,0.0,0.0,0.0,0.0,-0.03308104624059507,-0.0910204246825165,-0.07022676856209244,-0.011279418039941888,0.005002856811468525,0.002069266548295708
207,1.0,300.56633,726.4767099999999,0.0,-0.0020699941472337446,0.0,0.0,0.0,0.0,-0.04738697038847986,-0.1135715357436379,-0.05987227054468303,-0.011008870130740887,0.004049196557799587,-0.02162981442094648
208,1.0,300.12307999999996,624.6077,0.0,-0.002079990134653209,0.0,0.0,0.0,0.0,-0.05440589973919425,-0.08569843391027691,-0.04976081170950975,-0.015629420282753687,0.019666901744222084,-0.0008664479734467571
209,1.0,299.46079,540.99845,0.0,-0.002090019112130026,0.0,0.0,0.0,0.0,-0.04783883231032515,-0.07537831141576012,-0.04123287836911826,-0.018062100023840483,-0.012123203073966988,-0.01951409754964148
210,1.0,299.59732,625.3327400000001,0.0,-0.0021000150995491573,0.0,0.0,0.0,0.0,-0.05279545928200615,-0.08900144989100922,-0.048288629228466655,-0.008865541383610811,-0.0009417723272681922,-0.012585920957383688
211,1.0,300.01622000000003,829.1509,0.0,-0.0021100110869685107,0.0,0.0,0.0,0.0,-0.07712631374627453,-0.0898941779446146,-0.08502067699788751,0.0008366053464665192,0.0037743342296727863,-0.012668897021322787
212,1.0,300.253,825.55582,0.0,-0.002120007074387753,0.0,0.0,0.0,0.0,-0.06747936827369513,-0.08856320199750752,-0.09490578487997171,0.0033365708723689064,0.022575656031543778,0.007480717779814363
213,1.0,300.21681,591.21953,0.0,-0.0021300030618071064,0.0,0.0,0.0,0.0,-0.05959634734370155,-0.061794099982852846,-0.058325527041781344,0.006522561836776734,-0.0013486189618233287,0.011999276507236388
214,1.0,300.07966,506.89055999999994,0.0,-0.0021399990492263488,0.0,0.0,0.0,0.0,-0.044935816058319755,-0.05864919053447445,-0.05049706658992245,0.0007241051605836153,-0.0016609567501986685,-0.003720681927602716
215,1.0,300.04778,705.13663,0.0,-0.002149995036645702,0.0,0.0,0.0,0.0,-0.07487615378545102,-0.08490291504476533,-0.05456485942813235,0.006344922172970063,-0.004719827991510756,-0.002360537144566878
216,1.0,300.33055,761.57466,0.0,-0.0021599910240651665,0.0,0.0,0.0,0.0,-0.060319994353119945,-0.08913875541206022,-0.08204092934230933,0.0013988519501059388,0.004334625260619206,-0.006997895089238473
217,1.0,300.07293,616.49343,0.0,-0.002169987011484298,0.0,0.0,0.0,0.0,-0.04418619032958746,-0.07948816629212123,-0.06372425225734404,-0.010519178516412089,-0.009777260479865482,0.000987129495274596
218,1.0,299.60413,677.60982,0.0,-0.002180015988961115,0.0,0.0,0.0,0.0,-0.04562429619651746,-0.08897379626928001,-0.07137837188374684,-0.004863283028743666,0.003905940826861346,-0.003924114987279997
219,1.0,300.1303,755.94009,0.0,-0.002190011976380468,0.0,0.0,0.0,0.0,-0.08656160444521523,-0.08600513762279623,-0.05722017048119114,-0.0011579960178603088,0.007448491056408832,-0.0003038127073339797
220,1.0,300.30337000000003,777.20588,0.0,-0.0022000079637997105,0.0,0.0,0.0,0.0,-0.06618693838689223,-0.11305670336782789,-0.05700754096095625,0.003350901572508237,0.019495096070516183,-0.018813318581729983
221,1.0,300.71502999999996,734.7699200000001,0.0,-0.002210003951219064,0.0,0.0,0.0,0.0,-0.07107754400855743,-0.08803464312259282,-0.06423952134394714,-0.0073269552532891835,-0.02632169535349908,-0.016972166143022382
222,1.0,300.13145,589.7709,0.0,-0.0022199999386384173,0.0,0.0,0.0,0.0,-0.040176507384612564,-0.07525030347762673,-0.06384881717163764,0.004272777893065346,-0.02020267698634898,-0.019277157119757284
223,1.0,300.06109,513.8666,0.0,-0.0022299959260576596,0.0,0.0,0.0,0.0,-0.023879393789462678,-0.07766501018843973,-0.05465821117309544,0.0014041700945807986,0.000868844725365798,-0.02969356167852637
224,1.0,300.48953,612.29764,0.0,-0.002239991913477013,0.0,0.0,0.0,0.0,-0.04722545325628936,-0.07221085917915693,-0.06668688206573284,0.013796688965627187,0.006638221498591453,-0.0029971413094448175
225,1.0,301.0041,721.7404700000001,0.0,-0.0022499879008962553,0.0,0.0,0.0,0.0,-0.07482311419571643,-0.0947669078080156,-0.049801059016731854,-0.003135262192851287,0.0006754877489229504,-0.009605067845946391
226,1.0,300.21466000000004,582.74112,0.0,-0.0022600168783730723,0.0,0.0,0.0,0.0,-0.055477587012211546,-0.07229000211796772,-0.04937115827755396,-0.0025099211134349277,-0.00976451237505734,-0.005825143616796915
227,1.0,300.15305,656.1477,0.0,-0.0022700128657924257,0.0,0.0,0.0,0.0,-0.06991469563729323,-0.08325462361684162,-0.04628319753779596,0.0037431199457671764,0.003686258579305397,-0.017138929884230682
228,1.0,299.69535,766.8342200000001,0.0,-0.002280008853211668,0.0,0.0,0.0,0.0,-0.05867333020485685,-0.1014913147389129,-0.07293380704600634,-0.00987792262165006,-0.0009207724251031632,0.0027347860339273673
229,1.0,300.10262,777.20797,0.0,-0.0022900048406310214,0.0,0.0,0.0,0.0,-0.05912573928175614,-0.08103906006743251,-0.0960870156345501,-0.008187599755728182,-0.004737474248627306,0.012919712898076387
230,1.0,299.89058,801.64532,0.0,-0.0023000008280503748,0.0,0.0,0.0,0.0,-0.06974098910639974,-0.0959851363767454,-0.07795403369996412,-0.005396588271101795,-0.01000788532187638,-0.0014182837565487087
231,1.0,299.55883,707.06461,0.0,-0.002309996815469617,0.0,0.0,0.0,0.0,-0.09076948620250082,-0.05898825036243704,-0.06517224947175024,-0.007470141981895614,0.015877250111462585,0.015093213396084184
232,1.0,299.38147000000004,647.6479400000001,0.0,-0.0023199928028889705,0.0,0.0,0.0,0.0,-0.06606431789954054,-0.08371752084552601,-0.04708696425912155,0.016494349819865584,0.001112149186610579,-0.004170112555833066
233,1.0,299.9532,670.40412,0.0,-0.002329988790308213,0.0,0.0,0.0,0.0,-0.06985343352299714,-0.07548510291004963,-0.058447576056076644,-0.0005746330389568654,-0.01143794709758749,-0.001218084484565579
234,1.0,300.39378999999997,812.27013,0.0,-0.0023400177677849188,0.0,0.0,0.0,0.0,-0.05918056117841665,-0.08879207796984583,-0.0989371969733411,0.015112043635942585,-0.016129630446370585,-0.01913545915952278
235,1.0,300.53495,757.75108,0.0,-0.002350013755204383,0.0,0.0,0.0,0.0,-0.05137997219705845,-0.1071213679920559,-0.07183606911291804,0.010506756070186089,0.00953889339384048,-0.014661375322715088
236,1.0,300.48322,519.54565,0.0,-0.0023600097426235145,0.0,0.0,0.0,0.0,-0.026231640724361377,-0.08313807148433883,-0.04855919132316905,0.015800495403137486,0.022088449919710276,-0.025545436345888274
237,1.0,300.42888,491.99792,0.0,-0.002370005730042979,0.0,0.0,0.0,0.0,-0.04667441137490576,-0.07242080459987693,-0.03045986651715477,-0.016132692488172787,-0.005219190672744015,-0.00016412930108080086
238,1.0,300.07255,659.10993,0.0,-0.0023800017174623322,0.0,0.0,0.0,0.0,-0.06480576805633134,-0.0956753665694235,-0.03987182713254296,-0.003931173287476596,-0.014390356252217587,-0.02923611168237957
239,1.0,299.64162999999996,750.1113,0.0,-0.0023899977048815746,0.0,0.0,0.0,0.0,-0.06672255556200353,-0.10158229446539191,-0.05971025286694314,-0.009494872945896,0.01084323211039369,-0.014131152691136186
240,1.0,299.33769,627.23165,0.0,-0.002399993692300928,0.0,0.0,0.0,0.0,-0.02622317907277627,-0.08921481604406682,-0.07522476450885622,0.005123169520392465,0.004346003248642126,-0.02237741567597898
241,1.0,299.37338,646.72577,0.0,-0.0024099896797200593,0.0,0.0,0.0,0.0,-0.02646442074933497,-0.0928190864782806,-0.07730497810990733,-0.019175464299970982,0.006150604513842405,-0.011271368781147489
242,1.0,299.91597,740.5445,0.0,-0.0024200186571968763,0.0,0.0,0.0,0.0,-0.06544042232271685,-0.06975432753071614,-0.08991228776365191,-0.0004343559694700966,-0.01750960108881308,-0.008977292534489792
243,1.0,299.9488,900.29529,0.0,-0.0024300146446163406,0.0,0.0,0.0,0.0,-0.0972372774130721,-0.10101602748800571,-0.07541398085903044,0.003220715045334827,0.02317538154048208,-0.0050575930884955754
244,1.0,300.27012,747.0142099999999,0.0,-0.002440010632035472,0.0,0.0,0.0,0.0,-0.08819920608458391,-0.08159506687430612,-0.05727939393628604,0.01011291467291697,-0.0042580035920322355,-0.0017462357289650483
245,1.0,300.62383,547.32939,0.0,-0.0024500066194550474,0.0,0.0,0.0,0.0,-0.03961428124862516,-0.07400484381245943,-0.05275534369729704,-0.009547269020492091,-0.012177703770345789,-0.005980935885922414
246,1.0,300.12413,564.25462,0.0,-0.0024600026068742897,0.0,0.0,0.0,0.0,-0.02772453707719877,-0.0928431511681556,-0.05095162578353395,0.0002471779238595618,-0.03832570373870246,-0.017147796835855784
247,1.0,299.47254,780.6731900000001,0.0,-0.002469998594293421,0.0,0.0,0.0,0.0,-0.06584232290863135,-0.07998290287869793,-0.0914799295498661,0.016764474190524785,0.001958938912482218,0.006218371389805474
248,1.0,299.35163,831.1471700000001,0.0,-0.0024799945817128854,0.0,0.0,0.0,0.0,-0.07929321190663073,-0.10330211425762491,-0.07005265875765915,0.024246476062190877,0.007469037539286613,-0.0025425454361796976
249,1.0,299.7982,660.83091,0.0,-0.0024899905691320168,0.0,0.0,0.0,0.0,-0.07446170409704803,-0.07078214918040424,-0.055632243427974945,-0.02061164499171098,0.02076787498487968,0.014680105250813586
250,1.0,300.13456,784.4041,0.0,-0.0025000195466088337,0.0,0.0,0.0,0.0,-0.07514940403266873,-0.09194794166505532,-0.07134191514514884,-0.0018477680499355083,-0.003733345426027506,-0.011563225339951489
251,1.0,299.49613999999997,884.1751800000001,0.0,-0.002510015534028187,0.0,0.0,0.0,0.0,-0.08432466841144683,-0.10182764284460591,-0.08261486763620263,-0.009879753665905771,0.018047671342416482,-0.007125558319687853
252,1.0,299.37774,837.01292,0.0,-0.0025200115214476515,0.0,0.0,0.0,0.0,-0.04280722584449426,-0.1042893846250609,-0.1073344139580819,0.014942495483459484,0.015353930752814984,-0.02730593205013568
253,1.0,299.57099,717.9286599999999,0.0,-0.002530007508867005,0.0,0.0,0.0,0.0,-0.04256965112004746,-0.09641430149635072,-0.07924843334496141,-0.003254678378086747,-0.012888415628987588,-0.007173180466437793
254,1.0,300.51682,491.33422,0.0,-0.0025400034962862472,0.0,0.0,0.0,0.0,-0.023987180295350376,-0.08258568805982283,-0.04278046489610316,0.01210574477474399,-0.031381514755114366,-0.031778636853557266
255,1.0,300.10251,368.2562,0.0,-0.0025499994837053785,0.0,0.0,0.0,0.0,-0.027104259816482176,-0.07091798042255973,-0.013918447177143788,0.009941084377233641,0.0004043789652615966,-0.018297566174829184
256,1.0,300.12836,590.92452,0.0,-0.002559995471124732,0.0,0.0,0.0,0.0,-0.03820749088928576,-0.0942301335012901,-0.04718867329090946,0.015563948114292087,-0.006879606854014333,-0.02200624291259708
257,1.0,299.76542,791.3464299999999,0.0,-0.0025699914585439743,0.0,0.0,0.0,0.0,-0.04697838539165566,-0.1139550813039909,-0.07961609013049632,-0.01874078709982168,0.016854042459614485,-0.01736469011251148
258,1.0,300.49553,687.2926,0.0,-0.0025800204360207912,0.0,0.0,0.0,0.0,-0.03532592108889697,-0.10542183346682489,-0.06817203820105634,-0.008745856585773842,-0.004964376308445795,-0.026413404620050072
259,1.0,300.0743,730.24438,0.0,-0.0025900164234401446,0.0,0.0,0.0,0.0,-0.05671963810404245,-0.1058049635946369,-0.05945145967215224,-0.006499893202889515,0.019929252460114084,-0.018714524670479783
260,1.0,300.46252000000004,880.90313,0.0,-0.002600012410859498,0.0,0.0,0.0,0.0,-0.10382623813685189,-0.09148377686049582,-0.07246253935824583,0.012227967054806388,-0.002164309103700678,0.00941005712375033
261,1.0,299.8722,891.42298,0.0,-0.0026100083982789624,0.0,0.0,0.0,0.0,-0.097787481336623,-0.10216263346016691,-0.07102020925164892,-0.013800638614516986,-0.0028540603641488273,0.0016772844649600882
262,1.0,300.25851,824.86604,0.0,-0.0026200043856980937,0.0,0.0,0.0,0.0,-0.08181448314371083,-0.08727413711428672,-0.08165005899698342,-0.0006709449636896123,-0.02582579150280718,0.004417395533462995
263,1.0,299.93787000000003,711.03156,0.0,-0.002630000373117336,0.0,0.0,0.0,0.0,-0.06520870215734784,-0.07280469061226352,-0.07812244802558532,-0.006508100123399473,0.01034861306082859,-0.0046484226357635956
264,1.0,299.34852,574.9617400000001,0.0,-0.0026399963605366894,0.0,0.0,0.0,0.0,-0.028463745581652974,-0.08381904850554601,-0.062491217064902946,0.01260333467360229,0.014698173526596787,-0.01078803632444629
265,1.0,299.59819,698.56382,0.0,-0.002649992347956154,0.0,0.0,0.0,0.0,-0.06886840446478235,-0.07007480333859463,-0.07340274932478734,-0.007081339376048784,0.014820050288375087,-0.0002423681269598718
266,1.0,299.35596,882.7094400000001,0.0,-0.002659988335375507,0.0,0.0,0.0,0.0,-0.08482127343120792,-0.1088150864617129,-0.07468526455936172,-0.008312215737826822,-0.00995578288715927,-0.008307155566827424
267,1.0,299.54116,671.24217,0.0,-0.002670017312852102,0.0,0.0,0.0,0.0,-0.06692181828691923,-0.08597828649514623,-0.051140754994199546,0.0036426430261008768,0.002886376253563157,0.002143075434605078
268,1.0,300.51372000000003,686.03381,0.0,-0.0026800133002714555,0.0,0.0,0.0,0.0,-0.05493662088982236,-0.095547165100521,-0.058053362998670845,0.012256216467594387,-0.006162131449630024,-0.0031387974224501873
269,1.0,300.48192,817.87559,0.0,-0.00269000928769092,0.0,0.0,0.0,0.0,-0.05247402696603325,-0.11040225155085388,-0.08573747544988002,0.005942139654168525,-0.0016662378097198683,-0.006452626200299624
270,1.0,300.31346,904.12859,0.0,-0.002700005275110051,0.0,0.0,0.0,0.0,-0.057368137419794345,-0.12570323998594388,-0.09176113482361892,-0.005060503142782775,-0.008223321381378632,-0.021519596114818778
271,1.0,300.43147999999997,841.28938,0.0,-0.0027100012625292935,0.0,0.0,0.0,0.0,-0.07286055413002684,-0.11323632221305488,-0.06963408919434953,0.004323818948302706,0.02894302098495377,-0.02274008625777178
272,1.0,300.24064,670.0227,0.0,-0.002719997249948647,0.0,0.0,0.0,0.0,-0.07031200924000502,-0.08537055631041791,-0.04798760579600796,-0.0013269490885596787,0.015269102467693085,-0.017245258323224485
273,1.0,299.87372,644.78332,0.0,-0.0027299932373680003,0.0,0.0,0.0,0.0,-0.061512394163550636,-0.08942076419314232,-0.04506487169705656,-0.009735140179833532,0.007678857620969243,-0.02138027929231928
274,1.0,299.72985,652.09009,0.0,-0.0027399892247874647,0.0,0.0,0.0,0.0,-0.054306095617594356,-0.08339234153068333,-0.060520667522174845,-0.019887422456235784,-0.011814221575222888,-0.015589158790030184
275,1.0,299.05109,800.55935,0.0,-0.0027500182022641706,0.0,0.0,0.0,0.0,-0.05197749996652986,-0.10960936308260188,-0.08176319343689892,0.006602717417737473,0.004784884727431355,-0.02910329384602147
276,1.0,299.35888,818.07033,0.0,-0.002760014189683413,0.0,0.0,0.0,0.0,-0.06650880234740773,-0.09391948216638121,-0.08824466656357052,-0.009020441486023262,0.0027924068313390973,-0.001220095786014079
277,1.0,300.16556,650.0549599999999,0.0,-0.0027700101771027663,0.0,0.0,0.0,0.0,-0.054903469373050545,-0.08530846738404023,-0.05738853718405764,0.008173923817803472,-0.0014787353720898187,-0.005323863866374455
278,1.0,300.34629,727.5902,0.0,-0.0027800061645220087,0.0,0.0,0.0,0.0,-0.053078460034936145,-0.1033962249269129,-0.06469456993735694,0.0032638577147176768,-0.013789812037198488,0.006281455530431394
279,1.0,300.10073,984.0891300000001,0.0,-0.002790002151941251,0.0,0.0,0.0,0.0,-0.1069546275555999,-0.10215552044446491,-0.09002838089385941,0.013884881241081089,-0.0071162726931214325,0.006760715329680654
280,1.0,300.08704,954.33639,0.0,-0.0027999981393606044,0.0,0.0,0.0,0.0,-0.08814500227048441,-0.10296089215394891,-0.098988537342658,0.0033030446557101266,-0.004228425200413076,0.007520359366126683
281,1.0,300.29259,741.3618799999999,0.0,-0.0028099941267799577,0.0,0.0,0.0,0.0,-0.056185712043348046,-0.08880197742332281,-0.08036780923393523,-0.007090959881773253,0.0018481158986948384,0.0034768937508926965
282,1.0,300.19359,766.20939,0.0,-0.002819990114199311,0.0,0.0,0.0,0.0,-0.052979463473665944,-0.09793448062138072,-0.08199457720323472,-0.01834745354350268,0.012585351510827488,-0.02055663868353228
283,1.0,300.14761,800.12148,0.0,-0.002830019091676128,0.0,0.0,0.0,0.0,-0.08106557175629901,-0.09269235118227281,-0.06945902794807234,-0.0037706500523091865,0.018511417674684682,-0.014696606028692088
284,1.0,299.86347,757.58397,0.0,-0.0028400150790953704,0.0,0.0,0.0,0.0,-0.07526595616517152,-0.0941701724001224,-0.060850481442974946,-0.003976782714227896,0.019798862370995582,-0.019583374472228583
285,1.0,299.70072000000005,731.45429,0.0,-0.002850011066514724,0.0,0.0,0.0,0.0,-0.07695452124481993,-0.09674149515239222,-0.04864782233591625,0.01035081282679569,-0.015753629546262183,-0.004865077798645796
286,1.0,299.47701,695.28692,0.0,-0.002860007053933966,0.0,0.0,0.0,0.0,-0.030897598666355573,-0.1129066004980139,-0.06754566218798784,-0.003996005385850026,-0.02056323696818348,-0.016405584044855086
287,1.0,300.12621,761.50165,0.0,-0.0028700030413530975,0.0,0.0,0.0,0.0,-0.03219197703310077,-0.12329059017283389,-0.07599491969786464,0.0051158531453953954,-0.012282451539183588,-0.014867247478033089
288,1.0,299.95466,923.6184199999999,0.0,-0.002879999028772673,0.0,0.0,0.0,0.0,-0.05937328236068674,-0.12451112084579087,-0.09687252865532421,0.007579190794757894,0.008055745722865201,-0.01126004672453009
289,1.0,299.68299,924.04721,0.0,-0.0028899950161919152,0.0,0.0,0.0,0.0,-0.07987831419012584,-0.12588937402931388,-0.07511959421472672,0.004812850430191355,0.004430698798000926,-0.012640936384813289
290,1.0,299.89768,729.57424,0.0,-0.0028999910036112686,0.0,0.0,0.0,0.0,-0.05030021236049445,-0.11629304445222989,-0.05517909163875235,-0.005733133921591265,0.0025003249257128574,-0.005797134952232675
291,1.0,299.62814,699.30807,0.0,-0.0029100199810880856,0.0,0.0,0.0,0.0,-0.05501759679806405,-0.1088936133444629,-0.04866098546796536,0.005046851624185475,-0.0044148108337829055,-0.01841659975682688
292,1.0,300.11987999999997,823.52242,0.0,-0.002920015968507328,0.0,0.0,0.0,0.0,-0.06533725015778453,-0.0972303305703865,-0.08776267159700132,-0.0005912485370116873,0.00036581934767105864,-0.005308336923167065
293,1.0,300.63791000000003,853.5646300000001,0.0,-0.0029300119559266813,0.0,0.0,0.0,0.0,-0.06947646800879353,-0.1046779863034129,-0.08530788172548243,0.011243722252168988,-0.022407251838423577,-0.022664219156534278
294,1.0,299.90741,697.3828900000001,0.0,-0.0029400079433458126,0.0,0.0,0.0,0.0,-0.057521609346190855,-0.09546509792192161,-0.05900027561462385,-0.008316540795878673,-0.008487866594337212,-0.01971425396114538
295,1.0,300.41087000000005,689.69249,0.0,-0.002950003930765277,0.0,0.0,0.0,0.0,-0.05800785084392915,-0.09447383534909161,-0.05716760813225365,0.008048152629265821,-0.003105827176121277,-0.014459311974522987
296,1.0,300.07637,884.62759,0.0,-0.0029599999181846304,0.0,0.0,0.0,0.0,-0.09782723316454621,-0.1024449249380269,-0.06863253605350393,0.0017517655413857984,0.008660408495565772,-0.0023841805250502976
297,1.0,299.58903,964.91074,0.0,-0.0029699959056038727,0.0,0.0,0.0,0.0,-0.10182502865934791,-0.10117772700521421,-0.09030601344775961,0.01105818703960809,0.000912756076672011,0.007875879441963784
298,1.0,299.65066,945.26631,0.0,-0.002979991893023226,0.0,0.0,0.0,0.0,-0.08524778890180172,-0.11825289306065188,-0.08383667399103552,-0.011675650504796988,-0.011324928168183389,0.011177721167155189
299,1.0,299.9904,811.35779,0.0,-0.002990020870500043,0.0,0.0,0.0,0.0,-0.053009407040621154,-0.11477462838237389,-0.07884846907998802,-0.0015287042060713584,-0.007403773188420523,0.003460632201362807
300,1.0,300.35461000000004,773.5808900000001,0.0,-0.0030000168579191744,0.0,0.0,0.0,0.0,-0.06313150905484484,-0.1049175287595539,-0.06710023440427754,-0.01076117607754539,0.013171586607934386,-0.003878097322063406
301,1.0,300.37147999999996,927.81559,0.0,-0.0030100128453386388,0.0,0.0,0.0,0.0,-0.07623004641006983,-0.13011631907398089,-0.07568640226766632,0.019662290443016983,-0.0034726901815278367,-0.01138442216105499
302,1.0,299.74072,923.28386,0.0,-0.00302000883275777,0.0,0.0,0.0,0.0,-0.08639333704085851,-0.1152970803989359,-0.07896482666847163,-0.0016975456166097081,0.003418462353400966,-0.015516209849080686
303,1.0,299.94943,710.64697,0.0,-0.0030300048201772345,0.0,0.0,0.0,0.0,-0.048549161160429156,-0.1071957709468989,-0.060273998878080534,0.013844024970548886,-0.0018509790395024083,-0.029315515026466073
304,1.0,300.18622999999997,632.77734,0.0,-0.003040000807596588,0.0,0.0,0.0,0.0,-0.032051695596506065,-0.09504327785229122,-0.06525353847427284,-0.009243566453443982,0.015187828663921986,-0.02854418852034207
305,1.0,299.99677,706.37283,0.0,-0.003049996795015719,0.0,0.0,0.0,0.0,-0.04272382624201337,-0.0982738798881268,-0.07372199504704442,0.007308393727357303,-0.009629804016662661,-0.03255353000003327
306,1.0,299.94529,840.5404699999999,0.0,-0.0030599927824351836,0.0,0.0,0.0,0.0,-0.050892103419659544,-0.12177912499866389,-0.08283208109988992,0.003772254027217486,0.0017298695106998281,-0.028304752455461574
307,1.0,300.16661,798.14809,0.0,-0.003069988769854315,0.0,0.0,0.0,0.0,-0.05631898685550124,-0.12033202147084587,-0.06596608532884574,0.014993956429538288,-0.004361721797443426,-0.030381729735693266
308,1.0,299.62405,689.08518,0.0,-0.003080017747331132,0.0,0.0,0.0,0.0,-0.05373519200775055,-0.10092037566531559,-0.05480911856348885,-0.012511671003305788,0.012042682115020189,0.0031285062464845273
309,1.0,300.62953999999996,802.6198099999999,0.0,-0.0030900137347504852,0.0,0.0,0.0,0.0,-0.06963568708975723,-0.11175076584394189,-0.06258993092939524,-0.003430598455148707,-0.006543055022699255,-0.00835307109643393
310,1.0,300.13228,910.18191,0.0,-0.0031000097221699496,0.0,0.0,0.0,0.0,-0.07078799360698103,-0.11206686947763889,-0.09381771132633722,-0.01069245441601309,0.004086364901942816,0.016789495388494183
311,1.0,299.27506,981.0526800000001,0.0,-0.003110005709589081,0.0,0.0,0.0,0.0,-0.08349897394470712,-0.12678442850514887,-0.08793211538472412,0.01119348024596049,0.019381402316545483,-0.011310223882732189
312,1.0,299.44092,995.5657199999999,0.0,-0.0031200016970085453,0.0,0.0,0.0,0.0,-0.0887302160114905,-0.1187604300357419,-0.09513647153023871,0.005432239678520314,0.02195709015024608,0.004605507643678216
313,1.0,300.194,834.97187,0.0,-0.0031299976844276767,0.0,0.0,0.0,0.0,-0.07428739366909493,-0.09116753035853473,-0.08835567520477622,0.011795984086672989,-0.0059299513700406346,-0.012927884760132886
314,1.0,300.24994,809.5128900000001,0.0,-0.003139993671847141,0.0,0.0,0.0,0.0,-0.07778321898485602,-0.09102978204719,-0.07725870399109043,0.003860708025172216,-0.003972077383413516,-0.0018553162565554582
315,1.0,300.62394,841.8250699999999,0.0,-0.0031499896592662724,0.0,0.0,0.0,0.0,-0.08225360851179912,-0.07882144266007073,-0.094818749736132,0.0062318952388901745,-0.004122981531406596,-0.0032197260119122165
316,1.0,299.95766000000003,734.5726400000001,0.0,-0.0031600186367430894,0.0,0.0,0.0,0.0,-0.05189853941273705,-0.09668919726173081,-0.07470400461996123,0.004783152475060395,0.0030553937669688873,-0.0012294807110902989
317,1.0,299.51875,706.50713,0.0,-0.0031700146241624427,0.0,0.0,0.0,0.0,-0.04493007194350286,-0.09802740781455191,-0.07180304526565884,-0.016670475991997884,-0.008672105252070152,-0.017383048177823286
318,1.0,300.34324,870.40123,0.0,-0.003180010611581907,0.0,0.0,0.0,0.0,-0.06838719071404023,-0.1052036401902909,-0.0909894090969555,-0.001981664592350068,-0.0007613690136812713,-0.015324893031449186
319,1.0,299.97816,978.5867099999999,0.0,-0.0031900065990010384,0.0,0.0,0.0,0.0,-0.07002354504253584,-0.16247929422045784,-0.06496308020060684,0.009570727584157272,-0.003357450714529587,-0.02937425212151297
320,1.0,299.86107999999996,946.8748699999999,0.0,-0.003200002586420392,0.0,0.0,0.0,0.0,-0.08092049967323152,-0.12648207467530886,-0.08042373861295503,0.0011619215513977287,0.01069782565479319,-0.0028885802751806773
321,1.0,299.50515,834.83883,0.0,-0.003209998573839634,0.0,0.0,0.0,0.0,-0.056998220073286344,-0.12415046460519688,-0.07262147371593143,-0.013337605610319188,-0.006432750488988044,-0.009697930799061252
322,1.0,299.41886,668.8602,0.0,-0.0032199945612589875,0.0,0.0,0.0,0.0,-0.04374207166500636,-0.0920680138284055,-0.06750671285414385,-0.006547928249055203,0.02145896626858508,0.0006499462875572044
323,1.0,299.88322,684.95527,0.0,-0.00322999054867823,0.0,0.0,0.0,0.0,-0.04519668337606536,-0.08771033621608622,-0.07530227915475633,-0.007941825710147173,0.018450768576699084,-0.016109629902646683
324,1.0,300.05806,846.2211199999999,0.0,-0.003240019526155047,0.0,0.0,0.0,0.0,-0.07541094414848072,-0.1059831030947179,-0.07583604714843513,-0.0025996731860927673,-0.00014356301929606684,-0.024805616851623774
325,1.0,299.75388,879.05793,0.0,-0.0032500155135744,0.0,0.0,0.0,0.0,-0.07470718217227483,-0.1058441561085049,-0.08666032236270792,-0.0016354413901554985,-0.022717131076756276,-0.028289196026676275
326,1.0,300.08946000000003,691.6207099999999,0.0,-0.0032600115009937536,0.0,0.0,0.0,0.0,-0.06523635071282653,-0.08936927994231122,-0.055629794402483244,0.005697827627156806,-0.004787311360095845,-0.014553974865115487
327,1.0,300.42985,790.7708299999999,0.0,-0.003270007488412996,0.0,0.0,0.0,0.0,-0.06874236932459364,-0.10151044490080091,-0.07012177356023022,0.023055059104357182,-0.009862752342477871,-0.016312241419142882
328,1.0,300.315,1032.9315,0.0,-0.0032800034758323493,0.0,0.0,0.0,0.0,-0.09621281468746551,-0.11774639973316488,-0.10002617434606481,-0.005210471554308506,-0.005742562112446755,0.003102276139820817
329,1.0,300.30102999999997,946.73148,0.0,-0.0032899994632515916,0.0,0.0,0.0,0.0,-0.07662470124451921,-0.13312516524593088,-0.07803286050474373,-0.004666687076766155,-0.00861492663700206,-0.0025223279556093876
330,1.0,300.35789,827.9205900000001,0.0,-0.003299995450670945,0.0,0.0,0.0,0.0,-0.04860430223087115,-0.12221479214416088,-0.08084808876808514,-0.007464013642640792,0.005880624227347425,0.0022731825229706476
331,1.0,300.24825,877.8825199999999,0.0,-0.0033099914380902984,0.0,0.0,0.0,0.0,-0.08029432934993333,-0.1091078346806049,-0.07745219929643692,0.0031101187969198273,0.006511920886876554,0.007783827291578942
332,1.0,300.02767,903.25645,0.0,-0.0033200204155668933,0.0,0.0,0.0,0.0,-0.07405531886619093,-0.11818809571675688,-0.08232399190349543,-0.00966094494126103,-0.005177421362546705,0.0002669621488196127
333,1.0,299.81706,849.59203,0.0,-0.0033300164029864687,0.0,0.0,0.0,0.0,-0.07002102306303694,-0.1054451179541229,-0.08278862482960112,-0.001085600311465409,-0.008561992425277862,0.003120557198125017
334,1.0,299.50549,830.27882,0.0,-0.003340012390405711,0.0,0.0,0.0,0.0,-0.05716479636322615,-0.1068996080751699,-0.08831962984571881,-0.002625193612386437,0.016773357354151485,-0.018780033315944984
335,1.0,299.6958,803.47419,0.0,-0.0033500083778249534,0.0,0.0,0.0,0.0,-0.06440802078257674,-0.1073026080374429,-0.07252546421595603,0.007040142856133003,0.023843421384412478,-0.029318986421308677
336,1.0,300.40571,874.0912300000001,0.0,-0.003360004365244307,0.0,0.0,0.0,0.0,-0.06831613351102743,-0.1104837979189019,-0.08690198048505772,0.0015521970175899186,0.008156433195902283,-0.038352786900625366
337,1.0,300.64464,1000.0525,0.0,-0.003370000352663549,0.0,0.0,0.0,0.0,-0.07836455704422962,-0.15356288585797687,-0.07206355287961894,-0.006759933505903494,-0.015304581419944587,-0.04227503345472096
338,1.0,300.44286,833.47942,0.0,-0.0033799963400829025,0.0,0.0,0.0,0.0,-0.05724008084565614,-0.1182036592382929,-0.07791318857518302,-0.0013401300538105388,-0.0035359018903413464,-0.013402392821713188
339,1.0,300.51344,712.4403,0.0,-0.003389992327502256,0.0,0.0,0.0,0.0,-0.045440657788143754,-0.11292592317742088,-0.05819748262664435,0.005623345942781035,0.0035089606847574567,-0.022081754363049478
340,1.0,300.12352999999996,828.53041,0.0,-0.003400021304979073,0.0,0.0,0.0,0.0,-0.051756812068249655,-0.12524865546107988,-0.07484708465333213,0.0025333478610469673,-0.001148279456026359,-0.005123501562450236
341,1.0,299.65026,912.4361,0.0,-0.003410017292398426,0.0,0.0,0.0,0.0,-0.07880264687071573,-0.11717655800942589,-0.08137858396394092,-0.013462686268913686,-0.004700839178011706,-0.01016740543944479
342,1.0,299.82658,919.64546,0.0,-0.0034200132798176686,0.0,0.0,0.0,0.0,-0.06014014043386974,-0.13742624980041487,-0.08198286909832922,-0.0014068828690735286,0.007578683460432823,-0.01864241267411288
343,1.0,299.7173,787.24045,0.0,-0.0034300092672368,0.0,0.0,0.0,0.0,-0.06703090884568565,-0.10067405355275551,-0.07159647700752213,-0.0027478196726136873,0.016378650843946983,-0.014642057709558587
344,1.0,299.78418999999997,842.2005199999999,0.0,-0.0034400052546562643,0.0,0.0,0.0,0.0,-0.06360506060833074,-0.0968523487663326,-0.09555051794510191,0.012974233859457186,0.005879447134706254,-0.003809429565436426
345,1.0,300.24385,914.4989800000001,0.0,-0.0034500012420753956,0.0,0.0,0.0,0.0,-0.08784310237668921,-0.1070988231773309,-0.08304292729994882,-0.0037350700790227164,-0.011699449723145789,-0.007043316558096224
346,1.0,299.99492000000004,878.50225,0.0,-0.003459997229494971,0.0,0.0,0.0,0.0,-0.07248835697079384,-0.1037521695545419,-0.09080221620723102,-0.002079176134273708,-0.004281100020111676,-0.01838005486547018
347,1.0,300.34769,911.90845,0.0,-0.0034699932169142134,0.0,0.0,0.0,0.0,-0.08998087162317062,-0.10992291332604691,-0.07729361856303622,-0.01054241943395579,0.004034697354168626,-0.01960500634861348
348,1.0,300.36143,876.52975,0.0,-0.0034799892043334557,0.0,0.0,0.0,0.0,-0.06892812238592604,-0.1142712558651949,-0.08324378285402172,0.01877884477357768,0.0046407076481771855,-0.025673614510038474
349,1.0,300.41086,824.77905,0.0,-0.0034900181818103837,0.0,0.0,0.0,0.0,-0.07349502905114463,-0.10455491694626691,-0.07266229350946003,-0.01159371504871059,-0.0018130939222384384,-0.015119773720955486
350,1.0,300.80754,958.97109,0.0,-0.003500014169229626,0.0,0.0,0.0,0.0,-0.06484789392923884,-0.13279143106049388,-0.09386393680914931,0.010790854172974389,-0.021763966707686277,-0.0099305877141477
351,1.0,300.67575,963.61222,0.0,-0.0035100101566487574,0.0,0.0,0.0,0.0,-0.06839514979357574,-0.1213637431201689,-0.1031551524631209,0.0027591208562790276,-0.0034591703854435366,0.01023530535514599
352,1.0,300.43737000000004,848.22805,0.0,-0.0035200061440682218,0.0,0.0,0.0,0.0,-0.06038643012242664,-0.1127642287264629,-0.08468948607020152,0.0017837396615413984,-0.001077125082328969,-0.0030492794105654473
353,1.0,300.30577,908.87053,0.0,-0.003530002131487575,0.0,0.0,0.0,0.0,-0.07273593551347793,-0.1204501563000049,-0.08308785278288262,-0.0024962392986596377,-0.006888585972425503,-0.02039649349197718
354,1.0,299.84439,952.2577699999999,0.0,-0.0035399981189069285,0.0,0.0,0.0,0.0,-0.07285200939193352,-0.12921815392033886,-0.08739241987796031,-0.007668330256405274,0.0023089474144003677,-0.028676967853196372
355,1.0,299.90831000000003,895.4154300000001,0.0,-0.003549994106326171,0.0,0.0,0.0,0.0,-0.06376823339118465,-0.13224708270927088,-0.07616861305650682,-0.008763967012761201,0.019778029948939582,-0.025427793956277873
356,1.0,299.88468,908.0490300000001,0.0,-0.003559990093745302,0.0,0.0,0.0,0.0,-0.05947578375405285,-0.12228803999388987,-0.09426040536127772,0.020156972314088282,-0.004921293420818845,-0.03201942459407117
357,1.0,299.98271,924.32955,0.0,-0.003570019071222341,0.0,0.0,0.0,0.0,-0.08026190230698302,-0.1130192029816269,-0.08769200246877683,-0.015799827671321588,-0.015044472013273786,-0.016774300689994585
358,1.0,299.84726,829.8773,0.0,-0.0035800150586414725,0.0,0.0,0.0,0.0,-0.06738673897605334,-0.11176114152496588,-0.07311409868929973,0.006371525459645604,-0.026810611831501376,-0.025378078840121374
359,1.0,300.34242,826.22427,0.0,-0.003590011046060715,0.0,0.0,0.0,0.0,-0.07668506865897702,-0.1004824743033481,-0.07398400429765273,-0.00992877774549407,-0.005421297894665444,-0.01227918076786079
360,1.0,299.82331,879.61305,0.0,-0.0036000070334800682,0.0,0.0,0.0,0.0,-0.07487401886749033,-0.10818231177426291,-0.08432407059388781,0.01046311944137949,0.006582868050928494,-0.006915302033837174
361,1.0,299.75934,974.8729800000001,0.0,-0.0036100030208995326,0.0,0.0,0.0,0.0,-0.0932377604063505,-0.11431080301659788,-0.08878848194524092,-0.009098449280747033,-0.0014006701260853788,0.005202802162976595
362,1.0,299.87052,960.92559,0.0,-0.003619999008318886,0.0,0.0,0.0,0.0,-0.07668605252482413,-0.1177146951375359,-0.0976966363724073,0.0026995409397989473,-0.003618727385315587,-0.003231841949982967
363,1.0,300.29767000000004,926.4087800000001,0.0,-0.0036299949957381283,0.0,0.0,0.0,0.0,-0.07503868923399203,-0.1161348862441209,-0.09043156324115041,-0.0014977353313399685,0.014532463565492487,0.01774407628120398
364,1.0,300.48658,963.08292,0.0,-0.0036399909831572597,0.0,0.0,0.0,0.0,-0.07868463363156872,-0.11689195632133789,-0.0971765715730809,0.0017651265611794281,-0.007196841274822933,-0.0016355748351936687
365,1.0,300.81118,1097.4164,0.0,-0.0036500199606342987,0.0,0.0,0.0,0.0,-0.1020482375238769,-0.13580034815995087,-0.09573858729616291,-0.001827212549131838,-0.010809683399582689,-0.010857621275063789
366,1.0,300.55204,1007.9582,0.0,-0.00366001594805343,0.0,0.0,0.0,0.0,-0.0990961151190251,-0.12213783579906588,-0.08516018532465591,-0.002594010333933888,-0.015556710468827785,-0.03241928956053476
367,1.0,300.86696,837.41113,0.0,-0.0036700119354726723,0.0,0.0,0.0,0.0,-0.07009541892512923,-0.10351329584346691,-0.08094335859548751,0.007109793262706963,0.015184665297109786,-0.02008796086302738
368,1.0,300.30386,702.65222,0.0,-0.0036800079228920257,0.0,0.0,0.0,0.0,-0.036318765345133064,-0.10817393219593589,-0.06909603717924793,-0.00994943335540762,0.0037632291099017963,-0.028175250986680774
369,1.0,300.04015,764.94012,0.0,-0.003690003910311379,0.0,0.0,0.0,0.0,-0.06386719043570094,-0.0992339475301281,-0.06942155897262443,-0.006829732556267123,0.0019685385452546285,-0.012199236348220888
370,1.0,299.99433,903.36674,0.0,-0.0036999998977308435,0.0,0.0,0.0,0.0,-0.06766430870844733,-0.12656606297609788,-0.08037055514170621,-0.00868702819689293,-8.910713187643922e-05,-0.005729382565746035
371,1.0,299.71439,829.43992,0.0,-0.003709995885149975,0.0,0.0,0.0,0.0,-0.06388296673975795,-0.12479226735103789,-0.06345379047440153,0.004344870941655376,0.02226439775982498,-0.01133275856495619
372,1.0,299.6779,893.8154099999999,0.0,-0.003719991872569217,0.0,0.0,0.0,0.0,-0.051893140816204254,-0.14377032013402585,-0.07603410207923163,0.00818613814245893,0.017911029500180982,-0.012708935599024288
373,1.0,300.15405,1141.1482,0.0,-0.003730020850046145,0.0,0.0,0.0,0.0,-0.09600204042816371,-0.16214245948971487,-0.08873607057056832,-0.013294229386788288,0.003062196829465297,-0.02163354419456458
374,1.0,300.17528,1128.0799,0.0,-0.0037400168374653875,0.0,0.0,0.0,0.0,-0.08752671401971411,-0.14697282879758886,-0.1084085705215929,0.007356520675307063,0.013356309193915089,-0.011814501232250488
375,1.0,300.1233,865.75175,0.0,-0.00375001282488463,0.0,0.0,0.0,0.0,-0.07654626960727863,-0.1170743514718389,-0.06954628904668435,-0.015703812091845588,0.01026946404251719,-0.013769679770961588
376,1.0,300.4351,772.66093,0.0,-0.0037600088123042053,0.0,0.0,0.0,0.0,-0.05295616986711705,-0.1088301737557019,-0.07308328676700883,0.012594660239496187,0.003369291251223157,-0.012756795454247686
377,1.0,299.80531,826.84303,0.0,-0.0037700047997233366,0.0,0.0,0.0,0.0,-0.08490585144355511,-0.09436821213216741,-0.07206557127381813,-0.02353337597306338,-0.012643228356539487,-0.017602770448758184
378,1.0,299.5966,869.64806,0.0,-0.00378000078714269,0.0,0.0,0.0,0.0,-0.06402403952468073,-0.1119926793053169,-0.08833457224494351,0.0051110622962725755,-0.006211918607868634,-0.025247804261514274
379,1.0,299.52038,893.85509,0.0,-0.0037899967745619323,0.0,0.0,0.0,0.0,-0.07359806645381363,-0.10859284018477891,-0.08951871812005961,0.01085730615428269,-0.007354500254607664,-0.01049977781674739
380,1.0,299.39335,879.0532400000001,0.0,-0.0037999927619811746,0.0,0.0,0.0,0.0,-0.06532635771920954,-0.10882299994499389,-0.0930608813893939,0.004599674261527506,-0.0004802545676674355,-0.00951704498590921
381,1.0,299.40227999999996,921.79757,0.0,-0.0038100217394581026,0.0,0.0,0.0,0.0,-0.0896173580172946,-0.1302842044830499,-0.06030188149433234,-0.001158296750489989,-0.00085933002321677,0.0001884856448645848
382,1.0,299.95022,1082.8404,0.0,-0.003820017726877345,0.0,0.0,0.0,0.0,-0.09128315030094551,-0.13470585566693286,-0.10316744318683391,-8.121835771237782e-05,0.0035210609174516566,-0.007077394489434453
383,1.0,299.78917,1127.5966,0.0,-0.0038300137142966983,0.0,0.0,0.0,0.0,-0.1010900595933121,-0.14292789386838486,-0.0987432507717001,0.011011377924738388,0.021345849053921277,-0.008808722877628261
384,1.0,299.98845,937.91173,0.0,-0.0038400097017160517,0.0,0.0,0.0,0.0,-0.056450721527502454,-0.14871502115202986,-0.07993600966406991,0.0017484297194065783,-0.005128022279096395,-0.02089644122381818
385,1.0,299.91295,767.30717,0.0,-0.003850005689135294,0.0,0.0,0.0,0.0,-0.05317067795303735,-0.1111903270811309,-0.06888120991954613,-0.0030974878238232474,-0.01007572211209635,-0.026593773270351072
386,1.0,299.68976000000004,808.5336900000001,0.0,-0.0038600016765546474,0.0,0.0,0.0,0.0,-0.05018628961200115,-0.11884165216375789,-0.07674611292450162,-0.019365553058481283,0.0011712662504449788,-0.032222556921118764
387,1.0,299.89785,873.1568300000001,0.0,-0.0038699976639738898,0.0,0.0,0.0,0.0,-0.07595148774557822,-0.1174383311727609,-0.07202805163586523,0.012712457656371887,0.014935204135739885,-0.024339088134580977
388,1.0,300.12453999999997,833.97995,0.0,-0.003879993651393021,0.0,0.0,0.0,0.0,-0.05189433239832185,-0.11864612529196088,-0.08296862668336592,-0.0013432114486896486,0.011122361234691592,-0.03283791586584996
389,1.0,299.96181,864.83193,0.0,-0.0038899896388125965,0.0,0.0,0.0,0.0,-0.07087541378585872,-0.13953072972811087,-0.05248116429973765,0.00855497191930999,-0.017192185296236586,-0.041190028022389254
390,1.0,300.2432,1051.3298,0.0,-0.0039000186162893025,0.0,0.0,0.0,0.0,-0.07632765279220283,-0.13975388793013488,-0.1034964758918069,0.016130161389422984,-0.01022652554302949,-0.01921881215249908
391,1.0,299.809,1118.2984,0.0,-0.003910014603708656,0.0,0.0,0.0,0.0,-0.08208049473221413,-0.15486515541650087,-0.1029891314342359,0.01242562580481379,-0.012048804172124387,-0.017794255465906284
392,1.0,299.95887999999997,1044.2891,0.0,-0.003920010591128009,0.0,0.0,0.0,0.0,-0.07580690100930863,-0.13390729299812087,-0.1077236134539929,0.006415024590413635,-0.007800707328969873,-0.0001105663170070459
393,1.0,300.23364,1048.1538,0.0,-0.0039300065785472516,0.0,0.0,0.0,0.0,-0.0910312826705881,-0.13678651408477785,-0.09079479111049822,-0.011356784751327387,-0.00847823534816168,0.014867271796035487
394,1.0,300.42449,972.3725,0.0,-0.003940002565966605,0.0,0.0,0.0,0.0,-0.07423189998761813,-0.13864192700539285,-0.08270313489216392,-0.013341795399482688,0.02274868267162018,-0.005737205768443125
395,1.0,299.69698,1010.808,0.0,-0.003949998553385847,0.0,0.0,0.0,0.0,-0.10577096905378192,-0.1114416131059309,-0.09004781300427722,-0.003108774923312197,0.029022955272092674,0.0035280063415871164
396,1.0,299.98263,1130.7737,0.0,-0.003959994540805201,0.0,0.0,0.0,0.0,-0.08561566150960791,-0.13451691492078588,-0.12359440308281788,-0.0012309718099374589,0.025603065958575876,-0.016458923556619286
397,1.0,299.7039,1051.3249,0.0,-0.003969990528224554,0.0,0.0,0.0,0.0,-0.07587103670088834,-0.13677785079642288,-0.10692764470543689,0.007210357423206874,-0.01839862773980318,-0.011758497885973388
398,1.0,300.48555,905.29251,0.0,-0.003980019505701149,0.0,0.0,0.0,0.0,-0.07154017475246553,-0.1014330021956579,-0.1022131338451509,0.0033845579918048664,-0.023247154098065475,-0.013415201316227287
399,1.0,300.71577,950.6138800000001,0.0,-0.003990015493120613,0.0,0.0,0.0,0.0,-0.08977826719942511,-0.12242507193741389,-0.07675954760757751,0.017231707116387086,-0.027889473928476773,-0.01960452404156588
400,1.0,300.3682,962.8076800000001,0.0,-0.004000011480539967,0.0,0.0,0.0,0.0,-0.07577965370086952,-0.1224045130928849,-0.09448532256547532,-0.004701415210693555,-0.016451835872169786,-0.012571292665689989
401,1.0,299.69646,986.4382800000001,0.0,-0.004010007467959209,0.0,0.0,0.0,0.0,-0.09557125714814872,-0.12946549840224986,-0.07481585121899963,-0.016631617850662885,-0.01862230472587838,-0.014361499902619685
402,1.0,299.67454,1035.6503,0.0,-0.004020003455378562,0.0,0.0,0.0,0.0,-0.06102021400697624,-0.16262155453449786,-0.0911700472717831,-0.005016831354197706,0.0036759123838593062,-0.013831418112804687
403,1.0,299.47851,855.44292,0.0,-0.004029999442797694,0.0,0.0,0.0,0.0,-0.057008726463573245,-0.1145826681509289,-0.08844189062928501,0.006203195537757734,0.029285922044045468,-0.02110581010523128
404,1.0,299.37008,851.4408699999999,0.0,-0.004039995430217158,0.0,0.0,0.0,0.0,-0.053234673816103244,-0.1317812105782929,-0.07380088163357994,0.005277261555850165,0.03247706406798667,-0.02077354817218958
405,1.0,299.83995,1011.8139,0.0,-0.0040499914176365115,0.0,0.0,0.0,0.0,-0.07629137033262202,-0.13910315845091287,-0.09217162878363151,0.007501132438854133,0.007317209205877323,-0.021458365411275777
406,1.0,300.34011,1024.7887,0.0,-0.0040600203951133285,0.0,0.0,0.0,0.0,-0.09189184509976901,-0.1277392343393809,-0.09187910550626172,-0.00978651510097884,0.01029943395397499,-0.01898213516764088
407,1.0,300.58299,914.0590800000001,0.0,-0.00407001638253246,0.0,0.0,0.0,0.0,-0.08105177432968733,-0.12956095669417086,-0.06723840929391434,0.005030912288187386,-0.01029198251273959,-0.026239984838934874
408,1.0,300.86383,881.08963,0.0,-0.004080012369951924,0.0,0.0,0.0,0.0,-0.05369381796641725,-0.1196848991619799,-0.0944505285702914,-0.012256902437912089,-0.0003040187922718187,-0.02939898150345357
409,1.0,300.41271,1047.5559,0.0,-0.0040900083573710555,0.0,0.0,0.0,0.0,-0.08221762901399822,-0.13980909992808385,-0.09640409806784371,-0.01009616919513932,-0.014951098990058585,-0.017023559201344483
410,1.0,300.29438,1166.4035,0.0,-0.00410000434479052,0.0,0.0,0.0,0.0,-0.10063806594895382,-0.15090209109537686,-0.10301737071452291,-0.013484504583316988,-0.011462101966721388,-0.011146844396857888
411,1.0,299.70817,1039.2129,0.0,-0.004110000332209651,0.0,0.0,0.0,0.0,-0.09808107460609841,-0.1299298607905789,-0.08788382489820823,0.002152663009701298,0.0018400361410724282,-0.004869124820870206
412,1.0,300.04984,936.9229300000001,0.0,-0.004119996319629116,0.0,0.0,0.0,0.0,-0.07217319464643973,-0.13999770630169786,-0.07263027379304993,0.007892006229230373,0.009926710512640052,-0.006479156836942994
413,1.0,299.90621,940.17105,0.0,-0.004129992307048469,0.0,0.0,0.0,0.0,-0.08443805211088692,-0.1274993879082099,-0.07385108412303452,0.01830057350112598,-0.0025445091148734974,-0.005925408057917244
414,1.0,299.45981,990.65305,0.0,-0.004140021284525286,0.0,0.0,0.0,0.0,-0.06290190860868504,-0.13690242989621787,-0.1013294480354379,-0.009089292843568362,0.011947641282140388,-0.016111983682628984
415,1.0,299.53585,1007.184,0.0,-0.004150017271944417,0.0,0.0,0.0,0.0,-0.07985458691253412,-0.13260555032964888,-0.093698632148085,0.01040434282957869,0.007612418001312164,-0.016176708072516786
416,1.0,300.60992999999996,912.0386800000001,0.0,-0.004160013259363882,0.0,0.0,0.0,0.0,-0.05950320838125944,-0.11491458861868689,-0.1028191891274639,-0.0050664138359161155,0.0006339748416634454,-0.016276463558111885
417,1.0,300.01715,843.2493400000001,0.0,-0.004170009246783013,0.0,0.0,0.0,0.0,-0.057984979762671945,-0.13606776512634286,-0.06227399650846494,-0.003234442557689627,-0.025502488727149678,-0.025749353941763375
418,1.0,300.79696,1068.5552,0.0,-0.004180005234202366,0.0,0.0,0.0,0.0,-0.09118798889130382,-0.13949314828190187,-0.09413294559144841,-0.006803845232112244,-0.02445678422644668,-0.02279324946401858
419,1.0,300.77754,1102.5014,0.0,-0.004190001221621831,0.0,0.0,0.0,0.0,-0.1030158913693769,-0.14451872692288786,-0.08759829203327832,0.002568642604430288,-0.01118197479107499,-0.037171102210002166
420,1.0,299.99913,949.09274,0.0,-0.004199997209040962,0.0,0.0,0.0,0.0,-0.06360352249467893,-0.14998694387005887,-0.07491002369654373,0.006273455819566884,0.007741830608059192,-0.02989403827706187
421,1.0,300.04476,936.70203,0.0,-0.0042099931964604265,0.0,0.0,0.0,0.0,-0.06593353264288304,-0.13389279338918986,-0.08490769758523732,0.0004487360655518016,0.012647771769987886,-0.02910821317525697
422,1.0,299.95869,953.93973,0.0,-0.004220022173937132,0.0,0.0,0.0,0.0,-0.06325656438218685,-0.13909637980774386,-0.08762091385501092,-0.0028199354180059575,0.014120491273583986,-0.006965578895849114
423,1.0,299.48005,986.4603699999999,0.0,-0.004230018161356375,0.0,0.0,0.0,0.0,-0.07266529171650593,-0.13396383235370088,-0.09323019041485342,0.0031916095375373373,0.0009033043480166982,-0.00993404472083888
424,1.0,300.05303,993.4346400000001,0.0,-0.004240014148775728,0.0,0.0,0.0,0.0,-0.06835840022569883,-0.13084728782862187,-0.1027736334029679,-0.0009450410822232933,-0.004910125783516686,0.0012015577674845189
425,1.0,299.90677999999997,914.2796599999999,0.0,-0.0042500101361949705,0.0,0.0,0.0,0.0,-0.06095395960943745,-0.13826838222352686,-0.07869584321742502,0.00978258987141645,-0.023375516673733877,-0.02392626977883898
426,1.0,299.92713,1001.2412,0.0,-0.004260006123614324,0.0,0.0,0.0,0.0,-0.07279082833764543,-0.13059018574824788,-0.1009712965490911,0.00960927131398624,-0.01321806641652159,-0.02088667551935438
427,1.0,300.42565,1124.4887,0.0,-0.004270002111033677,0.0,0.0,0.0,0.0,-0.09558090126260049,-0.14684021462450086,-0.0993953754963098,-0.007115825647177312,-7.004942952959044e-05,-0.020830777551087677
428,1.0,300.22542999999996,1123.7106,0.0,-0.0042799980984529196,0.0,0.0,0.0,0.0,-0.08594821525867842,-0.14664460669269586,-0.1089871464611939,0.007559691708508483,0.0037236529795459366,-0.019610718039427183
429,1.0,300.4936,1061.9627,0.0,-0.004289994085872273,0.0,0.0,0.0,0.0,-0.09688628453868181,-0.13641758972336787,-0.08950627338233141,-0.006817663531676003,0.0025626714202659777,-0.014139609276470786
430,1.0,300.24618,950.38447,0.0,-0.00430002306334909,0.0,0.0,0.0,0.0,-0.08071782736172933,-0.1221032231756499,-0.08607210028215492,-0.0005369950533922853,0.008434320582202632,-0.00994479165669952
431,1.0,299.96687000000003,1019.3494,0.0,-0.004310019050768332,0.0,0.0,0.0,0.0,-0.08910730716870652,-0.12466747546872188,-0.09608198890080401,-0.007885988536886473,-0.005214217945228245,-0.013289854172856488
432,1.0,300.71242,1095.4061,0.0,-0.004320015038187686,0.0,0.0,0.0,0.0,-0.08022407768075002,-0.13506510348988787,-0.11768691181979388,-0.017106756153805382,0.006288142271816324,-0.01666721332667588
433,1.0,299.60242,923.07419,0.0,-0.004330011025606928,0.0,0.0,0.0,0.0,-0.046367035877570156,-0.14956640454855485,-0.08465806619785063,-0.009167855494046891,0.0012949758803291688,-0.029457752035753768
434,1.0,300.02993,980.76677,0.0,-0.004340007013026281,0.0,0.0,0.0,0.0,-0.053727906739531546,-0.13625370665219386,-0.10814698987577691,-0.004847529016188865,0.016124431460107485,-0.006648746836655223
435,1.0,299.76409,1048.1316,0.0,-0.004350003000445635,0.0,0.0,0.0,0.0,-0.08471664117288152,-0.14002135555903186,-0.09386783782203431,0.0028683651250855967,0.014867665950324386,-0.015084793287753185
436,1.0,299.81155,1058.6424,0.0,-0.004359998987864877,0.0,0.0,0.0,0.0,-0.08036302061396262,-0.14297727967825888,-0.09846056615280131,0.005841225922384115,-0.003010206966834297,-0.009374789940769731
437,1.0,299.76867999999996,1088.4889,0.0,-0.00436999497528423,0.0,0.0,0.0,0.0,-0.08304519596692271,-0.14759326209882087,-0.10023498391342271,0.002319516018243408,-0.0007660366009294262,-0.04318126914540946
438,1.0,300.13223999999997,1059.5842,0.0,-0.004379990962703473,0.0,0.0,0.0,0.0,-0.07772250605211413,-0.14342481198242688,-0.10093981486848409,0.004523383419098186,-0.017758286100606382,-0.023994677332840275
439,1.0,299.88462999999996,957.58516,0.0,-0.00439001994018029,0.0,0.0,0.0,0.0,-0.08189197752460893,-0.13036724032874486,-0.07882276393820112,-0.0063033172119389734,-0.006471092480722104,-0.044923695560623554
440,1.0,300.61843,966.13326,0.0,-0.004400015927599643,0.0,0.0,0.0,0.0,-0.08121764337105733,-0.11888025699256789,-0.09358248632887231,-0.009147414997129571,-0.003323782541531797,-0.020820380591811582
441,1.0,300.00657,960.8696199999999,0.0,-0.004410011915018774,0.0,0.0,0.0,0.0,-0.08322400218556952,-0.1298623783339189,-0.07899399003284983,-0.0025025216519296576,0.0037548073803706367,-0.024259734439749377
442,1.0,300.56141,952.0478099999999,0.0,-0.00442000790243835,0.0,0.0,0.0,0.0,-0.06761178587626374,-0.12934187175754885,-0.09244510093262111,-0.0053574067003348755,0.004883328662097015,-0.018835963708214883
443,1.0,300.40769,989.38368,0.0,-0.004430003889857592,0.0,0.0,0.0,0.0,-0.08460774921113472,-0.14249436468059887,-0.07364581991777652,0.0071292701587791826,0.012835786405543488,-0.017523702490454783
444,1.0,299.93401,1160.0437,0.0,-0.0044399998772768345,0.0,0.0,0.0,0.0,-0.08295761873427951,-0.14637664257124985,-0.12329005315028088,0.014119359473222286,0.0073301605686555225,-0.01999824668592328
445,1.0,300.03842000000003,1244.3892,0.0,-0.004449995864696188,0.0,0.0,0.0,0.0,-0.10520516006544091,-0.14983868511542686,-0.12321940935330887,0.003937485430299556,0.006086327676523774,-0.015883536315082984
446,1.0,300.3957,1189.5334,0.0,-0.00445999185211543,0.0,0.0,0.0,0.0,-0.07380977594295773,-0.16591175999421584,-0.12186691298732788,0.002358452787786168,0.012767732475827088,-0.0097975449362674
447,1.0,300.02304,1094.0607,0.0,-0.004470020829592136,0.0,0.0,0.0,0.0,-0.09806345722660971,-0.12461313486585888,-0.10989053998535189,-0.005385183938576276,0.01968410875742028,0.006094292835559874
448,1.0,300.17897,1072.2641,0.0,-0.004480016817011601,0.0,0.0,0.0,0.0,-0.09158848105957931,-0.13680565437916686,-0.0975473866591775,-0.006063397320135724,-0.0005907474240422315,-0.013978495417820086
449,1.0,299.64959,938.55205,0.0,-0.004490012804430954,0.0,0.0,0.0,0.0,-0.08510441907890222,-0.12405936328870588,-0.07613260721420333,-0.005774358711184834,-0.024935324010174877,-0.017741190544919183
450,1.0,299.44291,941.54179,0.0,-0.004500008791850307,0.0,0.0,0.0,0.0,-0.07496174302139802,-0.13453680502024887,-0.07670664987285693,0.001945559451536768,-0.029135303429930575,-0.03806811327178026
451,1.0,299.86024,1050.1919,0.0,-0.00451000477926955,0.0,0.0,0.0,0.0,-0.09592637091069571,-0.13865676098685686,-0.08464898443720431,0.02065395324963648,-0.02216888981864908,-0.03492470242029977
452,1.0,299.8568,980.67974,0.0,-0.004520000766688681,0.0,0.0,0.0,0.0,-0.07701985865101822,-0.14004649429401286,-0.08103579436236022,0.010793529153238389,-0.006688102179814294,-0.03223243712284387
453,1.0,300.03772999999995,952.18865,0.0,-0.004529996754108145,0.0,0.0,0.0,0.0,-0.06052112753772024,-0.13947968218807286,-0.08944076980311673,0.0005298942473539904,0.007771844697221352,-0.02442874759617968
454,1.0,300.9258,1157.7589,0.0,-0.004539992741527277,0.0,0.0,0.0,0.0,-0.07433023084357263,-0.15978957116750284,-0.11781000144194188,-0.003542587719801187,0.013932136185994787,-0.010624873674093389
455,1.0,300.83633,1222.1902,0.0,-0.004550021719004094,0.0,0.0,0.0,0.0,-0.07778131914091851,-0.16176383832484784,-0.13197014119193887,-0.018294950976321084,0.03196941360888547,-0.010481280936171889
456,1.0,300.28965,1091.0434,0.0,-0.004560017706423447,0.0,0.0,0.0,0.0,-0.07703335716885043,-0.15624288170997186,-0.09837371744698,-0.007155642019131883,0.006737581917972563,-0.022677947682139182
457,1.0,300.07312,1013.2898,0.0,-0.0045700136938429115,0.0,0.0,0.0,0.0,-0.07062046587519734,-0.13725234568575187,-0.1001419756602435,-0.004104985095055486,-0.0023102924025831077,-0.016138751723770786
458,1.0,300.04597,1000.8838,0.0,-0.004580009681262265,0.0,0.0,0.0,0.0,-0.07887725044907852,-0.13044431826385186,-0.09492211137883301,0.007386478731738693,-0.008621897291065012,-0.012828199188794687
459,1.0,299.89472,1034.2508,0.0,-0.004590005668681507,0.0,0.0,0.0,0.0,-0.07817193718696952,-0.14053584342980788,-0.0956786231552449,0.009552212971705021,-0.014025211313680586,-0.01604477379024588
460,1.0,299.89949,1107.8483,0.0,-0.0046000016561006385,0.0,0.0,0.0,0.0,-0.09677597200029481,-0.13642630367422787,-0.10355593340767491,0.002356109342954888,0.003327430140566787,-0.016801923914220782
461,1.0,299.96614,1051.1915,0.0,-0.004609997643520103,0.0,0.0,0.0,0.0,-0.08467491148076313,-0.13869754430338185,-0.09616352108335059,-0.006270148773890504,-0.0060750326736840445,-0.02123732388871068
462,1.0,300.37325,1047.0659,0.0,-0.004619993630939456,0.0,0.0,0.0,0.0,-0.08076555549443973,-0.14834541791305286,-0.08917092407623502,0.009652241021577022,-0.0013792517414965486,-0.029129173266825577
463,1.0,300.71047000000004,1241.0391,0.0,-0.004630022608416051,0.0,0.0,0.0,0.0,-0.0979404091477158,-0.15425547269882983,-0.12504902492637787,-0.008433447059291423,0.012151633858522887,-0.015885270999254186
464,1.0,299.92157000000003,1289.9801,0.0,-0.004640018595835627,0.0,0.0,0.0,0.0,-0.1035549910850819,-0.17154923023809082,-0.11701751827372989,0.003296729979761917,0.0030684534461827774,-0.028726750857109573
465,1.0,299.20337,1094.3344,0.0,-0.004650014583254758,0.0,0.0,0.0,0.0,-0.07717143579972773,-0.14332968806303886,-0.11214920618076488,-0.007304218528995243,-0.00015258968953442986,-0.001091006608698969
466,1.0,299.86812000000003,1097.3943,0.0,-0.004660010570674222,0.0,0.0,0.0,0.0,-0.07455841273959243,-0.15505280933502086,-0.10396922799096389,0.001163733647876569,0.01172147271406929,-0.01943741478207348
467,1.0,300.16066,1195.8729,0.0,-0.004670006558093354,0.0,0.0,0.0,0.0,-0.09355602124951042,-0.16237173772234284,-0.10758774674808388,0.004819728371870155,0.015343446654030287,-0.0070815695864715035
468,1.0,300.14922,1090.6007,0.0,-0.004680002545512596,0.0,0.0,0.0,0.0,-0.07521487417463013,-0.14766567908346787,-0.1086348090039209,-0.0008956361523199061,0.004689077269525896,-0.02972147063928077
469,1.0,300.67711,983.4547699999999,0.0,-0.004689998532931949,0.0,0.0,0.0,0.0,-0.07328740701290393,-0.14229318387324386,-0.08336510536799532,-0.008294512536054652,0.0015939635920119584,-0.026378291451084678
470,1.0,300.29934,973.3171800000001,0.0,-0.004699994520351414,0.0,0.0,0.0,0.0,-0.07721376938890573,-0.1399059362401409,-0.07874440728146792,0.0004387474764635045,-0.013720783360885887,-0.03665583312339906
471,1.0,300.70646,1012.0521,0.0,-0.00471002349782812,0.0,0.0,0.0,0.0,-0.09170274020710582,-0.13032673058974686,-0.08560909767546011,-0.01024545710789789,-0.007295927711377003,-0.028084935952267374
472,1.0,300.88477,1042.2938,0.0,-0.004720019485247584,0.0,0.0,0.0,0.0,-0.07854040558583453,-0.15830158299814986,-0.07998928128807743,-0.004144018629982796,-0.016955502231877785,-0.04194328017322946
473,1.0,300.30168,1065.8543,0.0,-0.004730015472666715,0.0,0.0,0.0,0.0,-0.07681607683065653,-0.14151419719636388,-0.1056628046056069,-0.0020025278172091077,-0.011836445189666188,-0.036131134731365366
474,1.0,299.87381,1173.3502,0.0,-0.00474001146008618,0.0,0.0,0.0,0.0,-0.08945130861740681,-0.16323835026787084,-0.10397950234697789,0.004240045760509936,-0.003164758815187377,-0.02110707261485588
475,1.0,299.73142,1164.0886,0.0,-0.004750007447505311,0.0,0.0,0.0,0.0,-0.09095270917833351,-0.15991375509975883,-0.1029873987765649,0.01903600055620698,0.012218273291099688,-0.012084774550674388
476,1.0,299.51743999999997,1159.2189,0.0,-0.0047600034349245535,0.0,0.0,0.0,0.0,-0.09177702562493723,-0.15148413235031988,-0.10911245510106089,0.013964496354438487,0.013140458551612288,-0.004082154746452306
477,1.0,300.55162,1165.4192,0.0,-0.004769999422343907,0.0,0.0,0.0,0.0,-0.091830705588735,-0.15208081506920787,-0.11034682677038389,0.0025074881986198176,0.004930472554799756,-0.0015193935522274686
478,1.0,300.07982999999996,1074.7834,0.0,-0.00477999540976326,0.0,0.0,0.0,0.0,-0.09027630799457792,-0.14351553839638084,-0.09291545770854172,-0.007922271503092321,-0.005691645990946724,-0.006849483029866344
479,1.0,299.75284,1114.0425,0.0,-0.004789991397182725,0.0,0.0,0.0,0.0,-0.08925177535471442,-0.14147203585970286,-0.10791729621060789,-0.004241109470464915,-0.007204195950673784,-0.010296130758648991
480,1.0,299.97639,1199.8425,0.0,-0.0048000203746594305,0.0,0.0,0.0,0.0,-0.1088439843545649,-0.16188315865662384,-0.09399501894808611,-0.002889029854250047,-0.014278277618906286,-0.029515981492500575
481,1.0,299.99689,1092.3181,0.0,-0.004810016362078673,0.0,0.0,0.0,0.0,-0.08127349979606992,-0.14462258505813785,-0.10614135249533589,-0.012730553289907789,-0.010716672106653188,-0.01935819280975488
482,1.0,300.88268999999997,1096.2689,0.0,-0.004820012349498026,0.0,0.0,0.0,0.0,-0.08248778479541052,-0.14859020900471184,-0.1021603941774459,0.010627937742395791,-0.013552726712549987,-0.03835637988547996
483,1.0,300.82512,1239.5826,0.0,-0.004830008336917269,0.0,0.0,0.0,0.0,-0.09759505501013199,-0.15720229783215883,-0.12200479606093588,0.007525782584636914,-0.015823599531917684,-0.01132595256403449
484,1.0,300.36764,1216.9467,0.0,-0.004840004324336622,0.0,0.0,0.0,0.0,-0.09558721178422332,-0.16255295750272783,-0.11178124440694989,0.007999952018033793,-0.006874596940219894,-0.03365285164302787
485,1.0,300.42346000000003,1100.1465,0.0,-0.004850000311756086,0.0,0.0,0.0,0.0,-0.06605402530502473,-0.17713355551422083,-0.09122947641664832,-0.004019895391407786,-0.0014352516427233086,-0.022165929101856878
486,1.0,300.44284,1076.5891,0.0,-0.004859996299175218,0.0,0.0,0.0,0.0,-0.08666215634538892,-0.14930244276500385,-0.09129160891278032,-0.00926980912440893,0.017971400967639183,-0.025131889463324373
487,1.0,299.9216,1070.045,0.0,-0.004869992286594571,0.0,0.0,0.0,0.0,-0.07365384992481902,-0.14329056647667784,-0.10832252532310088,-0.007287268172047372,0.02103459483520288,-0.00953551481270704
488,1.0,300.27862999999996,1028.7513,0.0,-0.004880021264071388,0.0,0.0,0.0,0.0,-0.07048524055660163,-0.16402360896286985,-0.07820585674731713,0.0027109331133232674,0.008296388872589832,-0.026898259991651578
489,1.0,300.0556,1084.4329,0.0,-0.00489001725149063,0.0,0.0,0.0,0.0,-0.07388328419796243,-0.15162288681901384,-0.10413433709475889,0.002387121686115568,-0.008145075067581322,-0.016884084311829382
490,1.0,300.203,1127.9328,0.0,-0.004900013238909984,0.0,0.0,0.0,0.0,-0.09709391670942351,-0.15887216439446186,-0.08689733675984943,0.013308663134462788,-0.025576078042162373,-0.02894270181117227
491,1.0,300.28717,1064.5517,0.0,-0.004910009226329226,0.0,0.0,0.0,0.0,-0.09211337399563221,-0.13951514594157288,-0.09196860588759471,0.013801329651085187,-0.01905107873094508,-0.03517164869492147
492,1.0,299.61138,1141.8293,0.0,-0.0049200052137485795,0.0,0.0,0.0,0.0,-0.1035356076106689,-0.14514182507188286,-0.098410174185578,0.007221846058140713,-0.00987650812451046,-0.03016607059765937
493,1.0,299.46535,1197.038,0.0,-0.004930001201167933,0.0,0.0,0.0,0.0,-0.08442836847968122,-0.16856699201376685,-0.1108743146399429,-0.002431951416914918,-0.01071350063384019,-0.027663853528709776
494,1.0,300.10091,1086.7067,0.0,-0.004939997188587175,0.0,0.0,0.0,0.0,-0.08653854996568991,-0.13496831784033586,-0.10882484406017588,-0.01133977836164899,0.010445410869381791,-0.014025046153914285
495,1.0,300.25652,1118.2262,0.0,-0.0049499931760065286,0.0,0.0,0.0,0.0,-0.08652449010730232,-0.14253591806719987,-0.11085243857028389,-0.009068228488564471,0.018323852922173485,-0.001041546730242659
496,1.0,300.33288,1222.9219,0.0,-0.0049600221534833455,0.0,0.0,0.0,0.0,-0.10233406524458591,-0.16628691584374083,-0.10311671988682791,0.0031522888475316872,0.009073272346237261,-0.007105521906910413
497,1.0,300.19881000000004,1226.5908,0.0,-0.004970018140902588,0.0,0.0,0.0,0.0,-0.09987768355715991,-0.15774564306578284,-0.1152296283397789,-0.008206901562183122,-0.006468259433442504,-0.0026169081649937277
498,1.0,300.16055,1182.6472,0.0,-0.004980014128321941,0.0,0.0,0.0,0.0,-0.09571142104773181,-0.17099984603387083,-0.09278396317681421,0.007911120685741823,0.003993598207587457,-0.023301512939430277
499,1.0,300.57014,1273.9004,0.0,-0.004990010115741184,0.0,0.0,0.0,0.0,-0.0998768314138258,-0.16992876975066384,-0.11742831012927189,0.002499355346692168,0.0074007608971982325,-0.007618392022576752
500,1.0,300.17531,1158.1826,0.0,-0.005000006103160537,0.0,0.0,0.0,0.0,-0.08563135067415632,-0.15789293923281986,-0.1085343148590029,0.004424838970022606,0.01075913133884359,-0.029424786957000373
501,1.0,299.68313,1009.4607,0.0,-0.00501000209057989,0.0,0.0,0.0,0.0,-0.06234142526286964,-0.16452482325733583,-0.07998460412561582,-0.009108054486394991,-0.006283593184167364,-0.026718597576670274
502,1.0,299.58482999999995,1071.4366,0.0,-0.005019998077999133,0.0,0.0,0.0,0.0,-0.07701178710072164,-0.14351673403149884,-0.10516146872112891,-0.014987814107432088,-0.01008122720121466,-0.03534748406427506
503,1.0,299.7816,1125.3977,0.0,-0.005029994065418486,0.0,0.0,0.0,0.0,-0.10124483962558771,-0.15281822809448486,-0.08802973899210882,-0.008831671776493142,-0.01127525662178119,-0.01846988961933618
504,1.0,299.96476,979.25054,0.0,-0.005040023042895303,0.0,0.0,0.0,0.0,-0.06528436863506554,-0.14680660511868387,-0.08557673750701641,-0.01140580781766559,-0.004760251300275225,-0.036412145461098964
505,1.0,300.2966,1048.8975,0.0,-0.005050019030314434,0.0,0.0,0.0,0.0,-0.058935390117970145,-0.15063573804158983,-0.1092675330288659,0.007446425546079983,-0.0067629538018015726,-0.02061144538144128
506,1.0,299.76906,1209.0772,0.0,-0.005060015017733899,0.0,0.0,0.0,0.0,-0.08567594482430742,-0.17615730930787282,-0.1056960290763859,0.0060623123319286445,0.007247192610717222,-0.014914281534424985
507,1.0,299.4985,1279.7988,0.0,-0.005070011005153252,0.0,0.0,0.0,0.0,-0.10239300600290291,-0.16239558962969686,-0.12423828299136389,0.0034596559348914566,0.009172944036049091,-0.01931512360100428
508,1.0,299.47351000000003,1303.3674,0.0,-0.0050800069925724944,0.0,0.0,0.0,0.0,-0.11365052872143389,-0.17199310470939785,-0.11054752121769089,-0.007156443803936013,0.008605084634805731,-0.007300257025079273
509,1.0,299.63246000000004,1248.3414,0.0,-0.005090002979991848,0.0,0.0,0.0,0.0,-0.1006022749156715,-0.17638525005036884,-0.1024770753636999,-0.014780029949175384,-0.004035308951928986,-0.03150422238197467
510,1.0,299.11791,1133.5379,0.0,-0.00509999896741109,0.0,0.0,0.0,0.0,-0.08199781555055433,-0.15130144335728987,-0.1112679623037929,-0.011796373174711388,0.0015505090442483284,-0.0077878675250276815
511,1.0,299.53285,1151.2821,0.0,-0.0051099949548304435,0.0,0.0,0.0,0.0,-0.07113687385491282,-0.17013281805580185,-0.10869131796199791,-0.005520385040494584,0.0056688904202009255,-0.02766341681791668
512,1.0,299.34036000000003,1157.1069,0.0,-0.0051200239323072605,0.0,0.0,0.0,0.0,-0.1057862589977909,-0.14724567678451686,-0.09869968709690072,-0.004243438527144776,0.01156248668062859,-0.00932826372532795
513,1.0,300.01497,914.5528699999999,0.0,-0.005130019919726392,0.0,0.0,0.0,0.0,-0.07177995430912994,-0.11925992180503789,-0.08696136200716822,-0.005894524701494295,-0.020767787845371078,-0.023997162835335577
514,1.0,300.20644,874.85305,0.0,-0.005140015907145745,0.0,0.0,0.0,0.0,-0.06307554421207154,-0.14338151580565386,-0.05947642514136615,0.0011501200248330088,-0.006242775113163934,-0.04008891495321786
515,1.0,300.06882,1273.9493,0.0,-0.00515001189456521,0.0,0.0,0.0,0.0,-0.1155654599529229,-0.14772441719176485,-0.12395888940878987,-0.0008741760420919581,-0.01009950025484307,-0.013708120774386188
516,1.0,299.26692,1449.4009,0.0,-0.005160007881984341,0.0,0.0,0.0,0.0,-0.12361417159226887,-0.18701313915675985,-0.1299543713104979,0.003994766991577806,0.0015865450814048084,-0.03962846573677506
517,1.0,299.94368,1271.6367,0.0,-0.005170003869403805,0.0,0.0,0.0,0.0,-0.08003733163431963,-0.19030556363419682,-0.11620290572333389,0.010431174705476791,0.00042642925314279056,-0.01940140083376918
518,1.0,300.26474,1109.575,0.0,-0.005179999856822937,0.0,0.0,0.0,0.0,-0.07185487300827384,-0.15431438305964387,-0.11111382669858089,0.00011208211889164389,0.0028228678651203674,-0.019288872317413483
519,1.0,300.54932,1049.2713,0.0,-0.005189995844242401,0.0,0.0,0.0,0.0,-0.06573679797696684,-0.16621357680150284,-0.0870019051834195,0.008575691363979843,0.0076653857516146735,-0.012490776772993687
520,1.0,300.67815,1066.3772,0.0,-0.005199991831661754,0.0,0.0,0.0,0.0,-0.08539627867745651,-0.15535420057726584,-0.08340155906684302,-0.016574191901245382,0.013710347898105987,-0.036323427308843165
521,1.0,300.35136,1089.887,0.0,-0.005210020809138349,0.0,0.0,0.0,0.0,-0.08746200381532773,-0.14806572035544888,-0.09577070732433292,-0.012998792002130886,-0.006084034286247434,-0.028839109147448472
522,1.0,300.75475,1114.5689,0.0,-0.005220016796557703,0.0,0.0,0.0,0.0,-0.07579565089344834,-0.17901445167485083,-0.08399101325951762,-0.02076318667666698,-0.004472162917268116,-0.04154358948578306
523,1.0,300.12897000000004,1114.6195,0.0,-0.005230012783977167,0.0,0.0,0.0,0.0,-0.06880502769752753,-0.14374291171882086,-0.1262685727467379,0.007875077657159653,-0.00915837339828608,-0.018664655540308085
524,1.0,299.45858,1309.8411,0.0,-0.005240008771396298,0.0,0.0,0.0,0.0,-0.1111180924815019,-0.17231110312078182,-0.1147298021979499,0.015084913864515085,-0.016044631935231885,-0.019835875383898482
525,1.0,299.66978,1546.8794,0.0,-0.005250004758815652,0.0,0.0,0.0,0.0,-0.12875236284936886,-0.18057451232381683,-0.16088584698069686,0.006472001264736795,-0.015627589339822986,-0.01167455214168859
526,1.0,299.86942999999997,1381.6896,0.0,-0.005260000746234894,0.0,0.0,0.0,0.0,-0.12697531469148787,-0.16054390546944983,-0.13247990731724887,0.008523713153724992,0.0015946261562523485,-0.0050528581707782756
527,1.0,299.88452,1180.0955,0.0,-0.0052699967336542475,0.0,0.0,0.0,0.0,-0.08418377497179172,-0.17978359969325983,-0.094752209602065,0.021998039639787477,0.009450638195555371,-0.027532959854291578
528,1.0,300.67381,1299.5998,0.0,-0.005279992721073712,0.0,0.0,0.0,0.0,-0.10524147494902489,-0.16200121242577487,-0.1278032210831959,0.01207940128539409,0.006845863193884094,-0.02272943395947048
529,1.0,299.95654,1167.1646,0.0,-0.005290021698550307,0.0,0.0,0.0,0.0,-0.07801424304740633,-0.16799316821713484,-0.1087814870883969,0.01161896625445269,-0.008843363264097003,-0.02165624808955528
530,1.0,300.04177999999996,858.1047599999999,0.0,-0.005300017685969882,0.0,0.0,0.0,0.0,-0.04536326473225566,-0.14967035387631386,-0.06580880459532334,-0.0012809349697184389,-0.0007279050815061385,-0.022409043264600376
531,1.0,299.88424,988.7139400000001,0.0,-0.0053100136733890135,0.0,0.0,0.0,0.0,-0.06551412816149103,-0.1300485427747919,-0.10498167762338491,-0.004384020291069116,0.005173339180543825,-0.013153939844192787
532,1.0,299.12417,1175.8437,0.0,-0.005320009660808256,0.0,0.0,0.0,0.0,-0.09589194877829851,-0.17121491850009685,-0.0903202425189139,-0.012417535002765288,-0.011670537644792388,-0.04481282573468155
533,1.0,299.41511,1273.101,0.0,-0.005330005648227609,0.0,0.0,0.0,0.0,-0.1070703204520179,-0.15903266321030185,-0.1208879310057099,-0.015709985824704883,-0.004062158762353856,-0.02922481597026477
534,1.0,300.20985,1336.9034,0.0,-0.005340001635646852,0.0,0.0,0.0,0.0,-0.09421795626158831,-0.17036956394166683,-0.14179771470684488,-0.002015406935255178,-0.0005527307058552735,-0.04580133632023996
535,1.0,299.40522999999996,1265.8913,0.0,-0.005349997623066205,0.0,0.0,0.0,0.0,-0.08726736556386841,-0.17232460974461483,-0.12520737565200588,0.009471953633934042,0.005302075544174115,-0.010933633271065592
536,1.0,299.90797000000003,1144.0417,0.0,-0.005359993610485558,0.0,0.0,0.0,0.0,-0.07823304326075022,-0.15163251269496386,-0.1178945672952879,0.00011750106148645189,-0.0048791895354385155,-0.03077050164006207
537,1.0,300.28761000000003,1160.8231,0.0,-0.005370022587962375,0.0,0.0,0.0,0.0,-0.08771097760339952,-0.15699473354917384,-0.1081555214416189,0.007177239647663404,-0.016175888353185883,-0.005445282335132525
538,1.0,300.14472,1227.4412,0.0,-0.00538001857538184,0.0,0.0,0.0,0.0,-0.10975572705954689,-0.16646425487624283,-0.09689148656469522,0.0006858008718857764,0.013957085443207087,-0.020942761952139677
539,1.0,299.61325,1047.8272,0.0,-0.005390014562800971,0.0,0.0,0.0,0.0,-0.07533215584720493,-0.13865298156398387,-0.10452817727612791,0.0069946923069973835,0.015927273255649486,-0.01974888178331288
540,1.0,299.21238999999997,1062.518,0.0,-0.005400010550220213,0.0,0.0,0.0,0.0,-0.07210172099763584,-0.18092985913388682,-0.06994736991326794,-0.0013442541843675586,1.7816043382806584e-05,-0.04936592788053775
541,1.0,299.80765,1332.2772,0.0,-0.005410006537639567,0.0,0.0,0.0,0.0,-0.1034816115128399,-0.16414486460233685,-0.13735252572313889,-0.012071129111577688,-0.01770564370491098,-0.02804268342309737
542,1.0,300.19851,1272.8996,0.0,-0.005420002525058809,0.0,0.0,0.0,0.0,-0.09545668997259181,-0.16653781683350286,-0.1249351761451419,0.006141254343244614,-0.0100819237093334,-0.01128916145290349
543,1.0,300.61125,1151.7575,0.0,-0.0054299985124783845,0.0,0.0,0.0,0.0,-0.07806747515465992,-0.17146428948220785,-0.100573746859106,-0.0016352989271914385,0.0017675852125470781,-0.030808345518046974
544,1.0,300.3985,1317.8819,0.0,-0.005439994499897516,0.0,0.0,0.0,0.0,-0.11792903806368987,-0.15026246683725086,-0.13241168518801588,-0.014287213471538185,-0.008246822906848052,-0.004374118912416926
545,1.0,300.46938,1363.2016,0.0,-0.005450023477374333,0.0,0.0,0.0,0.0,-0.1059995380113399,-0.1887433548950188,-0.1196363442171879,-0.020632762137045083,-0.014100627518623588,-0.035366169409369166
546,1.0,300.32599999999996,1213.9419,0.0,-0.005460019464793686,0.0,0.0,0.0,0.0,-0.097305579589063,-0.15836968353737085,-0.11333277349007388,-0.0024074776779745475,0.028704038856118073,-0.016905081893651683
547,1.0,299.94364,1256.4983,0.0,-0.0054700154522129285,0.0,0.0,0.0,0.0,-0.0981863462252379,-0.16715990173239784,-0.11659787061231387,0.005252370155218575,0.03202899676776587,-0.03097212827746107
548,1.0,299.4761,1260.6333,0.0,-0.005480011439632171,0.0,0.0,0.0,0.0,-0.08370666792370492,-0.1881503806714968,-0.1113439864587959,0.008417749484767192,-0.0014458540891196887,-0.01968253011376448
549,1.0,299.48287,1139.3698,0.0,-0.005490007427051524,0.0,0.0,0.0,0.0,-0.08140750820129551,-0.16332109227103683,-0.10161138487576289,-0.005260587613529575,-0.009633401662467721,-0.021018836769647678
550,1.0,299.9,1191.3265,0.0,-0.005500003414470878,0.0,0.0,0.0,0.0,-0.08741990428692281,-0.17716053836438383,-0.0975530608597375,0.009723121615097391,0.004215075832995596,-0.023669165671964774
551,1.0,300.27052000000003,1235.1787,0.0,-0.005509999401890231,0.0,0.0,0.0,0.0,-0.08264502297242872,-0.18024361523865984,-0.11257484215027189,0.0012760833255896188,0.004789267439413896,-0.03681201346731287
552,1.0,300.64565,1222.7815,0.0,-0.005519995389309473,0.0,0.0,0.0,0.0,-0.09443148352141181,-0.16921801533551784,-0.10804555340826591,-0.02039942583776658,-0.001036290495348909,-0.041778892503505666
553,1.0,299.98602,1217.1983,0.0,-0.00553002436678629,0.0,0.0,0.0,0.0,-0.08983260881553821,-0.18320573031599782,-0.0969595587329134,-0.02030796279098988,-0.018788753346305583,-0.04079124926003286
554,1.0,299.67526000000004,1306.5868,0.0,-0.005540020354205644,0.0,0.0,0.0,0.0,-0.1068931942020369,-0.16531097361242283,-0.12496557364814188,-0.009489615697752153,0.0025833952219112576,-0.024151935774860477
555,1.0,299.0641,1229.5014,0.0,-0.005550016341624886,0.0,0.0,0.0,0.0,-0.09015260028986892,-0.15755353084682283,-0.12603161407835187,0.016086636218127382,0.0018493316974898283,-0.010954235685348888
556,1.0,299.3512,1299.4216,0.0,-0.005560012329044017,0.0,0.0,0.0,0.0,-0.0985253695761969,-0.17450660330496084,-0.12195973682898888,0.013840841338734686,-0.01082180795027929,-0.018850281945377984
557,1.0,299.09983,1378.5042,0.0,-0.005570008316463482,0.0,0.0,0.0,0.0,-0.1140745029607769,-0.16819045814410583,-0.13676589444524287,0.0020515900963261778,-0.01068555519608219,-0.017915567847378883
558,1.0,298.90747000000005,1258.0323,0.0,-0.005580004303882835,0.0,0.0,0.0,0.0,-0.1052802722953539,-0.16823767559876585,-0.1088924582393489,0.003202561859193247,0.019755586459224584,-0.01127062302907389
559,1.0,299.64223,1098.6903,0.0,-0.0055900002913021885,0.0,0.0,0.0,0.0,-0.07658342954144602,-0.16022973714344385,-0.097161242112318,0.01100092726320699,0.03243153874099367,-0.03106648212677307
560,1.0,300.42682,1205.8198,0.0,-0.005599996278721431,0.0,0.0,0.0,0.0,-0.0992920199331094,-0.16126421483303885,-0.1059828903121969,-0.0050463404395100254,0.01054971382142569,-0.005412755892347416
561,1.0,301.18273,1269.479,0.0,-0.005609992266140562,0.0,0.0,0.0,0.0,-0.0931218141974075,-0.1881664001555778,-0.10460171896838591,-0.01803512629292838,-0.011810993360404289,-0.025470015074694773
562,1.0,300.22298,1200.7294,0.0,-0.005620021243617601,0.0,0.0,0.0,0.0,-0.0983396864291214,-0.15643341325877586,-0.1102186607652349,-0.0042659025858368055,-0.005068504474847445,-0.0067737153284636534
563,1.0,299.29126,1295.0117,0.0,-0.0056300172310367325,0.0,0.0,0.0,0.0,-0.08386183299101851,-0.18752016950679984,-0.12226921380703187,0.006889181054209233,-0.0013780357400515388,-0.04513553981203096
564,1.0,299.2126,1349.5876,0.0,-0.005640013218455975,0.0,0.0,0.0,0.0,-0.1167154481539179,-0.18089768844321183,-0.11262779460049789,0.013257649031678089,-0.017799325769406682,-0.03210708491322257
565,1.0,299.85969,1295.2028,0.0,-0.005650009205875328,0.0,0.0,0.0,0.0,-0.08908388994564542,-0.17335024176083683,-0.13127519347835287,0.006899715815498933,-0.008218625879090221,-0.03786422100715767
566,1.0,299.76696,1269.9816,0.0,-0.005660005193294793,0.0,0.0,0.0,0.0,-0.1068567475959399,-0.18051542971048584,-0.09867051056027121,0.01916084310102798,0.015279073861927187,-0.028667251797987472
567,1.0,299.82826,1227.4349,0.0,-0.005670001180714146,0.0,0.0,0.0,0.0,-0.08679218571747183,-0.15456681405705686,-0.13175056989526887,0.006891865457699165,0.017911851246012085,-0.01886308334714138
568,1.0,300.06481,1129.125,0.0,-0.005679997168133388,0.0,0.0,0.0,0.0,-0.06467012933169485,-0.16628472722352483,-0.11227093804777889,0.0035047704902939165,-0.00976809299826072,-0.01979851178646098
569,1.0,300.56723999999997,1196.6245,0.0,-0.00568999315555252,0.0,0.0,0.0,0.0,-0.06064349268604674,-0.19469606751000582,-0.10840440606368189,-0.008236911902319913,-0.025090523527991876,-0.03439997059101277
570,1.0,300.34325,1329.4074,0.0,-0.005700022133029559,0.0,0.0,0.0,0.0,-0.10288562793652091,-0.17308017007918283,-0.12814084614901686,-0.001071150757089349,0.003941866723731957,-0.016724547070334286
571,1.0,300.20816,1390.0770000000002,0.0,-0.00571001812044869,0.0,0.0,0.0,0.0,-0.0956016120946445,-0.2115150059199058,-0.1154320858422599,-0.0037957595043622964,0.027139344614444772,-0.04023511782339696
572,1.0,300.2858,1435.4059,0.0,-0.005720014107867932,0.0,0.0,0.0,0.0,-0.12940872599914688,-0.1907454560326108,-0.11617336948291888,-0.0066703834753155935,0.011464394951697689,-0.015925034986178588
573,1.0,299.97397,1386.371,0.0,-0.005730010095287508,0.0,0.0,0.0,0.0,-0.12343249584933888,-0.17357939840345282,-0.12441027206333789,-0.011056652978956688,-0.003918648604315506,-0.025573672586424977
574,1.0,299.76014,1285.5979,0.0,-0.005740006082706639,0.0,0.0,0.0,0.0,-0.1063274561412029,-0.17386555036419382,-0.11059665371503989,0.010116818117602209,0.0038775750929618664,-0.003595907371863427
575,1.0,299.83673,1173.3042,0.0,-0.005750002070126103,0.0,0.0,0.0,0.0,-0.08406258722008142,-0.14942071944917684,-0.12317186765861687,0.002812085262856208,0.01170927622261559,-0.03036407689245107
576,1.0,299.6612,1263.4122,0.0,-0.005759998057545235,0.0,0.0,0.0,0.0,-0.10640134233849491,-0.16719186977305284,-0.1104525492858179,0.013450030775164686,-0.017746667161709685,-0.016512421135399084
577,1.0,300.1271,1270.511,0.0,-0.005769994044964477,0.0,0.0,0.0,0.0,-0.0973379387442566,-0.18194234929631184,-0.1069233282600109,-0.013365529769825087,-0.01923437871378538,-0.048324026107460054
578,1.0,300.32304,1184.5228,0.0,-0.005780023022441405,0.0,0.0,0.0,0.0,-0.1075129992882069,-0.14912072649206987,-0.1034316380179079,0.010237896235651689,0.0017730744949638283,-0.00946131987810957
579,1.0,299.91277,1266.3972,0.0,-0.0057900190098606474,0.0,0.0,0.0,0.0,-0.08695124470491973,-0.1984450320849998,-0.0995568531117464,-0.0058595907764715845,0.021207323579749877,-0.04490404053518375
580,1.0,300.44268,1392.2545,0.0,-0.005800014997280001,0.0,0.0,0.0,0.0,-0.1091286873676629,-0.17878251872696083,-0.1352994074430119,-0.008172234729886773,-0.0020722102424862283,-0.012802450477253488
581,1.0,300.53018,1329.101,0.0,-0.005810010984699465,0.0,0.0,0.0,0.0,-0.07661879196993603,-0.2039377392870878,-0.12345696583925389,-0.0034077355812173167,-0.017535147150334284,-0.040911081283109364
582,1.0,299.6564,1247.3937,0.0,-0.0058200069721185965,0.0,0.0,0.0,0.0,-0.07418151916614593,-0.1978858700173148,-0.1071091583283509,0.01023208828607849,-0.007971750531975522,-0.031291438847724576
583,1.0,299.90852,1309.2424,0.0,-0.005830002959538061,0.0,0.0,0.0,0.0,-0.0946716308878625,-0.17397853788284484,-0.12932682499356388,0.0008729947241978709,0.0015391501053272885,-0.03600113170378507
584,1.0,299.90154,1259.9385,0.0,-0.005839998946957192,0.0,0.0,0.0,0.0,-0.1031708781046729,-0.18642348839356582,-0.093395457585664,-0.004841781658971646,-0.013667779234904786,-0.01951867946659368
585,1.0,299.33125,1174.8011,0.0,-0.005849994934376435,0.0,0.0,0.0,0.0,-0.09409141044334922,-0.16556812635530183,-0.0974506709238824,-0.02444553715033668,0.002054079347846848,-0.035287342604589565
586,1.0,299.71245,1311.7474,0.0,-0.005860023911853363,0.0,0.0,0.0,0.0,-0.1111693122740569,-0.15905817684781987,-0.12851095601304388,-0.008620209115073402,0.016102583761451284,-0.008002709172880903
587,1.0,300.15364,1272.6867,0.0,-0.005870019899272605,0.0,0.0,0.0,0.0,-0.08665140981482833,-0.1893351233509218,-0.1108784487003509,0.003321307576837537,0.02183850138504228,-0.030926075047165973
588,1.0,300.30643,1314.8918,0.0,-0.005880015886691958,0.0,0.0,0.0,0.0,-0.0994285827418371,-0.16668906467592984,-0.13357661882798588,0.0016421867987212186,-0.013132844990360886,-0.023994669226839477
589,1.0,300.52304,1519.8398,0.0,-0.005890011874111312,0.0,0.0,0.0,0.0,-0.11728214880234689,-0.1965708132425288,-0.14814038675531785,0.008825911348349631,-0.022925710636341478,-0.030039885496455872
590,1.0,300.2831,1483.5237,0.0,-0.005900007861530554,0.0,0.0,0.0,0.0,-0.14754113038117586,-0.18452220564092384,-0.11889081505860989,0.008052947328739023,-0.007501083397549293,-0.006067212206762224
591,1.0,300.04004,1286.6007,0.0,-0.005910003848949907,0.0,0.0,0.0,0.0,-0.09376948163482732,-0.17355729941877182,-0.12376771951242287,0.011527085748634789,0.005094431417081235,-0.015133249947285488
592,1.0,300.24387,1280.1399,0.0,-0.00591999983636915,0.0,0.0,0.0,0.0,-0.1030436949521209,-0.18144896742511882,-0.1046379021294569,-0.0060473249443995045,-0.0031412033848126374,-0.01095907496782649
593,1.0,299.73945,1361.5906,0.0,-0.005929995823788503,0.0,0.0,0.0,0.0,-0.09610571313864541,-0.18289520969035183,-0.13488862571997087,-0.016726192588496683,-0.00039424957493940365,-0.02079953398425418
594,1.0,299.73137,1217.905,0.0,-0.00594002480126532,0.0,0.0,0.0,0.0,-0.08486231512650842,-0.17450292520709784,-0.1108474635122929,0.00847357743745198,0.008799302488798542,-0.03562564249497717
595,1.0,299.81787,1146.0838,0.0,-0.005950020788684562,0.0,0.0,0.0,0.0,-0.07112232763647723,-0.18474757272816583,-0.09251096928187182,-0.005284075764097675,0.014626879223060588,-0.045944489307618054
596,1.0,300.61022,1237.2112,0.0,-0.005960016776103916,0.0,0.0,0.0,0.0,-0.1060051514168939,-0.16702211998379984,-0.1030540199706399,-0.006992338121715043,-0.009840867862843041,-0.029753197526411975
597,1.0,300.11429,1227.5893,0.0,-0.005970012763523269,0.0,0.0,0.0,0.0,-0.0909690691144481,-0.18617206051375182,-0.09601537682597991,-0.003855034432562276,-0.0042051851947944655,-0.04339520677152346
598,1.0,300.08786000000003,1252.4251,0.0,-0.0059800087509425115,0.0,0.0,0.0,0.0,-0.09308643859666621,-0.17319853795586482,-0.1144209736999709,0.003255146094332907,0.026407425431209972,-0.033419023917450864
599,1.0,299.94975,1350.3434,0.0,-0.005990004738361865,0.0,0.0,0.0,0.0,-0.08911229337244861,-0.18283726191713282,-0.13852111719596988,0.00965339936909134,0.02417370140025858,-0.028958054576687473
600,1.0,299.78161,1257.4382,0.0,-0.006000000725781107,0.0,0.0,0.0,0.0,-0.07725422441239832,-0.18938761983860283,-0.1155879541051429,0.005451962287741785,-0.0014676498080457587,-0.038080202358723364
601,1.0,299.11027,1200.9919,0.0,-0.006009996713200461,0.0,0.0,0.0,0.0,-0.08045437726947884,-0.16874642847397583,-0.1158707420755519,0.004317167974646306,-0.016144156399804186,-0.02128271546669048
602,1.0,299.52571,1420.9336,0.0,-0.0060200256906772776,0.0,0.0,0.0,0.0,-0.12065775098049288,-0.1937191930885958,-0.1175513997514199,0.012366663768244688,-0.01868316559313488,-0.018303806782195082
603,1.0,299.32721000000004,1356.3756,0.0,-0.006030021678096631,0.0,0.0,0.0,0.0,-0.10814998909607289,-0.1829864021993518,-0.12116793253834388,-0.001049387259516459,-0.01015690006240799,-0.015221342924229586
604,1.0,299.80112,1229.9148,0.0,-0.006040017665515873,0.0,0.0,0.0,0.0,-0.1003416842152032,-0.16077509874476684,-0.11274659817472288,-0.006344756506578714,-0.009345812203809851,-0.018509319233727582
605,1.0,300.10593,1436.4922,0.0,-0.006050013652935227,0.0,0.0,0.0,0.0,-0.10493776336405089,-0.1986774209954348,-0.13304258536278088,-0.019173532032030285,-0.005643141607334715,-0.024412715953097477
606,1.0,300.21621,1539.3889,0.0,-0.006060009640354469,0.0,0.0,0.0,0.0,-0.12931331836973087,-0.18739848830229083,-0.15122399051964586,-0.005804908606999875,0.02371948063218048,-0.018490269118597483
607,1.0,300.49297,1323.9322,0.0,-0.006070005627773822,0.0,0.0,0.0,0.0,-0.11064575581488588,-0.17483555494992584,-0.11696101944815389,-0.007172320825052953,0.01023478251809439,-0.02211187018252168
608,1.0,300.402,1270.9348,0.0,-0.006080001615193065,0.0,0.0,0.0,0.0,-0.1096825704023269,-0.17488001636431383,-0.10176984705890191,-0.0012507055649100289,0.001913910280688238,-0.018066173289242482
609,1.0,300.00516,1363.354,0.0,-0.006089997602612418,0.0,0.0,0.0,0.0,-0.10769322608349391,-0.16766069046182183,-0.13907164637280287,-0.014179840371691286,-0.007028874805745933,-0.016270336434757185
610,1.0,299.87865,1331.1399,0.0,-0.0060999935900317714,0.0,0.0,0.0,0.0,-0.0997377253473471,-0.1905938535526488,-0.1143017242957019,0.016185091703844183,0.012046340961131288,-0.02724771880539047
611,1.0,300.14973,1406.0491,0.0,-0.006110022567508588,0.0,0.0,0.0,0.0,-0.09114678000973682,-0.1971254967447718,-0.13913152945371288,-0.0014310191957305988,0.015865917922344184,-0.03103173170134347
612,1.0,299.23322,1333.3521,0.0,-0.00612001855492772,0.0,0.0,0.0,0.0,-0.10015107869914192,-0.18303020500117484,-0.12212445076524488,0.0014595622483975785,-0.009095746132130251,-0.03039362630511737
613,1.0,299.20451,1172.8944,0.0,-0.006130014542347184,0.0,0.0,0.0,0.0,-0.085558849589751,-0.18819596679349582,-0.08277580417608582,0.0007712825108046572,-0.018156283647135684,-0.034489356475084464
614,1.0,299.51146,1255.1104,0.0,-0.0061400105297663155,0.0,0.0,0.0,0.0,-0.0882336788794861,-0.18504275274729784,-0.1082457918930279,0.00910686108042721,-0.0016670738423773784,-0.023890882019096477
615,1.0,299.96477000000004,1378.9739,0.0,-0.00615000651718578,0.0,0.0,0.0,0.0,-0.1024895788699339,-0.19047455348587483,-0.12620949013340688,0.0024025894555171176,-0.014888021131583287,-0.03450848765022257
616,1.0,300.13459,1290.664,0.0,-0.006160002504605133,0.0,0.0,0.0,0.0,-0.09274295694526721,-0.1941645469050488,-0.1054221171768529,-0.01058201218161329,-0.020572587240106282,-0.038820689584803766
617,1.0,300.32105,1256.3043,0.0,-0.0061699984920243756,0.0,0.0,0.0,0.0,-0.08127500041946802,-0.17754947441526883,-0.12306066346014188,-0.01018417371534969,-0.000985034651355351,-0.037716268254055864
618,1.0,300.27853999999996,1395.1192,0.0,-0.006179994479443729,0.0,0.0,0.0,0.0,-0.1202102490738279,-0.20386092479700682,-0.10001023896174209,0.004748914450206365,0.026914665524020675,-0.05061568068637875
619,1.0,300.19586,1455.7998,0.0,-0.006190023456920546,0.0,0.0,0.0,0.0,-0.1270606404824089,-0.1850034285109168,-0.13046270875316687,0.014062012557312587,0.016503212718490284,-0.014362733027991384
620,1.0,300.37619,1393.9353,0.0,-0.006200019444339677,0.0,0.0,0.0,0.0,-0.10872999371831489,-0.1968911623941448,-0.11810035839059789,-6.225752410158925e-05,-0.005183076007379776,-0.03103291112445987
621,1.0,299.52094,1422.7428,0.0,-0.006210015431759142,0.0,0.0,0.0,0.0,-0.1004859527909414,-0.19841132125417282,-0.13358099606841786,-0.003124140861078697,-0.01291395155800779,-0.002214899667943578
622,1.0,299.93147,1461.856,0.0,-0.006220011419178273,0.0,0.0,0.0,0.0,-0.1044681827377069,-0.18214349970616384,-0.15775602887930787,-0.00041119527093681356,0.001188616233232289,-0.012545517609646187
623,1.0,299.70844,1293.5391,0.0,-0.006230007406597626,0.0,0.0,0.0,0.0,-0.08321861676128801,-0.19006693310314582,-0.11991805814249089,0.004102172920727946,-0.008081717957378462,-0.016809055168424583
624,1.0,299.48521,1288.5567,0.0,-0.006240003394017091,0.0,0.0,0.0,0.0,-0.1072928403064789,-0.17866323892518884,-0.10573297217503191,-0.01796338413284798,-0.008364495896611472,-0.027100886706899273
625,1.0,299.21707999999995,1419.004,0.0,-0.006249999381436222,0.0,0.0,0.0,0.0,-0.13000863085335287,-0.18372600384484483,-0.11760713863942089,-0.008098062188116513,-0.007983791084238832,-0.012944178834990987
626,1.0,300.01125,1328.1061,0.0,-0.006259995368855686,0.0,0.0,0.0,0.0,-0.0997715253441829,-0.19993478330952683,-0.1040047728044719,-0.0007249661799885914,0.01831180740498468,-0.04086136008745226
627,1.0,300.19507999999996,1295.9007,0.0,-0.006270024346332392,0.0,0.0,0.0,0.0,-0.07757306280811521,-0.18957958007004783,-0.12676880418860687,0.0024252734908058573,0.01063232207557849,-0.03010200786008687
628,1.0,300.38428,1401.2102,0.0,-0.006280020333751635,0.0,0.0,0.0,0.0,-0.08484960897025441,-0.2091648229754608,-0.13191849583434187,-0.0012048694741113588,-0.014934447237915184,-0.04034246964499176
629,1.0,300.71407999999997,1423.8385,0.0,-0.006290016321170988,0.0,0.0,0.0,0.0,-0.1024585835493749,-0.1964424243223578,-0.13391033274842087,-0.001962735965906958,-0.0048064326053829645,-0.03928291300217167
630,1.0,300.40979,1331.6826,0.0,-0.00630001230859023,0.0,0.0,0.0,0.0,-0.12183198625638088,-0.17469279814333682,-0.1082734941507619,0.008056183649558424,0.025514985140632974,-0.03045831523125167
631,1.0,300.1373,1228.2922,0.0,-0.006310008296009584,0.0,0.0,0.0,0.0,-0.09480511949578681,-0.18380677001031584,-0.09475827289066341,0.008381725201311871,0.008609534119969862,-0.03005196242439777
632,1.0,300.40592000000004,1241.7448,0.0,-0.006320004283429048,0.0,0.0,0.0,0.0,-0.07920204067588284,-0.18064870249613885,-0.1176086686470719,-0.01750270389538238,-0.01235424233526879,-0.023966828153841775
633,1.0,300.07382,1375.8653,0.0,-0.0063300002708481795,0.0,0.0,0.0,0.0,-0.08023329319040952,-0.2024156451193688,-0.13557977374568186,0.003997320280504796,-0.01026405632673349,-0.025643397365556275
634,1.0,299.40192,1527.0122,0.0,-0.006339996258267533,0.0,0.0,0.0,0.0,-0.10450732458906989,-0.2157532487031878,-0.14391300601310786,-0.00039465458113687466,-0.0023674024206194275,-0.02983320375430797
635,1.0,300.06735,1421.3670000000002,0.0,-0.00635002523574435,0.0,0.0,0.0,0.0,-0.11956773705291689,-0.18078059726165582,-0.13171174215143688,0.005240372767409526,0.0024387009798060477,-0.02479430087450698
636,1.0,300.02386,1233.5033,0.0,-0.006360021223163592,0.0,0.0,0.0,0.0,-0.09243054660818473,-0.19285477929578482,-0.08966888482462992,-0.011059405979478389,-0.010286042840653391,-0.03726400711167117
637,1.0,300.70697,1444.5409,0.0,-0.0063700172105829456,0.0,0.0,0.0,0.0,-0.12671651035094586,-0.18804830585642282,-0.12433955733885887,0.015382871202171184,-0.002980400796592657,-0.024070925416115375
638,1.0,300.80602999999996,1625.7997,0.0,-0.006380013198002299,0.0,0.0,0.0,0.0,-0.13741345245165187,-0.1965952427024398,-0.16019381742739885,-0.003931059600815376,0.028254123387714873,-0.018966662838613882
639,1.0,300.57364,1403.6072,0.0,-0.006390009185421763,0.0,0.0,0.0,0.0,-0.1041789808941649,-0.1883254196262718,-0.13415714020777889,-0.005654465994427344,-0.004294903222248946,-0.02626224999663227
640,1.0,300.23815,1260.4311,0.0,-0.006400005172840895,0.0,0.0,0.0,0.0,-0.07346715555414374,-0.16894605900867785,-0.14072638511111288,-0.008497086663622162,-0.024139536633386777,-0.014598138383974089
641,1.0,300.47328999999996,1319.3856,0.0,-0.006410001160260137,0.0,0.0,0.0,0.0,-0.10355042132713091,-0.18685285312344083,-0.11065700289099589,0.006221745715288494,-0.015582438915366984,-0.02948863589880177
642,1.0,299.62817,1466.4044,0.0,-0.00641999714767949,0.0,0.0,0.0,0.0,-0.13219810219943687,-0.19135255496252682,-0.12219965418766687,0.00927294300564322,0.006981937920038623,-0.036415878274467364
643,1.0,300.00246,1576.0847,0.0,-0.006430026125156307,0.0,0.0,0.0,0.0,-0.13978594716329887,-0.2121477198123498,-0.12715673712189288,0.004604494596228236,-0.0025043044654806073,-0.033561086647721367
644,1.0,300.01367999999997,1388.8791,0.0,-0.00644002211257555,0.0,0.0,0.0,0.0,-0.09243846515771621,-0.20587962297123683,-0.1238664911321709,-0.03096174854343667,0.0009498666858245433,-0.04210204025189786
645,1.0,300.73252,1250.5987,0.0,-0.006450018099994903,0.0,0.0,0.0,0.0,-0.061007911124262036,-0.1935296038623848,-0.1256132735095649,-0.019601792319296284,-0.007305522277898914,-0.02242646913982018
646,1.0,300.33446000000004,1344.7684,0.0,-0.006460014087414256,0.0,0.0,0.0,0.0,-0.09302244779985082,-0.18996203132029282,-0.12579153459965786,-0.006204153667052295,0.024788196042654476,-0.02436024175691868
647,1.0,299.89734,1541.6871,0.0,-0.006470010074833721,0.0,0.0,0.0,0.0,-0.1269137293504099,-0.2036839707995428,-0.13803666205815787,0.0019342935289749083,0.0005800731280812604,-0.01048463783375319
648,1.0,299.39562,1391.5994,0.0,-0.006480006062252852,0.0,0.0,0.0,0.0,-0.11200543612407589,-0.19245805135163083,-0.11854797175477388,0.0006272380761210784,-0.019435224135357282,-0.03475802581860007
649,1.0,299.85879,1226.3279,0.0,-0.0064900020496720945,0.0,0.0,0.0,0.0,-0.08282773324371083,-0.19407252353096682,-0.0958727942984081,0.007990917677492174,-0.005620139310189565,-0.05069831427178405
650,1.0,299.20977,1355.5655,0.0,-0.006499998037091448,0.0,0.0,0.0,0.0,-0.0981059792803063,-0.19403738401749882,-0.1199147144171609,0.016110584384240883,0.006859498196504764,-0.05033472264565036
651,1.0,300.12871,1502.612,0.0,-0.00650999402451069,0.0,0.0,0.0,0.0,-0.11359700885115188,-0.2014097410825938,-0.14174978797711485,0.0013833200419730587,-0.0031438607345248976,-0.029642932610779674
652,1.0,299.83482000000004,1398.9527,0.0,-0.006520023001987396,0.0,0.0,0.0,0.0,-0.09663560646394181,-0.20225688909370082,-0.12635419238018789,-0.018823773296261784,-0.011907000833879489,-0.02965658007637657
653,1.0,300.28963,1357.6414,0.0,-0.0065300189894068605,0.0,0.0,0.0,0.0,-0.11012541135853189,-0.1816244623424388,-0.12093920146076989,-0.009677275695772751,0.0005487872580560854,-0.012363150830147988
654,1.0,300.1509,1366.4229999999998,0.0,-0.006540014976826214,0.0,0.0,0.0,0.0,-0.1137372122674889,-0.19031448023507683,-0.11130679004762489,-0.004280524899354916,0.014666622944982987,-0.015824433436749986
655,1.0,300.11242000000004,1510.6771,0.0,-0.006550010964245567,0.0,0.0,0.0,0.0,-0.1173200139585839,-0.2069479837441758,-0.13494012922255388,0.0031181675490891767,0.006048217617737604,-0.013486749945538588
656,1.0,299.85309,1605.7646,0.0,-0.00656000695166481,0.0,0.0,0.0,0.0,-0.13067782174939688,-0.20142218379382182,-0.15601233691471886,-0.005440489763484535,-0.011407062221289389,-0.02277853707256658
657,1.0,299.82256,1461.8681,0.0,-0.006570002939083941,0.0,0.0,0.0,0.0,-0.1028306084560909,-0.2105273606499328,-0.13101344058001987,0.0037542537405159965,0.01168581846955049,-0.013098780535248988
658,1.0,299.93996,1228.5193,0.0,-0.006579998926503405,0.0,0.0,0.0,0.0,-0.08286194664658743,-0.17981754357160984,-0.11075970592113189,0.0044809880216640854,0.02039853113792828,-0.037093365662330166
659,1.0,300.56737999999996,1379.0616,0.0,-0.006589994913922759,0.0,0.0,0.0,0.0,-0.1066342885364849,-0.1958529559441818,-0.11671303661867988,-0.001105105375890409,0.0008964173884120082,-0.02615430035747848
660,1.0,300.60218,1571.3023,0.0,-0.006600023891399354,0.0,0.0,0.0,0.0,-0.12111597307321588,-0.22126051630921278,-0.13526017439913987,-0.01109621836886149,-0.009968821490771081,-0.03781478048177826
661,1.0,300.67416000000003,1429.3797,0.0,-0.006610019878818929,0.0,0.0,0.0,0.0,-0.09132760462258281,-0.2051857391702558,-0.13798239238280186,0.0026481981386818074,-0.005295322434907635,-0.04119270908215386
662,1.0,300.59607,1251.2954,0.0,-0.006620015866238171,0.0,0.0,0.0,0.0,-0.06884305902678094,-0.2023377869816848,-0.10918169048039389,-0.0014836143739713386,0.013140082635825185,-0.051804762102731945
663,1.0,299.65295,1361.8682,0.0,-0.006630011853657525,0.0,0.0,0.0,0.0,-0.10738619103819189,-0.19331817909651883,-0.1132695770813369,0.0055564660659555044,-0.0014394950328170987,-0.038514500603335264
664,1.0,300.07554,1416.9939,0.0,-0.006640007841076767,0.0,0.0,0.0,0.0,-0.11427645383820789,-0.18468878395736382,-0.1317655254667449,-0.0035218447677290167,-0.02031212522240068,-0.01976834429123368
665,1.0,300.42588,1414.2109,0.0,-0.0066500038284958984,0.0,0.0,0.0,0.0,-0.11938627409250789,-0.1984347678614868,-0.11206375879983188,0.022896916094999678,0.0031548458854840466,-0.03306689214994817
666,1.0,299.9975,1503.2602,0.0,-0.006659999815915363,0.0,0.0,0.0,0.0,-0.10767456201665189,-0.2139386089665968,-0.13534039340955686,0.020236652275452082,0.008414835782779633,-0.02030998422493938
667,1.0,299.92527,1405.6221,0.0,-0.006669995803334716,0.0,0.0,0.0,0.0,-0.10262707690850391,-0.20286631849884681,-0.12178063474131288,0.015307812674513484,0.006679368673227363,-0.03579544092023497
668,1.0,300.06293,1422.4586,0.0,-0.006680024780811533,0.0,0.0,0.0,0.0,-0.09138653727489901,-0.2092326600696558,-0.1317726992774529,-0.015391914459313684,-0.009935636232770951,-0.028795626532657076
669,1.0,300.05946,1570.9044,0.0,-0.0066900207682308865,0.0,0.0,0.0,0.0,-0.12694097564559886,-0.2041692162724328,-0.14640552019909986,0.009164269500617982,0.005248703101781665,-0.028808034793381673
670,1.0,299.8815,1591.8142,0.0,-0.006700016755650129,0.0,0.0,0.0,0.0,-0.12701824609822487,-0.21718991575497582,-0.13966360734622485,-0.017217351388970285,0.024394046820004976,-0.02160021333252508
671,1.0,299.31681000000003,1270.0237,0.0,-0.006710012743069482,0.0,0.0,0.0,0.0,-0.09795855645700681,-0.18155620981570283,-0.10654072502225091,-0.02264534534692158,0.007691294961971713,-0.038723490529210966
672,1.0,298.99228999999997,1228.3363,0.0,-0.006720008730488614,0.0,0.0,0.0,0.0,-0.08777832023154572,-0.17299076089035884,-0.1126144703616829,-0.016978173702865286,-0.02128714438287758,-0.022708831545187182
673,1.0,299.68134,1513.7031,0.0,-0.006730004717907856,0.0,0.0,0.0,0.0,-0.1192103941401499,-0.2030636185583188,-0.13785392240262287,-0.0016399631200517586,-0.006735221349214593,-0.03077669867767367
674,1.0,299.51544,1583.9991,0.0,-0.006740000705327431,0.0,0.0,0.0,0.0,-0.12444530011929487,-0.20255336607296082,-0.15449750775021687,0.032772910805684466,-0.012974005878184687,-0.028081702671198267
675,1.0,299.85696,1512.5024,0.0,-0.006749996692746674,0.0,0.0,0.0,0.0,-0.1185288517253869,-0.22142988106342779,-0.11980422962625689,0.013327558222327587,-0.003510413178775806,-0.036304822010506964
676,1.0,300.19659,1493.0228,0.0,-0.00676002567022338,0.0,0.0,0.0,0.0,-0.11894123438358589,-0.20723548332754982,-0.12766494284204888,0.006107816481994555,-0.02054416253505098,-0.02976559565463557
677,1.0,300.34691000000004,1450.2241,0.0,-0.006770021657642844,0.0,0.0,0.0,0.0,-0.1010173842298896,-0.2066544755877088,-0.13316006157937488,0.005788940697348964,-0.007648221193595663,-0.022861377360992276
678,1.0,299.87807000000004,1443.3873,0.0,-0.006780017645061975,0.0,0.0,0.0,0.0,-0.08194579123741992,-0.2241935207111778,-0.1326144061355229,0.013190612405062089,0.0049742238835176755,-0.03608271252233647
679,1.0,299.66052,1516.8776,0.0,-0.00679001363248144,0.0,0.0,0.0,0.0,-0.0954276664367274,-0.20897536547176282,-0.15668987699158685,-0.006030130495502545,0.0026691248943221174,-0.025271784851630976
680,1.0,299.13702,1330.9849,0.0,-0.006800009619900571,0.0,0.0,0.0,0.0,-0.08215645302596061,-0.18991735712338384,-0.13251237185045286,-0.007399657265189313,-0.022238623717031277,-0.04091962196820226
681,1.0,299.95718999999997,1212.3905,0.0,-0.0068100056073200355,0.0,0.0,0.0,0.0,-0.090722878724401,-0.18443388062970684,-0.0933796904008579,-0.012159497692548989,0.018062211481351485,-0.03191484806450027
682,1.0,300.12892,1462.7746,0.0,-0.006820001594739389,0.0,0.0,0.0,0.0,-0.12746671059248488,-0.19337126326925783,-0.12380896892399389,0.00960398954518997,0.029378423672174674,-0.039243391182021164
683,1.0,300.60601,1653.6797,0.0,-0.00682999758215852,0.0,0.0,0.0,0.0,-0.14161058767837686,-0.22806327483059277,-0.13300347390892087,-0.015180329599931885,0.026942771055294475,-0.024946800080807477
684,1.0,300.24544,1527.3953,0.0,-0.006840026559635337,0.0,0.0,0.0,0.0,-0.11464556058463589,-0.21172940964106582,-0.13791506191365688,0.0023128878427142578,0.006881112847637962,-0.030991302009103373
685,1.0,300.63316000000003,1518.3228,0.0,-0.0068500225470548015,0.0,0.0,0.0,0.0,-0.1042895974075819,-0.2148745379514658,-0.14236809345313686,-0.0005460818397590815,0.008623511195824293,-0.018959834546189984
686,1.0,300.26921,1599.3615,0.0,-0.006860018534473933,0.0,0.0,0.0,0.0,-0.12495015198161988,-0.2205090799025518,-0.14070672805917286,0.017461877009103087,-0.00042870799182268454,-0.02016748174412548
687,1.0,300.209,1500.2328,0.0,-0.006870014521893286,0.0,0.0,0.0,0.0,-0.1153996922365629,-0.2043218927975008,-0.13631171522041888,-0.003859665796119356,-0.007016348298734664,-0.026437778351205577
688,1.0,299.94315,1425.6776,0.0,-0.0068800105093125286,0.0,0.0,0.0,0.0,-0.1091186865891759,-0.21312550615884981,-0.11112619848230189,-0.0025721699306784076,-0.03388445427138526,-0.026655252220168575
689,1.0,299.59552,1374.4304,0.0,-0.006890006496731882,0.0,0.0,0.0,0.0,-0.09681296981444622,-0.1882031710017068,-0.13277638429650887,-0.00947411712554756,0.006339292454089453,-0.01856967651568438
690,1.0,299.78257,1317.9216,0.0,-0.006900002484151346,0.0,0.0,0.0,0.0,-0.07821744731521102,-0.1956607424002118,-0.12673706919547487,-0.0004110284190428466,0.005570313445797135,-0.029558328253929872
691,1.0,299.96801,1452.8434,0.0,-0.006909998471570478,0.0,0.0,0.0,0.0,-0.07597285820343734,-0.22521263752925677,-0.14044262442060787,-0.01987516415652598,0.01967554882057548,-0.034811282243856066
692,1.0,300.12504,1572.7841,0.0,-0.006919994458989942,0.0,0.0,0.0,0.0,-0.12074637996673988,-0.20037119012759683,-0.15696953401918684,-0.014888920897672088,-0.007163034691861483,-0.026538611934907072
693,1.0,300.36274,1561.0495,0.0,-0.006930023436466648,0.0,0.0,0.0,0.0,-0.12722347990597987,-0.2174311706037858,-0.12986539781921688,-0.013205129239244787,0.013807161918660788,-0.03228670477169967
694,1.0,300.58025,1461.5797,0.0,-0.00694001942388589,0.0,0.0,0.0,0.0,-0.13141237740939188,-0.19454851803044382,-0.11832284784755588,0.0028705278060990372,-0.003989623531420186,-0.039185004671508865
695,1.0,300.22143,1624.1025,0.0,-0.006950015411305244,0.0,0.0,0.0,0.0,-0.13637404023406988,-0.21629052456871278,-0.14102205149029287,0.0025794818473750375,-0.0015134086891868085,-0.026827986030966075
696,1.0,300.61512,1699.4316,0.0,-0.006960011398724486,0.0,0.0,0.0,0.0,-0.12319022775042887,-0.2392353299031888,-0.15415923420433184,0.0019923713021817377,-0.018232925884699682,-0.031640147856389474
697,1.0,300.83507000000003,1502.9334,0.0,-0.006970007386143839,0.0,0.0,0.0,0.0,-0.1018664401909349,-0.21401151231129178,-0.14097626271827385,0.014951722138870088,0.016581135704180683,-0.036552765323227064
698,1.0,300.52985,1394.7166,0.0,-0.006980003373563193,0.0,0.0,0.0,0.0,-0.0895005708107686,-0.20332098408371882,-0.13113746239225987,0.02229846322818698,0.01166734793347759,-0.024805299704342476
699,1.0,300.48714,1423.4506,0.0,-0.006989999360982435,0.0,0.0,0.0,0.0,-0.1122344813091809,-0.2007742711498778,-0.11968467624695789,-0.0025685762365487376,0.0068932136882822225,-0.03526012366715326
700,1.0,300.16934,1463.6294,0.0,-0.0069999953484017885,0.0,0.0,0.0,0.0,-0.11453904773412388,-0.19976179111995382,-0.13060596205230487,0.0035296318987225466,-0.022516580510963478,-0.023723390764316378
701,1.0,299.78073,1519.5919,0.0,-0.0070100243258786055,0.0,0.0,0.0,0.0,-0.12273362685786587,-0.2204570799074198,-0.11872729675747189,-0.0032384475300348873,-0.004262116982138196,-0.052438348403512046
702,1.0,300.0232,1612.3701,0.0,-0.007020020313297848,0.0,0.0,0.0,0.0,-0.11969852737582488,-0.21393526524126677,-0.15648645690151086,-0.004434811884131856,-0.0025153188993676475,-0.023940579910001276
703,1.0,299.88947,1490.7632,0.0,-0.007030016300717201,0.0,0.0,0.0,0.0,-0.11034195303740289,-0.2000739329457598,-0.14273891259223387,-0.00862219832766972,0.01117471384085839,-0.03703266286208926
704,1.0,299.6691,1479.0758,0.0,-0.0070400122881365546,0.0,0.0,0.0,0.0,-0.09112050744789392,-0.2213687212873918,-0.13711287180948686,-0.013096051852729688,-0.006212593432435234,-0.024265947689362577
705,1.0,300.10468,1636.1629999999998,0.0,-0.007050008275555797,0.0,0.0,0.0,0.0,-0.14289313938995488,-0.2026328960733098,-0.15182665141412385,0.0026290675714937674,0.01781875787982448,-0.029664030504361873
706,1.0,300.48776000000004,1584.5947,0.0,-0.00706000426297515,0.0,0.0,0.0,0.0,-0.13038393869039286,-0.21906675891520577,-0.13222652386474187,0.018203532512548783,0.0016349937362613184,-0.029816010926611174
707,1.0,300.53123999999997,1379.6541,0.0,-0.007070000250394393,0.0,0.0,0.0,0.0,-0.1074455269640479,-0.2055461623633268,-0.1063887172422489,0.013302148949569886,-0.00802953922492882,-0.050310128025973046
708,1.0,300.25436,1478.1632,0.0,-0.007079996237813746,0.0,0.0,0.0,0.0,-0.09758425072431572,-0.2152358325396228,-0.13650460764195588,-0.00951425429248379,-0.02166185845535898,-0.022128818816944378
709,1.0,300.07887,1438.4434,0.0,-0.007090025215290563,0.0,0.0,0.0,0.0,-0.08572053086845773,-0.2352750418873388,-0.11625530088600489,-0.004415724278748055,-0.0013970113812992889,-0.04737461481676045
710,1.0,300.17342,1352.8661,0.0,-0.007100021202709694,0.0,0.0,0.0,0.0,-0.08061736969381492,-0.1882145498003298,-0.14240558370683687,0.009940856598611162,0.007134124336033254,-0.02337654309608518
711,1.0,299.95369,1481.2095,0.0,-0.007110017190129159,0.0,0.0,0.0,0.0,-0.10418198011446089,-0.2179647886364498,-0.12810393344787388,-0.010146537553635291,0.01123914337496709,-0.029049369688949576
712,1.0,299.94897000000003,1560.1215,0.0,-0.007120013177548512,0.0,0.0,0.0,0.0,-0.1183802484657209,-0.21561935783497382,-0.14023837346544987,0.012956352021692387,-0.017450953159774983,-0.025882338964387974
713,1.0,299.68464,1550.3816,0.0,-0.007130009164967754,0.0,0.0,0.0,0.0,-0.11490193312493789,-0.2063428910494578,-0.15003246919705188,-0.005295937376393325,-0.01021938820932509,-0.037798933250214266
714,1.0,299.788,1559.8537,0.0,-0.007140005152387108,0.0,0.0,0.0,0.0,-0.11560901957472189,-0.21646210834064677,-0.14208545747024287,0.02203588959727298,0.005387680080197625,-0.039511170891948964
715,1.0,299.98908,1573.1223,0.0,-0.00715000113980635,0.0,0.0,0.0,0.0,-0.12853792873070588,-0.1924998479182558,-0.15715211155470585,-0.003968716534156826,-0.0064175093836338635,-0.028170483644960272
716,1.0,300.60363,1511.6836,0.0,-0.0071599971272257035,0.0,0.0,0.0,0.0,-0.10872955802077189,-0.2154011240284358,-0.13538339574380087,0.0026986501916360373,0.013806645161109788,-0.032693961397642766
717,1.0,300.22265,1454.1308,0.0,-0.0071700261047025204,0.0,0.0,0.0,0.0,-0.0998196030481778,-0.2121433831019218,-0.1300564866555759,-0.013917310310531587,0.010390230282185891,-0.027604866160888177
718,1.0,299.97348999999997,1530.4834,0.0,-0.007180022092121652,0.0,0.0,0.0,0.0,-0.1163647622943079,-0.2040267533083728,-0.14483723195932185,0.010810091739372989,0.012284960346431187,-0.024329591954643775
719,1.0,300.068,1511.4155,0.0,-0.007190018079541116,0.0,0.0,0.0,0.0,-0.11429769156030391,-0.2161029213126978,-0.1290319692144639,-0.0012616119863364088,-0.003970747188682236,-0.021455229402216277
720,1.0,300.21994,1493.9239,0.0,-0.0072000140669604695,0.0,0.0,0.0,0.0,-0.1137918872428849,-0.2154034646361668,-0.1249202003086639,0.014333823989388287,-0.025172763972358375,-0.03746097685161057
721,1.0,300.19423,1579.9321,0.0,-0.007210010054379601,0.0,0.0,0.0,0.0,-0.11451450681670189,-0.21348600027942777,-0.15225939026683186,0.011966762324777488,-0.006909619018001304,-0.02447154221415318
722,1.0,300.11102999999997,1589.4217,0.0,-0.007220006041799065,0.0,0.0,0.0,0.0,-0.10487270257512989,-0.23387019088869077,-0.14440161547632985,0.005157795316059765,0.007634117765453763,-0.041630872875897264
723,1.0,299.59555,1530.0119,0.0,-0.007230002029218197,0.0,0.0,0.0,0.0,-0.1148784865176239,-0.2005939734270838,-0.14961294312564788,0.008199546886332273,0.002046696604968228,-0.024270562030317976
724,1.0,299.42239,1542.0578,0.0,-0.007239998016637661,0.0,0.0,0.0,0.0,-0.1205677237091079,-0.21592793302042781,-0.13225139915469689,-0.025044094381909677,-0.0014255492663907588,-0.036147496693980166
725,1.0,299.14912999999996,1475.7132,0.0,-0.007250026994114367,0.0,0.0,0.0,0.0,-0.1097693046108869,-0.21481649898573782,-0.12399415051226986,-0.009826132571938782,0.0008660259446476061,-0.03537775795076287
726,1.0,299.96254,1391.7808,0.0,-0.007260022981533609,0.0,0.0,0.0,0.0,-0.0987496058763273,-0.2031267643045508,-0.12119024430554588,-0.02001020607685358,-0.0032596225319496967,-0.04621288406035655
727,1.0,299.73829,1564.7793,0.0,-0.007270018968953185,0.0,0.0,0.0,0.0,-0.11728903890302689,-0.22944549995450778,-0.12891929580334388,-0.002521584939311057,0.005681415913962095,-0.04468993774930345
728,1.0,299.86638,1624.9687,0.0,-0.007280014956372427,0.0,0.0,0.0,0.0,-0.12647576212718586,-0.2071070437448738,-0.16036708319449886,0.007176116966552603,-0.015004434448822384,-0.04572221263318105
729,1.0,299.87862,1509.5279,0.0,-0.007290010943791558,0.0,0.0,0.0,0.0,-0.10112585569284491,-0.2297382481733998,-0.12799469495459287,0.02701365296603998,-0.008883455746703822,-0.031118937071199972
730,1.0,300.01011,1481.5995,0.0,-0.007300006931211023,0.0,0.0,0.0,0.0,-0.09504756997971482,-0.2176798829733318,-0.13764178836168686,0.004263198727944956,0.016773958211460785,-0.01946154128020458
731,1.0,300.00187,1623.2119,0.0,-0.007310002918630154,0.0,0.0,0.0,0.0,-0.12364204610251987,-0.22282182325580177,-0.14695201664053487,0.007815454778875332,-0.0016892719229181583,-0.016183606279197585
732,1.0,300.41194,1606.589,0.0,-0.007319998906049507,0.0,0.0,0.0,0.0,-0.12514476692832688,-0.22884853352559179,-0.13436964915125188,-0.01720304835055868,0.0031889183452717368,-0.02855882289153637
733,1.0,300.21241000000003,1554.4783,0.0,-0.007329994893468972,0.0,0.0,0.0,0.0,-0.1279968734423079,-0.2100227823651348,-0.1345029422019069,-0.008051887367809412,-0.004384710111737196,-0.04307115824379236
734,1.0,300.12535,1659.2018,0.0,-0.007340023870945789,0.0,0.0,0.0,0.0,-0.12231924809696987,-0.2297094718705598,-0.15232720709602485,-0.017146706578748182,0.009203103019975551,-0.034506303083006964
735,1.0,300.40204,1639.0369,0.0,-0.007350019858365142,0.0,0.0,0.0,0.0,-0.13043723564565288,-0.2196308251133748,-0.14815821995707784,-0.014528588897110086,0.005144099822408125,-0.028638189758619273
736,1.0,300.19427,1614.5348,0.0,-0.0073600158457842735,0.0,0.0,0.0,0.0,-0.12209768069760288,-0.2111597503023448,-0.15752083326609584,-0.0069228015031273125,0.00983202158151998,-0.024084778571482578
737,1.0,300.11749,1589.2811,0.0,-0.007370011833203516,0.0,0.0,0.0,0.0,-0.13636927795859985,-0.2081720303949798,-0.1385604515648519,0.01066646556419819,0.004898538964648155,-0.025001211611177476
738,1.0,299.69049,1454.7577,0.0,-0.007380007820622869,0.0,0.0,0.0,0.0,-0.09676170645213691,-0.2186067028398018,-0.12684159607579087,0.009742227560308,0.0009487968355739573,-0.03387691569064126
739,1.0,299.23598,1434.1518,0.0,-0.0073900038080421115,0.0,0.0,0.0,0.0,-0.0983617550162994,-0.2055924476278948,-0.13199212871910887,0.018351453854897483,-0.016129079238316187,-0.038601340189905665
740,1.0,299.5153,1637.0994,0.0,-0.007399999795461687,0.0,0.0,0.0,0.0,-0.1066994506504159,-0.23543295691542376,-0.15550492152964085,0.000890184471614367,-0.012315039688899788,-0.04955346223554595
741,1.0,299.12802999999997,1552.5372,0.0,-0.007409995782880929,0.0,0.0,0.0,0.0,-0.11719606307385089,-0.22049301988846678,-0.13424343871879588,-0.0031285790991667168,-0.01065572004688769,-0.030842589318426573
742,1.0,300.27335,1383.8041,0.0,-0.007420024760357635,0.0,0.0,0.0,0.0,-0.08162581192209042,-0.21588018867571582,-0.1231359074125679,-0.02023097098214138,0.016352374229103683,-0.03610248913778827
743,1.0,300.3533,1492.7942,0.0,-0.0074300207477771,0.0,0.0,0.0,0.0,-0.11051809643478688,-0.21702428989362976,-0.1262297754004089,-0.013963348342075185,0.008809791552508732,-0.03112738656378387
744,1.0,300.38351,1656.9946,0.0,-0.007440016735196231,0.0,0.0,0.0,0.0,-0.13093350527963088,-0.22111559114740978,-0.15163587668529585,-0.014631245317741485,0.008238344739286323,-0.034140658612170666
745,1.0,299.824,1584.8428,0.0,-0.007450012722615473,0.0,0.0,0.0,0.0,-0.12707812917913489,-0.21589390808206982,-0.13878061054657986,0.003364124891613277,-0.0029692374149409167,-0.050605807577404356
746,1.0,299.90859,1572.8572,0.0,-0.007460008710034827,0.0,0.0,0.0,0.0,-0.1107198851922019,-0.22383580289587376,-0.14355362646763986,0.017110161687391483,0.014668399172408286,-0.04636806837942205
747,1.0,299.47053,1606.753,0.0,-0.00747000469745418,0.0,0.0,0.0,0.0,-0.12384701646524887,-0.21998822882114777,-0.14457754609119286,0.01311383844498509,-0.014542302223963487,-0.037224022236224966
748,1.0,299.68962999999997,1538.3338,0.0,-0.0074800006848736444,0.0,0.0,0.0,0.0,-0.11571913959558988,-0.22019090923865078,-0.13170501417077288,-0.004304884850309056,0.004464208397358066,-0.026961999502442175
749,1.0,299.68112,1518.6229999999998,0.0,-0.007489996672292776,0.0,0.0,0.0,0.0,-0.11467968684800389,-0.2112362304198928,-0.13570755471579288,0.0012105543137974088,-0.01035401469711169,-0.01925610380917948
750,1.0,299.63928,1570.0251,0.0,-0.007500025649769593,0.0,0.0,0.0,0.0,-0.1045794375986869,-0.22611278865309478,-0.14655619048896987,0.0004015896498563126,0.015728806945312382,-0.019288473096874082
751,1.0,299.91927000000004,1556.2754,0.0,-0.007510021637188946,0.0,0.0,0.0,0.0,-0.0952024158732469,-0.23523371141575977,-0.14263271384925288,0.009413594481174441,-0.008840275181767231,-0.029145602103946972
752,1.0,300.64063,1535.6792,0.0,-0.0075200176246081885,0.0,0.0,0.0,0.0,-0.09742551597689982,-0.22967007670667178,-0.13971254732605484,0.005195124564318874,-0.008122679099296013,-0.046858637468337454
753,1.0,300.57902,1662.5699,0.0,-0.007530013612027431,0.0,0.0,0.0,0.0,-0.13092459881125187,-0.23121113891626277,-0.14324401776708387,0.0025088599366051975,-0.009108553309419221,-0.029759676247551367
754,1.0,299.98623,1626.3361,0.0,-0.007540009599446784,0.0,0.0,0.0,0.0,-0.1218872590493359,-0.2266268104288248,-0.14585149530942185,0.006108654237177234,0.008583602111485572,-0.04535182615187675
755,1.0,300.23436,1483.7794,0.0,-0.0075500055868661375,0.0,0.0,0.0,0.0,-0.0992857387957395,-0.2108875609279818,-0.1408585838516599,0.009428786747873803,0.002023338049087918,-0.016854525779912182
756,1.0,299.82658,1632.7157,0.0,-0.007560001574285491,0.0,0.0,0.0,0.0,-0.1088197676771749,-0.23410498120186277,-0.15338004487743184,-0.01056269355520669,0.006971775528160674,-0.04542238584909045
757,1.0,299.70146,1792.5538,0.0,-0.007569997561704733,0.0,0.0,0.0,0.0,-0.13247421285168687,-0.23237041862067478,-0.18004696365925182,0.004218025302711686,-0.008905478534977302,-0.025034156424928875
758,1.0,299.64741000000004,1637.6152,0.0,-0.00758002653918155,0.0,0.0,0.0,0.0,-0.11519106404097289,-0.23784565739103877,-0.14475740811644386,-0.005726317180218504,-0.0006744385284444003,-0.05263413669383485
759,1.0,299.6565,1561.2556,0.0,-0.007590022526600904,0.0,0.0,0.0,0.0,-0.1160308051938489,-0.22330426202591477,-0.13524763036290186,0.016590300551335185,-0.004845322258796076,-0.026190150159266574
760,1.0,299.99282,1603.3776,0.0,-0.007600018514020146,0.0,0.0,0.0,0.0,-0.12554169752250088,-0.23073699866446878,-0.1311080477418569,-5.091812672197785e-05,-0.016644249026409486,-0.034912980129892864
761,1.0,300.79875,1569.4707,0.0,-0.007610014501439277,0.0,0.0,0.0,0.0,-0.11688885577603189,-0.22271748889300477,-0.13747356858008486,0.02150395355977498,-0.014288819472946685,-0.023001560512327275
762,1.0,300.57831,1555.99,0.0,-0.007620010488858742,0.0,0.0,0.0,0.0,-0.10525981477583489,-0.22709358435239177,-0.14062871793397388,0.01211515381517259,0.011746063280746188,-0.03288150183215157
763,1.0,300.22802,1586.9107,0.0,-0.007630006476278095,0.0,0.0,0.0,0.0,-0.09986220920163272,-0.23681075413640176,-0.14570827240778686,0.009480782284705362,0.012235051699505589,-0.04445190199606116
764,1.0,300.1377,1552.2414,0.0,-0.007640002463697448,0.0,0.0,0.0,0.0,-0.1117797346643009,-0.22885729813895678,-0.13120560346148488,-0.013760958727350886,0.007026762077962424,-0.04717830976888666
765,1.0,300.05352,1597.0826,0.0,-0.007649998451116691,0.0,0.0,0.0,0.0,-0.1198985632105669,-0.22801175106300778,-0.13756292710640386,-0.018864716706302583,-0.006659527311094174,-0.05380301896944455
766,1.0,299.57501,1622.9552,0.0,-0.007660027428593508,0.0,0.0,0.0,0.0,-0.14426006443735986,-0.2120641266790998,-0.13701367462469688,-0.01944999225556478,0.004855691049719395,-0.03512224768629597
767,1.0,299.76703,1575.0042,0.0,-0.007670023416012861,0.0,0.0,0.0,0.0,-0.1218976245978589,-0.2105117464658918,-0.14635256774887387,-0.0085777407636321,-0.0014284756340045687,-0.019272367486534582
768,1.0,299.56466,1502.961,0.0,-0.007680019403432103,0.0,0.0,0.0,0.0,-0.08130603930978132,-0.22965723882790479,-0.14589934097914384,-5.1945707218142154e-05,0.0013442443558415887,-0.025229366149444578
769,1.0,299.5672,1647.6231,0.0,-0.007690015390851235,0.0,0.0,0.0,0.0,-0.1044998366708309,-0.23138633999105376,-0.16495011472180884,0.008247693086033932,0.004666189672292065,-0.03191190558620987
770,1.0,300.54498,1760.4786,0.0,-0.00770001137827081,0.0,0.0,0.0,0.0,-0.1352886771244529,-0.2321529244867098,-0.16769992350569385,0.021808777693358778,0.015308206828802386,-0.040528590516110456
771,1.0,300.23315,1578.4866,0.0,-0.0077100073656900525,0.0,0.0,0.0,0.0,-0.12736575035252087,-0.2301312676221878,-0.1223234936148889,0.007315497421158383,-0.004674399429902306,-0.02038342864518778
772,1.0,300.16823,1550.259,0.0,-0.007720003353109406,0.0,0.0,0.0,0.0,-0.12154531753808888,-0.23087533770062177,-0.11881936066155789,0.005190230262360845,-0.02341002391913948,-0.03668441285571967
773,1.0,300.00545,1638.5885,0.0,-0.007729999340528648,0.0,0.0,0.0,0.0,-0.13250701175742388,-0.23260272647110178,-0.13298024008412787,-0.012834512750167788,-0.015029291500275587,-0.02604783512972118
774,1.0,299.72565,1615.3098,0.0,-0.007740028318005354,0.0,0.0,0.0,0.0,-0.10490127622794991,-0.2357940387210598,-0.15031852996528386,-0.012371793853500988,0.009123287587073382,-0.04317578948886866
775,1.0,299.9573,1622.5103,0.0,-0.007750024305424819,0.0,0.0,0.0,0.0,-0.10735519571763291,-0.2223200618062818,-0.16352735959389383,-0.004725610103206405,0.015681104143854485,-0.042848522878819954
776,1.0,300.23285,1613.7828,0.0,-0.00776002029284395,0.0,0.0,0.0,0.0,-0.1021126599652349,-0.23841927853765077,-0.15001773654059786,-0.01034133691186049,0.007674243786638893,-0.038421556184912366
777,1.0,299.21132,1511.1325,0.0,-0.007770016280263414,0.0,0.0,0.0,0.0,-0.12256640006136188,-0.21659336475860078,-0.12018678220151188,-0.013013907667122685,0.0026738925400176475,-0.043123531114961165
778,1.0,299.07989,1622.7927,0.0,-0.007780012267682768,0.0,0.0,0.0,0.0,-0.13089267130060087,-0.21331924971047078,-0.14907652852270786,0.00922682330614156,0.012999829570233287,-0.02000210108930368
779,1.0,299.68385,1698.9371,0.0,-0.00779000825510201,0.0,0.0,0.0,0.0,-0.1300545108178809,-0.2411356703332378,-0.14524428492199484,0.013625307843713186,-0.0010126435786226402,-0.03129588397591327
780,1.0,299.51252,1564.7221,0.0,-0.007800004242521363,0.0,0.0,0.0,0.0,-0.09210400143220722,-0.23004319592349579,-0.15348925297320987,0.017887604171119082,-0.007636640150252702,-0.01819961326116198
781,1.0,300.28693,1526.3661,0.0,-0.007810000229940495,0.0,0.0,0.0,0.0,-0.08695579419786872,-0.2357678867359788,-0.14125349807813486,-0.01062397492125469,-0.00917872837689496,-0.05688695609305545
782,1.0,299.85576000000003,1597.0798,0.0,-0.007819996217359737,0.0,0.0,0.0,0.0,-0.11443570635642489,-0.24336689771594278,-0.1276697861775269,0.0005842048884115335,-0.0001992359041855528,-0.030734400552249172
783,1.0,299.78078,1682.1092,0.0,-0.007830025194836776,0.0,0.0,0.0,0.0,-0.14212053618870488,-0.24015086216354475,-0.12904779618102588,-0.00965509808288399,0.0037106740563650166,-0.03117693550692397
784,1.0,300.39204,1734.3377,0.0,-0.007840021182255907,0.0,0.0,0.0,0.0,-0.14134942246510185,-0.24529015786325378,-0.14055576392677388,0.008218224834700643,-0.0014394217748348688,-0.03416855136092347
785,1.0,300.42454,1663.1298,0.0,-0.00785001716967526,0.0,0.0,0.0,0.0,-0.1186521946600599,-0.23568178074248075,-0.15121595544635286,-0.009280156434430132,-0.002369846278535618,-0.04009506639457496
786,1.0,299.73588,1595.8685,0.0,-0.007860013157094725,0.0,0.0,0.0,0.0,-0.10179554308143791,-0.22009531922421677,-0.16321332299040084,0.0031557990498531172,0.0004059146065831526,-0.03420590178610967
787,1.0,299.10668,1627.5972,0.0,-0.007870009144513856,0.0,0.0,0.0,0.0,-0.1029747432828159,-0.23936842030382377,-0.15240575424377686,0.0016781248545930285,0.0026287628871886977,-0.04502580381295086
788,1.0,298.96115,1632.1442,0.0,-0.00788000513193332,0.0,0.0,0.0,0.0,-0.13226395332343588,-0.21993760684615182,-0.14392952198973785,0.001164789961105819,-0.009024318383555881,-0.03100527979423287
789,1.0,299.3038,1650.3411,0.0,-0.007890001119352452,0.0,0.0,0.0,0.0,-0.15012760324894087,-0.2189225734259758,-0.13261230870781587,-0.014418945103789086,0.0002160931130517298,-0.02117549739410888
790,1.0,299.94863,1546.1376,0.0,-0.007899997106771917,0.0,0.0,0.0,0.0,-0.12195691999371089,-0.2224123182278868,-0.12561799525503087,0.0006334453171611854,0.0026940381811558674,-0.01990958831542338
791,1.0,299.95606000000004,1527.3263,0.0,-0.007910026084248623,0.0,0.0,0.0,0.0,-0.1005748219174621,-0.2225238871963978,-0.14117036090742985,-0.0016482150288661583,0.02039084056966928,-0.018818822556273183
792,1.0,300.22886,1846.7886,0.0,-0.007920022071668087,0.0,0.0,0.0,0.0,-0.11827320872515688,-0.26614714110167775,-0.17695726012932184,0.004545706433376295,-0.008427907620994723,-0.04064594818244276
793,1.0,300.53549,1913.4336,0.0,-0.007930018059087218,0.0,0.0,0.0,0.0,-0.13022055211176786,-0.2632277649135577,-0.1881877392026838,0.008126193354617842,-0.005008494940324965,-0.04684439015868136
794,1.0,300.39566,1700.4859,0.0,-0.007940014046506572,0.0,0.0,0.0,0.0,-0.12679212920590888,-0.24794611942287675,-0.14216699370578986,0.01159700000553479,-0.0003361909014969587,-0.04339483592198686
795,1.0,300.44392999999997,1571.5285,0.0,-0.007950010033925814,0.0,0.0,0.0,0.0,-0.11208634414456091,-0.2411691379840408,-0.1244499306722519,-0.003310080765729536,0.007745892930360113,-0.046949958660100155
796,1.0,299.73188999999996,1512.6269,0.0,-0.007960006021345167,0.0,0.0,0.0,0.0,-0.1256671277523799,-0.20366717111288482,-0.13046650844104188,-0.014615311959918985,-0.003886565661099166,-0.028155328463214575
797,1.0,299.98318,1643.3214,0.0,-0.00797000200876441,0.0,0.0,0.0,0.0,-0.1063776525511569,-0.24436154454410675,-0.14878949503437985,-0.015851107245632486,0.01154336462474139,-0.04197937112854136
798,1.0,300.30416,1669.4865,0.0,-0.007979997996183763,0.0,0.0,0.0,0.0,-0.1178784059561929,-0.22153755915155476,-0.16806622354934483,0.0031846719154276473,0.008339353513930111,-0.02372852895557348
799,1.0,299.92562999999996,1647.6351,0.0,-0.00799002697366058,0.0,0.0,0.0,0.0,-0.1078555791470169,-0.2339377949353628,-0.15904655486917285,0.0003167288292737017,0.005697378757362505,-0.04640723049578705
800,1.0,299.66738,1711.9549,0.0,-0.008000022961079933,0.0,0.0,0.0,0.0,-0.14194575054645486,-0.23547206836928375,-0.14297372317040785,0.0068552982748402635,-0.019241962890783882,-0.04257318736289646
801,1.0,299.78262,1875.9521,0.0,-0.008010018948499176,0.0,0.0,0.0,0.0,-0.16663079266267886,-0.24997409896802275,-0.15363770424536086,-0.00043923553877167257,-0.013761032694608188,-0.03445355328280097
802,1.0,299.55565,1793.0495,0.0,-0.008020014935918529,0.0,0.0,0.0,0.0,-0.14475837070403885,-0.2376806901422578,-0.16260321470768785,0.01990807350652388,0.002720316011899287,-0.012684729054135289
803,1.0,299.77033,1612.8412,0.0,-0.008030010923337771,0.0,0.0,0.0,0.0,-0.1033914018564369,-0.2371249731249128,-0.14974708730638686,0.0024771450058251776,0.016399925043046583,-0.024459754062489777
804,1.0,299.66706,1580.2158,0.0,-0.008040006910757125,0.0,0.0,0.0,0.0,-0.0990768714731259,-0.23087763777834877,-0.15039164609249986,-0.005541148966843824,-0.009060825176708821,-0.025814727824965272
805,1.0,299.31323,1649.4308,0.0,-0.008050002898176367,0.0,0.0,0.0,0.0,-0.11997443537805488,-0.2424253553255198,-0.13898597607684787,-0.014042975614433786,-0.004235565573867776,-0.046886147208552456
806,1.0,300.2087,1685.7776,0.0,-0.00805999888559572,0.0,0.0,0.0,0.0,-0.13346969054493288,-0.2326616368319158,-0.14630296915647886,0.006863489895273713,-0.0041486951844943365,-0.03904333001602667
807,1.0,300.26809,1594.8499,0.0,-0.008070027863072537,0.0,0.0,0.0,0.0,-0.13251676935588688,-0.22311026516176877,-0.12916751168034088,-0.002839320918919157,0.0062626991565052845,-0.04312642799699705
808,1.0,300.06946,1642.8712,0.0,-0.008080023850491891,0.0,0.0,0.0,0.0,-0.11620340221588288,-0.23628779549478976,-0.14690061446296185,0.006495335806589733,-0.01047280915208579,-0.03763165579120527
809,1.0,300.2807,1731.3431,0.0,-0.008090019837911133,0.0,0.0,0.0,0.0,-0.11372137516842588,-0.24363445653734875,-0.16892924918951885,-0.005930817090926074,-0.004568788574629326,-0.03722697484701636
810,1.0,300.52672,1724.1973,0.0,-0.008100015825330487,0.0,0.0,0.0,0.0,-0.1149388863560849,-0.24744514830843475,-0.16172888119639783,0.0038083979755096165,-0.0018713842753162481,-0.03535540565355686
811,1.0,300.14957000000004,1734.1787,0.0,-0.008110011812749729,0.0,0.0,0.0,0.0,-0.12827704722745886,-0.24188854555504077,-0.15698141944285984,-0.0077075079768218115,-0.004134023323046337,-0.060339771981821846
812,1.0,300.30967999999996,1688.7108,0.0,-0.008120007800169082,0.0,0.0,0.0,0.0,-0.13189922381743988,-0.23851773604986778,-0.14290896635651684,0.0007085575673391872,-0.025028757828396076,-0.045060928127667356
813,1.0,299.82402,1570.9769,0.0,-0.008130003787588436,0.0,0.0,0.0,0.0,-0.12190932763651388,-0.24367519932386977,-0.1119532233464229,-0.005983906937865635,-0.0025037515349010378,-0.05218769059377405
814,1.0,299.27193,1687.549,0.0,-0.008139999775007678,0.0,0.0,0.0,0.0,-0.12224796595243488,-0.22687910970372477,-0.16384566198030784,0.010839874199562291,0.009016300130214542,-0.012069919290958289
815,1.0,299.4474,1754.2037,0.0,-0.008150028752484606,0.0,0.0,0.0,0.0,-0.12044623502211789,-0.2469812722801538,-0.16580661503133884,0.0002319205355762748,0.016165584612918983,-0.023204240929830276
816,1.0,299.81257,1687.1639,0.0,-0.008160024739903848,0.0,0.0,0.0,0.0,-0.1108738485448969,-0.23815706967677275,-0.16382477889574684,0.0013432297885164588,0.006306348754913165,-0.018120406487594883
817,1.0,300.34857999999997,1699.0782,0.0,-0.00817002072732309,0.0,0.0,0.0,0.0,-0.12925925134439487,-0.2346594620540858,-0.15255863341886486,0.008868917532944012,-0.004104696116126966,-0.04085240802281876
818,1.0,300.38783,1783.9621,0.0,-0.008180016714742444,0.0,0.0,0.0,0.0,-0.14831414901496684,-0.24779158865012577,-0.14617420533377085,0.007556706977688914,-0.010249923514338689,-0.038589875265024165
819,1.0,300.31766,1741.4379999999999,0.0,-0.008190012702161575,0.0,0.0,0.0,0.0,-0.14121180283651988,-0.23608734422750677,-0.15205452122911287,-0.013402231714947288,-0.0047934425364509455,-0.051414612178227154
820,1.0,300.30811,1647.2793,0.0,-0.00820000868958104,0.0,0.0,0.0,0.0,-0.1093117208657269,-0.2383529714511068,-0.15306708231904487,-0.004076408909110236,-0.00956259919053006,-0.04432583848486966
821,1.0,300.28107,1598.1546,0.0,-0.008210004677000393,0.0,0.0,0.0,0.0,-0.1041233129336709,-0.2324016064587528,-0.14927418321971486,-0.008265831276074033,-0.007562155324801622,-0.04389093634319816
822,1.0,299.82133,1532.7478,0.0,-0.008220000664419636,0.0,0.0,0.0,0.0,-0.09251811370832691,-0.22228386851270981,-0.15111507626639686,0.002049656105860308,-0.0014124560485985586,-0.03202890658850697
823,1.0,299.41227000000003,1572.1403,0.0,-0.008229996651838989,0.0,0.0,0.0,0.0,-0.10869130782949689,-0.23191168990290176,-0.13728839712430987,-0.00024070589017082179,0.0060811062974334635,-0.04907870086144066
824,1.0,299.85669,1779.7642,0.0,-0.008240025629315806,0.0,0.0,0.0,0.0,-0.14402585167674486,-0.24910891510513578,-0.14786910930604485,0.007985441668651732,0.009709357929714021,-0.04630776682622075
825,1.0,300.39431,1830.6433,0.0,-0.008250021616734937,0.0,0.0,0.0,0.0,-0.14376199121820388,-0.2517196654452968,-0.16098819537329784,-0.0012981899096463688,0.005410457030520535,-0.03296180291582667
826,1.0,300.44599,1679.9872,0.0,-0.008260017604154402,0.0,0.0,0.0,0.0,-0.1154589774999139,-0.2488196322015858,-0.14639555995061687,0.012164554823798088,0.0026342727385824777,-0.03624594306044607
827,1.0,299.65755,1695.8964,0.0,-0.008270013591573533,0.0,0.0,0.0,0.0,-0.11227545714322489,-0.23344651049187679,-0.16978820156429084,0.002859746115759967,0.012867256940399387,-0.02035713075209238
828,1.0,300.62879,1810.0526,0.0,-0.008280009578993108,0.0,0.0,0.0,0.0,-0.12769735671274787,-0.24793439611921977,-0.17457905068711083,-0.009706580003239861,0.006679322975647854,-0.04448216676329805
829,1.0,300.66506,1724.7323,0.0,-0.00829000556641235,0.0,0.0,0.0,0.0,-0.13090289499410987,-0.24194244032785978,-0.15143021731249887,-0.01287475195138909,0.0032452671085079266,-0.03791794048770936
830,1.0,300.21677,1598.2138,0.0,-0.008300001553831482,0.0,0.0,0.0,0.0,-0.1289007229290109,-0.22956528638132975,-0.12735106835857188,-0.012251031666832689,0.007524951820879923,-0.06458350354089554
831,1.0,299.95137,1692.0612,0.0,-0.008309997541250946,0.0,0.0,0.0,0.0,-0.12722681349880888,-0.25072025634166273,-0.13639726392636187,-0.004758316904509316,0.00943065953803363,-0.04589514909399855
832,1.0,299.43872999999996,1725.4139,0.0,-0.008320026518727763,0.0,0.0,0.0,0.0,-0.1250585393448169,-0.2339406624331458,-0.16548355036945483,-0.004244278207502646,-0.0008452985358319701,-0.043473382056488756
833,1.0,299.44572,1831.8268,0.0,-0.008330022506146895,0.0,0.0,0.0,0.0,-0.13289911928112189,-0.25340562241918774,-0.17052487491699483,-3.153191653370787e-05,-0.007657059166267903,-0.014207848630955486
834,1.0,299.9141,1824.7811,0.0,-0.008340018493566248,0.0,0.0,0.0,0.0,-0.11674223848656187,-0.26535522535352174,-0.17259041564334784,0.006545440010784634,-0.006460206222972714,-0.021422338290720183
835,1.0,300.43982,1697.6278,0.0,-0.008350014480985712,0.0,0.0,0.0,0.0,-0.11727324233396788,-0.24276702325923977,-0.15599619584062585,0.017703836066732585,-0.006296028903969675,-0.021618333284063377
836,1.0,300.50627000000003,1745.0203,0.0,-0.008360010468405066,0.0,0.0,0.0,0.0,-0.12025672685591489,-0.26309425908038175,-0.14709159184180987,0.002783097292070317,0.0018602669965440582,-0.044721630185931255
837,1.0,300.87003,1960.5802,0.0,-0.008370006455824308,0.0,0.0,0.0,0.0,-0.15458194188104984,-0.2629011234788207,-0.17848436988503583,0.002872836800426917,-0.0018249505696085984,-0.029185284017613267
838,1.0,300.26544,1814.7697,0.0,-0.00838000244324344,0.0,0.0,0.0,0.0,-0.13725940803894887,-0.24086769607929076,-0.17351755974984984,0.00022567366632475678,0.005065439595944965,-0.03230725753672807
839,1.0,299.98116,1564.1213,0.0,-0.008389998430662904,0.0,0.0,0.0,0.0,-0.10156581901876591,-0.23469884708547278,-0.13918916311940088,0.002684695508608818,0.005728902386523645,-0.035070190949158364
840,1.0,300.44973999999996,1626.491,0.0,-0.00840002740813961,0.0,0.0,0.0,0.0,-0.11292481873481189,-0.2220274554424038,-0.15946036621001283,-0.011995780794391389,0.006214586495381934,-0.04088642080217556
841,1.0,300.40533999999997,1853.7126,0.0,-0.008410023395558852,0.0,0.0,0.0,0.0,-0.14408602860018385,-0.25388427163392674,-0.16551205309476782,-0.013555417904815589,-0.003849878914728466,-0.04389975465881846
842,1.0,299.80191,1905.6111,0.0,-0.008420019382978206,0.0,0.0,0.0,0.0,-0.14936152537833486,-0.27143422946097273,-0.15846242631902385,-0.018211724639607286,0.006803652309293204,-0.03936920442043796
843,1.0,299.40828999999997,1707.8536,0.0,-0.008430015370397559,0.0,0.0,0.0,0.0,-0.12498533202509188,-0.24425131306572775,-0.14990822446978985,0.0037513281835022667,0.004908886375994365,-0.04569195495869486
844,1.0,299.9162,1628.1208,0.0,-0.008440011357817023,0.0,0.0,0.0,0.0,-0.10931513551856388,-0.2572835737319118,-0.12830933950814588,0.01026941338001219,0.0052402787378002455,-0.03388056744400167
845,1.0,300.15188,1650.6116,0.0,-0.008450007345236155,0.0,0.0,0.0,0.0,-0.1151783376197169,-0.23701211732877478,-0.14955425567985586,0.01056163065585179,-0.00898764734256173,-0.023832320216316875
846,1.0,299.92383,1760.2606,0.0,-0.008460003332655397,0.0,0.0,0.0,0.0,-0.12337788166894888,-0.25088017760494574,-0.16081720941892286,0.006963818779100403,-0.001960429302054308,-0.03765247301450976
847,1.0,299.89339,1849.7705,0.0,-0.00846999932007475,0.0,0.0,0.0,0.0,-0.13774341734671688,-0.26667969522173673,-0.15786093066216086,0.004652332666574485,-0.02073841169847188,-0.05072557475247445
848,1.0,298.85786,1687.8946,0.0,-0.008480028297551567,0.0,0.0,0.0,0.0,-0.12173906108970989,-0.23011302912038775,-0.16122571132923885,0.01136649270053549,0.007681439584874062,-0.044968531877548554
849,1.0,299.46627,1703.7309,0.0,-0.00849002428497081,0.0,0.0,0.0,0.0,-0.11896371840330489,-0.25302171208879876,-0.14590622094732286,-0.0029131810756835874,-0.0025428561999853673,-0.06051566713293135
850,1.0,300.15735,1865.3364,0.0,-0.008500020272390163,0.0,0.0,0.0,0.0,-0.14599612662869585,-0.2396208107712328,-0.18139875075016282,-0.003324183889896406,0.001151243009918839,-0.035790203430468064
851,1.0,300.35902999999996,1800.7520000000002,0.0,-0.008510016259809516,0.0,0.0,0.0,0.0,-0.14661787715505786,-0.23601338710270775,-0.16475239922979584,-0.01937737262089778,-0.007776644868245093,-0.03254661051510037
852,1.0,299.94707,1642.6888,0.0,-0.00852001224722898,0.0,0.0,0.0,0.0,-0.11591576077749488,-0.24706118731554075,-0.13635944943262987,-0.003138774624322937,0.0017873028568430585,-0.04616525522615595
853,1.0,300.54637,1644.2995,0.0,-0.008530008234648112,0.0,0.0,0.0,0.0,-0.12798456245359288,-0.22502693918342978,-0.14681448820446186,0.001755238152128518,-0.015872282146222286,-0.024175437097679876
854,1.0,299.68529,1811.5016,0.0,-0.008540004222067354,0.0,0.0,0.0,0.0,-0.1298207033573059,-0.27389132042346875,-0.14693923955677388,0.002885584195959987,0.0044332077065735356,-0.045791180514487655
855,1.0,300.21348,1874.4749,0.0,-0.008550000209486708,0.0,0.0,0.0,0.0,-0.13246723155849788,-0.2616808866483928,-0.17564545588735683,0.012650365690243887,-0.005610889248701655,-0.04570195472393176
856,1.0,299.9093,1865.6035,0.0,-0.008560029186963525,0.0,0.0,0.0,0.0,-0.13531512295206288,-0.25512313200119274,-0.17665862492734882,0.017411693771400383,0.012279465491138886,-0.033633739719641675
857,1.0,299.4856,1814.5206,0.0,-0.008570025174382656,0.0,0.0,0.0,0.0,-0.12667604114195188,-0.26752616435527676,-0.15736673819088784,0.015503098392786685,-0.002164244762319328,-0.03717636705752176
858,1.0,299.35202000000004,1761.5881,0.0,-0.008580021161802232,0.0,0.0,0.0,0.0,-0.13865125903881387,-0.24011151766216177,-0.15671602897666784,0.0031076358275497775,0.0010183965999079189,-0.03435197192052567
859,1.0,300.06711,1779.9345,0.0,-0.008590017149221474,0.0,0.0,0.0,0.0,-0.1275784720785149,-0.2571343422571838,-0.15634282869983585,-0.00014034119808559788,-0.015009984019620086,-0.04790855303645605
860,1.0,299.1446,1788.4949,0.0,-0.008600013136640827,0.0,0.0,0.0,0.0,-0.12384203127475688,-0.25830170769739375,-0.16151405191019585,-0.00830210218460369,0.005675390723567454,-0.04559064312094616
861,1.0,299.80412,1707.069,0.0,-0.00861000912406007,0.0,0.0,0.0,0.0,-0.1131878989907759,-0.2378739270688288,-0.16784450416246285,0.013611705974370789,0.002015401869004678,-0.04166150139992006
862,1.0,299.44743,1571.8385,0.0,-0.008620005111479312,0.0,0.0,0.0,0.0,-0.10593405165737689,-0.24923088001967275,-0.1226347235156049,-0.00980414180236846,0.023741440801597777,-0.049295041916791855
863,1.0,300.1469,1718.509,0.0,-0.008630001098898665,0.0,0.0,0.0,0.0,-0.12270434392997588,-0.24684740167694175,-0.15283207922335185,-0.004831140303771425,-0.0021023477455105683,-0.039647085220612666
864,1.0,300.51382,1860.4705,0.0,-0.008639997086318019,0.0,0.0,0.0,0.0,-0.1457278585322199,-0.25765240690081276,-0.16215631061858182,-0.015373703315266385,0.009210125957743662,-0.04582590358216455
865,1.0,300.35943,1916.7278,0.0,-0.008650026063794836,0.0,0.0,0.0,0.0,-0.14279620175288787,-0.2835081987125807,-0.15633300017386587,0.011224896065310989,-0.004915941028490605,-0.035843764844004165
866,1.0,299.91955,1811.3958,0.0,-0.008660022051214189,0.0,0.0,0.0,0.0,-0.12424807098732987,-0.24774573908310077,-0.17862530284144484,0.011789751585307887,-0.004089973490848956,-0.03774205648235096
867,1.0,300.20024,1765.4736,0.0,-0.008670018038633431,0.0,0.0,0.0,0.0,-0.11388360664193689,-0.24694178592375676,-0.17583448782601283,0.013824151083087486,-0.01243539150927759,-0.017166827699233982
868,1.0,299.92712,1742.4921,0.0,-0.008680014026052785,0.0,0.0,0.0,0.0,-0.11088125540312789,-0.24654978985756978,-0.17224305324406583,0.0008041886386672393,-0.00041679260634422757,-0.02026217604547108
869,1.0,299.84281,1844.3939,0.0,-0.008690010013472027,0.0,0.0,0.0,0.0,-0.14690637985603086,-0.23231162984987275,-0.18143167124591184,-0.0012698970284290788,-0.007755782960611182,-0.007496733008244942
870,1.0,299.03632999999996,1949.5286,0.0,-0.008700006000891158,0.0,0.0,0.0,0.0,-0.17481228059512882,-0.26450183572179875,-0.15329389835392984,-0.014514790457248286,-0.00019140060328226883,-0.04200923870173906
871,1.0,299.46574,1759.8128,0.0,-0.008710001988310734,0.0,0.0,0.0,0.0,-0.14235391808423786,-0.24276740829427776,-0.14981783242836885,-0.0017773346036842684,-0.008152795526718272,-0.04792840463241525
872,1.0,299.78797000000003,1726.7276,0.0,-0.008719997975729976,0.0,0.0,0.0,0.0,-0.1212977602736569,-0.25951197414683774,-0.14407234972383387,-0.008795142894488022,0.005251789562911275,-0.05610307237844214
873,1.0,299.56695,1872.4022,0.0,-0.008730026953206793,0.0,0.0,0.0,0.0,-0.13146607966469187,-0.2611099202170427,-0.17658750490282982,-0.008322578651899561,0.002113017167738558,-0.04899998247442175
874,1.0,299.7515,1855.7887,0.0,-0.008740022940626146,0.0,0.0,0.0,0.0,-0.12905485853422288,-0.2608909264729297,-0.1741676407490078,-0.019514693340700284,0.0065554981392272945,-0.038737219054815863
875,1.0,300.22022999999996,1648.1117,0.0,-0.008750018928045389,0.0,0.0,0.0,0.0,-0.09287734025302982,-0.2646310960370557,-0.14347636614751488,-0.012789418054467289,0.012254645929939387,-0.05276461696221225
876,1.0,300.45542,1686.5948,0.0,-0.008760014915464742,0.0,0.0,0.0,0.0,-0.12940665896894288,-0.23797698473649978,-0.14529906122240085,-0.0039484804097846765,0.01958561679469988,-0.028711446727599177
877,1.0,300.76853,1846.4475,0.0,-0.008770010902883985,0.0,0.0,0.0,0.0,-0.13534241990975687,-0.26050154459200076,-0.16542996970416685,0.01047398654870199,0.005875522310443904,-0.04611145873859666
878,1.0,300.11807000000005,1829.434,0.0,-0.008780006890303338,0.0,0.0,0.0,0.0,-0.13497948385643788,-0.2592933046427568,-0.16182945640132385,0.0012129888498126787,-0.0048343323455614555,-0.04384983891914216
879,1.0,300.09103,1856.7267,0.0,-0.008790002877722691,0.0,0.0,0.0,0.0,-0.12757375033304888,-0.25545877109681775,-0.18136603290443384,0.013230393617238186,-0.013212592839481386,-0.04339196234470326
880,1.0,299.76634,1864.7653,0.0,-0.008799998865141934,0.0,0.0,0.0,0.0,-0.11939382280575288,-0.2642626884331967,-0.18318557677150885,-0.0005169383249503405,0.003926592890399546,-0.031296588184732764
881,1.0,299.18916,1776.1496,0.0,-0.00881002784261864,0.0,0.0,0.0,0.0,-0.13773414610830187,-0.25200118685308076,-0.15016979498310487,-0.003171200654023137,-0.010545564562266189,-0.03937053380456916
882,1.0,299.01977,1873.7347,0.0,-0.008820023830038104,0.0,0.0,0.0,0.0,-0.16690783550502084,-0.25283846580821373,-0.14982226033130586,-0.013577782361022788,-0.014947478647451285,-0.04281238430075336
883,1.0,299.55261,1890.3370000000002,0.0,-0.008830019817457235,0.0,0.0,0.0,0.0,-0.15510616708528685,-0.2789572061534327,-0.14055187304638986,-0.01015179226865389,-0.007719286299959243,-0.058700014146240355
884,1.0,299.94857,1636.4554,0.0,-0.0088400158048767,0.0,0.0,0.0,0.0,-0.1093092890654869,-0.2418898526476698,-0.14624244772800588,0.001014391526237649,0.003205455600153837,-0.04764798361423986
885,1.0,300.23197000000005,1602.0938,0.0,-0.008850011792295831,0.0,0.0,0.0,0.0,-0.0989297870753598,-0.24262401314012577,-0.14544271982157886,-0.012419161269175789,0.0072984368225996335,-0.04232141396479836
886,1.0,299.97461,1812.7654,0.0,-0.008860007779715295,0.0,0.0,0.0,0.0,-0.1165037092805209,-0.25796210679387777,-0.17656960077356282,-0.0047102818583436255,0.007254027185291743,-0.02951229731513697
887,1.0,300.00797,1812.0114,0.0,-0.008870003767134649,0.0,0.0,0.0,0.0,-0.13563289844842485,-0.25273122341762977,-0.16244210794178784,-0.0061651041227734045,0.002087667271436718,-0.02028212187368958
888,1.0,300.0338,1897.3347,0.0,-0.008879999754553891,0.0,0.0,0.0,0.0,-0.14904552306964786,-0.27475748713895276,-0.15293936214393986,-0.0037667085094201867,0.012010461775090289,-0.03401660133617717
889,1.0,299.94735,2016.8587,0.0,-0.008890028732030597,0.0,0.0,0.0,0.0,-0.15679657222711685,-0.26827372001405475,-0.1880044017295898,0.0036007545576918066,-0.006617965919817384,-0.034171001399665266
890,1.0,299.88457999999997,1988.0289,0.0,-0.008900024719450061,0.0,0.0,0.0,0.0,-0.14699360042463885,-0.27704758435246774,-0.18026994960875883,0.019179282226347783,-0.013802410788941887,-0.04567266875629145
891,1.0,299.62566,1827.3792,0.0,-0.008910020706869193,0.0,0.0,0.0,0.0,-0.1073093866806119,-0.26388167599809376,-0.18428659459517083,0.00941578391199052,-0.008472240352620022,-0.05919324808291874
892,1.0,300.31834,1774.4174,0.0,-0.008920016694288546,0.0,0.0,0.0,0.0,-0.11627671086061789,-0.25005449023095677,-0.17304739143844786,0.0024130472097992177,-0.01075267288270619,-0.03260302422766797
893,1.0,299.94388,1705.1698,0.0,-0.008930012681707789,0.0,0.0,0.0,0.0,-0.11367354976370589,-0.2694367588763377,-0.13521874260255087,-0.002052382153929348,1.7365896893380583e-06,-0.04064405543125596
894,1.0,300.1937,1608.415,0.0,-0.008940008669127142,0.0,0.0,0.0,0.0,-0.1326673788507509,-0.23561036687543277,-0.12064026228376688,-0.0020499000964843885,0.006059757421801494,-0.04334842400115636
895,1.0,299.63973,1690.6501,0.0,-0.008950004656546606,0.0,0.0,0.0,0.0,-0.10622599940868989,-0.27416370231535075,-0.13352570301046088,0.001041047197943359,0.00956200846572176,-0.06795359870474804
896,1.0,300.10002000000003,1831.846,0.0,-0.008960000643965738,0.0,0.0,0.0,0.0,-0.12519467962825287,-0.27105096761064773,-0.16058978543397784,-0.005985593188682055,0.0038030498388317967,-0.049996546371774954
897,1.0,299.58377,1944.8246,0.0,-0.008970029621442555,0.0,0.0,0.0,0.0,-0.1141340618016549,-0.2723057157394817,-0.2047383284560998,0.0049910785896561055,0.013303795480982386,-0.043761998241472956
898,1.0,299.67444,2010.2499,0.0,-0.008980025608861908,0.0,0.0,0.0,0.0,-0.13891563625490588,-0.28049291840249574,-0.19165719873759282,0.0005772756762776734,-0.005780269201668155,-0.03568340281692767
899,1.0,299.65468,1980.1503,0.0,-0.00899002159628115,0.0,0.0,0.0,0.0,-0.15199894446112786,-0.26213285698799876,-0.1877844453978818,0.0023195976862014677,-0.005618766964254125,-0.017358150596366084
900,1.0,300.2182,1862.3361,0.0,-0.009000017583700504,0.0,0.0,0.0,0.0,-0.15613998616231686,-0.24447354921016076,-0.16549013649510486,-0.0018743071978797182,-0.011347751626685889,-0.018958949978852682
901,1.0,299.83123,1834.9364,0.0,-0.009010013571119968,0.0,0.0,0.0,0.0,-0.14308770367415685,-0.26062616422179974,-0.15406097934213486,-0.006196182529840604,0.0016229096142437083,-0.035369998481497064
902,1.0,300.1302,1964.4820000000002,0.0,-0.0090200095585391,0.0,0.0,0.0,0.0,-0.16306821544357983,-0.25142836617404773,-0.18265690339933283,0.011219975722825388,-0.011584849110335589,-0.046078583839102155
903,1.0,300.51187000000004,1854.8556,0.0,-0.009030005545958453,0.0,0.0,0.0,0.0,-0.12130457944682989,-0.2723943345932277,-0.17013088274811083,-0.0024901622298598774,-0.0048985499077492355,-0.06493791816087353
904,1.0,300.75087,1704.1973,0.0,-0.009040001533377695,0.0,0.0,0.0,0.0,-0.11588963918991689,-0.2511975174037647,-0.15094625866723585,-0.003719426308078796,-0.014681900729990786,-0.056135216724614544
905,1.0,300.38802999999996,1804.5109,0.0,-0.009050030510854512,0.0,0.0,0.0,0.0,-0.13582961082283887,-0.25486014293773773,-0.15783650120224985,-0.017949003074178682,-0.005349162289571214,-0.03666714808726576
906,1.0,299.68246,1966.3945,0.0,-0.009060026498273865,0.0,0.0,0.0,0.0,-0.15231244404206784,-0.28855618031327773,-0.15686620277398886,-0.00984672090204569,-0.0019200165310908782,-0.03557422005240217
907,1.0,299.67802,1927.6392,0.0,-0.009070022485693108,0.0,0.0,0.0,0.0,-0.14326053374371386,-0.26750453146564174,-0.17518912857232083,7.859010752973973e-05,0.007941472389837303,-0.03982660071432946
908,1.0,299.64756,1900.7365,0.0,-0.009080018473112461,0.0,0.0,0.0,0.0,-0.12304913267400389,-0.27521948865454876,-0.17950780314854084,0.005218229908999195,0.0036771196713534563,-0.036942733875963966
909,1.0,300.17507,1869.5041,0.0,-0.009090014460531814,0.0,0.0,0.0,0.0,-0.10670284503825091,-0.2727783158511237,-0.18880139386074682,0.0026342422397544673,0.012894701832607987,-0.05043853721114605
910,1.0,300.29553,1884.74,0.0,-0.009100010447951057,0.0,0.0,0.0,0.0,-0.15140190710470486,-0.25350477907397373,-0.16800720173101985,-0.0003353566724246267,-0.01121404111698969,-0.033675209006484366
911,1.0,299.46769,1843.4362,0.0,-0.00911000643537041,0.0,0.0,0.0,0.0,-0.15371507602299686,-0.2724771272588988,-0.13416637091618985,-0.001126626301389359,-0.009055092815593082,-0.05713846199312715
912,1.0,300.17103,1721.7822,0.0,-0.009120002422789653,0.0,0.0,0.0,0.0,-0.15524627930911483,-0.23144450054679377,-0.13668802617505785,-0.0024310471925256777,-0.026681489318257975,-0.03571000265855287
913,1.0,300.06606,1688.5927,0.0,-0.009129998410209006,0.0,0.0,0.0,0.0,-0.11192719295135388,-0.24996155493178476,-0.15140127888964286,0.0015880278716011483,0.004144436190349006,-0.05456599933449485
914,1.0,300.17082,1818.1991,0.0,-0.009140027387685823,0.0,0.0,0.0,0.0,-0.1103752180381859,-0.27060900818202976,-0.17170290988075784,-0.0065450057317917735,0.0018433160316461282,-0.053736918585920945
915,1.0,300.39068,2006.8459,0.0,-0.009150023375105065,0.0,0.0,0.0,0.0,-0.1261460505446459,-0.2886917227791547,-0.19519325920157482,-0.007730614841377283,0.00941050325776936,-0.05017661104704595
916,1.0,300.0949,1902.3141,0.0,-0.009160019362524419,0.0,0.0,0.0,0.0,-0.15030003815095885,-0.26247912507717275,-0.16547681225628982,0.0020724219104321182,-0.0035422200113398965,-0.03351303224847877
917,1.0,299.7682,1853.2856,0.0,-0.009170015349943772,0.0,0.0,0.0,0.0,-0.14801551381299388,-0.2605361369504147,-0.15480089509515887,-0.0016292452644689882,0.004194392561354316,-0.030172144018758767
918,1.0,300.24276000000003,2006.0224,0.0,-0.009180011337363014,0.0,0.0,0.0,0.0,-0.16847655944234186,-0.2682477098839877,-0.17305644989434182,0.014718022082805687,-0.002260012703470888,-0.008666602797402102
919,1.0,299.87018,1997.4938,0.0,-0.009190007324782368,0.0,0.0,0.0,0.0,-0.14875516612099188,-0.2803307578564917,-0.17810232393483083,-0.005802097243272415,0.004443831025921975,-0.030723619571185173
920,1.0,299.79047,1930.2167,0.0,-0.00920000331220161,0.0,0.0,0.0,0.0,-0.12385826354135888,-0.25473153110254476,-0.20814787451259578,0.009431758103792051,-0.0032766644867066068,-0.028212002581057872
921,1.0,299.53539,1880.2963,0.0,-0.009209999299620963,0.0,0.0,0.0,0.0,-0.11602983247375288,-0.2698949708365597,-0.18563831075857484,-0.008884611459767882,-0.0004468380049344775,-0.050705496188492856
922,1.0,299.23938,1911.6817,0.0,-0.00922002827709778,0.0,0.0,0.0,0.0,-0.15588331977948586,-0.27067088736563677,-0.15454929496282785,-0.003026252491442867,-0.014174373887401788,-0.05657388309040754
923,1.0,299.24719,1932.3573,0.0,-0.009230024264516912,0.0,0.0,0.0,0.0,-0.16434786925987185,-0.2657989478373138,-0.15724155114103286,-0.02830773039750547,-0.007834806741210221,-0.06820728207928463
924,1.0,299.61984,1793.6097,0.0,-0.009240020251936487,0.0,0.0,0.0,0.0,-0.1381280673496789,-0.27430696574698976,-0.1327775090041199,0.0014923473739332186,-0.009654979431297282,-0.04772259327210325
925,1.0,299.77412000000004,1703.5320000000002,0.0,-0.00925001623935573,0.0,0.0,0.0,0.0,-0.0995552663620898,-0.25805928761096875,-0.16021664595215185,0.007315916197424713,0.008428766857079523,-0.04794868989941725
926,1.0,300.13333,1768.0088,0.0,-0.009260012226774972,0.0,0.0,0.0,0.0,-0.08428274924155972,-0.27195804936516976,-0.18118972738703384,0.016234192790440083,0.016820790631082785,-0.04518722367313175
927,1.0,299.61197999999996,1867.9329,0.0,-0.009270008214194325,0.0,0.0,0.0,0.0,-0.1014922671940069,-0.2848742422323987,-0.18143847015408282,-0.007273100402524123,0.014965641155493785,-0.045497918577794956
928,1.0,300.03577,2033.8039,0.0,-0.009280004201613457,0.0,0.0,0.0,0.0,-0.16227486088028184,-0.2709546480561417,-0.1849960925801928,-0.013896324887710487,-0.012712817360157388,-0.02743139774376818
929,1.0,299.44889,2006.5654,0.0,-0.009290000189032921,0.0,0.0,0.0,0.0,-0.16238949999659585,-0.28097560035263275,-0.16658067731273285,0.003180979125438197,0.0076836160460888635,-0.03688124175389517
930,1.0,299.94163,1951.747,0.0,-0.009300029166509627,0.0,0.0,0.0,0.0,-0.16577361347558184,-0.27319009055926274,-0.15431862857756284,0.008525586551834882,-0.01121348180293449,-0.041924678927893665
931,1.0,300.17089,2017.7673,0.0,-0.009310025153929091,0.0,0.0,0.0,0.0,-0.14401013616769384,-0.27576832570371473,-0.1935723934141078,0.007647114623161452,-0.006906518675345323,-0.04332404621700046
932,1.0,300.49435,2032.0945,0.0,-0.009320021141348445,0.0,0.0,0.0,0.0,-0.14168401791312388,-0.28593591555467773,-0.19008607339753483,-0.003075067132235497,-0.013921220442667488,-0.04335830318963137
933,1.0,300.0462,1945.3752,0.0,-0.009330017128767687,0.0,0.0,0.0,0.0,-0.13174562523478087,-0.27796078613759373,-0.18163908354138183,-0.012933161766653687,0.007754359648195713,-0.04541507524961896
934,1.0,300.18273999999997,1842.4294,0.0,-0.009340013116186818,0.0,0.0,0.0,0.0,-0.15229485402033185,-0.2574084162767327,-0.15034926184081684,-0.006774276770344063,0.01034702935092229,-0.03974653267817736
935,1.0,299.534,1776.3244,0.0,-0.009350009103606283,0.0,0.0,0.0,0.0,-0.13596092803579887,-0.25843860791840473,-0.14555872682552787,-0.016699157049328485,0.01924687816701898,-0.04933745859247805
936,1.0,299.84211,1896.219,0.0,-0.009360005091025414,0.0,0.0,0.0,0.0,-0.15304284537665283,-0.2614355787991827,-0.16192480323573386,-0.004209838748528736,-0.0001039442209784959,-0.03351732640240257
937,1.0,299.92742000000004,2007.9574,0.0,-0.00937000107844499,0.0,0.0,0.0,0.0,-0.12377107337025388,-0.2830916921264747,-0.2035061352744918,-0.001958003783964928,0.01959980432260008,-0.03244527334609917
938,1.0,299.45939,2023.7339,0.0,-0.009380030055921584,0.0,0.0,0.0,0.0,-0.11919162874829789,-0.3007669687258887,-0.1952059856228308,0.01311754694035109,-0.006133074476512324,-0.03990677210199176
939,1.0,298.99114,1929.71,0.0,-0.009390026043341049,0.0,0.0,0.0,0.0,-0.11370632840444088,-0.28567835751175874,-0.18719895909259882,0.01420780911420159,-0.015745403981950384,-0.036808867325752365
940,1.0,299.99266,1900.2154,0.0,-0.009400022030760402,0.0,0.0,0.0,0.0,-0.13911645229222488,-0.28625220157339276,-0.15224937935584384,-0.01064196821653049,-0.0040700117546038864,-0.056258907204071854
941,1.0,299.94877,1879.0407,0.0,-0.009410018018179533,0.0,0.0,0.0,0.0,-0.13667594823386586,-0.27443562824468776,-0.16006986654266583,0.0018391773102876684,0.008952802076922773,-0.04958719738437536
942,1.0,300.96177,1821.5323,0.0,-0.009420014005598776,0.0,0.0,0.0,0.0,-0.14433697011994986,-0.2633738249154728,-0.14598953037054485,-0.008287844134496533,-0.008468666416867303,-0.061878500676432545
943,1.0,300.43061,1779.2424,0.0,-0.00943000999301813,0.0,0.0,0.0,0.0,-0.1080468605008949,-0.2745030397738408,-0.15829536164253585,0.002197223013324028,-0.008986911925639152,-0.05369447657898225
944,1.0,299.54285,1809.5653,0.0,-0.009440005980437594,0.0,0.0,0.0,0.0,-0.12734941676090886,-0.25987286343495475,-0.16284039629109584,-0.0013897412105067788,-0.02745382704798177,-0.05573902175001315
945,1.0,299.60638,2007.3079,0.0,-0.009450001967856947,0.0,0.0,0.0,0.0,-0.13497983849397288,-0.29087514502214173,-0.18431649560562183,0.01059792324793359,0.0032469498129489966,-0.04280219201799746
946,1.0,300.61383,2048.873,0.0,-0.009460030945333764,0.0,0.0,0.0,0.0,-0.16318408059251485,-0.2835621745454078,-0.17605997650326685,-0.0002909942931014008,0.0025086495858844377,-0.04860721127190825
947,1.0,299.96381,1958.9972,0.0,-0.009470026932752895,0.0,0.0,0.0,0.0,-0.14884856751520986,-0.27329509366712573,-0.17334258159008084,0.007419652033387643,0.004161273164610686,-0.03867992786766167
948,1.0,299.9803,1971.101,0.0,-0.00948002292017236,0.0,0.0,0.0,0.0,-0.14860638047630784,-0.28133598301569973,-0.16922313224852284,-0.004931054059032146,0.014256098587467384,-0.03230193189420247
949,1.0,299.90482000000003,2021.7053,0.0,-0.009490018907591491,0.0,0.0,0.0,0.0,-0.13520118297831787,-0.28539196237099373,-0.1939547838693468,0.004342042859301266,0.02048878841708598,-0.037845483986308465
950,1.0,300.14111,2049.5056,0.0,-0.009500014895010733,0.0,0.0,0.0,0.0,-0.15029750502570885,-0.2876097439248717,-0.18509127729458683,-0.00910824457211375,0.008271816240439702,-0.03697265819116726
951,1.0,301.06265,2031.4167,0.0,-0.009510010882430087,0.0,0.0,0.0,0.0,-0.15110498429540084,-0.28213043188910575,-0.18426453614049385,-0.03077902509990327,-0.002718116651232227,-0.042714650249107755
952,1.0,300.83045,1819.0327,0.0,-0.00952000686984944,0.0,0.0,0.0,0.0,-0.15348158266995285,-0.2593482329306777,-0.14011069382034888,-0.021165861385657878,-0.01079326469496229,-0.03532561002111626
953,1.0,300.40914,1802.2775,0.0,-0.009530002857268904,0.0,0.0,0.0,0.0,-0.14403317747496786,-0.25231853678440075,-0.15149565300395687,-0.0017615404664255085,0.011768347690195488,-0.03839270186181466
954,1.0,299.98998,2004.0895,0.0,-0.009539998844688036,0.0,0.0,0.0,0.0,-0.16620814578096685,-0.26753737090138274,-0.17544765933533582,0.015019458921305184,0.003802996339226516,-0.048539406601716455
955,1.0,299.55527,2003.5423,0.0,-0.009550027822164853,0.0,0.0,0.0,0.0,-0.13229266883126986,-0.2834632914681487,-0.19327087044934982,0.007648440866217343,-0.022983825595826977,-0.05631938404954045
956,1.0,299.52637000000004,1954.6432,0.0,-0.009560023809584206,0.0,0.0,0.0,0.0,-0.13336592360219188,-0.2822119681246527,-0.17858483363245084,0.004322553905552856,-0.020970806688407482,-0.05896295862669094
957,1.0,300.06718,1955.3135,0.0,-0.009570019797003448,0.0,0.0,0.0,0.0,-0.13116788016026187,-0.27630553064173274,-0.18689306901990982,0.025565625354130775,-0.009486543624773962,-0.04902730881636865
958,1.0,300.0867,2005.0719,0.0,-0.00958001578442269,0.0,0.0,0.0,0.0,-0.14957614188201587,-0.29048046384318976,-0.16943519536195184,0.01186085235807499,0.007660983382580192,-0.039546152338401364
959,1.0,300.35184,2044.4391,0.0,-0.009590011771842044,0.0,0.0,0.0,0.0,-0.14641720297275287,-0.28869387086936676,-0.1863473629135528,-0.017464813407892882,0.009648074435840811,-0.024529120151085677
960,1.0,300.37355,1919.6756,0.0,-0.009600007759261397,0.0,0.0,0.0,0.0,-0.14206524313074786,-0.28055252790587876,-0.16091566693113984,-0.019188198827227783,0.016724566322086184,-0.03034579786064707
961,1.0,300.58353,1780.9578,0.0,-0.009610003746680862,0.0,0.0,0.0,0.0,-0.09742211348306401,-0.27372277640183473,-0.17022180167958384,-0.012718767164744588,0.030973394840086068,-0.04786405413181436
962,1.0,299.97101000000004,1805.8019,0.0,-0.009619999734099993,0.0,0.0,0.0,0.0,-0.12048743377118389,-0.26828710504787573,-0.16014413777499586,0.008396805503875181,0.001208244508869449,-0.06130536386336834
963,1.0,299.48091,2011.2735,0.0,-0.00963002871157681,0.0,0.0,0.0,0.0,-0.15011322523002185,-0.2916379703599267,-0.16962571677825483,-0.01021705368109469,-0.033547562798636674,-0.06748254075975824
964,1.0,299.41161,2102.8192,0.0,-0.009640024698996164,0.0,0.0,0.0,0.0,-0.17372682629300285,-0.2904958348472067,-0.17498186826436582,-0.005038044454316276,-0.01913843203531618,-0.04614992373889286
965,1.0,299.28193999999996,1959.5537,0.0,-0.009650020686415406,0.0,0.0,0.0,0.0,-0.14599615702619886,-0.26664234682305077,-0.18301688076235983,0.014112194781765187,-0.006008381183431054,-0.035043290172253466
966,1.0,299.78362000000004,1943.1681,0.0,-0.00966001667383476,0.0,0.0,0.0,0.0,-0.1363101852127679,-0.2646288263568317,-0.18973555979044182,0.014284737088293786,0.013949336106442287,-0.032911931759154765
967,1.0,300.10287,2159.0447,0.0,-0.009670012661254113,0.0,0.0,0.0,0.0,-0.14650240717366186,-0.28244586677773675,-0.22734740350244179,0.00046594290649748456,0.005524000722151426,-0.02152279798513478
968,1.0,299.75458,2116.8633,0.0,-0.009680008648673355,0.0,0.0,0.0,0.0,-0.16466971802163585,-0.28252675453321974,-0.1962771328335448,-0.0005001100545070196,0.0052124050381493255,-0.034527240883073365
969,1.0,300.37296000000003,1991.2332,0.0,-0.009690004636092708,0.0,0.0,0.0,0.0,-0.15818761262690184,-0.2791583869607877,-0.16793916198680484,0.0057912262855995345,0.020194744251316083,-0.03549617142369936
970,1.0,299.94262000000003,1916.5897,0.0,-0.00970000062351195,0.0,0.0,0.0,0.0,-0.16195822022403183,-0.28396523530268675,-0.13667195602847187,-0.0036918458430068163,0.0009768056217282091,-0.04676384792148246
971,1.0,299.94678999999996,1894.2169,0.0,-0.009710029600988768,0.0,0.0,0.0,0.0,-0.14077160646307588,-0.2798792434794307,-0.15514379919400087,-0.0012987542899520687,-0.008605138235736021,-0.03430968291435207
972,1.0,299.76301,1979.5353,0.0,-0.009720025588408121,0.0,0.0,0.0,0.0,-0.13729586477754688,-0.2954713386682507,-0.16896209875776083,-0.01913168885590068,0.007857364626861513,-0.05878080158996345
973,1.0,300.22466000000003,2024.4355,0.0,-0.009730021575827363,0.0,0.0,0.0,0.0,-0.1198034899536839,-0.2989944092659507,-0.1965799324934288,0.006004620303034884,0.014783455747763487,-0.056522055347792546
974,1.0,299.75217000000004,1911.0501,0.0,-0.009740017563246717,0.0,0.0,0.0,0.0,-0.1323746407643599,-0.29225256734058275,-0.15628429324155885,-0.016181524050242087,0.007856506708001842,-0.08034158834784742
975,1.0,299.63912,1857.8929999999998,0.0,-0.00975001355066607,0.0,0.0,0.0,0.0,-0.13595271057748787,-0.27052378371611874,-0.15827658611818285,-0.0012550912153178589,-0.01828277981611988,-0.062014663251370734
976,1.0,298.9728,2004.8194,0.0,-0.009760009538085312,0.0,0.0,0.0,0.0,-0.15729811076161485,-0.28434495077766175,-0.16777197572030486,-0.0017317625658616585,-0.004314445878252656,-0.058359423297376645
977,1.0,299.73928,2101.1425,0.0,-0.009770005525504666,0.0,0.0,0.0,0.0,-0.15889956267716585,-0.2808983602975097,-0.19889691123209682,0.013802266907427687,0.003943660176408956,-0.023258491353434378
978,1.0,299.46414,1942.8124,0.0,-0.009780001512923908,0.0,0.0,0.0,0.0,-0.1117024642116749,-0.2844540170184257,-0.19440999660927283,0.0037458413328857565,0.0005338984293641725,-0.03563018793492577
979,1.0,299.82526,1994.4388,0.0,-0.009790030490400614,0.0,0.0,0.0,0.0,-0.10887180820231089,-0.30557357388776374,-0.19181421197308882,0.0038896629640048463,-0.03257242407464797,-0.03551407656621647
980,1.0,299.72705,2005.2546,0.0,-0.009800026477820079,0.0,0.0,0.0,0.0,-0.14963049261737985,-0.29392034660767974,-0.16599648796757785,0.0016137034264851286,-0.00947497970535769,-0.04181558938237736
981,1.0,300.22484,2028.5942,0.0,-0.009810022465239432,0.0,0.0,0.0,0.0,-0.16591051369659285,-0.29663874463846474,-0.15409271433526683,0.004947901368444845,0.0031353430502092674,-0.04349558337942987
982,1.0,300.21403,2062.5067,0.0,-0.009820018452658674,0.0,0.0,0.0,0.0,-0.17043087570521784,-0.3005583810603027,-0.15596126910967886,-0.016237983359064182,-0.002092610817349608,-0.05407331255287045
983,1.0,299.98357999999996,2014.6556,0.0,-0.009830014440078028,0.0,0.0,0.0,0.0,-0.16397591528066283,-0.2738206259639917,-0.17460844507251183,-0.01025612865795109,-0.004607333621683426,-0.034625469400767765
984,1.0,299.51232999999996,1970.0316,0.0,-0.00984001042749727,0.0,0.0,0.0,0.0,-0.13537979870594585,-0.28377788535919674,-0.17968273064580484,-0.013510332328365987,0.005365777159410974,-0.044575603621269555
985,1.0,299.61681,1960.6484,0.0,-0.009850006414916623,0.0,0.0,0.0,0.0,-0.12797076198723087,-0.26838263426730374,-0.1996347599549168,0.005421928845502715,0.022523711765167275,-0.03777611384471217
986,1.0,299.50203,2054.1451,0.0,-0.009860002402335755,0.0,0.0,0.0,0.0,-0.16349135881784085,-0.27746269265343576,-0.18345475679307482,-0.01916380077806988,0.012194078905211887,-0.048197960569768356
987,1.0,299.54772,2074.9045,0.0,-0.009870031379812572,0.0,0.0,0.0,0.0,-0.17081240489787183,-0.27902947115056476,-0.18087729171869882,-0.004581083047367695,-5.6436452939594244e-05,-0.037477423927233765
988,1.0,299.29652999999996,1945.4432,0.0,-0.009880027367232036,0.0,0.0,0.0,0.0,-0.15616040315183186,-0.2720877859079737,-0.16311795589098885,0.015400018433613483,0.003224118755070747,-0.04092409648064386
989,1.0,299.79109,1962.8529999999998,0.0,-0.00989002335465139,0.0,0.0,0.0,0.0,-0.13078003841948488,-0.2959209582676247,-0.16995729274097884,0.02136472590328428,0.0038835214524987264,-0.039117089557056166
990,1.0,300.3618,2098.5259,0.0,-0.00990001934207052,0.0,0.0,0.0,0.0,-0.11989742837045488,-0.3029664307179587,-0.2150356143198628,0.0053903108827572654,-0.01997654590853158,-0.04866428562354105
991,1.0,300.04434,2056.0415,0.0,-0.009910015329489985,0.0,0.0,0.0,0.0,-0.1201336068362639,-0.3085754894290297,-0.1962761905109518,-0.002469134757159628,-0.029470906048551973,-0.057929158801412854
992,1.0,300.12267,2023.0222,0.0,-0.009920011316909116,0.0,0.0,0.0,0.0,-0.14235812307215287,-0.29896507567555575,-0.17362502505545582,-0.0005328457030402765,0.0017458634608783082,-0.062384813645401736
993,1.0,300.1496,1986.3661,0.0,-0.00993000730432858,0.0,0.0,0.0,0.0,-0.14665299640352386,-0.28537553758687273,-0.17177717098058684,-0.0002149069011596598,0.007742578791933034,-0.05567600367329375
994,1.0,300.17897999999997,1896.4429,0.0,-0.009940003291747712,0.0,0.0,0.0,0.0,-0.14974419954360185,-0.27987712578672175,-0.14684995195796186,-0.00829024077495806,0.01067716852500449,-0.05159058838934465
995,1.0,300.03121,1911.5229,0.0,-0.009949999279167177,0.0,0.0,0.0,0.0,-0.13950200408777585,-0.2621864984482927,-0.17936672833711784,-0.008818221388040691,-0.00977005637297949,-0.038942165099542465
996,1.0,299.60267999999996,2001.1943,0.0,-0.009960028256643882,0.0,0.0,0.0,0.0,-0.13872329098842287,-0.27166071112332474,-0.1979290952665808,0.008908288581479632,0.001920633195101738,-0.031049402783087467
997,1.0,299.14475,2043.3627,0.0,-0.009970024244063347,0.0,0.0,0.0,0.0,-0.14534572138950586,-0.28437987750860877,-0.19140563913526581,0.014789791600638787,-8.167913420860293e-05,-0.03740798184488037
998,1.0,299.53952000000004,2168.7165,0.0,-0.009980020231482478,0.0,0.0,0.0,0.0,-0.17694581040319182,-0.2954700315756217,-0.1868198211701808,0.006759700053080453,-0.0077943108837385915,-0.04326600623802236
999,1.0,299.81458,2277.5126,0.0,-0.009990016218901943,0.0,0.0,0.0,0.0,-0.18294083634235483,-0.30006215195632874,-0.2093039624791928,0.0002165619236079978,0.006918050373408413,-0.03253902532485177
1000,1.0,299.3832,2155.4734,0.0,-0.010000012206321074,0.0,0.0,0.0,0.0,-0.17953615388633884,-0.29051138823624173,-0.18516253917411982,-0.012204612653251488,0.02040491258705808,-0.030275690072977972
1001,1.0,299.31757999999996,2030.5618,0.0,-0.010010008193740427,0.0,0.0,0.0,0.0,-0.12821193577603288,-0.2871886675808147,-0.20183948071500582,-0.005736795807452665,0.015858751204386883,-0.03287418920617987
1002,1.0,299.54449,1956.4332,0.0,-0.010020004181159892,0.0,0.0,0.0,0.0,-0.1154424919207869,-0.2953576824045337,-0.18390665620517382,-0.016034269426459184,-0.008797461109391811,-0.048807033310879155
1003,1.0,300.21055,1942.7712,0.0,-0.010030000168579023,0.0,0.0,0.0,0.0,-0.13663016959434787,-0.27908693256373573,-0.17483682151255084,-0.003392099308324137,-0.018558864123867282,-0.04204483012475166
1004,1.0,300.40301,1957.3728,0.0,-0.01004002914605584,0.0,0.0,0.0,0.0,-0.14265899755684686,-0.2841747551583647,-0.16815870288597184,0.01008428701386664,-0.008251666343651062,-0.05930230317793165
1005,1.0,299.797,1930.5475,0.0,-0.010050025133475193,0.0,0.0,0.0,0.0,-0.14561998792657388,-0.2903909634618567,-0.15082729297299485,0.010357182116924291,0.015894842159698785,-0.06424342337008224
1006,1.0,299.70529,2001.6105,0.0,-0.010060021120894436,0.0,0.0,0.0,0.0,-0.15212317905588885,-0.28357146604882477,-0.17274495654859984,0.005215768319206255,0.01012564869354872,-0.053541176905102746
1007,1.0,300.32918,2082.0114,0.0,-0.010070017108313789,0.0,0.0,0.0,0.0,-0.13085342812422787,-0.3061872082808247,-0.19583882110528683,-0.0004277466910553116,0.007069190912649823,-0.056570605226334045
1008,1.0,300.19133,2074.2529999999997,0.0,-0.010080013095733031,0.0,0.0,0.0,0.0,-0.13470113392146688,-0.2914605907974207,-0.20435938305120083,-0.002758022898470667,0.009901005168203131,-0.052530705136876944
1009,1.0,299.75667999999996,2102.9244,0.0,-0.010090009083152385,0.0,0.0,0.0,0.0,-0.15210972309456086,-0.3031031080239477,-0.18402368659172383,0.006314967358938754,0.0002133259270286298,-0.05644812862049654
1010,1.0,299.44337,2015.5606,0.0,-0.01010000507057185,0.0,0.0,0.0,0.0,-0.14159662509199888,-0.29873192682754574,-0.17235152166727083,0.002090970669412738,-0.014978868122299184,-0.059386735282264444
1011,1.0,298.7047,1955.6442,0.0,-0.01011000105799098,0.0,0.0,0.0,0.0,-0.14339348228933488,-0.28582797402152477,-0.16524554805346586,0.0036854696627775367,-0.01742914700437288,-0.04680324105887025
1012,1.0,299.88707,2049.8072,0.0,-0.01012003003546802,0.0,0.0,0.0,0.0,-0.16990353982317383,-0.2908658129887207,-0.16232086243482183,0.003145978731208927,-0.0006160372346131415,-0.026918170356116572
1013,1.0,300.40278,2030.9082,0.0,-0.01013002602288715,0.0,0.0,0.0,0.0,-0.13687475803598687,-0.29243905602148773,-0.18803157709727183,-0.000947280020439259,0.014717086852963386,-0.04310552971368456
1014,1.0,299.77765,1912.4360000000001,0.0,-0.010140022010306393,0.0,0.0,0.0,0.0,-0.13184754806233986,-0.28261495795442476,-0.16687029458881583,-0.015596734861027884,-0.014053044280677485,-0.03613231618098197
1015,1.0,300.1514,2051.0757,0.0,-0.010150017997725747,0.0,0.0,0.0,0.0,-0.15201213697742985,-0.29059610607710273,-0.18086754425273682,-0.010947422591676489,-0.012387977484098187,-0.04337209656324266
1016,1.0,300.00005,2171.1718,0.0,-0.010160013985144989,0.0,0.0,0.0,0.0,-0.17419411697412082,-0.2899107234444607,-0.1958771726215718,0.006514056514112323,-0.0068148882396521036,-0.04014998758974526
1017,1.0,300.17843,2201.8772,0.0,-0.010170009972564342,0.0,0.0,0.0,0.0,-0.17642374342166783,-0.3048866308499677,-0.18800532378718082,0.00927345712874396,0.00974550329655629,-0.05351918735143255
1018,1.0,300.1608,2153.7767,0.0,-0.010180005959983696,0.0,0.0,0.0,0.0,-0.15895628441776385,-0.2873512840893637,-0.2083867482236708,-0.017768608079375085,0.0014734362767168385,-0.04609137308186436
1019,1.0,299.90556000000004,2037.9499,0.0,-0.010190001947402938,0.0,0.0,0.0,0.0,-0.12461657991619887,-0.2984687959090767,-0.19640049603321982,-0.017185236427050787,0.005077489774084225,-0.05505962843871224
1020,1.0,299.96396,1992.2038,0.0,-0.010200030924879866,0.0,0.0,0.0,0.0,-0.13203492840333286,-0.2904462767848157,-0.18309902494796684,0.0013834415306600487,0.009347598766386172,-0.04167717941871736
1021,1.0,300.32856,2121.7617,0.0,-0.010210026912299108,0.0,0.0,0.0,0.0,-0.16923345726704184,-0.3036494119478637,-0.17207969706294385,0.007330894161727924,0.01214895077225809,-0.05138750875130225
1022,1.0,300.32391,2134.9325,0.0,-0.01022002289971835,0.0,0.0,0.0,0.0,-0.16166731612032187,-0.3143622924726427,-0.17293655201000885,0.0072517378480158046,-0.020961623602751178,-0.034195772324859965
1023,1.0,300.61621,1963.5191,0.0,-0.010230018887137704,0.0,0.0,0.0,0.0,-0.14473726470445586,-0.2952766325290347,-0.15684686996208086,0.0037370183563149965,-0.01173107629851709,-0.03798411382524017
1024,1.0,300.48357999999996,2009.3727,0.0,-0.010240014874556946,0.0,0.0,0.0,0.0,-0.13163022618089187,-0.29923782233747376,-0.17993106811281384,0.01073392370285579,0.01062534179563959,-0.04135888007205366
1025,1.0,299.99982,2222.7392,0.0,-0.01025001086197641,0.0,0.0,0.0,0.0,-0.13725357171837285,-0.3241665916327517,-0.2142370516510508,-0.00030511225124973474,0.029910203669157268,-0.05912807178348635
1026,1.0,299.75563,2149.7589,0.0,-0.010260006849395653,0.0,0.0,0.0,0.0,-0.15114906067475087,-0.2965846573481267,-0.20573929796488782,-0.016232154131238883,0.005099645399445816,-0.051736113395206854
1027,1.0,299.16298,2019.9806,0.0,-0.010270002836814895,0.0,0.0,0.0,0.0,-0.14151098519354688,-0.2905932993743257,-0.18191938904904584,-0.02235860570112258,-0.0025504330815831477,-0.05498326079192535
1028,1.0,300.13514,2051.8024,0.0,-0.010280031814291823,0.0,0.0,0.0,0.0,-0.16221295129917185,-0.27970706188993777,-0.18177666263995984,-0.004268466817864876,0.002255737294673938,-0.04301522379852206
1029,1.0,299.95739,2112.2659,0.0,-0.010290027801711066,0.0,0.0,0.0,0.0,-0.16970891474396585,-0.2837867006350667,-0.1885804648089428,0.011100717199305488,0.0031224110405079766,-0.048182471015489656
1030,1.0,300.6183,2116.0057,0.0,-0.010300023789130197,0.0,0.0,0.0,0.0,-0.13592804807005388,-0.3034216941203897,-0.2038631640797278,0.01000316519761054,-0.015909602173905482,-0.04849196521878436
1031,1.0,299.89001,2151.4632,0.0,-0.010310019776549662,0.0,0.0,0.0,0.0,-0.14551730516143987,-0.30633184973259975,-0.2021419358698558,-0.003193745975373187,-0.007917266756873393,-0.049286245892673754
1032,1.0,299.97921,2188.3278,0.0,-0.010320015763969015,0.0,0.0,0.0,0.0,-0.16298814842067785,-0.31335765499849266,-0.1888512255006648,0.006807279339351165,0.008961577836038872,-0.03378633822445197
1033,1.0,299.89815,2079.0047,0.0,-0.010330011751388368,0.0,0.0,0.0,0.0,-0.16292093954154485,-0.3043690930963907,-0.16467548341470484,-0.01196668734427009,0.01226516245272729,-0.060306733949061234
1034,1.0,299.3003,2117.2471,0.0,-0.01034000773880761,0.0,0.0,0.0,0.0,-0.16931086957468183,-0.2980479728775447,-0.17623140828768585,-0.008382955185608262,-0.003298741483860437,-0.03214015233023607
1035,1.0,298.98127999999997,2064.7292,0.0,-0.010350003726226742,0.0,0.0,0.0,0.0,-0.15721320040323486,-0.2910218129741167,-0.17939111726702484,-0.019600604790179083,-0.005503933607895955,-0.04427117262872455
1036,1.0,299.39227999999997,2041.4405,0.0,-0.010359999713646206,0.0,0.0,0.0,0.0,-0.11379089425778689,-0.2984840250580797,-0.2082720179148478,-0.006071994848559234,0.007167263288503813,-0.04524032811087276
1037,1.0,299.34808,1963.8421,0.0,-0.010370028691123023,0.0,0.0,0.0,0.0,-0.12171807668013887,-0.2835994722815887,-0.1916414325660368,0.0006294763253269764,0.010090589226838621,-0.06336566102045385
1038,1.0,299.63129,2098.4697,0.0,-0.010380024678542155,0.0,0.0,0.0,0.0,-0.15869285965676586,-0.2974526377812898,-0.18173689257353481,0.0058709598478936245,-0.0017494397271062584,-0.06312051630450995
1039,1.0,300.12712999999997,2173.2129,0.0,-0.010390020665961508,0.0,0.0,0.0,0.0,-0.16500080762431185,-0.3001419960642087,-0.19545966291786682,0.016450515607289485,0.01109223122971799,-0.053050662531692744
1040,1.0,299.75817,2066.3411,0.0,-0.010400016653380972,0.0,0.0,0.0,0.0,-0.16321709228077283,-0.3010191565432777,-0.16387983890618082,0.02121421672018018,0.0096452767509897,-0.05191143302025955
1041,1.0,300.69262000000003,2165.8327,0.0,-0.010410012640800326,0.0,0.0,0.0,0.0,-0.15005914807218484,-0.3112135265943837,-0.19708636502590982,0.02032140355356638,0.014729850764473086,-0.03906736025539826
1042,1.0,300.06559,2022.9982,0.0,-0.010420008628219568,0.0,0.0,0.0,0.0,-0.11651934372956389,-0.30196936222205567,-0.1964522224508248,0.002262392118680718,-0.02496745214434568,-0.04600241580258496
1043,1.0,299.78752000000003,2025.1309,0.0,-0.0104300046156387,0.0,0.0,0.0,0.0,-0.12686775819337287,-0.3047632777827937,-0.18395817997275885,0.005458129434475435,-0.014879032589946184,-0.036020324687179264
1044,1.0,299.65618,2328.9099,0.0,-0.010440000603058164,0.0,0.0,0.0,0.0,-0.1917732766690488,-0.3045761912843297,-0.21158096850141578,-0.00996945679858378,-0.004694773356288056,-0.04292248304336926
1045,1.0,299.6419,2291.5292,0.0,-0.01045002958053487,0.0,0.0,0.0,0.0,-0.1891025115254648,-0.3096420567492917,-0.1978230789086178,-0.004157039400392846,0.00945023603659068,-0.04502358175548155
1046,1.0,299.29266,2000.8913,0.0,-0.010460025567954112,0.0,0.0,0.0,0.0,-0.15914587364397484,-0.2909563367526547,-0.15811879268010984,-0.008778865538256572,0.0015375463330690087,-0.046002565763599755
1047,1.0,299.72078999999997,2043.2044,0.0,-0.010470021555373465,0.0,0.0,0.0,0.0,-0.12952245319037087,-0.2845194425773827,-0.2070412331508788,0.009376877742600782,0.0037390926819197163,-0.03515176062195867
1048,1.0,299.97947999999997,2220.7241,0.0,-0.01048001754279293,0.0,0.0,0.0,0.0,-0.13664588510339887,-0.3114074930610267,-0.22699129675479676,0.012461259784330589,0.0004700305803159066,-0.04507573779112896
1049,1.0,300.41357,2152.7178,0.0,-0.010490013530212283,0.0,0.0,0.0,0.0,-0.15301087733599786,-0.2942898586541477,-0.2070717421113898,-0.0020882544498696683,-0.001973222192516868,-0.04388166814453346
1050,1.0,300.29629,2103.6935,0.0,-0.010500009517631415,0.0,0.0,0.0,0.0,-0.17577098744224584,-0.3000457980997147,-0.16365348896634185,-0.012555092823091188,-0.013660353124921885,-0.06274911961285594
1051,1.0,299.94661,2051.1926,0.0,-0.010510005505050657,0.0,0.0,0.0,0.0,-0.17405109672250585,-0.2943935648018827,-0.15506667059638884,-0.007904532533591623,-0.008282612926880251,-0.04516066638801076
1052,1.0,300.11917,2133.9461,0.0,-0.01052000149247001,0.0,0.0,0.0,0.0,-0.17573816827150682,-0.3075228441651417,-0.16540533759423584,0.01018954495412979,0.011985523663629089,-0.05147408083984625
1053,1.0,300.67733,2336.2645,0.0,-0.010530030469946827,0.0,0.0,0.0,0.0,-0.15070357513578486,-0.3391312114321447,-0.2203312849075048,0.011961022262960988,0.015637213189272785,-0.03355683201055147
1054,1.0,300.27051,2200.3828,0.0,-0.01054002645736607,0.0,0.0,0.0,0.0,-0.13038875162836788,-0.3310924701737827,-0.20738020583933278,-0.0055864725557419155,-0.015451008218395786,-0.05244282088945345
1055,1.0,299.75096,1909.4422,0.0,-0.010550022444785645,0.0,0.0,0.0,0.0,-0.1116642038878989,-0.28910129873457674,-0.17965723727328883,-0.0017310885518951385,-0.023726490296372277,-0.03421110786512347
1056,1.0,300.26243,1940.6662,0.0,-0.010560018432204776,0.0,0.0,0.0,0.0,-0.13927866350073387,-0.2902685628497767,-0.16036685014697585,0.005190199864857845,-0.01014140544187879,-0.06492813320465785
1057,1.0,299.99155,2209.344,0.0,-0.01057001441962424,0.0,0.0,0.0,0.0,-0.17967449292249182,-0.3111054837362207,-0.18080544215410785,0.0072359938666369935,0.018757176420189182,-0.042073446334075865
1058,1.0,299.6539,2135.759,0.0,-0.010580010407043372,0.0,0.0,0.0,0.0,-0.17772895140548184,-0.2956336106717657,-0.17585485415302285,-0.014020099466926087,0.005043288631533836,-0.07487387802572643
1059,1.0,299.99701,2038.5084,0.0,-0.010590006394462614,0.0,0.0,0.0,0.0,-0.12076181176576288,-0.3045054157648447,-0.19438841438214283,-0.008676005454355071,0.02297752925970558,-0.049091430322446956
1060,1.0,299.82597000000004,2049.7954,0.0,-0.010600002381881968,0.0,0.0,0.0,0.0,-0.11993778612193788,-0.3027375375203687,-0.20041129456655482,0.006623067938045914,0.025057399368972774,-0.05585240342295304
1061,1.0,299.51777999999996,2208.2096,0.0,-0.010610031359358785,0.0,0.0,0.0,0.0,-0.15333873467085485,-0.3193528126601687,-0.19854904220776481,0.01033307791029539,0.013201060026843188,-0.04170230903444746
1062,1.0,299.83676,2236.843,0.0,-0.010620027346778138,0.0,0.0,0.0,0.0,-0.18740260209769682,-0.3131735373228217,-0.17936828874227184,-0.0007537076067601492,-0.026924476824738974,-0.05254142532293495
1063,1.0,300.3516,2225.6355,0.0,-0.010630023334197602,0.0,0.0,0.0,0.0,-0.19087402733779982,-0.3106320628919977,-0.17503152765176683,-0.011929206209820988,-0.025606351928650177,-0.03365534727802417
1064,1.0,300.52713,2115.1471,0.0,-0.010640019321616734,0.0,0.0,0.0,0.0,-0.15780478647411986,-0.31043779245032466,-0.17470933438496886,0.004510017029079026,0.0016525459637685884,-0.035347601601286666
1065,1.0,300.14266000000003,2078.3581,0.0,-0.010650015309036087,0.0,0.0,0.0,0.0,-0.12151641964523688,-0.3066923235881757,-0.2035602225648298,-0.01262159141390409,0.004493816071905116,-0.04579452930606816
1066,1.0,300.12733,2340.0779,0.0,-0.01066001129645533,0.0,0.0,0.0,0.0,-0.15367562006410285,-0.3300101772119687,-0.2276394424462638,-0.008794860704335172,-0.009693533800252301,-0.03747753437149467
1067,1.0,299.60348,2365.0917,0.0,-0.010670007283874572,0.0,0.0,0.0,0.0,-0.17427781143238083,-0.31304640483277474,-0.2316046041950948,-0.021469490897373777,-0.01031496302500759,-0.036893519305356864
1068,1.0,300.23487,2136.6420000000003,0.0,-0.010680003271294147,0.0,0.0,0.0,0.0,-0.15409721316571084,-0.3134099792336567,-0.1819786236498918,-0.00022814708074636375,0.00875274911825408,-0.05110038711021555
1069,1.0,300.1615,2068.5906,0.0,-0.010690032248770742,0.0,0.0,0.0,0.0,-0.15624513112519384,-0.2985440094639997,-0.17401075923602483,0.01133073206475619,0.01042978959259009,-0.06102145523834874
1070,1.0,299.33066,2272.0055,0.0,-0.010700028236190096,0.0,0.0,0.0,0.0,-0.16786959223493883,-0.3268048213156247,-0.19595852647210082,0.001921672181754278,-0.0014240470217924987,-0.05967797071875715
1071,1.0,299.97717,2229.0955,0.0,-0.010710024223609449,0.0,0.0,0.0,0.0,-0.15075739898109686,-0.3201175327756407,-0.2067144295961258,0.0037553425790734568,0.00984201709110646,-0.05233862432867005
1072,1.0,300.63976,2093.5991,0.0,-0.010720020211028691,0.0,0.0,0.0,0.0,-0.13612692879968188,-0.31832778859400673,-0.18194714196928483,-0.01153818387698009,0.008846312632488081,-0.048126357224951656
1073,1.0,299.72685,2090.7164,0.0,-0.010730016198448045,0.0,0.0,0.0,0.0,-0.14792484819404586,-0.3128077337717197,-0.17479299844572582,0.00038708906820521667,0.010404333710327791,-0.03940235897696007
1074,1.0,299.43133,2132.3188,0.0,-0.010740012185867287,0.0,0.0,0.0,0.0,-0.16668606545563383,-0.3073262837782427,-0.17415931183318584,-0.01944456326152898,-0.028369419090093675,-0.038147093077324966
1075,1.0,298.90395,2192.4884,0.0,-0.01075000817328664,0.0,0.0,0.0,0.0,-0.17789406050927684,-0.3130350057691497,-0.17553266088622482,0.01945921080497458,-0.012520895632216188,-0.044697574615307156
1076,1.0,299.11654,2255.6469,0.0,-0.010760004160705994,0.0,0.0,0.0,0.0,-0.15023093449413885,-0.3178925976760567,-0.21753681205921183,0.024209410360282773,0.00042755931071431863,-0.05074441107183345
1077,1.0,299.51446,2188.8939,0.0,-0.010770033138182589,0.0,0.0,0.0,0.0,-0.13374525404212886,-0.3153785924554437,-0.2162452322892428,0.017874449145070782,0.002121577611208408,-0.062380620816487944
1078,1.0,299.4693,2099.9894,0.0,-0.010780029125602053,0.0,0.0,0.0,0.0,-0.12759337698748588,-0.3018523521005077,-0.20889862190918881,-0.0013653470116992588,-0.009637498131297011,-0.06119322747480135
1079,1.0,299.75889,2186.5821,0.0,-0.010790025113021406,0.0,0.0,0.0,0.0,-0.17596354549124985,-0.2909814856201367,-0.1977213384660768,0.00039522615551828465,-0.009569606220271601,-0.04717859753191505
1080,1.0,300.32583,2317.9099,0.0,-0.010800021100440649,0.0,0.0,0.0,0.0,-0.1899646860355548,-0.32061435969717367,-0.1940076755245668,0.007637475676285163,0.00896694248869332,-0.04418646796011486
1081,1.0,300.00527,2129.5298,0.0,-0.010810017087860002,0.0,0.0,0.0,0.0,-0.17667646826160985,-0.29155132734387573,-0.17909608923540782,-0.0027587414954415874,-0.005649666735328694,-0.04276219903655046
1082,1.0,300.01117,2086.6548,0.0,-0.010820013075279244,0.0,0.0,0.0,0.0,-0.14606033628753287,-0.3134613712787287,-0.17476923773088082,-0.012684937783655887,-0.0023415167176647077,-0.05668328370370454
1083,1.0,299.88077999999996,2222.0594,0.0,-0.010830009062698598,0.0,0.0,0.0,0.0,-0.15903416282044985,-0.3174035322502897,-0.1990128675735408,-0.005910176983739055,-0.009759421603904922,-0.035737778883544166
1084,1.0,300.16752,2307.7192,0.0,-0.010840005050117951,0.0,0.0,0.0,0.0,-0.17744162407462485,-0.3248819766008547,-0.1991654225085968,0.003102173497585687,0.02084643226513268,-0.049099004366944456
1085,1.0,299.57615,2286.5121,0.0,-0.010850001037537194,0.0,0.0,0.0,0.0,-0.17294843743368182,-0.32604772084090466,-0.19604643605077682,-0.005036723986785955,0.0030361374554434373,-0.04695902826174525
1086,1.0,299.12716,2217.3403,0.0,-0.01086003001501401,0.0,0.0,0.0,0.0,-0.17584671775471986,-0.3155731263421427,-0.18259624011584583,-0.01966484788626938,-0.009724866229119571,-0.05106940394865775
1087,1.0,299.69764,2073.8011,0.0,-0.010870026002433364,0.0,0.0,0.0,0.0,-0.14496798175222586,-0.3049390260126387,-0.18047672355666583,0.005773847425184374,-0.01792973713677728,-0.04958068421273255
1088,1.0,299.49397999999997,2065.3108,0.0,-0.010880021989852495,0.0,0.0,0.0,0.0,-0.11267671431532589,-0.3129593058541787,-0.20216690235231982,0.011215993649932388,0.0013088949982778787,-0.07454901991116543
1089,1.0,300.1714,2279.2675,0.0,-0.01089001797727196,0.0,0.0,0.0,0.0,-0.13114115062262388,-0.3328502463147617,-0.22884901988563977,0.024893885120835176,-0.005364092225819684,-0.06420491480003174
1090,1.0,300.3268,2124.1486,0.0,-0.010900013964691091,0.0,0.0,0.0,0.0,-0.14858343036154284,-0.30832893528219674,-0.18877578903071984,-0.005783007611388415,-0.007334347723368763,-0.06525746583166044
1091,1.0,300.53202000000005,1916.94,0.0,-0.010910009952110555,0.0,0.0,0.0,0.0,-0.14424448065082188,-0.2906000577524927,-0.14785735560488486,-0.0003870213932310376,0.011437797136572688,-0.05404051668688375
1092,1.0,300.52374,2047.0403,0.0,-0.010920005939529909,0.0,0.0,0.0,0.0,-0.18079317169539683,-0.2984539517951117,-0.14300202324570085,0.010106449731978929,0.025319389367829178,-0.05585538339149715
1093,1.0,299.65398,2374.3002,0.0,-0.010930001926949151,0.0,0.0,0.0,0.0,-0.18650438628154983,-0.33764191617016265,-0.19758166193979182,0.013422694300716787,0.015879845044968685,-0.04192611571653546
1094,1.0,299.48749,2430.0759,0.0,-0.010940030904425857,0.0,0.0,0.0,0.0,-0.16086475111361484,-0.35476952095802566,-0.22304814279813778,-0.010211391639535891,-0.005674310902935885,-0.05782822085295104
1095,1.0,299.72798,2332.3965,0.0,-0.010950026891845321,0.0,0.0,0.0,0.0,-0.14984687217623485,-0.3344314940233187,-0.22471191972733978,-0.012492205455634687,-0.020141988371609482,-0.034529745637320565
1096,1.0,299.76775,2188.7814,0.0,-0.010960022879264453,0.0,0.0,0.0,0.0,-0.16102845179977085,-0.3052543899737627,-0.1990520600874088,-0.003499803740953737,0.0042958100810884465,-0.049996653776285545
1097,1.0,299.68607000000003,2166.4359,0.0,-0.010970018866683917,0.0,0.0,0.0,0.0,-0.16878196315498284,-0.3018723029949767,-0.18788813128061482,-0.008442202148105482,0.0008593944861881322,-0.03986754817737067
1098,1.0,299.78468,2302.0739,0.0,-0.01098001485410327,0.0,0.0,0.0,0.0,-0.19075661191621182,-0.3144534140541357,-0.1945629467118678,-0.001101772897636519,0.01211354984026429,-0.04630344632779436
1099,1.0,299.30627000000004,2317.1469,0.0,-0.010990010841522402,0.0,0.0,0.0,0.0,-0.17377887695063982,-0.3113147806768767,-0.21926114081438977,-0.0013614917977187787,0.01022021704790689,-0.035473502992462165
1100,1.0,300.34291,2131.9848,0.0,-0.011000006828941866,0.0,0.0,0.0,0.0,-0.12627956651032288,-0.3165506492436167,-0.20523991765310282,0.01968843229559698,0.01985903118843378,-0.05819578036647635
1101,1.0,300.16532,2035.7039,0.0,-0.011010002816360998,0.0,0.0,0.0,0.0,-0.1261267582627419,-0.3077059181932097,-0.18497047761766483,0.013635867936255385,-0.005923432524197275,-0.05709656815449254
1102,1.0,300.508,2316.0362,0.0,-0.011020031793837815,0.0,0.0,0.0,0.0,-0.16361478281252184,-0.3347012718624437,-0.2057011085686188,0.0007210135014809923,-0.02234999814152308,-0.03986549229291776
1103,1.0,299.36537000000004,2491.0004,0.0,-0.011030027781257168,0.0,0.0,0.0,0.0,-0.21101417666047778,-0.35643399702979667,-0.18975374762973682,-0.004770254105262425,-0.02091361176001278,-0.05726406954177365
1104,1.0,299.6101,2337.974,0.0,-0.01104002376867641,0.0,0.0,0.0,0.0,-0.1866069373241708,-0.3358505710533707,-0.18822821854417882,-0.012471481451339387,0.0007225612308762412,-0.05689821836791695
1105,1.0,299.49987000000004,2156.6221,0.0,-0.011050019756095764,0.0,0.0,0.0,0.0,-0.14093260177146488,-0.3297917407554107,-0.1848349250192868,0.0004965592208565795,0.005776523418698474,-0.07056591654281373
1106,1.0,299.75306,2105.1914,0.0,-0.011060015743515228,0.0,0.0,0.0,0.0,-0.09017950511977423,-0.3222517211962687,-0.22749437542944678,-0.02259379016858348,-0.008019223933610783,-0.04874181040194215
1107,1.0,299.79106,2176.2068,0.0,-0.01107001173093436,0.0,0.0,0.0,0.0,-0.1301742871122019,-0.3172894098915267,-0.2140488303124748,-0.006155001310001334,-0.0024138168745751775,-0.053712413132252446
1108,1.0,300.29772,2273.9928,0.0,-0.011080007718353824,0.0,0.0,0.0,0.0,-0.14052772729650687,-0.3194243481172287,-0.23128494405354677,-0.002447614439610738,0.007445261220390072,-0.04086288705535296
1109,1.0,299.69185,2126.1388,0.0,-0.011090003705772955,0.0,0.0,0.0,0.0,-0.17938019443094683,-0.3066766283441267,-0.16023630300409186,-0.0014981215822780886,0.007131507111024954,-0.055333794664020344
1110,1.0,300.48613,2059.1759,0.0,-0.011100032683249772,0.0,0.0,0.0,0.0,-0.15844312390461884,-0.3078670958866167,-0.15962782605403986,0.0034073070777500274,-0.004542486729858535,-0.047423892208873754
1111,1.0,300.41661,2286.6437,0.0,-0.011110028670669125,0.0,0.0,0.0,0.0,-0.16257216872462382,-0.34045298605509366,-0.19205743252709281,0.006308276868528453,0.005615968367477925,-0.06650152113218914
1112,1.0,300.6607,2580.4194,0.0,-0.011120024658088368,0.0,0.0,0.0,0.0,-0.16691640760086685,-0.3555958669445797,-0.26187080011463576,0.00900793605461407,0.01792384508744578,-0.03927075602747186
1113,1.0,300.27994,2421.1899,0.0,-0.011130020645507721,0.0,0.0,0.0,0.0,-0.17811706672378583,-0.3325228956049547,-0.2253413101594558,-0.008492291761498941,-0.004488927748122675,-0.051101133875539245
1114,1.0,300.40013999999996,2137.4767,0.0,-0.011140016632927074,0.0,0.0,0.0,0.0,-0.14524880401744086,-0.3045283050846037,-0.19996243490475582,-0.009134828505712381,-0.02335428807088878,-0.03721862769269256
1115,1.0,300.62577000000005,2148.6781,0.0,-0.011150012620346317,0.0,0.0,0.0,0.0,-0.1945172288673558,-0.2904191926096427,-0.16820808869584583,-0.013749561690226087,-0.017398504294848682,-0.04351975750031566
1116,1.0,300.52558999999997,2314.2513,0.0,-0.01116000860776567,0.0,0.0,0.0,0.0,-0.18018996364586481,-0.3227834545837467,-0.2005011799829258,0.0029665646638271374,0.015191743862308385,-0.04020243848117176
1117,1.0,299.74012999999997,2271.4239,0.0,-0.011170004595184913,0.0,0.0,0.0,0.0,-0.16506112640276482,-0.3196321150502337,-0.2057629066922178,-0.00998418114638696,0.022243665649528878,-0.07250426297086363
1118,1.0,300.05525,2212.8167,0.0,-0.01118003357266173,0.0,0.0,0.0,0.0,-0.13407659695732987,-0.3181019351467167,-0.2204624805304528,-0.002218549394803778,0.0042263402356823064,-0.04087459617350856
1119,1.0,299.80678,2136.5585,0.0,-0.011190029560081083,0.0,0.0,0.0,0.0,-0.13093423481970287,-0.3319138512348467,-0.1866123480797048,-0.0007229042970950994,0.007615758585566853,-0.07440135998734253
1120,1.0,300.4444,2234.9048,0.0,-0.011200025547500436,0.0,0.0,0.0,0.0,-0.14911267115377486,-0.33259059084413567,-0.1976519916292328,0.007339530902930304,-0.002267230387908218,-0.04853909148093536
1121,1.0,300.2017,2479.835,0.0,-0.0112100215349199,0.0,0.0,0.0,0.0,-0.21616928919424777,-0.3461161827190077,-0.1915224668717958,0.01030066403959639,-0.0064818502583588134,-0.06831641012830474
1122,1.0,299.21464,2411.3669,0.0,-0.011220017522339032,0.0,0.0,0.0,0.0,-0.1934399210960338,-0.3442326622406187,-0.19532274243185382,-0.0014062978184657888,-0.022882503625577276,-0.05714966651273294
1123,1.0,299.17394,2077.709,0.0,-0.011230013509758274,0.0,0.0,0.0,0.0,-0.1265325953252949,-0.3180913973456767,-0.18694766293529783,0.00916088879165933,-0.0014548849846109685,-0.06608250877858583
1124,1.0,299.8399,2099.7241,0.0,-0.011240009497177628,0.0,0.0,0.0,0.0,-0.11340444066964689,-0.3214545466800937,-0.2034046886744798,0.0029544877358852373,0.01947015694580488,-0.057498848709194535
1125,1.0,299.85327,2348.0922,0.0,-0.01125000548459687,0.0,0.0,0.0,0.0,-0.14562657405222387,-0.3397918910273487,-0.22834295212319478,-0.0028828846950435675,0.01127123807188459,-0.046617733204062047
1126,1.0,300.16845,2340.4759,0.0,-0.011260001472016223,0.0,0.0,0.0,0.0,-0.18444851196115084,-0.3194969576193947,-0.2075007522037298,-0.0030377013056477773,-0.023858192544370275,-0.05136823673440025
1127,1.0,300.54361,2245.3634,0.0,-0.01127003044949304,0.0,0.0,0.0,0.0,-0.18839426997056682,-0.3216323214101387,-0.17250780536269486,-0.01012896810087632,-0.01122531251110209,-0.03887909636031806
1128,1.0,300.4428,2245.8887,0.0,-0.011280026436912394,0.0,0.0,0.0,0.0,-0.16790300922323684,-0.3236332269126127,-0.19115785895581183,0.01865888001473808,-0.002259399991135418,-0.06447161742510323
1129,1.0,299.60258999999996,2357.3864,0.0,-0.011290022424331747,0.0,0.0,0.0,0.0,-0.15907223062670683,-0.33445428201806765,-0.22306009914931776,0.0036618242557939166,0.0062736635358373845,-0.052390535157793246
1130,1.0,300.10932,2413.9968,0.0,-0.01130001841175099,0.0,0.0,0.0,0.0,-0.15714768365176884,-0.3327943554392457,-0.24385271060888877,0.0036362151701164968,-0.007333067481867413,-0.05610385055451895
1131,1.0,299.63792,2378.3374,0.0,-0.011310014399170232,0.0,0.0,0.0,0.0,-0.16107191009655983,-0.3371890440379677,-0.22469424864559578,-0.006314578372225364,0.0008049006697775112,-0.04038538078672676
1132,1.0,299.70597000000004,2165.6711,0.0,-0.011320010386589585,0.0,0.0,0.0,0.0,-0.17305512253671085,-0.3050622878873037,-0.18019253730111884,0.002226494694137918,0.000990967210425849,-0.053091276635451046
1133,1.0,299.92400000000004,2129.9754,0.0,-0.011330006374008716,0.0,0.0,0.0,0.0,-0.16798610586393783,-0.31281440095737767,-0.16665882929294584,-0.0026230809859279372,-0.0016466608045377683,-0.044391974332146755
1134,1.0,300.46362999999997,2314.2118,0.0,-0.011340002361428292,0.0,0.0,0.0,0.0,-0.17751495298436185,-0.32641436538958973,-0.1995332930899028,-0.0025760604057623675,-0.02184256350469318,-0.060223678851614344
1135,1.0,300.17375,2468.0541,0.0,-0.011350031338904998,0.0,0.0,0.0,0.0,-0.17534460166766483,-0.3452137517824446,-0.22966845550651177,0.0012059306509410888,0.0035186718763658767,-0.05631512738587035
1136,1.0,299.97615,2258.5486,0.0,-0.011360027326324351,0.0,0.0,0.0,0.0,-0.13316064926443286,-0.3340527208709367,-0.21932901843858882,0.0100685589405144,0.00921497668994739,-0.06406215090069203
1137,1.0,300.14664,2140.3959,0.0,-0.011370023313743705,0.0,0.0,0.0,0.0,-0.12654770288428588,-0.3205066208140407,-0.2035725740835488,-0.010528322085314491,0.01229408061058129,-0.06037355171365565
1138,1.0,300.84002999999996,2256.7054,0.0,-0.011380019301162947,0.0,0.0,0.0,0.0,-0.16909258510563885,-0.32933793643312365,-0.18755155999489784,-0.011855820558078387,-0.01882395669452988,-0.05291352521015836
1139,1.0,300.48849,2325.2951,0.0,-0.011390015288582078,0.0,0.0,0.0,0.0,-0.1861095429825818,-0.3265684199347937,-0.19415368486397683,-0.002689218657055217,-0.0015426784448255087,-0.05503277731106224
1140,1.0,300.0131,2293.1015,0.0,-0.011400011276001543,0.0,0.0,0.0,0.0,-0.16043348147355185,-0.3424223794794577,-0.1941897363025348,0.004743972018868586,0.003266621151715407,-0.06227302378836894
1141,1.0,299.62506,2220.2987,0.0,-0.011410007263420896,0.0,0.0,0.0,0.0,-0.14983289945735587,-0.33368133431178365,-0.19140112003981985,0.01104264682282439,-0.006007898167108385,-0.059098171786285444
1142,1.0,299.46095,2290.9764,0.0,-0.01142000325084025,0.0,0.0,0.0,0.0,-0.1255148666598529,-0.3397832885339997,-0.23110145459293777,0.0013755488190060987,-0.01301399987288179,-0.04752022290913086
1143,1.0,300.16568,2389.4411,0.0,-0.011430032228317066,0.0,0.0,0.0,0.0,-0.18582210419421383,-0.3267268010579247,-0.21378152480359378,0.0015455899176628487,0.010689824018753489,-0.051797904426055155
1144,1.0,299.37495,2367.5051,0.0,-0.011440028215736309,0.0,0.0,0.0,0.0,-0.17986034325583383,-0.3328508137348177,-0.20695127680700082,0.007560214140260043,0.01050648147940899,-0.04306466432390146
1145,1.0,298.72194,2185.2196,0.0,-0.011450024203155662,0.0,0.0,0.0,0.0,-0.16764297885007384,-0.3210585381435107,-0.17555066634050182,-0.01031746879250489,0.0019386723906070684,-0.05106425866464995
1146,1.0,299.48287,2208.6789,0.0,-0.011460020190574904,0.0,0.0,0.0,0.0,-0.14240139898392387,-0.3255132314131547,-0.2034686044907878,-0.007788118000452402,-0.02158134256266268,-0.05055588879797775
1147,1.0,299.77812,2449.2959,0.0,-0.011470016177994036,0.0,0.0,0.0,0.0,-0.1747313421771408,-0.3467689792284337,-0.22302447327580177,-0.0011357256925873989,0.0017584175282922981,-0.055734486442565546
1148,1.0,300.13497,2525.5864,0.0,-0.011480012165413389,0.0,0.0,0.0,0.0,-0.15245577840121385,-0.3557418864164907,-0.2595175470223878,-0.0005882262652759124,0.013614007065347888,-0.04463597002247725
1149,1.0,299.73919,2281.3154,0.0,-0.011490008152832853,0.0,0.0,0.0,0.0,-0.14978085893221987,-0.3389915551708617,-0.20469050305137979,-0.01135600049574999,0.008340319141275412,-0.062427646766879036
1150,1.0,300.00816000000003,2264.8048,0.0,-0.011500004140252207,0.0,0.0,0.0,0.0,-0.15737723546192384,-0.33412096326517166,-0.1969458981645468,-0.016667430162197284,-0.0026611700704370373,-0.04071966719346826
1151,1.0,300.61289,2340.885,0.0,-0.011510033117729024,0.0,0.0,0.0,0.0,-0.18749833396714483,-0.3318630063448287,-0.1922092680545778,-0.005922156538346344,0.015884289159907285,-0.06578611083283364
1152,1.0,300.0815,2323.6149,0.0,-0.011520029105148155,0.0,0.0,0.0,0.0,-0.17777593581261883,-0.3361897463918447,-0.19235523686398381,0.01919594411099218,0.008624268296299012,-0.050016356424480046
1153,1.0,299.8907,2231.3719,0.0,-0.01153002509256762,0.0,0.0,0.0,0.0,-0.15076006382885984,-0.3210895942590757,-0.2064316922882218,-0.0044726596124671355,-0.01293632715996609,-0.06800288420286213
1154,1.0,299.7434,2228.3647,0.0,-0.01154002107998675,0.0,0.0,0.0,0.0,-0.1391360890791629,-0.3333888191404147,-0.20484232844636382,0.0033171432202515464,-0.036561336405822965,-0.05275578243459035
1155,1.0,299.60472999999996,2243.1029,0.0,-0.011550017067405993,0.0,0.0,0.0,0.0,-0.16872191795405683,-0.3201454275508937,-0.1929799359481368,-0.006038840494687154,-0.004345428431860396,-0.05335017520825235
1156,1.0,299.58582,2390.5614,0.0,-0.011560013054825569,0.0,0.0,0.0,0.0,-0.18990679905734184,-0.3412322969720057,-0.1955318772524938,0.008856744751542652,0.011568688784490688,-0.05561690991421164
1157,1.0,300.2494,2407.197,0.0,-0.011570009042244811,0.0,0.0,0.0,0.0,-0.17953044928827583,-0.34474002696319167,-0.20745731417194282,-0.003034252506282407,0.005012687971888785,-0.045187263189885654
1158,1.0,299.76741,2293.7836,0.0,-0.011580005029664164,0.0,0.0,0.0,0.0,-0.14019220979089386,-0.33704458497121065,-0.22001614386140278,-0.006962864398831213,-0.013102451540361286,-0.06450183051658503
1159,1.0,300.31538,2299.0585,0.0,-0.011590034007140981,0.0,0.0,0.0,0.0,-0.14392160850645686,-0.3402369510012727,-0.2146977967365228,0.00877426295100233,0.0036473313343135766,-0.04208130611510156
1160,1.0,299.5976,2287.7827,0.0,-0.011600029994560113,0.0,0.0,0.0,0.0,-0.15308644552845588,-0.3222945715429977,-0.22004779779452677,0.008896220975438652,0.006806033548353213,-0.07161042338189852
1161,1.0,300.10995,2294.1628,0.0,-0.011610025981979466,0.0,0.0,0.0,0.0,-0.17750167940805184,-0.32364196112847465,-0.19622455528585583,0.0015934350807597982,0.008530452888090153,-0.026877902783892474
1162,1.0,300.23816,2242.0149,0.0,-0.011620021969398708,0.0,0.0,0.0,0.0,-0.15919545197136784,-0.3307931155642387,-0.1915279890848408,-0.012858269412012386,-0.0013188920277395087,-0.07327778620320444
1163,1.0,300.4342,2375.2139,0.0,-0.011630017956818062,0.0,0.0,0.0,0.0,-0.18035823408997184,-0.3413049672691777,-0.2003425151497668,-0.003142721436112457,0.01178096569369079,-0.02921905260369597
1164,1.0,300.52867000000003,2396.6061,0.0,-0.011640013944237526,0.0,0.0,0.0,0.0,-0.17588768345626282,-0.34140739672178666,-0.2112133309676328,0.01029243442228419,0.006716262730568523,-0.06064338021528564
1165,1.0,300.3123,2418.0669,0.0,-0.011650009931656657,0.0,0.0,0.0,0.0,-0.16021568336455685,-0.3521819132501487,-0.22263435172229978,0.015686583800395285,-0.01076304653722999,-0.037237999008104365
1166,1.0,299.96709,2443.5413,0.0,-0.011660005919076122,0.0,0.0,0.0,0.0,-0.16317685611930186,-0.35074832647866466,-0.22885034724327077,0.0036151676350642667,-0.02090631230629238,-0.06559947016441364
1167,1.0,300.35501,2476.5141,0.0,-0.011670001906495253,0.0,0.0,0.0,0.0,-0.18452111133081583,-0.3507894441677227,-0.2174878923443838,-0.010059932027837991,-0.004376008421203405,-0.04170812812977175
1168,1.0,299.20362,2275.9758,0.0,-0.01168003088397207,0.0,0.0,0.0,0.0,-0.16781046909160383,-0.33569487504300466,-0.1883344882146668,-0.0100974436611151,0.024545371669439577,-0.07331337559971683
1169,1.0,299.59002000000004,2266.5692,0.0,-0.011690026871391423,0.0,0.0,0.0,0.0,-0.16967257959537982,-0.3321093375766397,-0.1871985335275568,-0.0027184847649935574,0.014364345108900486,-0.04801572145978275
1170,1.0,300.28728,2311.3731,0.0,-0.011700022858810666,0.0,0.0,0.0,0.0,-0.15517550378962985,-0.3379916191771757,-0.20943260471188882,0.0038851941257638067,0.003984509962140516,-0.06257423872509654
1171,1.0,299.63459,2244.7487,0.0,-0.01171001884623002,0.0,0.0,0.0,0.0,-0.13484789306595088,-0.3322271785632697,-0.2152724817957398,0.00921662139750971,-0.004908951426650785,-0.05522261579679785
1172,1.0,299.5474,2295.3285,0.0,-0.011720014833649373,0.0,0.0,0.0,0.0,-0.15303839720871384,-0.34338587899954764,-0.20129828357159382,0.012238006336797188,-0.009094065555514392,-0.06346530707503814
1173,1.0,300.96634,2473.9918,0.0,-0.011730010821068615,0.0,0.0,0.0,0.0,-0.2008520887575578,-0.3397708660877737,-0.21140876664692082,-0.0006462746846273453,-0.013004058876150687,-0.04695309061615925
1174,1.0,300.60884,2419.6246,0.0,-0.011740006808487968,0.0,0.0,0.0,0.0,-0.17938969871688482,-0.3525445858584417,-0.2035711859309118,-0.0049737384353947655,-0.008873314734402981,-0.06417710817753744
1175,1.0,301.2469,2460.2411,0.0,-0.01175000279590721,0.0,0.0,0.0,0.0,-0.18650180249379483,-0.3445344993129077,-0.2168155603730298,-0.006702552747440454,0.014026270160035088,-0.048452779797667045
1176,1.0,301.19771000000003,2536.4823,0.0,-0.011760031773384028,0.0,0.0,0.0,0.0,-0.17505021198361084,-0.3498658160390677,-0.24611125521428978,-0.012303560578516887,0.01939959623534108,-0.05060300898062815
1177,1.0,300.70355,2370.2824,0.0,-0.011770027760803381,0.0,0.0,0.0,0.0,-0.15771175998243883,-0.3305868989038867,-0.23220799462964478,0.005547631133033564,0.0018953447017559582,-0.04865909069027836
1178,1.0,300.19218,2264.5572,0.0,-0.011780023748222623,0.0,0.0,0.0,0.0,-0.1369404571724709,-0.33869735800432665,-0.2127310377624188,0.005137556557237355,-0.015714161428366985,-0.06762545259361254
1179,1.0,300.29413999999997,2250.0455,0.0,-0.011790019735641977,0.0,0.0,0.0,0.0,-0.16057024997204983,-0.3282477907830347,-0.1951396076087798,0.018263844198251084,-0.005956395576450474,-0.050372866445664854
1180,1.0,299.39932999999996,2351.3079,0.0,-0.01180001572306133,0.0,0.0,0.0,0.0,-0.15834725018015683,-0.3462150556637657,-0.2101765937303148,-0.0005222543618649924,0.01004842880210271,-0.04632901873381816
1181,1.0,300.10784,2360.4763,0.0,-0.011810011710480572,0.0,0.0,0.0,0.0,-0.1899827624173388,-0.33700036673684663,-0.1905427350851038,-0.007487689447127414,0.011652904053302089,-0.05006359617064225
1182,1.0,299.88507000000004,2395.952,0.0,-0.011820007697899926,0.0,0.0,0.0,0.0,-0.15551567211320186,-0.34252088765417965,-0.2302730314436788,-0.015326414933099386,0.014091127285685987,-0.04513463396644155
1183,1.0,299.60342,2487.5527,0.0,-0.011830003685319168,0.0,0.0,0.0,0.0,-0.17166863162987483,-0.35273003089174365,-0.23175523395496075,-0.006143326844999154,-0.002261521331544778,-0.043845980462761364
1184,1.0,299.22465,2523.9713,0.0,-0.011840032662795985,0.0,0.0,0.0,0.0,-0.16416816935463685,-0.3618533854546486,-0.24120270695985377,-0.01095860684628029,-0.0039329950098313865,-0.04627511585499836
1185,1.0,300.24931000000004,2510.8112,0.0,-0.011850028650215338,0.0,0.0,0.0,0.0,-0.2007652126939838,-0.3499173600716547,-0.21254133707869682,-0.01142401085571209,-0.026183831531642977,-0.06558590477207485
1186,1.0,300.36071,2481.6618,0.0,-0.011860024637634692,0.0,0.0,0.0,0.0,-0.17711296627218884,-0.36017314321132166,-0.2170771004888418,-0.0004306989168116736,-0.017868103159694483,-0.04285948928465226
1187,1.0,300.19736,2225.4217,0.0,-0.011870020625053934,0.0,0.0,0.0,0.0,-0.16226692713199886,-0.33052187864496974,-0.18368381211068083,0.009817142206451501,0.0021412774223026282,-0.07171361074558233
1188,1.0,299.80861,2176.6359,0.0,-0.011880016612473288,0.0,0.0,0.0,0.0,-0.1185085664583849,-0.34008251142103063,-0.20305188512216082,0.015459355372719587,0.02282856629625408,-0.06057635169467044
1189,1.0,300.90835,2342.7514,0.0,-0.01189001259989253,0.0,0.0,0.0,0.0,-0.15211364437244784,-0.3471245388210247,-0.2128997540365698,0.009561824155528571,0.0068470619700774045,-0.06909531169217634
1190,1.0,300.57854,2343.9701,0.0,-0.011900008587311883,0.0,0.0,0.0,0.0,-0.14574913678431986,-0.3498380124563237,-0.2169212423584598,-0.006035207790428635,-0.012091990917886588,-0.06069344895572704
1191,1.0,300.29359,2336.1726,0.0,-0.011910004574731126,0.0,0.0,0.0,0.0,-0.17085790995986283,-0.3482244319370757,-0.19105578414073782,0.012239840319478189,-0.012960171974569386,-0.06414922150828524
1192,1.0,299.61843999999996,2361.4277,0.0,-0.011920033552207832,0.0,0.0,0.0,0.0,-0.16711417375538484,-0.35338018281840866,-0.19732069937653682,-0.005429574628107296,0.004431565126836425,-0.05673715618502134
1193,1.0,299.92687,2445.3206,0.0,-0.011930029539627296,0.0,0.0,0.0,0.0,-0.19463743072671882,-0.3527372452324557,-0.19594171665294183,-0.0015371722411320885,0.0036609819409857865,-0.048304706467803354
1194,1.0,300.33091,2456.6706,0.0,-0.01194002552704665,0.0,0.0,0.0,0.0,-0.17512058220305582,-0.3432889717599837,-0.22835697550457876,-0.02284913527328408,0.004877893385910595,-0.05504327964834874
1195,1.0,299.81675,2398.0384,0.0,-0.011950021514465892,0.0,0.0,0.0,0.0,-0.17348540932417683,-0.34881903749325865,-0.2066393376312148,0.005555855785420275,0.019616867454284082,-0.04048590938214816
1196,1.0,299.29712,2325.0933,0.0,-0.011960017501885245,0.0,0.0,0.0,0.0,-0.16291938926889185,-0.3313273618119647,-0.21252354440694082,0.006784769380429603,0.02640403104337497,-0.06482451419643144
1197,1.0,299.66852,2379.6378,0.0,-0.011970013489304376,0.0,0.0,0.0,0.0,-0.18263119724429583,-0.34428546270332966,-0.19643382182900881,0.013077660350164588,-0.01826096555471698,-0.05070534825397825
1198,1.0,299.56887,2341.7793,0.0,-0.01198000947672384,0.0,0.0,0.0,0.0,-0.18231173975276785,-0.3376786971487927,-0.19185199606931783,-0.0006491903624526004,-0.029587102530269676,-0.06927208634437264
1199,1.0,300.20886,2357.1123,0.0,-0.011990005464143194,0.0,0.0,0.0,0.0,-0.16975607140361984,-0.33593361703156666,-0.2108135936706818,0.009154232346452391,-0.016911423826027585,-0.04726190594188695
1200,1.0,300.05377000000004,2344.741,0.0,-0.012000034441619789,0.0,0.0,0.0,0.0,-0.14710002208264186,-0.35323246108632966,-0.2124102427807588,-0.0016565412089128884,0.013392641302750788,-0.07327211200264443
1201,1.0,299.94857,2437.3516,0.0,-0.012010030429039142,0.0,0.0,0.0,0.0,-0.14736430810622486,-0.36496230020647463,-0.22856741741784778,-0.007517714682040673,0.006692067331430624,-0.047327012327062455
1202,1.0,300.83367999999996,2585.8871,0.0,-0.012020026416458607,0.0,0.0,0.0,0.0,-0.18713961303424181,-0.36267060205780166,-0.2362348937070688,-0.019296272082893782,0.005889612161034464,-0.05942887027442284
1203,1.0,300.09785,2582.35,0.0,-0.012030022403877738,0.0,0.0,0.0,0.0,-0.18051704077814482,-0.37512795474974664,-0.2293249333251088,0.008037477228862241,0.00045181258669793053,-0.041455636337352754
1204,1.0,299.46308,2402.1964,0.0,-0.012040018391297203,0.0,0.0,0.0,0.0,-0.18155877333845583,-0.34306002789988865,-0.2055889012525448,-0.0004929691642947685,0.0097094164955698,-0.057335470236570346
1205,1.0,300.1489,2386.3202,0.0,-0.012050014378716334,0.0,0.0,0.0,0.0,-0.14931368984111384,-0.36274755840289663,-0.21332050614059478,0.004841018377671316,-0.025861831795614076,-0.05362402023327875
1206,1.0,300.20621,2324.9373,0.0,-0.012060010366135798,0.0,0.0,0.0,0.0,-0.16007958361112484,-0.34241080816331565,-0.2042325038736788,-0.006900541918305463,-0.017459389480107584,-0.06508269234841164
1207,1.0,299.86887,2357.2386,0.0,-0.012070006353555152,0.0,0.0,0.0,0.0,-0.16069095845646286,-0.3337598510620327,-0.2220908646336618,0.0039125478254634066,0.004096347948553066,-0.06304782776883613
1208,1.0,300.33222,2434.8568,0.0,-0.012080002340974283,0.0,0.0,0.0,0.0,-0.1867597354392508,-0.34133452377459467,-0.2120413994793568,0.0014559869954197287,0.019475434965575782,-0.06783588741413084
1209,1.0,299.64996,2364.1775,0.0,-0.012090031318451322,0.0,0.0,0.0,0.0,-0.17002660918031987,-0.3407392292083437,-0.2078850880991608,-0.012752618837335488,0.0024407342687817178,-0.06449888905154474
1210,1.0,299.73618999999997,2359.4401,0.0,-0.012100027305870453,0.0,0.0,0.0,0.0,-0.17755994128880184,-0.3333260482967197,-0.2063248957276818,-0.006186641564248984,-0.01039292755395209,-0.052632346280908154
1211,1.0,299.97952999999995,2554.6571,0.0,-0.012110023293289696,0.0,0.0,0.0,0.0,-0.18968799783074783,-0.34454362869630867,-0.24232035221765677,0.012226764326937688,-0.006877780268059063,-0.045403066209433754
1212,1.0,299.65533999999997,2555.3041,0.0,-0.012120019280709049,0.0,0.0,0.0,0.0,-0.17549126961963982,-0.3449584634197497,-0.25629888715223076,0.016655106001230983,0.011985250086102088,-0.03272914752061536
1213,1.0,300.04384,2430.9441,0.0,-0.012130015268128291,0.0,0.0,0.0,0.0,-0.17288284975470883,-0.35364981880251967,-0.21241362703609282,-0.007426164191780342,-0.00951246965508266,-0.05175213794553835
1214,1.0,300.15362000000005,2378.4363,0.0,-0.012140011255547645,0.0,0.0,0.0,0.0,-0.16287173611668884,-0.34722035175048066,-0.21289315777841877,-0.014818014668924184,-0.0006933547121762823,-0.045667226590004356
1215,1.0,300.37772,2431.8521,0.0,-0.012150007242967109,0.0,0.0,0.0,0.0,-0.1910810849957348,-0.34236882921167267,-0.2057723907131538,-0.014838720434717685,0.02120458679122978,-0.05569631224504804
1216,1.0,300.49231000000003,2533.9057,0.0,-0.01216000323038624,0.0,0.0,0.0,0.0,-0.17660112298417383,-0.3669934613569346,-0.2266494667010608,-0.008193589988994374,0.025746401330971974,-0.05843193552753304
1217,1.0,300.5921,2441.3738,0.0,-0.01217003220786328,0.0,0.0,0.0,0.0,-0.17389318169442083,-0.3471928825402697,-0.22103059972902178,-0.01009289893044157,-0.01639820555762688,-0.07314833134392823
1218,1.0,300.31195,2375.6265,0.0,-0.01218002819528241,0.0,0.0,0.0,0.0,-0.13319292128011787,-0.3563577195622687,-0.2325804754989058,-0.009564715363363912,-0.025412890060556977,-0.06801619324292563
1219,1.0,300.02612999999997,2374.1709,0.0,-0.012190024182701653,0.0,0.0,0.0,0.0,-0.17814679548171983,-0.3426048556899667,-0.2009370295134408,0.011424822469042188,-0.017774841593990284,-0.06888085832176144
1220,1.0,299.60672999999997,2509.0932,0.0,-0.012200020170121006,0.0,0.0,0.0,0.0,-0.17002691315534985,-0.35664896817101266,-0.2360258196814348,0.01137081015921159,0.0065012118465696545,-0.05328205845702975
1221,1.0,299.16593,2432.9559,0.0,-0.012210016157540249,0.0,0.0,0.0,0.0,-0.19870550828820682,-0.34541342284715065,-0.19543892168831983,0.008186764736320773,-0.0013108149045673587,-0.06666247084432364
1222,1.0,299.68802,2336.5763,0.0,-0.012220012144959824,0.0,0.0,0.0,0.0,-0.13998836413577587,-0.35417056855891366,-0.2161019181950988,-0.008112183449460172,0.002158840896886008,-0.03803203852846996
1223,1.0,300.03598,2348.346,0.0,-0.012230008132378956,0.0,0.0,0.0,0.0,-0.15169382445851484,-0.35291652970514964,-0.2092282017692158,0.00046194057873498554,0.01047299052385369,-0.05664821207799325
1224,1.0,299.55615,2561.5845,0.0,-0.012240004119798198,0.0,0.0,0.0,0.0,-0.16181427791482586,-0.3702404618323886,-0.24660298548781978,4.367765125014856e-05,0.004262580949358986,-0.04588996935948736
1225,1.0,300.3231,2654.2553,0.0,-0.012250033097275126,0.0,0.0,0.0,0.0,-0.19958824164282582,-0.37399622531555365,-0.23324287761927975,-0.0015513672670830285,-0.021541207726201682,-0.07396171178220264
1226,1.0,300.3852,2463.5828,0.0,-0.012260029084694368,0.0,0.0,0.0,0.0,-0.17834447044372884,-0.35928136153330964,-0.21124181342794382,-0.004977999456040295,-0.003766679429142317,-0.07125760361757794
1227,1.0,299.95826,2388.2712,0.0,-0.01227002507211361,0.0,0.0,0.0,0.0,-0.18805736431231682,-0.3477055972233707,-0.19021184813244782,0.0035913717604407966,0.030326628182005173,-0.07681023949683043
1228,1.0,300.67274,2424.5345,0.0,-0.012280021059532964,0.0,0.0,0.0,0.0,-0.18586312055826182,-0.3336149360327307,-0.2175198806500408,0.017653552517269983,0.04559968232508825,-0.05218436004069535
1229,1.0,299.91937,2503.4103,0.0,-0.012290017046952317,0.0,0.0,0.0,0.0,-0.17315919345448183,-0.3602167028331207,-0.2275983247572058,-0.008203837595205732,0.004045329691442957,-0.06263470543806414
1230,1.0,300.23028,2461.9323,0.0,-0.012300013034371782,0.0,0.0,0.0,0.0,-0.17786360221127082,-0.3451570401743477,-0.22534529223234878,-0.0059918097820205836,-0.02122076434232638,-0.049898067581305855
1231,1.0,299.69551,2400.631,0.0,-0.012310009021790913,0.0,0.0,0.0,0.0,-0.15232465370577283,-0.36165253901982664,-0.21575469765083077,-0.008203448405842322,-0.01058916876706959,-0.043376288378906364
1232,1.0,299.90862000000004,2469.901,0.0,-0.012320005009210155,0.0,0.0,0.0,0.0,-0.17918311728649683,-0.3650289416655516,-0.2065761614874798,0.0050596633610998955,-0.01144264553830119,-0.05609074720422575
1233,1.0,299.78655,2739.8925,0.0,-0.012330033986687083,0.0,0.0,0.0,0.0,-0.21624098677132378,-0.37223138682137763,-0.24438654142407376,-0.003908992128212487,-0.01044332256092569,-0.038079131353367664
1234,1.0,300.22789,2663.4699,0.0,-0.012340029974106326,0.0,0.0,0.0,0.0,-0.18032083502878082,-0.3923352719229766,-0.23697224593733976,0.0048339084017196155,0.0027942322013942474,-0.06605916450953193
1235,1.0,300.2795,2312.0307,0.0,-0.012350025961525457,0.0,0.0,0.0,0.0,-0.12696481742045188,-0.3518372055661287,-0.2239975885393408,0.006716190587161404,0.026894017513482877,-0.056155586091374846
1236,1.0,301.28371,2253.8403,0.0,-0.012360021948944921,0.0,0.0,0.0,0.0,-0.13176647792183888,-0.3476868824940237,-0.20565780225934482,0.004935193388340665,0.006244386991423014,-0.07273762054839422
1237,1.0,300.19862,2385.1031,0.0,-0.012370017936364275,0.0,0.0,0.0,0.0,-0.16876715957102184,-0.3517770894376957,-0.2044675474993758,-0.012664296865868788,-0.02385838404863918,-0.06953678374749624
1238,1.0,300.27792999999997,2529.6733,0.0,-0.012380013923783628,0.0,0.0,0.0,0.0,-0.1997084637671908,-0.3552488186528287,-0.2140002247051778,-0.004090373319338416,-0.02529171649434808,-0.07519845850976002
1239,1.0,299.67347,2482.277,0.0,-0.01239000991120287,0.0,0.0,0.0,0.0,-0.18149332751449682,-0.3671565946230346,-0.2059003236707798,-0.00997963064018786,0.023061236890216878,-0.053534766071720044
1240,1.0,299.85649,2382.5697,0.0,-0.012400005898622113,0.0,0.0,0.0,0.0,-0.16236505027168285,-0.35554918651247264,-0.20632747951543678,-0.002444788991706888,0.025728678573472875,-0.06710016854302103
1241,1.0,299.63394,2625.9168,0.0,-0.012410034876099041,0.0,0.0,0.0,0.0,-0.19010200168910682,-0.36802473717621365,-0.24008641945718476,-0.015300448372786685,0.008270180956103311,-0.04495440615790446
1242,1.0,299.91757,2737.9638,0.0,-0.012420030863518283,0.0,0.0,0.0,0.0,-0.2063929456043978,-0.3812327460722426,-0.24464692643477176,0.004804298092722306,-0.002760809234920657,-0.04576123998728275
1243,1.0,299.42325,2566.1696,0.0,-0.012430026850937415,0.0,0.0,0.0,0.0,-0.17805106361227183,-0.3639620703702596,-0.2380383572950568,0.021346482335233778,-0.003594439679093577,-0.046598799612693455
1244,1.0,300.43071000000003,2323.9964,0.0,-0.012440022838356879,0.0,0.0,0.0,0.0,-0.16009659608030385,-0.3422796936003757,-0.2040605958617128,0.020082323139470983,-0.007686533395776783,-0.05367183043924724
1245,1.0,299.88652,2235.8612,0.0,-0.012450018825776232,0.0,0.0,0.0,0.0,-0.16020001851801083,-0.3303633050043197,-0.1890826518235048,-0.01087777583280289,-0.021799933033235876,-0.06371778670845595
1246,1.0,300.28965,2390.5344,0.0,-0.012460014813195586,0.0,0.0,0.0,0.0,-0.15217651654115286,-0.35048438496011564,-0.22400186445476278,-0.0014976723071837485,-0.007667002797449263,-0.06831230038589914
1247,1.0,299.95684,2524.5502,0.0,-0.012470010800614828,0.0,0.0,0.0,0.0,-0.1891401031041748,-0.36011920790849866,-0.2181409016363308,-0.011008575274961789,0.029071763529409673,-0.07382003611347034
1248,1.0,299.76111000000003,2402.9243,0.0,-0.01248000678803396,0.0,0.0,0.0,0.0,-0.15524440479642984,-0.35862726806375567,-0.21655730318754177,-0.018453600610728583,0.0057290964239177945,-0.06912799407415184
1249,1.0,299.99273999999997,2350.3713,0.0,-0.012490035765510998,0.0,0.0,0.0,0.0,-0.18037129488376083,-0.33956491287244767,-0.19451798880493082,-0.023273642482179682,-0.0023693109785077877,-0.07146134490793564
1250,1.0,300.459,2571.2653,0.0,-0.01250003175293013,0.0,0.0,0.0,0.0,-0.19462348840534283,-0.36433810774737163,-0.2226388606852448,-0.005520899163595324,-0.007129298327131963,-0.05620086925159395
1251,1.0,299.9996,2632.7032,0.0,-0.012510027740349372,0.0,0.0,0.0,0.0,-0.19900348487761482,-0.3585506258261917,-0.24272192349728877,0.020719216688577482,0.01104021603583449,-0.04271725430186476
1252,1.0,299.95887999999997,2592.0432,0.0,-0.012520023727768947,0.0,0.0,0.0,0.0,-0.15751452071797284,-0.38085691134515065,-0.24954498755067278,0.017013724595873882,-0.002443824782911728,-0.05768252562107204
1253,1.0,299.63032000000004,2408.4483,0.0,-0.01253001971518819,0.0,0.0,0.0,0.0,-0.16379151389496385,-0.3473575762115237,-0.2209590541394608,-0.009164516328342342,-0.006072541902288224,-0.04714591514993955
1254,1.0,299.5153,2399.5591,0.0,-0.012540015702607543,0.0,0.0,0.0,0.0,-0.14910863841837685,-0.35946137554607566,-0.22083603544481978,0.0005873321024601654,-0.01664791597852138,-0.06862145920341074
1255,1.0,299.55241,2457.1926,0.0,-0.012550011690026786,0.0,0.0,0.0,0.0,-0.17355376317592283,-0.34812642025490265,-0.2252450007374508,-0.013081565416049986,0.011471675153666188,-0.06727297632107583
1256,1.0,299.32392000000004,2470.5143,0.0,-0.012560007677445917,0.0,0.0,0.0,0.0,-0.17403126741804884,-0.3608366396418037,-0.21610676153057679,0.01118443698881799,-0.0009125383089605191,-0.07356201704175583
1257,1.0,299.48639,2415.1448,0.0,-0.01257000366486527,0.0,0.0,0.0,0.0,-0.15441575873214886,-0.35336662553207066,-0.2263613287701238,-0.003960677610513446,-0.003029847502797667,-0.06088851175897824
1258,1.0,300.07211,2450.7537,0.0,-0.012580032642342087,0.0,0.0,0.0,0.0,-0.17861707525063283,-0.3427370949605177,-0.2236137491364588,0.006979749705122665,-0.0009466431319564031,-0.06151290484160104
1259,1.0,299.97146000000004,2510.1999,0.0,-0.01259002862976144,0.0,0.0,0.0,0.0,-0.19169119327844783,-0.3412917747528757,-0.23005511174467178,0.004429746748206965,0.014352414088972986,-0.050911343012558355
1260,1.0,300.28229,2656.1878,0.0,-0.012600024617180905,0.0,0.0,0.0,0.0,-0.2063225956499548,-0.36800972080973166,-0.2330824497309468,0.0029081930480913073,0.016611997275726487,-0.04675916467952025
1261,1.0,299.98582000000005,2688.3879,0.0,-0.012610020604600036,0.0,0.0,0.0,0.0,-0.2039139177772368,-0.37535268348942563,-0.23793619128747379,-0.02285197743981458,0.0033878916859588766,-0.03649016166579857
1262,1.0,299.67767000000003,2537.4897,0.0,-0.0126200165920195,0.0,0.0,0.0,0.0,-0.19963799222273582,-0.3555337749784517,-0.2161617404810028,-0.01183955485422309,-0.016757110902048088,-0.04576243562240075
1263,1.0,299.70817,2491.3736,0.0,-0.012630012579438632,0.0,0.0,0.0,0.0,-0.15304190305405985,-0.36242653037371364,-0.24184694150593478,-0.004906400873499066,-0.0003278241103862207,-0.04476329604329336
1264,1.0,300.28204,2544.8411,0.0,-0.012640008566857874,0.0,0.0,0.0,0.0,-0.17644566002133083,-0.37088385538088664,-0.22623864444801575,0.01207717112192399,-0.02204973262013918,-0.07334907341398991
1265,1.0,299.89444,2462.9232,0.0,-0.01265000455427745,0.0,0.0,0.0,0.0,-0.16282094188917584,-0.35964779329947366,-0.2261984285515468,0.0026205807913061876,-0.00939557129502069,-0.056146266216955044
1266,1.0,300.45624,2317.8944,0.0,-0.012660033531754045,0.0,0.0,0.0,0.0,-0.15432127316032385,-0.3589289835460327,-0.1913317630704748,0.00016509380371848985,-0.0043022592153249255,-0.1029810862284419
1267,1.0,299.59617000000003,2247.7564,0.0,-0.012670029519173398,0.0,0.0,0.0,0.0,-0.14812245222854786,-0.3413337841020217,-0.1938055726596208,0.001086495720578779,0.021677860714188278,-0.06131838615365354
1268,1.0,299.40598,2389.3202,0.0,-0.012680025506592862,0.0,0.0,0.0,0.0,-0.17051284763830785,-0.36161686248380565,-0.1941639794849928,0.0008488511021400811,0.02292549177431988,-0.0895678050211541
1269,1.0,299.24017000000003,2606.5527,0.0,-0.012690021494011994,0.0,0.0,0.0,0.0,-0.17003183755083584,-0.3788930300013306,-0.24340206762691377,-0.01037147704933509,0.011664275759174388,-0.03357886918697636
1270,1.0,299.26895,2571.7767,0.0,-0.012700017481431347,0.0,0.0,0.0,0.0,-0.19002227917123882,-0.3783239076851626,-0.2134097126793988,-0.0036170178297468664,-0.020381144779462377,-0.06140011085371915
1271,1.0,299.29539,2543.4986,0.0,-0.01271001346885059,0.0,0.0,0.0,0.0,-0.17938754049417183,-0.3687215391374827,-0.22505099374080376,-0.0029351830923300174,-0.01715598794966418,-0.029360243938880475
1272,1.0,299.65615,2567.6384,0.0,-0.012720009456269943,0.0,0.0,0.0,0.0,-0.1828156695575018,-0.38264174126379963,-0.2150405488478498,0.015459923806025686,-0.013158045533597989,-0.07146690866423473
1273,1.0,299.75791,2619.0574,0.0,-0.012730005443689407,0.0,0.0,0.0,0.0,-0.18880095816320383,-0.38318150972457066,-0.2241455737164458,-0.006178363716232024,-0.005339364566404254,-0.049614074856527954
1274,1.0,300.09717,2631.086,0.0,-0.012740034421166113,0.0,0.0,0.0,0.0,-0.19577542204652978,-0.3740953009103316,-0.2299137025607158,0.01009194059849699,0.0007277681204901214,-0.06795533946841983
1275,1.0,300.00257,2457.6891,0.0,-0.012750030408585356,0.0,0.0,0.0,0.0,-0.15682358547478284,-0.36478457613893467,-0.22546795628945476,0.01951440355117168,0.015498493171082183,-0.06446030550098684
1276,1.0,299.92431,2250.1993,0.0,-0.012760026396004709,0.0,0.0,0.0,0.0,-0.15654602587488986,-0.3291638701984447,-0.19829451378264482,0.00033434410120219363,-0.005969122504331525,-0.04817396174114986
1277,1.0,300.23287999999997,2475.1435,0.0,-0.012770022383423951,0.0,0.0,0.0,0.0,-0.16002257816049884,-0.3635344180330537,-0.2288248234732518,0.0008734102276663782,-0.02069631824956758,-0.06464008443972964
1278,1.0,299.73695,2644.5556,0.0,-0.012780018370843305,0.0,0.0,0.0,0.0,-0.20399786554802182,-0.3756613194698857,-0.22421967269625878,-0.015960522044430884,-0.013133501576425687,-0.05107801758775785
1279,1.0,300.32603,2642.3215,0.0,-0.012790014358262547,0.0,0.0,0.0,0.0,-0.2100313240634778,-0.37809067777714467,-0.21507777565652378,-0.008651067342893873,0.014847382709822587,-0.06361001844107005
1280,1.0,300.2061,2527.4407,0.0,-0.0128000103456819,0.0,0.0,0.0,0.0,-0.1831923756796798,-0.37302988869518366,-0.21205659823085682,-0.007161459695906043,0.011159364115093488,-0.044697282799278364
1281,1.0,299.75513,2510.8572,0.0,-0.012810006333101254,0.0,0.0,0.0,0.0,-0.17547280820281783,-0.37180195116399567,-0.2159631434614028,0.0008616925576799341,0.013124265801764188,-0.04717324453163675
1282,1.0,299.17527,2694.0397,0.0,-0.01282003531057807,0.0,0.0,0.0,0.0,-0.19518730129098683,-0.38304522758612064,-0.24068825961908175,0.00964920856667774,0.004405895752778055,-0.03616413730037246
1283,1.0,299.54146000000003,2656.3685,0.0,-0.012830031297997313,0.0,0.0,0.0,0.0,-0.17295709058953584,-0.3904730094316856,-0.24403958432483178,0.017296167047998783,-0.0025824110520891275,-0.07940415063357953
1284,1.0,300.19726,2513.0086,0.0,-0.012840027285416666,0.0,0.0,0.0,0.0,-0.16465673828785485,-0.37167556847902267,-0.22755955780837975,0.0023781835030084377,-0.008475309081872882,-0.07053164335818123
1285,1.0,300.47135,2316.868,0.0,-0.012850023272835909,0.0,0.0,0.0,0.0,-0.14993087060952487,-0.35244398025601265,-0.2018951790730028,-0.014293226097631588,-0.014062594162869988,-0.08762149140756792
1286,1.0,300.24967000000004,2370.2897,0.0,-0.012860019260255262,0.0,0.0,0.0,0.0,-0.14732020132937187,-0.3579435370287767,-0.21524513417554078,-0.0036241684370275765,-0.005042051554486745,-0.06903281949225883
1287,1.0,300.18967999999995,2486.4825,0.0,-0.012870015247674504,0.0,0.0,0.0,0.0,-0.17427543029464584,-0.35545548114322467,-0.2260976810941038,0.0064171666011250345,0.0036506637112424566,-0.06526025530918574
1288,1.0,299.85517999999996,2512.4134,0.0,-0.012880011235093858,0.0,0.0,0.0,0.0,-0.17127957398897783,-0.35911985959987064,-0.23331149491605177,0.01105567823236049,-0.00025686311547041575,-0.03536036348629617
1289,1.0,299.9916,2469.6343,0.0,-0.012890007222513211,0.0,0.0,0.0,0.0,-0.16540141631634883,-0.3688437573645446,-0.21646196648563276,0.012567667256832189,-0.015139869510188786,-0.06688036014582764
1290,1.0,299.50746000000004,2670.6064,0.0,-0.012900036199990028,0.0,0.0,0.0,0.0,-0.2132087243895628,-0.37153134245978864,-0.2270575937088398,0.0015065826259131286,0.0006617814742902464,-0.03690211065295476
1291,1.0,299.24014,2731.0793,0.0,-0.01291003218740927,0.0,0.0,0.0,0.0,-0.2109759872642088,-0.39040936719290464,-0.22879455769276477,0.0016234124902683384,0.019773482482490782,-0.07935964463618712
1292,1.0,299.39718,2724.3215,0.0,-0.012920028174828624,0.0,0.0,0.0,0.0,-0.2185956888112148,-0.3638237921291127,-0.2457062084868148,-0.007741393390641043,0.004891963376799196,-0.041120529198030255
1293,1.0,299.7871,2529.7442,0.0,-0.012930024162247866,0.0,0.0,0.0,0.0,-0.17231402128106985,-0.35410964183040067,-0.2425554059758548,-0.02085442984817198,-0.001099470084134249,-0.06456203986402724
1294,1.0,299.85981,2339.8991,0.0,-0.01294002014966722,0.0,0.0,0.0,0.0,-0.15215264436879686,-0.34398702001887566,-0.21513122459929881,-0.02061485395477768,-0.0007204581593661843,-0.04388013712363237
1295,1.0,300.33342999999996,2422.2916,0.0,-0.012950016137086573,0.0,0.0,0.0,0.0,-0.14043149893450987,-0.35871804514021466,-0.23716661770402278,-0.014773328313013987,0.004008020708185846,-0.08323007965966933
1296,1.0,300.17517000000004,2557.0036,0.0,-0.012960012124505815,0.0,0.0,0.0,0.0,-0.19718559260820281,-0.35908794222172064,-0.2209917213226848,-0.012974783041011389,-0.0018254487846827683,-0.056955135665784244
1297,1.0,299.44926,2472.8699,0.0,-0.012970008111925169,0.0,0.0,0.0,0.0,-0.17015931454591685,-0.36099851647777964,-0.2205328608823988,0.003426909312859617,-0.019698181788059183,-0.08003577730866622
1298,1.0,299.67137,2405.7191,0.0,-0.012980004099344411,0.0,0.0,0.0,0.0,-0.16178049615649184,-0.36439578194306366,-0.20510224736201582,0.01009754984972558,0.012124889122133388,-0.05802245684412064
1299,1.0,300.01472,2528.0982,0.0,-0.012990033076821117,0.0,0.0,0.0,0.0,-0.15994501386534385,-0.3887977523788506,-0.2197359599437508,0.009509216919611641,0.01162226033052779,-0.059542655220902546
1300,1.0,300.28296,2780.2681,0.0,-0.013000029064240581,0.0,0.0,0.0,0.0,-0.19618808841475682,-0.39306599749759363,-0.25587798306069076,0.0036652133747283964,0.0026662185890602872,-0.05280932763612485
1301,1.0,300.13175,2815.9574,0.0,-0.013010025051659713,0.0,0.0,0.0,0.0,-0.1965992653053368,-0.4039970915639086,-0.25538435800947373,-0.0007669331144854052,-0.018204060415850883,-0.049063651057705354
1302,1.0,300.44953,2645.4693,0.0,-0.013020021039079177,0.0,0.0,0.0,0.0,-0.2011587894303268,-0.37672252669711864,-0.22627530383663377,0.003602531595717187,-0.0029677521929443377,-0.06773863465628273
1303,1.0,300.51232000000005,2585.9368,0.0,-0.01303001702649853,0.0,0.0,0.0,0.0,-0.17863233479713883,-0.38088297213772265,-0.2265449094232418,0.012813361154330289,-0.00026215633399281576,-0.060508030266927644
1304,1.0,301.09013999999996,2584.825,0.0,-0.013040013013917773,0.0,0.0,0.0,0.0,-0.19319780498463882,-0.36359308521384365,-0.22893137685376777,-0.014431447596772987,0.01133578007675439,-0.06806852153109003
1305,1.0,300.23942,2577.576,0.0,-0.013050009001337126,0.0,0.0,0.0,0.0,-0.17636172238304682,-0.3707779910104387,-0.23637901840129277,-0.009252019492403231,-0.008060560180715352,-0.05771935523570685
1306,1.0,299.52889,2507.3157,0.0,-0.013060004988756257,0.0,0.0,0.0,0.0,-0.16992384535517785,-0.3587522929935947,-0.23348523691069878,-0.015395696921936985,0.015097063746464186,-0.06191557549759153
1307,1.0,299.69607,2517.8057,0.0,-0.013070033966233074,0.0,0.0,0.0,0.0,-0.16714983002640385,-0.38001123254668867,-0.2181890107510788,0.008090872064081902,0.022661628276028578,-0.06371970985714573
1308,1.0,299.87957,2545.9485,0.0,-0.013080029953652428,0.0,0.0,0.0,0.0,-0.1989944669517248,-0.3656075986651606,-0.20930270604906878,-0.012156537989006887,-0.0030023328989821872,-0.05659477022796895
1309,1.0,299.88597999999996,2717.1752,0.0,-0.01309002594107167,0.0,0.0,0.0,0.0,-0.1990597911856718,-0.3924513701194346,-0.23444225163014878,0.0027074876576832275,-0.024258334128111177,-0.05400053282468765
1310,1.0,300.12245,2803.0669,0.0,-0.013100021928491246,0.0,0.0,0.0,0.0,-0.22418116919245878,-0.3825877755634736,-0.24529341039607477,0.003047088763849247,-0.0012830894434060689,-0.043345057984324156
1311,1.0,299.81791,2692.9642,0.0,-0.013110017915910488,0.0,0.0,0.0,0.0,-0.17195535101067183,-0.38688025762460865,-0.25975827498114573,0.026139617350279375,-0.006777983036559843,-0.06355938329382274
1312,1.0,299.45372000000003,2597.8032,0.0,-0.01312001390332962,0.0,0.0,0.0,0.0,-0.17220204701251884,-0.3833687482105496,-0.23409651043102678,-0.002070259432068698,0.002095740240283458,-0.04349151518027836
1313,1.0,299.97999,2578.6088,0.0,-0.013130009890749084,0.0,0.0,0.0,0.0,-0.17622996947254382,-0.38023987243175367,-0.2273628454339658,-0.009018058625763091,-0.018539886962744383,-0.06966052387620844
1314,1.0,299.80991,2546.1123,0.0,-0.013140005878168215,0.0,0.0,0.0,0.0,-0.1955344306427458,-0.37046698402474465,-0.20795314810837778,-0.010371068709544792,0.020331832936845682,-0.057536393678399946
1315,1.0,300.53617,2472.3355,0.0,-0.013150034855645032,0.0,0.0,0.0,0.0,-0.16346100184484486,-0.38300617692726663,-0.2050610790104528,-0.004137754008589526,0.02177070887385168,-0.0969508062785496
1316,1.0,300.46398999999997,2388.1483,0.0,-0.013160030843064385,0.0,0.0,0.0,0.0,-0.15341438392332085,-0.36677165077754365,-0.20575140630358282,-0.016015557736862484,0.017477874201681884,-0.06307321171034135
1317,1.0,300.65188,2457.9892,0.0,-0.01317002683048385,0.0,0.0,0.0,0.0,-0.14297664133069587,-0.37083946489400565,-0.23335122445247278,-0.017986975634926284,-0.018368219091052084,-0.07828394185302352
1318,1.0,300.48556,2673.8235,0.0,-0.013180022817903203,0.0,0.0,0.0,0.0,-0.18160753093326784,-0.3803228778799456,-0.25084516981399074,-0.007016029226278173,-0.0032716274178094867,-0.045641649117730054
1319,1.0,300.18976000000004,2779.688,0.0,-0.013190018805322334,0.0,0.0,0.0,0.0,-0.21398817716148882,-0.3936319787384516,-0.2373355974231998,0.016554325106534682,-0.006609561212887903,-0.06859198274475165
1320,1.0,299.75877,2748.9537,0.0,-0.013200014792741577,0.0,0.0,0.0,0.0,-0.2174677185348928,-0.38744317885016466,-0.2307023860410528,0.008934590223600401,-0.002940580270312677,-0.04184057309009306
1321,1.0,299.344,2627.5411,0.0,-0.01321001078016093,0.0,0.0,0.0,0.0,-0.19739215377358882,-0.37945016556881567,-0.2218645754888288,0.017017558734252283,-0.0071658602410903435,-0.060942449088301445
1322,1.0,299.6694,2731.3834,0.0,-0.013220006767580172,0.0,0.0,0.0,0.0,-0.1993375331705828,-0.3859727401725436,-0.24496208774587575,0.002526150036311598,0.01131195856690339,-0.04271174222132076
1323,1.0,299.98046,2701.6628,0.0,-0.01323003574505699,0.0,0.0,0.0,0.0,-0.17742257497274483,-0.3897495589927866,-0.25406590684685276,0.01198410713998929,0.006905010249921453,-0.06398772565434685
1324,1.0,299.93097,2522.2545,0.0,-0.013240031732476343,0.0,0.0,0.0,0.0,-0.15279829746501786,-0.37205153492862764,-0.24185256504398975,-0.005648543243617814,-0.007170703475243333,-0.04590115260084105
1325,1.0,300.41211,2353.1102,0.0,-0.013250027719895696,0.0,0.0,0.0,0.0,-0.15440340721342985,-0.3534394782142607,-0.2074438582106148,-0.017529730315299683,-0.02992596680096297,-0.06726820695285514
1326,1.0,300.60818,2536.5471,0.0,-0.01326002370731516,0.0,0.0,0.0,0.0,-0.18550052900997682,-0.36909084853393065,-0.2164556032750048,-0.01045527789885559,0.004858374034659186,-0.060259880251187135
1327,1.0,300.02089,2687.0844,0.0,-0.013270019694734292,0.0,0.0,0.0,0.0,-0.2034360994275798,-0.38657266529175166,-0.22679780651570078,-0.008035859271102562,0.007190728438294643,-0.0899883585281595
1328,1.0,300.01195,2742.1175,0.0,-0.013280015682153534,0.0,0.0,0.0,0.0,-0.18497109570022582,-0.3971511381907656,-0.25141301543503275,-0.005786803043612994,0.02130333510622548,-0.07237366516547464
1329,1.0,299.37397999999996,2686.7232,0.0,-0.013290011669572888,0.0,0.0,0.0,0.0,-0.17219761910958184,-0.3953520721082116,-0.24914708423640278,-0.007540925506056403,-0.013982511941216486,-0.06894389868998303
1330,1.0,299.29235,2653.1982,0.0,-0.013300007656992241,0.0,0.0,0.0,0.0,-0.18656909243293582,-0.37815191861318864,-0.24178497112981878,0.01007718463729069,0.006021917292841964,-0.06075864450691135
1331,1.0,299.4912,2654.7188,0.0,-0.013310036634468947,0.0,0.0,0.0,0.0,-0.2091233405163668,-0.3695336185626287,-0.22831127792506878,0.015700381227006985,0.005640341592008375,-0.06088286998242145
1332,1.0,299.41551,2565.3342,0.0,-0.0133200326218883,0.0,0.0,0.0,0.0,-0.1972804733475668,-0.37237353567790665,-0.2101435313795518,0.007891513789681772,-0.0024743310076474575,-0.058509426868680846
1333,1.0,300.19254,2581.1882,0.0,-0.013330028609307654,0.0,0.0,0.0,0.0,-0.17602087518190784,-0.38291162042793464,-0.2256842649208028,-0.007998073047048353,-0.0075483305404372225,-0.059749701733086434
1334,1.0,300.39288999999997,2573.8411,0.0,-0.013340024596727007,0.0,0.0,0.0,0.0,-0.16706103892014085,-0.36858847913435067,-0.24673390753324076,-0.00979742486613055,-0.008384854624245722,-0.06627019714760923
1335,1.0,299.68284,2625.8308,0.0,-0.01335002058414625,0.0,0.0,0.0,0.0,-0.16869966698186084,-0.37572773801394066,-0.25375960134162273,0.0049823687931215156,-0.005226718006411905,-0.05616146598170515
1336,1.0,299.80122,2632.1553,0.0,-0.013360016571565492,0.0,0.0,0.0,0.0,-0.18878085528121982,-0.3679644082652596,-0.24336423286817974,-0.011868551032334789,-0.017897539088349585,-0.06387216346719174
1337,1.0,299.44603,2652.4190000000003,0.0,-0.013370012558984845,0.0,0.0,0.0,0.0,-0.19396794598814582,-0.3777254112485956,-0.23457577772832677,-0.007120282630392182,-0.018690675802876082,-0.049972430006144854
1338,1.0,300.09524,2733.0182,0.0,-0.013380008546404198,0.0,0.0,0.0,0.0,-0.21008577612385182,-0.39099268514297364,-0.2296908382012208,-0.004627917290839876,0.01057263252543759,-0.08314673882569422
1339,1.0,300.306,2732.4141,0.0,-0.013390004533823663,0.0,0.0,0.0,0.0,-0.1954494696218608,-0.39151401245192463,-0.24362216581363577,0.019280178631555484,0.02907235830721837,-0.06065758294193735
1340,1.0,299.79918,2589.3069,0.0,-0.013400033511300369,0.0,0.0,0.0,0.0,-0.18027280697404083,-0.38127399548381363,-0.22553783001635078,0.003474068302988846,0.015763114580448285,-0.08252604410593642
1341,1.0,299.88546,2564.5787,0.0,-0.013410029498719611,0.0,0.0,0.0,0.0,-0.17087002843105883,-0.3648043345158846,-0.24389351419041577,-0.017908241035905784,-0.012690242147929387,-0.03881672777691276
1342,1.0,301.05591,2580.8725,0.0,-0.013420025486138965,0.0,0.0,0.0,0.0,-0.19488503865365583,-0.3762813576035786,-0.2133543892239388,-0.00911615542094449,-0.0005994275931438974,-0.062473360558390645
1343,1.0,300.85016,2595.478,0.0,-0.013430021473558207,0.0,0.0,0.0,0.0,-0.18834590754329383,-0.37521924858375666,-0.22539535691978976,0.006582868456228534,-0.0026107121406322275,-0.05582957287169985
1344,1.0,300.41562000000005,2641.9973,0.0,-0.013440017460977338,0.0,0.0,0.0,0.0,-0.20415665197119282,-0.3796003292336356,-0.21934421719008876,-0.0024539694429129275,0.0013898449673170187,-0.08211892933500732
1345,1.0,300.16924,2685.5768,0.0,-0.013450013448396803,0.0,0.0,0.0,0.0,-0.17428248251534184,-0.40092395467311365,-0.24114185115884776,-0.0026191314383631472,-0.006752163600161664,-0.07337524161107252
1346,1.0,299.9148,2671.1563,0.0,-0.013460009435816156,0.0,0.0,0.0,0.0,-0.17350802506640883,-0.39904965477063464,-0.2394071365901448,-0.002957232833056157,0.006440926201394925,-0.08707340011047551
1347,1.0,300.05452,2709.7448,0.0,-0.01347000542323551,0.0,0.0,0.0,0.0,-0.17877820228153482,-0.39484896303605865,-0.2500676016872508,-0.005629992356811985,0.014210194304936986,-0.06389054382400573
1348,1.0,300.20574,2634.8940000000002,0.0,-0.013480034400712326,0.0,0.0,0.0,0.0,-0.2022536264283788,-0.3800034305209186,-0.21868492574752177,-0.0046682926728746155,-0.007047762395559993,-0.05649233266935915
1349,1.0,299.9101,2596.5093,0.0,-0.013490030388131569,0.0,0.0,0.0,0.0,-0.18762172756432283,-0.37577659693376264,-0.2258756678646928,-0.0039666788882057255,-0.0023097957073840874,-0.05402269767062515
1350,1.0,299.53888,2700.1421,0.0,-0.013500026375550922,0.0,0.0,0.0,0.0,-0.19782580455138682,-0.39818796662059264,-0.2247620046797828,-0.0052461873031083755,-0.001120740432883469,-0.06257619429778953
1351,1.0,299.6873,2855.8618,0.0,-0.013510022362970164,0.0,0.0,0.0,0.0,-0.19441183059195383,-0.4144084187264266,-0.25929042701247274,-0.0019443893503212882,0.005200351617609745,-0.05829015042778994
1352,1.0,299.81858,2826.6426,0.0,-0.013520018350389296,0.0,0.0,0.0,0.0,-0.1983299167411388,-0.4079893273554116,-0.2529095351702278,0.0035178625935110065,-0.015229826867316885,-0.057797920621960645
1353,1.0,300.01979,2617.6683,0.0,-0.013530014337808871,0.0,0.0,0.0,0.0,-0.18468014093401083,-0.37606618381234264,-0.23495946514369379,-0.0033537623828405767,-0.012083818042579988,-0.05340052765872174
1354,1.0,300.58004,2581.916,0.0,-0.013540010325228113,0.0,0.0,0.0,0.0,-0.17971720141420683,-0.38625272144017564,-0.21886808083559778,0.02072435690633478,-0.001745989711840768,-0.055655326278503045
1355,1.0,300.51599,2676.4238,0.0,-0.013550006312647467,0.0,0.0,0.0,0.0,-0.19218715893739582,-0.38884702673121363,-0.23253182936160477,0.004410086352541635,0.02431252274345918,-0.06447508172719514
1356,1.0,300.91026,2704.7347,0.0,-0.013560035290124284,0.0,0.0,0.0,0.0,-0.1939248321963908,-0.3993519376729676,-0.22889504170518177,0.007479330741752473,0.012782751882059386,-0.07485161185477893
1357,1.0,300.91406,2644.7332,0.0,-0.013570031277543415,0.0,0.0,0.0,0.0,-0.17976867451928683,-0.3754105907326406,-0.24875359869256874,-0.020991957270994878,0.001810709136803078,-0.06943511828546264
1358,1.0,300.85165,2608.639,0.0,-0.01358002726496288,0.0,0.0,0.0,0.0,-0.16594184338968485,-0.39226909655894565,-0.23475019860054075,-0.00821384435186832,-0.000952637124380464,-0.06959547119328824
1359,1.0,299.94282000000004,2640.1321,0.0,-0.01359002325238201,0.0,0.0,0.0,0.0,-0.1842392758155008,-0.38445440516269563,-0.23384057358826776,-0.02119969380649688,0.009024649311038541,-0.050432027079253545
1360,1.0,299.69591,2759.3331,0.0,-0.013600019239801475,0.0,0.0,0.0,0.0,-0.19891836173671382,-0.3925486927915397,-0.24730129719173777,-0.009807712698370882,-0.02063080251135168,-0.04743066375929205
1361,1.0,299.68872999999996,2790.2058,0.0,-0.013610015227220829,0.0,0.0,0.0,0.0,-0.2055165855929078,-0.3960913495136726,-0.24654497691959476,-0.0006501051651728844,-0.0059627513903527446,-0.043947274062008254
1362,1.0,300.1948,2700.2319,0.0,-0.013620011214640071,0.0,0.0,0.0,0.0,-0.17715528972886582,-0.39897862593862465,-0.24466917740696778,0.017949420533219882,0.0021566350514183076,-0.06630791031633124
1363,1.0,299.96717,2636.632,0.0,-0.013630007202059424,0.0,0.0,0.0,0.0,-0.15752510918151785,-0.40593901577806163,-0.2380061663393798,0.014179348945392786,0.02009020318549868,-0.07651256789570252
1364,1.0,300.46729,2708.2531,0.0,-0.013640036179536241,0.0,0.0,0.0,0.0,-0.18440340206669883,-0.4035341781232226,-0.23530374726267175,0.0012524737876595388,-0.013610441438245987,-0.07481138075955844
1365,1.0,300.28667,2688.8182,0.0,-0.013650032166955373,0.0,0.0,0.0,0.0,-0.1925740684880808,-0.3822786633554666,-0.2424808712984988,-0.007261789086357783,-0.0011708771624065787,-0.06108775117914165
1366,1.0,300.29400000000004,2614.826,0.0,-0.013660028154374837,0.0,0.0,0.0,0.0,-0.1956764376442608,-0.37925967455001564,-0.2199057097330038,0.0072169883345112925,-0.0008510247465196032,-0.06084391760882714
1367,1.0,300.02376,2643.2475,0.0,-0.013670024141793968,0.0,0.0,0.0,0.0,-0.17590298353277284,-0.39109969448603465,-0.23647853982611478,-0.00890398794275519,0.029051971715206373,-0.06026076076552404
1368,1.0,299.93678,2799.0753,0.0,-0.013680020129213322,0.0,0.0,0.0,0.0,-0.1978038980842248,-0.40271868404523964,-0.2503264262927948,-0.0016413884589674284,0.002622771944647438,-0.061482378655838346
1369,1.0,300.22795,2919.3839,0.0,-0.013690016116632786,0.0,0.0,0.0,0.0,-0.2021269397683758,-0.4074992385470436,-0.2777936404010978,-0.02304029503715008,-0.007819730795622343,-0.056120684691680356
1370,1.0,300.31925,2792.8091,0.0,-0.013700012104051917,0.0,0.0,0.0,0.0,-0.21944271523230982,-0.3924653023083096,-0.23703621241615278,-0.0017741117590911986,-0.013771736668664587,-0.05587007754444735
1371,1.0,299.80553,2621.8516,0.0,-0.013710008091471382,0.0,0.0,0.0,0.0,-0.18179537736930682,-0.3871518187839096,-0.22803021247982974,0.002162522642449368,0.0026262841734690677,-0.05194484899530745
1372,1.0,300.09886,2682.2363,0.0,-0.013720037068948088,0.0,0.0,0.0,0.0,-0.20549836735610982,-0.38871538527822164,-0.22111909699275578,0.017366213027411783,-0.01891245598476408,-0.06553286720884044
1373,1.0,299.64538,2846.6065,0.0,-0.01373003305636733,0.0,0.0,0.0,0.0,-0.2024536116006158,-0.4092827107105586,-0.25356097392451976,0.006772761353494503,-0.005600583076634515,-0.05451046816276435
1374,1.0,300.29502,2719.3811,0.0,-0.013740029043786683,0.0,0.0,0.0,0.0,-0.1978125816375818,-0.4008511222559256,-0.22796023742792376,0.023835238376604877,-0.012075367536745988,-0.08626756838544611
1375,1.0,299.63698999999997,2456.5079,0.0,-0.013750025031205926,0.0,0.0,0.0,0.0,-0.14444365522297886,-0.3763386467642326,-0.2259347707430258,0.01933381401234888,0.02063392636140998,-0.07124471304980573
1376,1.0,300.03893,2465.2544,0.0,-0.01376002101862528,0.0,0.0,0.0,0.0,-0.1749780584439898,-0.3742489096254916,-0.2001488121281498,-0.002174026070834668,-0.006061606704559005,-0.0922669553530395
1377,1.0,300.28675,2702.0864,0.0,-0.013770017006044744,0.0,0.0,0.0,0.0,-0.1879454407062708,-0.38140818019455663,-0.25201317360176373,-0.016338295118964185,-0.0017355300323834786,-0.05178440388172275
1378,1.0,300.66245,2818.9335,0.0,-0.013780012993463875,0.0,0.0,0.0,0.0,-0.21943741593428678,-0.3904911567409766,-0.24695681242273976,-0.01038598273776669,-0.01033781890751329,-0.06858428305724174
1379,1.0,300.21012,2812.7909999999997,0.0,-0.013790008980883228,0.0,0.0,0.0,0.0,-0.18594108002095583,-0.4018956412540116,-0.26718151746626273,-0.016851191173833085,0.024414471915520777,-0.055709077169807844
1380,1.0,300.56654,2767.574,0.0,-0.01380000496830247,0.0,0.0,0.0,0.0,-0.18862222084556382,-0.4108257791553476,-0.24182538967630776,-0.008458086059323102,-0.008680040824203332,-0.06807850913732573
1381,1.0,299.83733,2701.8869,0.0,-0.013810033945779288,0.0,0.0,0.0,0.0,-0.17450815357761384,-0.3993348542762816,-0.24746315376271177,-0.019083666880661283,0.00048783362775293055,-0.06531006769735184
1382,1.0,299.57347999999996,2800.353,0.0,-0.013820029933198641,0.0,0.0,0.0,0.0,-0.22603173877759578,-0.3965599776849226,-0.22864566059056982,0.00975479702912351,0.0037504200074376364,-0.06418050357862254
1383,1.0,299.89946000000003,2763.2721,0.0,-0.013830025920617994,0.0,0.0,0.0,0.0,-0.2065067133256258,-0.3857378890643656,-0.2477211171056708,0.015723059790745186,0.0035030676221758567,-0.058400612927191745
1384,1.0,299.81207,2482.794,0.0,-0.013840021908037237,0.0,0.0,0.0,0.0,-0.17485688386453083,-0.37899343295373966,-0.2008570536830478,0.029470470351008974,-0.006555260329428823,-0.060931265846947746
1385,1.0,300.17093,2503.5046,0.0,-0.01385001789545659,0.0,0.0,0.0,0.0,-0.16844587822931384,-0.37495199373738064,-0.2176050139234428,0.015164083147828486,-0.01033375374811209,-0.06328800755929004
1386,1.0,299.75641,2747.3604,0.0,-0.013860013882875832,0.0,0.0,0.0,0.0,-0.1933828548504018,-0.38703751404012865,-0.25470859112028077,0.01808035879064248,-0.013530398733346386,-0.06757533825691664
1387,1.0,299.82809,2822.3181,0.0,-0.013870009870295186,0.0,0.0,0.0,0.0,-0.19471198566907683,-0.39785520515525163,-0.2653470382927138,-0.015685844127822285,0.00975618872813586,-0.06668814660185764
1388,1.0,299.93979,2740.8307,0.0,-0.013880005857714428,0.0,0.0,0.0,0.0,-0.19214146135788582,-0.39038551528555065,-0.25061712774648476,-0.016803808559406785,-0.0040250382436153465,-0.061605485503238036
1389,1.0,299.90186,2639.1098,0.0,-0.013890034835191245,0.0,0.0,0.0,0.0,-0.1854646396914348,-0.3870427120131416,-0.22971613905621777,-0.02119525374455868,0.010714629394451591,-0.05918797006314785
1390,1.0,300.10393999999997,2703.514,0.0,-0.013900030822610598,0.0,0.0,0.0,0.0,-0.18533139730328482,-0.40018341070502766,-0.23628594124710678,-0.015391530437525785,0.017007983520807284,-0.06379997142406695
1391,1.0,300.42485,2831.4614,0.0,-0.013910026810029952,0.0,0.0,0.0,0.0,-0.2106883762233238,-0.39820372265964765,-0.25180146512586976,0.0014636168699977384,0.02074662510378248,-0.06520126794136415
1392,1.0,300.32952,2792.9983,0.0,-0.013920022797449194,0.0,0.0,0.0,0.0,-0.1772041689136898,-0.42174560588055054,-0.2500519672382078,-0.010084098954648079,0.0015414350856277983,-0.06863184197718544
1393,1.0,300.06147000000004,2594.9608,0.0,-0.013930018784868547,0.0,0.0,0.0,0.0,-0.17085661299973484,-0.3869956262809946,-0.2309510477480938,-0.008457402318155623,0.00013049777733912786,-0.06400449697000204
1394,1.0,299.70058,2530.5549,0.0,-0.01394001477228779,0.0,0.0,0.0,0.0,-0.16957742527848885,-0.3912491894057886,-0.20839887682736782,0.00969100847702807,-0.016116441983068986,-0.06957139333116194
1395,1.0,299.4945,2745.5977,0.0,-0.013950010759707143,0.0,0.0,0.0,0.0,-0.20174194526037978,-0.4090060529032546,-0.2238451349292948,0.0059717005165609545,0.0018530078701776385,-0.07597438213158772
1396,1.0,299.95479,2899.5101,0.0,-0.013960006747126497,0.0,0.0,0.0,0.0,-0.21526701024519979,-0.40695622768595263,-0.25915543170164973,0.02078478410254848,-0.01029513169405039,-0.05927165540215694
1397,1.0,299.52687000000003,2722.6781,0.0,-0.013970035724603092,0.0,0.0,0.0,0.0,-0.18877982176611782,-0.4027681205176186,-0.2360782148441058,0.0014748461129059788,-0.01039008133442119,-0.08145356953759142
1398,1.0,299.18295,2694.2076,0.0,-0.013980031712022556,0.0,0.0,0.0,0.0,-0.16735081831623985,-0.39979744347693563,-0.25182358437555274,0.009459999613229271,-0.0007690199030663553,-0.06662289633516794
1399,1.0,299.59949,2842.3384,0.0,-0.01399002769944191,0.0,0.0,0.0,0.0,-0.19782410229121883,-0.39600881016052664,-0.2701669778259047,-0.009551913758950491,0.004718314398511375,-0.07610509544748813
1400,1.0,299.47327,2897.1681,0.0,-0.014000023686861152,0.0,0.0,0.0,0.0,-0.21412311167730577,-0.40320513528574864,-0.26333851314948775,-0.013688993652248488,-0.0008913906850634111,-0.05028341470033665
1401,1.0,299.66437,2908.5746,0.0,-0.014010019674280505,0.0,0.0,0.0,0.0,-0.2129494438214738,-0.40923914095625863,-0.2619454563820038,-0.01029893138192539,-0.001094413358185189,-0.06063564911702264
1402,1.0,299.48767000000004,2762.3169,0.0,-0.014020015661699636,0.0,0.0,0.0,0.0,-0.1986288153881378,-0.4052499854450596,-0.23579656171380878,0.0007054271210227363,0.01018347558603079,-0.04338785158904755
1403,1.0,299.94434,2571.8124,0.0,-0.0140300116491191,0.0,0.0,0.0,0.0,-0.17317180841822682,-0.39065512087215865,-0.2179398322864868,0.014430175967897486,0.010116163862012641,-0.07359966840222172
1404,1.0,300.563,2851.5018,0.0,-0.014040007636538454,0.0,0.0,0.0,0.0,-0.20489575712413682,-0.4110541251978836,-0.25083546287803277,-0.0026714615503777273,0.004157965105684207,-0.06437859903942304
1405,1.0,300.74416,2992.6207,0.0,-0.014050036614015049,0.0,0.0,0.0,0.0,-0.2142263111999908,-0.4247181776989206,-0.2707374680297078,0.0054545727239744156,-0.007611072911804413,-0.06471258755063515
1406,1.0,299.7528,2718.6396,0.0,-0.014060032601434624,0.0,0.0,0.0,0.0,-0.18645908386957882,-0.3957689535968546,-0.24417051650275376,0.005950640518532495,-0.006733586368853234,-0.05835210763165465
1407,1.0,300.39673999999997,2670.3945,0.0,-0.014070028588853867,0.0,0.0,0.0,0.0,-0.1858909444060078,-0.3952337346290326,-0.2306085692142938,0.018998122227718683,0.0061045715485493045,-0.05624587782103595
1408,1.0,299.79579,2814.3438,0.0,-0.014080024576272998,0.0,0.0,0.0,0.0,-0.2155245277581148,-0.39142631565576963,-0.24853939762142874,0.00896639047003884,0.0007171704667667143,-0.06581053319999394
1409,1.0,299.85084,2907.0617,0.0,-0.014090020563692462,0.0,0.0,0.0,0.0,-0.2074894848626178,-0.4098070575048076,-0.26637762510192475,0.0037866614303893866,-0.015612208203304985,-0.05812877717711364
1410,1.0,299.95378999999997,2838.2774,0.0,-0.014100016551111594,0.0,0.0,0.0,0.0,-0.18467890476888882,-0.4277668344672996,-0.25031971857713275,-0.016402534162054085,0.0027400721596990674,-0.08756974573821101
1411,1.0,299.23704,2675.1888,0.0,-0.014110012538531058,0.0,0.0,0.0,0.0,-0.17648047529476682,-0.4014911619465926,-0.23521894836180277,-0.008737958706544383,-0.014036493853544088,-0.07307518887220962
1412,1.0,299.66134,2568.5352,0.0,-0.014120008525950412,0.0,0.0,0.0,0.0,-0.17424916685205383,-0.3803081553559926,-0.22621323213550779,-0.011257263326505389,-0.004989354139310916,-0.07020301696649835
1413,1.0,300.65071,2633.6809,0.0,-0.014130037503427229,0.0,0.0,0.0,0.0,-0.17516265234720785,-0.4059022449319326,-0.2195083130437838,-0.011203827555981689,-0.002989870226727217,-0.06055617889842954
1414,1.0,300.00273,2814.6475,0.0,-0.014140033490846582,0.0,0.0,0.0,0.0,-0.19604955686108483,-0.4087359710890996,-0.2507970404342408,0.008421755166387521,0.015699955661964984,-0.06183002881814874
1415,1.0,300.05681,2877.1641,0.0,-0.014150029478265824,0.0,0.0,0.0,0.0,-0.1946997152103658,-0.4224826541357916,-0.25740366413376375,0.017994417956910782,0.008597653863872371,-0.07391285387563074
1416,1.0,299.8276,2726.8062,0.0,-0.014160025465684956,0.0,0.0,0.0,0.0,-0.19115267111529982,-0.4064961310805446,-0.2312321942533408,0.0029790963384139168,0.009954409223998699,-0.07940365616753071
1417,1.0,299.92244,2831.0642,0.0,-0.014170021453104309,0.0,0.0,0.0,0.0,-0.21031085950106582,-0.39890265244612666,-0.25135932331223376,0.006260889897126724,-0.006733801380524452,-0.06786749980400074
1418,1.0,300.22816,2958.8371,0.0,-0.014180017440523551,0.0,0.0,0.0,0.0,-0.22097410090344577,-0.4109915063417036,-0.2674469991249637,-0.011476129401105789,-0.002488936399888898,-0.060318881804510144
1419,1.0,300.13265,2804.2309,0.0,-0.014190013427943127,0.0,0.0,0.0,0.0,-0.20156943943085479,-0.39508210175156766,-0.2557646307720038,0.016703699449526783,0.004921708549384815,-0.04380020891599406
1420,1.0,299.36655,2628.4827,0.0,-0.014200009415362369,0.0,0.0,0.0,0.0,-0.18368204905550684,-0.37435609122106966,-0.24095497744290478,-0.0025346740027778476,0.003339007536209387,-0.05321158792582485
1421,1.0,299.42848,2768.0297,0.0,-0.014210038392839075,0.0,0.0,0.0,0.0,-0.19378890469547583,-0.41058596312167955,-0.23703705341373577,0.02400839977894458,-0.015642669541061287,-0.06227816603262644
1422,1.0,299.43697000000003,2735.3435,0.0,-0.01422003438025854,0.0,0.0,0.0,0.0,-0.18853011641147382,-0.39919907876288163,-0.24374692729844877,-0.01906193671901668,0.013070013351659885,-0.08010511603950943
1423,1.0,299.94968,2824.9481,0.0,-0.01423003036767767,0.0,0.0,0.0,0.0,-0.20536302754025282,-0.4208485350370166,-0.23250212086867278,0.004716821273164016,0.005947444322417055,-0.08074209368837422
1424,1.0,300.00202,2895.7763,0.0,-0.014240026355096913,0.0,0.0,0.0,0.0,-0.19923644120810582,-0.42307891128963765,-0.25792832503554375,-0.003891737897559626,0.006345063724009034,-0.06721973813432164
1425,1.0,299.75195,2711.3543,0.0,-0.014250022342516266,0.0,0.0,0.0,0.0,-0.18603750090047183,-0.3952653176346496,-0.24288116588300476,0.000896824380579675,0.0010946089154544889,-0.05454311812073665
1426,1.0,300.3828,2703.8512,0.0,-0.01426001832993573,0.0,0.0,0.0,0.0,-0.15955836775968485,-0.41965126858635554,-0.2426936132894948,0.004003418424906636,0.005642687975264945,-0.07076152852761913
1427,1.0,300.60317000000003,2774.8357,0.0,-0.014270014317355084,0.0,0.0,0.0,0.0,-0.18248001019687482,-0.4001667630058846,-0.2608339919498108,0.006395184038880525,-0.005733277195155405,-0.07180315165691933
1428,1.0,300.91309,2870.8554,0.0,-0.014280010304774216,0.0,0.0,0.0,0.0,-0.2046131414062448,-0.4177269951889446,-0.25032822987797276,-0.0069998944343357935,0.008090979873892543,-0.07826000584591122
1429,1.0,300.04596000000004,2691.6997,0.0,-0.014290006292193458,0.0,0.0,0.0,0.0,-0.1882824476895308,-0.39671452872267565,-0.23321252064628378,0.007278096434792192,-0.009901410569568142,-0.09404489111800811
1430,1.0,299.8426,2635.8442,0.0,-0.014300035269670497,0.0,0.0,0.0,0.0,-0.17695101850870582,-0.38536302705736963,-0.23891677420424978,-0.00973275529307316,0.01811551552936218,-0.07630353743982284
1431,1.0,300.11042000000003,2812.7236,0.0,-0.014310031257089628,0.0,0.0,0.0,0.0,-0.1917111847029208,-0.41547342564153467,-0.24781312021475077,0.004204169918194266,0.010768693380037291,-0.08248545229368032
1432,1.0,299.83427,2929.5547,0.0,-0.01432002724450887,0.0,0.0,0.0,0.0,-0.22026207992567481,-0.4032310947533106,-0.26701830314015473,-0.0054537736749455555,0.006752692314063843,-0.04405450632009126
1433,1.0,299.34805,2906.3386,0.0,-0.014330023231928224,0.0,0.0,0.0,0.0,-0.2193720511703358,-0.4100622850724966,-0.2540200268823248,-0.006377569091192063,-0.009386368957612492,-0.06690223824198684
1434,1.0,299.75595,2894.6511,0.0,-0.014340019219347577,0.0,0.0,0.0,0.0,-0.22110860985422076,-0.4246695720916236,-0.2341234730161878,-0.014177858454495686,-0.0062021296999775445,-0.04884474546635105
1435,1.0,299.49692999999996,2804.6266,0.0,-0.014350015206767042,0.0,0.0,0.0,0.0,-0.19124350898676482,-0.4012006732754236,-0.26009226247910777,0.014116007641891488,-0.01028007783731469,-0.07232743968266253
1436,1.0,300.02719,2937.8947,0.0,-0.014360011194186173,0.0,0.0,0.0,0.0,-0.20499543053647382,-0.42709911278390056,-0.26095207611646476,-0.0002050337313902538,0.006600382585532045,-0.05409859618261574
1437,1.0,299.90885,2988.9274,0.0,-0.014370007181605415,0.0,0.0,0.0,0.0,-0.2114779614962498,-0.4170046998551596,-0.2800766245989107,0.017724789065550483,-0.008885170571173061,-0.05853775328847645
1438,1.0,300.00994,2778.0888,0.0,-0.014380036159082343,0.0,0.0,0.0,0.0,-0.17965513984558182,-0.4012769710079536,-0.26353750533662673,0.017511854557035484,0.008675205189426091,-0.05830407653716435
1439,1.0,300.43444,2605.198,0.0,-0.014390032146501586,0.0,0.0,0.0,0.0,-0.17137150617055083,-0.4037048905000706,-0.21683873340281679,0.017450349262715385,0.008143918239942153,-0.08432893318111771
1440,1.0,300.18781,2819.2776,0.0,-0.014400028133920828,0.0,0.0,0.0,0.0,-0.2025263021627898,-0.40833834135235664,-0.24612535965568177,0.0011015231314868688,-0.002720828007174818,-0.07680540933360372
1441,1.0,299.96671000000003,2996.9167,0.0,-0.014410024121340181,0.0,0.0,0.0,0.0,-0.22372871249280477,-0.43008670096875257,-0.25717244046094373,-0.016460622777036985,-0.015003921744271785,-0.090246357334872
1442,1.0,300.04298,2884.1798,0.0,-0.014420020108759535,0.0,0.0,0.0,0.0,-0.19091356435670181,-0.43269003431818154,-0.25311503242300876,-0.014350386575522884,0.0028962993157674874,-0.08866443480174842
1443,1.0,299.60564,2654.033,0.0,-0.014430016096178888,0.0,0.0,0.0,0.0,-0.16815002946511584,-0.4033318016807496,-0.23527791951762275,0.00015207410735354585,0.014059470312811686,-0.06104249740317544
1444,1.0,299.57594,2734.4658,0.0,-0.01444001208359813,0.0,0.0,0.0,0.0,-0.16990892018120485,-0.42311722227591864,-0.23818316086684777,-0.002126079278752688,0.021733991729977982,-0.05593935142728415
1445,1.0,299.52781,2919.723,0.0,-0.014450008071017373,0.0,0.0,0.0,0.0,-0.2157580312436598,-0.41562966880695457,-0.25613519659857575,-0.012588429764631287,-0.003917665954368527,-0.04521130761475866
1446,1.0,299.21517,2907.3144,0.0,-0.0144600370484943,0.0,0.0,0.0,0.0,-0.21055153679731883,-0.4138688630481766,-0.2593305821139357,-0.017047188193676482,-0.011317632767463389,-0.05842212524006485
1447,1.0,299.6032,2792.0669,0.0,-0.014470033035913543,0.0,0.0,0.0,0.0,-0.17716651653997384,-0.4313988902457556,-0.24015322303627779,0.0032207141334097368,-0.001100935243778849,-0.07158526438191552
1448,1.0,300.35712,2686.3422,0.0,-0.014480029023332897,0.0,0.0,0.0,0.0,-0.17943046176840782,-0.3852180411005606,-0.25193244796629677,-0.003887597048375956,0.011135828341770689,-0.06539151172713974
1449,1.0,300.48396,2855.8873,0.0,-0.01449002501075225,0.0,0.0,0.0,0.0,-0.19371613307329383,-0.41376294801522356,-0.2606393364730997,0.013000237910023589,-0.005171368409099325,-0.07229147538361314
1450,1.0,300.04157000000004,3008.2356,0.0,-0.014500020998171492,0.0,0.0,0.0,0.0,-0.2319360079053018,-0.4091306624005526,-0.2733618364512127,-0.0026324290287005176,-0.00912805168639356,-0.06217472940941804
1451,1.0,299.83512,2957.5682,0.0,-0.014510016985590846,0.0,0.0,0.0,0.0,-0.23422630776883677,-0.4121893706099236,-0.25261119381078373,0.018152018877464784,0.0012093166288002588,-0.06691057121080923
1452,1.0,299.71083,2778.4741,0.0,-0.014520012973010088,0.0,0.0,0.0,0.0,-0.2001403210923118,-0.4107108461965046,-0.23373559074540678,0.004179649873724326,0.00840611159809362,-0.06900955932296324
1453,1.0,299.47944,2827.1532,0.0,-0.01453000896042922,0.0,0.0,0.0,0.0,-0.1966313144059998,-0.4083519290361976,-0.25440072520989676,0.0008998745673557051,-0.0035661058625722462,-0.07233432978334252
1454,1.0,299.6616,2932.14,0.0,-0.014540037937906258,0.0,0.0,0.0,0.0,-0.2077821722865038,-0.42927878600151753,-0.2542363760436767,-0.014268744961965486,0.01133657851783319,-0.06319746353035403
1455,1.0,299.69307000000003,2898.9353,0.0,-0.01455003392532539,0.0,0.0,0.0,0.0,-0.1958927665406108,-0.4312983454383326,-0.2540128125416128,0.0017660328120688682,0.022072861066921776,-0.06942731828619284
1456,1.0,299.47494,2781.3238,0.0,-0.014560029912744854,0.0,0.0,0.0,0.0,-0.18706593961947082,-0.4070200523097516,-0.25136699361549075,0.0030698229550179374,0.023003695430287976,-0.04783679466437405
1457,1.0,300.35912,2736.1931,0.0,-0.014570025900164207,0.0,0.0,0.0,0.0,-0.18080423638648882,-0.4275482764207296,-0.2233818567185728,-0.007474068731333153,-0.011391116704465689,-0.07401401271261433
1458,1.0,300.89182999999997,2865.697,0.0,-0.01458002188758345,0.0,0.0,0.0,0.0,-0.18603767315298883,-0.4201275265308586,-0.26493514199456275,0.003453336699317797,-0.029109567890640675,-0.07448474844407234
1459,1.0,300.63852,2945.5627,0.0,-0.014590017875002803,0.0,0.0,0.0,0.0,-0.19240386273628282,-0.43585530604056955,-0.26711835145502877,0.017320105081611283,-0.0018393459151043081,-0.07650772456022452
1460,1.0,299.62949,2794.5171,0.0,-0.014600013862422045,0.0,0.0,0.0,0.0,-0.18012247105670381,-0.4145811677359756,-0.25475977038283176,0.02643004927944277,0.002563033049226668,-0.08220446284219882
1461,1.0,299.80397999999997,2720.4166,0.0,-0.014610009849841177,0.0,0.0,0.0,0.0,-0.18338213715840782,-0.39485076662123664,-0.24870583408285477,0.01796001406301538,-0.007257584909042863,-0.08015779491220842
1462,1.0,299.67315,2788.7805,0.0,-0.014620038827318216,0.0,0.0,0.0,0.0,-0.2065405862764688,-0.4127680377420336,-0.2284110019999108,-0.0025010282226072674,-0.008508452897943922,-0.06816287842015234
1463,1.0,299.53985,2848.3663,0.0,-0.014630034814737347,0.0,0.0,0.0,0.0,-0.22525608569354477,-0.3996783460601816,-0.24089778960726074,0.015829570614756983,0.013228389408540386,-0.06983125449155823
1464,1.0,299.93634,2972.3679,0.0,-0.014640030802156812,0.0,0.0,0.0,0.0,-0.21620880594814781,-0.4190698454139736,-0.26824698034391575,-0.002047825264254618,0.008313435184322171,-0.05506290123653525
1465,1.0,299.96383,2971.6256,0.0,-0.014650026789576165,0.0,0.0,0.0,0.0,-0.2089069406925098,-0.43663206356722956,-0.25776098678152876,-0.017064468160881884,-0.001917762961543468,-0.07506330107892102
1466,1.0,300.1336,2954.3663,0.0,-0.014660022776995296,0.0,0.0,0.0,0.0,-0.20074719710720582,-0.4130103666359496,-0.28429604119533475,-0.011476556992647989,-0.02280626871455348,-0.04418012501448886
1467,1.0,300.43018,2881.9394,0.0,-0.01467001876441476,0.0,0.0,0.0,0.0,-0.1894377757185528,-0.4251484036913806,-0.26145144629574874,-0.0012834178377634786,0.010056595091283661,-0.06784209863724383
1468,1.0,300.40679,2945.7709,0.0,-0.014680014751833892,0.0,0.0,0.0,0.0,-0.2161870717335028,-0.41262180548760163,-0.26663194074452373,0.0015442385460044787,0.005791725209948775,-0.039139486437266564
1469,1.0,299.77256,2968.89,0.0,-0.014690010739253356,0.0,0.0,0.0,0.0,-0.2295416371239958,-0.41581640066788367,-0.25711038902481975,-0.0071768234045223225,-0.018669919374577584,-0.07714166347203942
1470,1.0,299.59952999999996,2789.6895,0.0,-0.01470000672667271,0.0,0.0,0.0,0.0,-0.18103966504722385,-0.4244828807606986,-0.24247339351276076,0.005461167867550305,-0.009496437505375412,-0.07815876088266913
1471,1.0,299.34725,2687.7595,0.0,-0.014710035704149527,0.0,0.0,0.0,0.0,-0.17596270449366683,-0.39504153121756364,-0.24600754906655475,0.012822819844013789,0.02026859802460488,-0.08149865004779051
1472,1.0,299.59103,2883.08,0.0,-0.014720031691568658,0.0,0.0,0.0,0.0,-0.17726966540015382,-0.4274402031650636,-0.2716744507946807,0.02268820683940168,-0.0017172316475025683,-0.08116256714862172
1473,1.0,299.55444,2899.0312,0.0,-0.014730027678988122,0.0,0.0,0.0,0.0,-0.19408118681932182,-0.43283067343206155,-0.25432123573955173,-0.017321630023011785,-0.02017915033227708,-0.07912644917867252
1474,1.0,300.30866000000003,2857.2448,0.0,-0.014740023666407254,0.0,0.0,0.0,0.0,-0.2146800952572758,-0.41634857988540563,-0.2375023885221608,-0.003513579078713257,-0.012897554131639488,-0.06906745643367723
1475,1.0,299.92477,2870.1758,0.0,-0.014750019653826718,0.0,0.0,0.0,0.0,-0.21435013036221082,-0.42505064532173265,-0.23306100935883078,-0.0019237044574798483,0.017525173729599983,-0.07715297944915622
1476,1.0,300.02814,2923.6006,0.0,-0.01476001564124585,0.0,0.0,0.0,0.0,-0.1997649625927668,-0.42822913995792555,-0.2607074876748257,0.0064561023574176936,0.016138217740968085,-0.07773370449221934
1477,1.0,300.34649,2935.7838,0.0,-0.014770011628665203,0.0,0.0,0.0,0.0,-0.19072366102295982,-0.42906260909268257,-0.27261871882787275,-0.02164561301650568,0.014066217545227588,-0.06975432651746603
1478,1.0,300.30575,2921.1503,0.0,-0.014780007616084667,0.0,0.0,0.0,0.0,-0.1705334368803398,-0.43978464939836553,-0.2776386739308037,-0.0014309641762501688,-0.0034332143629318764,-0.07602617846344963
1479,1.0,300.08607,2894.0854,0.0,-0.014790036593561484,0.0,0.0,0.0,0.0,-0.18840667215179083,-0.41744766240137665,-0.27387535160189275,-0.004252532244142256,0.02220662426562318,-0.046415368920590255
1480,1.0,300.20132,2821.1371,0.0,-0.014800032580980615,0.0,0.0,0.0,0.0,-0.2139334312585858,-0.40615825270219863,-0.23746355064582778,0.0039440020469926965,-0.015658804535653683,-0.06346409421466845
1481,1.0,299.23772,2917.67,0.0,-0.014810028568399969,0.0,0.0,0.0,0.0,-0.21713406540946378,-0.41664387136204856,-0.25312088900858676,-0.0025425738071824977,-0.03131251039680417,-0.059972894385613845
1482,1.0,299.8058,3102.9457,0.0,-0.014820024555819211,0.0,0.0,0.0,0.0,-0.24259585491984675,-0.43232105929426656,-0.2683010980317567,0.005335168191115105,-0.02057702324904408,-0.07708298413224822
1483,1.0,299.91207,2979.9367,0.0,-0.014830020543238565,0.0,0.0,0.0,0.0,-0.2174578292139168,-0.4243774824852966,-0.2639910259488858,0.015750808657983787,0.026380536813306273,-0.06421561978733824
1484,1.0,299.46198,2823.4618,0.0,-0.014840016530658029,0.0,0.0,0.0,0.0,-0.1935494838293468,-0.4148191497869626,-0.24989324161004275,0.016557435784341684,0.01190234089666959,-0.07128178381796434
1485,1.0,299.84866,2894.0433,0.0,-0.01485001251807716,0.0,0.0,0.0,0.0,-0.20560675471930678,-0.41702943329010067,-0.2570807007968897,-0.02762172360280187,0.01044084415118109,-0.05744135081901994
1486,1.0,299.61922999999996,2870.7696,0.0,-0.014860008505496625,0.0,0.0,0.0,0.0,-0.2112816037593708,-0.4268209857639516,-0.23453969589226578,-0.015402096609568587,-0.003011644262101147,-0.07047612839845234
1487,1.0,300.19627,2896.0457,0.0,-0.01487003748297333,0.0,0.0,0.0,0.0,-0.1950119279636788,-0.4224242706650296,-0.26288937991016176,-0.013309513251296687,0.011999387964747386,-0.07665175806193952
1488,1.0,300.39907999999997,2913.6384,0.0,-0.014880033470392573,0.0,0.0,0.0,0.0,-0.19945687376736082,-0.4346386155854916,-0.2515778205637978,-0.0070203787036574325,-0.004167959399370566,-0.08718785481527132
1489,1.0,300.49367,2887.4838,0.0,-0.014890029457811926,0.0,0.0,0.0,0.0,-0.17065129813197186,-0.43335346995365753,-0.27371819651138274,-0.00937692029910498,-0.021415068221252682,-0.08278360620185583
1490,1.0,300.07057000000003,2870.1956,0.0,-0.014900025445231169,0.0,0.0,0.0,0.0,-0.17135678364659782,-0.4350928758703236,-0.26601813409894576,0.007265905110914002,-0.018067795502652584,-0.08296689098594462
1491,1.0,300.24743,2865.1695,0.0,-0.014910021432650522,0.0,0.0,0.0,0.0,-0.19572419212147382,-0.4217620205321706,-0.2534537923289418,0.004901155379056376,0.02009025182150348,-0.05677282765479185
1492,1.0,299.53837000000004,2811.6254,0.0,-0.014920017420069875,0.0,0.0,0.0,0.0,-0.2039958289153208,-0.4066067779914646,-0.24406129827447479,0.017438314891277683,-0.004594840146625415,-0.058064990043568354
1493,1.0,300.00788,2897.7969,0.0,-0.014930013407489118,0.0,0.0,0.0,0.0,-0.2051197765887458,-0.4339650981115206,-0.24177303504364075,-0.0021472324957903482,0.006927701073985864,-0.07013412102594883
1494,1.0,299.95187999999996,3026.4748,0.0,-0.014940009394908471,0.0,0.0,0.0,0.0,-0.22099401126791077,-0.44374156329138253,-0.2552372036974508,0.005830960482970994,0.0009263619686173082,-0.09286273627933851
1495,1.0,299.95715,3078.3046,0.0,-0.014950038372385288,0.0,0.0,0.0,0.0,-0.2145371256681658,-0.4407155627952396,-0.28047503453823075,0.0051582902887336145,0.017935796372375284,-0.07422067722951052
1496,1.0,300.11899,3060.4398,0.0,-0.01496003435980453,0.0,0.0,0.0,0.0,-0.20907902095699282,-0.4448957868777956,-0.2763224519184027,-0.004850266716634056,-0.001184958299046279,-0.07393723368628684
1497,1.0,300.594,2989.4821,0.0,-0.014970030347223884,0.0,0.0,0.0,0.0,-0.2248451418504878,-0.4174526171943656,-0.26643017225211074,-0.02071692775660158,-0.011590157527609488,-0.05148191934261985
1498,1.0,300.46979,2874.9855,0.0,-0.014980026334643126,0.0,0.0,0.0,0.0,-0.2030360074930938,-0.4176487520162226,-0.2532390339702468,-0.005296084601632854,-0.014536011967342687,-0.05074441512483385
1499,1.0,300.26805,2836.4262,0.0,-0.01499002232206248,0.0,0.0,0.0,0.0,-0.1991915238311728,-0.41353008287724163,-0.24948112239686976,-0.006800867898018404,0.01145039690156619,-0.05694343364037934
1500,1.0,300.56318,2958.1751,0.0,-0.015000018309481833,0.0,0.0,0.0,0.0,-0.2021327254264468,-0.42684876908169356,-0.27022989052461377,0.004251210763361836,-0.014184816442932385,-0.06558831326756254
1501,1.0,299.98765,3003.0682,0.0,-0.015010014296901075,0.0,0.0,0.0,0.0,-0.20565881550944481,-0.43613138629531656,-0.27106755451478476,-0.003672044808227606,-0.012612678866024489,-0.08925240762277682
1502,1.0,299.89156,2918.7456,0.0,-0.015020010284320429,0.0,0.0,0.0,0.0,-0.19719381006651382,-0.42997434166516363,-0.2600576194581888,0.00955398281565469,0.0014278010120879886,-0.07760200832372192
1503,1.0,299.66294,2862.6639,0.0,-0.015030039261797246,0.0,0.0,0.0,0.0,-0.21097911820701779,-0.42096302216581566,-0.23823620450958274,0.018975366656972883,0.016243970653905086,-0.07432805640885802
1504,1.0,299.34193,3019.6143,0.0,-0.015040035249216377,0.0,0.0,0.0,0.0,-0.2169259134414208,-0.43782994810045156,-0.2631314960215567,0.006003451823019564,-0.003071963952479237,-0.058951823008091944
1505,1.0,299.71934,3043.7534,0.0,-0.015050031236635841,0.0,0.0,0.0,0.0,-0.22635630304962776,-0.4377691024319466,-0.2610996357285278,0.002489326399852388,-0.006281394532775374,-0.07892709323474763
1506,1.0,300.32516,2950.4111,0.0,-0.015060027224054973,0.0,0.0,0.0,0.0,-0.19994487528052282,-0.43832540713434964,-0.2585810303524607,0.0030321417036740872,0.0005499110841394986,-0.0918837583507209
1507,1.0,299.87389,2889.6497,0.0,-0.015070023211474548,0.0,0.0,0.0,0.0,-0.17607552989230182,-0.43784626142706157,-0.2644595629276268,-0.0053679281880482654,0.016581754799991785,-0.09300607266498472
1508,1.0,299.88042,2773.0894,0.0,-0.01508001919889379,0.0,0.0,0.0,0.0,-0.16798190087602285,-0.4073206025544136,-0.26764744025974574,-0.012304324569092289,-0.001037009801594899,-0.07480114186729793
1509,1.0,300.09102,2890.906,0.0,-0.015090015186313033,0.0,0.0,0.0,0.0,-0.1906260647733278,-0.4343755454620286,-0.25376161770932176,-0.02145074171752338,-0.005869956426319594,-0.06557327460957835
1510,1.0,300.08024,3045.1196,0.0,-0.015100011173732386,0.0,0.0,0.0,0.0,-0.2141886284287718,-0.43149262601250654,-0.27995906732230874,-0.005096618517422085,-4.485382689997806e-05,-0.06773487651166184
1511,1.0,300.13459,2973.6532,0.0,-0.015110007161151517,0.0,0.0,0.0,0.0,-0.2044043105606348,-0.4434041408755816,-0.25610787937587975,-0.0007175960014112112,0.003918101651911527,-0.047024445714701456
1512,1.0,300.77321,2978.222,0.0,-0.015120036138628334,0.0,0.0,0.0,0.0,-0.1998452727956928,-0.4428079343842406,-0.2626519146167257,0.015817684177833885,-0.014059581770322687,-0.07892288216733202
1513,1.0,300.63009,3111.3624,0.0,-0.015130032126047799,0.0,0.0,0.0,0.0,-0.2019899686198578,-0.44421107299021956,-0.2995754372707937,0.01962006628484978,-0.0033325851517755464,-0.07108336918338234
1514,1.0,300.39378999999997,3145.0107,0.0,-0.015140028113467152,0.0,0.0,0.0,0.0,-0.23041475473516576,-0.4502353311947676,-0.27535463595288673,0.017587836155534282,0.0065713015983869735,-0.07483576563646503
1515,1.0,300.47317000000004,2986.0736,0.0,-0.015150024100886506,0.0,0.0,0.0,0.0,-0.2184653645833528,-0.4209615326881686,-0.26826491487068577,0.003669550591781447,0.004530167027192676,-0.05169376866027775
1516,1.0,300.18219,2792.5806,0.0,-0.015160020088305748,0.0,0.0,0.0,0.0,-0.1907740195529298,-0.4140275684113396,-0.24407319383064877,-0.009544993767392542,-0.010651385362959889,-0.06317005714164924
1517,1.0,299.5863,2836.5532,0.0,-0.01517001607572488,0.0,0.0,0.0,0.0,-0.2064171521492868,-0.42447099533702554,-0.23135319658028278,-0.016628332893838683,-0.003047707960985357,-0.06873856862346853
1518,1.0,299.95384,2967.7047,0.0,-0.015180012063144344,0.0,0.0,0.0,0.0,-0.1966666261719848,-0.4348940863332046,-0.2705474228409518,0.005595574480065204,0.006156286719078194,-0.0851475369236576
1519,1.0,299.45751,2916.1361,0.0,-0.015190008050563475,0.0,0.0,0.0,0.0,-0.1821461949514298,-0.43500223051637765,-0.26928412288127374,-0.004170353912006886,0.012102354439909388,-0.08601147246242143
1520,1.0,299.73058,2842.777,0.0,-0.015200037028040292,0.0,0.0,0.0,0.0,-0.18028837049557683,-0.4236314669666706,-0.2602133863960618,-0.017239596281665683,-0.0014385022503691186,-0.06990560475739603
1521,1.0,299.73137,2869.7766,0.0,-0.015210033015459645,0.0,0.0,0.0,0.0,-0.1936028111821098,-0.4247294855700366,-0.25400812119364974,-0.0026225702065525275,-0.02225679331782448,-0.07117983261940253
1522,1.0,300.1359,2988.3204,0.0,-0.01522002900287911,0.0,0.0,0.0,0.0,-0.2057751670184278,-0.44077362202596954,-0.26182598406271274,0.004749904091579035,-0.0023780317181434575,-0.07138745465764322
1523,1.0,300.37047,3087.9213,0.0,-0.015230024990298463,0.0,0.0,0.0,0.0,-0.2306438404502748,-0.44259718849594154,-0.2654099509914227,0.012122110790359188,-0.012484864458660188,-0.05673536070584415
1524,1.0,300.55284,2991.0119,0.0,-0.015240020977717705,0.0,0.0,0.0,0.0,-0.20237867162321982,-0.44063703591248954,-0.26617722449714676,0.01032289778654069,-0.018809252409078683,-0.07542760704637522
1525,1.0,300.87765,2922.364,0.0,-0.015250016965136837,0.0,0.0,0.0,0.0,-0.1941619529847928,-0.45057017995531456,-0.24359356176331276,0.003197772732595597,-0.006431402663705024,-0.08812199237396351
1526,1.0,300.78501,3002.5025,0.0,-0.01526001295255619,0.0,0.0,0.0,0.0,-0.2135733525705488,-0.42741174096975454,-0.27170069397227076,0.008495756468890881,0.017559594848747084,-0.07714142029201543
1527,1.0,300.20694,3126.9622,0.0,-0.015270008939975654,0.0,0.0,0.0,0.0,-0.23161152469327778,-0.4469734258103426,-0.27193348818274576,1.5586649982782586e-05,0.015431268079947585,-0.07065166080602603
1528,1.0,300.05402999999995,3032.9195,0.0,-0.01528003791745225,0.0,0.0,0.0,0.0,-0.20991411129190982,-0.4370143729624606,-0.27500331174571374,-0.02076560023840518,0.011071565993928488,-0.062349868675952935
1529,1.0,300.07332,2860.3843,0.0,-0.015290033904871603,0.0,0.0,0.0,0.0,-0.2037381695473918,-0.41778755714742155,-0.24795967670921476,-0.009100651275864352,-0.0008316042682129513,-0.06664058362891352
1530,1.0,299.4092,2873.0872,0.0,-0.015300029892290956,0.0,0.0,0.0,0.0,-0.17598914018877584,-0.43049413896646355,-0.26686349878987675,-0.006827218277468983,0.00875431560290868,-0.06518972702272514
1531,1.0,300.15473,3066.4577,0.0,-0.01531002587971042,0.0,0.0,0.0,0.0,-0.2127167408035078,-0.4412422400647185,-0.2781676006155047,-0.0032744358431116565,0.0030107109574340368,-0.07349642834953272
1532,1.0,300.29082,3161.7429,0.0,-0.015320021867129552,0.0,0.0,0.0,0.0,-0.21749082063717276,-0.45626162603201653,-0.2873384360780957,-0.016822485798500084,-0.016117424835665983,-0.05550426487409445
1533,1.0,300.08165,3074.2675,0.0,-0.015330017854548794,0.0,0.0,0.0,0.0,-0.21804142074151278,-0.4552351530182116,-0.26122400204580176,-0.004401277865447305,-0.013229553632905287,-0.08923339094490002
1534,1.0,300.46131,2987.7317,0.0,-0.015340013841968148,0.0,0.0,0.0,0.0,-0.22117870649613877,-0.4289934851708606,-0.25802363133994977,0.016211570968707484,0.009695142132136032,-0.05544348405359585
1535,1.0,300.38914,3029.8642,0.0,-0.015350009829387612,0.0,0.0,0.0,0.0,-0.22599196871117078,-0.4485655456924726,-0.24644556695228376,0.03273220145641677,0.0043749412661980855,-0.07677272796487833
1536,1.0,299.44585,3172.7659999999996,0.0,-0.015360038806864207,0.0,0.0,0.0,0.0,-0.2218454250619388,-0.4473631724613076,-0.2952330323772317,0.007126489293879733,0.006209949964249344,-0.07014862975413073
1537,1.0,300.1805,3075.3659,0.0,-0.015370034794283782,0.0,0.0,0.0,0.0,-0.2123481508146308,-0.4514444222740956,-0.27104185849224877,0.0024818820513676874,-0.008038249528088461,-0.1016139078685119
1538,1.0,300.2784,2852.1483,0.0,-0.015380030781702914,0.0,0.0,0.0,0.0,-0.19214507866074282,-0.4280976504924486,-0.24673914603625774,-0.012958731132927188,0.0041491378734630265,-0.07892912682769833
1539,1.0,300.39377,2797.9075,0.0,-0.015390026769122267,0.0,0.0,0.0,0.0,-0.18793783119801982,-0.41001316270764865,-0.25254301221155473,-0.013832760669187188,-0.004023490200112566,-0.07434181229221563
1540,1.0,300.56175,2989.3776,0.0,-0.01540002275654151,0.0,0.0,0.0,0.0,-0.21919717433557678,-0.4338656273492036,-0.25563336422154875,-0.028404703498325974,-0.008452679052814471,-0.05860367128698204
1541,1.0,300.22952000000004,3068.2063,0.0,-0.015410018743960752,0.0,0.0,0.0,0.0,-0.2041273791758038,-0.44932715513013755,-0.2792035880477487,-0.014887701957801787,-0.0025839982070457674,-0.07274940059405682
1542,1.0,299.91239,3091.1782,0.0,-0.015420014731380105,0.0,0.0,0.0,0.0,-0.1966180712271928,-0.4522837277294286,-0.2907391972562247,-0.003317119712849227,0.023474290319982077,-0.06683941673578683
1543,1.0,300.37134,3081.7318,0.0,-0.015430010718799458,0.0,0.0,0.0,0.0,-0.21061383141346682,-0.4551893743786935,-0.27096631056479276,0.007447956870956113,0.005513474066862525,-0.07725330843430793
1544,1.0,299.70189,3099.9857,0.0,-0.015440039696276275,0.0,0.0,0.0,0.0,-0.22502707090594282,-0.4435207254320876,-0.27377045995154076,0.005792703604245334,-0.0055374626616550154,-0.06445465156542884
1545,1.0,299.71749,3157.0066,0.0,-0.015450035683695629,0.0,0.0,0.0,0.0,-0.23369867804426375,-0.4545357470041856,-0.2714167610292487,0.014692590518545786,-0.005042029870934606,-0.07357900012668192
1546,1.0,299.31857,3006.4240000000004,0.0,-0.015460031671114871,0.0,0.0,0.0,0.0,-0.23096581080205078,-0.42189139230493866,-0.2610206326182308,0.012182559264824989,0.01087633499116069,-0.053553417979560855
1547,1.0,299.79967999999997,2858.9971,0.0,-0.015470027658534224,0.0,0.0,0.0,0.0,-0.2027889973837158,-0.4115863044154056,-0.2546884173107897,0.011334528712880888,-0.007087422524349144,-0.06485406766209814
1548,1.0,300.28135,2876.4201,0.0,-0.015480023645953467,0.0,0.0,0.0,0.0,-0.18110343900851783,-0.4196725164409526,-0.2735839408731327,-0.015625487859115588,-0.005952354532401655,-0.06685593372566694
1549,1.0,300.34252000000004,3040.6349,0.0,-0.015490019633372598,0.0,0.0,0.0,0.0,-0.1942578571067578,-0.4467262637134496,-0.28329297425883976,-0.006284454142777334,-0.012436164619103887,-0.07997566320673342
1550,1.0,299.96705,3104.1984,0.0,-0.015500015620792174,0.0,0.0,0.0,0.0,-0.2050812933499478,-0.4459341149177706,-0.29258340363073376,-0.016749363591783483,-0.0027552322050452475,-0.07366367135803834
1551,1.0,300.23502,3093.3559,0.0,-0.015510011608211416,0.0,0.0,0.0,0.0,-0.2235220196049058,-0.45246659910747655,-0.2643143337907938,-0.005613383971772864,-0.003157228644419207,-0.06852908119179374
1552,1.0,299.92908,3037.2592,0.0,-0.01552000759563077,0.0,0.0,0.0,0.0,-0.23619740345336876,-0.43018328396828454,-0.25687025888362075,0.0007594359351404912,-0.00949465570507456,-0.06276443184836715
1553,1.0,299.95784,3081.0768,0.0,-0.015530036573107586,0.0,0.0,0.0,0.0,-0.20209471841519583,-0.46741558445782655,-0.26706013010428276,0.0014740702673044085,0.004552931413214345,-0.08320390234333581
1554,1.0,299.91444,3060.873,0.0,-0.015540032560526829,0.0,0.0,0.0,0.0,-0.19760726676981882,-0.4531034977228336,-0.2797181873760357,-0.004311843244045796,0.027496240683917678,-0.06942601524656423
1555,1.0,299.74801,3057.5762,0.0,-0.015550028547946182,0.0,0.0,0.0,0.0,-0.2004946546522818,-0.4463233346786836,-0.28260882779131974,-0.0014651340093724686,0.005492763842768584,-0.07365695047012502
1556,1.0,299.72497999999996,2914.9295,0.0,-0.015560024535365424,0.0,0.0,0.0,0.0,-0.20313154684502283,-0.4343894269883986,-0.24854479824446174,-0.0001229161233333769,-0.008306991724286252,-0.08421659211603051
1557,1.0,299.93655,2718.8619,0.0,-0.015570020522784778,0.0,0.0,0.0,0.0,-0.19554915316669882,-0.4076813297225146,-0.22323562446414077,0.004586283756155965,-0.01227048201575229,-0.08187780519546022
1558,1.0,300.01637,2894.7085,0.0,-0.015580016510204131,0.0,0.0,0.0,0.0,-0.2126575771301688,-0.43302974667920857,-0.2342317691868758,0.027033150937714273,-0.008793425536893532,-0.07405286882744913
1559,1.0,299.67121000000003,3150.1694,0.0,-0.015590012497623373,0.0,0.0,0.0,0.0,-0.2149740391112858,-0.4482515597514846,-0.29434724913981175,0.006683330075818323,-0.019007207028115283,-0.08737611465735111
1560,1.0,299.18572,3133.3035,0.0,-0.015600008485042727,0.0,0.0,0.0,0.0,-0.2013609226927758,-0.45422762778127657,-0.2968574850700527,-0.006192822896484034,-0.007128061655384914,-0.08266160481031522
1561,1.0,300.13889,3084.7588,0.0,-0.015610037462519544,0.0,0.0,0.0,0.0,-0.2006821464507858,-0.4645030173103786,-0.27250446474659673,-0.01029260870130139,-0.0008848798033658373,-0.0872256216862486
1562,1.0,299.85634,3078.1222,0.0,-0.015620033449938786,0.0,0.0,0.0,0.0,-0.21096636138825878,-0.45712334457956155,-0.2675825719883438,-0.016878191249247783,0.02013887972030268,-0.061047682203937144
1563,1.0,300.48913999999996,3128.1421,0.0,-0.01563002943735814,0.0,0.0,0.0,0.0,-0.24626913984487178,-0.44925333986035254,-0.2553546089865378,-0.011364363862075389,0.018856884283029583,-0.04899292012122475
1564,1.0,300.55668,3146.3394,0.0,-0.01564002542477727,0.0,0.0,0.0,0.0,-0.24599096216241775,-0.4453057174707526,-0.2651119541370128,-0.005755245774548535,-0.0004598288135390705,-0.056891871369290546
1565,1.0,299.96063,3051.7544,0.0,-0.015650021412196735,0.0,0.0,0.0,0.0,-0.19826450131468282,-0.44369125542391763,-0.2857013684215297,0.008551580773875312,0.013585960302579886,-0.07249983405467653
1566,1.0,299.81557999999995,2920.9507,0.0,-0.01566001739961609,0.0,0.0,0.0,0.0,-0.18124646939263384,-0.44031957452365855,-0.2663300226122267,0.016191586636985184,0.01171835697001179,-0.08422903482725852
1567,1.0,300.28705,3025.0621,0.0,-0.01567001338703533,0.0,0.0,0.0,0.0,-0.1950982264746958,-0.4481838138497986,-0.27626131240736873,0.020589116388987583,0.0018010407043488783,-0.08126629862760923
1568,1.0,299.72544,3149.4929,0.0,-0.015680009374454684,0.0,0.0,0.0,0.0,-0.23003618423280378,-0.4535750339218706,-0.27375597047511074,-0.00016627864772292484,-0.013559919775009886,-0.09723147959599991
1569,1.0,299.74339,3011.9657,0.0,-0.0156900383519315,0.0,0.0,0.0,0.0,-0.22863578140209478,-0.4352843497417206,-0.25164225313765676,-0.0015507103770431986,-0.008103534447931581,-0.08139205512402042
1570,1.0,299.71148999999997,2849.1393,0.0,-0.015700034339350633,0.0,0.0,0.0,0.0,-0.19010075539148383,-0.4264518283550186,-0.24951463057767675,-0.0005692181898924615,-0.017285781234473784,-0.07240030756360402
1571,1.0,300.04028,2979.1048,0.0,-0.015710030326770097,0.0,0.0,0.0,0.0,-0.18164326826429483,-0.44656066824960655,-0.2773695243067408,-0.005084114200588005,-0.00960933910041793,-0.06522381174283903
1572,1.0,300.39227999999997,3266.5925,0.0,-0.015720026314189228,0.0,0.0,0.0,0.0,-0.2236728925447958,-0.47463956117827755,-0.2946500994622007,-0.007502310443420393,-0.018280092676854685,-0.07429956989554663
1573,1.0,299.92438,3269.7027,0.0,-0.015730022301608693,0.0,0.0,0.0,0.0,-0.2291780829881158,-0.4665680311466795,-0.2981618723212857,-0.0015636580921210386,0.006486933835435525,-0.07890508240282533
1574,1.0,299.82651,3135.9219,0.0,-0.015740018289028046,0.0,0.0,0.0,0.0,-0.2262517863018128,-0.46749166940783554,-0.25949851818550973,-0.007805239900642202,0.014251069827221087,-0.06937768220354414
1575,1.0,299.85503,3020.598,0.0,-0.015750014276447177,0.0,0.0,0.0,0.0,-0.23849579918520278,-0.42875407443723257,-0.2509364940455038,0.00037188300103949465,0.013241979118881588,-0.05854157526785364
1576,1.0,299.79039,3083.6858,0.0,-0.01576001026386664,0.0,0.0,0.0,0.0,-0.2065793126952908,-0.45091537399938253,-0.2798687867383987,0.004715295926463475,0.004376917002568076,-0.07047503104859403
1577,1.0,300.15963999999997,3160.6097,0.0,-0.015770039241343348,0.0,0.0,0.0,0.0,-0.21091223356791683,-0.4524968446229615,-0.29733734005241075,0.012601340597405489,0.025152483771606875,-0.06985503851115553
1578,1.0,300.56381,3010.467,0.0,-0.01578003522876259,0.0,0.0,0.0,0.0,-0.18933169856558382,-0.43548216655874356,-0.2902929416471827,-0.003182242141687847,-0.003087087824796847,-0.07580992252110683
1579,1.0,300.89171,2958.9349,0.0,-0.015790031216181943,0.0,0.0,0.0,0.0,-0.19578358884233582,-0.44284205051510755,-0.2608166856381028,-0.023629061233006777,-0.006762995041080643,-0.07132873580109814
1580,1.0,300.99571000000003,3168.9904,0.0,-0.015800027203601408,0.0,0.0,0.0,0.0,-0.22605234828462975,-0.4549134765089646,-0.28232813724861777,-0.012184587791525188,-0.016980377521832783,-0.07305004912397853
1581,1.0,300.22595,3330.7802,0.0,-0.01581002319102054,0.0,0.0,0.0,0.0,-0.27047139868594877,-0.4595338361699586,-0.28246878649499874,0.013023812186850187,-1.7694214243782983e-05,-0.04830322408290705
1582,1.0,299.79992999999996,3196.9365,0.0,-0.015820019178440003,0.0,0.0,0.0,0.0,-0.2118795935708878,-0.4607109794736336,-0.29919829545107274,0.008469111740286252,0.0025517913433421974,-0.059437135355488536
1583,1.0,299.83797000000004,3114.6059999999998,0.0,-0.015830015165859135,0.0,0.0,0.0,0.0,-0.2155255106107118,-0.45626638830748656,-0.2749705331049787,-0.007338569632560432,-0.00941238942283051,-0.054547414301160654
1584,1.0,299.79512,3106.8358,0.0,-0.0158400111532786,0.0,0.0,0.0,0.0,-0.20642902744045882,-0.4557955309860166,-0.2821759470835977,0.010515630114561891,-0.0012482289790156087,-0.08970672870261481
1585,1.0,300.22524,3127.5615,0.0,-0.015850040130755305,0.0,0.0,0.0,0.0,-0.2250689789300788,-0.4519101018875546,-0.2737214997067087,-0.004607404346540405,0.027052976189170876,-0.07128539402807063
1586,1.0,300.30656,2984.3933,0.0,-0.015860036118174548,0.0,0.0,0.0,0.0,-0.2107111642180728,-0.44132740373562357,-0.2551424850781028,0.004745945931388396,0.012314975854143487,-0.08779127666057442
1587,1.0,300.0779,2988.8623,0.0,-0.0158700321055939,0.0,0.0,0.0,0.0,-0.2168230888212728,-0.43746756933468756,-0.25424884915240775,-0.026672601088380772,0.00944710286463146,-0.06305958146999614
1588,1.0,299.92842,3072.6182,0.0,-0.015880028093013254,0.0,0.0,0.0,0.0,-0.19018048804185284,-0.4568104225511786,-0.2870082887980127,-0.00909026343583915,0.004644539253430335,-0.09381950275251401
1589,1.0,300.05109,3112.7747,0.0,-0.015890024080432497,0.0,0.0,0.0,0.0,-0.2104238875497208,-0.45165427650230655,-0.28412762889621374,-0.0007809387943901583,0.013321198051449887,-0.07375901920569843
1590,1.0,299.95286,3182.7172,0.0,-0.01590002006785185,0.0,0.0,0.0,0.0,-0.2102057550681928,-0.47057075407671756,-0.28669005733910574,0.007285029699926453,-0.012673088836986488,-0.0934974270227276
1591,1.0,300.16199,3216.0746,0.0,-0.015910016055271092,0.0,0.0,0.0,0.0,-0.23535227180996077,-0.4609750932446996,-0.2812790180950777,-0.008540085552815822,-0.03303973299426777,-0.06936558298410003
1592,1.0,299.34465,3096.8935,0.0,-0.015920012042690446,0.0,0.0,0.0,0.0,-0.2222354554229318,-0.4678652445872046,-0.25127758442666676,-0.005344498907310974,-0.03228865223839186,-0.08548413759362751
1593,1.0,299.47656,3116.4222,0.0,-0.015930041020167263,0.0,0.0,0.0,0.0,-0.23132189728469377,-0.4531456489269936,-0.26284698552597774,0.007378944406645113,0.006357439966030474,-0.06637114117557165
1594,1.0,299.76858,3157.7761,0.0,-0.015940037007586505,0.0,0.0,0.0,0.0,-0.2108958189162968,-0.4613600776201946,-0.28762918819429073,0.003601561003446397,4.6966661074748556e-05,-0.07007360567697643
1595,1.0,299.86054,3092.4748,0.0,-0.01595003299500586,0.0,0.0,0.0,0.0,-0.21092054221873682,-0.45286428963922554,-0.27625029837878173,-0.003834198869430966,0.00966896197870225,-0.06244283437262794
1596,1.0,300.25917999999996,3080.5717,0.0,-0.01596002898242521,0.0,0.0,0.0,0.0,-0.2083045432430578,-0.4598221970159176,-0.26829014479817576,-0.0009084744262544452,0.0048563341595578655,-0.09938099747739082
1597,1.0,300.47898,3108.5069,0.0,-0.015970024969844454,0.0,0.0,0.0,0.0,-0.22984144769608475,-0.4578047451393105,-0.2572623056123127,0.004118194735284176,0.030600394173523768,-0.08297613891960733
1598,1.0,300.45975,3080.2818,0.0,-0.015980020957263807,0.0,0.0,0.0,0.0,-0.22456272878261577,-0.4456564438603665,-0.26610959005297175,0.0066850816812661935,0.002412621138132168,-0.08144789128403102
1599,1.0,299.88871,3162.9429999999998,0.0,-0.01599001694468305,0.0,0.0,0.0,0.0,-0.22027778530222478,-0.4542219029182116,-0.28695600509285274,0.008630441522533262,-0.0031018020400990273,-0.06339076834468173
1600,1.0,299.84752000000003,3181.6064,0.0,-0.016000012932102403,0.0,0.0,0.0,0.0,-0.2107506201769668,-0.47055330590999556,-0.28582496466872775,0.0011428904853695088,-0.00986884673785434,-0.07825201028937213
1601,1.0,299.18855,3132.328,0.0,-0.016010008919521757,0.0,0.0,0.0,0.0,-0.2183346654529538,-0.44783397912027256,-0.28598085319661276,-0.004773611712118795,0.011910216889696887,-0.05245887077103745
1602,1.0,300.15578,3124.3348,0.0,-0.016020037896998574,0.0,0.0,0.0,0.0,-0.20852688071250083,-0.4629035209675205,-0.2782893628800217,-0.004128483074149556,-0.007822754840545794,-0.08039495015111384
1603,1.0,299.96267,3108.4508,0.0,-0.016030033884417927,0.0,0.0,0.0,0.0,-0.2275096147109508,-0.4528658703093815,-0.26451595029569175,-0.013006244456616387,-0.0025796318083898375,-0.05607565991023675
1604,1.0,300.25782000000004,3125.2726,0.0,-0.01604002987183717,0.0,0.0,0.0,0.0,-0.2149771396565918,-0.4619799738988735,-0.27304772892021273,0.011463873127896188,-0.018562524996478584,-0.0866589717003246
1605,1.0,300.14122000000003,3116.593,0.0,-0.01605002585925641,0.0,0.0,0.0,0.0,-0.2159235963099998,-0.45705425105524256,-0.2743886134400478,0.02482971599200218,0.018576771292884584,-0.06630337500888364
1606,1.0,300.56051,3043.3635,0.0,-0.016060021846675765,0.0,0.0,0.0,0.0,-0.1884884110373578,-0.4533401828136926,-0.28327791736235375,0.01117174299156519,-0.001106134128716939,-0.08482219346229872
1607,1.0,300.88406000000003,3094.5634,0.0,-0.016070017834095007,0.0,0.0,0.0,0.0,-0.2140147141816078,-0.4498401433907656,-0.27681513464702673,0.013993827918333287,-0.015367771749180987,-0.06884164756939164
1608,1.0,300.61692999999997,3163.3790000000004,0.0,-0.01608001382151436,0.0,0.0,0.0,0.0,-0.2007745244624028,-0.4759631495189055,-0.2848505625775617,-0.006376507509062295,-0.010660198612329688,-0.1128621694811289
1609,1.0,299.59506,3103.2123,0.0,-0.016090009808933714,0.0,0.0,0.0,0.0,-0.24404401222776875,-0.4466193252978956,-0.2526357245957047,0.0025225866383599177,0.013330779344395487,-0.07872434087648753
1610,1.0,300.27155,3167.8096,0.0,-0.01610003878641053,0.0,0.0,0.0,0.0,-0.2076935129027538,-0.4675628704923625,-0.28767861453416876,-0.014068554099958186,-0.005561953727172095,-0.08267358446624752
1611,1.0,300.3665,3196.1102,0.0,-0.016110034773829884,0.0,0.0,0.0,0.0,-0.22062714380420378,-0.45788902728262854,-0.2930215228414727,-0.022743252664334277,-0.0011507557379457488,-0.04424288876543316
1612,1.0,300.09801,3180.9081,0.0,-0.016120030761249127,0.0,0.0,0.0,0.0,-0.20026656192227082,-0.46740660706194054,-0.2992434762730317,0.004409416492900526,-0.00891796593053471,-0.06426631268984125
1613,1.0,299.57469,3254.3083,0.0,-0.016130026748668258,0.0,0.0,0.0,0.0,-0.23865441335585677,-0.47268860890573355,-0.2778854509926587,0.012345924565197888,0.006730211638070175,-0.054498498639333044
1614,1.0,299.86916,3184.022,0.0,-0.016140022736087722,0.0,0.0,0.0,0.0,-0.2231169627449298,-0.4628559387428246,-0.28189027135040373,-0.0044100324476363155,0.004573905183659296,-0.08021425118128021
1615,1.0,299.37742000000003,3076.7803,0.0,-0.016150018723506854,0.0,0.0,0.0,0.0,-0.2299243518192668,-0.46324022397575054,-0.24209979806838977,0.008557157702425712,-0.005042341344015345,-0.08508338198032601
1616,1.0,299.59886,3095.49,0.0,-0.01616001471092643,0.0,0.0,0.0,0.0,-0.2037756395360898,-0.4534346075905116,-0.2837414387530997,0.008795543938877602,0.008910656040338282,-0.09506134004857382
1617,1.0,299.90409,3101.2092,0.0,-0.01617001069834567,0.0,0.0,0.0,0.0,-0.21397643359282978,-0.44258845428007954,-0.2861252919983677,0.015862219559479186,0.015096051509614287,-0.07901336742776223
1618,1.0,300.14661,3024.8324,0.0,-0.01618003967582249,0.0,0.0,0.0,0.0,-0.1939753021838718,-0.4356002405928966,-0.2898979767582027,-0.0018403557201539683,-0.0038133309836214657,-0.07275899708575392
1619,1.0,300.23177999999996,3067.4427,0.0,-0.016190035663241842,0.0,0.0,0.0,0.0,-0.22342991517081578,-0.4438044455925886,-0.2651916361248768,-0.016577093849531786,-0.025977810428560275,-0.07335702945377513
1620,1.0,300.46477000000004,3236.2748,0.0,-0.016200031650661084,0.0,0.0,0.0,0.0,-0.22770073394481277,-0.4793003697832635,-0.2767456358226677,-0.012600125710535589,-0.014380501381744985,-0.07567201614274653
1621,1.0,299.93932,3369.8503,0.0,-0.016210027638080216,0.0,0.0,0.0,0.0,-0.2544652692412667,-0.49581878834600446,-0.27406627831823577,-0.0002097284737410888,0.0038679394898109057,-0.07870349426893013
1622,1.0,299.88697,3387.6983,0.0,-0.01622002362549968,0.0,0.0,0.0,0.0,-0.23423175905437477,-0.48459159220296655,-0.3109523411161067,0.005190904276327365,0.0007764685578639803,-0.06312768200921715
1623,1.0,300.29916000000003,3215.4041,0.0,-0.016230019612919033,0.0,0.0,0.0,0.0,-0.2236005566201568,-0.47124222478548655,-0.2825597763539787,-0.021952128264506376,-0.01137551062642549,-0.05606752655168404
1624,1.0,299.86719,3011.9683,0.0,-0.016240015600338387,0.0,0.0,0.0,0.0,-0.18754961455470584,-0.4483298333217095,-0.27968370647513274,-0.014524581492964588,0.00907953858883069,-0.06778967611682013
1625,1.0,299.34337,3057.985,0.0,-0.01625001158775763,0.0,0.0,0.0,0.0,-0.21107476901645778,-0.4524445203877976,-0.26603179271029376,-0.0028114582636943274,0.009730169073517921,-0.07321312868782323
1626,1.0,299.71847,3246.2394,0.0,-0.016260040565234335,0.0,0.0,0.0,0.0,-0.23761916559618576,-0.4679213381127405,-0.28123520516075373,0.004290754976339546,0.003372270611817197,-0.08618841126113391
1627,1.0,299.61152999999996,3228.4346,0.0,-0.0162700365526538,0.0,0.0,0.0,0.0,-0.24637317023263874,-0.4627323728931296,-0.27225796126226876,-0.001935120847681558,-0.021267544072943182,-0.09501974613196881
1628,1.0,299.89587,3114.5485,0.0,-0.01628003254007293,0.0,0.0,0.0,0.0,-0.20176201774486083,-0.47025084062264455,-0.27473212548894976,0.0024421526162716977,0.015468719830143784,-0.10383056471477892
1629,1.0,299.85638,3109.1155,0.0,-0.016290028527492173,0.0,0.0,0.0,0.0,-0.2149647273428668,-0.4621260339007886,-0.26800271614230875,0.0015775493456919986,0.017104156154048783,-0.08108427837964521
1630,1.0,299.78995,3221.8759999999997,0.0,-0.016300024514911526,0.0,0.0,0.0,0.0,-0.2151113851623408,-0.4711577805221525,-0.29310067793928474,0.014289269355991088,0.008062033345035743,-0.06560529837898883
1631,1.0,300.16683,3227.7090000000003,0.0,-0.01631002050233099,0.0,0.0,0.0,0.0,-0.22887611419331377,-0.4754397957097545,-0.27682700993819875,-0.005294851172286125,-0.018520357580316983,-0.06746975050374593
1632,1.0,300.05312000000004,3224.7938,0.0,-0.016320016489750344,0.0,0.0,0.0,0.0,-0.22114826846313482,-0.4800388771186485,-0.27906964651702976,-0.014732061676191288,-0.01129017976925399,-0.06846600029356813
1633,1.0,300.11843999999996,3188.5945,0.0,-0.016330012477169475,0.0,0.0,0.0,0.0,-0.22484821199829078,-0.47109814062126654,-0.2733067764407788,0.005172384394974595,0.004411763382782146,-0.07046463003631753
1634,1.0,300.03533999999996,3137.9648,0.0,-0.016340041454646292,0.0,0.0,0.0,0.0,-0.19987318783594782,-0.4564619354442856,-0.29752782093870966,-0.015722965558485884,0.007692995094314503,-0.061397257541437544
1635,1.0,300.1081,3323.7172,0.0,-0.016350037442065757,0.0,0.0,0.0,0.0,-0.23537013540922377,-0.4687856404480406,-0.30617126985675175,-0.001127300214030869,-0.01069840422060029,-0.06677073965725894
1636,1.0,300.34661,3358.1814,0.0,-0.016360033429484888,0.0,0.0,0.0,0.0,-0.2213730377328178,-0.4772504736384546,-0.3221797601741667,-0.012079184449872687,0.014956697196861086,-0.06725177811573374
1637,1.0,300.64013,3080.8072,0.0,-0.01637002941690413,0.0,0.0,0.0,0.0,-0.20953795232478578,-0.45778023461939155,-0.26917027410003774,-0.0001699041984357388,0.031087330760830676,-0.0921089896624495
1638,1.0,300.28514,3012.5246,0.0,-0.016380025404323706,0.0,0.0,0.0,0.0,-0.1917223608515238,-0.4604622265740836,-0.2635476885001317,0.008159474567402443,0.0015716295333077586,-0.08740533273723472
1639,1.0,299.88532000000004,3243.5084,0.0,-0.016390021391742837,0.0,0.0,0.0,0.0,-0.24119586752167876,-0.47913732770967254,-0.26561235783139875,0.006901246735075024,-0.025834495321166176,-0.096841723825784
1640,1.0,299.5418,3312.33,0.0,-0.0164000173791623,0.0,0.0,0.0,0.0,-0.2242504552342968,-0.48648507292983856,-0.2961300829557637,0.007100607542600403,-0.009293731148669852,-0.07746701807914942
1641,1.0,300.2973,3219.6802,0.0,-0.016410013366581433,0.0,0.0,0.0,0.0,-0.23626782433531876,-0.4803797648497915,-0.2620548063327957,0.00946491630801451,-0.005707323807094005,-0.06518202024246453
1642,1.0,299.90662000000003,3117.6464,0.0,-0.016420009354000675,0.0,0.0,0.0,0.0,-0.1976807577995718,-0.46351284904765655,-0.28649307138716473,-0.017455013252925686,-0.001135191709784699,-0.05786039660987654
1643,1.0,299.7929,3270.2803,0.0,-0.016430038331477603,0.0,0.0,0.0,0.0,-0.22916381642670777,-0.4815232986476496,-0.2833964270940498,-0.0022541549019927678,-0.019572934956448282,-0.060766521513188745
1644,1.0,299.57216,3363.6564,0.0,-0.016440034318896846,0.0,0.0,0.0,0.0,-0.22541316985654777,-0.48690872292914955,-0.3101456724464947,-0.005164135829885525,0.009511906895977121,-0.07991653398389782
1645,1.0,299.28595,3287.9015,0.0,-0.0164500303063162,0.0,0.0,0.0,0.0,-0.23847735803338277,-0.4710872785801946,-0.2898753407509687,0.02261056655048918,0.017324314122526684,-0.08248223725111302
1646,1.0,299.48967999999996,2979.0478,0.0,-0.016460026293735663,0.0,0.0,0.0,0.0,-0.17926771353734583,-0.44960303273486457,-0.2766854082367237,-0.002175150778445668,0.018402316983417284,-0.089180306772161
1647,1.0,300.41638,2788.127,0.0,-0.016470022281154795,0.0,0.0,0.0,0.0,-0.18284730322562384,-0.4351662655750666,-0.22950740953561777,-0.006122514383970124,-0.0038474923054429263,-0.0972694521567475
1648,1.0,299.63027,3035.4025,0.0,-0.016480018268574148,0.0,0.0,0.0,0.0,-0.1979127515424678,-0.4599496942760005,-0.26482412018110574,-0.007473635161615364,-0.0021842395305176577,-0.09531707424131282
1649,1.0,299.90873999999997,3344.5975,0.0,-0.01649001425599339,0.0,0.0,0.0,0.0,-0.25914091182771676,-0.47882505416135357,-0.27870815941135374,-0.003296207851985387,0.0013057590905433888,-0.10240425307901291
1650,1.0,300.20817999999997,3208.6565,0.0,-0.016500010243412633,0.0,0.0,0.0,0.0,-0.2300147539931888,-0.4644285839580325,-0.2809081381609747,-0.007836486811201032,-0.008963894328417491,-0.07568661707668753
1651,1.0,300.38839,3069.6046,0.0,-0.01651003922088956,0.0,0.0,0.0,0.0,-0.2018759374536038,-0.4552451943267025,-0.27596201859283076,-0.006974056455460784,-0.03124807376994477,-0.08258317823932512
1652,1.0,300.47073,3283.1604,0.0,-0.016520035208308803,0.0,0.0,0.0,0.0,-0.2208155171302948,-0.47302970941939754,-0.3041535545351187,0.007482943383659013,-0.0005792541788204365,-0.05021834783191505
1653,1.0,300.02355,3438.8379,0.0,-0.016530031195728156,0.0,0.0,0.0,0.0,-0.25563381005159275,-0.47502384641120354,-0.3146631973548397,0.02045780322902798,0.0020985143164072378,-0.05063409650694625
1654,1.0,299.59452999999996,3345.0393,0.0,-0.01654002718314751,0.0,0.0,0.0,0.0,-0.23935093160709778,-0.47573713395159956,-0.3017203661424817,0.015415617418902985,0.019742494254682483,-0.05211930229152465
1655,1.0,299.69875,3200.3697,0.0,-0.016550023170566752,0.0,0.0,0.0,0.0,-0.2262079328374848,-0.4743548480326785,-0.27226968456592576,-0.019690197377271183,-0.014130011771523586,-0.0885672914749111
1656,1.0,299.94682,3113.6889,0.0,-0.016560019157986106,0.0,0.0,0.0,0.0,-0.21451421608340476,-0.45898767410105656,-0.27298179673620576,0.005871787774550334,-0.0050364513211840455,-0.07590559764854922
1657,1.0,300.15245,3264.284,0.0,-0.016570015145405348,0.0,0.0,0.0,0.0,-0.23375842940266076,-0.4773826014514946,-0.2811198061068647,-0.007905095900647223,0.007647521139101572,-0.101012838789941
1658,1.0,300.14538,3338.5955,0.0,-0.0165800111328247,0.0,0.0,0.0,0.0,-0.22817234107135675,-0.47728986880234253,-0.3093874573966647,0.004865968850783735,0.0065206025150583635,-0.07924398011077192
1659,1.0,300.00718,3102.2518,0.0,-0.016590040110301518,0.0,0.0,0.0,0.0,-0.2059010734758538,-0.4622698039574776,-0.2748361964067207,-0.007505386772049003,-0.017182990051579083,-0.08042936417751022
1660,1.0,300.4976,3055.313,0.0,-0.01660003609772076,0.0,0.0,0.0,0.0,-0.18638449852971783,-0.4679218852677945,-0.2744324669043758,-0.017883181334432584,0.008574012003264101,-0.09492278215039922
1661,1.0,300.27123,3234.5675,0.0,-0.016610032085140114,0.0,0.0,0.0,0.0,-0.24799874763307075,-0.4662994489426726,-0.2689295360087787,0.013020582958781488,-0.0019595476731422983,-0.07787338811125502
1662,1.0,299.54731,3398.6075,0.0,-0.016620028072559467,0.0,0.0,0.0,0.0,-0.24600954516925178,-0.4891094210863416,-0.2979728606476317,0.0031333484673874167,0.01067331513487419,-0.07838785977002943
1663,1.0,299.90066,3321.5939,0.0,-0.01663002405997871,0.0,0.0,0.0,0.0,-0.23446788685767875,-0.4847321401243375,-0.29048158855080075,-0.0012298410228258588,-0.0010364381258884789,-0.07197591485196973
1664,1.0,299.89599999999996,3145.6906,0.0,-0.016640020047398063,0.0,0.0,0.0,0.0,-0.1909485620151558,-0.4671781191643905,-0.29808470319366975,0.0009319160787754561,-0.0017540854788147585,-0.06663424068328754
1665,1.0,299.48851,3213.1659,0.0,-0.016650016034817305,0.0,0.0,0.0,0.0,-0.21226668550659078,-0.4719940766246885,-0.29246143871619673,-0.006053235738857854,0.00016569932197824983,-0.07652296282847842
1666,1.0,300.61202000000003,3408.1135,0.0,-0.01666001202223666,0.0,0.0,0.0,0.0,-0.2297114375757538,-0.4840732539818105,-0.3221967017158387,-0.007043783970367353,-0.007223395418868623,-0.06523055796200483
1667,1.0,300.45095,3348.1424,0.0,-0.016670040999713476,0.0,0.0,0.0,0.0,-0.2568088964575648,-0.4800993884146205,-0.28084341174458677,0.006608126856046344,-0.02407753484651768,-0.09549166432629351
1668,1.0,300.58895,3197.4161,0.0,-0.01668003698713283,0.0,0.0,0.0,0.0,-0.20645095417262282,-0.48057440006150054,-0.28490929055335773,0.0026633089400731275,0.005658179454718834,-0.08940000472509352
1669,1.0,300.53215,3187.8466,0.0,-0.01669003297455207,0.0,0.0,0.0,0.0,-0.24004992218858276,-0.45407676497388755,-0.2748990685754258,0.007836380622590552,0.009625593658522131,-0.08032600962755994
1670,1.0,300.58333,3345.3025,0.0,-0.016700028961971425,0.0,0.0,0.0,0.0,-0.23696575100419875,-0.4737849455139335,-0.30613774141094274,-0.01114826497349809,0.01133216480039759,-0.07293642427101463
1671,1.0,300.61171,3484.8968,0.0,-0.016710024949390667,0.0,0.0,0.0,0.0,-0.24814167669217677,-0.4964410961599215,-0.3147388263423037,-0.01013105478813226,0.006060288162203875,-0.07089958588024434
1672,1.0,300.90991,3384.8134,0.0,-0.01672002093681002,0.0,0.0,0.0,0.0,-0.22846795678803178,-0.4841658751734515,-0.3162649228479177,-0.016290666284763586,0.00970401455531167,-0.06787954532118953
1673,1.0,300.15592000000004,3243.2374,0.0,-0.016730016924229152,0.0,0.0,0.0,0.0,-0.23202007726609877,-0.4872716285849656,-0.26657146997855574,-0.009532059123240991,0.013898612806436287,-0.06960665848764233
1674,1.0,299.91252000000003,3281.5125,0.0,-0.016740012911648616,0.0,0.0,0.0,0.0,-0.22181952638938277,-0.48023581240808455,-0.29544253196790776,-0.016462280454200586,-0.004623410253070066,-0.08379816339448483
1675,1.0,299.88371,3382.1322,0.0,-0.016750041889125322,0.0,0.0,0.0,0.0,-0.2441343738716868,-0.48518797094682453,-0.2987614022729547,0.014777635639189088,-0.003333506702741497,-0.07267908306361703
1676,1.0,300.13155,3295.5747,0.0,-0.016760037876544787,0.0,0.0,0.0,0.0,-0.20867318389443978,-0.48838910159025156,-0.3047101429475497,0.01186113708135309,-0.0024467836758537477,-0.09214562574631523
1677,1.0,300.26696,3093.0649,0.0,-0.016770033863963918,0.0,0.0,0.0,0.0,-0.18600751883001282,-0.4618312997117006,-0.2923756670952317,0.02018491471209598,0.006169659087272943,-0.07077915806610903
1678,1.0,299.55034,3123.1509,0.0,-0.016780029851383382,0.0,0.0,0.0,0.0,-0.2009683186765288,-0.4763745493245075,-0.27201702052098975,-0.018868394804165585,-0.02362046785890868,-0.08884323696739482
1679,1.0,299.27789,3318.7812,0.0,-0.016790025838802514,0.0,0.0,0.0,0.0,-0.24616953736004174,-0.4800188248991696,-0.2826382525742237,0.0001042811671667499,-0.0065764745441225046,-0.09228245402656911
1680,1.0,299.78983,3437.9645,0.0,-0.016800021826221978,0.0,0.0,0.0,0.0,-0.2546589114678778,-0.49749970946689853,-0.2928967208266557,-0.008071032221823862,0.007550503961901723,-0.09391800383448531
1681,1.0,300.13311,3271.8524,0.0,-0.01681001781364133,0.0,0.0,0.0,0.0,-0.24336211517547074,-0.4766880894354515,-0.27451123696714974,-0.0005489876789258654,0.008033755561244941,-0.08168997395817272
1682,1.0,300.40291,3166.6299,0.0,-0.016820013801060463,0.0,0.0,0.0,0.0,-0.2093353225697878,-0.46148534573005756,-0.29175575055155073,-0.0002638929332067048,-0.0026001621805910274,-0.07100969272886103
1683,1.0,300.82484,3265.1988,0.0,-0.016830009788479927,0.0,0.0,0.0,0.0,-0.2149382916477578,-0.4880025061470975,-0.2895981053911077,-0.014920371167525986,-0.007019385009284364,-0.07214302816446254
1684,1.0,300.49646,3390.4218,0.0,-0.016840038765956744,0.0,0.0,0.0,0.0,-0.22803154996996178,-0.48910512490591757,-0.3134668934917737,0.014269177619758185,-0.006685976178454474,-0.06506248408841724
1685,1.0,300.43616000000003,3382.6908,0.0,-0.016850034753375875,0.0,0.0,0.0,0.0,-0.24084182780423777,-0.48908693706662254,-0.2983247826723637,0.004598981806409165,-0.007992741122372133,-0.07700379559718293
1686,1.0,300.26534,3174.7248,0.0,-0.01686003074079523,0.0,0.0,0.0,0.0,-0.20594055983225082,-0.4798637976338695,-0.27923270885562274,0.014244264839549487,-0.0031726708799182366,-0.08118932505726252
1687,1.0,299.83598,3058.8492,0.0,-0.01687002672821447,0.0,0.0,0.0,0.0,-0.20784041390225177,-0.45420338070638355,-0.26776997259433877,-0.0033534975192644366,-0.006723673540474914,-0.08408299002409501
1688,1.0,299.66794,3270.5075,0.0,-0.016880022715633825,0.0,0.0,0.0,0.0,-0.20864081055374478,-0.48546340272150756,-0.3000484021524717,0.011592976389387688,0.012384609440765788,-0.08158891543294901
1689,1.0,299.90673,3443.0485,0.0,-0.01689001870305329,0.0,0.0,0.0,0.0,-0.25589972740783673,-0.48715261222821954,-0.30354844157539873,-0.00947876064810584,0.00993899282637722,-0.06848937293362484
1690,1.0,300.04172,3341.9554,0.0,-0.01690001469047242,0.0,0.0,0.0,0.0,-0.23938734781569176,-0.4768180286282755,-0.2996656266621947,0.0059239249637458745,-0.005257776148477105,-0.07078603398128763
1691,1.0,299.98207,3232.3656,0.0,-0.016910010677891885,0.0,0.0,0.0,0.0,-0.25483895587814676,-0.47447246610428656,-0.25324700824853374,-0.007117760954868313,0.005318313991601725,-0.07427594394296494
1692,1.0,300.00625,3283.634,0.0,-0.01692003965536859,0.0,0.0,0.0,0.0,-0.22240795111995582,-0.48404132647115955,-0.2916934660679037,0.011754236156052788,0.0034461690694354064,-0.08969477741768532
1693,1.0,300.11027,3411.5263,0.0,-0.016930035642787833,0.0,0.0,0.0,0.0,-0.25142470834118674,-0.4879232193267726,-0.29767087158782773,0.012033140338828489,0.003814324374019507,-0.07085519741986353
1694,1.0,299.97900000000004,3420.7538,0.0,-0.016940031630207186,0.0,0.0,0.0,0.0,-0.2040196301601698,-0.5018196911357475,-0.3339844176816957,0.012974296680963386,-0.0013031840167392489,-0.09094688805650901
1695,1.0,300.42825,3090.2801,0.0,-0.01695002761762643,0.0,0.0,0.0,0.0,-0.2058571490840188,-0.4616984423585886,-0.2718123946632947,-0.0035637766032423665,0.0032383609984763468,-0.08098594448394042
1696,1.0,300.20115,2988.9738,0.0,-0.016960023605045782,0.0,0.0,0.0,0.0,-0.16655236710493884,-0.47665133885432454,-0.26536968443244874,-0.005881513759610215,-0.004975103688579505,-0.09176237504174131
1697,1.0,300.67418,3272.9982,0.0,-0.016970019592465135,0.0,0.0,0.0,0.0,-0.23734069407120278,-0.4753185198052855,-0.2822505121584567,-0.005860049170816824,0.004565505340330296,-0.08152667147930602
1698,1.0,300.13862,3452.2137,0.0,-0.016980015579884378,0.0,0.0,0.0,0.0,-0.24019433059283476,-0.4957844594326165,-0.3134079729984587,0.0006470852340448403,-0.005187714666337576,-0.08760070356851632
1699,1.0,300.26599999999996,3339.9055,0.0,-0.01699001156730373,0.0,0.0,0.0,0.0,-0.23994853638357677,-0.48279950741360156,-0.2924998510274877,0.004020279717170716,0.010761417231069189,-0.08315522783503201
1700,1.0,300.09136,3200.119,0.0,-0.017000040544780548,0.0,0.0,0.0,0.0,-0.20833738267879878,-0.4674894402576155,-0.2969294460921547,-0.0023602632630648477,0.01051605162660349,-0.08218161607894402
1701,1.0,299.97700000000003,3290.551,0.0,-0.01701003653219979,0.0,0.0,0.0,0.0,-0.2457891531400008,-0.47766618988948256,-0.27679001617704774,0.0017115063791375282,0.00862212831208781,-0.07172799585725204
1702,1.0,299.48335,3469.6713,0.0,-0.017020032519619144,0.0,0.0,0.0,0.0,-0.25968688137909973,-0.4906271278811275,-0.3043794079824087,0.008064060047885763,-0.014557122019926086,-0.07056116136009444
1703,1.0,299.94377000000003,3485.0852,0.0,-0.017030028507038386,0.0,0.0,0.0,0.0,-0.2760244753289947,-0.4846663497953445,-0.2986880530982157,0.005915358035475385,0.0008314671856069222,-0.07516820894127463
1704,1.0,299.38007999999996,3194.4847,0.0,-0.01704002449445796,0.0,0.0,0.0,0.0,-0.20621069230891081,-0.47634136538373256,-0.2884915349568977,-0.0014797044444854585,-0.01200158570421429,-0.07844207371662992
1705,1.0,300.34691000000004,3122.6481,0.0,-0.017050020481877093,0.0,0.0,0.0,0.0,-0.1941897363025348,-0.46721813241083954,-0.28779918116356773,0.005851136014987165,0.011512154495161188,-0.08352236988951613
1706,1.0,300.62025,3430.7825,0.0,-0.017060016469296335,0.0,0.0,0.0,0.0,-0.21328325906691878,-0.5052761202743705,-0.3243128137546827,-0.013649151645066386,0.003398953134650557,-0.08336310014604742
1707,1.0,299.76595,3536.6197,0.0,-0.01707001245671569,0.0,0.0,0.0,0.0,-0.26218875799601576,-0.5032605631754505,-0.3095947582346237,0.017343817160451483,0.014958882777326784,-0.07383743057793703
1708,1.0,299.68344,3363.4439,0.0,-0.017080041434192506,0.0,0.0,0.0,0.0,-0.22940428094043977,-0.49365418215737455,-0.2993444973080017,-0.003117389879637427,0.0024524585856888176,-0.08565043118678942
1709,1.0,300.74492999999995,3164.9498,0.0,-0.017090037421611748,0.0,0.0,0.0,0.0,-0.22173360278090276,-0.47817681727737754,-0.26215529034521273,0.006501479952546114,0.0014290867251398787,-0.07257831432792193
1710,1.0,300.15747000000005,3216.5061,0.0,-0.0171000334090311,0.0,0.0,0.0,0.0,-0.20687295257427082,-0.4911214824724165,-0.2797431133284957,-0.0003282229560230837,-0.02019572001116238,-0.08562257288854001
1711,1.0,300.33589,3450.5129,0.0,-0.017110029396450455,0.0,0.0,0.0,0.0,-0.24329524066887076,-0.4987481855776136,-0.3068263259139007,0.011804633189526589,0.012677132718135588,-0.07690066396225463
1712,1.0,299.92855,3380.8964,0.0,-0.017120025383869808,0.0,0.0,0.0,0.0,-0.22403202891023977,-0.49493195132848056,-0.30874410437817074,-0.0023727044544176977,0.009150291006213411,-0.09871295864671051
1713,1.0,299.95495,3157.0312,0.0,-0.01713002137128905,0.0,0.0,0.0,0.0,-0.2222855505078758,-0.4661026352432485,-0.27127046797981075,-0.005784063721967644,0.006369225685893634,-0.07005915673055044
1714,1.0,299.92896,3168.2275,0.0,-0.017140017358708293,0.0,0.0,0.0,0.0,-0.2057491872858638,-0.48290405455891955,-0.27440879738203977,-0.018759550465173483,-0.008193956076255502,-0.09477775566358622
1715,1.0,299.75865,3389.228,0.0,-0.017150013346127646,0.0,0.0,0.0,0.0,-0.24113880127604675,-0.4844609640000745,-0.3046409278332187,-0.0025393147895608576,0.0010570139930191592,-0.07393370554943862
1716,1.0,299.37934,3585.842,0.0,-0.017160042323604463,0.0,0.0,0.0,0.0,-0.24469251255677074,-0.5147016361495965,-0.3306122808188917,0.018285322060620782,-0.00905751914428254,-0.07876545045954472
1717,1.0,299.72701,3442.9059,0.0,-0.017170038311023594,0.0,0.0,0.0,0.0,-0.2292876862514328,-0.49342823751757553,-0.3238415106031687,0.009385524312329132,-0.009097582850586521,-0.06859916770121073
1718,1.0,299.40606,3122.8386,0.0,-0.01718003429844306,0.0,0.0,0.0,0.0,-0.2004698097598298,-0.4698442841525205,-0.27895085307530576,0.020815770303856583,-0.013139818177549088,-0.06602259530017285
1719,1.0,299.93953,3289.697,0.0,-0.017190030285862412,0.0,0.0,0.0,0.0,-0.23629005504251277,-0.4899913742383835,-0.27370430485251174,-0.0016952277056809485,0.0063476964517438636,-0.059534022330050534
1720,1.0,300.05503,3602.8327,0.0,-0.017200026273281765,0.0,0.0,0.0,0.0,-0.26201575567394175,-0.5144478372645485,-0.3187075749964887,-0.001055308895750879,0.0017174945859035182,-0.06693851259556684
1721,1.0,299.91042000000004,3545.6146,0.0,-0.017210022260701008,0.0,0.0,0.0,0.0,-0.26988414932549176,-0.5053834335924615,-0.3025107417504857,-0.016625663993075284,0.007208589403107384,-0.07313120539073803
1722,1.0,300.63819,3329.4313,0.0,-0.01722001824812014,0.0,0.0,0.0,0.0,-0.22460064460135779,-0.4914884107311296,-0.2959749239679507,-0.007598800831893253,0.004485483103082715,-0.09181373668931031
1723,1.0,300.10161,3221.3115,0.0,-0.017230014235539604,0.0,0.0,0.0,0.0,-0.20978740436690482,-0.48681383205728457,-0.28259702342765475,-0.004993489212969015,0.018933691680359882,-0.08403797537515242
1724,1.0,299.72285,3368.1359,0.0,-0.01724004321301631,0.0,0.0,0.0,0.0,-0.2129060868496948,-0.5060016580084755,-0.3049214866534077,0.008948165647115192,0.004637110306347156,-0.0934421674020239
1725,1.0,299.82698,3580.2289,0.0,-0.017250039200435552,0.0,0.0,0.0,0.0,-0.25770762903126276,-0.5162830257131674,-0.31430953253993565,0.0013879518108301785,-0.0025571888252998876,-0.08304020773668042
1726,1.0,299.24172000000004,3336.1837,0.0,-0.017260035187854905,0.0,0.0,0.0,0.0,-0.2145782940197288,-0.4972590321706455,-0.3022792039701347,0.008889826151407532,-0.0013533482053400688,-0.08938172265353922
1727,1.0,299.50939,2998.2726,0.0,-0.01727003117527437,0.0,0.0,0.0,0.0,-0.1976936463408438,-0.47402822686294355,-0.23967812019688878,-0.0015570379212676783,0.008696256372178681,-0.08616554524612723
1728,1.0,300.31269,3132.2382,0.0,-0.017280027162693723,0.0,0.0,0.0,0.0,-0.1880606168451378,-0.48358400617102554,-0.28047758792848276,0.006527495250188624,-0.0054048803046201545,-0.08593887613250673
1729,1.0,300.16014,3484.6697,0.0,-0.017290023150112965,0.0,0.0,0.0,0.0,-0.25075266007986075,-0.5064122573464985,-0.3020876591712307,-0.008366834477842273,-0.009609884532946762,-0.07625310392934542
1730,1.0,300.08807,3604.633,0.0,-0.017300019137532097,0.0,0.0,0.0,0.0,-0.2575427631074918,-0.5143570905855925,-0.3238185706209047,0.01004511283982545,-0.002293316106432678,-0.07407741177137134
1731,1.0,300.43012000000004,3367.0621,0.0,-0.01731001512495145,0.0,0.0,0.0,0.0,-0.25812014341197476,-0.4787005257240635,-0.28668212359082273,-0.004011321167736576,0.008152109961700613,-0.07840172711089803
1732,1.0,299.67098,3283.8387,0.0,-0.017320011112370914,0.0,0.0,0.0,0.0,-0.2159943718294848,-0.4966521662882526,-0.28555843936242375,0.0015852356583005783,0.02116654330297518,-0.08007284199732423
1733,1.0,299.76307,3551.5257,0.0,-0.01733004008984751,0.0,0.0,0.0,0.0,-0.26864767009596074,-0.5061907406096365,-0.3047367103651717,-0.004714690610853735,0.01903744443759948,-0.08588484963717473
1734,1.0,299.43268,3705.9711,0.0,-0.017340036077267085,0.0,0.0,0.0,0.0,-0.26765825163831275,-0.5155942993551955,-0.34327010504312166,-0.001078621652726669,0.016690658920739784,-0.08082207458501772
1735,1.0,299.55356,3389.2317,0.0,-0.017350032064686216,0.0,0.0,0.0,0.0,-0.2383768233584608,-0.49842201023792254,-0.29344297408806674,0.0002771407729641647,0.006265275344884534,-0.09038475817928111
1736,1.0,299.66249,3032.9459,0.0,-0.01736002805210568,0.0,0.0,0.0,0.0,-0.18470427655139282,-0.4626534711078426,-0.27458208341414175,-0.004177464597233655,-0.025109159223831078,-0.06815167288729644
1737,1.0,300.32316000000003,3138.9188,0.0,-0.017370024039524812,0.0,0.0,0.0,0.0,-0.20394189361249782,-0.4804127765380496,-0.26979826624701575,-0.006660312681246684,-0.030528025824881573,-0.07924033646341233
1738,1.0,300.47892,3588.7542,0.0,-0.017380020026944054,0.0,0.0,0.0,0.0,-0.2632687812776058,-0.5078396328948696,-0.31978324130264874,-0.003453165257400877,-0.016124547983868986,-0.07271613356677363
1739,1.0,300.26317,3668.5214,0.0,-0.017390016014363407,0.0,0.0,0.0,0.0,-0.27600782762985177,-0.5180102624961325,-0.32112081249465674,0.01612937004109488,0.0006547964320758764,-0.08117955529979833
1740,1.0,300.33297000000005,3280.9021,0.0,-0.017400012001782872,0.0,0.0,0.0,0.0,-0.2075954302930738,-0.5049291631751285,-0.2847877208063597,0.0046445522230316155,0.01037058437599699,-0.0984997181366653
1741,1.0,300.09996,3241.0736,0.0,-0.017410040979259578,0.0,0.0,0.0,0.0,-0.2112717144383948,-0.4932630676187745,-0.2806706830000398,0.006015362172645025,0.006415622711947664,-0.08881924725802723
1742,1.0,299.81162,3533.366,0.0,-0.017420036966679042,0.0,0.0,0.0,0.0,-0.24209187445260777,-0.5138922418372155,-0.3180709296936567,-0.003388583330477137,-0.0008508557364029231,-0.08784925381804631
1743,1.0,299.71327,3554.5992,0.0,-0.017430032954098174,0.0,0.0,0.0,0.0,-0.26056486259074974,-0.5044582146611495,-0.31548632120607567,0.0027773404103021574,0.007813783524160392,-0.08109551734975443
1744,1.0,299.51439,3201.5239,0.0,-0.017440028941517638,0.0,0.0,0.0,0.0,-0.21709926026852877,-0.4691747892814465,-0.2869092638657397,-0.004279119420141206,0.005982011450903564,-0.0898350943180335
1745,1.0,299.83512,2994.1123,0.0,-0.01745002492893677,0.0,0.0,0.0,0.0,-0.19481345253409083,-0.4648338333355276,-0.2504881004787508,-0.012027373932509387,-0.008118489208807502,-0.08059350461420962
1746,1.0,299.88646,3257.491,0.0,-0.01746002091635601,0.0,0.0,0.0,0.0,-0.19475312362313682,-0.4944603847319405,-0.3009824262271527,-0.008959101959419522,0.00902827583447145,-0.097322642720747
1747,1.0,299.84668,3611.8587,0.0,-0.017470016903775587,0.0,0.0,0.0,0.0,-0.2617968024598327,-0.5156893928770805,-0.3204286714838477,0.004438149124661216,0.011976704334758687,-0.07651464708490772
1748,1.0,299.94513,3657.4997,0.0,-0.01748001289119472,0.0,0.0,0.0,0.0,-0.2528216053265498,-0.5258179422016905,-0.3331490335042497,0.017545990952904482,0.004064087686569226,-0.07393501264206763
1749,1.0,300.49723,3433.3848,0.0,-0.017490041868671535,0.0,0.0,0.0,0.0,-0.24478212439561475,-0.49776568761814854,-0.3011154254352787,-0.001856016615024578,-0.013990283569483487,-0.06113299076960644
1750,1.0,300.12037999999995,3344.6969,0.0,-0.01750003785609089,0.0,0.0,0.0,0.0,-0.2225900017654228,-0.5018911860628035,-0.29222314255767873,0.0045132968183277155,-0.027326727995188073,-0.06750232345471063
1751,1.0,300.35807,3621.3431,0.0,-0.01751003384351013,0.0,0.0,0.0,0.0,-0.2744326087593898,-0.5052077765551255,-0.32115749214827666,-0.0015920786428509285,-0.002595407909796818,-0.07755921471899851
1752,1.0,300.41276,3786.9722,0.0,-0.017520029830929484,0.0,0.0,0.0,0.0,-0.27300885051387574,-0.5181987067497306,-0.35993741057555667,0.0070520303063062026,0.018316115744409882,-0.07145091653790643
1753,1.0,300.00437,3365.5104,0.0,-0.017530025818348727,0.0,0.0,0.0,0.0,-0.2298018498821768,-0.4948117393366165,-0.2984175457190187,0.005873050385499944,-0.009905483632320121,-0.08412563366780362
1754,1.0,299.75777999999997,3125.1295,0.0,-0.01754002180576808,0.0,0.0,0.0,0.0,-0.1901260157164768,-0.47692192729352956,-0.28291340063887876,0.007397277242029423,-0.0014876163065662984,-0.07706034508526392
1755,1.0,299.75176,3419.2025,0.0,-0.017550017793187545,0.0,0.0,0.0,0.0,-0.2272262187904818,-0.5111816154346975,-0.3009443381558937,0.007814250429806473,-0.007077605245455253,-0.07906417482752652
1756,1.0,299.01581,3609.5035,0.0,-0.017560013780606676,0.0,0.0,0.0,0.0,-0.26280111569395076,-0.5191241789935674,-0.3152736501425867,0.012565934599161189,0.005497149087876374,-0.08378543899972901
1757,1.0,299.15598,3585.7352,0.0,-0.017570042758083493,0.0,0.0,0.0,0.0,-0.24402702002359175,-0.5287337618819595,-0.3172131729540027,-0.014283272941899287,-0.0029508204797983073,-0.09548733673511642
1758,1.0,299.80523999999997,3277.6442,0.0,-0.017580038745502846,0.0,0.0,0.0,0.0,-0.1972472488767878,-0.5140275005930645,-0.2850472445544727,-0.014631337523500586,0.013352689864557886,-0.08744094847824972
1759,1.0,299.88914,3139.7566,0.0,-0.01759003473292209,0.0,0.0,0.0,0.0,-0.20168130224189482,-0.4976558006448036,-0.25507049365849777,-0.014683372982386086,0.00988937842728066,-0.1007096318035168
1760,1.0,299.68217000000004,3421.8827,0.0,-0.017600030720341442,0.0,0.0,0.0,0.0,-0.2417448058958548,-0.5035089310399625,-0.2949131695856637,-0.002688828150466677,0.013804360282134286,-0.07864789622269303
1761,1.0,300.25824,3577.0533,0.0,-0.017610026707760684,0.0,0.0,0.0,0.0,-0.27479395401005174,-0.5084375517788795,-0.3041033581251647,0.011276901126693488,-0.02248740296108388,-0.07748738845915983
1762,1.0,299.35737,3257.7869,0.0,-0.017620022695180038,0.0,0.0,0.0,0.0,-0.2176351682464188,-0.4861975226839595,-0.28645318986322876,0.02040375849519418,-0.023672411112035077,-0.08106338921558362
1763,1.0,299.78271,3165.4504,0.0,-0.01763001868259939,0.0,0.0,0.0,0.0,-0.2073024996891638,-0.4808928848329326,-0.27402247551641273,0.025851810752125077,-0.00989305571454358,-0.09114479809254122
1764,1.0,300.10927999999996,3532.3698,0.0,-0.017640014670018633,0.0,0.0,0.0,0.0,-0.23485809960368978,-0.5148613547628595,-0.3240327514270427,0.018200038826203982,0.005741576625399494,-0.08166887910434083
1765,1.0,300.33902,3679.6282,0.0,-0.01765004364749545,0.0,0.0,0.0,0.0,-0.2719121592681408,-0.5103978056873415,-0.3362051173958617,0.004887892340547415,-0.0008947010542001191,-0.07565629962044543
1766,1.0,299.69729,3580.3881,0.0,-0.017660039634914804,0.0,0.0,0.0,0.0,-0.24901183561305476,-0.5204490845593255,-0.3188876498042607,-0.015619742731048587,0.01169908495310979,-0.07328300140146914
1767,1.0,299.67019,3417.9761,0.0,-0.017670035622334046,0.0,0.0,0.0,0.0,-0.24723217326991576,-0.49522643220504353,-0.2965207820618227,-0.02113813987617198,-0.003026118337129627,-0.06994036126232622
1768,1.0,300.05205,3354.6338,0.0,-0.0176800316097534,0.0,0.0,0.0,0.0,-0.2290947532998918,-0.4965611561642705,-0.2940690005298507,-0.025066095081330977,0.003168997848305737,-0.07557755995517443
1769,1.0,299.72155,3476.7255,0.0,-0.01769002759717264,0.0,0.0,0.0,0.0,-0.24008554806209875,-0.5071592759827235,-0.3095929141194417,-0.010292247984265791,-0.016313415776008783,-0.08028141851715913
1770,1.0,299.27411,3618.4925,0.0,-0.017700023584591995,0.0,0.0,0.0,0.0,-0.2620049848253787,-0.5164082735580284,-0.3215181179913677,0.014000003677692788,0.003874249707458676,-0.08212331974769062
1771,1.0,299.49127000000004,3430.9686,0.0,-0.01771001957201135,0.0,0.0,0.0,0.0,-0.23815351316892175,-0.5060721700829345,-0.2987030897296997,0.012189807042790289,-0.0014288478007662986,-0.08902438379377262
1772,1.0,300.23737,3189.413,0.0,-0.01772001555943059,0.0,0.0,0.0,0.0,-0.20653885361879779,-0.49175051826699756,-0.2712125303390927,0.006573286251357844,0.011359547884350089,-0.08393634537687232
1773,1.0,300.05759,3353.1043,0.0,-0.017730011546849944,0.0,0.0,0.0,0.0,-0.22989511955388175,-0.4971019682726445,-0.2922628720940997,-0.0004528420589320316,-0.01113659638534649,-0.08560977250002672
1774,1.0,300.41354,3653.8842,0.0,-0.01774004052432676,0.0,0.0,0.0,0.0,-0.2490841512726918,-0.5244091597926546,-0.33719625837867967,-0.003322683367823317,-0.007345951159538932,-0.08011971494695022
1775,1.0,299.82417999999996,3528.218,0.0,-0.017750036511745892,0.0,0.0,0.0,0.0,-0.22790558271752975,-0.5283709879486566,-0.3162135915978517,0.005036955413108795,-0.0010964515107613388,-0.1073566750627789
1776,1.0,300.02909,3340.7208,0.0,-0.017760032499165357,0.0,0.0,0.0,0.0,-0.2038396465449068,-0.5074372307501555,-0.3042188281065607,-0.013829487871364185,0.0033591260222449264,-0.1040060089695939
1777,1.0,299.87712,3388.4437,0.0,-0.01777002848658471,0.0,0.0,0.0,0.0,-0.2233216088676268,-0.5135570485716344,-0.29312362805404973,-0.007156262026868073,-0.014050718871697988,-0.08899186454506322
1778,1.0,299.8521,3462.8605,0.0,-0.017780024474003953,0.0,0.0,0.0,0.0,-0.24679351703662378,-0.4968206292498785,-0.3090089679543107,-0.00967442167421608,0.003282159544648927,-0.08182977410096992
1779,1.0,299.59935,3564.1852,0.0,-0.017790020461423306,0.0,0.0,0.0,0.0,-0.2677883529511527,-0.5160125892614775,-0.2996223608829247,0.01216072980467059,0.011597098290794488,-0.08269096879821322
1780,1.0,299.9129,3459.1938,0.0,-0.017800016448842437,0.0,0.0,0.0,0.0,-0.23232014115071278,-0.5023731587378705,-0.3168152392422297,-0.004337204083448716,0.019473297007864782,-0.08410417303068563
1781,1.0,300.50171,3249.4839,0.0,-0.0178100124362619,0.0,0.0,0.0,0.0,-0.2143550952877008,-0.47805172142003155,-0.29535513914678274,-0.005586946148838655,0.0034604116168160367,-0.07343204137192823
1782,1.0,300.61163,3524.8621,0.0,-0.01782004141373872,0.0,0.0,0.0,0.0,-0.23993363147460575,-0.5139535839982695,-0.3175828673854887,-0.0029081933520663373,-0.0018731693180174182,-0.08074615783452532
1783,1.0,300.19603,3796.2207,0.0,-0.01783003740115785,0.0,0.0,0.0,0.0,-0.2929294589373867,-0.5048430571816305,-0.35618380531510463,0.0056380919741363545,0.0020230446118589583,-0.07058039993974313
1784,1.0,300.22927000000004,3685.0488,0.0,-0.017840033388577203,0.0,0.0,0.0,0.0,-0.28041102752941377,-0.5193682405451545,-0.32038354132439373,0.0026503944595985675,0.017274567595617085,-0.07174402243408373
1785,1.0,300.39892000000003,3419.9954,0.0,-0.017850029375996668,0.0,0.0,0.0,0.0,-0.2409105160285168,-0.4944438383578076,-0.3042388600610377,-0.0009206605825571251,-0.016371137594455486,-0.07668636156610463
1786,1.0,299.72651,3456.8541,0.0,-0.0178600253634158,0.0,0.0,0.0,0.0,-0.24156788229589377,-0.4904576415369005,-0.3187717947878267,0.0030604244523903773,0.0007274237066486303,-0.07647131645763133
1787,1.0,299.71401000000003,3655.6172,0.0,-0.017870021350835263,0.0,0.0,0.0,0.0,-0.2508824270201678,-0.5380471211036165,-0.3222868100472317,0.00904593364263914,-0.007940792296370182,-0.09552261810359841
1788,1.0,299.7953,3543.5407,0.0,-0.017880017338254395,0.0,0.0,0.0,0.0,-0.24217077623789476,-0.5077631831748245,-0.32721392104349967,0.0066219815312886935,-0.010524992545485891,-0.0882163725677781
1789,1.0,299.79376,3369.7647,0.0,-0.01789001332567386,0.0,0.0,0.0,0.0,-0.2224656861106538,-0.5175086429016265,-0.28435000689566076,-0.0021542469222576178,-0.015565156921661384,-0.1043428943628419
1790,1.0,299.76597000000004,3226.765,0.0,-0.017900042303150565,0.0,0.0,0.0,0.0,-0.21998583755091178,-0.48663437533207354,-0.27423576466246274,-0.01850301175185508,0.0004653358480975725,-0.08179941003522322
1791,1.0,299.98491,3300.1716,0.0,-0.017910038290569807,0.0,0.0,0.0,0.0,-0.21344787167816479,-0.4990465775995625,-0.29067532196992074,-0.0037246888251231663,0.017248762142070283,-0.11136900360376491
1792,1.0,299.78116,3533.8855,0.0,-0.017920034277989383,0.0,0.0,0.0,0.0,-0.22753347675080576,-0.5301572262849444,-0.3165222478433137,-0.012320880062476187,0.02893995590340127,-0.1040023714017349
1793,1.0,300.03837000000004,3580.0227,0.0,-0.017930030265408625,0.0,0.0,0.0,0.0,-0.23668430052392175,-0.5308498333907995,-0.3207033635859577,0.002993989088383717,-0.0009247441831101451,-0.1016395937585469
1794,1.0,300.35458,3364.5707,0.0,-0.017940026252827757,0.0,0.0,0.0,0.0,-0.22025769255274177,-0.5031587315404006,-0.2993290452439767,0.0064497642753921745,-0.0029749750449571772,-0.08830059999559073
1795,1.0,300.0632,3387.6224,0.0,-0.01795002224024711,0.0,0.0,0.0,0.0,-0.23683031999583276,-0.5124536090802335,-0.2804687118576067,0.017588593053358983,-0.005014987340340715,-0.09481094264411151
1796,1.0,299.34899,3601.2833,0.0,-0.017960018227666352,0.0,0.0,0.0,0.0,-0.26646562587310973,-0.5113213730209906,-0.3169132103943987,0.019916452071600782,-0.01319398652789509,-0.07362252631122762
1797,1.0,299.01022,3594.7749,0.0,-0.017970014215085706,0.0,0.0,0.0,0.0,-0.25679552155624474,-0.5267809553617325,-0.3091453311527687,-0.0003916485112701986,-0.0051511476861286955,-0.07928866241368172
1798,1.0,299.27159,3536.2526,0.0,-0.017980043192562523,0.0,0.0,0.0,0.0,-0.2378941008783198,-0.5203608406081165,-0.31667752842113867,-0.008080624863170582,-0.00041176804095334165,-0.08151175745108413
1799,1.0,299.24021,3448.6979,0.0,-0.017990039179981876,0.0,0.0,0.0,0.0,-0.24451950010219575,-0.5061631802069165,-0.29763534703932176,-0.006665660919249514,-0.005767042741487805,-0.086245772362545
1800,1.0,299.42774,3509.0382,0.0,-0.01800003516740134,0.0,0.0,0.0,0.0,-0.24470278691278477,-0.5273087978688266,-0.2946484073345337,0.005500485821780685,-0.0003485194295711897,-0.0856248942445191
1801,1.0,299.70072000000005,3585.9570000000003,0.0,-0.01801003115482047,0.0,0.0,0.0,0.0,-0.26911090777667873,-0.5007381479790075,-0.3201923207655217,0.005019424261203605,-0.02180806031228798,-0.08567511699897572
1802,1.0,300.08194,3604.84,0.0,-0.018020027142239714,0.0,0.0,0.0,0.0,-0.26094937073869773,-0.5125068148429845,-0.3223251615635167,0.004606760628751876,-0.009404440779771041,-0.06890991022862863
1803,1.0,300.15591,3496.0469,0.0,-0.018030023129659067,0.0,0.0,0.0,0.0,-0.23599891789127975,-0.5053863720177515,-0.3213256815323757,0.004161091792842786,0.01976793291169308,-0.10266618836236391
1804,1.0,299.95264,3378.4815,0.0,-0.01804001911707831,0.0,0.0,0.0,0.0,-0.2089427590835448,-0.5006711620148966,-0.3173600942185027,0.006739810865542544,0.02525315219554208,-0.08117937696778073
1805,1.0,299.51557,3511.6656,0.0,-0.018050015104497663,0.0,0.0,0.0,0.0,-0.22169585921467777,-0.5383229581783394,-0.3074398488494507,-0.005987066555652464,0.012684181899081288,-0.11108245647548491
1806,1.0,299.51641,3651.552,0.0,-0.01806004408197448,0.0,0.0,0.0,0.0,-0.2517682406550908,-0.5259678728189875,-0.33224452540498167,-0.0007597065235796963,-0.011114704103685888,-0.08370388857868062
1807,1.0,299.68719,3494.7874,0.0,-0.018070040069393833,0.0,0.0,0.0,0.0,-0.2525055928853618,-0.5125973487394195,-0.29722517326634074,0.0012911323187248388,-0.012895901520726387,-0.10086370053422221
1808,1.0,299.82605,3285.0562,0.0,-0.018080036056813298,0.0,0.0,0.0,0.0,-0.20873240836278478,-0.5080108518967675,-0.28183180681963377,0.001971117064109108,-0.008287232536736171,-0.08410112213463453
1809,1.0,299.97436,3472.6439,0.0,-0.01809003204423243,0.0,0.0,0.0,0.0,-0.21857284002145982,-0.5165132462683885,-0.3205109473919677,-0.012061505262127887,-0.01174254122339859,-0.08785702544631332
1810,1.0,300.41728,3693.9,0.0,-0.01810002803165167,0.0,0.0,0.0,0.0,-0.24275362809291776,-0.5383760220860765,-0.34172372327050565,-0.008546498919323773,0.005675076818686475,-0.08505359546713631
1811,1.0,300.78272999999996,3686.368,0.0,-0.018110024019071025,0.0,0.0,0.0,0.0,-0.2648485395085157,-0.5344936226054134,-0.32122166127710966,-0.004905922518126855,0.01184733864149129,-0.09385504959252221
1812,1.0,300.15747999999996,3508.3104,0.0,-0.018120020006490378,0.0,0.0,0.0,0.0,-0.25755402031610275,-0.5047198763669736,-0.30416484214123274,-0.009192914891545062,0.01158890413723579,-0.09191753909580481
1813,1.0,299.70999,3395.1218,0.0,-0.018130015993909843,0.0,0.0,0.0,0.0,-0.24143819641559475,-0.5098527683260505,-0.2807412761345067,-0.008305085294223101,0.0006878336745013984,-0.08049683143541872
1814,1.0,299.87538,3532.1902,0.0,-0.018140011981328974,0.0,0.0,0.0,0.0,-0.23260021361085378,-0.5205581913300935,-0.32053919680475573,-0.0010442825055126592,-0.013603289919040187,-0.09036938514876391
1815,1.0,299.63892999999996,3779.4659,0.0,-0.01815004095880579,0.0,0.0,0.0,0.0,-0.2620554041503547,-0.5362859607073035,-0.3505218853463167,0.002099890310043038,0.00977398525024224,-0.07377023183130502
1816,1.0,299.04283,3715.4074,0.0,-0.018160036946225144,0.0,0.0,0.0,0.0,-0.25986045112122974,-0.5266373068950555,-0.34289332799343664,-0.005544039262754074,-0.0015288252894583086,-0.08006099001090453
1817,1.0,299.44365,3415.0441,0.0,-0.018170032933644387,0.0,0.0,0.0,0.0,-0.22052066135119477,-0.5077813304841156,-0.3097861409135117,0.0007747362143005113,0.004452333511486105,-0.07323669891164943
1818,1.0,300.18955,3507.0133,0.0,-0.018180028921063518,0.0,0.0,0.0,0.0,-0.23757308298163776,-0.5250860311244565,-0.3033853691043047,-0.0017558290795868382,0.0019056477327477883,-0.08521596879566133
1819,1.0,300.24532999999997,3753.1691,0.0,-0.018190024908482982,0.0,0.0,0.0,0.0,-0.2770323045409597,-0.5287768351437105,-0.3350605500829017,0.015182496941895787,0.022289975232099277,-0.07883716526187241
1820,1.0,299.94929,3684.0936,0.0,-0.018200020895902336,0.0,0.0,0.0,0.0,-0.25858916675076377,-0.5305734998235274,-0.3307097960085157,0.004735255129583295,0.002312638887164688,-0.08443584727866932
1821,1.0,298.99029,3403.2833,0.0,-0.01821001688332169,0.0,0.0,0.0,0.0,-0.21059131699624478,-0.5157480701903715,-0.3081737661618827,-0.008676698010798423,-0.005202868024233095,-0.08784964493258492
1822,1.0,299.51423,3374.8335,0.0,-0.01822001287074093,0.0,0.0,0.0,0.0,-0.2247255074111808,-0.5090557863273945,-0.29208380040392673,-0.004681843677061996,-0.007799274492003462,-0.08827999656805732
1823,1.0,299.95356,3577.6701,0.0,-0.01823004184821775,0.0,0.0,0.0,0.0,-0.24175019638638676,-0.5292902793668834,-0.3164819002243317,-0.0034845095412943164,0.013112428000845885,-0.09722087694695351
1824,1.0,299.91595,3720.4621,0.0,-0.018240037835637102,0.0,0.0,0.0,0.0,-0.28304291426666073,-0.5343174184130235,-0.3135672356491767,0.016010780262640988,0.01323727257216709,-0.09311083867232432
1825,1.0,300.26122999999995,3661.9179999999997,0.0,-0.018250033823056344,0.0,0.0,0.0,0.0,-0.25489164488334676,-0.5344985875309035,-0.32374141162578973,0.0035254609560109065,-0.0035943545660851763,-0.09101119296085541
1826,1.0,300.51771,3402.9587,0.0,-0.018260029810475475,0.0,0.0,0.0,0.0,-0.2052452270836268,-0.5281328741751565,-0.3010363615299757,0.019501722726170182,0.003013465781805917,-0.091664036079786
1827,1.0,300.70855,3365.5727,0.0,-0.01827002579789494,0.0,0.0,0.0,0.0,-0.20115657041260782,-0.5159548644032805,-0.3059386276337917,0.001906151622022518,0.0028724950311681875,-0.09560811006753582
1828,1.0,300.72548,3667.9329,0.0,-0.018280021785314293,0.0,0.0,0.0,0.0,-0.27073983903494175,-0.5265910824254935,-0.3176291019875517,0.007382553198201273,-0.026860388755913976,-0.08147427530338491
1829,1.0,300.11933999999997,3677.9489,0.0,-0.018290017772733647,0.0,0.0,0.0,0.0,-0.27346028383092874,-0.5288841687268035,-0.3156601746582337,0.0018939543199687381,-0.007392105917494053,-0.09665713397556641
1830,1.0,299.81397999999996,3305.2201,0.0,-0.01830001376015289,0.0,0.0,0.0,0.0,-0.23298132737096677,-0.4988834645984645,-0.27283959721717177,-0.008378180751137061,0.002228791124164558,-0.09912684902105831
1831,1.0,299.83836,3300.2816,0.0,-0.018310042737629706,0.0,0.0,0.0,0.0,-0.22088878524502578,-0.4985636423369005,-0.2837507707865207,-0.0072171124576485435,0.030518722162463367,-0.09753183630989282
1832,1.0,299.52083999999996,3708.9193,0.0,-0.01832003872504906,0.0,0.0,0.0,0.0,-0.2644367850653787,-0.5206141531331165,-0.3423679274190837,-0.011948459988221189,-0.002939024120809097,-0.09080378471838581
1833,1.0,299.94245,3863.0332,0.0,-0.01833003471246819,0.0,0.0,0.0,0.0,-0.27147889352538074,-0.5557731817980425,-0.3470135474050707,-0.00013916189655920988,0.002902099058014877,-0.08380251631691442
1834,1.0,300.10988,3594.8824,0.0,-0.018340030699887433,0.0,0.0,0.0,0.0,-0.24585811494180676,-0.5269660660225015,-0.3199303044221627,0.012740368643626487,-0.016481314357329087,-0.0895334761077661
1835,1.0,299.88571,3387.6535,0.0,-0.01835002668730701,0.0,0.0,0.0,0.0,-0.2299612138579048,-0.5074740015962845,-0.2923268385729127,0.007295226440982794,0.011624510758999888,-0.08022043302014033
1836,1.0,300.12337,3435.0902,0.0,-0.01836002267472625,0.0,0.0,0.0,0.0,-0.23737912664749578,-0.5184883138933125,-0.2883142060568967,0.012843483053303089,-0.005058676962127545,-0.08938538555265073
1837,1.0,300.85236000000003,3669.0792,0.0,-0.018370018662145604,0.0,0.0,0.0,0.0,-0.25329347589811974,-0.5366214984779185,-0.3253935057813387,-0.01252896515601259,-0.009397610967471992,-0.08216773657907421
1838,1.0,300.75004,3755.2521,0.0,-0.018380014649564846,0.0,0.0,0.0,0.0,-0.24847967666053475,-0.5572859236673385,-0.3357372795596897,0.009402898309143811,0.004715295217188406,-0.09320027015265052
1839,1.0,301.08797999999996,3436.3582,0.0,-0.018390043627041552,0.0,0.0,0.0,0.0,-0.2081052774783918,-0.5302870540202576,-0.3061747655695967,0.0036706129845112965,0.01111086287255679,-0.08944618258515091
1840,1.0,300.13432,3315.6533,0.0,-0.018400039614461017,0.0,0.0,0.0,0.0,-0.21254529888658782,-0.5162968464445316,-0.27903366600597873,0.00934439902389538,-0.015835942944635886,-0.09071928269979611
1841,1.0,300.37433,3711.782,0.0,-0.018410035601880148,0.0,0.0,0.0,0.0,-0.2709857447017107,-0.5323069883596094,-0.3249963016096377,-0.008309598107518482,-0.034952612394304264,-0.08797060065002232
1842,1.0,300.94601,3919.6213,0.0,-0.018420031589299612,0.0,0.0,0.0,0.0,-0.2995653554322987,-0.5565622705784194,-0.3353393863779207,0.008862149022276012,-0.013577800599524589,-0.08490970280718521
1843,1.0,300.16138,3617.0053,0.0,-0.018430027576718966,0.0,0.0,0.0,0.0,-0.22965905254558378,-0.5488935479915754,-0.32092670417299973,0.006539435186717004,0.03106817628094027,-0.09162478986366272
1844,1.0,299.51417000000004,3415.9732,0.0,-0.018440023564138097,0.0,0.0,0.0,0.0,-0.2250713296703108,-0.5099297145386444,-0.30336951174023974,-0.015840555259091085,0.014127859628311186,-0.08760226701342061
1845,1.0,299.60295,3548.8893,0.0,-0.01845001955155756,0.0,0.0,0.0,0.0,-0.22385213648748578,-0.5248546554641215,-0.33006693948257065,-0.018173101572295482,0.017698807306486285,-0.08174209655656683
1846,1.0,299.84929,3698.3945,0.0,-0.018460015538976693,0.0,0.0,0.0,0.0,-0.26032774180234775,-0.5348858922491275,-0.3290059349053577,-0.0040446744226032855,0.005532602404900344,-0.08801958115985632
1847,1.0,300.29938,3733.563,0.0,-0.01847004451645351,0.0,0.0,0.0,0.0,-0.2638253899550388,-0.5362824244644545,-0.3348021003798947,0.02184388376957348,0.02026096926460198,-0.07995604263179702
1848,1.0,300.52468999999996,3523.0996,0.0,-0.018480040503872863,0.0,0.0,0.0,0.0,-0.25537588723863774,-0.5166535814072385,-0.2989048480896117,0.005187024643019475,-0.02072635098253158,-0.08488320023756962
1849,1.0,299.83101,3380.3218,0.0,-0.018490036491292106,0.0,0.0,0.0,0.0,-0.2222167609585868,-0.5120264937655805,-0.2932901557079847,0.001101308829090719,-0.025063884169612777,-0.08642941583716922
1850,1.0,300.25647000000004,3656.2508,0.0,-0.01850003247871146,0.0,0.0,0.0,0.0,-0.2537686395325147,-0.5359529560619385,-0.3216873510230697,0.0011715399292969888,-0.015394957249363985,-0.09605452678334372
1851,1.0,299.52122,3887.6385,0.0,-0.018510028466130923,0.0,0.0,0.0,0.0,-0.26679326029294476,-0.5607944135960994,-0.35415736591011066,0.003450819786069397,0.02276912499238768,-0.07787334555475084
1852,1.0,299.32934,3587.8714,0.0,-0.018520024453550055,0.0,0.0,0.0,0.0,-0.24335765687503075,-0.5372354976410155,-0.3100301720675957,0.0035063253225723666,0.007476246611098092,-0.09355507487391701
1853,1.0,299.68205,3279.525,0.0,-0.01853002044096952,0.0,0.0,0.0,0.0,-0.22276433144512778,-0.4974163595136725,-0.27671301930194875,-0.017973241029820782,-0.005893893041381954,-0.08680142655838383
1854,1.0,299.81722,3535.6878,0.0,-0.01854001642838865,0.0,0.0,0.0,0.0,-0.2531092163674348,-0.5164828183678855,-0.3051687602078117,-0.0026189783362730377,0.0042841823269158755,-0.08531901126458082
1855,1.0,299.42947999999996,3757.7462,0.0,-0.018550012415808004,0.0,0.0,0.0,0.0,-0.2559351708963348,-0.5345835282867866,-0.3517423045617627,0.007571639041762592,0.025214563578733678,-0.08932927480186302
1856,1.0,299.90166,3718.1591,0.0,-0.01856004139328482,0.0,0.0,0.0,0.0,-0.23979385362331077,-0.5535626348498784,-0.3368710354940827,-0.005259638198185875,0.01945567962837608,-0.0929017970706935
1857,1.0,300.15272999999996,3550.9169,0.0,-0.018570037380704063,0.0,0.0,0.0,0.0,-0.22435679583229182,-0.5329030833934395,-0.3221301818467737,-0.016811692658434883,0.0016294452800387287,-0.09680089693950471
1858,1.0,300.24005,3476.0223,0.0,-0.018580033368123416,0.0,0.0,0.0,0.0,-0.24299193438393676,-0.5178565017934575,-0.2957755467457737,-0.020553558403228284,0.005485015417928875,-0.08633037671939482
1859,1.0,300.11529,3625.6629,0.0,-0.01859002935554277,0.0,0.0,0.0,0.0,-0.25437910245276274,-0.5365443090853005,-0.3111875772593227,0.01093641970884059,0.006680685999682374,-0.08549979433417274
1860,1.0,299.65089,3892.7495,0.0,-0.018600025342962012,0.0,0.0,0.0,0.0,-0.29325820793233176,-0.5563250383325065,-0.33371542004514765,0.009846344276983521,-0.03649679946720367,-0.07073311699481515
1861,1.0,300.01322000000005,3740.8287,0.0,-0.018610021330381366,0.0,0.0,0.0,0.0,-0.2589048549519197,-0.5440452475880855,-0.3341684036348537,0.01151681747212139,-0.02892715044863747,-0.08169755002917042
1862,1.0,300.25542,3297.4374,0.0,-0.018620017317800608,0.0,0.0,0.0,0.0,-0.2108742873516718,-0.5053543634470926,-0.2861099817893567,0.0028996415212223375,-0.008094206264860961,-0.08553215146286611
1863,1.0,300.26356,3448.5161,0.0,-0.01863001330521996,0.0,0.0,0.0,0.0,-0.21807790787761377,-0.5224094600577994,-0.3077754170175687,0.015321195681834284,0.014274279334011687,-0.09646095761045531
1864,1.0,299.92361,3867.7639,0.0,-0.018640042282696778,0.0,0.0,0.0,0.0,-0.28710764810281875,-0.5388892737917305,-0.3497067357733677,-0.006388436603814604,0.02186286295719658,-0.09271014892027932
1865,1.0,300.17194,3753.2908,0.0,-0.01865003827011613,0.0,0.0,0.0,0.0,-0.2717699090866017,-0.5353494845673804,-0.33378728987474066,-0.014953228841768787,0.007523206801557703,-0.09301601366171582
1866,1.0,300.5604,3507.5156,0.0,-0.018660034257535374,0.0,0.0,0.0,0.0,-0.2444349342488498,-0.5155934076951075,-0.3061688076590087,-0.003967921538128366,0.01183795391906509,-0.08985844770633832
1867,1.0,299.83912999999995,3479.547,0.0,-0.018670030244954727,0.0,0.0,0.0,0.0,-0.2279454237114618,-0.5185361190330305,-0.3112138508344157,-0.01078527521792379,0.006805532496178764,-0.08750332516765581
1868,1.0,299.65192,3591.5873,0.0,-0.01868002623237397,0.0,0.0,0.0,0.0,-0.23224826118861877,-0.5309838661140275,-0.32852072996247167,0.0016736513554015283,-0.015114072162642784,-0.09283950042804531
1869,1.0,299.83948,3763.4190000000003,0.0,-0.018690022219793323,0.0,0.0,0.0,0.0,-0.24505788041032975,-0.5556922332475535,-0.34323529990218665,-0.019763981236303085,-0.02274375523638388,-0.09406642369588321
1870,1.0,299.80338,3732.0409999999997,0.0,-0.018700018207212565,0.0,0.0,0.0,0.0,-0.27570943560790273,-0.5439990433835254,-0.3147387959448007,0.005289806504013256,0.0036584146692074165,-0.08109586793428901
1871,1.0,299.84609,3468.6613,0.0,-0.01871001419463192,0.0,0.0,0.0,0.0,-0.2389653190165408,-0.5259478813945145,-0.2894732020512807,0.015003167886197386,0.001250389937503879,-0.08701083495655082
1872,1.0,300.19192000000004,3487.8155,0.0,-0.018720043172108736,0.0,0.0,0.0,0.0,-0.24403349469173077,-0.5324645994126644,-0.28371072714256873,0.011517818563220188,-0.008519715375455442,-0.08915042096046151
1873,1.0,300.24327999999997,3827.3494,0.0,-0.01873003915952809,0.0,0.0,0.0,0.0,-0.27181717720376675,-0.5506812454080074,-0.34092022607370664,0.015067217451518587,-0.03070845223043827,-0.10639078427245291
1874,1.0,300.50055,3896.2319,0.0,-0.01874003514694733,0.0,0.0,0.0,0.0,-0.28806194731200074,-0.5499874122695315,-0.34630783897542267,0.008919325205543862,0.0035441219831026066,-0.08807111505994232
1875,1.0,300.25571,3499.1303,0.0,-0.018750031134366685,0.0,0.0,0.0,0.0,-0.21356958328017678,-0.5176442664275115,-0.33243438820871973,-0.0016544657687330585,0.022815422415956875,-0.1005236497476618
1876,1.0,299.82697,3401.2487,0.0,-0.018760027121785927,0.0,0.0,0.0,0.0,-0.22656272235999977,-0.5074418309056095,-0.29989012235435075,-0.019489952813008582,0.023184255584857878,-0.08182619732811693
1877,1.0,299.51051,3705.0609,0.0,-0.01877002310920528,0.0,0.0,0.0,0.0,-0.24883040305014878,-0.5372840728508095,-0.34013153246086864,-0.01589903194886229,0.007370031149490443,-0.08924593802088832
1878,1.0,299.27117000000004,3814.401,0.0,-0.018780019096624412,0.0,0.0,0.0,0.0,-0.27707355395253075,-0.5481660344197755,-0.33424307003472264,-0.003941486856269466,0.028605077758601372,-0.07318324287612372
1879,1.0,299.94232999999997,3729.2544,0.0,-0.018790015084043876,0.0,0.0,0.0,0.0,-0.2593230131356888,-0.5491929329986225,-0.3250842517183177,0.01023601361696589,0.005400116103974964,-0.10105931049252741
1880,1.0,299.9848,3541.96,0.0,-0.018800044061520693,0.0,0.0,0.0,0.0,-0.2457809964766958,-0.5235506633804276,-0.3073357171366737,-0.005085252992375396,-0.013193279279325287,-0.08667421706132923
1881,1.0,299.92897999999997,3505.6109,0.0,-0.018810040048940047,0.0,0.0,0.0,0.0,-0.2198816146456258,-0.5426677847396405,-0.3030687791105597,-0.006052086814569464,-0.03757974597533217,-0.10964194920581789
1882,1.0,299.75712000000004,3740.636,0.0,-0.018820036036359178,0.0,0.0,0.0,0.0,-0.25594593161239676,-0.5547732559368574,-0.32634076290232567,0.0016754236311514383,0.003090117239945827,-0.08604830309030631
1883,1.0,299.93699,3889.6285,0.0,-0.018830032023778642,0.0,0.0,0.0,0.0,-0.2751439609920947,-0.5452523729622194,-0.3619536060220397,0.012135087484389887,0.007058747951819183,-0.0920596139850765
1884,1.0,300.47132999999997,3523.6628,0.0,-0.018840028011197774,0.0,0.0,0.0,0.0,-0.24463491942108678,-0.5215944422073635,-0.30487614371143273,-0.006894531521362283,0.009161851075279302,-0.08203760385548113
1885,1.0,300.48179,3272.6372,0.0,-0.018850023998617238,0.0,0.0,0.0,0.0,-0.1962590057892558,-0.5071813648349035,-0.2913596204249557,0.0031016805514120366,-0.005298951694115815,-0.11193635273225788
1886,1.0,300.42758,3696.9433,0.0,-0.01886001998603659,0.0,0.0,0.0,0.0,-0.2556478638304797,-0.5364270051212235,-0.3317035815740947,-0.008407552743710852,0.005170806663243885,-0.09421715680725941
1887,1.0,300.27369,3939.4393,0.0,-0.018870015973455834,0.0,0.0,0.0,0.0,-0.2722687929058377,-0.5574091652770015,-0.36781323135033966,0.007373829925440352,0.012670056179437188,-0.09686950613027591
1888,1.0,300.28279,3685.3242,0.0,-0.01888004495093276,0.0,0.0,0.0,0.0,-0.25093450807530776,-0.5356649701185165,-0.33364705606090067,-0.011451803292704989,0.005338916912510074,-0.07891479744478413
1889,1.0,300.25925,3489.0026,0.0,-0.018890040938352004,0.0,0.0,0.0,0.0,-0.21424337433167479,-0.5406820475911635,-0.30564425821473973,-0.005220770937599975,0.0001990396376411828,-0.0949797764552741
1890,1.0,300.20329,3607.6464,0.0,-0.018900036925771135,0.0,0.0,0.0,0.0,-0.25307746110930074,-0.5296475716171455,-0.3139093798104437,-0.005427756249477835,0.014366777922390586,-0.07594827168976083
1891,1.0,299.43248,3718.6827,0.0,-0.0189100329131906,0.0,0.0,0.0,0.0,-0.26127489759832473,-0.5471712254715955,-0.32194056222305967,0.013577377060982786,0.006897640679294134,-0.1036296068224459
1892,1.0,300.12482,3792.8381,0.0,-0.01892002890060973,0.0,0.0,0.0,0.0,-0.28041049050686073,-0.5415696648112646,-0.3309479401795187,-0.004394588996237166,-0.008521807230286891,-0.08706131608978292
1893,1.0,299.9988,3603.1040000000003,0.0,-0.018930024888029084,0.0,0.0,0.0,0.0,-0.24793143742892776,-0.5266989125011354,-0.3206232864305547,0.005610694603357444,-0.03477956852897617,-0.10089735259654341
1894,1.0,299.76701,3393.8149,0.0,-0.01894002087544855,0.0,0.0,0.0,0.0,-0.2015416865106158,-0.5251954216052526,-0.3048978677935767,0.013210357609760788,-0.006942586021929893,-0.07897663812488732
1895,1.0,299.65282,3663.4487,0.0,-0.01895001686286768,0.0,0.0,0.0,0.0,-0.22551757514685178,-0.5425698034549704,-0.3455095701491397,0.015532863627724285,-0.007363671890537833,-0.0950279190072754
1896,1.0,300.4685,4072.8964,0.0,-0.01896004584034472,0.0,0.0,0.0,0.0,-0.3049002995938167,-0.5526132195061785,-0.38054528627689566,0.009119088374683951,-0.004740944630219806,-0.06281206372231804
1897,1.0,300.40095,3828.3174,0.0,-0.01897004182776385,0.0,0.0,0.0,0.0,-0.26068744558784773,-0.5612419256352654,-0.34178351515890665,-0.015451857321979586,-0.004862171088083925,-0.10244981893600992
1898,1.0,300.50194,3517.9058,0.0,-0.018980037815183093,0.0,0.0,0.0,0.0,-0.25070540209519676,-0.5369423846520875,-0.2817077140798867,-0.01000195760614136,0.02008539531377418,-0.0971563612865863
1899,1.0,299.49401,3690.2340000000004,0.0,-0.018990033802602446,0.0,0.0,0.0,0.0,-0.25584720052265275,-0.5485765729627925,-0.3173152072390727,-0.011907167006895886,0.005096341798819776,-0.10411700038554789
1900,1.0,299.85377,3919.4889,0.0,-0.01900002979002169,0.0,0.0,0.0,0.0,-0.28757397619634173,-0.5654537225909374,-0.3383990470423857,-0.0048207271324937255,-0.007624459870800604,-0.07249921799861572
1901,1.0,299.90063,3663.2632,0.0,-0.019010025777441264,0.0,0.0,0.0,0.0,-0.23195220977440076,-0.5489914684812395,-0.3325968729947557,-0.006689178048770474,-0.012128000813190489,-0.09861267931081372
1902,1.0,300.47337999999996,3437.5738,0.0,-0.019020021764860506,0.0,0.0,0.0,0.0,-0.22471416914256176,-0.5340461916262556,-0.2861762280808947,0.00896439781239218,0.01004807021289232,-0.07388286065942062
1903,1.0,299.99112,3397.1868,0.0,-0.019030017752279638,0.0,0.0,0.0,0.0,-0.2186836794498988,-0.5199973979297475,-0.2939788820659567,0.015851609817682088,0.01043490143934459,-0.10899759306972491
1904,1.0,299.73557999999997,3705.5277,0.0,-0.01904001373969899,0.0,0.0,0.0,0.0,-0.2779947502809457,-0.5398913274781255,-0.30850181601425875,0.007020113840081293,0.009209120914969471,-0.0913924303374806
1905,1.0,299.58092,4021.9122,0.0,-0.019050042717175808,0.0,0.0,0.0,0.0,-0.2946008251098377,-0.5665505759566885,-0.36140949071833967,0.004535895335308016,-0.016570006165082283,-0.12144051708024588
1906,1.0,299.65619,3874.1809,0.0,-0.01906003870459505,0.0,0.0,0.0,0.0,-0.26792258832440075,-0.5567995230893344,-0.3529321438891907,0.01079005877164589,0.0038165564626647963,-0.07601299000014802
1907,1.0,299.92483,3431.6077,0.0,-0.019070034692014404,0.0,0.0,0.0,0.0,-0.1996010693890918,-0.5315407483689875,-0.3119812357976507,0.002311841661986008,0.008746630810175252,-0.10028915530351899
1908,1.0,299.96717,3564.4757,0.0,-0.019080030679433757,0.0,0.0,0.0,0.0,-0.23683570035386375,-0.5313413002193035,-0.3153346072686027,-0.004085756343932756,0.006913819648940873,-0.07143495683558133
1909,1.0,300.46141,3933.0117,0.0,-0.01909002666685322,0.0,0.0,0.0,0.0,-0.29137173889615176,-0.5502651137244385,-0.35390048674475866,-0.009317986329563651,0.0036865295223821367,-0.08516651205828032
1910,1.0,300.50576,3751.4390000000003,0.0,-0.019100022654272353,0.0,0.0,0.0,0.0,-0.2803844702442927,-0.5495405892404335,-0.3104187129509417,-0.0019165774589264683,0.014166002415075585,-0.09232911318042401
1911,1.0,300.49816,3474.2864,0.0,-0.019110018641691595,0.0,0.0,0.0,0.0,-0.2241976041090808,-0.5433154440710595,-0.28858327462095174,-0.004222449051323276,0.005521422405946964,-0.1007547903339736
1912,1.0,300.84841,3631.3752,0.0,-0.01912001462911095,0.0,0.0,0.0,0.0,-0.25549940242582775,-0.5375435662014195,-0.3108044066015067,-0.005450672420364485,-0.009620849114928881,-0.0929968085193204
1913,1.0,300.45919,3932.3471,0.0,-0.019130043606587765,0.0,0.0,0.0,0.0,-0.2636191935596887,-0.5723612410401564,-0.3593548930930667,0.0006010898805954524,-0.021137054685314877,-0.08709936363103792
1914,1.0,299.80149,3989.2103,0.0,-0.019140039594007008,0.0,0.0,0.0,0.0,-0.28639130054712075,-0.5690462008204874,-0.35718282938370066,0.009026470222793253,-0.009050198918935092,-0.10023082958801272
1915,1.0,299.45883,3716.5152,0.0,-0.01915003558142636,0.0,0.0,0.0,0.0,-0.2364735850331258,-0.5578760810555824,-0.33537816345924765,0.00953188879589918,0.0062672806681574435,-0.0943402981051625
1916,1.0,300.05691,3417.5127,0.0,-0.019160031568845715,0.0,0.0,0.0,0.0,-0.2286748320609488,-0.5191348789146235,-0.2910288145323077,0.0005860636146599753,0.01073237241695269,-0.0994451240497196
1917,1.0,299.935,3552.6052,0.0,-0.019170027556265068,0.0,0.0,0.0,0.0,-0.2315171911089678,-0.5278206816868455,-0.3205653893198407,0.005651339408593775,0.014064166727025186,-0.1081201387481269
1918,1.0,299.9534,3932.7107,0.0,-0.01918002354368431,0.0,0.0,0.0,0.0,-0.29166876303046574,-0.5537438444977625,-0.35003323535309067,0.004036095943281656,0.011959237929534888,-0.08282972225365712
1919,1.0,299.56595,3862.9653,0.0,-0.019190019531103553,0.0,0.0,0.0,0.0,-0.25978769976404975,-0.5508562134352755,-0.36360107975713263,-0.006859096544165123,0.0017076353584554883,-0.08735087257085992
1920,1.0,300.21972,3509.2845,0.0,-0.019200015518522906,0.0,0.0,0.0,0.0,-0.22455512940686578,-0.5366054283313325,-0.3055743135603367,-0.008065851980687613,-0.006292173993964224,-0.07150645176263734
1921,1.0,299.78951,3599.1895,0.0,-0.019210044495999723,0.0,0.0,0.0,0.0,-0.24746727769061877,-0.5343292835716945,-0.3122671648433697,-0.008450185950943422,-0.008207228943290432,-0.09445706504668651
1922,1.0,300.16149,4041.302,0.0,-0.019220040483418854,0.0,0.0,0.0,0.0,-0.3104642788079387,-0.5722261038743194,-0.3457645140068007,0.0031320490754591767,-0.004526492881005066,-0.08538073339442231
1923,1.0,299.70006,4025.3482,0.0,-0.01923003647083832,0.0,0.0,0.0,0.0,-0.2744297007316027,-0.5891260718947164,-0.3600495672291257,0.0017528011843130084,0.013542363190527186,-0.11085445493798289
1924,1.0,299.89965,3741.0774,0.0,-0.019240032458257672,0.0,0.0,0.0,0.0,-0.2554497633034288,-0.5561440617321455,-0.3256002695967447,-0.0008928226405022342,-0.0026005127651256275,-0.09666447801229121
1925,1.0,299.95294,3544.8754,0.0,-0.019250028445677025,0.0,0.0,0.0,0.0,-0.2248726617232038,-0.5264210185287095,-0.3262599258093477,-0.0007120775576565833,-0.006589897372172233,-0.08602465585947251
1926,1.0,300.85400000000004,3540.9548,0.0,-0.019260024433096268,0.0,0.0,0.0,0.0,-0.2359619038651268,-0.5314902682490055,-0.3089096694445107,0.0058551680411100945,-0.006548423221729055,-0.09698565296273871
1927,1.0,300.32963,3758.187,0.0,-0.0192700204205154,0.0,0.0,0.0,0.0,-0.24091811540426677,-0.5483154077495175,-0.35316149304932565,0.01166954161994409,-0.0005306885949023865,-0.08826946079351751
1928,1.0,300.88322999999997,4014.2511,0.0,-0.019280016407934863,0.0,0.0,0.0,0.0,-0.2830967381119727,-0.5770301657784435,-0.36010521492461767,-0.001919702423559878,-0.013659383444576186,-0.10406912431832291
1929,1.0,299.64004,3746.8375,0.0,-0.01929004538541168,0.0,0.0,0.0,0.0,-0.23634792175572378,-0.5666986827238055,-0.3358984369880947,-0.006294064819975833,-0.0015456412894429186,-0.09188682951177402
1930,1.0,299.60703,3599.9152,0.0,-0.019300041372831034,0.0,0.0,0.0,0.0,-0.24379150017034776,-0.5504452087972125,-0.3000476118173937,-0.016588777636434883,0.006314326174275474,-0.10378886947316389
1931,1.0,299.70625,3897.8283,0.0,-0.019310037360250387,0.0,0.0,0.0,0.0,-0.2742063196145567,-0.5719749191745295,-0.33866123563826167,-0.010372359590172188,0.0052422317773679955,-0.0905835254248979
1932,1.0,299.66663,3935.2336,0.0,-0.01932003334766963,0.0,0.0,0.0,0.0,-0.2800093853222747,-0.5673825556137985,-0.3488208106809337,0.0011514274214370387,-0.0005797607734729335,-0.07974544062501222
1933,1.0,300.08378999999996,3648.257,0.0,-0.019330029335088983,0.0,0.0,0.0,0.0,-0.2375070393401198,-0.5568664077284354,-0.31460558395415367,-0.005369060495035015,-8.659224208848892e-05,-0.096694691103773
1934,1.0,300.42597,3597.5458,0.0,-0.019340025322508225,0.0,0.0,0.0,0.0,-0.24653028479314476,-0.5356745351994605,-0.3113592623562667,0.01313601038367329,-0.004103132975197697,-0.09710876892938931
1935,1.0,299.69804,3671.407,0.0,-0.019350021309927357,0.0,0.0,0.0,0.0,-0.24793461903424174,-0.5372499769849445,-0.3308314569480227,-0.004554808965649646,-0.0002282739801888878,-0.1139579488017739
1936,1.0,299.99429,3695.9083,0.0,-0.01936001729734682,0.0,0.0,0.0,0.0,-0.25283644944051475,-0.5558469058753185,-0.3147804709214137,0.0070226640892579835,0.003651801185804716,-0.0959627759735386
1937,1.0,299.3709,3788.455,0.0,-0.019370046274823527,0.0,0.0,0.0,0.0,-0.26547659245049976,-0.5445684494097215,-0.34155067028592667,-0.0008956395771052442,0.007451456940776543,-0.1004387272302806
1938,1.0,299.12901,3800.9831,0.0,-0.01938004226224299,0.0,0.0,0.0,0.0,-0.2849799546153317,-0.5546522029474105,-0.31577179428924973,0.016708147617465783,0.009632778918956262,-0.08202151547039332
1939,1.0,299.76583,3672.8872,0.0,-0.019390038249662345,0.0,0.0,0.0,0.0,-0.24213720726208177,-0.5572214302984735,-0.3171073693785607,0.012191217486929489,-0.00932471471552769,-0.09520184845319092
1940,1.0,300.35677999999996,3861.5461,0.0,-0.019400034237081587,0.0,0.0,0.0,0.0,-0.26692627976607275,-0.5744141668027645,-0.33247314502504466,0.01170838861552799,-0.015660183569039785,-0.08850272008578841
1941,1.0,299.6765,4118.8605,0.0,-0.01941003022450094,0.0,0.0,0.0,0.0,-0.28241794160498074,-0.5985391146612113,-0.3710736776546207,-0.007405368145402932,-0.002960242895128227,-0.0852644710514481
1942,1.0,300.23774,3872.2621,0.0,-0.01942002621192007,0.0,0.0,0.0,0.0,-0.2750987801701358,-0.5673224901478704,-0.3346497278298567,-0.014882065247495486,0.013996148261062288,-0.08478257437013863
1943,1.0,300.22877,3490.0108,0.0,-0.019430022199339314,0.0,0.0,0.0,0.0,-0.22421736248603077,-0.5314363430786835,-0.3052224219331077,-0.022232114598388877,0.01882765809714518,-0.08323627061778033
1944,1.0,300.26727,3613.5577,0.0,-0.01944001818675889,0.0,0.0,0.0,0.0,-0.23920401034259775,-0.5482737733029085,-0.3109535266187237,-0.01122643620546299,0.004189657035686956,-0.09321598262195122
1945,1.0,299.9444,3840.2472,0.0,-0.019450014174178132,0.0,0.0,0.0,0.0,-0.25535137671871877,-0.5594229795857495,-0.35256490152294667,0.01104191930925259,0.0018896608753200084,-0.09091114971223191
1946,1.0,299.84661,3844.9318,0.0,-0.019460043151654838,0.0,0.0,0.0,0.0,-0.2600479631847357,-0.5681287940474464,-0.3405865020207707,0.02319798309721268,-0.012424127207915888,-0.12190104938319689
1947,1.0,299.17272,3754.2357,0.0,-0.019470039139074302,0.0,0.0,0.0,0.0,-0.25701950049084976,-0.5486653032740495,-0.3355091057696707,0.012139581248583386,-0.022769572848931878,-0.1010130039497073
1948,1.0,299.15563,3671.3952,0.0,-0.019480035126493433,0.0,0.0,0.0,0.0,-0.25289360687865575,-0.5308086143767315,-0.3323102549389687,0.006965801608221092,-0.036894990544502064,-0.0902964888968196
1949,1.0,299.54652999999996,3702.6236,0.0,-0.019490031113912898,0.0,0.0,0.0,0.0,-0.2504477427272678,-0.5486322409232864,-0.3264251362381527,0.0056081177057031245,-0.003515567886009537,-0.0943748104168186
1950,1.0,300.24309,4039.9686,0.0,-0.01950002710133203,0.0,0.0,0.0,0.0,-0.3085519617617077,-0.5700287697074594,-0.34946883478238866,-0.006365205413471864,0.007036848273432853,-0.08531481539591673
1951,1.0,300.09156,4059.7279,0.0,-0.019510023088751494,0.0,0.0,0.0,0.0,-0.2939109943092567,-0.5690870246670164,-0.37105789121806265,-0.015941562108559685,0.010769347939601888,-0.08382361015749622
1952,1.0,300.0766,3594.6222,0.0,-0.019520019076170847,0.0,0.0,0.0,0.0,-0.25221296625648176,-0.5442138726697274,-0.2962485521574557,-0.02241231910217368,-0.0007967763190182003,-0.08687078251447872
1953,1.0,300.14506,3648.9604,0.0,-0.01953001506358998,0.0,0.0,0.0,0.0,-0.22523079497104875,-0.5593268728137645,-0.32463518940649866,-0.015314819298954986,0.015960460236174784,-0.0941317418503296
1954,1.0,300.19738,4007.9232,0.0,-0.019540044041066795,0.0,0.0,0.0,0.0,-0.29326771221826975,-0.5756204917093194,-0.3494203507651037,-0.0017588300224080085,0.0005703485210415165,-0.07710813806598073
1955,1.0,300.03853,3894.6895,0.0,-0.01955004002848615,0.0,0.0,0.0,0.0,-0.2558440493148417,-0.5637457578248745,-0.36429855046346765,0.0008100971837103673,0.003175379297435537,-0.08814684638566642
1956,1.0,299.9976,3614.8035,0.0,-0.01956003601590539,0.0,0.0,0.0,0.0,-0.24326234043812375,-0.5420722267283635,-0.31347544532261773,-0.003023391174485477,-0.006956355685488853,-0.08775916169865491
1957,1.0,299.64468,3768.3067,0.0,-0.019570032003324744,0.0,0.0,0.0,0.0,-0.23564809017665575,-0.5650533368139226,-0.34476970505862065,0.02319602752451968,0.0016701562505065885,-0.11121185864575589
1958,1.0,299.73546,3965.6572,0.0,-0.019580027990743987,0.0,0.0,0.0,0.0,-0.2900723773654147,-0.5756522570999545,-0.3397361318743457,0.015940005756406087,0.009093021502611352,-0.09925090528380172
1959,1.0,299.43782999999996,3879.437,0.0,-0.01959002397816334,0.0,0.0,0.0,0.0,-0.26190267696278174,-0.5684399732856575,-0.3489093282096697,-0.0013735766290114586,-0.005433384347158285,-0.1069235613075339
1960,1.0,299.22438999999997,3831.35,0.0,-0.019600019965582804,0.0,0.0,0.0,0.0,-0.26922479708791874,-0.5605853395704654,-0.33482461479711667,-0.018011985687144585,-0.029279606456172173,-0.07822807326900973
1961,1.0,299.28254,3663.9235,0.0,-0.019610015953001936,0.0,0.0,0.0,0.0,-0.23153094091282475,-0.5399462861635494,-0.34226402875382966,-0.02121809544156298,-0.01041126535426189,-0.08091496327468513
1962,1.0,299.75656000000004,3586.8069,0.0,-0.019620044930478753,0.0,0.0,0.0,0.0,-0.21918810574718178,-0.5590571355046434,-0.31205450391238165,0.00024361708943063475,0.0038824888493218163,-0.09593221128427211
1963,1.0,300.04927000000004,3881.8455,0.0,-0.019630040917898106,0.0,0.0,0.0,0.0,-0.26440906254264274,-0.5639341412834664,-0.35164089849175467,-0.002257061004604578,0.014228191653213188,-0.0946308637833391
1964,1.0,300.00315,4014.8704,0.0,-0.01964003690531735,0.0,0.0,0.0,0.0,-0.2901934100898597,-0.5775426372815204,-0.35268431304723163,-0.003960735669744177,0.013313682775458186,-0.08880495333886651
1965,1.0,299.82395,3663.0404,0.0,-0.019650032892736702,0.0,0.0,0.0,0.0,-0.23671369490932276,-0.5569847756051175,-0.3197743348342697,-0.007624697781924083,0.0018788025832733783,-0.0985653281071405
1966,1.0,300.71379,3693.7801,0.0,-0.019660028880156055,0.0,0.0,0.0,0.0,-0.24753672585247277,-0.5564290585877725,-0.3188511221381557,0.008167335868303293,0.0072775280014860935,-0.1024955469130229
1967,1.0,300.31588999999997,3997.88,0.0,-0.019670024867575298,0.0,0.0,0.0,0.0,-0.26963033017544175,-0.5786754204958174,-0.36694994226513966,0.006578968355268623,-0.0023269582389028975,-0.08083060412435952
1968,1.0,299.96272999999997,4002.7933,0.0,-0.01968002085499465,0.0,0.0,0.0,0.0,-0.2923842189260757,-0.5670040256414405,-0.35736097901628266,0.006722808731514564,-0.02015607862750008,-0.08819090959276511
1969,1.0,299.48087000000004,3840.9615,0.0,-0.019690016842413893,0.0,0.0,0.0,0.0,-0.2613356115443168,-0.5652492284557554,-0.34097154719127165,0.003252993647145477,-0.005708707602755574,-0.0987250831974071
1970,1.0,300.28617,3739.9715,0.0,-0.01970004581989071,0.0,0.0,0.0,0.0,-0.2725160259302377,-0.5632293954414135,-0.30111253767249374,0.013493267170181789,0.002184080044951918,-0.09949270424791541
1971,1.0,299.95667000000003,3660.0074,0.0,-0.019710041807310064,0.0,0.0,0.0,0.0,-0.2393895263034068,-0.5538210338903804,-0.31934028888893273,0.013484358675302588,0.003925568494548446,-0.1020386015154259
1972,1.0,299.81728,3763.4946,0.0,-0.019720037794729306,0.0,0.0,0.0,0.0,-0.26706962425771974,-0.5627573830148295,-0.3141813867997887,-0.0012964043603201486,-0.006139882503934224,-0.08939123099247762
1973,1.0,298.98661,3948.5906,0.0,-0.01973003378214866,0.0,0.0,0.0,0.0,-0.25731218791473576,-0.5841221970708724,-0.35883858137211067,-0.0023611349621258776,-0.008951012170621121,-0.09876098872795071
1974,1.0,299.28369,3839.4448,0.0,-0.019740029769568013,0.0,0.0,0.0,0.0,-0.25765710838127676,-0.5687531283615634,-0.3406851115205027,0.00029407671136311175,0.005163937942140995,-0.09289062092209051
1975,1.0,299.65302,3639.3366,0.0,-0.019750025756987255,0.0,0.0,0.0,0.0,-0.2238832230005538,-0.5635529059333415,-0.3188313333637027,0.004411019251908706,0.013293668046232885,-0.11233806586690388
1976,1.0,300.02581000000004,3753.1327,0.0,-0.01976002174440661,0.0,0.0,0.0,0.0,-0.2615020480057428,-0.5556471942806085,-0.32370937265762767,-0.0096747238253959,0.0027017201367890175,-0.10442594034103792
1977,1.0,300.05945,3931.5702,0.0,-0.01977001773182585,0.0,0.0,0.0,0.0,-0.27101251476935273,-0.5664046172797834,-0.35768201717796666,-0.015723063843745586,-0.007090816304234083,-0.1016778946123269
1978,1.0,299.67764,3811.9806,0.0,-0.019780046709302668,0.0,0.0,0.0,0.0,-0.2542461539071417,-0.5717298950353475,-0.3327708581694267,-0.015570695346707986,-0.004162906929071926,-0.1059500711414579
1979,1.0,300.20664,3726.7589,0.0,-0.01979004269672202,0.0,0.0,0.0,0.0,-0.23125282402537675,-0.5543355724236615,-0.3472532519812277,0.002149398115229078,-0.013369783393744887,-0.08739287077425482
1980,1.0,300.39267,3878.2525,0.0,-0.019800038684141152,0.0,0.0,0.0,0.0,-0.27669763816543075,-0.5653823796513965,-0.3368119022182467,0.014201460089074986,-0.01999186625004358,-0.09711740688649181
1981,1.0,300.28742,3975.5176,0.0,-0.019810034671560617,0.0,0.0,0.0,0.0,-0.2762406421053287,-0.5756004597548424,-0.3566169798653557,0.00976640705141933,-0.016804208793196284,-0.08816836173828982
1982,1.0,300.10296,3964.875,0.0,-0.01982003065897997,0.0,0.0,0.0,0.0,-0.29411304651169773,-0.5759237371992474,-0.3351862133603037,0.006896806875786844,-0.003026921844458927,-0.11120175654225889
1983,1.0,300.4515,3942.6157,0.0,-0.019830026646399213,0.0,0.0,0.0,0.0,-0.26096282670002574,-0.5754840981133584,-0.36200980087258566,0.003632420244516966,0.004860483824017405,-0.09077315518111291
1984,1.0,300.23841,3803.1547,0.0,-0.019840022633818566,0.0,0.0,0.0,0.0,-0.26177537222021774,-0.5651367678271564,-0.32915192397976567,-0.00993203443264048,-0.0037267456215011566,-0.1076322689574779
1985,1.0,300.25866,3806.0042,0.0,-0.019850018621237808,0.0,0.0,0.0,0.0,-0.24749927612877676,-0.5579868191590115,-0.35144414558733666,0.00028155682087499474,-0.004514833310779356,-0.08935873302202033
1986,1.0,300.34321,3846.9455,0.0,-0.01986001460865716,0.0,0.0,0.0,0.0,-0.27703071373830274,-0.5575853897343935,-0.33475928043066866,0.0026782886269015073,0.009214280384478673,-0.09844454565547021
1987,1.0,300.23907,3817.1929,0.0,-0.01987004358613398,0.0,0.0,0.0,0.0,-0.26071092259266476,-0.5449349926333965,-0.3546854110672246,0.01784551173546488,0.020274368483924377,-0.08123908070342302
1988,1.0,299.62442999999996,3726.2957,0.0,-0.01988003957355311,0.0,0.0,0.0,0.0,-0.26891605978244876,-0.5583338573182615,-0.3054509300956597,-0.004014254628101086,0.004465875497747595,-0.09142014374096573
1989,1.0,299.73537000000005,3856.5892,0.0,-0.019890035560972685,0.0,0.0,0.0,0.0,-0.25517560822387175,-0.5611699038181575,-0.35596131585814667,0.0030445730665009667,-0.01116799599269539,-0.1010884019161485
1990,1.0,299.63403,4028.2491,0.0,-0.019900031548391928,0.0,0.0,0.0,0.0,-0.28177681773670676,-0.5756147060512484,-0.36709560709951566,-0.004582817630213886,0.006792392060931903,-0.0904877023629409
1991,1.0,299.57437999999996,3958.6622,0.0,-0.01991002753581106,0.0,0.0,0.0,0.0,-0.25636513344376877,-0.5887959651446375,-0.35817335228395764,0.002038865802895388,-0.007806386494455362,-0.10864368507479691
1992,1.0,299.99072,3842.882,0.0,-0.019920023523230523,0.0,0.0,0.0,0.0,-0.26973888979115573,-0.5686655328904184,-0.3297357485548847,-0.0033516993043119668,-0.014239210748050686,-0.09252737785399122
1993,1.0,300.20378,3785.6075,0.0,-0.019930019510649655,0.0,0.0,0.0,0.0,-0.25379989829809974,-0.5701908289284535,-0.3267394261541707,-0.013123581857946686,-0.015993577302443183,-0.1073383960309749
1994,1.0,299.98883,3729.7725,0.0,-0.01994001549806912,0.0,0.0,0.0,0.0,-0.26079186101065277,-0.5616368905242455,-0.3113289560457757,0.0022295030336848183,0.007755401674598553,-0.1081918160602009
1995,1.0,300.41657999999995,3832.5259,0.0,-0.019950044475545825,0.0,0.0,0.0,0.0,-0.24080891744098978,-0.5613258734060504,-0.36285740484623763,-0.0024999086825717776,0.01319434116543009,-0.0956389311090776
1996,1.0,300.2629,3909.1023,0.0,-0.01996004046296529,0.0,0.0,0.0,0.0,-0.2728623446819167,-0.5678914604765235,-0.34751567362462665,-0.01003425353452872,0.02157843757462598,-0.09582256647770102
1997,1.0,300.07965,3843.5841,0.0,-0.019970036450384643,0.0,0.0,0.0,0.0,-0.2497972969580738,-0.5582797193654185,-0.36027658591403067,-0.001238250998655859,0.004603041595584836,-0.08737851909983842
1998,1.0,300.28717,3834.0592,0.0,-0.019980032437803885,0.0,0.0,0.0,0.0,-0.2718476760317768,-0.5629841585197104,-0.3306264359227887,0.0016396634006721783,0.013719649534023987,-0.09977232986476231
1999,1.0,300.5854,4069.3,0.0,-0.019990028425223016,0.0,0.0,0.0,0.0,-0.2874563581247337,-0.5859191657257193,-0.36359008599354764,0.0035335104174553265,0.001060584281071519,-0.07694848126097384
2000,1.0,300.18475,4132.4067,0.0,-0.02000002441264248,0.0,0.0,0.0,0.0,-0.29463156711787175,-0.5924448611397554,-0.36907203247957365,-0.004387285084216326,-0.019815256757613583,-0.08814859424208892
2001,1.0,299.57992,3987.3739,0.0,-0.020010020400061612,0.0,0.0,0.0,0.0,-0.2610199436081628,-0.5896393843953764,-0.3614027526051746,-0.01096808782746599,-0.018391411372590982,-0.09321815705666582
2002,1.0,299.07045,3932.0167,0.0,-0.020020016387481188,0.0,0.0,0.0,0.0,-0.27531096487357676,-0.5779367814379194,-0.34198713789900265,0.018169902741729783,0.004647590352131456,-0.08990482315016522
2003,1.0,299.70875,3855.1568,0.0,-0.020030045364957783,0.0,0.0,0.0,0.0,-0.26861965373069574,-0.5571743749638295,-0.3460773853726786,0.028002898157920876,0.014509168945693485,-0.08992245572840542
2004,1.0,299.85058,3815.0974,0.0,-0.020040041352377136,0.0,0.0,0.0,0.0,-0.26558179820838274,-0.5787159808973205,-0.3153965573797167,0.010681517394433689,0.0026640735385985875,-0.09562954739990151
2005,1.0,299.95165,3868.5236,0.0,-0.0200500373397966,0.0,0.0,0.0,0.0,-0.26130169806346976,-0.5679281705276464,-0.34670471890709165,0.0019327002945176684,-0.016672577472705286,-0.10689508897972391
2006,1.0,299.78296,3855.8392,0.0,-0.02006003332721573,0.0,0.0,0.0,0.0,-0.2616068383310847,-0.5802050431117796,-0.3302669651848117,-0.0024383126010427175,0.017108964025773284,-0.1112697962864739
2007,1.0,300.1499,3832.0391,0.0,-0.020070029314634974,0.0,0.0,0.0,0.0,-0.23644847669564778,-0.5806984047179704,-0.3476973088375527,-0.004189938617889746,0.011791809496260987,-0.11838248774844189
2008,1.0,299.81082000000004,3916.5335,0.0,-0.020080025302054327,0.0,0.0,0.0,0.0,-0.25689113183568074,-0.5821102167448055,-0.3515270395780177,-0.012162213202816989,0.010758875999818389,-0.0995021649640991
2009,1.0,300.13611000000003,3946.554,0.0,-0.02009002128947379,0.0,0.0,0.0,0.0,-0.24552406664883875,-0.6087780373192144,-0.34535175644606464,-0.016195671048138283,-0.01011277281790297,-0.1061900898251459
2010,1.0,300.24825,3818.7609,0.0,-0.020100017276893145,0.0,0.0,0.0,0.0,-0.27215049595666274,-0.5695090332011655,-0.31914844011499865,0.008922873404744042,-0.0045006256192021655,-0.1049721530724449
2011,1.0,300.17277,3723.2844,0.0,-0.02011004625436974,0.0,0.0,0.0,0.0,-0.24190290330895775,-0.5666622969127144,-0.3232202768343577,0.011234166290475888,-0.022463673656991978,-0.0859066588323271
2012,1.0,299.64994,3847.6174,0.0,-0.020120042241789093,0.0,0.0,0.0,0.0,-0.2694249342476707,-0.5729109596169094,-0.3272437207289407,0.0017020883207830386,-0.030935511445347272,-0.1079752743813299
2013,1.0,299.64569,4004.2981,0.0,-0.020130038229208558,0.0,0.0,0.0,0.0,-0.26491845376541573,-0.5761522554943004,-0.3761359258167256,0.007658305058590863,-0.023176391750831776,-0.08718906868889112
2014,1.0,299.35195,3909.0768,0.0,-0.02014003421662769,0.0,0.0,0.0,0.0,-0.26506212249709477,-0.5817745675166796,-0.34142504753852865,0.004644308536382566,0.01049227773950719,-0.0983271190881311
2015,1.0,299.59407999999996,3939.9909,0.0,-0.02015003020404693,0.0,0.0,0.0,0.0,-0.27339254806174373,-0.5664159960784064,-0.35785029775457466,0.0046697241926158956,0.018828310630209583,-0.07370519941338684
2016,1.0,299.18946,4010.5866,0.0,-0.020160026191466285,0.0,0.0,0.0,0.0,-0.3020144619840067,-0.5712825856462015,-0.3458211242898877,-0.007212024523596404,-0.000976381738681375,-0.08931500216095442
2017,1.0,299.49311,4092.4351,0.0,-0.020170022178885638,0.0,0.0,0.0,0.0,-0.28422641064846277,-0.5985892401436584,-0.36118242137092965,0.005260739297069545,-0.00914417411668472,-0.0909528510333475
2018,1.0,300.03904,4128.2203,0.0,-0.020180018166305103,0.0,0.0,0.0,0.0,-0.29488888198076674,-0.5820500499538674,-0.37793695760447366,0.016602232584512783,0.00932421650045352,-0.0997280974448969
2019,1.0,300.1226,3874.4355,0.0,-0.02019004714378181,0.0,0.0,0.0,0.0,-0.2548806713847638,-0.5766876669796415,-0.34616330898115866,0.006925446491188354,0.009271765001076961,-0.09969140259252542
2020,1.0,299.82367,3633.427,0.0,-0.02020004313120105,0.0,0.0,0.0,0.0,-0.23781894811840276,-0.5566579213878595,-0.3099942219540477,-0.015105064369253785,-0.005779496902441934,-0.1025328649142059
2021,1.0,299.80855,3827.4094,0.0,-0.020210039118620404,0.0,0.0,0.0,0.0,-0.2486448161618328,-0.5738158527512155,-0.3409762081417317,-0.010802004990324889,-0.002186818859972218,-0.0999049136403473
2022,1.0,299.76077000000004,3961.8873,0.0,-0.020220035106039647,0.0,0.0,0.0,0.0,-0.2819158559154287,-0.5854701743414075,-0.33692878061728165,-0.0028850606496333172,0.02287139029848048,-0.1055933564437529
2023,1.0,299.82036,3849.2609,0.0,-0.02023003109345889,0.0,0.0,0.0,0.0,-0.24826679281452474,-0.5769196100600325,-0.34489280481326967,-0.0013894760429556084,0.0015931958524111885,-0.1066911217345939
2024,1.0,299.81172000000004,3797.3872,0.0,-0.020240027080878242,0.0,0.0,0.0,0.0,-0.25384691310273977,-0.5774823894305744,-0.3229815956408017,-0.0023951949589373378,-0.028112252161713272,-0.1129511936349149
2025,1.0,299.45592,3878.3989,0.0,-0.020250023068297596,0.0,0.0,0.0,0.0,-0.23921514596119678,-0.5929911954611745,-0.34673010082209665,0.008130116456355023,-0.02028325874030178,-0.10536712809392589
2026,1.0,299.7029,3896.0443,0.0,-0.02026001905571695,0.0,0.0,0.0,0.0,-0.26317586624343575,-0.5698550581103154,-0.3512692586200767,0.025652229866677975,0.00991784143318974,-0.10614321687551989
2027,1.0,300.0001,3970.7888,0.0,-0.02027001504313619,0.0,0.0,0.0,0.0,-0.26379120289666474,-0.5862207494854834,-0.3570086820890137,0.0024494408229159873,0.003858460636450416,-0.0865812240069015
2028,1.0,299.86394,3841.7537,0.0,-0.02028004402061301,0.0,0.0,0.0,0.0,-0.2783193145529777,-0.5598706537449315,-0.32960721777969965,-0.009895931824952431,-0.01043204204756239,-0.0936898330842166
2029,1.0,299.62877000000003,3776.5076,0.0,-0.020290040008032362,0.0,0.0,0.0,0.0,-0.2541220814323968,-0.5601456498220715,-0.3336962898832596,-0.02119342989437868,0.0048187855426521055,-0.0992092546251911
2030,1.0,299.83064,3933.0805,0.0,-0.020300035995451604,0.0,0.0,0.0,0.0,-0.26772244103214776,-0.5807652589595684,-0.3470705629881977,-0.01169691457139559,0.028473518378867472,-0.11167174246864289
2031,1.0,299.52328,4036.7392,0.0,-0.020310031982870735,0.0,0.0,0.0,0.0,-0.2958834477489227,-0.5643866081156215,-0.3667978736901316,-0.02219291499177018,0.004494195432742556,-0.08973444109284982
2032,1.0,299.69489,3971.8585,0.0,-0.02032002797029031,0.0,0.0,0.0,0.0,-0.27654022976239573,-0.5749802595011335,-0.35582530729722367,-0.00977161373838319,-0.016015023754059787,-0.0934237303032043
2033,1.0,300.20357,3768.1892,0.0,-0.020330023957709553,0.0,0.0,0.0,0.0,-0.24752263154358178,-0.5666551838970124,-0.33125760967508067,-0.007583746569857513,-0.007665216133547933,-0.08440185881731492
2034,1.0,300.55005,3859.8982,0.0,-0.020340019945128907,0.0,0.0,0.0,0.0,-0.25646940701155974,-0.5697921454116065,-0.34705111871877864,0.025720673897682875,0.017718848380214182,-0.08754950201446311
2035,1.0,300.50377000000003,4056.8579999999997,0.0,-0.02035001593254815,0.0,0.0,0.0,0.0,-0.2713585498110037,-0.5913876562504174,-0.3704373160618167,0.012419202812429888,-0.003137805551927297,-0.0910888302100176
2036,1.0,300.09063,4057.6414,0.0,-0.020360044910024966,0.0,0.0,0.0,0.0,-0.2946453270542297,-0.5793015077326075,-0.3594748517724057,0.0026830655944979575,-0.016988578768142183,-0.09155400522492682
2037,1.0,299.65047000000004,3915.7054,0.0,-0.02037004089744432,0.0,0.0,0.0,0.0,-0.25590187549804877,-0.5890605551432504,-0.34531423579486165,0.0009169377800997133,-0.01079870990099969,-0.11845792421838688
2038,1.0,299.41537999999997,3881.9845,0.0,-0.02038003688486356,0.0,0.0,0.0,0.0,-0.25704253166562274,-0.5870344602432904,-0.33594937307062167,0.011464625972720488,0.009285761632658322,-0.099280809334003
2039,1.0,299.40443,3922.6471,0.0,-0.020390032872282915,0.0,0.0,0.0,0.0,-0.26218275955542375,-0.5808168840521635,-0.3493871364268257,-0.001149313477753409,0.005494097989175255,-0.10335677910051991
2040,1.0,299.89748,4072.6691,0.0,-0.02040002885970227,0.0,0.0,0.0,0.0,-0.27432113098338773,-0.6013867324772495,-0.3622818585244357,-0.010059610016956209,-0.006867816371875703,-0.09806241256575661
2041,1.0,300.01201000000003,3943.6272,0.0,-0.02041002484712151,0.0,0.0,0.0,0.0,-0.26064731075138675,-0.5869109247910985,-0.35120597101883066,0.0007566072043063173,0.012718218996440487,-0.1109136895388289
2042,1.0,300.30016,3665.6659,0.0,-0.020420020834540864,0.0,0.0,0.0,0.0,-0.22726390156170076,-0.5697786185227715,-0.3172283818380037,0.012341079203219689,0.01976973345712078,-0.10240563109914891
2043,1.0,300.85776,3802.8462,0.0,-0.020430016821960106,0.0,0.0,0.0,0.0,-0.23763986629572878,-0.5854027526797535,-0.3329276586224017,0.005990865432927385,-0.0036442330181577966,-0.11005340980642589
2044,1.0,300.372,4076.3998,0.0,-0.020440045799436812,0.0,0.0,0.0,0.0,-0.2835649103206777,-0.5879493034935784,-0.36760954781523764,-0.003899219533648006,-0.02778100550527177,-0.09509715843960881
2045,1.0,300.26808,4093.5437,0.0,-0.020450041786856277,0.0,0.0,0.0,0.0,-0.3008240856340257,-0.5977575137990734,-0.3457534594482097,-0.004646670726340696,-0.01334099087890329,-0.0945962339346714
2046,1.0,300.46443999999997,3944.1997,0.0,-0.020460037774275408,0.0,0.0,0.0,0.0,-0.26850112373399776,-0.5842507886410634,-0.3461863300234307,0.014319417599466486,0.0010932176217421789,-0.1003876087627356
2047,1.0,299.59749,3943.4538,0.0,-0.020470033761694872,0.0,0.0,0.0,0.0,-0.27738515875578373,-0.5736234770872295,-0.3477028614481007,-0.0016543711311737186,-0.0017371030018387185,-0.07974542643951082
2048,1.0,299.55989,4066.9555,0.0,-0.020480029749114226,0.0,0.0,0.0,0.0,-0.28767305179111974,-0.5924814901308704,-0.35609836806667267,-0.0074444441355094315,-0.0006777438313306084,-0.09068228184589441
2049,1.0,299.67213,4120.670999999999,0.0,-0.020490025736533468,0.0,0.0,0.0,0.0,-0.29827657223260573,-0.5898386602925434,-0.36446586845248063,-0.0017446325646568283,0.014002263225415788,-0.09234956968669292
2050,1.0,299.5303,4037.6528,0.0,-0.02050002172395282,0.0,0.0,0.0,0.0,-0.28631149696924474,-0.5879441865805735,-0.3530899373272637,0.011368021694936389,0.023018988414047276,-0.09350099366307961
2051,1.0,300.01018999999997,3793.6886,0.0,-0.020510017711371953,0.0,0.0,0.0,0.0,-0.25209909721024376,-0.5775679685340205,-0.3235195301188917,0.0026785468030269873,-0.007200272240986543,-0.09656001901973191
2052,1.0,300.28431,3798.6575,0.0,-0.02052004668884877,0.0,0.0,0.0,0.0,-0.24859721367213475,-0.5702998343742114,-0.3357999592108757,-0.011705039823947489,-0.019227048862561984,-0.1004734614437086
2053,1.0,300.23258,4035.2108,0.0,-0.020530042676268123,0.0,0.0,0.0,0.0,-0.28154902898172574,-0.6004824472930035,-0.34457182744659165,-0.017162230583530284,0.005800727734437254,-0.1088802587081449
2054,1.0,300.15821,4121.5502,0.0,-0.020540038663687366,0.0,0.0,0.0,0.0,-0.28315202103742876,-0.6087444075483954,-0.36095192723818165,0.0009240418386708292,0.014489110646713885,-0.1009031909436196
2055,1.0,300.89603,3966.0301,0.0,-0.02055003465110672,0.0,0.0,0.0,0.0,-0.25233911589393176,-0.6038990557026964,-0.3493359470317737,0.004241644669167735,0.004010876857567726,-0.11792644414343388
2056,1.0,300.51489,3843.8278,0.0,-0.020560030638526183,0.0,0.0,0.0,0.0,-0.25437648826750475,-0.5889506175074004,-0.3251005650449277,-0.0002833031270248417,-0.008561112518891021,-0.11077808627794589
2057,1.0,300.38667999999996,4061.0084,0.0,-0.020570026625945315,0.0,0.0,0.0,0.0,-0.27741561705378975,-0.6024470683093964,-0.3545824547245637,0.017633601622800983,0.0017595909732331081,-0.10813389868448489
2058,1.0,299.79534,4071.8081,0.0,-0.02058002261336478,0.0,0.0,0.0,0.0,-0.28296762978423073,-0.5932804682322234,-0.36147990146778863,0.017109744228350283,0.008700026777125792,-0.0960876377701115
2059,1.0,300.06307000000004,3903.3853,0.0,-0.02059001860078391,0.0,0.0,0.0,0.0,-0.2570807007968897,-0.5828784325731224,-0.34657252016654466,-0.00010283698179921989,-0.009855108586373491,-0.10189485172373891
2060,1.0,300.03362000000004,3776.59,0.0,-0.020600047578260727,0.0,0.0,0.0,0.0,-0.23652635509833378,-0.5658847591834775,-0.34557793413338667,-0.007689027510897933,-0.013475951739222886,-0.1030305024358189
2061,1.0,300.07281,3883.2218,0.0,-0.02061004356568008,0.0,0.0,0.0,0.0,-0.2538028569883917,-0.5863799412086944,-0.3402196649545667,-0.017910600895388682,0.015484058410157587,-0.0981924399113393
2062,1.0,299.38027999999997,4067.9549,0.0,-0.020620039553099545,0.0,0.0,0.0,0.0,-0.2893149830481657,-0.5835659835609784,-0.36367575628950266,-0.01004940415664897,0.017643055246233982,-0.0959476633482971
2063,1.0,300.03014,4242.4791,0.0,-0.020630035540518676,0.0,0.0,0.0,0.0,-0.3159510483644407,-0.6031480549935784,-0.37050860833885263,-0.025504489896097177,-0.024880541630268274,-0.08529313488352701
2064,1.0,300.11605,4024.0957,0.0,-0.02064003152793803,0.0,0.0,0.0,0.0,-0.2639224795796208,-0.5976306548865534,-0.3616714766641957,-0.005044670299370195,-0.027369549970914273,-0.08687421337931732
2065,1.0,300.09382999999997,3896.9195,0.0,-0.020650027515357272,0.0,0.0,0.0,0.0,-0.2593693794602647,-0.5710110954144075,-0.35418574704541167,0.011468697211622289,-0.007389543407991154,-0.08969775738622941
2066,1.0,299.45867999999996,4151.647,0.0,-0.020660023502776625,0.0,0.0,0.0,0.0,-0.27757599427961777,-0.5969039113848295,-0.3875171055774606,0.018071394567007786,0.011865594368542988,-0.08542378639117132
2067,1.0,299.69867999999997,4163.7256,0.0,-0.020670019490195868,0.0,0.0,0.0,0.0,-0.30253650870052873,-0.5892387047758325,-0.3738934006954056,-5.7150719279586846e-05,0.004657016415161736,-0.08781577502149222
2068,1.0,299.60926,3940.1788,0.0,-0.020680048467672685,0.0,0.0,0.0,0.0,-0.2637492543425248,-0.5769623894792545,-0.35700431498108265,0.0023263701485448578,0.011867049395686589,-0.09287618514791582
2069,1.0,300.51457999999997,3858.5145,0.0,-0.020690044455092038,0.0,0.0,0.0,0.0,-0.26466471567537375,-0.5740198605263495,-0.3342074948237117,0.008690258640861752,0.029547326384344076,-0.1055598178654429
2070,1.0,300.66225,3963.5505,0.0,-0.02070004044251139,0.0,0.0,0.0,0.0,-0.2592506670785487,-0.5861869474621474,-0.3593827878683197,0.0047601204896873155,0.004133232785318316,-0.1025088508868359
2071,1.0,300.07737000000003,4023.2611,0.0,-0.020710036429930634,0.0,0.0,0.0,0.0,-0.26961503009893173,-0.6058282332305914,-0.34752764010830767,-0.01141330992140599,-0.023328731876866578,-0.12789128264938687
2072,1.0,300.05786,4031.2341,0.0,-0.020720032417349987,0.0,0.0,0.0,0.0,-0.26113018521904274,-0.6063987335668954,-0.3578655978310846,-0.016817820795039684,-0.030168171065116673,-0.11939013457538888
2073,1.0,300.23022000000003,3896.4002,0.0,-0.02073002840476923,0.0,0.0,0.0,0.0,-0.26283917336770674,-0.5970015684294674,-0.3245676258898307,0.010604683652600791,0.00028221453164740577,-0.11899655783904589
2074,1.0,299.87802999999997,3760.0861,0.0,-0.020740024392188583,0.0,0.0,0.0,0.0,-0.24288090243797877,-0.5762336600073344,-0.3238577124722677,-0.0034727512805088666,0.01245560280902229,-0.10490467061578491
2075,1.0,299.64572000000004,3908.36,0.0,-0.020750020379607936,0.0,0.0,0.0,0.0,-0.2539675911896498,-0.5874025638721194,-0.34667369318902963,0.0011571128690731488,-0.00888410169364257,-0.10425791307695491
2076,1.0,299.14037,4118.0301,0.0,-0.02076001636702718,0.0,0.0,0.0,0.0,-0.27730400755527473,-0.5948504789971715,-0.3796238265034546,-2.5035554710066875e-05,-0.005191613450072355,-0.09016695500403561
2077,1.0,299.15136,4087.9847,0.0,-0.020770045344503996,0.0,0.0,0.0,0.0,-0.2719865419579818,-0.6008293638622414,-0.36982936600181665,0.01082373109896909,0.013043087243502486,-0.1071009915325449
2078,1.0,299.80453,3963.8908,0.0,-0.02078004133192335,0.0,0.0,0.0,0.0,-0.26120700984162476,-0.5729566166664154,-0.3707601882061816,0.013532252981029384,0.0007756422726724323,-0.09582992976617773
2079,1.0,300.36911000000003,4077.9453,0.0,-0.02079003731934259,0.0,0.0,0.0,0.0,-0.30465886235998874,-0.5907787740003254,-0.3441559186780447,-0.02721208482587368,-0.005933155672156874,-0.10074146710840871
2080,1.0,299.80595,4243.4012,0.0,-0.020800033306761945,0.0,0.0,0.0,0.0,-0.3116676146266987,-0.6030492124463235,-0.3751711698665116,-0.006639529097845503,-0.005029294533077725,-0.09068763079317231
2081,1.0,299.83546,4083.8106,0.0,-0.020810029294181187,0.0,0.0,0.0,0.0,-0.3043770471096757,-0.5849436693244454,-0.3520557332151957,0.004304653626636235,0.013805985535294687,-0.10052414522696071
2082,1.0,299.94026,3924.5038,0.0,-0.02082002528160054,0.0,0.0,0.0,0.0,-0.2604235547318038,-0.5895331856523954,-0.34299439969091167,0.005768929818474045,0.01152400850808109,-0.097696187502613
2083,1.0,300.1508,3873.5927,0.0,-0.020830021269019894,0.0,0.0,0.0,0.0,-0.26423005164747576,-0.5681113458807244,-0.34513405966207966,0.013404775985948386,-0.022491551206993275,-0.0964379203561817
2084,1.0,299.79267999999996,3996.4479,0.0,-0.020840017256439136,0.0,0.0,0.0,0.0,-0.2500765486856338,-0.6112217837778934,-0.35352202769990765,0.001199203075577129,-0.024392610031363178,-0.11147380406160791
2085,1.0,299.62755,4201.2703,0.0,-0.020850046233916064,0.0,0.0,0.0,0.0,-0.3086054714994887,-0.6104142234481934,-0.35806158066542665,0.007509543934559284,0.0027300069385057077,-0.08736134045764302
2086,1.0,299.23507,4211.8146,0.0,-0.020860042221335307,0.0,0.0,0.0,0.0,-0.2837937021932577,-0.6119792895526535,-0.38451347764352567,-0.007050439199674173,0.015075682142853987,-0.0969316953684135
2087,1.0,299.45653,3962.1237,0.0,-0.02087003820875455,0.0,0.0,0.0,0.0,-0.26511456832227076,-0.6051266081988463,-0.3341454940500927,-0.00996057160845688,0.011663480357845889,-0.09050354047525401
2088,1.0,300.19458,3945.2876,0.0,-0.020880034196173902,0.0,0.0,0.0,0.0,-0.2331149345291528,-0.5986149057686915,-0.36753908640328364,0.0022336848181725277,-0.0018061401894521583,-0.12451589325376188
2089,1.0,299.80477,4140.7418,0.0,-0.020890030183593034,0.0,0.0,0.0,0.0,-0.2797516246293357,-0.6154049969482444,-0.36352548116717165,0.014651733234763487,0.01058418661632789,-0.11442110542248389
2090,1.0,300.19527,4047.1401,0.0,-0.020900026171012498,0.0,0.0,0.0,0.0,-0.27343010924295075,-0.6074047693261835,-0.34939464461006664,0.016818090319566284,-0.0019385677218717381,-0.13597931852511388
2091,1.0,299.71112999999997,3853.5588,0.0,-0.02091002215843185,0.0,0.0,0.0,0.0,-0.28201480992019473,-0.5669781269688845,-0.3223927149476837,0.0009173746124828251,-0.025063459617820878,-0.1105190691548829
2092,1.0,300.10857999999996,3817.7762,0.0,-0.020920018145851094,0.0,0.0,0.0,0.0,-0.24032108818034478,-0.5886673735744464,-0.3315201731734937,-0.00858654418447593,-0.004855389607814646,-0.11412197372796189
2093,1.0,299.75259,4012.562,0.0,-0.02093004712332802,0.0,0.0,0.0,0.0,-0.27326795882944777,-0.5901192596427364,-0.3563314358546747,-0.005715289776730184,0.016916648143543184,-0.08478802869542691
2094,1.0,299.64412999999996,4234.5131,0.0,-0.020940043110747264,0.0,0.0,0.0,0.0,-0.2765883186121417,-0.6132664920821904,-0.3973314156485576,-0.011890150484716488,0.02053369566151798,-0.08098808244165143
2095,1.0,299.02403,4316.4165,0.0,-0.020950039098166395,0.0,0.0,0.0,0.0,-0.3093705665174977,-0.6198150666834844,-0.3828972018790116,-0.025735760178421774,-0.01068624319290009,-0.07240277280109733
2096,1.0,299.9503,4223.538,0.0,-0.02096003508558586,0.0,0.0,0.0,0.0,-0.2986274607422357,-0.6030274883641795,-0.38219513101722263,0.0008012155298263162,-0.023755302062965777,-0.07676735267309784
2097,1.0,299.56946,4046.7898,0.0,-0.02097003107300499,0.0,0.0,0.0,0.0,-0.2925735649722627,-0.5944202226072085,-0.34312926327922166,0.016051018450612183,-0.001999494450384738,-0.0891124858899676
2098,1.0,299.90196000000003,4165.1947,0.0,-0.020980027060424566,0.0,0.0,0.0,0.0,-0.28481019469357777,-0.6024118173384174,-0.37889318198884564,0.00993059126052305,-0.0011822935526082888,-0.09880996619803441
2099,1.0,299.73367,4163.8917,0.0,-0.02099002304784381,0.0,0.0,0.0,0.0,-0.3002382852212117,-0.5873996051818274,-0.37808121402121064,0.0025272171913169176,-0.0008363017666040582,-0.09115669364871522
2100,1.0,299.45788,3859.1496,0.0,-0.02100001903526294,0.0,0.0,0.0,0.0,-0.2301984258388158,-0.5906806305956395,-0.35220605900003166,-0.0064408075498082135,0.010033872349841102,-0.12241130186855487
2101,1.0,300.06077999999997,3739.8699,0.0,-0.02101004801273998,0.0,0.0,0.0,0.0,-0.25559878199563574,-0.5634979877779215,-0.3177303155400407,0.016836253840858885,0.024082472414254978,-0.1191116630504059
2102,1.0,300.73009,4018.3933,0.0,-0.02102004400015911,0.0,0.0,0.0,0.0,-0.27027368319393574,-0.5954761913314244,-0.3557413392614367,-0.005826371574593104,0.015770079661635683,-0.11220479308125089
2103,1.0,300.13649,4144.8549,0.0,-0.021030039987578353,0.0,0.0,0.0,0.0,-0.2985571411852957,-0.6058088700211804,-0.3555663914991707,-0.01134541811170559,-0.016350811797449485,-0.1092808370026789
2104,1.0,300.18285,4060.0991,0.0,-0.021040035974997706,0.0,0.0,0.0,0.0,-0.25245723045808877,-0.6141639580932634,-0.3675475369091176,-0.013756583513419086,-0.024406755002759177,-0.1040055428745479
2105,1.0,300.04204,4018.2406,0.0,-0.02105003196241717,0.0,0.0,0.0,0.0,-0.25348781726729974,-0.6173388962216054,-0.3506180934433117,0.004314541529062096,-0.001095530770395469,-0.10354675336176891
2106,1.0,300.06579,4014.2454,0.0,-0.021060027949836524,0.0,0.0,0.0,0.0,-0.23206760882828975,-0.6207581492140594,-0.36740460785001167,0.02054602691523498,0.007768268430993403,-0.09816931450430699
2107,1.0,299.81737000000004,4141.6088,0.0,-0.021070023937255766,0.0,0.0,0.0,0.0,-0.2960523666730937,-0.6084383249581874,-0.35445497772948265,0.002271547441284278,-0.0009697587003302322,-0.10359241041127491
2108,1.0,299.63707,4232.1087,0.0,-0.021080019924674898,0.0,0.0,0.0,0.0,-0.28998419420921173,-0.6183370387626144,-0.37813413607393365,0.004233773134440876,0.0069840657452486235,-0.09757834347623272
2109,1.0,299.203,3995.1797,0.0,-0.021090048902151937,0.0,0.0,0.0,0.0,-0.2919890919170797,-0.5790469894399884,-0.34339878780582167,0.013380148942267885,0.01026011883684489,-0.11515397908731288
2110,1.0,299.56149,3827.3106,0.0,-0.021100044889571068,0.0,0.0,0.0,0.0,-0.23901093553604277,-0.5825284458560814,-0.3418674730621927,-0.0025100965070272378,0.010259862484569589,-0.1065856322666829
2111,1.0,299.33775,4043.5057,0.0,-0.02111004087699031,0.0,0.0,0.0,0.0,-0.29028813884170873,-0.5877451335984284,-0.35109149402253265,-0.008452721204018632,-0.013884099012003886,-0.10773589404520491
2112,1.0,300.07448999999997,4297.4467,0.0,-0.021120036864409664,0.0,0.0,0.0,0.0,-0.29449953049734073,-0.6134634982991335,-0.39835347089192663,-0.015256438867943286,-0.013669432859067987,-0.08783842926722801
2113,1.0,299.97627,4162.4323,0.0,-0.021130032851829017,0.0,0.0,0.0,0.0,-0.3129293643137237,-0.6016228704130545,-0.35072325867119064,-0.0038913781937741265,0.015846434136171286,-0.0939294566003656
2114,1.0,300.18967999999995,4087.5376,0.0,-0.02114002883924848,0.0,0.0,0.0,0.0,-0.28709842752690873,-0.5916015330815255,-0.36380938371269067,0.0022734074644928477,0.003932635306045886,-0.07755982976180922
2115,1.0,300.05722000000003,4156.5351,0.0,-0.021150024826667613,0.0,0.0,0.0,0.0,-0.3017111962290767,-0.6014237566359034,-0.36034792885357164,-0.0024960509354660476,-0.0034224681363463063,-0.07651826540101483
2116,1.0,300.76911,4246.0237,0.0,-0.021160020814086855,0.0,0.0,0.0,0.0,-0.28695908537315673,-0.6244711332780024,-0.3792549528045496,-0.01341177957063959,-0.012107936434710288,-0.0957255254891238
2117,1.0,300.14335,4258.1367,0.0,-0.02117001680150621,0.0,0.0,0.0,0.0,-0.2955992918908787,-0.6177966522192824,-0.3809712870164386,-0.0035768651600841064,0.002104247589448068,-0.09204169364380792
2118,1.0,300.33406,4030.3779,0.0,-0.021180045778983025,0.0,0.0,0.0,0.0,-0.26432714127205775,-0.6052113868347134,-0.35559570482456365,0.005040174508676495,0.015324962945706086,-0.09915733872981741
2119,1.0,299.66316,3769.5044,0.0,-0.021190041766402268,0.0,0.0,0.0,0.0,-0.25737716764364876,-0.5800821966696555,-0.3083758588943277,-0.0009655522533350881,0.004725424273138066,-0.1105919522345759
2120,1.0,300.09906,3863.6758,0.0,-0.021200037753821843,0.0,0.0,0.0,0.0,-0.24428146738870374,-0.5926886795113184,-0.3374908304477517,-0.003931719125305466,0.009528262475116291,-0.12292825193707388
2121,1.0,300.0098,4132.2042,0.0,-0.021210033741240975,0.0,0.0,0.0,0.0,-0.2778069545074117,-0.6273047479776585,-0.3509751830435537,0.0013046477578337087,0.003107454354456867,-0.13118980689242588
2122,1.0,299.79427000000004,4144.371,0.0,-0.02122002972866044,0.0,0.0,0.0,0.0,-0.2704235428837258,-0.6142018232495005,-0.3751599227904016,0.019317146048203882,0.00019480888277613982,-0.1193929514106669
2123,1.0,300.20285,4058.8967,0.0,-0.02123002571607957,0.0,0.0,0.0,0.0,-0.26181533480416175,-0.6262155547826634,-0.34577234643007365,0.0007812145301398713,-0.016791947453736182,-0.1184784526654129
2124,1.0,300.50088,4081.3268,0.0,-0.021240021703498813,0.0,0.0,0.0,0.0,-0.25588922000429976,-0.6156159049565594,-0.36911632164144464,-0.000895524086858846,-0.021467707577197778,-0.1035750534370619
2125,1.0,300.66816,4253.2522,0.0,-0.021250017690918166,0.0,0.0,0.0,0.0,-0.30830264144210173,-0.6132430150773734,-0.37133679844058864,-0.0009998755431850329,0.014504605267243087,-0.0838711366534367
2126,1.0,300.62571,4242.5604,0.0,-0.021260046668394983,0.0,0.0,0.0,0.0,-0.29187642863846075,-0.6180002344293745,-0.37975577193147664,-0.017236849360644586,0.014344825858974088,-0.08797824663527691
2127,1.0,300.07081,4145.6225,0.0,-0.021270042655814336,0.0,0.0,0.0,0.0,-0.2966927913987987,-0.6000404169368784,-0.36343253573549866,0.004087680505872655,0.002083237341999518,-0.07592186132590432
2128,1.0,299.98589,4035.967,0.0,-0.02128003864323369,0.0,0.0,0.0,0.0,-0.26178367073853676,-0.6040716932547344,-0.3609778157782366,-0.01754215276152568,-0.01227158645836129,-0.0942004959358651
2129,1.0,300.30462,4020.1218,0.0,-0.021290034630652932,0.0,0.0,0.0,0.0,-0.26518038904876673,-0.6042355053984014,-0.35260075031148463,0.02128438327635508,0.002830807794228977,-0.09899598270439282
2130,1.0,299.56566000000004,4198.8908,0.0,-0.021300030618072285,0.0,0.0,0.0,0.0,-0.29251268890625476,-0.6034453831029224,-0.38039988488754567,0.0006168343483343103,-0.008642979073970622,-0.0978611030756389
2131,1.0,300.0143,4263.5558,0.0,-0.021310026605491528,0.0,0.0,0.0,0.0,-0.31701462659690766,-0.6101529467774074,-0.36884693896985865,0.007006443475032133,0.0032000082662912268,-0.08578081114340691
2132,1.0,299.93594,4025.7615,0.0,-0.02132002259291077,0.0,0.0,0.0,0.0,-0.26581392367379175,-0.6004859835358524,-0.35743107565820065,-0.004694979552683405,-0.0032298201107334268,-0.1074864622680879
2133,1.0,300.0634,4021.6353,0.0,-0.021330018580330123,0.0,0.0,0.0,0.0,-0.27234255751311776,-0.5976343431169174,-0.3524998204690237,-0.005900636828747514,0.014940881376050185,-0.1003344739274916
2134,1.0,300.62602999999996,4275.186,0.0,-0.02134004755780694,0.0,0.0,0.0,0.0,-0.2892642597481597,-0.6259327668122544,-0.38435276604516466,-0.004175355719800527,-0.0027484660248524775,-0.10533069162032992
2135,1.0,300.63717,4173.9263,0.0,-0.021350043545226294,0.0,0.0,0.0,0.0,-0.28366976144102574,-0.6152858083389814,-0.3698138024802807,-0.011026201773701389,-0.023786068389002178,-0.1030984813850279
2136,1.0,299.94776,3883.8989,0.0,-0.021360039532645647,0.0,0.0,0.0,0.0,-0.2537012786658667,-0.5970157336658654,-0.3298912824452347,0.004899642394007055,-0.01945850051665448,-0.10763603824784991
2137,1.0,299.93299,4001.4179999999997,0.0,-0.02137003552006489,0.0,0.0,0.0,0.0,-0.2672174270498068,-0.6074588566165214,-0.34165487292621066,0.002392488162620198,0.002954659785752217,-0.1102639327797029
2138,1.0,299.06107000000003,4142.005,0.0,-0.021380031507484243,0.0,0.0,0.0,0.0,-0.2665342634348838,-0.6202397603303984,-0.37229206023736566,0.005379641865829315,0.020523971500308283,-0.1096570263673059
2139,1.0,299.63502,4197.6561,0.0,-0.021390027494903485,0.0,0.0,0.0,0.0,-0.2837787871517857,-0.6385089534759274,-0.35369489829946865,-0.00875926532964718,0.016865762723521183,-0.1263796350901989
2140,1.0,299.82091,4168.9331,0.0,-0.02140002348232284,0.0,0.0,0.0,0.0,-0.26020141991238077,-0.6323320187463114,-0.3747181356143007,0.005893630001655994,0.004950983776574055,-0.1260330326284919
2141,1.0,300.32475,4023.7274,0.0,-0.021410019469742192,0.0,0.0,0.0,0.0,-0.26492841401389877,-0.6112138804271134,-0.3469703525533077,0.008592931206481283,0.013314237023262886,-0.11139292643862589
2142,1.0,300.32142000000005,4067.4623,0.0,-0.021420048447218787,0.0,0.0,0.0,0.0,-0.27149752719471976,-0.6104493832266634,-0.35446007437748567,0.013016177347346686,-0.010383719137043291,-0.10377282972408092
2143,1.0,300.99149,4258.5458,0.0,-0.02143004443463825,0.0,0.0,0.0,0.0,-0.3086860654124427,-0.5965528100926785,-0.38925269154124964,-0.003224427897676257,-0.023837675243095376,-0.08274542693808783
2144,1.0,300.25264,4275.3617,0.0,-0.021440040422057605,0.0,0.0,0.0,0.0,-0.29723610623491975,-0.6119189809067014,-0.3904481240092296,-0.009626251055187012,-0.025774781453022873,-0.08478207483783932
2145,1.0,300.00088999999997,4148.9442,0.0,-0.021450036409476847,0.0,0.0,0.0,0.0,-0.2886745887199637,-0.6036844189340134,-0.36881643000934766,-0.01051030244553609,0.00930639282324446,-0.08076686056056852
2146,1.0,299.35502,4182.5933,0.0,-0.0214600323968962,0.0,0.0,0.0,0.0,-0.2809985099373937,-0.6054911147898204,-0.3849143092505846,0.0012564388379508588,0.013648128262465387,-0.0959581444073315
2147,1.0,299.70594,4389.2734,0.0,-0.02147002838431533,0.0,0.0,0.0,0.0,-0.32587174969603766,-0.6276703083487364,-0.38068746553092764,-0.003254753966544207,0.006132877196717854,-0.08200412303242684
2148,1.0,299.8959,4326.3403,0.0,-0.021480024371734796,0.0,0.0,0.0,0.0,-0.30538545387419774,-0.6253392353011774,-0.3843747231748316,0.0038845276098480267,0.00043205358153286863,-0.10036617447012021
2149,1.0,300.04642,4101.242,0.0,-0.02149002035915415,0.0,0.0,0.0,0.0,-0.26998727792066973,-0.6132564913037034,-0.36343137049788365,-0.0005699739832745525,0.01105424144371869,-0.09870374009730071
2150,1.0,300.04467,4037.1902,0.0,-0.021500049336630966,0.0,0.0,0.0,0.0,-0.2550726012187058,-0.6105856248351094,-0.36154677597438867,0.005098697503977265,0.006042793183327255,-0.1117848921073099
2151,1.0,300.69736,4059.5695,0.0,-0.021510045324050098,0.0,0.0,0.0,0.0,-0.26918978929696374,-0.6062559970253084,-0.35856196409481067,-0.015761491353788085,-0.0005896202846309914,-0.10384405107360992
2152,1.0,300.64364,3951.4797,0.0,-0.021520041311469562,0.0,0.0,0.0,0.0,-0.24504236755129877,-0.6096153973343554,-0.34649341573123765,0.0015858746138136385,0.01103046654337229,-0.1280156793641639
2153,1.0,300.70023,4038.7940000000003,0.0,-0.021530037298888693,0.0,0.0,0.0,0.0,-0.26974580015683775,-0.6078653826891425,-0.35008133433533767,0.013861310004004786,0.008367336644591833,-0.1028097861665359
2154,1.0,299.97802,4148.225,0.0,-0.021540033286308158,0.0,0.0,0.0,0.0,-0.2833742673143627,-0.6183565336945385,-0.3592260279453487,0.006697118383179123,-0.01064724927605169,-0.10418170653693391
2155,1.0,300.1036,4198.8769,0.0,-0.02155002927372729,0.0,0.0,0.0,0.0,-0.2817338964624707,-0.6262566522067193,-0.3683631829746157,0.014186982771646187,-0.024673487012083578,-0.10762823622207991
2156,1.0,300.35104,4246.9142,0.0,-0.021560025261146754,0.0,0.0,0.0,0.0,-0.28537440274676074,-0.6197097292030884,-0.3858717292700746,0.002156688145723548,-0.013117703994116589,-0.1100991276509379
2157,1.0,300.22007,4189.5899,0.0,-0.021570021248566107,0.0,0.0,0.0,0.0,-0.27330956287855374,-0.6261087176921194,-0.3741124349695226,0.008235152292196252,0.02118700892849498,-0.1090449827769019
2158,1.0,299.90308999999996,4133.1815,0.0,-0.021580017235985238,0.0,0.0,0.0,0.0,-0.2715941101942518,-0.6237176298411374,-0.36107222029005365,-0.0086413992144147,0.006207398093872494,-0.11398101037404988
2159,1.0,300.14804,4220.7729,0.0,-0.021590046213462055,0.0,0.0,0.0,0.0,-0.3137500259672167,-0.6128218576733084,-0.3564376852601606,-0.0065966699358406345,0.0025960874966388875,-0.10193470285017191
2160,1.0,299.68411000000003,4201.8482,0.0,-0.02160004220088152,0.0,0.0,0.0,0.0,-0.2989078169124047,-0.6164099383974244,-0.36193917734061565,-0.0036707314334479867,0.003012721650932477,-0.09748359648588191
2161,1.0,299.70715,4078.6991,0.0,-0.02161003818830065,0.0,0.0,0.0,0.0,-0.27162861136015676,-0.6082356242756825,-0.35995845578013363,0.01839494356243958,0.0012129805411618588,-0.09250262415404821
2162,1.0,300.39277999999996,4170.4818,0.0,-0.021620034175720004,0.0,0.0,0.0,0.0,-0.2805058474737717,-0.6073503881933164,-0.37986610473486565,0.011300019440975091,-0.015389299260805586,-0.08839548884095551
2163,1.0,300.62018,4392.609,0.0,-0.02163003016313947,0.0,0.0,0.0,0.0,-0.30475239547671973,-0.6367510050824314,-0.3937400519941176,0.003572646594617767,-0.01018628431530799,-0.097625695693156
2164,1.0,300.44254,4357.0732,0.0,-0.0216400261505586,0.0,0.0,0.0,0.0,-0.29520247275421574,-0.6326051605757684,-0.39663382335221065,-0.00039152440839795063,0.013940649513334985,-0.09873436558157321
2165,1.0,300.4453,4239.2233,0.0,-0.021650022137978064,0.0,0.0,0.0,0.0,-0.3076455892822557,-0.6275818516150063,-0.35339058889693564,-0.00026592912007766074,0.018095638602150483,-0.1032486855798519
2166,1.0,300.16775,4252.4018,0.0,-0.021660018125397196,0.0,0.0,0.0,0.0,-0.28782173611079376,-0.6168245603383444,-0.38797765814541363,0.0014181897269394286,0.004812577663264435,-0.09200127307081872
2167,1.0,300.37481,4233.7355,0.0,-0.021670047102874013,0.0,0.0,0.0,0.0,-0.2923896195491087,-0.6243823320392384,-0.3701779240362167,-0.004704525483200516,-0.008402806376267422,-0.10811225566234889
2168,1.0,300.33019,4072.9827,0.0,-0.021680043090293366,0.0,0.0,0.0,0.0,-0.25609652084225876,-0.6158164068863474,-0.36617212082587464,0.005450613854508704,-0.003015024565759757,-0.10837523459330291
2169,1.0,299.9847,3976.2908,0.0,-0.02169003907771261,0.0,0.0,0.0,0.0,-0.24155572329469377,-0.6077858222912904,-0.3593515696327387,0.016130566689462986,0.006482936867766054,-0.12682665063681586
2170,1.0,299.71142000000003,4028.1149,0.0,-0.021700035065131962,0.0,0.0,0.0,0.0,-0.25592362997769574,-0.6180384440906453,-0.3504842633701037,0.006806486775122942,0.004547846620237516,-0.11938649700752987
2171,1.0,300.35694,4142.3835,0.0,-0.021710031052551426,0.0,0.0,0.0,0.0,-0.2920941051574437,-0.6236139135609013,-0.34347311983315765,0.0040698885433917255,8.827195845501401e-05,-0.1315290936884109
2172,1.0,300.40452999999997,4286.0189,0.0,-0.021720027039970558,0.0,0.0,0.0,0.0,-0.2997036134084437,-0.6331422135262714,-0.36999690690585163,-0.005786071375715785,0.009096964869350532,-0.1118748991136929
2173,1.0,299.97174,4248.2759,0.0,-0.02173002302738991,0.0,0.0,0.0,0.0,-0.2952545436768547,-0.6343916623570824,-0.36172358811683863,0.0007397447772021252,0.003437263209006467,-0.1152137507107119
2174,1.0,299.49886000000004,4119.4462,0.0,-0.021740019014809153,0.0,0.0,0.0,0.0,-0.25596929715970274,-0.6128163050627604,-0.3834231800059216,-0.009870258904518711,-0.0023754662702152674,-0.1014551619753449
2175,1.0,300.10874,4247.196,0.0,-0.02175004799228597,0.0,0.0,0.0,0.0,-0.27795401762692573,-0.6296758241391653,-0.3834116897497876,-0.020760629233414582,-0.01172000552792449,-0.10504837987746789
2176,1.0,299.91384,4323.6972,0.0,-0.021760043979705324,0.0,0.0,0.0,0.0,-0.29190774819905174,-0.6286030557282914,-0.3937851922860726,0.0041046365370210865,0.0012279831274424988,-0.09561991747095111
2177,1.0,300.12296000000003,4162.5462,0.0,-0.021770039967124566,0.0,0.0,0.0,0.0,-0.3086895712577887,-0.5855517308419564,-0.37106878365663765,0.004464190361506286,0.016462952239016882,-0.08930989943345083
2178,1.0,300.60008,4106.6024,0.0,-0.02178003595454392,0.0,0.0,0.0,0.0,-0.2696932732716537,-0.6159262330646864,-0.3626850915342317,0.009110609396522142,-0.00014042401101627087,-0.09982025558124222
2179,1.0,300.60666000000003,4212.9522,0.0,-0.021790031941963273,0.0,0.0,0.0,0.0,-0.2958113752693097,-0.6115467432174644,-0.3732741528967906,-0.0012097385461418988,-4.355955188474305e-06,-0.0952210900725899
2180,1.0,300.68063,4305.3953,0.0,-0.021800027929382515,0.0,0.0,0.0,0.0,-0.2832997832995117,-0.6269765360052665,-0.39845634617457965,0.0005626284874696084,0.015023954711998886,-0.11690785421540689
2181,1.0,300.53041,4316.2807,0.0,-0.02181002391680187,0.0,0.0,0.0,0.0,-0.29370844561426673,-0.6416572025966354,-0.37667590706001763,0.0017118881717752084,-0.0041537689330450765,-0.1112847619904509
2182,1.0,300.09826,4263.9909,0.0,-0.02182001990422111,0.0,0.0,0.0,0.0,-0.30286893579333674,-0.6121810073825614,-0.3810968185713276,-0.017323555198201782,-0.013934964167023887,-0.11107482670223189
2183,1.0,300.02159,4235.6817,0.0,-0.021830048881697928,0.0,0.0,0.0,0.0,-0.3009716047160847,-0.6334273623694133,-0.3531424946099507,-0.015837160871256084,-0.006403022339004104,-0.10090112290016551
2184,1.0,300.4203,4184.8459,0.0,-0.02184004486911728,0.0,0.0,0.0,0.0,-0.28221825027527275,-0.6253553865077714,-0.36451503134733265,-0.008396496259944663,0.003224475419105947,-0.1000780456584341
2185,1.0,299.94754,4249.7182,0.0,-0.021850040856536523,0.0,0.0,0.0,0.0,-0.2952988024412227,-0.6163240857164514,-0.38018531904636965,0.005235736844226995,0.017945903542122783,-0.09737286142220322
2186,1.0,300.02304,4242.0913,0.0,-0.021860036843955988,0.0,0.0,0.0,0.0,-0.27057924902659275,-0.6304929292848074,-0.38841764173633664,0.013151889025990387,0.0018142581466033382,-0.11439146785705888
2187,1.0,299.64087,4143.0905,0.0,-0.02187003283137523,0.0,0.0,0.0,0.0,-0.2505000365649288,-0.6201344633800063,-0.3887615692177796,0.017009040340661585,-0.006909345947099354,-0.11731940600852389
2188,1.0,299.41466,4196.5859,0.0,-0.021880028818794472,0.0,0.0,0.0,0.0,-0.27306100249652276,-0.6286138367093553,-0.37398248564419767,0.01138600587096129,0.0042454980592980356,-0.11546564468557188
2189,1.0,299.86584,4314.8482,0.0,-0.021890024806213826,0.0,0.0,0.0,0.0,-0.30378387023613374,-0.6298484515587024,-0.37797377911310764,0.007474507772601484,-0.0027917938150285974,-0.1035450814991039
2190,1.0,299.99619,4170.8411,0.0,-0.021900020793633068,0.0,0.0,0.0,0.0,-0.2872263503520337,-0.6105673660683074,-0.3700378320773906,-0.008210499511963213,-0.008515535212167892,-0.10711056674598989
2191,1.0,300.19698,4048.8328,0.0,-0.021910049771109774,0.0,0.0,0.0,0.0,-0.28627226392537275,-0.6065523422820555,-0.3379194656375547,-0.02454485491188858,-0.007877212777770372,-0.11137686642454088
2192,1.0,300.75051,4215.146,0.0,-0.02192004575852924,0.0,0.0,0.0,0.0,-0.27805043850644173,-0.6241490616012164,-0.3790996519617227,-0.007960902473754902,0.007232889977605664,-0.11661806468680688
2193,1.0,300.63113,4275.017,0.0,-0.021930041745948592,0.0,0.0,0.0,0.0,-0.3043049239675577,-0.6092964363353764,-0.38589706052257466,-0.01110717362894269,0.012507516677895788,-0.08913950623038433
2194,1.0,300.53193,4328.6172,0.0,-0.021940037733367945,0.0,0.0,0.0,0.0,-0.3014538104386747,-0.6356771119639464,-0.37866064109089564,0.0023681911344972674,-0.008525258968077553,-0.1055612161505809
2195,1.0,300.3329,4387.6017,0.0,-0.021950033720787188,0.0,0.0,0.0,0.0,-0.33549443390822264,-0.6080519524300555,-0.39017498217977264,0.01258376678767109,-0.014511499420923488,-0.07846975064311143
2196,1.0,299.50962000000004,4254.1727,0.0,-0.02196002970820632,0.0,0.0,0.0,0.0,-0.2842954231127737,-0.6245587287491473,-0.3843081323782596,0.01757505501877288,0.007102800215816803,-0.11242499259298289
2197,1.0,299.5625,4275.0801,0.0,-0.021970025695625783,0.0,0.0,0.0,0.0,-0.2960176932546717,-0.6256119211680894,-0.37788796696213867,0.002214654157444348,0.014800579674453486,-0.08970626159431871
2198,1.0,299.85612000000003,4433.6708,0.0,-0.021980021683044915,0.0,0.0,0.0,0.0,-0.2932260676391597,-0.6307867211513024,-0.42371242564966055,-0.015288512286608684,0.000995176778231301,-0.11019337004273888
2199,1.0,299.66938,4244.4302,0.0,-0.02199001767046449,0.0,0.0,0.0,0.0,-0.2910463133615347,-0.6408440592588844,-0.35831042475748565,-0.008073725440589662,0.004351519483511536,-0.10697803363290992
2200,1.0,299.80817,3957.3074,0.0,-0.022000046647941085,0.0,0.0,0.0,0.0,-0.24686015849570075,-0.6046477867315904,-0.35141469040692963,-0.0029302047919386974,0.007315241474183123,-0.11401746711264789
2201,1.0,300.35301,4088.4358,0.0,-0.02201004263536055,0.0,0.0,0.0,0.0,-0.2752846912984837,-0.6219055029647944,-0.3455921804297927,0.005318152378210776,0.004405537264892676,-0.10626208124475091
2202,1.0,300.13687999999996,4302.3628,0.0,-0.022020038622779903,0.0,0.0,0.0,0.0,-0.29275841218800575,-0.6403875394263294,-0.3746648893215456,-0.0016040270906801486,-0.015553927070803086,-0.1021194690059069
2203,1.0,300.36525,4346.5075,0.0,-0.022030034610199145,0.0,0.0,0.0,0.0,-0.3062193688389987,-0.6316967717286174,-0.38331359700760664,0.0035194746744201064,-0.008507461635371092,-0.1182272578331219
2204,1.0,299.88248,4300.7345,0.0,-0.022040030597618276,0.0,0.0,0.0,0.0,-0.25875855176998075,-0.6590301253662094,-0.38952724178834564,0.015178633419264485,-0.00040945124459969165,-0.11895863188780288
2205,1.0,300.13111000000004,4359.3781,0.0,-0.02205002658503774,0.0,0.0,0.0,0.0,-0.30215565838544167,-0.6340028276312074,-0.3889836027121927,0.01191739779315559,0.0016687595865687483,-0.10218212839209091
2206,1.0,300.65635,4435.5927,0.0,-0.022060022572457094,0.0,0.0,0.0,0.0,-0.2955893620398987,-0.6512407652224594,-0.40147928665542065,-0.012692376052639988,-0.004155604638251246,-0.092773251096757
2207,1.0,300.5114,4346.1845,0.0,-0.022070018559876448,0.0,0.0,0.0,0.0,-0.30784831022976267,-0.6424713794494884,-0.3708118639612817,-0.008175902492598752,-0.01974992948391628,-0.09814460538736841
2208,1.0,299.55481000000003,4256.677,0.0,-0.022080047537353042,0.0,0.0,0.0,0.0,-0.2963631102137617,-0.6158300857626974,-0.38173032279884966,-0.0024362810345922178,0.014579875564171686,-0.08302556221973502
2209,1.0,299.68137,4100.9767,0.0,-0.022090043524772507,0.0,0.0,0.0,0.0,-0.2749850327139097,-0.6239288620894845,-0.3476806307409067,-0.009163735923115321,0.025633812019610274,-0.1020932562258199
2210,1.0,299.6053,4126.0701,0.0,-0.02210003951219186,0.0,0.0,0.0,0.0,-0.26019645498689076,-0.6272941493816124,-0.3667316679285977,-0.003877960127999866,0.0068036418728171745,-0.1186904752488379
2211,1.0,300.31246,4476.2759,0.0,-0.02211003549961099,0.0,0.0,0.0,0.0,-0.3316018411315537,-0.6349087542806154,-0.39416550557860663,-0.01937400255106518,-0.007149648847440404,-0.09997899640815872
2212,1.0,299.50248999999997,4471.1474,0.0,-0.022120031487030234,0.0,0.0,0.0,0.0,-0.31634168667549367,-0.6506002999667504,-0.39217518853967764,0.015094005757662385,0.003192769810226847,-0.1186583349556659
2213,1.0,299.83772999999997,4214.409000000001,0.0,-0.022130027474449587,0.0,0.0,0.0,0.0,-0.2993986859233497,-0.6193127884764135,-0.3623636176750047,0.001831492213579208,-0.00932334135634215,-0.09326189501048242
2214,1.0,300.10658,4192.2543,0.0,-0.02214002346186905,0.0,0.0,0.0,0.0,-0.2783799677039637,-0.6205827961517534,-0.37537785262190965,-0.014989511301349588,-0.018651966609305782,-0.11633913719927888
2215,1.0,300.44014,4360.5954,0.0,-0.022150019449288405,0.0,0.0,0.0,0.0,-0.29748824338980373,-0.6485652985984114,-0.37945858567714663,-0.014784245069591384,-0.017501265080240382,-0.11197061071813891
2216,1.0,300.29476,4324.7547,0.0,-0.022160048426765222,0.0,0.0,0.0,0.0,-0.2847606366311867,-0.6412928581256774,-0.3885639550507766,0.004116859575627406,0.012920486007902687,-0.1192677542283109
2217,1.0,300.12356,4215.0645,0.0,-0.022170044414184353,0.0,0.0,0.0,0.0,-0.28565027021898676,-0.6406327155530264,-0.35499139233242266,0.002905037888604917,0.016757035921540684,-0.1169207731541819
2218,1.0,299.61167,4090.5035,0.0,-0.022180040401603818,0.0,0.0,0.0,0.0,-0.25489567761874476,-0.6254264558697854,-0.3630887906390737,0.001119356941196929,0.001426852609994389,-0.12105245242444689
2219,1.0,300.51625,4094.8390000000004,0.0,-0.02219003638902295,0.0,0.0,0.0,0.0,-0.26652418159638874,-0.6244660163649973,-0.35373862004128365,-0.00040749763761188564,-0.0047317125032586655,-0.10853307869388089
2220,1.0,299.78922,4334.5287,0.0,-0.02220003237644219,0.0,0.0,0.0,0.0,-0.2858766708213307,-0.6561046088824835,-0.3756072220470466,0.0038662798874721164,0.0029315587980473273,-0.11391633462016688
2221,1.0,299.8189,4540.0797,0.0,-0.022210028363861545,0.0,0.0,0.0,0.0,-0.30550320366831873,-0.6538988850047953,-0.4206687743367756,0.0008136681101102902,-0.0007703055755882412,-0.10254354457025991
2222,1.0,299.6956,4293.5841,0.0,-0.022220024351280898,0.0,0.0,0.0,0.0,-0.2847155976642417,-0.6423659406440824,-0.37806081729669766,-0.01008102607106981,-0.005942138944893454,-0.12004722726523888
2223,1.0,299.92919,4197.4413,0.0,-0.022230020338700363,0.0,0.0,0.0,0.0,-0.27963903227822373,-0.6266515056381884,-0.36962680717432567,-0.013066898620852488,-0.014568936516092087,-0.1034918352063489
2224,1.0,299.94321,4411.7515,0.0,-0.02224004931617718,0.0,0.0,0.0,0.0,-0.3120071344702067,-0.6265982188154294,-0.4024569412794076,0.003678183685283466,0.012851217191316386,-0.09074070179366
2225,1.0,299.92176,4467.6968,0.0,-0.02225004530359631,0.0,0.0,0.0,0.0,-0.3208851203888957,-0.6502833249379674,-0.3868998336165407,-0.0015479525129210184,0.005230630570348045,-0.0877942404171169
2226,1.0,299.74381,4320.5184,0.0,-0.022260041291015664,0.0,0.0,0.0,0.0,-0.2926335493781827,-0.6263600442469234,-0.3943361166304446,0.0035569986693484365,0.002179391635414208,-0.08689605094547252
2227,1.0,300.63535,4312.6527,0.0,-0.022270037278434907,0.0,0.0,0.0,0.0,-0.27869180555473977,-0.6467501927667744,-0.3854967254080646,-0.006230361482213805,-0.0069655650143227435,-0.1014663583889499
2228,1.0,299.92719,4263.1943,0.0,-0.02228003326585415,0.0,0.0,0.0,0.0,-0.2907051115228607,-0.6288379574989744,-0.37636153608399164,0.012828625767086788,0.011414626133285888,-0.11237845401588989
2229,1.0,300.26275,4386.652,0.0,-0.022290029253273724,0.0,0.0,0.0,0.0,-0.30659549740861974,-0.6418586569815173,-0.38497852904192265,-0.0015648859485922185,0.00015258642686910787,-0.11162315712634789
2230,1.0,300.18998999999997,4531.4519,0.0,-0.022300025240692856,0.0,0.0,0.0,0.0,-0.30962917834052067,-0.6620018257894934,-0.4058172231160416,-0.009171554870161991,-0.017519170222757483,-0.1101035859513779
2231,1.0,300.08749,4361.5062,0.0,-0.02231002122811232,0.0,0.0,0.0,0.0,-0.3052358677619347,-0.6393124405402254,-0.38124065955552366,-0.0035269899504118065,-0.015565342346429683,-0.1036183800113379
2232,1.0,300.36316,4129.6708,0.0,-0.022320050205589026,0.0,0.0,0.0,0.0,-0.25488862539804874,-0.6274211298841443,-0.3730070500379296,-0.009495160911574423,0.0017232997997014485,-0.1015938252515299
2233,1.0,299.97668999999996,4327.4469,0.0,-0.02233004619300827,0.0,0.0,0.0,0.0,-0.2914181558832327,-0.6485277880797093,-0.37548984715546263,0.014040648178954087,0.0015554355675595386,-0.11433338836132691
2234,1.0,299.08044,4557.2869,0.0,-0.02234004218042762,0.0,0.0,0.0,0.0,-0.3199440947560237,-0.6598498852271134,-0.40550743203046763,-0.01065625098994009,-0.0007896569299730712,-0.1074591146478889
2235,1.0,299.6984,4276.0361,0.0,-0.022350038167846864,0.0,0.0,0.0,0.0,-0.2858566388668537,-0.6497915541344333,-0.36416001890979566,0.0014277377852817486,0.007918380217408283,-0.1344019819619429
2236,1.0,300.00885,4122.6267,0.0,-0.022360034155266217,0.0,0.0,0.0,0.0,-0.2581145806689258,-0.6394144950902975,-0.3556464990520767,0.0006049314055670814,0.0009726964062126611,-0.11763956264262088
2237,1.0,299.53677000000005,4177.0969,0.0,-0.02237003014268557,0.0,0.0,0.0,0.0,-0.28676639560163975,-0.6159384731258944,-0.3670282664978697,0.0077122263785624826,0.005031687829813925,-0.1129211305044479
2238,1.0,299.55305,4257.0808,0.0,-0.022380026130104813,0.0,0.0,0.0,0.0,-0.2724924678654127,-0.6452968476183404,-0.37625695854117064,0.012703335365721588,-0.011172565750646388,-0.1062760843611329
2239,1.0,299.07536,4380.7228,0.0,-0.022390022117524166,0.0,0.0,0.0,0.0,-0.2926048642678517,-0.6518733777898934,-0.38715209236143666,0.0008040872832597363,-0.021304486158339082,-0.11608170074637188
2240,1.0,299.27733,4410.5597,0.0,-0.022400051095000983,0.0,0.0,0.0,0.0,-0.3001085182809047,-0.6443882257236664,-0.39620327311971865,0.012195943285395888,0.005558317172563195,-0.08725987663237932
2241,1.0,299.43271,4294.1294,0.0,-0.022410047082420226,0.0,0.0,0.0,0.0,-0.2875012856341677,-0.6439380792342404,-0.3738687381879716,-0.002801719815658217,-0.006314758224118114,-0.10439068937005891
2242,1.0,300.06787,4332.3266,0.0,-0.02242004306983958,0.0,0.0,0.0,0.0,-0.28837221462512175,-0.6308734148298584,-0.3976734787498166,-0.0014355777066054887,-0.0023534353759409876,-0.09613990019701942
2243,1.0,299.68802,4518.7081,0.0,-0.02243003905725882,0.0,0.0,0.0,0.0,-0.32819616569043975,-0.6582937053260304,-0.3870845592422716,-0.016282486316706285,-0.003070964685230617,-0.1048448584623819
2244,1.0,299.63962999999995,4527.6369,0.0,-0.022440035044678175,0.0,0.0,0.0,0.0,-0.3218685302734507,-0.6458773892631354,-0.40854264297001963,0.007400022237875333,0.015098090168815486,-0.09171770692433291
2245,1.0,299.97306000000003,4219.2587,0.0,-0.022450031032097528,0.0,0.0,0.0,0.0,-0.29630299408532873,-0.6216731444518624,-0.3645731615055697,-0.0092232976010936,-0.001723581179254218,-0.11030753293150589
2246,1.0,300.20043,4213.495,0.0,-0.02246002701951677,0.0,0.0,0.0,0.0,-0.2885869121888107,-0.6398663337073903,-0.35234403326614866,-0.005366392100896665,-0.004990487459547765,-0.1135345622474889
2247,1.0,300.34251,4510.1883,0.0,-0.022470023006936124,0.0,0.0,0.0,0.0,-0.3043405093110697,-0.6554803049658693,-0.4111638196537096,-0.002808632917115487,-0.014221693680321886,-0.11868126480542888
2248,1.0,300.43518,4506.6781,0.0,-0.022480018994355366,0.0,0.0,0.0,0.0,-0.2990701497109257,-0.6736017358493154,-0.39724572508760064,0.0014151506859144986,-0.002400055418342028,-0.11503153794522888
2249,1.0,299.99381,4347.3313,0.0,-0.022490047971832072,0.0,0.0,0.0,0.0,-0.28639097630708876,-0.6563156688783134,-0.3787735272845366,0.005750295642509995,-0.004138753782463196,-0.10683748571153891
2250,1.0,300.13502,4305.2337,0.0,-0.022500043959251537,0.0,0.0,0.0,0.0,-0.28315231487995773,-0.6434353349321235,-0.38209589330242866,0.006108367487398934,-0.001736384708842828,-0.10960333424450691
2251,1.0,299.86143,4257.7012,0.0,-0.022510039946670668,0.0,0.0,0.0,0.0,-0.2783422545352417,-0.6549155497576323,-0.36097703557565963,0.004115653504033376,0.0050729484884610345,-0.1114597198852179
2252,1.0,299.3989,4375.0607,0.0,-0.022520035934090132,0.0,0.0,0.0,0.0,-0.2983106579659697,-0.6544335162875593,-0.37716502314828965,-0.0028644776897519372,-0.002005205229273348,-0.11870672778044189
2253,1.0,299.26094,4430.5433,0.0,-0.022530031921509486,0.0,0.0,0.0,0.0,-0.28723415237780375,-0.6509210645509074,-0.4086193156050866,-0.013321651987494687,-0.006741068815541693,-0.1159635861822149
2254,1.0,299.37282999999996,4181.2949,0.0,-0.022540027908928728,0.0,0.0,0.0,0.0,-0.2801582722919687,-0.6378044001513934,-0.3530465702229837,-0.00954628951162042,-0.004492893912989106,-0.1266058634400259
2255,1.0,300.04258,4044.6431,0.0,-0.02255002389634808,0.0,0.0,0.0,0.0,-0.2593923295750297,-0.6137703104294134,-0.3563078676573487,-0.006806166892066374,0.01042387018550589,-0.10955392816963089
2256,1.0,299.82882,4377.0876,0.0,-0.022560019883767213,0.0,0.0,0.0,0.0,-0.2951893511654207,-0.6568728753733054,-0.37846308771889864,-0.0024660671424818776,0.018604083449330084,-0.1101813022340479
2257,1.0,299.76985,4606.2992,0.0,-0.02257004886124403,0.0,0.0,0.0,0.0,-0.3331094559553437,-0.6566403446078564,-0.41045012681327364,-0.004988705963221945,0.016680895242776186,-0.09982293157475632
2258,1.0,300.58575,4440.8419,0.0,-0.022580044848663494,0.0,0.0,0.0,0.0,-0.3042286870300337,-0.6396542604614603,-0.4060220921537606,-0.000964786570632021,0.007675943007056592,-0.0999341844092361
2259,1.0,300.19012999999995,4371.2714,0.0,-0.022590040836082848,0.0,0.0,0.0,0.0,-0.2765291954688068,-0.6619032973497694,-0.3903248520020636,0.005433569366626545,0.001152317055024839,-0.10468831132193189
2260,1.0,300.02676,4451.8873,0.0,-0.02260003682350198,0.0,0.0,0.0,0.0,-0.3189660956270027,-0.6277046271296234,-0.4065918426849906,-0.0033804238300718568,-0.004026145624649636,-0.08328946118177982
2261,1.0,300.44161,4569.0342,0.0,-0.022610032810921443,0.0,0.0,0.0,0.0,-0.31604344664105966,-0.6617830549604024,-0.41104580641456256,-0.002199124579786698,-0.012735817124177288,-0.08495900147755063
2262,1.0,300.40222,4487.4959,0.0,-0.022620028798340575,0.0,0.0,0.0,0.0,-0.30990020247726874,-0.6470811303819354,-0.40710537810067265,-0.002257115112159918,-0.005738565246102295,-0.09394754919415121
2263,1.0,299.85672,4309.965999999999,0.0,-0.02263002478576004,0.0,0.0,0.0,0.0,-0.3073910507246347,-0.6195113753635124,-0.38321961806083166,0.009532859996120031,0.012818956321382488,-0.0904523166296986
2264,1.0,299.72738,4262.0879,0.0,-0.02264002077317917,0.0,0.0,0.0,0.0,-0.26292065894074873,-0.6499266507702665,-0.38272098755412065,-0.0011579219492779988,0.006091384909097884,-0.11756877699063488
2265,1.0,299.57748,4459.4533,0.0,-0.022650049750655987,0.0,0.0,0.0,0.0,-0.3006729999116147,-0.6546141078528824,-0.4002753327540996,-0.007361188921167784,-0.0061223899568578445,-0.12180462850368087
2266,1.0,300.29421,4625.7071,0.0,-0.02266004573807534,0.0,0.0,0.0,0.0,-0.3217914118083397,-0.6706914282495904,-0.41361661443578157,-0.011215682582151689,0.0008907373717964341,-0.12305121996920988
2267,1.0,299.83305,4379.2631,0.0,-0.022670041725494805,0.0,0.0,0.0,0.0,-0.2914650997603657,-0.6602474643013514,-0.3794740681386746,0.0008428444339572692,0.007236232791010573,-0.12623137633556689
2268,1.0,299.6952,4092.5266,0.0,-0.022680037712913936,0.0,0.0,0.0,0.0,-0.25000750582381975,-0.6291987961245864,-0.3648195940623906,-0.008481009626935482,-0.0018187399544456583,-0.1144357772839319
2269,1.0,299.87023999999997,4309.019,0.0,-0.0226900337003334,0.0,0.0,0.0,0.0,-0.2982407943715747,-0.6490696235706844,-0.36252376185330965,-0.004168699274593586,0.004592333973828076,-0.12021588274438388
2270,1.0,300.13107,4579.7521,0.0,-0.022700029687752532,0.0,0.0,0.0,0.0,-0.2987418262810227,-0.6802052894010354,-0.4131831865730056,0.002088106718005088,0.0012879784764635788,-0.11936079085249288
2271,1.0,300.40087,4380.6283,0.0,-0.022710025675171885,0.0,0.0,0.0,0.0,-0.29408862718428774,-0.6544983845589614,-0.3830146173005996,0.01030387198941299,-8.729584701092931e-05,-0.1264928556563729
2272,1.0,300.06577999999996,4221.4292,0.0,-0.02272002166259135,0.0,0.0,0.0,0.0,-0.26341135569917673,-0.6557589892733734,-0.3640387328728257,-0.0024867767586257577,-0.01242477771448009,-0.11621271398430189
2273,1.0,299.35209,4272.4636,0.0,-0.022730050640067945,0.0,0.0,0.0,0.0,-0.2828816352482437,-0.6382595520963135,-0.37758107377185063,0.005177156498970565,-0.011993218284888488,-0.1111505164847019
2274,1.0,299.68331,4395.2341,0.0,-0.022740046627487298,0.0,0.0,0.0,0.0,-0.3038507346102327,-0.6527113457550944,-0.3794793471716957,0.0031189961850209575,-0.00997310997049432,-0.09885061373904601
2275,1.0,299.99709,4531.7856,0.0,-0.02275004261490665,0.0,0.0,0.0,0.0,-0.3368242740019677,-0.6484531115473394,-0.39227228829676064,0.004954491547095245,0.007460544274298393,-0.10907400225976589
2276,1.0,299.52747999999997,4515.7508,0.0,-0.022760038602325894,0.0,0.0,0.0,0.0,-0.3126744305885637,-0.6414525058114334,-0.41854852823752364,0.009569089766695632,-0.004884295100042396,-0.0997189133459905
2277,1.0,299.66472000000005,4352.1708,0.0,-0.022770034589745247,0.0,0.0,0.0,0.0,-0.3096066132607937,-0.6400654272195394,-0.37327919888228867,-0.01027867245942599,-0.0012185389272354288,-0.1194577284895599
2278,1.0,300.14661,4431.5348,0.0,-0.02278003057716449,0.0,0.0,0.0,0.0,-0.29903968128041875,-0.6393996104463283,-0.4086366421817966,-0.006386516089575064,0.00023944496121637774,-0.1077135417479989
2279,1.0,299.98036,4649.1793,0.0,-0.022790026564583843,0.0,0.0,0.0,0.0,-0.3295897493479757,-0.6627778335110794,-0.4208668242013216,-0.0058828516550422545,0.003986508699287776,-0.09722246167010992
2280,1.0,300.20382,4490.2079,0.0,-0.022800022552003307,0.0,0.0,0.0,0.0,-0.3136539495927347,-0.6598878010458554,-0.3913693304701456,0.004033874088462376,0.006942834774829443,-0.09122761203646432
2281,1.0,300.26715,4210.1341,0.0,-0.022810051529480013,0.0,0.0,0.0,0.0,-0.2762125041500517,-0.6334672945558544,-0.3700958305131146,-0.007042509605716583,-0.006425250614397864,-0.1082456601705149
2282,1.0,300.42366,4293.4311,0.0,-0.022820047516899478,0.0,0.0,0.0,0.0,-0.2789110323463757,-0.6642960064009114,-0.36188882894314667,0.005630180416030545,-0.0066116934963983435,-0.12435070308995887
2283,1.0,300.26612,4398.7212,0.0,-0.02283004350431861,0.0,0.0,0.0,0.0,-0.29767480299821575,-0.6484484809943823,-0.3909781247390366,-0.011341581946826988,-0.009100397760689332,-0.11700564298255788
2284,1.0,300.31079,4373.6563,0.0,-0.02284003949173785,0.0,0.0,0.0,0.0,-0.27200665497246673,-0.6652160273592104,-0.3922596328030116,0.0027707225699240274,-0.01078930997982199,-0.12833124597530787
2285,1.0,300.59573,4374.3016,0.0,-0.022850035479157205,0.0,0.0,0.0,0.0,-0.2802796089914438,-0.6676600372629153,-0.3817388340996896,0.001139031826338689,-0.007294202349106723,-0.11775236777625388
2286,1.0,300.83389,4392.7147,0.0,-0.022860031466576447,0.0,0.0,0.0,0.0,-0.3104503162215607,-0.6414440755706013,-0.38338119092177764,0.011056077452899889,0.0042266105708089865,-0.1128255607550159
2287,1.0,299.99965,4418.42,0.0,-0.0228700274539958,0.0,0.0,0.0,0.0,-0.29789034155948774,-0.6620278156545584,-0.3831712049710536,0.0064490378763954834,0.0038868024576475357,-0.10514354432685992
2288,1.0,299.93504,4540.6487,0.0,-0.022880023441415154,0.0,0.0,0.0,0.0,-0.3156552502627477,-0.6619738094242283,-0.4026147448499816,-0.009159564980403682,-0.006134161288569583,-0.11348168072476988
2289,1.0,299.55912,4479.0971,0.0,-0.022890019428834396,0.0,0.0,0.0,0.0,-0.31073017589918067,-0.6440565079059284,-0.40674700167280364,-0.0045035920101949255,0.00935294447126375,-0.0963865120991081
2290,1.0,299.94979,4301.3361,0.0,-0.022900048406311324,0.0,0.0,0.0,0.0,-0.2572131629824627,-0.6682994791360234,-0.38198611778659464,-0.015647046781493285,0.008371648023767332,-0.1221848911337099
2291,1.0,300.27853,4304.0681,0.0,-0.022910044393730566,0.0,0.0,0.0,0.0,-0.28806978986777476,-0.6304470290552774,-0.38981242102899066,-0.0003442795959852507,0.019579028642549682,-0.08592694105957882
2292,1.0,299.70878,4487.9727,0.0,-0.02292004038114981,0.0,0.0,0.0,0.0,-0.3226420251347887,-0.6547203065958634,-0.3868693043910276,0.0006941627386010284,-0.002226435317682058,-0.0988753684522391
2293,1.0,300.11936000000003,4586.0742,0.0,-0.022930036368569162,0.0,0.0,0.0,0.0,-0.3280821142591837,-0.6734592627527544,-0.3925106655152866,0.008232207382105611,-0.008756766350925552,-0.09249034153633601
2294,1.0,300.86933999999997,4485.1154,0.0,-0.022940032355988516,0.0,0.0,0.0,0.0,-0.3247636695191787,-0.6459778124805463,-0.39262159613623465,0.0025113183853228273,-0.012881265123031886,-0.12309054420559087
2295,1.0,300.55998,4524.5863,0.0,-0.02295002834340787,0.0,0.0,0.0,0.0,-0.3088513366362537,-0.6807788294876393,-0.3857310901561946,0.0022536713790450476,0.0035401146802821167,-0.1103456514002679
2296,1.0,300.67863,4572.8856,0.0,-0.02296002433082711,0.0,0.0,0.0,0.0,-0.3040243752798697,-0.6655457389417504,-0.4204729232249466,-0.007729751856267112,0.006998667895089744,-0.1152713843763999
2297,1.0,300.45227,4617.7117,0.0,-0.022970020318246354,0.0,0.0,0.0,0.0,-0.3194695897341937,-0.6666168658874624,-0.41758258678469257,-0.008288975326908173,0.007878981101844892,-0.09975052472261031
2298,1.0,299.96043,4564.1586,0.0,-0.02298004929572328,0.0,0.0,0.0,0.0,-0.3188450426375557,-0.6774479319039053,-0.3910972626857946,-0.0014036786682822984,0.008343822352171152,-0.1189656131809919
2299,1.0,300.0565,4352.6473,0.0,-0.022990045283142524,0.0,0.0,0.0,0.0,-0.2963707501195157,-0.6306711397123954,-0.39605418350000465,-0.000945128849946955,0.0038071347566099463,-0.10788544975996489
2300,1.0,299.1886,4183.1972,0.0,-0.023000041270561655,0.0,0.0,0.0,0.0,-0.2619684064967687,-0.6497675401070634,-0.3598515477620826,-0.004137536666443076,-0.014336096709362587,-0.13106268453487988
2301,1.0,299.35441000000003,4433.9982,0.0,-0.02301003725798112,0.0,0.0,0.0,0.0,-0.28314442166167875,-0.6636648934436254,-0.4010154308921416,-0.0019485126702782284,-0.0026647832189686275,-0.11331444379576489
2302,1.0,299.66809,4639.2175,0.0,-0.023020033245400473,0.0,0.0,0.0,0.0,-0.3020496521599797,-0.6840339258313923,-0.4241227108801526,0.0005313443703671066,0.013220690734280588,-0.12228678356376589
2303,1.0,299.56026,4322.3904,0.0,-0.023030029232819826,0.0,0.0,0.0,0.0,-0.2854832562050037,-0.6692417409340173,-0.35917374424018866,0.0008668478829962251,0.010721310765610989,-0.11250116873550088
2304,1.0,300.14901000000003,4253.4848,0.0,-0.02304002522023907,0.0,0.0,0.0,0.0,-0.2926682227966047,-0.6327043476280574,-0.3675805992598807,0.0056001442380162044,-0.009612578967612681,-0.1100235493259789
2305,1.0,300.21736,4558.6847,0.0,-0.0230500212076582,0.0,0.0,0.0,0.0,-0.33611925458238767,-0.6595725485422423,-0.3900345355834116,0.005594265259610995,-0.010806461264264688,-0.11009509491553988
2306,1.0,300.24962,4646.8148,0.0,-0.02306005018513524,0.0,0.0,0.0,0.0,-0.3353509576940627,-0.6717566783447224,-0.4054080220631566,0.01167529080101149,-0.012355106637604089,-0.12805380796542687
2307,1.0,299.95829,4583.1312,0.0,-0.02307004617255448,0.0,0.0,0.0,0.0,-0.3101981993316787,-0.6606109069797204,-0.4223483377025356,-0.005673850178115415,-0.002852322437577307,-0.11546717469322289
2308,1.0,300.05679,4495.3519,0.0,-0.023080042159973613,0.0,0.0,0.0,0.0,-0.3014430598551137,-0.6623926667505664,-0.40263900205737563,0.0031214262627357867,-0.006714782169522403,-0.09500204059972142
2309,1.0,300.06425,4342.2805,0.0,-0.023090038147392966,0.0,0.0,0.0,0.0,-0.3111278664309297,-0.6256619149280234,-0.38315505376445963,-0.003929945734980446,-0.00879337396246344,-0.09302681896078221
2310,1.0,299.85337999999996,4484.5393,0.0,-0.02310003413481243,0.0,0.0,0.0,0.0,-0.3248183242295727,-0.6554358030214773,-0.3829338612676296,0.012208808521915589,0.002162850327531708,-0.08980669291773051
2311,1.0,299.62136,4577.2645,0.0,-0.023110030122231784,0.0,0.0,0.0,0.0,-0.3200060752646407,-0.6644675395103403,-0.40690049893045266,-0.003442174432241166,-0.0030743055734603376,-0.11996460685208488
2312,1.0,299.68118,4422.1524,0.0,-0.023120026109651026,0.0,0.0,0.0,0.0,-0.29639677038208373,-0.6476153664971603,-0.4002117817078276,0.0060859110280826545,0.006084163779610214,-0.1056319815375649
2313,1.0,299.62565,4294.4264,0.0,-0.023130022097070158,0.0,0.0,0.0,0.0,-0.2477442394729528,-0.6706294882709773,-0.38702465589635965,-0.0027927427237472474,-0.0058714636358433445,-0.14824876398601386
2314,1.0,300.15042,4491.255999999999,0.0,-0.023140051074547197,0.0,0.0,0.0,0.0,-0.3041787641976067,-0.6703170728676444,-0.39073385040492864,0.02269688937950858,0.0017565292354059384,-0.12049058497899488
2315,1.0,299.46988,4553.3363,0.0,-0.023150047061966328,0.0,0.0,0.0,0.0,-0.3255141636032467,-0.6663223850108994,-0.3922639695134396,-0.008596031650462273,-0.007849180909778842,-0.12843425298047387
2316,1.0,299.6325,4373.782,0.0,-0.02316004304938557,0.0,0.0,0.0,0.0,-0.3201045631743607,-0.6528538999116634,-0.35656204144493364,-0.0006570962564903513,-0.02071158995507478,-0.1020964479636349
2317,1.0,300.73736,4443.2406,0.0,-0.023170039036805146,0.0,0.0,0.0,0.0,-0.3066557047295617,-0.6506482266964804,-0.3933302632561746,-0.01009163540756687,-0.010531692155147088,-0.1190955929038199
2318,1.0,300.12297,4521.9727,0.0,-0.023180035024224388,0.0,0.0,0.0,0.0,-0.29817383880496673,-0.6701874477823514,-0.4062055106868626,-0.0017456700314342182,0.004154285791921086,-0.0996746647141235
2319,1.0,299.402,4534.4131,0.0,-0.02319003101164374,0.0,0.0,0.0,0.0,-0.2659001715223037,-0.6940671080565903,-0.4183810683934966,0.0026757985647807574,0.004743346944881896,-0.13084406569330387
2320,1.0,300.30093999999997,4621.5383,0.0,-0.023200026999062873,0.0,0.0,0.0,0.0,-0.3024856232805067,-0.6732054841327084,-0.4291411562404346,0.003309266416624167,0.016898949704046484,-0.095689557137074
2321,1.0,299.43252,4565.1152,0.0,-0.023210022986482115,0.0,0.0,0.0,0.0,-0.3165031176814257,-0.6772004151694774,-0.39397748689005063,0.005184362227056715,0.004388164585303126,-0.1053445934117019
2322,1.0,300.32581,4401.9351,0.0,-0.023220051963959043,0.0,0.0,0.0,0.0,-0.3105585313322407,-0.6552854367066374,-0.37223438604167364,-0.0049146002959582855,0.0008243956624965173,-0.10261313458712791
2323,1.0,299.74376,4347.037,0.0,-0.023230047951378285,0.0,0.0,0.0,0.0,-0.29240259928288975,-0.6507798884144744,-0.3782082147887446,-0.009548461210559751,0.004994875440430826,-0.11310367764246389
2324,1.0,299.70034,4571.639,0.0,-0.02324004393879764,0.0,0.0,0.0,0.0,-0.2998641020917827,-0.6752392898659294,-0.41456070008395557,-0.01017405843960139,-0.0033534782675125364,-0.1102819888964849
2325,1.0,299.43658999999997,4705.784000000001,0.0,-0.023250039926217103,0.0,0.0,0.0,0.0,-0.3046398132581087,-0.6839856748616303,-0.4418153545862806,-0.01116834049772939,-0.007872414835896853,-0.11428103372865989
2326,1.0,299.21733,4515.432,0.0,-0.023260035913636234,0.0,0.0,0.0,0.0,-0.32065243763593165,-0.6655908184386994,-0.3863353317208286,-0.00998109792765767,0.008031134891186302,-0.1090739414647599
2327,1.0,298.80215,4465.7985,0.0,-0.0232700319010557,0.0,0.0,0.0,0.0,-0.3175245852397367,-0.6541912887186534,-0.3857753793180656,0.016079271916400587,0.006061031482477234,-0.1074898870534259
2328,1.0,300.61364,4673.3341,0.0,-0.02328002788847483,0.0,0.0,0.0,0.0,-0.35184027571393167,-0.6717111023552244,-0.3970254850458646,0.004081625221950046,0.007705810580254293,-0.08403143180600663
2329,1.0,300.18616000000003,4648.6542,0.0,-0.023290023875894073,0.0,0.0,0.0,0.0,-0.3144006541214287,-0.6841933911321303,-0.4144807647835666,0.005079758441058125,-2.6411600021621976e-05,-0.11959359519546889
2330,1.0,300.4097,4638.6534,0.0,-0.023300019863313648,0.0,0.0,0.0,0.0,-0.3100648454860177,-0.6734724046065513,-0.42649755633203157,-0.004955209130816066,0.0048988881306326155,-0.10999252360791689
2331,1.0,300.55315,4431.816,0.0,-0.023310048840790243,0.0,0.0,0.0,0.0,-0.24931886052585575,-0.6775217370411895,-0.42032080398743366,0.01086525915431759,0.005933315259047624,-0.14155680436306886
2332,1.0,300.43361,4206.7246,0.0,-0.023320044828209596,0.0,0.0,0.0,0.0,-0.2758187956911957,-0.6503075213503554,-0.3526129295776867,-0.0016133357180238383,-0.0047585177306791356,-0.1100998065285049
2333,1.0,300.35212,4512.1819,0.0,-0.02333004081562895,0.0,0.0,0.0,0.0,-0.30052747693225274,-0.6795961437059174,-0.3914670077797856,-0.0031826926326823067,-0.011406905167523889,-0.13775039863990587
2334,1.0,300.19927,4637.5139,0.0,-0.023340036803048192,0.0,0.0,0.0,0.0,-0.3519407191963447,-0.6819956212677273,-0.3757520864138436,-0.00999073049105833,0.0030420993177068274,-0.1037499201393199
2335,1.0,299.18933,4422.9865,0.0,-0.023350032790467545,0.0,0.0,0.0,0.0,-0.2879348046894527,-0.6763016218007734,-0.3802410376693687,-0.0034261275904074666,0.006581820654300124,-0.13349848711277487
2336,1.0,298.92983,4482.9361,0.0,-0.023360028777886788,0.0,0.0,0.0,0.0,-0.28305478955783275,-0.6720567016993323,-0.40758913409591563,-0.006633510797551544,0.0007426991206511963,-0.10639112877748691
2337,1.0,299.41353,4746.224,0.0,-0.02337002476530614,0.0,0.0,0.0,0.0,-0.30166371532939074,-0.7011020325733833,-0.43996783488394464,0.006434011073437454,-0.006632866370487943,-0.11606769762998989
2338,1.0,299.73655,4775.8994,0.0,-0.023380020752725605,0.0,0.0,0.0,0.0,-0.3604484939259967,-0.6737025339692634,-0.4176031456292216,0.0059871298837837145,0.0007273341758697943,-0.08929070442355641
2339,1.0,299.48409,4574.9601,0.0,-0.0233900497302022,0.0,0.0,0.0,0.0,-0.3102488618366787,-0.6805733626323613,-0.3998513889122596,0.009201900900056912,-1.7038846105603185e-05,-0.10879590563731989
2340,1.0,300.17904,4433.8989,0.0,-0.023400045717621554,0.0,0.0,0.0,0.0,-0.32951851786594566,-0.6472996276334995,-0.37097640564502066,0.007192174042212313,-0.00968997658312623,-0.09209855014666922
2341,1.0,300.87297,4532.4142,0.0,-0.023410041705040907,0.0,0.0,0.0,0.0,-0.2956411999150147,-0.6626849387419114,-0.4194145936279976,-0.007110532428654914,-0.003238770047541717,-0.11540049270414188
2342,1.0,300.53584,4693.4923,0.0,-0.02342003769246015,0.0,0.0,0.0,0.0,-0.3185780107062017,-0.6925818556625073,-0.4155445861960576,0.013678353512948386,0.016207489597304683,-0.12358125109651989
2343,1.0,299.68189,4587.8269,0.0,-0.023430033679879503,0.0,0.0,0.0,0.0,-0.2978944452223927,-0.6779928679401863,-0.41869751653222753,-0.0012660867014280288,0.013787511959471485,-0.11998025143362889
2344,1.0,300.06905,4463.8561,0.0,-0.023440029667298745,0.0,0.0,0.0,0.0,-0.3077478363498467,-0.6657820187325694,-0.3833709165657636,0.010235982206212791,-0.0026642759859685674,-0.09974494779405992
2345,1.0,300.08889,4469.9695,0.0,-0.0234500256547181,0.0,0.0,0.0,0.0,-0.2939790543184737,-0.6784072872310863,-0.38637277131202363,0.00045564095968326156,-0.02170322135094118,-0.1197402428824419
2346,1.0,299.28262,4732.7209,0.0,-0.023460021642137452,0.0,0.0,0.0,0.0,-0.3549226737106407,-0.6818379291546643,-0.4018683746938206,0.00948076657932881,-6.457314001887274e-05,-0.0965643932204136
2347,1.0,299.74358,4763.5882,0.0,-0.02347005061961427,0.0,0.0,0.0,0.0,-0.3165022057563357,-0.6996001628776604,-0.43190948723614764,-0.0008877388202455001,-0.005717707492793795,-0.12144435729812489
2348,1.0,299.6717,4420.7011,0.0,-0.02348004660703351,0.0,0.0,0.0,0.0,-0.26904127722980675,-0.6615278273927133,-0.4132136550035126,0.002006304099006798,-0.008759991222018822,-0.1095045727572599
2349,1.0,299.58162999999996,4314.3314,0.0,-0.023490042594452865,0.0,0.0,0.0,0.0,-0.25901257357005075,-0.6546613253075423,-0.39777510773484664,-0.005958907119473345,-0.002291153425419238,-0.13785265583999787
2350,1.0,299.75862,4589.1418,0.0,-0.023500038581872107,0.0,0.0,0.0,0.0,-0.3228428006421037,-0.6752764964096014,-0.39686521927754764,0.011274290994435889,0.01761123108709318,-0.11539745295384189
2351,1.0,300.05938,4588.0135,0.0,-0.02351003456929146,0.0,0.0,0.0,0.0,-0.3228484545776617,-0.6739157319228043,-0.39787734466993663,-0.0032177855366457074,0.0061501292995455046,-0.12929768392068788
2352,1.0,300.35255,4463.5716,0.0,-0.023520030556710703,0.0,0.0,0.0,0.0,-0.31528556596376267,-0.6630994593578213,-0.37842928569556267,-0.017953257711348584,0.0030773862590643773,-0.1125480112876239
2353,1.0,300.43908,4545.877,0.0,-0.023530026544130056,0.0,0.0,0.0,0.0,-0.26765950806843675,-0.6937141423842553,-0.42045944699861665,-0.006075546695459775,-0.003054414258097217,-0.13672935664663688
2354,1.0,300.10258999999996,4591.7609999999995,0.0,-0.02354002253154941,0.0,0.0,0.0,0.0,-0.31041062721514373,-0.6685730769280254,-0.4167969734521586,-0.0015857626496775885,0.005779155437158234,-0.1252486250635769
2355,1.0,300.21184,4691.9823,0.0,-0.023550051509026226,0.0,0.0,0.0,0.0,-0.3189625695166547,-0.6945708352113044,-0.4127120455415076,0.0008176496662457393,0.003659447880334387,-0.11750675595201387
2356,1.0,300.28688999999997,4597.1407,0.0,-0.02356004749644547,0.0,0.0,0.0,0.0,-0.3390902355981007,-0.6597381237410834,-0.39858763299003663,-0.012529207322786487,-0.015156779641107685,-0.08801249651515711
2357,1.0,300.5426,4452.1451,0.0,-0.023570043483864822,0.0,0.0,0.0,0.0,-0.3054107445966937,-0.6623784609841644,-0.38555172462349263,0.006935355063916253,-0.00953683173386201,-0.08990050670473922
2358,1.0,299.96026,4492.7812,0.0,-0.023580039471283953,0.0,0.0,0.0,0.0,-0.3241161317777717,-0.6593672235419784,-0.38220993460118363,-0.008610752857190143,0.0007229161622537703,-0.10497882025810291
2359,1.0,299.02873999999997,4754.5738,0.0,-0.023590035458703418,0.0,0.0,0.0,0.0,-0.3089216460606927,-0.6789607345682074,-0.45738933286331257,0.013845517487946187,0.011401276563218389,-0.11017941758886189
2360,1.0,299.6633,4772.9042,0.0,-0.02360003144612277,0.0,0.0,0.0,0.0,-0.3228956618998207,-0.6952219294605624,-0.43272612628674356,-0.009731807802904651,0.006585433802831714,-0.13410440054007386
2361,1.0,299.85148,4485.4644,0.0,-0.023610027433542013,0.0,0.0,0.0,0.0,-0.2960275724431467,-0.6736449408335794,-0.3937966420122026,6.056733478203054e-05,0.02001989173455948,-0.13908406881902888
2362,1.0,299.44851,4453.8274,0.0,-0.023620023420961367,0.0,0.0,0.0,0.0,-0.3121199497363407,-0.6701185569080523,-0.37161379062042565,-0.003359769638708447,0.02496174248003218,-0.13248882391812886
2363,1.0,300.13656000000003,4605.7655,0.0,-0.023630052398438184,0.0,0.0,0.0,0.0,-0.3308522387075737,-0.6790206379141193,-0.3901648294137706,-0.002088284948697678,0.008925203373348992,-0.1155323570721559
2364,1.0,300.24236,4608.4828,0.0,-0.023640048385857315,0.0,0.0,0.0,0.0,-0.32021340650010266,-0.6807810383728573,-0.39986925251152267,-0.018851419825240284,-0.01239555558159609,-0.1105956100674369
2365,1.0,300.41902999999996,4526.1148,0.0,-0.02365004437327678,0.0,0.0,0.0,0.0,-0.24830800169609174,-0.6964815310573754,-0.43103633922747464,0.0003257831511072937,-0.013002842976030687,-0.1247013078895609
2366,1.0,300.45301,4581.920999999999,0.0,-0.02366004036069591,0.0,0.0,0.0,0.0,-0.3026958220137517,-0.6896341084715873,-0.40045965307979065,-0.0006308578513083224,0.002048942372489868,-0.11661047544355789
2367,1.0,299.98801000000003,4644.7517,0.0,-0.023670036348115375,0.0,0.0,0.0,0.0,-0.3037248180203057,-0.6843482866749173,-0.4238154427873276,0.0067891088266328736,0.005014267426144665,-0.1092043872826339
2368,1.0,300.11188,4701.0885,0.0,-0.02368003233553473,0.0,0.0,0.0,0.0,-0.35344199107450863,-0.6872502349613173,-0.3883212816518266,0.007100237908963923,-0.010716189799605591,-0.1069194576446289
2369,1.0,300.06091000000004,4737.9435,0.0,-0.02369002832295386,0.0,0.0,0.0,0.0,-0.3371546239320707,-0.6741917108525414,-0.4288701928986926,0.01119447019130819,-0.0035822046841360766,-0.09751057224329422
2370,1.0,299.4891,4650.2818,0.0,-0.023700024310373324,0.0,0.0,0.0,0.0,-0.3236251513093157,-0.6824956905895804,-0.4074487077645566,0.0016755373178126585,-0.008183182491917232,-0.12058902222620989
2371,1.0,299.69338999999997,4531.7884,0.0,-0.023710020297792456,0.0,0.0,0.0,0.0,-0.26290854046955275,-0.6843775493378054,-0.43026441490379164,0.01093346608479909,9.8749694029086e-05,-0.12807559284257689
2372,1.0,299.66963,4541.2418,0.0,-0.023720049275269273,0.0,0.0,0.0,0.0,-0.3239592097347847,-0.6588514691085774,-0.3976134335488906,-0.004857577924055615,-0.005802484710110654,-0.13436573800586588
2373,1.0,300.0816,4668.355,0.0,-0.023730045262688626,0.0,0.0,0.0,0.0,-0.3155123009386397,-0.6863280659128064,-0.4172229944567036,0.0029559490451794576,0.0076952289054849615,-0.12437243730460387
2374,1.0,299.7487,4547.2144,0.0,-0.02374004125010787,0.0,0.0,0.0,0.0,-0.33048466196879667,-0.6822532299731513,-0.36950173158198163,0.0007357315772660533,0.007278908656072353,-0.1177886319973329
2375,1.0,299.71156,4503.2377,0.0,-0.02375003723752722,0.0,0.0,0.0,0.0,-0.3202996847461177,-0.6598170964538774,-0.3887550337546346,-0.0015763461111982485,0.0015357391001906485,-0.08521294525736292
2376,1.0,300.04372,4669.552,0.0,-0.023760033224946686,0.0,0.0,0.0,0.0,-0.2952245717388967,-0.6977549939155563,-0.4264476537646066,0.012714577375581088,-0.013593917355615187,-0.1027640075270179
2377,1.0,299.84262,4676.7613,0.0,-0.023770029212365817,0.0,0.0,0.0,0.0,-0.2766471580454487,-0.6889119144628123,-0.4560595738295755,0.01042156402827829,-0.008324300366469481,-0.1014160099914809
2378,1.0,299.98408,4742.9383,0.0,-0.02378002519978517,0.0,0.0,0.0,0.0,-0.3165047388815857,-0.7102152749002903,-0.4150147881162706,0.02008796694252798,0.012455520735764187,-0.13858575241984886
2379,1.0,300.5689,4783.689,0.0,-0.023790021187204413,0.0,0.0,0.0,0.0,-0.33801865268984366,-0.7055947835167833,-0.41050856094654065,-0.007837589024659813,0.0075039827113854325,-0.12158489508699488
2380,1.0,300.34247999999997,4519.0861,0.0,-0.02380005016468123,0.0,0.0,0.0,0.0,-0.3336080459320507,-0.6783056481135553,-0.36177563877447566,-0.006362756489305175,0.0018082788564382285,-0.14519463566709487
2381,1.0,300.12422000000004,4466.9732,0.0,-0.023810046152100584,0.0,0.0,0.0,0.0,-0.3020025258978287,-0.6683542554364293,-0.3874915412774376,-0.008732598410865362,-0.004429179632125996,-0.1063440734428429
2382,1.0,299.6165,4647.7835,0.0,-0.023820042139519826,0.0,0.0,0.0,0.0,-0.29096707720371473,-0.6949857712597554,-0.4268572702500326,0.016526078733496985,0.008115301321342883,-0.13510612998643687
2383,1.0,299.32847000000004,4595.9316,0.0,-0.0238300381269394,0.0,0.0,0.0,0.0,-0.26511235943705275,-0.6991394076596873,-0.4327966687587056,0.0043750699489607855,-0.015113133893050187,-0.11298008139526589
2384,1.0,300.41015,4429.9458,0.0,-0.023840034114358533,0.0,0.0,0.0,0.0,-0.2972327118470847,-0.6734179221486744,-0.3759422734576136,0.005790061655934594,-0.011585465166396388,-0.13344822990781488
2385,1.0,299.84238999999997,4543.7301,0.0,-0.023850030101777775,0.0,0.0,0.0,0.0,-0.3104385929179037,-0.6789458195267354,-0.39179607088226165,0.0003784454672996597,0.009735583375427272,-0.1143962706625329
2386,1.0,299.72634,4719.7013,0.0,-0.02386002608919713,0.0,0.0,0.0,0.0,-0.3645334522341507,-0.6856458344879753,-0.38449205753641164,-0.006480903477465373,0.014074632587308088,-0.0972929099098126
2387,1.0,300.70572999999996,4805.6993,0.0,-0.02387002207661637,0.0,0.0,0.0,0.0,-0.3303221163877547,-0.6939161540566923,-0.43657432857653156,-0.014490515011352487,0.013793079768770988,-0.09138013860051751
2388,1.0,300.61945,4751.5165,0.0,-0.023880051054093188,0.0,0.0,0.0,0.0,-0.3040147291389177,-0.6941025312800864,-0.4462251000814886,-0.018619362247587982,-0.006058846003336545,-0.1023591026545569
2389,1.0,300.30429,4685.5585,0.0,-0.02389004704151254,0.0,0.0,0.0,0.0,-0.29038769066403375,-0.6828483421543844,-0.45105675278583557,0.004138966463659186,0.014463440968680488,-0.1171883015780849
2390,1.0,299.86877000000004,4633.7062,0.0,-0.023900043028931894,0.0,0.0,0.0,0.0,-0.3207130907869177,-0.6766076841259795,-0.41121019611078663,0.008042644196422182,0.013345512000849486,-0.13572719150273088
2391,1.0,299.79255,4666.1942,0.0,-0.02391003901635136,0.0,0.0,0.0,0.0,-0.33313705688806766,-0.6907403850632683,-0.39452906984698766,0.014141951910701986,0.0013317856352620088,-0.13622625770698488
2392,1.0,300.16899,4645.8009,0.0,-0.02392003500377049,0.0,0.0,0.0,0.0,-0.3695271033644857,-0.6723161849174414,-0.37036416953709766,-0.002829241816199427,-0.014793471725001986,-0.12042701366772088
2393,1.0,299.55098,4426.1096,0.0,-0.023930030991189732,0.0,0.0,0.0,0.0,-0.29156831954805273,-0.6616609380583504,-0.39219754083688363,0.008226698847936963,-0.004158910772002536,-0.10535521227274991
2394,1.0,299.33926,4392.6555,0.0,-0.023940026978609086,0.0,0.0,0.0,0.0,-0.26911154612424176,-0.6683828392217505,-0.39776320204617166,0.005650124927023915,-0.0016512307651387885,-0.12340010224364188
2395,1.0,299.61499,4677.9819,0.0,-0.023950022966028328,0.0,0.0,0.0,0.0,-0.27617489230633974,-0.6887839308426814,-0.4570308753754356,0.00017118974936761286,0.001897931022636208,-0.1027157362922539
2396,1.0,300.53631,4844.5846,0.0,-0.023960051943505034,0.0,0.0,0.0,0.0,-0.33152068993104467,-0.7145014140157994,-0.4266106451756926,-0.005374167680839055,-0.007923892399277292,-0.13429416201880187
2397,1.0,300.34204,4746.4364,0.0,-0.0239700479309245,0.0,0.0,0.0,0.0,-0.32443994624472966,-0.6908429057083864,-0.42751530526247555,-0.009303700313753731,0.0003117062397205107,-0.11108931617866188
2398,1.0,300.15385,4729.499,0.0,-0.023980043918343852,0.0,0.0,0.0,0.0,-0.36032019619833466,-0.6961093338981423,-0.38122006018099064,-0.015477566516766884,0.010905811449819789,-0.11585701253669688
2399,1.0,300.1453,4661.0044,0.0,-0.023990039905763205,0.0,0.0,0.0,0.0,-0.3011646085951327,-0.6905390927984023,-0.4251252610590966,-0.0032588310822965873,0.001132291281373449,-0.10897986119297488
2400,1.0,300.44304,4593.9656,0.0,-0.024000035893182448,0.0,0.0,0.0,0.0,-0.28901302438586474,-0.6836086850294244,-0.4238291317961786,-0.006450609528625594,-0.007391756548859573,-0.12476866875620887
2401,1.0,299.78816,4564.7409,0.0,-0.02401003188060169,0.0,0.0,0.0,0.0,-0.27033134725712676,-0.6913946609178403,-0.4258412337122576,0.016826457738892086,0.015336415711586383,-0.13082095345852288
2402,1.0,299.59889,4548.4686,0.0,-0.024020027868021043,0.0,0.0,0.0,0.0,-0.3058133291264257,-0.6834653101402743,-0.39334223987235667,0.005373261328624605,-0.0002471573346175298,-0.13452484866906886
2403,1.0,299.52752000000004,4631.6785,0.0,-0.024030023855440397,0.0,0.0,0.0,0.0,-0.33142507965160867,-0.6915009305883284,-0.38498860074791663,0.006801869293092233,-0.00911868337861898,-0.13020527230025988
2404,1.0,300.24768,4772.7212,0.0,-0.02404005283291699,0.0,0.0,0.0,0.0,-0.37014455771042365,-0.7031409957496133,-0.3775025164915976,-0.005395714038915515,-0.029090835936041972,-0.1131144687560289
2405,1.0,300.69722,4823.2949,0.0,-0.024050048820336456,0.0,0.0,0.0,0.0,-0.31886416266694273,-0.7037773674749184,-0.44351969191698554,0.005574485300433865,0.007532030082103494,-0.10994464754069189
2406,1.0,300.86322,4703.4465,0.0,-0.02406004480775581,0.0,0.0,0.0,0.0,-0.3069518372037877,-0.6866368741457833,-0.4361415795913226,9.627922613876981e-05,0.012117097228864388,-0.0929343588759071
2407,1.0,300.47607999999997,4686.2883,0.0,-0.024070040795175163,0.0,0.0,0.0,0.0,-0.2893189752535597,-0.6958567509132143,-0.43933889028187256,-0.00901792791650019,0.013410562657269486,-0.1100514035712279
2408,1.0,300.51842,4803.6296,0.0,-0.024080036782594405,0.0,0.0,0.0,0.0,-0.3308360976334807,-0.6993614006240964,-0.4299859433788086,-0.005876442645509734,-0.006364252857052854,-0.1123056418637039
2409,1.0,300.06371,4768.359,0.0,-0.024090032770013536,0.0,0.0,0.0,0.0,-0.33743659116989866,-0.7094437254791444,-0.4025817534267256,-0.004076963562214976,0.012631502013132187,-0.12519100153038987
2410,1.0,299.7823,4514.003,0.0,-0.024100028757433,0.0,0.0,0.0,0.0,-0.3360781774233337,-0.6794155217430913,-0.3566504880461627,0.0064993510127610045,0.006083199064190004,-0.13802021700903486
2411,1.0,299.82125,4465.119000000001,0.0,-0.024110024744852354,0.0,0.0,0.0,0.0,-0.27891019134879275,-0.6853614759799114,-0.3930130349148666,-0.014253878556498288,0.006012041650742313,-0.12744478386032088
2412,1.0,299.81346,4445.4278,0.0,-0.02412005372232895,0.0,0.0,0.0,0.0,-0.27756261937829774,-0.6799861132719043,-0.39375032635013163,-0.0009664093615946781,0.003412808924468017,-0.14183852842087286
2413,1.0,299.86542000000003,4573.2898,0.0,-0.024130049709748524,0.0,0.0,0.0,0.0,-0.27635321419143877,-0.7001770365570933,-0.4136356635376616,-0.004940259841490685,0.01916996640492838,-0.11850114946765289
2414,1.0,300.10582,4806.2984,0.0,-0.024140045697167767,0.0,0.0,0.0,0.0,-0.3251991846771607,-0.7199551313540393,-0.4158403944302516,0.025224476204461978,0.009434003871313691,-0.12394362986228388
2415,1.0,300.30152999999996,4805.8339,0.0,-0.02415004168458712,0.0,0.0,0.0,0.0,-0.34625572752277967,-0.7123814313615733,-0.4022163450431626,-0.0019781070712489683,-0.018693132934368584,-0.1051136433164089
2416,1.0,300.01155,4774.8835,0.0,-0.024160037672006363,0.0,0.0,0.0,0.0,-0.3360811665111287,-0.7117716675838943,-0.4035925109314796,0.008386287866512174,-0.02709483760380227,-0.1109468228170989
2417,1.0,299.71092000000004,4820.9337,0.0,-0.024170033659425494,0.0,0.0,0.0,0.0,-0.2956331648417217,-0.7271364705102823,-0.4426738104685036,-0.006339839913118484,0.0007127088833963904,-0.1160161941274069
2418,1.0,299.89025,4851.7263,0.0,-0.024180029646844847,0.0,0.0,0.0,0.0,-0.3269365843586287,-0.7053587266409863,-0.4425083264621716,0.008720623719858553,0.002358447012260598,-0.10606518648531889
2419,1.0,300.37386000000004,4723.9792,0.0,-0.02419002563426431,0.0,0.0,0.0,0.0,-0.29687840868461773,-0.6961695310865834,-0.44292376913567255,-0.011071727100694389,0.0017944815311515382,-0.12823334575064588
2420,1.0,300.24123,4583.9565,0.0,-0.024200021621683665,0.0,0.0,0.0,0.0,-0.3202814766418207,-0.6870386379429343,-0.3860882101539397,-0.002983236680972537,0.001120658258300359,-0.1134976596788469
2421,1.0,300.28612000000004,4501.1305,0.0,-0.024210050599160482,0.0,0.0,0.0,0.0,-0.3150896033944227,-0.6725041124134884,-0.38063755283100165,0.002136769877907768,0.007237322642818134,-0.1255238643207409
2422,1.0,300.18157,4675.6604,0.0,-0.024220046586579613,0.0,0.0,0.0,0.0,-0.3329720693742847,-0.6905488605293664,-0.39776309058866066,0.0042653253372548355,0.002953640962776667,-0.1011538984026125
2423,1.0,300.19827000000004,4838.9363,0.0,-0.024230042573999078,0.0,0.0,0.0,0.0,-0.31111651802980966,-0.7143251591609043,-0.44547412976987355,0.0008699989590847122,0.004502983148209835,-0.12134146175046989
2424,1.0,299.95113,4878.6182,0.0,-0.02424003856141821,0.0,0.0,0.0,0.0,-0.34670763706737967,-0.7021841735476823,-0.43408630308848256,-0.0034664780464897468,-0.005912397825308234,-0.09176632063763071
2425,1.0,299.96035,4837.9927,0.0,-0.02425003454883745,0.0,0.0,0.0,0.0,-0.2933805882794097,-0.7253362999851193,-0.45191209799025156,0.003452377658098147,0.025739649032305575,-0.1159646095648159
2426,1.0,299.01271,4826.0036,0.0,-0.024260030536257027,0.0,0.0,0.0,0.0,-0.3441980293522007,-0.7089713280175224,-0.4138152317203836,-0.005034521991668635,0.00992255679518011,-0.1115325523024059
2427,1.0,299.81669,4866.8101,0.0,-0.024270026523676158,0.0,0.0,0.0,0.0,-0.34611842200172865,-0.7100542086643944,-0.42321610535317755,-0.013686658110767986,-0.02037401757825898,-0.1187239834296449
2428,1.0,300.02747999999997,4728.9949,0.0,-0.024280022511095622,0.0,0.0,0.0,0.0,-0.3245236711004927,-0.7035011149676543,-0.4094715805291986,-0.013656645642805986,-0.03198290503396697,-0.12089096062350888
2429,1.0,299.90929,4487.3561,0.0,-0.02429005148857244,0.0,0.0,0.0,0.0,-0.26579244277167174,-0.6843924947767803,-0.41385927770223063,0.009191561189411461,-0.007151148964213453,-0.12956109854918488
2430,1.0,299.68457,4462.827,0.0,-0.02430004747599157,0.0,0.0,0.0,0.0,-0.28396545821770874,-0.6801169137273133,-0.3925055992647866,0.009788681834992681,0.007185656716244103,-0.1260492851600959
2431,1.0,300.17384,4703.8212,0.0,-0.024310043463410924,0.0,0.0,0.0,0.0,-0.30209896704234673,-0.7002003717068963,-0.42754485163539163,0.0025766666332971977,0.004231775309218706,-0.13682692249876588
2432,1.0,300.02537,4843.0375,0.0,-0.024320039450830166,0.0,0.0,0.0,0.0,-0.3640405668555066,-0.7059699393663084,-0.4021519631318086,-0.0024411790855756177,0.004309930937132066,-0.1309230181410959
2433,1.0,300.1091,4707.4065,0.0,-0.02433003543824952,0.0,0.0,0.0,0.0,-0.33821442274166463,-0.6983926423359873,-0.3943269872470436,0.0036267271975051066,0.028908802515826674,-0.12173108681142288
2434,1.0,300.15718,4723.948,0.0,-0.024340031425668984,0.0,0.0,0.0,0.0,-0.3073811310061557,-0.7099410286282244,-0.4186400855165596,-0.008744226165037932,0.017293340080219783,-0.11184805811854388
2435,1.0,299.94522,4803.8635,0.0,-0.024350027413088116,0.0,0.0,0.0,0.0,-0.3094716179499707,-0.7095653560211482,-0.4412175775572846,-0.005544271601002004,-0.017377510766026782,-0.10797125177843289
2436,1.0,299.60425,4920.6801,0.0,-0.02436002340050758,0.0,0.0,0.0,0.0,-0.3342494433778517,-0.7099028493644564,-0.45161157814309255,-0.011603445289420889,-0.027830765204432673,-0.10968148622471989
2437,1.0,300.62639,4883.3122,0.0,-0.024370052377984286,0.0,0.0,0.0,0.0,-0.3193774853001037,-0.7173674932486593,-0.4476599838131005,0.02058665824424498,-0.001986697810896808,-0.11449564009983988
2438,1.0,299.69268999999997,4612.5593,0.0,-0.02438004836540353,0.0,0.0,0.0,0.0,-0.3344693085170507,-0.6857658944923244,-0.38186765871740364,0.0032234562921553667,-0.00031839330534547263,-0.12032330751998588
2439,1.0,299.48849,4643.7552,0.0,-0.02439004435282288,0.0,0.0,0.0,0.0,-0.3144671030629867,-0.6963387742507864,-0.4007797387863806,-7.439083941155423e-05,-0.005913816578098255,-0.12252891994016288
2440,1.0,300.26831,4803.6594,0.0,-0.024400040340242124,0.0,0.0,0.0,0.0,-0.33120949042783165,-0.6939451026120493,-0.43503791718489954,-0.017934265351474184,-0.009609085585242911,-0.11983768714455888
2441,1.0,300.35638,4811.4633,0.0,-0.024410036327661477,0.0,0.0,0.0,0.0,-0.3101982601266847,-0.7176475859738023,-0.43471884472840955,0.012438943964128188,0.017701585638260485,-0.12458950587352688
2442,1.0,299.65333,4650.0703,0.0,-0.02442003231508083,0.0,0.0,0.0,0.0,-0.28914409841880073,-0.7055992722147264,-0.4187618984435816,0.00921986734420506,0.013711388505958686,-0.1202614587338819
2443,1.0,300.44366,4729.7715,0.0,-0.024430028302500073,0.0,0.0,0.0,0.0,-0.3130592832415457,-0.7078287872047624,-0.41684437329183655,0.006113432116698774,-0.014505534417584787,-0.13106915920301887
2444,1.0,300.27438,4869.4549,0.0,-0.024440024289919426,0.0,0.0,0.0,0.0,-0.36814137239522465,-0.7065589517819394,-0.4054923852664826,-0.00977746515638568,-0.008852270340426061,-0.12361524563737487
2445,1.0,300.13137,4891.3594,0.0,-0.024450053267396243,0.0,0.0,0.0,0.0,-0.3386764039922587,-0.7200577026616622,-0.4281170339668616,0.0007468349137168673,0.0028731814067859273,-0.1350192235253599
2446,1.0,299.83211,4711.8622,0.0,-0.024460049254815486,0.0,0.0,0.0,0.0,-0.28622298957300973,-0.7173894301133243,-0.4286760339145306,0.006467005637768764,0.008803973166459502,-0.1112398750110209
2447,1.0,300.17779,4516.0658,0.0,-0.02447004524223484,0.0,0.0,0.0,0.0,-0.26509820433315573,-0.6901407740515914,-0.4175322485197246,-0.0022878177047650277,-0.01120151227950319,-0.12001442835950188
2448,1.0,299.48346000000004,4596.8439,0.0,-0.024480041229654192,0.0,0.0,0.0,0.0,-0.28350211921198076,-0.6915128464095043,-0.4223107866538296,0.00966040923593316,-0.007101566583820053,-0.12354564548800588
2449,1.0,299.01771,4712.9375,0.0,-0.024490037217073435,0.0,0.0,0.0,0.0,-0.3275447978636547,-0.6932802889564373,-0.4117902311305316,0.010003867177279819,-0.00088594070661804,-0.13365214649043985
2450,1.0,299.54402000000005,4811.3943,0.0,-0.024500033204492788,0.0,0.0,0.0,0.0,-0.35355369176553264,-0.7141355294046893,-0.3948545055141056,0.002390834437131988,0.009390902745184941,-0.13301065785212987
2451,1.0,299.62417,4695.4259,0.0,-0.02451002919191203,0.0,0.0,0.0,0.0,-0.3115708999046537,-0.7059374039055973,-0.40978392500502464,-0.028529861163928073,-0.018042449051401083,-0.1383265833092709
2452,1.0,299.57322999999997,4674.51,0.0,-0.024520025179331384,0.0,0.0,0.0,0.0,-0.3089050895540587,-0.7014636412690713,-0.4105656069271706,-0.02063761763152428,0.01047164391447079,-0.11870898732816487
2453,1.0,300.10379,4781.9689,0.0,-0.0245300541568082,0.0,0.0,0.0,0.0,-0.3091915454898297,-0.6991110467893883,-0.4452965475573476,-0.0016357805249639684,0.012231224653877886,-0.1038894142805869
2454,1.0,300.04705,4926.2364,0.0,-0.024540050144227443,0.0,0.0,0.0,0.0,-0.3258338845398007,-0.7171067333354243,-0.45451222946936454,0.011154628184126091,0.005808830492836934,-0.10587998463204089
2455,1.0,300.12881,4894.6804,0.0,-0.024550046131646797,0.0,0.0,0.0,0.0,-0.3483276010622577,-0.7208211156845054,-0.4187118945511466,0.013064127381828987,-0.03202036185041367,-0.1106865188664089
2456,1.0,300.31331,4794.3335,0.0,-0.02456004211906615,0.0,0.0,0.0,0.0,-0.3413858448921597,-0.7109149848893463,-0.4050568397109976,0.007241494294804843,-0.01811517811707888,-0.11224768395798389
2457,1.0,300.20461,4711.0698,0.0,-0.024570038106485392,0.0,0.0,0.0,0.0,-0.3041350525882927,-0.7166312049309933,-0.4112813364003076,0.006268136256541884,0.006006332189078835,-0.1348786148089829
2458,1.0,299.45693,4767.2403,0.0,-0.024580034093904746,0.0,0.0,0.0,0.0,-0.3106694315556857,-0.7007505563786953,-0.4377020354078276,-0.016008928041458186,0.01696290807685868,-0.11686888461656088
2459,1.0,299.69914,4856.284000000001,0.0,-0.024590030081323988,0.0,0.0,0.0,0.0,-0.3114603036562387,-0.7200213573805754,-0.44470740341920356,-0.014969445909619286,-0.005789276387107094,-0.1316675036520709
2460,1.0,299.39079,4657.2251,0.0,-0.02460002606874334,0.0,0.0,0.0,0.0,-0.29582783045093375,-0.7016648322089273,-0.4181874666968896,-0.018958005629759484,-0.00011468709370623489,-0.12262683029732589
2461,1.0,300.1546,4522.9585,0.0,-0.024610022056162584,0.0,0.0,0.0,0.0,-0.3302427586399227,-0.6792766558168863,-0.3653470211369436,-0.001993515970819708,0.005825323164714635,-0.13750566834325287
2462,1.0,299.54477,4742.3795,0.0,-0.02462005103363929,0.0,0.0,0.0,0.0,-0.3298713416832667,-0.7041165428133923,-0.4075770662872246,-8.331498697829901e-05,0.004109298906031226,-0.12498630474518789
2463,1.0,300.27069,5001.0372,0.0,-0.024630047021058754,0.0,0.0,0.0,0.0,-0.34938181686380065,-0.7375826534762403,-0.43322595242857254,0.004324818924826395,-0.013801530274604986,-0.13277478336135087
2464,1.0,300.17405,5008.1998,0.0,-0.024640043008478107,0.0,0.0,0.0,0.0,-0.33581472226483267,-0.7267097300981663,-0.45984322195549254,0.003127600299570117,0.008572349867800061,-0.1068718450224299
2465,1.0,300.01809,4912.9101,0.0,-0.02465003899589735,0.0,0.0,0.0,0.0,-0.3154616384336397,-0.7297825630139313,-0.44815779358723057,0.01976884078378268,0.013136020516174289,-0.12050209550013087
2466,1.0,299.8535,4807.7711,0.0,-0.024660034983316703,0.0,0.0,0.0,0.0,-0.3183103708247877,-0.7092950918219754,-0.4338369017088686,0.01069670601343269,0.008740512096796382,-0.10522549599494789
2467,1.0,300.57318,4887.077,0.0,-0.024670030970735835,0.0,0.0,0.0,0.0,-0.3522054105199677,-0.7205941172646023,-0.41274986003523967,-0.002872443456738097,-0.02107012242345918,-0.12060050234984289
2468,1.0,299.32767,4908.3365,0.0,-0.0246800269581553,0.0,0.0,0.0,0.0,-0.3348657932811807,-0.7215346970674302,-0.4356112444889826,-0.01735791856209318,-0.014238088066939887,-0.12344481697055487
2469,1.0,299.43359,4704.3325,0.0,-0.024690022945574652,0.0,0.0,0.0,0.0,-0.31947433174466167,-0.6971623641970683,-0.4133629270082446,-0.005669176764679184,0.001003283650426387,-0.13266090418261187
2470,1.0,300.31618,4586.1456,0.0,-0.024700051923051247,0.0,0.0,0.0,0.0,-0.29159039826773175,-0.6849947098412144,-0.4174886382354206,-0.02072615947826268,0.01152053812648859,-0.1264019063273969
2471,1.0,299.55132000000003,4776.7213,0.0,-0.024710047910470823,0.0,0.0,0.0,0.0,-0.3102903645607747,-0.7034175623644083,-0.4382960634114536,-0.004258311924037666,-0.0007162556336489273,-0.13109633457070086
2472,1.0,299.18146,5064.2362,0.0,-0.024720043897890065,0.0,0.0,0.0,0.0,-0.36482507574543166,-0.7228693804966533,-0.4517069047125006,-0.007672505860067373,0.0011990754060645288,-0.1149393220536279
2473,1.0,300.42491,5081.0661,0.0,-0.024730039885309196,0.0,0.0,0.0,0.0,-0.37827964892079463,-0.7303800056703943,-0.43585756558829264,0.02269085040891258,0.006975221591750774,-0.12337790193395087
2474,1.0,300.36331,4795.5083,0.0,-0.02474003587272866,0.0,0.0,0.0,0.0,-0.3338212236205897,-0.7052435505021193,-0.4186500052350386,0.015517832062490786,-0.002286918546626288,-0.12226091528871288
2475,1.0,300.35173,4672.5176,0.0,-0.024750031860147792,0.0,0.0,0.0,0.0,-0.3020653879340327,-0.7086784987386223,-0.4095847808303706,0.007956225209968294,-0.016835966077830486,-0.11217214616302888
2476,1.0,300.74417,4719.3686,0.0,-0.024760027847567145,0.0,0.0,0.0,0.0,-0.2859531813363817,-0.7052857523687843,-0.44333127806089057,0.005353413785665805,-0.008079471581906764,-0.1004442504565757
2477,1.0,299.51622000000003,4786.5875,0.0,-0.02477002383498661,0.0,0.0,0.0,0.0,-0.2898923329551457,-0.7173108930980733,-0.4477998427244036,0.001208958444889909,0.008563153001942402,-0.13177108820979386
2478,1.0,299.96831000000003,4755.6558,0.0,-0.024780052812463427,0.0,0.0,0.0,0.0,-0.32658044721348073,-0.7009433880052264,-0.4180767691234646,0.014442431227856985,0.007646817335582112,-0.12152923725900189
2479,1.0,300.21778,4541.7197,0.0,-0.02479004879988278,0.0,0.0,0.0,0.0,-0.3024098828355317,-0.6917852890963924,-0.38637419999466466,-0.003913637069320906,-0.010702762209280388,-0.14038405856482786
2480,1.0,299.80474,4631.5446,0.0,-0.02480004478730191,0.0,0.0,0.0,0.0,-0.31111655855981374,-0.7051431475497103,-0.3916141924893116,0.003994702954171487,-0.016316525440565683,-0.14399285012098786
2481,1.0,299.84644,5000.6509,0.0,-0.024810040774721154,0.0,0.0,0.0,0.0,-0.3496849002337126,-0.7274542358741433,-0.44293389150417156,0.0005288864384070275,-0.004596444628158765,-0.14736332525362786
2482,1.0,299.92669,5001.4706,0.0,-0.024820036762140507,0.0,0.0,0.0,0.0,-0.3288277954052767,-0.7257732944882473,-0.46572108578559257,0.017385350282050484,0.004662080639161535,-0.1181191440474519
2483,1.0,299.77412000000004,4716.4349,0.0,-0.02483003274955975,0.0,0.0,0.0,0.0,-0.3035519879507487,-0.7042935778708643,-0.4258328743989326,-0.00933146691286908,-0.0042604542387240955,-0.11509886841437389
2484,1.0,300.32246000000004,4819.8806,0.0,-0.024840028736979325,0.0,0.0,0.0,0.0,-0.33604244009230666,-0.7097197246738833,-0.4193611953477276,0.0013208873198364286,0.0013897391840065787,-0.08962319737762092
2485,1.0,299.82855,4991.0238,0.0,-0.024850024724398567,0.0,0.0,0.0,0.0,-0.35057198043126064,-0.7461283946871393,-0.42044623421731264,0.005050158973836885,0.015374420696337186,-0.1178897138273089
2486,1.0,300.43146,4978.6526,0.0,-0.024860053701875273,0.0,0.0,0.0,0.0,-0.34317080653332166,-0.7227992635897333,-0.44741601345402254,0.003475368910817207,0.015533129099250484,-0.1045222396305419
2487,1.0,300.19315,4807.3471,0.0,-0.024870049689294738,0.0,0.0,0.0,0.0,-0.3199586146299567,-0.7142657320425393,-0.42708915253541757,-0.0043397267722226854,-0.007011667184597674,-0.1230668240207499
2488,1.0,299.82299,4567.1039,0.0,-0.02488004567671387,0.0,0.0,0.0,0.0,-0.24747326599870978,-0.7055265613875503,-0.4352857074968545,-0.009158777583750971,-0.013819909618168886,-0.11920161939428389
2489,1.0,300.12149,4633.2097,0.0,-0.02489004166413311,0.0,0.0,0.0,0.0,-0.2943207627821977,-0.6972843899066113,-0.4167749149974816,-0.004894681420192446,-0.005144420110764735,-0.13209407181166988
2490,1.0,300.31152000000003,4888.7599,0.0,-0.024900037651552465,0.0,0.0,0.0,0.0,-0.3350614924054947,-0.7308790009471413,-0.4201204337801586,0.0016766346676709584,0.016724304903560385,-0.13547639183797888
2491,1.0,299.5622,4904.6627,0.0,-0.024910033638971818,0.0,0.0,0.0,0.0,-0.36388201347985866,-0.7245379804963313,-0.40247499739618964,-0.008553530672367752,-0.002029566801427648,-0.13166317707414385
2492,1.0,299.52873,4757.1875,0.0,-0.024920029626391282,0.0,0.0,0.0,0.0,-0.3291272513398307,-0.7108617487290924,-0.4060771926941986,-0.004753592017968006,-0.007524463333006713,-0.13129891366319388
2493,1.0,299.98365,4803.2389,0.0,-0.024930025613810414,0.0,0.0,0.0,0.0,-0.31851189613717673,-0.7329040420669973,-0.4086487505204916,-0.003952370884868636,-0.0068400970915400245,-0.13813058020992686
2494,1.0,299.94147999999996,5034.2733,0.0,-0.02494005459128723,0.0,0.0,0.0,0.0,-0.3166573546116477,-0.7471649090094352,-0.4664711137746146,0.006942918671937723,0.007020183653013183,-0.12007759437073588
2495,1.0,299.46752000000004,5000.4005,0.0,-0.024950050578706584,0.0,0.0,0.0,0.0,-0.3456218179952177,-0.7283787759278882,-0.44599627781140555,0.003965212107360966,0.008579855619240821,-0.1162815237985929
2496,1.0,300.01274,4833.478,0.0,-0.024960046566125826,0.0,0.0,0.0,0.0,-0.31524375926463666,-0.7339345579487013,-0.42007831297350157,-0.0009154494271603242,0.011956654141779889,-0.12093295984015388
2497,1.0,299.97172,4717.7826,0.0,-0.02497004255354507,0.0,0.0,0.0,0.0,-0.3155200928319087,-0.7154514373095593,-0.4031165772270086,-0.00030056041769300373,0.02014098626726058,-0.13059820055653887
2498,1.0,300.29402000000005,4791.6413,0.0,-0.024980038540964422,0.0,0.0,0.0,0.0,-0.3279602000071517,-0.7150470897246534,-0.4135320181849326,-0.004380116846383876,0.008031431570815583,-0.12777697790560588
2499,1.0,300.46637999999996,4911.7599,0.0,-0.024990034528383775,0.0,0.0,0.0,0.0,-0.3295165420282507,-0.7146334101063263,-0.4489024108207186,-0.006460096994611933,-0.0027055772759446875,-0.1322596672755129
2500,1.0,299.89245,4952.5485,0.0,-0.02500003051580324,0.0,0.0,0.0,0.0,-0.3245165986147947,-0.7216180672856582,-0.45931642309600157,-0.010370867072774891,-0.023981405783030478,-0.11994132236478687
2501,1.0,299.90931,4866.679,0.0,-0.02501002650322237,0.0,0.0,0.0,0.0,-0.3356785515838937,-0.7289549403322513,-0.4147154031092236,-0.008429498930276773,-0.011054563657250488,-0.1271842265971059
2502,1.0,300.32493999999997,4813.4603,0.0,-0.025020022490641614,0.0,0.0,0.0,0.0,-0.3324434263996117,-0.7091679593319283,-0.42156036349726855,-0.0016951094593942782,-0.005890116151634203,-0.12001553280211089
2503,1.0,299.57788999999997,5014.3068,0.0,-0.02503005146811854,0.0,0.0,0.0,0.0,-0.36623277397686066,-0.7401191427165723,-0.41787215339827066,0.0011864461554931187,0.007269854658478794,-0.1142541826010099
2504,1.0,299.88754,5109.2485,0.0,-0.025040047455537784,0.0,0.0,0.0,0.0,-0.3684426015174536,-0.7386445395810403,-0.44599681483395864,-0.00047571517682193246,0.0019971860640069184,-0.11736255019778188
2505,1.0,299.98377,4935.8489,0.0,-0.025050043442956915,0.0,0.0,0.0,0.0,-0.3071896368697567,-0.7357524907481173,-0.45743266957008955,-0.001082299345289629,-0.0021899609485323177,-0.12268039069761187
2506,1.0,299.52243,4774.3688,0.0,-0.02506003943037638,0.0,0.0,0.0,0.0,-0.28345401009723276,-0.7303392628838733,-0.43749561609745563,0.0062639763582563335,0.007584327466139842,-0.14315052518035684
2507,1.0,299.71536000000003,4862.9765,0.0,-0.025070035417795733,0.0,0.0,0.0,0.0,-0.33388901005227967,-0.7025256489638834,-0.4418087583281296,-0.0028812858877107776,-0.01186113404160279,-0.1083307630464139
2508,1.0,300.40117999999995,4940.7367,0.0,-0.025080031405215086,0.0,0.0,0.0,0.0,-0.33671710253889064,-0.7456127314462473,-0.4195307323544596,0.0061761653688150635,-0.016415836109366883,-0.14254637480823187
2509,1.0,301.10792999999995,4810.3442,0.0,-0.02509002739263433,0.0,0.0,0.0,0.0,-0.3407942182912707,-0.7181080777467493,-0.40332222646730465,-0.009249075291587661,-0.0026249912663414672,-0.1230415738282579
2510,1.0,300.47603,4760.3902,0.0,-0.02510002338005357,0.0,0.0,0.0,0.0,-0.3167575954440407,-0.7158062268320744,-0.41447593158058965,0.011975483368388188,0.004744415113137316,-0.13653987887793687
2511,1.0,300.16244,4823.1315,0.0,-0.0251100523575305,0.0,0.0,0.0,0.0,-0.3030102740497857,-0.7217827406919103,-0.44131852766474755,-0.005485296594831625,0.008137432223402033,-0.11967089604559789
2512,1.0,299.81118,4950.9618,0.0,-0.02512004834494974,0.0,0.0,0.0,0.0,-0.3271215835618867,-0.7379617610011553,-0.43988541712081064,0.00857872949307968,-0.006549986463983333,-0.13959448342440287
2513,1.0,300.0775,5060.0998,0.0,-0.025130044332368873,0.0,0.0,0.0,0.0,-0.35827727121421366,-0.7357446583248443,-0.4441220488364336,-0.0011639806782509487,-0.0100567363383476,-0.12146114685228189
2514,1.0,299.77525,4927.8944,0.0,-0.025140040319788448,0.0,0.0,0.0,0.0,-0.34635533000760965,-0.7301602823862093,-0.4214412458155126,0.006643029167665934,-0.01774768547806018,-0.13421773256375888
2515,1.0,299.69375,4751.3601,0.0,-0.02515003630720769,0.0,0.0,0.0,0.0,-0.34001230332160165,-0.7019831143303394,-0.40229941128636065,-0.005835845564353115,-0.004845594012472896,-0.1017301479199839
2516,1.0,299.77289,4872.1366,0.0,-0.025160032294627044,0.0,0.0,0.0,0.0,-0.32068405103905173,-0.7173434893537903,-0.4429803388887556,0.007746837380778322,0.003984212167936127,-0.11442709373057489
2517,1.0,300.06624,5084.0539,0.0,-0.025170028282046286,0.0,0.0,0.0,0.0,-0.3363977565048737,-0.7407905424978343,-0.4682371377714076,-0.007298728638628433,0.02111746552113158,-0.0969108467343559
2518,1.0,299.66777,4900.7817,0.0,-0.025180024269465417,0.0,0.0,0.0,0.0,-0.3129853767792517,-0.7285614750534193,-0.44816842258077955,0.005860688531629924,0.0071510821910318635,-0.1276239872730069
2519,1.0,299.31433,4863.4987,0.0,-0.025190053246942457,0.0,0.0,0.0,0.0,-0.33015913510916967,-0.7333821846566864,-0.4148408333391026,-0.012907167848588289,-0.005191635640249544,-0.1145087211586309
2520,1.0,299.51046,4997.6743,0.0,-0.025200049234361588,0.0,0.0,0.0,0.0,-0.34698403142965767,-0.7333927629877304,-0.4387914109878406,-0.004960210431984655,-0.017994641885182884,-0.12774574953752388
2521,1.0,299.39583,5016.6946,0.0,-0.025210045221781052,0.0,0.0,0.0,0.0,-0.36846894602005364,-0.7394277515108373,-0.4170532041374466,-0.01106045469333189,-0.007081668175706234,-0.11684523535922689
2522,1.0,299.90282,4908.7631,0.0,-0.025220041209200406,0.0,0.0,0.0,0.0,-0.3126874407198477,-0.7397256673052394,-0.4397283126928056,-0.00947936880081586,0.0027952359269433073,-0.1411300943484559
2523,1.0,299.66208,4861.3353,0.0,-0.025230037196619648,0.0,0.0,0.0,0.0,-0.3132257602329757,-0.7241212104651994,-0.44037757295938257,-0.0031997628571170072,0.0035417310168416364,-0.10166494527604891
2524,1.0,299.55677000000003,4782.3324,0.0,-0.025240033184039,0.0,0.0,0.0,0.0,-0.29533610017740375,-0.7337503490805213,-0.42462320576704765,-0.007353466232880613,-0.0027115156308057573,-0.14432023122829787
2525,1.0,300.38492,4892.2431,0.0,-0.025250029171458133,0.0,0.0,0.0,0.0,-0.33367196174835867,-0.7343422289939353,-0.4191055523474976,0.01061499448561839,-0.00017167885532338382,-0.1219911374495879
2526,1.0,300.3487,4997.5824,0.0,-0.025260025158877375,0.0,0.0,0.0,0.0,-0.34457139174904866,-0.7580752922437063,-0.4164935861072166,0.01960296262316178,-0.0039846027758496765,-0.14420960458237986
2527,1.0,300.09406,4911.2633,0.0,-0.025270054136354414,0.0,0.0,0.0,0.0,-0.35193720321849764,-0.7324455261317453,-0.40851868973765565,0.010628959098496591,-0.0038212681769548063,-0.11245281644072888
2528,1.0,300.0994,4841.691,0.0,-0.025280050123773545,0.0,0.0,0.0,0.0,-0.29568696842203174,-0.7444435624208592,-0.4316226361328376,0.005782925031505265,-0.014330402243800586,-0.13259556981616388
2529,1.0,299.81653,4966.0598,0.0,-0.0252900461111929,0.0,0.0,0.0,0.0,-0.3272588586854347,-0.7416090965911192,-0.44069021127773755,0.001076247607742369,0.007428430122978973,-0.11857542069998288
2530,1.0,299.59347,5097.6643,0.0,-0.025300042098612363,0.0,0.0,0.0,0.0,-0.33748962468013266,-0.7534145849637303,-0.45865844887856455,-0.011097627799750591,0.0033532167476617264,-0.14407303873390187
2531,1.0,299.86646,4886.2094,0.0,-0.025310038086031494,0.0,0.0,0.0,0.0,-0.34071984573393066,-0.7283586730459043,-0.4162071200389446,-0.017555849876377483,-0.016176406123986985,-0.13275107330901087
2532,1.0,299.65301,4742.3095,0.0,-0.02532003407345096,0.0,0.0,0.0,0.0,-0.3265107660041037,-0.7301396830116763,-0.38489321338350263,-0.01144661139919259,-0.019828479671418583,-0.13805839627280286
2533,1.0,299.74642,4894.8396,0.0,-0.02533003006087009,0.0,0.0,0.0,0.0,-0.35594202357624266,-0.7188924853116644,-0.41307449523477857,-0.0011656686515925387,-0.000951314772204958,-0.12215861755861687
2534,1.0,299.87505,4942.6957,0.0,-0.025340026048289555,0.0,0.0,0.0,0.0,-0.3199409638132147,-0.7383079784278244,-0.44420714157983154,0.017897548207600485,0.013898619899186986,-0.13350878173379088
2535,1.0,300.55279,4947.1203,0.0,-0.02535005502576626,0.0,0.0,0.0,0.0,-0.3206138328071217,-0.7324456983842623,-0.45074151041472355,-0.0035907044339249365,0.022299944599833182,-0.10905027194242391
2536,1.0,300.94192000000004,4999.2608,0.0,-0.025360051013185503,0.0,0.0,0.0,0.0,-0.3249780327103347,-0.7366858764752353,-0.4579865627372545,-0.007498226640217352,0.003129459208203577,-0.12289743900153288
2537,1.0,300.25051,4922.6471,0.0,-0.025370047000604856,0.0,0.0,0.0,0.0,-0.33809363319724367,-0.7341407340790492,-0.4241274326256186,0.005836669539334434,0.008335917481516002,-0.12185170410332688
2538,1.0,300.04545,4951.5177,0.0,-0.02538004298802432,0.0,0.0,0.0,0.0,-0.35714745682270965,-0.7266818657204163,-0.42130840872740266,-0.0012038875334394487,-0.005444860924415935,-0.12327361823365889
2539,1.0,299.70415,5131.6271,0.0,-0.025390038975443452,0.0,0.0,0.0,0.0,-0.38368122440888863,-0.7303089464408813,-0.44589632068904056,0.015455074391047088,-0.017354255662981682,-0.1113307331474879
2540,1.0,299.66739,4960.6714,0.0,-0.025400034962862805,0.0,0.0,0.0,0.0,-0.3027128142179287,-0.7497646757185124,-0.4554427476986996,-0.017592195157464484,-0.020257494830009083,-0.13169095025938488
2541,1.0,299.70687999999996,4811.1557,0.0,-0.025410030950282048,0.0,0.0,0.0,0.0,-0.2982782643602727,-0.7171212025468523,-0.4470717110700425,0.0051135067621388254,0.0077833728489090925,-0.11967640812614189
2542,1.0,299.82696,5036.8407,0.0,-0.0254200269377014,0.0,0.0,0.0,0.0,-0.3137095668907237,-0.7573142400935963,-0.46005000603590057,-0.005412845159681225,0.00930038343955138,-0.12787861702313688
2543,1.0,299.86332999999996,5093.1274,0.0,-0.025430055915178218,0.0,0.0,0.0,0.0,-0.35526051155898264,-0.7550605084261703,-0.4378625544886696,-0.000926454812723971,0.006326975487198864,-0.1168937092440109
2544,1.0,300.42067000000003,4948.0193,0.0,-0.02544005190259757,0.0,0.0,0.0,0.0,-0.34911365009233464,-0.7271056271772383,-0.42785503788850454,-0.003377084056417247,-0.004977685247184285,-0.12015976895384589
2545,1.0,301.02026,4992.0682,0.0,-0.025450047890016814,0.0,0.0,0.0,0.0,-0.35815957208259763,-0.7299791639308343,-0.42932534484361257,0.015717822300978283,0.014229659852608087,-0.11846955632953489
2546,1.0,300.33492,4994.9355,0.0,-0.025460043877436167,0.0,0.0,0.0,0.0,-0.3070746127184047,-0.7336118479243523,-0.47764921795030757,0.020778028764131783,0.013017734712750386,-0.12688189303226788
2547,1.0,300.4007,4892.6517,0.0,-0.02547003986485541,0.0,0.0,0.0,0.0,-0.3224992784607007,-0.7182527799935303,-0.44649187870031753,-0.005222325465903395,0.005952789014044535,-0.13033923409598086
2548,1.0,300.32709,5037.9286,0.0,-0.025480035852274763,0.0,0.0,0.0,0.0,-0.3138204367166657,-0.7606581275436123,-0.4569259229300776,-0.006386495621923044,0.0025297762557694777,-0.14252708252632787
2549,1.0,299.86339,5033.6878,0.0,-0.025490031839694005,0.0,0.0,0.0,0.0,-0.37304684036935665,-0.7364372755632003,-0.4206312739505746,0.005162856196334235,0.015924228439098985,-0.12518367573216688
2550,1.0,300.18233,4899.6186,0.0,-0.02550002782711336,0.0,0.0,0.0,0.0,-0.3464658350635157,-0.7298810407911503,-0.4130148350688906,0.01333678386448809,0.00905965477151831,-0.12745135985346986
2551,1.0,299.76373,4996.3108,0.0,-0.025510023814532712,0.0,0.0,0.0,0.0,-0.35011862193901766,-0.7300251148228692,-0.43860997842493454,0.008353512873477532,-0.02000001784709808,-0.1130430852864839
2552,1.0,299.59443,5121.1599,0.0,-0.02552005279200953,0.0,0.0,0.0,0.0,-0.3311950718789087,-0.7381932582515023,-0.48731639397438353,-0.01002188823560836,-0.021075813849270878,-0.1142550337310939
2553,1.0,299.49714,5111.9903,0.0,-0.02553004877942877,0.0,0.0,0.0,0.0,-0.3355274962589857,-0.7547488529604123,-0.46364106571531055,-0.0072192803062374935,-0.002416482735588278,-0.1134391242205699
2554,1.0,299.32446,4965.0236,0.0,-0.025540044766848125,0.0,0.0,0.0,0.0,-0.3176716179617477,-0.7281779396255673,-0.46339363004089057,-0.0065835797577987335,0.00011942856715168188,-0.1183301432482759
2555,1.0,299.88748,4950.0462,0.0,-0.025550040754267367,0.0,0.0,0.0,0.0,-0.35403274628031167,-0.7344710130816453,-0.4161867030494296,-0.0063807354977545635,0.010492116632741291,-0.12477541700187487
2556,1.0,300.99703999999997,4881.2022,0.0,-0.02556003674168672,0.0,0.0,0.0,0.0,-0.3277421688506337,-0.7388671607605113,-0.41715426570242065,-0.003812521092816536,0.004092311261479676,-0.13667488432126088
2557,1.0,300.66138,4889.2814,0.0,-0.025570032729106074,0.0,0.0,0.0,0.0,-0.3324241645152107,-0.7315571895040733,-0.42223810622415653,0.023806638379282277,0.01268800489170859,-0.13671782586049885
2558,1.0,301.04441,5086.0899,0.0,-0.025580028716525316,0.0,0.0,0.0,0.0,-0.3292200143864857,-0.7622083900641112,-0.45461591535209755,-0.0024791354343216177,0.0032410632351680367,-0.14263533816701185
2559,1.0,300.81052,4952.0012,0.0,-0.02559002470394467,0.0,0.0,0.0,0.0,-0.3273568703676077,-0.7411860038793633,-0.4367418289505626,0.007064914490602774,-0.026018236067799974,-0.13523732560938487
2560,1.0,300.25447,4874.9169,0.0,-0.025600053681421486,0.0,0.0,0.0,0.0,-0.2991315222694827,-0.7486213952331793,-0.4341001035548445,-0.02261586382201198,-0.014078577169947386,-0.14555885854804088
2561,1.0,300.45392999999996,5149.7016,0.0,-0.02561004966884073,0.0,0.0,0.0,0.0,-0.37440784803617766,-0.7613833106401823,-0.42958955993968856,-0.012684135289576688,0.015612521297585884,-0.12992726687032288
2562,1.0,299.73974,5151.3723,0.0,-0.025620045656260082,0.0,0.0,0.0,0.0,-0.3575596469633897,-0.7412591301390803,-0.4670697723311976,-0.01112786926223519,0.009318246532189331,-0.11510071252955589
2563,1.0,299.30445,4864.191,0.0,-0.025630041643679213,0.0,0.0,0.0,0.0,-0.3172082890885207,-0.7318514069356102,-0.4295328989940966,-0.009741833709994131,-0.007413302906936033,-0.1262840653407669
2564,1.0,300.12706000000003,4799.2847,0.0,-0.025640037631098678,0.0,0.0,0.0,0.0,-0.2855592702275057,-0.7224839908211182,-0.45081945974491655,0.0057840840882946555,-0.014765988329289586,-0.12980003305526586
2565,1.0,299.56909,4901.4216,0.0,-0.02565003361851803,0.0,0.0,0.0,0.0,-0.3171460451348777,-0.7333507232410813,-0.4394130095266876,0.026365608599582976,-0.006505451791613104,-0.12902848363411987
2566,1.0,299.75607,5068.3788,0.0,-0.025660029605937273,0.0,0.0,0.0,0.0,-0.3361443325223627,-0.7628081834608064,-0.4417080817981936,0.008578482766680332,-0.007172190926390133,-0.12826365206113688
2567,1.0,299.60645,5145.231,0.0,-0.025670025593356627,0.0,0.0,0.0,0.0,-0.3956236839300176,-0.7377092185462313,-0.4306888552381806,0.007891398785795423,-0.005731609588140824,-0.12646773718639387
2568,1.0,300.11191,5050.8128,0.0,-0.025680054570833444,0.0,0.0,0.0,0.0,-0.34336765063024866,-0.7402591232178873,-0.45169420868874754,-0.01355013887179459,0.015711531031107385,-0.12220222784292087
2569,1.0,300.52195,4984.856,0.0,-0.025690050558252575,0.0,0.0,0.0,0.0,-0.3390062878273157,-0.7476985574396022,-0.42856689674625964,0.010401016329500391,0.027732869032771074,-0.13339819561787689
2570,1.0,300.74913,5172.7073,0.0,-0.02570004654567204,0.0,0.0,0.0,0.0,-0.3413382626674637,-0.7486591185344023,-0.48237647549685153,-0.017524091578493182,0.01057062021073899,-0.11968606439959488
2571,1.0,299.7228,5249.1199,0.0,-0.02571004253309117,0.0,0.0,0.0,0.0,-0.37102359270217766,-0.7763318906904922,-0.44824588555092454,-0.012869149691586187,-0.020834624861717378,-0.12379702270531488
2572,1.0,300.25577999999996,4980.4793,0.0,-0.025720038520510635,0.0,0.0,0.0,0.0,-0.33792794654089164,-0.7330169282606384,-0.4429964799628485,-0.01920078238021968,-0.02019126677697288,-0.1132165334386019
2573,1.0,299.89811000000003,4718.7945,0.0,-0.02573003450792999,0.0,0.0,0.0,0.0,-0.32840514852356467,-0.7194638165130502,-0.38652673466471865,-0.006950243963535674,0.007736642058272123,-0.13466485956788687
2574,1.0,299.93126,4952.2515,0.0,-0.02574003049534912,0.0,0.0,0.0,0.0,-0.3058144538340367,-0.7504609710547313,-0.4490853835237766,0.0012315459174441186,0.008261705220341822,-0.12320794949467788
2575,1.0,299.76681,5168.3916,0.0,-0.025750026482768584,0.0,0.0,0.0,0.0,-0.34709774848838065,-0.7506050754839533,-0.4733591778219135,0.005755231791697155,-0.001888344663440108,-0.13604785476187786
2576,1.0,299.33685,5095.5872,0.0,-0.0257600554602454,0.0,0.0,0.0,0.0,-0.3027175866258997,-0.7735465776231033,-0.47266709760611053,-0.005818824685198285,0.010890173961026489,-0.15099235141428485
2577,1.0,299.11444,4974.4158,0.0,-0.025770051447664533,0.0,0.0,0.0,0.0,-0.31732344496238574,-0.7662541558583973,-0.42852059121668956,0.015409961456844787,0.006957347353361724,-0.15646909992729785
2578,1.0,299.78704,4972.1899,0.0,-0.025780047435083886,0.0,0.0,0.0,0.0,-0.3314827639798017,-0.7447521578713152,-0.4351866420345776,-0.0015772319957606785,0.001018752655993059,-0.12431895796432589
2579,1.0,299.23877000000005,5002.6722,0.0,-0.02579004342250313,0.0,0.0,0.0,0.0,-0.36278080313867767,-0.7560280102841553,-0.40187861865233165,-0.01104609896591509,-0.023706668084665976,-0.14690529567842386
2580,1.0,299.80208,5009.292,0.0,-0.025800039409922704,0.0,0.0,0.0,0.0,-0.3249019477603257,-0.7367402677406033,-0.46105748061033053,-0.00949008017159799,-0.014782107111880384,-0.10902940912286489
2581,1.0,300.19768999999997,4931.3996,0.0,-0.025810035397341946,0.0,0.0,0.0,0.0,-0.3370921570634057,-0.7341174698567533,-0.4278126941668256,0.00017070752338002086,0.01153992058765149,-0.12499101635815288
2582,1.0,299.11088,4860.4052,0.0,-0.025820031384761077,0.0,0.0,0.0,0.0,-0.2964666745064827,-0.7280618616941112,-0.4529132802815606,-0.0011727557280919788,0.005314173041093046,-0.1179623841244809
2583,1.0,300.21755,5125.383,0.0,-0.025830027372180542,0.0,0.0,0.0,0.0,-0.3698930893006056,-0.7421653607635182,-0.4459300112548656,0.004670912532333175,-0.011749019944537989,-0.13123796666967888
2584,1.0,300.66254,5357.5168,0.0,-0.025840056349657248,0.0,0.0,0.0,0.0,-0.38787908917568564,-0.7680645906070733,-0.47260764009024253,0.002308671506398138,-0.0023248756046473575,-0.12190767603885089
2585,1.0,300.32146,5240.56,0.0,-0.02585005233707649,0.0,0.0,0.0,0.0,-0.3772079950850306,-0.7583459718754202,-0.45744542638884855,0.014775561516234383,-0.003654652066286077,-0.11804009027464987
2586,1.0,300.15994,5024.0684,0.0,-0.025860048324495843,0.0,0.0,0.0,0.0,-0.3096736802849127,-0.7503368175199783,-0.46718082454215754,0.006906331224076822,-0.001056595419402849,-0.11855352436532189
2587,1.0,299.70194,5000.2693,0.0,-0.025870044311915308,0.0,0.0,0.0,0.0,-0.3356446786330507,-0.7438677729190333,-0.4404445589234936,-0.0012087176966661488,-0.009827511807974901,-0.11657740296029388
2588,1.0,299.72485,5125.045,0.0,-0.02588004029933466,0.0,0.0,0.0,0.0,-0.3385131896661507,-0.7480793165621803,-0.4712932216630195,-0.010132407882315802,0.008825485681982622,-0.13431082998294686
2589,1.0,299.36426,5032.4486,0.0,-0.025890036286753793,0.0,0.0,0.0,0.0,-0.3552987516177567,-0.7574404201285493,-0.41699954241215065,-0.008313692955147613,0.007064989369785163,-0.14402860771701687
2590,1.0,299.19052999999997,4894.7347,0.0,-0.025900032274173035,0.0,0.0,0.0,0.0,-0.34255718227276166,-0.7253934371582583,-0.4199265179760206,-0.005471344850229694,0.0056205062080507745,-0.12248741721606689
2591,1.0,299.55432,4933.5246,0.0,-0.025910028261592388,0.0,0.0,0.0,0.0,-0.3354601151273357,-0.7322739322273103,-0.43193424093609056,-0.0003039384415388887,-0.024455058661526374,-0.12424296420682589
2592,1.0,300.34392,5131.4441,0.0,-0.02592002424901163,0.0,0.0,0.0,0.0,-0.3113105351589577,-0.7757287333034653,-0.4727916159108996,0.004293551039990496,-0.012391113493157687,-0.12216766588200989
2593,1.0,300.42532,5314.9115,0.0,-0.025930053226488448,0.0,0.0,0.0,0.0,-0.3441725866421897,-0.7704340860984242,-0.5009936997867285,0.0035102841920380766,0.005645677671010005,-0.13292510914618688
2594,1.0,300.36216,5264.0991,0.0,-0.0259400492139078,0.0,0.0,0.0,0.0,-0.3299458054331157,-0.7835106865889843,-0.48669818982337154,-0.005297362310008956,0.0034955126267802368,-0.12804682667223788
2595,1.0,299.55163999999996,4920.7572,0.0,-0.025950045201327154,0.0,0.0,0.0,0.0,-0.3424733459594877,-0.7563327249867282,-0.39698124654649863,-0.01027943341025109,-0.0006355219833736364,-0.15357106278628385
2596,1.0,300.48276,4885.1474,0.0,-0.02596004118874662,0.0,0.0,0.0,0.0,-0.3334865977750647,-0.7423445743087053,-0.4091316655181516,-0.0016006292577948086,0.011968849619983488,-0.13662121246346387
2597,1.0,300.07145,5058.2247,0.0,-0.02597003717616575,0.0,0.0,0.0,0.0,-0.3612008422577477,-0.7600067394518253,-0.4163664333521676,0.01011668649641422,0.016832334589472083,-0.13143332128895888
2598,1.0,299.4363,5000.396,0.0,-0.025980033163584992,0.0,0.0,0.0,0.0,-0.3239751278938557,-0.7284614976660523,-0.4675588985519706,0.003897821755135056,-0.009871601866201252,-0.11439895577529789
2599,1.0,299.64693,4943.9725,0.0,-0.025990029151004346,0.0,0.0,0.0,0.0,-0.3204822420166347,-0.7397658325392032,-0.4425960941858336,-0.009663665416454522,-0.018654894902094783,-0.12426184105618887
2600,1.0,299.83782,5015.8909,0.0,-0.0260000251384237,0.0,0.0,0.0,0.0,-0.31977655385198867,-0.7457905771037993,-0.45913846598093855,0.0012358120043401489,-0.002844571783587377,-0.12616726800173989
2601,1.0,299.86258,5285.5756,0.0,-0.026010054115900405,0.0,0.0,0.0,0.0,-0.4079925494907296,-0.7573725627693523,-0.44131790958218664,0.001111140090835989,0.015489800498474286,-0.12380199776330589
2602,1.0,300.22949,5419.6103,0.0,-0.02602005010331976,0.0,0.0,0.0,0.0,-0.39273186814461764,-0.7846235898363192,-0.4700707556823715,0.0011813162728868387,0.0077465681602267526,-0.12583931947437388
2603,1.0,300.02556,5212.2874,0.0,-0.026030046090739112,0.0,0.0,0.0,0.0,-0.37733331385739866,-0.7554514709772553,-0.4516204339489666,-0.0037453329853105867,-0.0012130428560430087,-0.12573131714621488
2604,1.0,300.79568,5045.6032,0.0,-0.026040042078158465,0.0,0.0,0.0,0.0,-0.2973528731764437,-0.7723017593452493,-0.46408275156640155,0.004305365738806516,0.0008373465997096751,-0.13346647854211588
2605,1.0,300.85539,4908.2282,0.0,-0.026050038065577708,0.0,0.0,0.0,0.0,-0.3044993666617477,-0.7588196764296713,-0.42865976111792453,0.01108392460539819,0.01067603672464279,-0.13906770482991387
2606,1.0,300.66814,5023.2158,0.0,-0.02606003405299695,0.0,0.0,0.0,0.0,-0.3186873910544967,-0.7576046274397552,-0.4506401651397216,0.007203559122985933,-0.007483587405422573,-0.14021396427054086
2607,1.0,300.76245,5110.2362,0.0,-0.026070030040416303,0.0,0.0,0.0,0.0,-0.37969873608334764,-0.7686260628849862,-0.4050594032337506,-0.017032052263682682,-0.004560970539507746,-0.13555309487054887
2608,1.0,299.80363,4917.1981,0.0,-0.026080026027835657,0.0,0.0,0.0,0.0,-0.3255800147272457,-0.7542665053828083,-0.41485891985338763,-0.002248542307038848,0.016024255475720884,-0.15022908024645587
2609,1.0,299.78427,4936.5868,0.0,-0.026090055005312474,0.0,0.0,0.0,0.0,-0.3361550425759197,-0.7424100100001634,-0.4220340680515196,0.01299398615690659,0.030979548307943368,-0.1260797637231039
2610,1.0,299.80546,5275.2501,0.0,-0.026100050992731827,0.0,0.0,0.0,0.0,-0.33322679031692365,-0.7792905809824923,-0.49102692597308456,0.008037191289684022,0.00975630879827271,-0.11938421719480488
2611,1.0,299.59252000000004,5387.4177,0.0,-0.02611004698015107,0.0,0.0,0.0,0.0,-0.3481740126120997,-0.7874529792830582,-0.5020134549523706,-0.001343091277227789,-0.023721195051349682,-0.13503510115442688
2612,1.0,299.64522999999997,5161.6323,0.0,-0.026120042967570423,0.0,0.0,0.0,0.0,-0.32791857569304367,-0.7693910565779852,-0.4716977009704385,0.007707495919145623,-0.017851602381815983,-0.14125633517841488
2613,1.0,300.10815,5064.0367,0.0,-0.026130038954989665,0.0,0.0,0.0,0.0,-0.36181074789044065,-0.7594749655343432,-0.41805499437881555,0.01080067965919409,0.0032848235818118466,-0.13403232806046086
2614,1.0,300.01961,5013.0367,0.0,-0.026140034942408796,0.0,0.0,0.0,0.0,-0.3440868150212247,-0.7440568555201943,-0.43569432086468163,0.003235668792960647,-0.004776748835753405,-0.13503274028169387
2615,1.0,300.96623,5168.039000000001,0.0,-0.02615003092982826,0.0,0.0,0.0,0.0,-0.36068814783964864,-0.7645193196996823,-0.44574733239433656,-0.006127335833245964,-0.01056586401476959,-0.13093990902026287
2616,1.0,300.47817000000003,5091.689,0.0,-0.026160026917247614,0.0,0.0,0.0,0.0,-0.3202376231774927,-0.7614188554536903,-0.46608984802698655,-0.01051942372293629,0.004839468307668336,-0.13956279909377586
2617,1.0,299.64597000000003,4904.1634,0.0,-0.02617005589472443,0.0,0.0,0.0,0.0,-0.2979193509098507,-0.7437150862614643,-0.4491087794685855,-0.007024665562180513,0.012768242140627387,-0.11857636302257588
2618,1.0,299.98704,5006.469,0.0,-0.026180051882143784,0.0,0.0,0.0,0.0,-0.3241440873480307,-0.7542399683626893,-0.44345751889084956,-0.003976447733744836,-0.009118690268719662,-0.12761177760930187
2619,1.0,300.29636,5331.9626,0.0,-0.026190047869563027,0.0,0.0,0.0,0.0,-0.40187907461487665,-0.7593787067748433,-0.45952570990415653,-0.01016124690533699,-0.004782376224158785,-0.1048115225340919
2620,1.0,300.45477,5419.213000000001,0.0,-0.02620004385698238,0.0,0.0,0.0,0.0,-0.37574228828537665,-0.7935018392000343,-0.47806132703097953,0.005637502566553184,0.006811729027165312,-0.14082570388591487
2621,1.0,299.65342999999996,5104.889,0.0,-0.026210039844401622,0.0,0.0,0.0,0.0,-0.3432361105022667,-0.7441271852096353,-0.4643955013422676,0.005876251749190894,0.02925448595969297,-0.10608376949215291
2622,1.0,299.53373,5038.1051,0.0,-0.026220035831820976,0.0,0.0,0.0,0.0,-0.3008930069058277,-0.7617232155187283,-0.4688419163585945,0.0005660621184809814,-0.004856024611652315,-0.13753070575322388
2623,1.0,300.12141,5173.5797,0.0,-0.02623003181924033,0.0,0.0,0.0,0.0,-0.34217448784249266,-0.7620275147887603,-0.46843704188363655,-0.0017439156902110784,-0.025265531072013774,-0.13039234866622287
2624,1.0,300.33398,5108.4645,0.0,-0.02624002780665957,0.0,0.0,0.0,0.0,-0.3408845191401827,-0.7651134794258213,-0.44684765107542956,0.008006183708798813,-0.02373396706886018,-0.15495723958558885
2625,1.0,299.22585,4974.7137,0.0,-0.02625005678413639,0.0,0.0,0.0,0.0,-0.3469733720386057,-0.7562583118993843,-0.4089570723934206,0.009046445333939642,0.013297999690410386,-0.13233974443091587
2626,1.0,299.34628,5002.5742,0.0,-0.026260052771555742,0.0,0.0,0.0,0.0,-0.32571049094262267,-0.7541833074170973,-0.4407638340300036,0.007733868286123372,-0.004913459173695665,-0.14844545609542587
2627,1.0,299.14464,5019.5783,0.0,-0.026270048758974873,0.0,0.0,0.0,0.0,-0.3296812255670037,-0.7542332505145263,-0.4419119679833156,-0.010330181028259491,-0.005831967045620334,-0.1218226440904589
2628,1.0,299.90405,5074.9234,0.0,-0.026280044746394338,0.0,0.0,0.0,0.0,-0.29589176653224375,-0.7805092776727682,-0.46624893842518755,-0.004509806881008285,0.01005845410124213,-0.14626327001756087
2629,1.0,300.3557,5308.7819,0.0,-0.02629004073381347,0.0,0.0,0.0,0.0,-0.35423419053269267,-0.7834668533896583,-0.47603610352610554,0.0007247856593507753,0.009822277155308281,-0.11865682521301689
2630,1.0,300.26743,5215.0691,0.0,-0.026300036721232933,0.0,0.0,0.0,0.0,-0.35489298548271064,-0.7804797009023492,-0.44987812000451355,-0.001893466136070558,-0.014554647663181887,-0.12472596026449388
2631,1.0,300.13981,5199.3496,0.0,-0.026310032708652287,0.0,0.0,0.0,0.0,-0.38666070659294066,-0.7714292699491413,-0.4223824639659036,-0.008273650628420741,-0.016636753002169685,-0.12436775608914187
2632,1.0,300.49917999999997,5360.3857,0.0,-0.02632002869607153,0.0,0.0,0.0,0.0,-0.37199864327340765,-0.7770150441729143,-0.48040971652274755,0.019913254254285178,-0.0022120040018077975,-0.14058270624693286
2633,1.0,300.46394,5328.4985,0.0,-0.026330024683490882,0.0,0.0,0.0,0.0,-0.38072055827919365,-0.7707031951924833,-0.46830673792077654,0.0011938766224514489,0.01978683306580838,-0.11393212105672489
2634,1.0,300.21912000000003,5108.9403,0.0,-0.0263400536609677,0.0,0.0,0.0,0.0,-0.3157185074664907,-0.7562791341889393,-0.4809926595702796,-0.009086878977855132,0.006421660365318534,-0.13322239672552688
2635,1.0,299.94091000000003,5087.0318,0.0,-0.02635004964838683,0.0,0.0,0.0,0.0,-0.3573073274234877,-0.7468037866737953,-0.44221955018367154,-0.02212562809237948,-0.008832833873032832,-0.1181630887042889
2636,1.0,299.76693,5104.0008,0.0,-0.026360045635806295,0.0,0.0,0.0,0.0,-0.34884753008607067,-0.7672151931807443,-0.4354260629007066,-0.0013549430609974687,-0.0007532890939388452,-0.13998816148575585
2637,1.0,299.87057000000004,5062.4728,0.0,-0.026370041623225426,0.0,0.0,0.0,0.0,-0.36857567165308663,-0.7357774673630822,-0.4345121923705145,0.003937338914335096,0.01017180497137899,-0.10977731941917789
2638,1.0,299.94077999999996,5143.6066,0.0,-0.02638003761064478,0.0,0.0,0.0,0.0,-0.3234886057258397,-0.7899812611975803,-0.4500581036197766,0.01017376865007279,-0.007217816463818023,-0.1354457106249509
2639,1.0,300.46484,5211.1588,0.0,-0.026390033598064244,0.0,0.0,0.0,0.0,-0.3445903699234217,-0.7746253748720723,-0.4648464179017695,-0.016664433981651582,0.0016030995615386083,-0.1182674433320879
2640,1.0,300.20248,5204.1511,0.0,-0.026400029585483376,0.0,0.0,0.0,0.0,-0.3033633714446337,-0.7966574850464722,-0.4819111201234245,0.007299556159985103,0.0008534103020250392,-0.15193997330530787
2641,1.0,299.54951,5132.3855,0.0,-0.02641002557290284,0.0,0.0,0.0,0.0,-0.35488200185162666,-0.7698030339361442,-0.4354319904137916,0.008861758515687471,0.016135189136419183,-0.13434980971429386
2642,1.0,299.77201,5168.286,0.0,-0.026420054550379546,0.0,0.0,0.0,0.0,-0.36392054738116164,-0.7611326123004403,-0.44597672208447564,0.006695667611685943,0.0022388014272024977,-0.14115011617043188
2643,1.0,300.186,5167.5245,0.0,-0.026430050537798788,0.0,0.0,0.0,0.0,-0.3656794887597557,-0.7650660998511453,-0.44005281616983155,-0.004951959435095345,-0.01127644820389879,-0.12715345419156887
2644,1.0,300.47944,5086.2859,0.0,-0.02644004652521814,0.0,0.0,0.0,0.0,-0.3352477480388767,-0.7677978018557433,-0.4430583490139545,-0.006561134140258524,0.00033733722173259176,-0.14703649130137184
2645,1.0,300.39721000000003,5141.6544,0.0,-0.026450042512637606,0.0,0.0,0.0,0.0,-0.3264834487814077,-0.7620479824407802,-0.47440311926744255,0.002515630980398448,0.012014363801225388,-0.1162352689315279
2646,1.0,300.00845,5176.9472,0.0,-0.026460038500056737,0.0,0.0,0.0,0.0,-0.3146823376492287,-0.7743803102028862,-0.4846000325762995,0.003240961808833027,-0.02146970570639498,-0.12984466672217088
2647,1.0,300.31571,5236.0587,0.0,-0.0264700344874762,0.0,0.0,0.0,0.0,-0.3627428265249297,-0.7790129504550922,-0.4498753133017366,-0.005823100499295275,-0.00906964410027918,-0.12089087956350089
2648,1.0,300.00605,5256.2055,0.0,-0.026480030474895333,0.0,0.0,0.0,0.0,-0.3644092784343957,-0.7811131645998672,-0.45223278151440055,0.0048822104392866545,0.010006536989968309,-0.13686537534006088
2649,1.0,300.50448,5240.7314,0.0,-0.026490026462314686,0.0,0.0,0.0,0.0,-0.36180010876439067,-0.7736293500237723,-0.4576220257487776,0.006737270444891823,0.012032537455018989,-0.11669006623891288
2650,1.0,299.70416,5160.7151,0.0,-0.026500055439791503,0.0,0.0,0.0,0.0,-0.3328306297928257,-0.7619839450344603,-0.4739139525166655,0.0030089685725620775,-0.01095744870141599,-0.12598963512670888
2651,1.0,299.9364,5255.2589,0.0,-0.026510051427210746,0.0,0.0,0.0,0.0,-0.3389358568128647,-0.7753974511832703,-0.48313417378913054,0.003873267260161716,-0.01043996465009429,-0.11856403176885888
2652,1.0,299.66379,5290.4531,0.0,-0.0265200474146301,0.0,0.0,0.0,0.0,-0.3458756979402737,-0.7909714598578053,-0.4713184921205136,0.003628844991539117,9.257290723398461e-05,-0.14670359811351785
2653,1.0,300.04451,5150.9617,0.0,-0.026530043402049452,0.0,0.0,0.0,0.0,-0.38547527490344763,-0.7406977997161813,-0.4395906727992216,-0.008924536148158142,0.015241441753213186,-0.1130207633867809
2654,1.0,299.3617,5122.7799,0.0,-0.026540039389468695,0.0,0.0,0.0,0.0,-0.35823423848246666,-0.7698726847480183,-0.4290902505554106,-0.018496757972237883,0.002418490591986438,-0.15554359728595785
2655,1.0,300.01608,5262.2744,0.0,-0.026550035376888048,0.0,0.0,0.0,0.0,-0.38142412875113063,-0.7672368058053772,-0.4509391043167245,0.001998929867429018,-0.003427746156117207,-0.12836887808402186
2656,1.0,299.90566,5211.4575,0.0,-0.02656003136430729,0.0,0.0,0.0,0.0,-0.3325015464253477,-0.7785093347578893,-0.4731420585904856,0.009652000273353261,0.003791448327836817,-0.16235726851091484
2657,1.0,300.04667,5013.8949,0.0,-0.026570027351726644,0.0,0.0,0.0,0.0,-0.2974814140841297,-0.7621215747955433,-0.4644958738971736,0.002372103191808358,-0.0009034882529098482,-0.12633530539832388
2658,1.0,299.8066,4938.5088,0.0,-0.02658005632920346,0.0,0.0,0.0,0.0,-0.2894758061040377,-0.7558722534787833,-0.45583532131744353,0.0034750366661094162,-0.020586319818711583,-0.14359426792915087
2659,1.0,300.09164,5131.9698,0.0,-0.026590052316622703,0.0,0.0,0.0,0.0,-0.36043067085673763,-0.7731067156221922,-0.42645328743516264,-0.0036678554243641465,-0.003527305881792987,-0.13090784978709888
2660,1.0,299.85392,5213.948,0.0,-0.026600048304042057,0.0,0.0,0.0,0.0,-0.36272097072027265,-0.7909065206588962,-0.43128251847177057,0.007499164200534882,0.013778733160605088,-0.16065705510811684
2661,1.0,299.80183,5183.6556,0.0,-0.02661004429146141,0.0,0.0,0.0,0.0,-0.35352787415298464,-0.7750225891762742,-0.4471514133229086,0.000928708483596391,0.003543722357263166,-0.1206089528556769
2662,1.0,300.01194,5193.4111,0.0,-0.026620040278880652,0.0,0.0,0.0,0.0,-0.3356984214183547,-0.7679479249905592,-0.4750209485159176,-0.016876545731085383,-0.0026248822406307075,-0.13185308040788588
2663,1.0,299.96992,5273.2133,0.0,-0.026630036266300006,0.0,0.0,0.0,0.0,-0.33429942700528464,-0.7837213412847742,-0.48490441290633957,-0.005903961403650624,-0.009453003121288772,-0.13213601023330887
2664,1.0,299.82642999999996,5330.0489,0.0,-0.026640032253719248,0.0,0.0,0.0,0.0,-0.35462547732380967,-0.7773684050127883,-0.4882079020748685,0.006066094490576914,0.0052387298836973845,-0.13672101759831387
2665,1.0,299.82366,5335.7231,0.0,-0.0266500282411386,0.0,0.0,0.0,0.0,-0.39881974832294464,-0.7623020143733513,-0.4608048368303966,0.005438498017762965,0.01064044530163019,-0.12809097397909489
2666,1.0,299.30959,5157.7199,0.0,-0.02666005721861542,0.0,0.0,0.0,0.0,-0.3736762611989756,-0.7558386135754633,-0.4383032068246586,0.0007523034954340743,0.005408201941097974,-0.12442578492236889
2667,1.0,300.29753999999997,5165.7259,0.0,-0.02667005320603455,0.0,0.0,0.0,0.0,-0.36365128629958765,-0.7597626880327393,-0.44683771109194864,-0.01113597526303519,0.01029598383738449,-0.1298952177696599
2668,1.0,300.45917000000003,5272.2522,0.0,-0.026680049193454125,0.0,0.0,0.0,0.0,-0.33699740804655465,-0.7788324804797813,-0.4868031422687295,-0.007931527036130773,0.016362891765141684,-0.12910964496712987
2669,1.0,300.13605,5274.8186,0.0,-0.026690045180873367,0.0,0.0,0.0,0.0,-0.3228463976799587,-0.7812411279549963,-0.49932561654460156,-0.0017258589654790184,-0.009414402142829152,-0.12430315126276588
2670,1.0,300.36287999999996,5244.169,0.0,-0.02670004116829261,0.0,0.0,0.0,0.0,-0.33852471031978765,-0.7825712213612662,-0.47300050755151557,-0.0035730018401028264,-0.013571899430942187,-0.11414333304006989
2671,1.0,300.2458,5245.901,0.0,-0.026710037155711963,0.0,0.0,0.0,0.0,-0.37075110948528567,-0.7758790084257963,-0.4479927858084456,0.0011969478848295589,-0.016074426554422382,-0.13188828071635988
2672,1.0,299.73681,5359.688,0.0,-0.026720033143131094,0.0,0.0,0.0,0.0,-0.3818639299570356,-0.7988504318403993,-0.4484969486607026,0.016887956953711585,0.011433549592153489,-0.13743847972912188
2673,1.0,300.2466,5320.8119,0.0,-0.02673002913055056,0.0,0.0,0.0,0.0,-0.3818772845933536,-0.7751909406803893,-0.46032574178561353,0.02020658407873458,0.014343644409357488,-0.13902648581584587
2674,1.0,299.15246,5205.2137,0.0,-0.026740025117969912,0.0,0.0,0.0,0.0,-0.3371046707021407,-0.7747472789916032,-0.47040303078766454,-0.00085557410774609,0.008599140504419091,-0.14124131881193286
2675,1.0,299.16152,5118.2970000000005,0.0,-0.02675005409544673,0.0,0.0,0.0,0.0,-0.3081421527587627,-0.7731582900522822,-0.4745340210478615,-0.006522472772092943,-0.006127627953249794,-0.15578662532244286
2676,1.0,299.43585,5094.6008,0.0,-0.026760050082866083,0.0,0.0,0.0,0.0,-0.32967747654163365,-0.7625881562015913,-0.45636580840729857,-0.005663970179040334,0.007554600126755982,-0.14299209339472085
2677,1.0,299.17177999999996,5090.8667,0.0,-0.026770046070285325,0.0,0.0,0.0,0.0,-0.3357314533716147,-0.7642779027308563,-0.44748700175602857,0.011475565020800091,0.0005009195400119096,-0.14435336450656786
2678,1.0,299.83608,5305.0364,0.0,-0.026780042057704456,0.0,0.0,0.0,0.0,-0.37408473271178866,-0.7751608066224153,-0.4633530493743856,-0.002504517146676598,-0.009997195634646391,-0.12461289168583488
2679,1.0,300.38973,5343.0175,0.0,-0.02679003804512392,0.0,0.0,0.0,0.0,-0.3649591692636656,-0.7987724115826993,-0.46041231387415754,0.01120003192110709,-0.006554919066795143,-0.14301891412486786
2680,1.0,299.95476,5289.1066,0.0,-0.026800034032543052,0.0,0.0,0.0,0.0,-0.33879296828376265,-0.7948796364210122,-0.4740837327034216,-0.006469999589164243,-0.0015118754391354884,-0.1215281125513909
2681,1.0,300.2833,5470.2062,0.0,-0.026810030019962627,0.0,0.0,0.0,0.0,-0.35526501038942665,-0.8086083646759322,-0.4989327186858255,0.016786136464412682,0.0012422597200264889,-0.1287719287087999
2682,1.0,300.01889,5495.8827,0.0,-0.02682002600738187,0.0,0.0,0.0,0.0,-0.3941015492322946,-0.7867067915119152,-0.48980278812977157,-0.01062305387691379,-0.008581034535732172,-0.1003824888099803
2683,1.0,300.34025,5361.4887,0.0,-0.026830054984858687,0.0,0.0,0.0,0.0,-0.38017163003751864,-0.7799362239462122,-0.46965085470843054,0.004941590745497035,-0.0075212240737620225,-0.13075579134459187
2684,1.0,300.6827,5186.2863,0.0,-0.02684005097227804,0.0,0.0,0.0,0.0,-0.37236696981725864,-0.7491087482662773,-0.4550258054150506,0.0012925399257637587,0.0065654672029861645,-0.1122508554307969
2685,1.0,300.13396,5074.8178,0.0,-0.026850046959697282,0.0,0.0,0.0,0.0,-0.3438658758369197,-0.7563903890499192,-0.4423616281126936,-0.001939712491834718,0.00962744030682938,-0.13985373359498887
2686,1.0,299.76327000000003,5180.1714,0.0,-0.026860042947116414,0.0,0.0,0.0,0.0,-0.3243060452440147,-0.7622049247487692,-0.4881317765948555,-0.008548626845858782,-0.001097994184038589,-0.12995146328271087
2687,1.0,299.42516,5331.9515,0.0,-0.026870038934535767,0.0,0.0,0.0,0.0,-0.34622331365208064,-0.7868118047522793,-0.4877449987666835,-0.00026939284461700375,-0.01110514814199279,-0.14414094675560388
2688,1.0,299.58623,5281.428000000001,0.0,-0.02688003492195523,0.0,0.0,0.0,0.0,-0.34994783863466267,-0.7957364812355763,-0.4597379148725996,0.01310929097853629,0.01269972008936479,-0.13632299269403186
2689,1.0,299.892,5164.4059,0.0,-0.026890030909374585,0.0,0.0,0.0,0.0,-0.3397981833104697,-0.7876874453561982,-0.44236480971800757,0.013412473646958087,0.004575069711999225,-0.13647157568869586
2690,1.0,300.28364,5257.3414,0.0,-0.026900026896793827,0.0,0.0,0.0,0.0,-0.36057594052357467,-0.7910134185444463,-0.44651115071721953,0.0019069457061258884,-0.004841117980156145,-0.13529971141804187
2691,1.0,300.43201,5397.6937,0.0,-0.026910055874270533,0.0,0.0,0.0,0.0,-0.3710705264468096,-0.8069247381772713,-0.46276884989672956,-0.0060678521755253845,-0.006923157052587404,-0.14081039367690387
2692,1.0,300.07865,5367.4283,0.0,-0.026920051861689998,0.0,0.0,0.0,0.0,-0.33764034563250767,-0.7969856970188642,-0.49693814599647657,-0.00016268426458318686,0.006181465578763154,-0.13553741989150186
2693,1.0,300.50375,5166.8921,0.0,-0.02693004784910913,0.0,0.0,0.0,0.0,-0.33879587631154967,-0.7814285082959893,-0.4503817964967226,0.0033930304851660367,0.013133468139172386,-0.14555231295239485
2694,1.0,301.04059,5086.4029,0.0,-0.02694004383652837,0.0,0.0,0.0,0.0,-0.33680185077725466,-0.7586843366138143,-0.45065326646351456,-0.01086440295798309,-0.001011239538224072,-0.13044651701656887
2695,1.0,300.56637,5179.8519,0.0,-0.026950039823947725,0.0,0.0,0.0,0.0,-0.3458524235854767,-0.7802455084067362,-0.4484477047058426,0.002427252165601138,-0.0037026019994433664,-0.15465382184314386
2696,1.0,300.14601,5303.637,0.0,-0.02696003581136719,0.0,0.0,0.0,0.0,-0.36982455306384165,-0.7787019333368973,-0.4636467297833696,0.004927717021152805,0.015834760481769183,-0.1273598937669429
2697,1.0,299.84412000000003,5334.1684,0.0,-0.026970031798786542,0.0,0.0,0.0,0.0,-0.34237102796438973,-0.7944998905485343,-0.48458309103462754,0.0055728735234997955,-0.00046711017061268453,-0.15142373251185884
2698,1.0,299.57718,5260.1793,0.0,-0.026980027786205674,0.0,0.0,0.0,0.0,-0.32573814253785166,-0.7830573382292422,-0.49016767975578357,-0.005899032144564145,-0.011907909719219189,-0.1175453607808239
2699,1.0,300.38847000000004,5318.5961,0.0,-0.02699005676368249,0.0,0.0,0.0,0.0,-0.3483703095539727,-0.7977121061480552,-0.47063798322085254,-0.017656212298782482,-0.007575505604144193,-0.14961641857349084
2700,1.0,300.31215,5501.4121,0.0,-0.027000052751101844,0.0,0.0,0.0,0.0,-0.39750526910071565,-0.7965421873175932,-0.4782444618540535,0.01238205402401359,0.016425733536343683,-0.10032610752141591
2701,1.0,299.93621,5496.0148,0.0,-0.027010048738521086,0.0,0.0,0.0,0.0,-0.3940509981848056,-0.8083341791988723,-0.46826608632676453,0.003377430486626437,0.002218131226487508,-0.1318082238259589
2702,1.0,300.27669,5294.9025,0.0,-0.02702004472594033,0.0,0.0,0.0,0.0,-0.37918553504019864,-0.7695119069174122,-0.46082071445946354,-0.012115474002204188,0.01047667267471709,-0.0956067806834046
2703,1.0,300.27871,5278.9615,0.0,-0.027030040713359682,0.0,0.0,0.0,0.0,-0.3328308223103447,-0.7925651401450893,-0.47927652800841053,-0.02117852599865778,-0.006800065302614193,-0.15469153501186586
2704,1.0,300.01142000000004,5380.7386,0.0,-0.027040036700779035,0.0,0.0,0.0,0.0,-0.34638462306800066,-0.7892621069391053,-0.4999634574825515,-0.00028257551212803174,0.006706495303579554,-0.14121804445713587
2705,1.0,300.81448,5309.6536,0.0,-0.0270500326881985,0.0,0.0,0.0,0.0,-0.35892727115336365,-0.7814999424280392,-0.4735748987682035,0.015217124764063285,-0.014073546383200885,-0.15865444734547485
2706,1.0,300.58197,5202.6125,0.0,-0.02706002867561763,0.0,0.0,0.0,0.0,-0.3459435552994707,-0.7926077371792932,-0.4429129982871095,0.022460059393885276,-0.01225572909429629,-0.16173630831963084
2707,1.0,300.42797,5019.2389,0.0,-0.027070057653094448,0.0,0.0,0.0,0.0,-0.3385674796065087,-0.7679690107251403,-0.41918681500551763,0.018128676634911082,-0.01064087694617279,-0.15900634910520486
2708,1.0,300.68076,5088.3722,0.0,-0.0270800536405138,0.0,0.0,0.0,0.0,-0.3410077911473487,-0.7799691647069632,-0.4257611362918526,0.001280780145103159,0.011924538166610288,-0.14936049186323286
2709,1.0,300.30454,5387.7089,0.0,-0.027090049627933044,0.0,0.0,0.0,0.0,-0.3281220261806227,-0.8276139373316362,-0.48199302112900755,-0.0035785829229786365,0.002682607098827708,-0.14474410414263086
2710,1.0,299.78001,5488.5662,0.0,-0.027100045615352175,0.0,0.0,0.0,0.0,-0.35738953240410065,-0.7996367037854982,-0.5113608289798846,-0.006870313222772124,-0.007392162051549593,-0.12532244033336187
2711,1.0,299.62433,5401.9485,0.0,-0.02711004160277175,0.0,0.0,0.0,0.0,-0.3544051359570637,-0.8100523271284402,-0.4775999942604496,-0.003725167079170366,0.008634471724806012,-0.12903329657209486
2712,1.0,299.68091,5374.4453,0.0,-0.027120037590190993,0.0,0.0,0.0,0.0,-0.3782414189945217,-0.7886564873543352,-0.4667992446869985,-0.0008963168334720842,0.0026766712770918875,-0.12291728857099189
2713,1.0,299.51777000000004,5419.4412,0.0,-0.027130033577610346,0.0,0.0,0.0,0.0,-0.3915685151748036,-0.7947739443030812,-0.4610323520078506,-0.00014247537637372486,-0.005623563284927484,-0.12009306669976288
2714,1.0,299.76138,5453.0309,0.0,-0.02714002956502959,0.0,0.0,0.0,0.0,-0.37979881479572464,-0.7938793052597872,-0.48390711136291353,0.0002166490023215918,-0.01823867101276668,-0.11834422742466588
2715,1.0,300.20597000000004,5330.626,0.0,-0.027150058542506406,0.0,0.0,0.0,0.0,-0.3245540078084867,-0.7939446396262352,-0.5018785609665576,0.004403439431885636,-0.0033322645594439067,-0.14341855009680887
2716,1.0,300.18289,5121.9487,0.0,-0.02716005452992576,0.0,0.0,0.0,0.0,-0.3270082414057007,-0.7628043229779252,-0.4671319554898346,0.005303018069417135,0.006231368855463224,-0.12967943602836388
2717,1.0,300.74065,5266.7432,0.0,-0.027170050517345,0.0,0.0,0.0,0.0,-0.3482598551605717,-0.7872711718176152,-0.46542739524410753,0.006631934383045963,0.00889753526214336,-0.14249370606803385
2718,1.0,301.08456,5462.1895,0.0,-0.027180046504764355,0.0,0.0,0.0,0.0,-0.4017130130559876,-0.7867258912763003,-0.47193030266339453,0.018673748446705482,-0.015807779658106383,-0.12869633011883888
2719,1.0,300.14005,5614.193,0.0,-0.027190042492183708,0.0,0.0,0.0,0.0,-0.4084641971472776,-0.8183180769392062,-0.4797922317793065,0.013801875792889086,0.013277547237141887,-0.13520260152845787
2720,1.0,299.31932,5527.3934,0.0,-0.02720003847960295,0.0,0.0,0.0,0.0,-0.3850259694116046,-0.8015321603500652,-0.49363144482513055,-0.0093197904213667,0.011963240267429887,-0.12414367582952689
2721,1.0,299.88866,5382.2158,0.0,-0.027210034467022304,0.0,0.0,0.0,0.0,-0.3312514592469737,-0.8023080870116432,-0.5024996528803545,-0.016136481030296686,0.00016718638809001184,-0.11076314083897089
2722,1.0,299.43798,5264.0645,0.0,-0.027220030454441546,0.0,0.0,0.0,0.0,-0.3377731725881167,-0.7990489883299953,-0.4633220135238226,-0.02192906466573018,-0.01125041071607909,-0.11659825564735189
2723,1.0,299.87966,5329.7953,0.0,-0.027230026441860677,0.0,0.0,0.0,0.0,-0.3505491417740067,-0.7903688192283294,-0.4792067150765206,0.009215915466165042,0.002840309445716717,-0.1173748003914909
2724,1.0,299.67951,5260.4829,0.0,-0.027240055419337716,0.0,0.0,0.0,0.0,-0.36574375921359864,-0.8006011861581852,-0.43271049183770055,0.02000287014612958,0.0015957086113341783,-0.15152235214409185
2725,1.0,299.58517,5039.5175,0.0,-0.027250051406756848,0.0,0.0,0.0,0.0,-0.33959921138833266,-0.7708815576075863,-0.42140670411960357,0.006197619723782443,0.01026967479853799,-0.15193919310273088
2726,1.0,300.36057999999997,5190.7436,0.0,-0.027260047394176312,0.0,0.0,0.0,0.0,-0.32878403313345766,-0.7946208726104742,-0.4544515256558736,-0.006132595918490094,-0.01295141952020559,-0.16938642763463885
2727,1.0,300.30304,5417.3961,0.0,-0.027270043381595666,0.0,0.0,0.0,0.0,-0.33397244106551366,-0.8147819151502143,-0.49799879593615454,0.004537504680441846,-0.0023976334466279977,-0.15797184101810685
2728,1.0,300.00909,5516.6332,0.0,-0.027280039369014908,0.0,0.0,0.0,0.0,-0.37051738308471865,-0.8155891309748802,-0.49081223854189654,0.007213353198452534,0.005791263674528224,-0.15046603891484187
2729,1.0,300.43805,5534.6826,0.0,-0.02729003535643426,0.0,0.0,0.0,0.0,-0.36084475577510466,-0.8149351286978352,-0.5066254249025366,0.0009461169613119742,-0.00897606629921877,-0.12957417960797588
2730,1.0,300.09136,5418.0516,0.0,-0.027300031343853504,0.0,0.0,0.0,0.0,-0.39201299759617064,-0.7964218132057133,-0.45851757671716153,0.001091239352246939,-0.014492703631568486,-0.1193029038742799
2731,1.0,300.31955,5379.5959,0.0,-0.027310027331272857,0.0,0.0,0.0,0.0,-0.37247521532544164,-0.7965847134242903,-0.4662028963406436,-0.004187763473900076,0.00941685582927131,-0.12428534845850887
2732,1.0,300.28128,5483.9064,0.0,-0.027320056308749674,0.0,0.0,0.0,0.0,-0.37734410497096366,-0.7996734442341242,-0.48995307338460353,0.006478684358421364,0.01009352106600297,-0.1153447436836399
2733,1.0,299.63747,5395.2681,0.0,-0.027330052296168805,0.0,0.0,0.0,0.0,-0.34312638564893766,-0.7888993836683073,-0.5080010132382965,-0.03547438148029887,0.005511953178462425,-0.11611662747731889
2734,1.0,299.90864,5212.4251,0.0,-0.02734004828358827,0.0,0.0,0.0,0.0,-0.3363932678069307,-0.7846375524226973,-0.4634162457831225,-0.015172763661435185,-0.0038068820520350067,-0.12158706344220889
2735,1.0,300.05517000000003,5266.793000000001,0.0,-0.027350044271007623,0.0,0.0,0.0,0.0,-0.3258810006694507,-0.7930721502301273,-0.48202041941171153,-0.008618328421562791,0.004565796244434006,-0.14359890861460886
2736,1.0,298.93662,5514.1292,0.0,-0.027360040258426754,0.0,0.0,0.0,0.0,-0.41355692387239057,-0.7997194255236622,-0.4628812294653206,0.03026482195240537,0.004669126679031925,-0.14256462344253287
2737,1.0,300.63917999999995,5641.7942,0.0,-0.02737003624584622,0.0,0.0,0.0,0.0,-0.4090326203208766,-0.8108571719478722,-0.4950747689300755,0.015434542904270784,-0.008753554956058611,-0.14182561961459886
2738,1.0,300.96817000000004,5336.8205,0.0,-0.02738003223326535,0.0,0.0,0.0,0.0,-0.35708618558916266,-0.7977527577420672,-0.4674212181283826,0.004950149162466685,-0.01901098341123798,-0.14609172677563087
2739,1.0,300.87019,5203.4276,0.0,-0.027390028220684814,0.0,0.0,0.0,0.0,-0.3281357962494817,-0.7876485264198573,-0.46592773814348754,-0.002145896424208488,-0.009733950725541141,-0.13899640242037686
2740,1.0,300.71412000000004,5467.4201,0.0,-0.02740005719816152,0.0,0.0,0.0,0.0,-0.36375149673447765,-0.8122084524137333,-0.48599921950688857,0.008126811437178841,-0.0029572053739784472,-0.13121777259518588
2741,1.0,300.21209,5474.7555,0.0,-0.027410053185580985,0.0,0.0,0.0,0.0,-0.35225104730447165,-0.8215371725069063,-0.4904007272787835,-0.001125181812046799,-0.0024062155736499875,-0.1292975825956779
2742,1.0,299.1604,5270.9441,0.0,-0.027420049173000116,0.0,0.0,0.0,0.0,-0.36373162690001665,-0.7972292722104032,-0.4412744816829006,-0.0016947009169539584,-0.004295144882397796,-0.14367508475712687
2743,1.0,299.79357999999996,5289.6116,0.0,-0.02743004516041958,0.0,0.0,0.0,0.0,-0.3406766711471697,-0.8097590317544942,-0.4574741520291835,-0.016171061229709485,0.010963268809990389,-0.14844829319570585
2744,1.0,300.125,5261.0781,0.0,-0.027440041147838712,0.0,0.0,0.0,0.0,-0.3348538977250067,-0.8078742447134802,-0.4565082308413546,-0.008646116096280222,0.0017621580423614583,-0.16427945461311985
2745,1.0,300.23509,5326.8966,0.0,-0.027450037135258176,0.0,0.0,0.0,0.0,-0.35380334645767164,-0.7909561901787983,-0.47448401715542654,-0.012043549457105788,-0.007914389227914403,-0.14252400224602385
2746,1.0,300.00161,5519.939,0.0,-0.027460033122677308,0.0,0.0,0.0,0.0,-0.3752181340086467,-0.8135647484675892,-0.4891407406469325,-0.004621550736486546,-0.002964739800397037,-0.15636709603973084
2747,1.0,299.97553999999997,5378.183000000001,0.0,-0.02747002911009666,0.0,0.0,0.0,0.0,-0.3503802735123407,-0.7952937821343853,-0.4891592831237625,0.016292581327452586,0.006983132339256503,-0.13597498181468587
2748,1.0,300.76569,5347.6325,0.0,-0.027480058087573478,0.0,0.0,0.0,0.0,-0.37930236277672863,-0.7878375786235152,-0.45840681834873054,0.016238662236631184,0.004271570098946146,-0.13402892354012488
2749,1.0,300.40437000000003,5616.3985,0.0,-0.02749005407499283,0.0,0.0,0.0,0.0,-0.3848763225043356,-0.8036955911685792,-0.5186729787240375,0.0006243325409293243,-0.009190192085876342,-0.10769730948139689
2750,1.0,299.86642,5604.6757,0.0,-0.027500050062412074,0.0,0.0,0.0,0.0,-0.3991251115055816,-0.8068457249344733,-0.4977106174752135,-0.0011465159955523188,-0.005770312803535535,-0.11945182124147688
2751,1.0,299.5378,5493.3818,0.0,-0.027510046049831427,0.0,0.0,0.0,0.0,-0.3696787261094497,-0.8040694804554793,-0.49610271115652554,-0.005886470173799375,0.01152079042576349,-0.10570359805463289
2752,1.0,299.60792000000004,5406.589,0.0,-0.02752004203725067,0.0,0.0,0.0,0.0,-0.3730821420028406,-0.7964102317570702,-0.4739756898452585,0.0035187853603770767,-0.0008854384892059752,-0.1305616424929309
2753,1.0,300.20127,5364.3072,0.0,-0.027530038024670023,0.0,0.0,0.0,0.0,-0.3520450636916427,-0.8082468370402522,-0.4703235514498206,0.005492684201310725,0.0056967389912493645,-0.13441379645810886
2754,1.0,300.72,5381.9216,0.0,-0.027540034012089487,0.0,0.0,0.0,0.0,-0.3753873265103447,-0.8120240206305313,-0.44855843267677054,-0.004913522197851885,0.006476700110750534,-0.15504679062942686
2755,1.0,300.57944,5431.1378,0.0,-0.02755002999950862,0.0,0.0,0.0,0.0,-0.34584612116985464,-0.8257429912869882,-0.4793411632322896,0.0069570827937606135,0.0031003479248805175,-0.16741246445232386
2756,1.0,300.08412000000004,5326.4484,0.0,-0.027560058976985435,0.0,0.0,0.0,0.0,-0.3545279722666867,-0.7997075704974923,-0.46487176941927155,-0.012096632616594688,-0.01058761140166589,-0.15816218004939187
2757,1.0,300.15932999999995,5248.094,0.0,-0.02757005496440479,0.0,0.0,0.0,0.0,-0.32695561319550664,-0.7857055180280973,-0.4826283998692146,-0.00017731181660431383,-0.012009835586528489,-0.14151973967441087
2758,1.0,299.67368999999997,5393.2574,0.0,-0.02758005095182403,0.0,0.0,0.0,0.0,-0.35018277080284865,-0.8078964652881733,-0.4813363337391975,0.002384610244417708,-0.014501445953431287,-0.15467637679036986
2759,1.0,299.53647,5584.3346,0.0,-0.027590046939243384,0.0,0.0,0.0,0.0,-0.3740669603050346,-0.8131214414163382,-0.5103098859761646,0.016227961302325084,0.004730914467479905,-0.1345587722824169
2760,1.0,299.66143999999997,5456.2742,0.0,-0.027600042926662627,0.0,0.0,0.0,0.0,-0.3756760926563436,-0.8119445412926872,-0.4709504898166946,0.017494345595307485,0.0005143309082030086,-0.13963897523629387
2761,1.0,299.7929,5341.4844,0.0,-0.02761003891408198,0.0,0.0,0.0,0.0,-0.34481796616088367,-0.7896231076847332,-0.4892368068889136,0.00012990445861057188,-0.0012285731429757289,-0.12164837520575988
2762,1.0,300.14754,5439.7774,0.0,-0.027620034901501334,0.0,0.0,0.0,0.0,-0.3735631824878156,-0.8052278381023003,-0.47476548790070555,-0.004818695262068196,0.013405652447284885,-0.13356919170475287
2763,1.0,300.23271,5402.0308,0.0,-0.027630030888920576,0.0,0.0,0.0,0.0,-0.35742616139521566,-0.7949022116332403,-0.48975409132996556,-0.00949471396695531,0.015688963924880187,-0.12539634679565587
2764,1.0,300.39628,5443.4774,0.0,-0.02764002687633993,0.0,0.0,0.0,0.0,-0.36916305273605665,-0.8047600205311302,-0.48075811243713157,0.004201167658147966,0.013145100250320386,-0.15477926220552385
2765,1.0,300.25136000000003,5528.2467,0.0,-0.027650055853816746,0.0,0.0,0.0,0.0,-0.39106157601727265,-0.7994748370820233,-0.4899125433806036,-0.009083544979726091,-0.01138165193528159,-0.1263281518526179
2766,1.0,300.24699,5368.4698,0.0,-0.02766005184123599,0.0,0.0,0.0,0.0,-0.3700738733834476,-0.7941646364879472,-0.46764225863769754,0.0009969687718281571,-0.009555364686141071,-0.14108175218618488
2767,1.0,300.17303,5289.0096,0.0,-0.027670047828655342,0.0,0.0,0.0,0.0,-0.33806916320732866,-0.7853039670134673,-0.4843537114769896,-0.003207377431618507,-0.013132417398818687,-0.12073429189304688
2768,1.0,300.18613999999997,5610.5827,0.0,-0.027680043816074584,0.0,0.0,0.0,0.0,-0.38562570201329366,-0.8098336880218623,-0.5100176545148235,0.006935631681193554,-0.008703387727707493,-0.11761286350248588
2769,1.0,299.38065,5659.3958,0.0,-0.027690039803493938,0.0,0.0,0.0,0.0,-0.38370625168635863,-0.8116514992312662,-0.5249572571692475,0.0004957422980959556,-0.01695197713477988,-0.11504979671203089
2770,1.0,299.90148,5446.7136,0.0,-0.02770003579091329,0.0,0.0,0.0,0.0,-0.36092184384271264,-0.8146226727644982,-0.4801204032216945,0.03146665410801697,0.006087517941416244,-0.14129929698265487
2771,1.0,300.20192000000003,5443.6491,0.0,-0.027710031778332533,0.0,0.0,0.0,0.0,-0.36367629331205564,-0.8286902723828622,-0.46236683278705354,0.012484942478917887,0.02064035138029408,-0.14895365168308086
2772,1.0,299.53622,5465.4008,0.0,-0.027720027765751887,0.0,0.0,0.0,0.0,-0.37535647304479963,-0.8172330785996252,-0.46875583063009857,-0.0024137829306968275,0.0097740091629446,-0.14492930599590886
2773,1.0,300.04249,5473.5854,0.0,-0.027730056743228704,0.0,0.0,0.0,0.0,-0.34986070925856366,-0.8306625941000152,-0.4833099929464825,-0.012373717002190789,0.0005597242999004875,-0.14974591193627085
2774,1.0,300.18063,5355.9023,0.0,-0.027740052730647835,0.0,0.0,0.0,0.0,-0.3425242313795096,-0.8236757179029642,-0.46186060290459263,-0.01936016662094968,0.008950593394354792,-0.15922084401887385
2775,1.0,300.37617,5307.8901,0.0,-0.0277500487180673,0.0,0.0,0.0,0.0,-0.3148080211916327,-0.8157665409348893,-0.4828914902576795,-0.011666404597634489,0.0009371857797630351,-0.15640044210052187
2776,1.0,300.33061000000004,5316.9448,0.0,-0.027760044705486653,0.0,0.0,0.0,0.0,-0.3474273587459107,-0.8144650211814393,-0.45432607516099255,-0.021454509994645276,-0.006330182119790333,-0.17111423183765984
2777,1.0,300.38884,5457.1569,0.0,-0.027770040692906006,0.0,0.0,0.0,0.0,-0.3727080500659206,-0.8073379820980552,-0.47879341036073053,-0.0003213541943901897,-0.009231152417193812,-0.13697893027876787
2778,1.0,299.64149,5559.6639,0.0,-0.02778003668032525,0.0,0.0,0.0,0.0,-0.3851219545935777,-0.8166845252604872,-0.4881925108058495,0.019886001879595584,-0.001106641868342049,-0.14441650012029886
2779,1.0,300.16272999999995,5468.6389,0.0,-0.02779003266774449,0.0,0.0,0.0,0.0,-0.36168437533796866,-0.7994159064562072,-0.5012293716274876,0.026676787837793977,0.0059153932965788645,-0.1091960482343109
2780,1.0,300.1914,5435.3279,0.0,-0.027800028655163844,0.0,0.0,0.0,0.0,-0.3660388379077207,-0.8108621166083603,-0.47530300694625455,-0.008598202133501482,-0.008179123715991663,-0.12422713724026388
2781,1.0,299.9809,5732.7629,0.0,-0.02781005763264066,0.0,0.0,0.0,0.0,-0.39886622610503164,-0.8350486802053881,-0.5087018580674645,0.004633965785986816,-0.026204224203155577,-0.11357582179156088
2782,1.0,299.652,5851.7068,0.0,-0.027820053620059793,0.0,0.0,0.0,0.0,-0.4454413916591426,-0.8397612050954781,-0.4935701431940805,0.005278758632872914,0.01780751586996498,-0.15058158995624588
2783,1.0,299.90576,5535.3938,0.0,-0.027830049607479257,0.0,0.0,0.0,0.0,-0.38803726764879665,-0.8184242351521832,-0.47615999361583256,0.02270965937051888,0.011796133034437689,-0.14038824328774088
2784,1.0,300.375,5340.5456,0.0,-0.02784004559489861,0.0,0.0,0.0,0.0,-0.3585393584850796,-0.8075286656343742,-0.45732447472441157,-0.017443419645281486,0.01356248735076329,-0.15719290500373184
2785,1.0,300.14175,5392.4066,0.0,-0.027850041582317964,0.0,0.0,0.0,0.0,-0.32827258501298173,-0.8051251857346692,-0.5057591973920466,-0.025581782640225374,-0.002860435125827967,-0.12366471250725687
2786,1.0,299.96967,5403.9842,0.0,-0.027860037569737206,0.0,0.0,0.0,0.0,-0.34916570074997166,-0.8079333273268112,-0.48557723123774155,-0.022726088207640275,0.015195516192430683,-0.13941584743177288
2787,1.0,299.99989,5377.7242,0.0,-0.027870033557156337,0.0,0.0,0.0,0.0,-0.3202076309745327,-0.8141787273656843,-0.5003075065540066,0.007339732134400163,0.015237818370855586,-0.15162514636673685
2788,1.0,300.1345,5367.1997,0.0,-0.027880029544575802,0.0,0.0,0.0,0.0,-0.37656118688369566,-0.8082558043036372,-0.4466776986361566,-0.0036381384201313064,-0.008766708056931721,-0.14265678867162887
2789,1.0,299.62631,5475.7254,0.0,-0.027890058522052508,0.0,0.0,0.0,0.0,-0.3519220247319996,-0.8404749992609243,-0.4720867788763375,0.008224280219948261,-0.02180866522259768,-0.15901980506653285
2790,1.0,299.76011,5647.6617,0.0,-0.02790005450947175,0.0,0.0,0.0,0.0,-0.3951697377527166,-0.8481788816262382,-0.4733995153083946,0.01185619444736529,-0.007758068042236702,-0.15205984079213786
2791,1.0,299.30316,5703.4678,0.0,-0.027910050496891103,0.0,0.0,0.0,0.0,-0.37743541906997563,-0.8416154933084822,-0.5146608832305745,0.030882336080099267,-0.004117142880355367,-0.14616490369785287
2792,1.0,299.4458,5492.7758,0.0,-0.027920046484310568,0.0,0.0,0.0,0.0,-0.36620840531195564,-0.8226515247018842,-0.48080676870693356,-0.0035084939817613967,0.0003057809557857307,-0.12205570174595988
2793,1.0,300.3119,5274.2972,0.0,-0.02793004247172992,0.0,0.0,0.0,0.0,-0.3195937128714437,-0.8064205043975072,-0.47724045259496556,-0.013942620284779486,-0.01235450882004509,-0.15482103850714685
2794,1.0,300.074,5453.1768,0.0,-0.027940038459149052,0.0,0.0,0.0,0.0,-0.3883474336369076,-0.7987659977095662,-0.47051612976382656,-0.01164366523889029,0.014392594521688486,-0.13078453724992886
2795,1.0,299.92902000000004,5581.7878,0.0,-0.027950034446568295,0.0,0.0,0.0,0.0,-0.38392961253840263,-0.8150608831677462,-0.4977336182524836,-0.007357432499072053,0.013564981972509486,-0.15621554422227385
2796,1.0,300.65013999999996,5435.0033,0.0,-0.027960030433987648,0.0,0.0,0.0,0.0,-0.36105763962111465,-0.8037590003598373,-0.48728865118664555,-0.00025523058717429774,0.00948324468509838,-0.1268073076924069
2797,1.0,300.42837000000003,5336.4255,0.0,-0.027970059411464465,0.0,0.0,0.0,0.0,-0.3436817682937497,-0.7861144860334592,-0.49234383699555356,-0.02593904753273468,-0.01107961119972249,-0.11438753644667088
2798,1.0,300.57786,5612.4851,0.0,-0.027980055398883708,0.0,0.0,0.0,0.0,-0.3759859242719216,-0.8154558277917242,-0.5146135847159065,-0.004205520681902577,0.012845486248750789,-0.10857722600073788
2799,1.0,300.44316000000003,5741.8172,0.0,-0.027990051386303283,0.0,0.0,0.0,0.0,-0.3925379523404796,-0.8291896324296453,-0.5236414809868905,0.0069678993399031235,-0.0055630869460839335,-0.1301227532121159
2800,1.0,300.31127999999995,5679.4055,0.0,-0.028000047373722414,0.0,0.0,0.0,0.0,-0.42191331903710255,-0.8164524605900843,-0.4880316776174765,0.017007479935507584,-0.003292640401033307,-0.12649969509454786
2801,1.0,299.93071000000003,5638.2168,0.0,-0.02801004336114188,0.0,0.0,0.0,0.0,-0.3844341908232006,-0.8385558833065222,-0.4908870467967795,0.024859391047680875,-0.03481839728605827,-0.15351471594822286
2802,1.0,299.98957,5498.0689,0.0,-0.02802003934856101,0.0,0.0,0.0,0.0,-0.37587048468802864,-0.8230975472634032,-0.47230762686813355,0.018707321475518884,-0.0037896564963599763,-0.15081280349656487
2803,1.0,300.16789,5447.7778,0.0,-0.028030035335980252,0.0,0.0,0.0,0.0,-0.34861654959327465,-0.8332680248771512,-0.4741038355854056,0.004000567848400307,0.003758596023819546,-0.17023925997880682
2804,1.0,300.01134,5472.3861,0.0,-0.028040031323399606,0.0,0.0,0.0,0.0,-0.35015362972997266,-0.8174671393727252,-0.4958479496838825,-0.004497975970190665,0.004705408328012646,-0.13071550452061587
2805,1.0,299.39068,5333.9843,0.0,-0.02805002731081896,0.0,0.0,0.0,0.0,-0.3195761836447137,-0.8152023227492052,-0.4866195312181086,-0.024910758774750477,0.0077573776136185615,-0.16292349293179684
2806,1.0,299.40089,5252.3953,0.0,-0.028060056288295776,0.0,0.0,0.0,0.0,-0.34245167253984865,-0.8149259587844303,-0.43921940783008057,-0.010606298773260189,0.02269710114877948,-0.14353844798114185
2807,1.0,299.66225,5494.3751,0.0,-0.02807005227571524,0.0,0.0,0.0,0.0,-0.34854030252324963,-0.8363876091525302,-0.4852249140454705,-0.0023658160762628677,0.0016083292492797385,-0.17287563541399684
2808,1.0,300.51457999999997,5735.6361,0.0,-0.028080048263134372,0.0,0.0,0.0,0.0,-0.40246752974295263,-0.8398809915223002,-0.5011416343013285,-0.0028169732826636173,-0.004587399851141116,-0.12725298574889188
2809,1.0,300.42123,5628.6054,0.0,-0.028090044250553725,0.0,0.0,0.0,0.0,-0.36949669572898464,-0.8428505641203742,-0.4986082354738015,-0.002721391475555427,-0.014326959219960788,-0.14502105579246385
2810,1.0,299.72148,5569.4093,0.0,-0.028100040237972967,0.0,0.0,0.0,0.0,-0.38131876087323163,-0.8182454674370402,-0.4933971206070045,0.018925831899334184,0.012193316941136687,-0.11925493661454589
2811,1.0,299.77335,5611.3987,0.0,-0.02811003622539221,0.0,0.0,0.0,0.0,-0.3761174238698996,-0.8379841265400942,-0.49162353776446555,0.009084472711517652,0.014536964422436686,-0.13084334628573288
2812,1.0,300.56165,5520.9478,0.0,-0.028120032212811785,0.0,0.0,0.0,0.0,-0.3932936342650596,-0.8091427831761752,-0.4757938759571996,0.0039412740737484655,0.004089919484618626,-0.1264573412403679
2813,1.0,299.85292000000004,5578.7025,0.0,-0.028130028200230917,0.0,0.0,0.0,0.0,-0.3693943878663877,-0.8273598952665642,-0.49903197666562155,0.004085967099953556,-0.028372488224646573,-0.14423471291985784
2814,1.0,300.05506,5629.5942,0.0,-0.028140057177707734,0.0,0.0,0.0,0.0,-0.39550973382377164,-0.8288102817247062,-0.4869360502843465,-0.002871243363319657,-0.004822346812778575,-0.14296227344427787
2815,1.0,299.56105,5302.5917,0.0,-0.028150053165127087,0.0,0.0,0.0,0.0,-0.33786589510476767,-0.7997303179622373,-0.47425925801824453,0.006889660118856514,0.005497276858713984,-0.14029685826122187
2816,1.0,299.88676,5390.2944,0.0,-0.02816004915254633,0.0,0.0,0.0,0.0,-0.35655815056454965,-0.8124151149041293,-0.4695416263476505,-0.02182687940639528,0.01071703485018899,-0.12105096294679989
2817,1.0,299.71274,5761.5617,0.0,-0.028170045139965683,0.0,0.0,0.0,0.0,-0.4000194161763426,-0.8416167294736042,-0.5097347348219016,-0.015805111770593086,0.004343147403235276,-0.11662048635454589
2818,1.0,299.4907,5730.3108,0.0,-0.028180041127384925,0.0,0.0,0.0,0.0,-0.3941100301356316,-0.8408968862050612,-0.5068644708661285,-0.0041443398302644955,0.016843111517535682,-0.1327805082244159
2819,1.0,300.27018,5578.6312,0.0,-0.02819003711480428,0.0,0.0,0.0,0.0,-0.34858456128761767,-0.8645006891395751,-0.48267933595174156,0.00845475236516909,0.0069170959931392235,-0.16066960927685586
2820,1.0,300.47224,5596.516,0.0,-0.02820003310222363,0.0,0.0,0.0,0.0,-0.38275916681788863,-0.8269435305354722,-0.49149843177461855,-0.005712251850280365,-0.006477198528474724,-0.13013546950087088
2821,1.0,300.3486,5648.3583,0.0,-0.028210029089642874,0.0,0.0,0.0,0.0,-0.37246188095412563,-0.8449194384395562,-0.49957855416706454,0.007568773570479793,-0.017260378041216683,-0.16169018517507885
2822,1.0,300.23445,5593.3966,0.0,-0.02822005806711969,0.0,0.0,0.0,0.0,-0.38168628694950363,-0.8314753220052252,-0.4870913105971696,0.0038617609946761363,0.014616499489036185,-0.13799275793132487
2823,1.0,300.41342000000003,5482.6192,0.0,-0.028230054054539044,0.0,0.0,0.0,0.0,-0.3629163050745507,-0.8283311562824203,-0.4753318643091025,0.002030421781862028,0.013613377837035786,-0.15489343522679186
2824,1.0,300.08656,5353.1445,0.0,-0.028240050041958287,0.0,0.0,0.0,0.0,-0.3503477684491327,-0.8122278966831522,-0.4646465847170476,-0.005058288988664256,-0.0025706923080575776,-0.14060416688405086
2825,1.0,300.4084,5473.3506,0.0,-0.02825004602937764,0.0,0.0,0.0,0.0,-0.3523539428521267,-0.8211724936634152,-0.49023546618747355,-0.00028706105886322074,-0.006679392687254733,-0.15652335947015286
2826,1.0,299.65879,5710.8198,0.0,-0.028260042016796882,0.0,0.0,0.0,0.0,-0.39497299498079963,-0.8338226273193863,-0.5071509977294065,0.007894927935893721,-0.009088766358816402,-0.13465956026986386
2827,1.0,299.36987,5683.3828,0.0,-0.028270038004216236,0.0,0.0,0.0,0.0,-0.36840549629879166,-0.8413751301197602,-0.5178258408454315,0.004367827237245985,-0.01020210925536979,-0.13978994950119386
2828,1.0,299.97301,5473.3899,0.0,-0.02828003399163559,0.0,0.0,0.0,0.0,-0.36736164604577165,-0.8083539173108202,-0.48805829569760356,-0.016407569001800987,-0.006127618732673885,-0.11243519602148988
2829,1.0,300.23017000000004,5637.3095,0.0,-0.02829002997905483,0.0,0.0,0.0,0.0,-0.39231566553354164,-0.8256262446104662,-0.49565941423777554,-0.018982390506666082,5.4388039179681555e-05,-0.11680761338301389
2830,1.0,299.63101,5878.6309,0.0,-0.02830005895653165,0.0,0.0,0.0,0.0,-0.4211150603433206,-0.8434206692891393,-0.5224212745539655,-0.008447441056422523,0.01818910484437488,-0.13468552986992688
2831,1.0,299.67929,5662.2871,0.0,-0.028310054943951002,0.0,0.0,0.0,0.0,-0.39020573432030764,-0.8299962504367522,-0.5009919063340516,-0.001212892084428129,0.008992048799671122,-0.12975900655871686
2832,1.0,300.32049,5427.6812,0.0,-0.028320050931370244,0.0,0.0,0.0,0.0,-0.3444859747656187,-0.8199491562876813,-0.48544442454713455,0.016462677648239787,-0.011028560619934189,-0.14321237396646086
2833,1.0,300.56517,5541.7383,0.0,-0.028330046918789598,0.0,0.0,0.0,0.0,-0.3476520773530887,-0.8245173740985292,-0.5123806246755305,0.013641727561583685,-0.018586401221834983,-0.13797439783951287
2834,1.0,300.38392999999996,5602.0316,0.0,-0.02834004290620873,0.0,0.0,0.0,0.0,-0.37679577454684765,-0.8344654433153272,-0.49161651594127254,0.028906070793557073,-0.004627865817734796,-0.14173344425300186
2835,1.0,300.26248,5522.8891,0.0,-0.028350038893628193,0.0,0.0,0.0,0.0,-0.36414771805358165,-0.8272607791417822,-0.4874118826638075,-0.009084721160442172,-0.002909073461103197,-0.14350054229490086
2836,1.0,299.94248999999996,5544.9786,0.0,-0.028360034881047547,0.0,0.0,0.0,0.0,-0.3705438289123286,-0.8279641469636992,-0.4870270705408295,-0.0033627464661772364,-0.0016557384108586586,-0.14675216319081086
2837,1.0,299.93041,5501.7042,0.0,-0.02837003086846679,0.0,0.0,0.0,0.0,-0.3722135434871166,-0.8270150254625283,-0.47315214042898057,-0.02780924478555877,0.005207149917830685,-0.14705980618617284
2838,1.0,299.72968,5557.9535,0.0,-0.028380059845943495,0.0,0.0,0.0,0.0,-0.36254555686296064,-0.8433157877712881,-0.4836177271343536,0.012239267833171688,0.017142474233080483,-0.16027339809025284
2839,1.0,299.82302999999996,5706.816999999999,0.0,-0.02839005583336296,0.0,0.0,0.0,0.0,-0.3703042661911856,-0.8516314097519763,-0.5127942029688475,-0.005368669481821425,0.0005179946483120915,-0.15265420316829686
2840,1.0,300.07221,5549.9301,0.0,-0.02840005182078209,0.0,0.0,0.0,0.0,-0.37983141105144164,-0.8265883357129172,-0.48062043201354354,-0.0014722182487716287,-0.02290158109846008,-0.13113408826942688
2841,1.0,300.30703,5370.1582,0.0,-0.028410047808201555,0.0,0.0,0.0,0.0,-0.3454535475511107,-0.8144413111290992,-0.47249912100453256,-0.008912343304404801,-0.011325525985742388,-0.14375173712719186
2842,1.0,300.40227999999996,5523.0721,0.0,-0.02842004379562091,0.0,0.0,0.0,0.0,-0.38501114556264165,-0.8207172606584872,-0.4731475909360315,0.004770266973538695,0.012024634104238988,-0.15191827962066687
2843,1.0,300.41657000000004,5654.1384,0.0,-0.02843003978304004,0.0,0.0,0.0,0.0,-0.3957287174353836,-0.8180036755656772,-0.5049844967630895,0.012528025873169887,0.02382992590633058,-0.14120429465327886
2844,1.0,299.95964,5557.5233,0.0,-0.028440035770459504,0.0,0.0,0.0,0.0,-0.3613487058448407,-0.8331262509231591,-0.49487336520769853,-0.0015172630925672085,-0.0034819845220451164,-0.15317787108497885
2845,1.0,299.83808999999997,5622.7212,0.0,-0.028450031757878635,0.0,0.0,0.0,0.0,-0.3629907688243997,-0.8341189928411352,-0.5120570736535985,0.006490346968397374,-0.002865994119851597,-0.13200508818788786
2846,1.0,299.4896,5734.915,0.0,-0.0284600277452981,0.0,0.0,0.0,0.0,-0.41156917035621465,-0.8441188492705443,-0.4875829395456896,-0.0033227733444321965,-0.0005103889397489665,-0.14340710037067886
2847,1.0,299.19291,5651.5559,0.0,-0.028470056722774806,0.0,0.0,0.0,0.0,-0.3889127157351966,-0.8317006688274653,-0.49731849981901455,0.0008686249210216053,0.011258866288163591,-0.12031484688165088
2848,1.0,299.677,5609.2885,0.0,-0.028480052710194048,0.0,0.0,0.0,0.0,-0.3893340251267767,-0.8374539028952651,-0.4782957019116106,-0.012154635105319089,-0.008668429586007392,-0.14426723824806786
2849,1.0,300.22412,5703.9154,0.0,-0.0284900486976134,0.0,0.0,0.0,0.0,-0.3887912067832046,-0.8377718101141401,-0.5072848379351155,-0.015890246057245185,0.01188457051641579,-0.1277927744746649
2850,1.0,300.31797,5655.1313,0.0,-0.028500044685032866,0.0,0.0,0.0,0.0,-0.35700134615828966,-0.8518593099644682,-0.5101580504486795,0.014369811593189985,0.0065988249161533135,-0.15535935802027484
2851,1.0,299.76052000000004,5559.7353,0.0,-0.028510040672451997,0.0,0.0,0.0,0.0,-0.3496480483275757,-0.8342312812172171,-0.5061413649322635,0.006361950246200603,-0.0005067590219282215,-0.13934091758687786
2852,1.0,299.50569,5605.7687,0.0,-0.02852003665987146,0.0,0.0,0.0,0.0,-0.37290452939281166,-0.8341268556619111,-0.49698232370083656,-0.00020452840330038177,-0.028243313022397975,-0.14481862868748585
2853,1.0,299.50473999999997,5673.8381,0.0,-0.028530032647290593,0.0,0.0,0.0,0.0,-0.3842877052562437,-0.8442327487142851,-0.4961846425596115,-0.0015444943916547286,-0.024441794204467276,-0.14193490877038487
2854,1.0,300.0174,5587.514,0.0,-0.028540028634709946,0.0,0.0,0.0,0.0,-0.3843029749352506,-0.8363715390059441,-0.47779024209922555,0.011623465084896688,0.00039819343817113265,-0.16033830689165884
2855,1.0,300.29942,5536.3292,0.0,-0.028550057612186763,0.0,0.0,0.0,0.0,-0.35705791591137265,-0.8357464143567491,-0.4901014942592515,0.009599443902591352,0.01059187515808669,-0.16396698854728184
2856,1.0,299.43804,5559.2263,0.0,-0.028560053599606006,0.0,0.0,0.0,0.0,-0.3645365730444587,-0.8224719869166651,-0.5028574112256625,0.00997329813103789,-0.005511944464511564,-0.14077843576874988
2857,1.0,299.69457,5641.0765,0.0,-0.02857004958702536,0.0,0.0,0.0,0.0,-0.36095426784591267,-0.8493921270309762,-0.5043999933104035,0.00021606990962443978,0.02878654173226047,-0.13949843744742388
2858,1.0,300.60605,5720.1206,0.0,-0.028580045574444712,0.0,0.0,0.0,0.0,-0.3901990975321526,-0.8472837866203993,-0.5012909569685655,0.012399645058999688,0.006826349010208193,-0.1195668656578309
2859,1.0,300.39367000000004,5702.3613,0.0,-0.028590041561863955,0.0,0.0,0.0,0.0,-0.3984021068967266,-0.8261510068372562,-0.5088223335043545,0.006667167115523164,-0.006740828067317933,-0.12338855119250187
2860,1.0,299.70074,5549.2014,0.0,-0.028600037549283308,0.0,0.0,0.0,0.0,-0.38926969387792765,-0.8236834895312312,-0.4738654684993806,-0.023606145568745178,-0.040644649195814564,-0.11834945579518188
2861,1.0,299.84937,5650.9253,0.0,-0.02861003353670255,0.0,0.0,0.0,0.0,-0.37339874212908664,-0.8383209714033382,-0.5060204841953335,-0.017385566104321782,-0.02902192378349087,-0.14600453660452586
2862,1.0,299.14136,5898.5737,0.0,-0.028620029524121904,0.0,0.0,0.0,0.0,-0.3878052131108946,-0.8663377824983821,-0.5388761420704344,-0.017037976737017384,-0.001911730881048148,-0.15427358961061785
2863,1.0,299.85737,5736.3868,0.0,-0.02863005850159872,0.0,0.0,0.0,0.0,-0.38965441480839663,-0.8433134978260621,-0.5107504167221415,0.006842702866822193,0.02495205580907618,-0.14999598206095086
2864,1.0,300.48535,5483.2875,0.0,-0.028640054489017963,0.0,0.0,0.0,0.0,-0.3505610373301806,-0.8198914922244902,-0.49632996288895354,0.009395750234988351,-0.007414611114140144,-0.14539899807976386
2865,1.0,299.74301,5502.3566,0.0,-0.02865005047643754,0.0,0.0,0.0,0.0,-0.36644916366821667,-0.8286334391847532,-0.47749639957022555,0.0033804123803457264,-0.004006477426958536,-0.13530373402093887
2866,1.0,299.72123,5694.4361,0.0,-0.02866004646385667,0.0,0.0,0.0,0.0,-0.3919556679055126,-0.8455298202997962,-0.4934808961252725,0.028337061961400272,-0.01044827735391469,-0.14185675679017187
2867,1.0,299.74582999999996,5740.2431,0.0,-0.028670042451275912,0.0,0.0,0.0,0.0,-0.36477377489286866,-0.8604198547593281,-0.5196969287450935,0.02014255275191518,-0.010080101075053522,-0.15694556052182085
2868,1.0,299.77135,5601.2773,0.0,-0.028680038438695266,0.0,0.0,0.0,0.0,-0.35278033875920867,-0.8497590552896893,-0.5001090412569196,0.01672811269743618,-0.01787074672920538,-0.14482130366774987
2869,1.0,299.14062,5517.8293,0.0,-0.028690034426114508,0.0,0.0,0.0,0.0,-0.3580017178495187,-0.8307478692284311,-0.48853275005692853,-0.02019668867825798,0.008695871843765732,-0.13770192475512186
2870,1.0,299.52866,5656.5423,0.0,-0.02870003041353386,0.0,0.0,0.0,0.0,-0.37357115676610264,-0.8457023261293212,-0.5001741324433435,-0.018884299790985284,0.02736774537248618,-0.1340423085739459
2871,1.0,299.31885,5754.5572,0.0,-0.02871005939101068,0.0,0.0,0.0,0.0,-0.4074106906208046,-0.8423800715689401,-0.49945092518446854,-0.039127460171829664,0.017115267454645384,-0.14319880654762185
2872,1.0,299.87217999999996,5803.0028,0.0,-0.02872005537843003,0.0,0.0,0.0,0.0,-0.4131296565702226,-0.8381406736805442,-0.5126976301018166,-0.01002957424424191,-0.0096261465891017,-0.12998074621060088
2873,1.0,300.11543,5685.3085,0.0,-0.028730051365849385,0.0,0.0,0.0,0.0,-0.3530269233035447,-0.8538880899771932,-0.5212768085660155,0.005383316012016926,-0.004561487195733736,-0.17799249775649184
2874,1.0,300.07007000000004,5610.9043,0.0,-0.028740047353268627,0.0,0.0,0.0,0.0,-0.37139272984610866,-0.8359153231484191,-0.4982667397925985,0.02961908272992587,0.011296133626841589,-0.16425521767072784
2875,1.0,299.95524,5754.2994,0.0,-0.02875004334068787,0.0,0.0,0.0,0.0,-0.3965873658351256,-0.8460804204041361,-0.5064955465047185,0.016742272867583684,0.008969803400350671,-0.14987345985885886
2876,1.0,300.24199,5679.2135,0.0,-0.028760039328107223,0.0,0.0,0.0,0.0,-0.3988237101308356,-0.8292265653957902,-0.49828880837977657,-0.002662008940194828,-0.01185709016045369,-0.12809698255218788
2877,1.0,299.9816,5462.5478,0.0,-0.028770035315526465,0.0,0.0,0.0,0.0,-0.37557686507405064,-0.8166788003974222,-0.4682224760424606,-0.01055478716467639,0.0013714836596048986,-0.12318962993286989
2878,1.0,299.99109,5604.8362,0.0,-0.02878003130294604,0.0,0.0,0.0,0.0,-0.37451172643642966,-0.8349537082735152,-0.4942647970651375,-0.007628284889928102,0.0031320353965828274,-0.13183917861651387
2879,1.0,299.42715,5922.0791,0.0,-0.028790060280422636,0.0,0.0,0.0,0.0,-0.3833587271670606,-0.8859497853389362,-0.5308556494463734,-0.004144668325946916,-0.0006546147968629503,-0.15148080888999185
2880,1.0,299.79247999999995,5917.8877,0.0,-0.02880005626784199,0.0,0.0,0.0,0.0,-0.4018040333124706,-0.8691729576031921,-0.5279131103609676,-0.00984120547777636,-0.006921108362210214,-0.15319309010148086
2881,1.0,299.91126,5779.3146,0.0,-0.028810052255261343,0.0,0.0,0.0,0.0,-0.3937205874596966,-0.857967110639761,-0.5050796308149785,0.008835426273413681,0.011444163386950989,-0.15366532544308686
2882,1.0,300.17247000000003,5570.793000000001,0.0,-0.028820048242680585,0.0,0.0,0.0,0.0,-0.38487794370449563,-0.8374041624478562,-0.47109986314643654,0.0027699308162958875,0.025448208919292677,-0.14934561735176485
2883,1.0,299.69496000000004,5361.6767,0.0,-0.028830044230099716,0.0,0.0,0.0,0.0,-0.3636464024341057,-0.8067000702325983,-0.4594693833310976,-0.006800809230837614,0.006846510863348013,-0.14528175491069287
2884,1.0,300.05724,5577.7838,0.0,-0.02884004021751918,0.0,0.0,0.0,0.0,-0.36159590847173767,-0.8304682932608393,-0.5034427962059356,-0.019317479407486782,-0.018628249464215086,-0.14679202444974487
2885,1.0,299.32887,5733.7819,0.0,-0.028850036204938534,0.0,0.0,0.0,0.0,-0.36939016261347063,-0.8429872920888681,-0.5305490804961175,0.01841647208731428,-0.009922951253444041,-0.16228763796404283
2886,1.0,300.14079,5581.145,0.0,-0.028860032192357887,0.0,0.0,0.0,0.0,-0.3582127373153447,-0.8431328961282382,-0.4951830954982665,0.028527677609962575,-0.0027502496490035074,-0.16092579943213983
2887,1.0,300.07434,5554.1213,0.0,-0.028870061169834482,0.0,0.0,0.0,0.0,-0.37599156807497863,-0.8441215951783152,-0.46820103567034455,0.02174997575030548,-0.013161126827152087,-0.15555467210955085
2888,1.0,300.16591,5871.8275,0.0,-0.028880057157253947,0.0,0.0,0.0,0.0,-0.4145071194186676,-0.858965688878313,-0.5114161524353444,-0.015931428594309585,-0.02069211934115318,-0.11032958125368188
2889,1.0,299.8862,5954.3472,0.0,-0.0288900531446733,0.0,0.0,0.0,0.0,-0.4122679988176836,-0.8741470935366011,-0.5235577763961295,-0.003068222729135007,-0.003333634574904117,-0.13596931774662688
2890,1.0,300.44256,5771.6313,0.0,-0.028900049132092542,0.0,0.0,0.0,0.0,-0.36048729127232565,-0.8560573267187802,-0.5378871897078324,-0.005311079892512775,0.015439423730002485,-0.12596057511384087
2891,1.0,300.17932,5578.2868,0.0,-0.028910045119511674,0.0,0.0,0.0,0.0,-0.34058480989310363,-0.8411619524312212,-0.5139131350542776,-0.0025184625078028978,-0.0017174981322788682,-0.16332934012685082
2892,1.0,299.85641,5480.1411,0.0,-0.028920041106931027,0.0,0.0,0.0,0.0,-0.3471596682019917,-0.8303925426833633,-0.48827383425887555,-0.007384857632903702,-0.015065225401821985,-0.15188933106530986
2893,1.0,299.20162,5624.0077,0.0,-0.02893003709435049,0.0,0.0,0.0,0.0,-0.39607356697441765,-0.8284672357708502,-0.48501709644996055,0.0036269367376257867,-0.014803203992212485,-0.16854446746404383
2894,1.0,299.33715,5788.5694,0.0,-0.028940033081769845,0.0,0.0,0.0,0.0,-0.41849314398705756,-0.8382895707827391,-0.5027978321197825,-0.0037673900214374467,0.008946095678485902,-0.14331359765145085
2895,1.0,299.11279,5656.1227,0.0,-0.028950029069189087,0.0,0.0,0.0,0.0,-0.3870392264327976,-0.8358235024243571,-0.4964573486915256,-0.01089748456049799,0.007476260695274482,-0.14888375769118287
2896,1.0,299.24225,5561.0197,0.0,-0.028960058046665793,0.0,0.0,0.0,0.0,-0.3325207576472437,-0.8387197359801931,-0.5191706162456505,-0.008317802190928161,0.008679431455593191,-0.13496202555721487
2897,1.0,299.72485,5849.4968,0.0,-0.028970054034085257,0.0,0.0,0.0,0.0,-0.37422485506811765,-0.8675036381959431,-0.5363724720008415,0.016701142006274382,0.006345087839361415,-0.14373093510263885
2898,1.0,299.8559,5957.6245,0.0,-0.02898005002150439,0.0,0.0,0.0,0.0,-0.4023170215730986,-0.8688171041680722,-0.5398349603750625,0.007973719783544874,0.01087444933272459,-0.13594481735920888
2899,1.0,300.12669,5716.8172,0.0,-0.02899004600892363,0.0,0.0,0.0,0.0,-0.4092562851479506,-0.8398698559037011,-0.4886435388228625,0.014467927640123286,-0.015476079065620084,-0.1403412487481029
2900,1.0,300.30154,5625.3565,0.0,-0.029000041996342985,0.0,0.0,0.0,0.0,-0.38547586258850564,-0.8503111752691792,-0.47418086285800753,-0.013510901774922188,-0.02282795429319368,-0.13137539378074187
2901,1.0,300.05666,5638.3277,0.0,-0.02901003798376245,0.0,0.0,0.0,0.0,-0.37820240886567164,-0.8434294440350051,-0.49227895859165055,0.005475819869296344,-0.006616265280849544,-0.14318745814650186
2902,1.0,299.86701,5817.4451,0.0,-0.029020033971181802,0.0,0.0,0.0,0.0,-0.3493431309749827,-0.8803814694143862,-0.5386334585389835,0.00961122303632886,0.014657794496861686,-0.15428683278942487
2903,1.0,300.17007,5808.3695,0.0,-0.029030029958600934,0.0,0.0,0.0,0.0,-0.37776296229730166,-0.8636002340407072,-0.5242360966755745,0.006003928151891574,0.021613889169124777,-0.15121602637385986
2904,1.0,300.04829,5696.0267,0.0,-0.02904005893607775,0.0,0.0,0.0,0.0,-0.37627651426810066,-0.8533432755309243,-0.5018300870817735,-0.005298547812625955,0.011214190064754388,-0.15523807198330486
2905,1.0,299.61377999999996,5617.9528,0.0,-0.029050054923497215,0.0,0.0,0.0,0.0,-0.38447410274463967,-0.8494888620180232,-0.47375439602341857,-0.0015045475130872786,0.007588313592033244,-0.15903167022520387
2906,1.0,299.57518999999996,5690.7869,0.0,-0.029060050910916346,0.0,0.0,0.0,0.0,-0.4043812552068226,-0.8343581705272402,-0.49111768278454154,-0.0025512703301407776,0.02045981047747608,-0.13475474498425788
2907,1.0,299.24906,5971.0338,0.0,-0.02907004689833559,0.0,0.0,0.0,0.0,-0.4036483612769916,-0.8788755365857622,-0.5325212907557595,-0.0012868435350265688,-0.010982914716179291,-0.1276568672387519
2908,1.0,299.57151,5844.4488,0.0,-0.029080042885755164,0.0,0.0,0.0,0.0,-0.37091161843362663,-0.8645062417501231,-0.5411486289972115,0.004577310615920386,-0.0037247043278496967,-0.13235131574705786
2909,1.0,299.45706,5582.4034,0.0,-0.029090038873174295,0.0,0.0,0.0,0.0,-0.34470849462007963,-0.8561061755061011,-0.4960965708609196,0.007954752856247983,-0.009717022862745492,-0.13792898397003087
2910,1.0,300.26752999999997,5698.2175,0.0,-0.02910003486059376,0.0,0.0,0.0,0.0,-0.37601451818974363,-0.8708878124699352,-0.48521350484934456,0.017434551680406283,-0.012456208732582089,-0.15353583208030686
2911,1.0,299.71714,5898.7663,0.0,-0.02911003084801289,0.0,0.0,0.0,0.0,-0.4204845553360946,-0.8646313781374731,-0.5079617193994185,0.001205779676676189,-0.027549723063945975,-0.14022301259393385
2912,1.0,299.70384,5848.3859,0.0,-0.029120059825489708,0.0,0.0,0.0,0.0,-0.4255958346705386,-0.8607187331413253,-0.4914487014597105,0.0013022891142509287,-0.010418215236697791,-0.15002751440406287
2913,1.0,299.83132,5765.7031,0.0,-0.02913005581290906,0.0,0.0,0.0,0.0,-0.38670764033757266,-0.8671141144600001,-0.4988080078635176,-0.0011775352288136787,0.006411634863529094,-0.14710311249544686
2914,1.0,300.17562999999996,5593.3086,0.0,-0.029140051800328304,0.0,0.0,0.0,0.0,-0.34071429312338264,-0.8445855016040992,-0.5149263547567745,-0.004987482767701225,0.031617994156203075,-0.16546329549995584
2915,1.0,299.57993,5678.3056,0.0,-0.029150047787747657,0.0,0.0,0.0,0.0,-0.38134274450309863,-0.8394798458077102,-0.5052405045333556,-0.00022721720086459177,0.014118443495131886,-0.14143472799102086
2916,1.0,299.7708,5975.1937,0.0,-0.02916004377516712,0.0,0.0,0.0,0.0,-0.3998903281136026,-0.8802775403516292,-0.5361418258805785,-0.01194958570908229,0.0014980096181420387,-0.16299982106182984
2917,1.0,299.71692,5805.5225,0.0,-0.029170039762586253,0.0,0.0,0.0,0.0,-0.4171583693653256,-0.8456985264414463,-0.5018769701639005,-0.006496870880491234,0.0033149337270834867,-0.12998677504869588
2918,1.0,300.30716,5646.7334,0.0,-0.029180035750005606,0.0,0.0,0.0,0.0,-0.36950290695209764,-0.8485170133171092,-0.4984460141327915,-0.008360071134749783,-0.011897431699935089,-0.14855146232088787
2919,1.0,300.67533,5805.5107,0.0,-0.02919003173742485,0.0,0.0,0.0,0.0,-0.3947051828468686,-0.8553261654466201,-0.5146989409043305,0.0016907721410162183,-0.020716846696593582,-0.12511490644787987
2920,1.0,300.23618,5935.9264,0.0,-0.029200060714901666,0.0,0.0,0.0,0.0,-0.3919970085095926,-0.8686451961561061,-0.5437312211170935,0.004229788021797577,-0.022651904114818877,-0.14089797901554785
2921,1.0,299.85292000000004,5898.0711,0.0,-0.02921005670232102,0.0,0.0,0.0,0.0,-0.4076479329992186,-0.8726052815219362,-0.5126131149109755,0.018193419263300682,-0.0002088815891750078,-0.13721957717751787
2922,1.0,299.75959,5709.5838,0.0,-0.02922005268974026,0.0,0.0,0.0,0.0,-0.3511238167007226,-0.8687071969297251,-0.5157399033945655,0.01157050250216969,0.005823356446270535,-0.14285325786601885
2923,1.0,299.32277,5588.0184,0.0,-0.029230048677159615,0.0,0.0,0.0,0.0,-0.3742540772010016,-0.8508943310992322,-0.4734696524803165,-0.007945037915614192,-0.003708206995021536,-0.14394019151329085
2924,1.0,299.53816,5696.3902,0.0,-0.029240044664578968,0.0,0.0,0.0,0.0,-0.3709115880361236,-0.8434442273539643,-0.5172045564141156,-0.016133603400012686,-0.003482072370828786,-0.14106267268680187
2925,1.0,299.51302999999996,5837.431,0.0,-0.02925004065199821,0.0,0.0,0.0,0.0,-0.3910494676785777,-0.8686216684887842,-0.5147621170480655,-0.015746774909335685,0.003273294720849037,-0.15995964519678785
2926,1.0,299.82086,5723.7991,0.0,-0.029260036639417564,0.0,0.0,0.0,0.0,-0.36747044884150964,-0.8489104684634402,-0.5235110756990206,-0.014541586869392885,0.007837990069049392,-0.14389915488424085
2927,1.0,300.19884,5648.0512,0.0,-0.029270032626836806,0.0,0.0,0.0,0.0,-0.38543446118941965,-0.8322575814799281,-0.4991744801596855,-0.012327664785145789,-0.0029026799542972073,-0.15636939611745784
2928,1.0,300.21483,5829.3433,0.0,-0.029280061604313623,0.0,0.0,0.0,0.0,-0.3778574580016276,-0.8651037553340932,-0.5290135911620765,-0.005971187406710314,-0.0012474041934342089,-0.13870695739681088
2929,1.0,300.44867999999997,5963.9151,0.0,-0.029290057591732976,0.0,0.0,0.0,0.0,-0.42855148521223857,-0.8724702355486081,-0.5118595506791045,0.01041789808941649,0.008446324657462341,-0.15678112016309184
2930,1.0,300.5157,5897.1439,0.0,-0.02930005357915222,0.0,0.0,0.0,0.0,-0.3744684606571596,-0.8856375320556191,-0.5324785113365375,0.003503238354817707,0.0003030931579079657,-0.14666118346433185
2931,1.0,299.51095,5634.2444,0.0,-0.029310049566571572,0.0,0.0,0.0,0.0,-0.38212254178005867,-0.8520177924126092,-0.4785292763246625,0.007413532610733703,-0.002537792989235668,-0.15270697323350485
2932,1.0,299.34931,5659.876,0.0,-0.029320045553990925,0.0,0.0,0.0,0.0,-0.36883312837099563,-0.8536522458839171,-0.49797560264136553,0.006302827812140675,-0.005938023933587334,-0.15549758559891685
2933,1.0,300.01962000000003,5752.0653,0.0,-0.029330041541410168,0.0,0.0,0.0,0.0,-0.4142055559239056,-0.8457477096013002,-0.48853097686925356,0.007211213011591312,0.0036052590623363665,-0.15041649098495186
2934,1.0,299.98211000000003,5839.4537,0.0,-0.02934003752882952,0.0,0.0,0.0,0.0,-0.37846731297181563,-0.8782982272087861,-0.5182825633280065,0.008852050870454401,0.008119945046551183,-0.14892279821753585
2935,1.0,300.23112000000003,5846.4912,0.0,-0.029350033516248764,0.0,0.0,0.0,0.0,-0.4075473476617916,-0.8603937230392491,-0.5092462672136935,-0.008153676649005232,0.00994883867892393,-0.1305005131143979
2936,1.0,300.61027,5811.4292,0.0,-0.029360029503668117,0.0,0.0,0.0,0.0,-0.37430321983085163,-0.8548964359467092,-0.5373296995028125,-0.012925695126666787,0.005275595367385724,-0.14087651837842985
2937,1.0,300.67134,5848.084,0.0,-0.029370058481144934,0.0,0.0,0.0,0.0,-0.3920312867604756,-0.8625169480937952,-0.5231232846207484,-0.008525465975072982,0.015082965384572785,-0.14913145681062884
2938,1.0,301.06005,5957.8614,0.0,-0.029380054468564287,0.0,0.0,0.0,0.0,-0.4086847310315426,-0.8786179684103421,-0.5237383882264545,0.003965462684110696,0.0026838544097008074,-0.16443068219054485
2939,1.0,300.5669,5877.1448,0.0,-0.02939005045598353,0.0,0.0,0.0,0.0,-0.4124949060450776,-0.8754613903738121,-0.4985489704754525,0.0004013119180039026,-0.007614835008100702,-0.16473118177270182
2940,1.0,299.85736,5663.269,0.0,-0.029400046443402883,0.0,0.0,0.0,0.0,-0.37151807901597966,-0.8555880298024641,-0.49438624522212354,0.001035196793190969,-0.009723814576840783,-0.16157341823355484
2941,1.0,300.01399,5623.111,0.0,-0.029410042430822014,0.0,0.0,0.0,0.0,-0.3624111087071917,-0.8604261774399522,-0.48644804877118447,-0.006988576836018834,0.00024371510111280775,-0.16033818530164684
2942,1.0,299.90381,5620.8395,0.0,-0.02942003841824148,0.0,0.0,0.0,0.0,-0.34303292345971365,-0.8505587831961161,-0.5150031489818535,-0.00034713473211703066,-0.004770686763055126,-0.14383166229507985
2943,1.0,299.79589,5765.2169,0.0,-0.02943003440566061,0.0,0.0,0.0,0.0,-0.37515896020280665,-0.8626636059132691,-0.5146594241504305,0.003160803796072047,-0.001117118570401019,-0.13723274942881789
2944,1.0,300.39521,5867.6352,0.0,-0.029440030393080074,0.0,0.0,0.0,0.0,-0.3914967872002246,-0.8656535955008582,-0.5264642032479715,0.018638265441453583,0.002145517367346078,-0.14098269685640888
2945,1.0,300.02578,5928.1286,0.0,-0.02945005937055678,0.0,0.0,0.0,0.0,-0.41672394851745165,-0.8698770752301832,-0.5154020452812215,0.02445192974521758,0.0045252988670872255,-0.14224532807102086
2946,1.0,299.60911,5951.669,0.0,-0.029460055357976245,0.0,0.0,0.0,0.0,-0.4026399139824656,-0.872041539563799,-0.5344773295438056,0.013965931116580087,0.002408782440128318,-0.14565773149279887
2947,1.0,299.63201000000004,6032.3287,0.0,-0.029470051345395376,0.0,0.0,0.0,0.0,-0.42464312626401357,-0.8680775025225792,-0.5409566586332655,-0.002268001775209348,-0.003272943629689387,-0.12775614548354988
2948,1.0,299.4682,5958.7074,0.0,-0.02948004733281484,0.0,0.0,0.0,0.0,-0.3850296069794636,-0.8690521477937692,-0.5572165160354885,-0.011641676228943989,-0.007954259200799263,-0.14842021603543487
2949,1.0,299.97123,5815.8645,0.0,-0.029490043320233972,0.0,0.0,0.0,0.0,-0.3967911912252416,-0.8502936460424493,-0.5207927485957425,-0.014402324762398788,0.003066393103429437,-0.13387256891719387
2950,1.0,300.077,5710.4,0.0,-0.029500039307653436,0.0,0.0,0.0,0.0,-0.37357449035893164,-0.8594537613189822,-0.5027907495015835,-0.0002598277231429997,-0.009041193658671341,-0.17085969328003883
2951,1.0,299.95609,5738.4256,0.0,-0.02951003529507279,0.0,0.0,0.0,0.0,-0.4039928663109916,-0.8581899142042502,-0.4821553032650236,-0.0024508442756294977,-0.005634729807654535,-0.14026134384521688
2952,1.0,300.78499,5791.0464,0.0,-0.02952003128249192,0.0,0.0,0.0,0.0,-0.3875713144578106,-0.8663558386151642,-0.5064063602309166,0.004976051482723045,-0.014890595800087383,-0.16063614162605283
2953,1.0,300.88456,5823.4807,0.0,-0.02953006025996896,0.0,0.0,0.0,0.0,-0.3959560704928216,-0.8713598451615212,-0.5028768048325766,0.015685922148079984,0.0048080492459175155,-0.13333492828163288
2954,1.0,299.59215,5728.642,0.0,-0.029540056247388202,0.0,0.0,0.0,0.0,-0.3403723820096387,-0.8737513585775452,-0.5272403933545755,0.01312913244199449,0.006965274312869053,-0.14818436180965786
2955,1.0,299.98573,5876.5405,0.0,-0.029550052234807334,0.0,0.0,0.0,0.0,-0.38719531761070264,-0.8781161360333151,-0.5210101211396956,-0.0037781341201978064,0.016771742233492086,-0.13086415844278687
2956,1.0,299.48483999999996,6089.6487,0.0,-0.029560048222226687,0.0,0.0,0.0,0.0,-0.39122366563576966,-0.901556957689244,-0.5583205330794465,-0.006278428243107623,0.009035617743371041,-0.15415473537388785
2957,1.0,299.89748,6033.0515,0.0,-0.02957004420964593,0.0,0.0,0.0,0.0,-0.42822676895269157,-0.8958705272005372,-0.5097997145508145,-0.0033863373603054765,0.01005331793648523,-0.16870276752716684
2958,1.0,300.20527999999996,5776.8135,0.0,-0.029580040197065283,0.0,0.0,0.0,0.0,-0.39114947546344764,-0.8661192548493152,-0.49873833678664153,-0.018657330755335183,-0.015751893848840886,-0.15434829654049084
2959,1.0,299.77845,5632.2786,0.0,-0.029590036184484747,0.0,0.0,0.0,0.0,-0.3806921163488866,-0.8530680362737602,-0.47831191391321054,-0.0047249926285954655,-0.008666256164542892,-0.17217956299279982
2960,1.0,300.25638,5738.2799,0.0,-0.02960003217190388,0.0,0.0,0.0,0.0,-0.3575129361337796,-0.8678243723825971,-0.5189564962345186,-0.012106995125367389,-0.008960730252330221,-0.14819893234609585
2961,1.0,300.58662000000004,5865.6355,0.0,-0.029610061149380917,0.0,0.0,0.0,0.0,-0.40196983142633363,-0.8746449539732363,-0.5063919518144945,0.011465210618028188,0.00886153499271541,-0.16157021636323884
2962,1.0,300.0114,5875.7464,0.0,-0.02962005713680005,0.0,0.0,0.0,0.0,-0.38031880461454365,-0.8844839468167691,-0.5212774266485765,-0.0006825477513797182,-0.0026504802818820374,-0.14053510375723488
2963,1.0,300.1526,5852.7733,0.0,-0.02963005312421929,0.0,0.0,0.0,0.0,-0.4056758747270916,-0.8739102767232292,-0.4995107880003765,0.013637896462955587,0.012809500671449288,-0.15037140135550184
2964,1.0,299.50431000000003,6015.0834,0.0,-0.029640049111638644,0.0,0.0,0.0,0.0,-0.4043532489740586,-0.8849011728104462,-0.5391807351829955,0.011412379757814188,0.0011645622838083488,-0.13379207632924986
2965,1.0,299.07462999999996,6103.1848,0.0,-0.029650045099057887,0.0,0.0,0.0,0.0,-0.4155216867437976,-0.8990673515310391,-0.5406267444007055,0.01204751430474709,0.014791811008088086,-0.14803278972719885
2966,1.0,299.09027000000003,6056.4316,0.0,-0.02966004108647724,0.0,0.0,0.0,0.0,-0.37906987254128366,-0.8929193349592771,-0.5690147799348865,0.008571594793825542,0.01049564476958949,-0.13930014440285388
2967,1.0,299.61039,5818.0962,0.0,-0.029670037073896594,0.0,0.0,0.0,0.0,-0.38860842659766565,-0.8616047392937671,-0.5183428010464515,-0.01041345194797769,0.012558358528163487,-0.1337966156896979
2968,1.0,299.83224,5729.8139,0.0,-0.029680033061315836,0.0,0.0,0.0,0.0,-0.35478897535994564,-0.8767215999206852,-0.5102097768662845,-0.0074604033312094835,0.0018636306829010283,-0.15751402422542385
2969,1.0,300.22855,5784.2127,0.0,-0.029690062038792764,0.0,0.0,0.0,0.0,-0.4166848573285936,-0.8501823810489681,-0.4913889906313175,-0.017591549717150785,-0.00017756676046197482,-0.14751882874647487
2970,1.0,300.07818,5807.6147,0.0,-0.029700058026212006,0.0,0.0,0.0,0.0,-0.3876763378306756,-0.8668350856474623,-0.5108584291828016,-0.007116657930809453,0.0027795808075982676,-0.16803235059850186
2971,1.0,300.58494,5792.0949,0.0,-0.02971005401363125,0.0,0.0,0.0,0.0,-0.4008037832112536,-0.8638908139043852,-0.4959576137422055,-0.01012257368214524,-0.018810962775247485,-0.15827954480847486
2972,1.0,299.77549,5779.5915,0.0,-0.029720050001050602,0.0,0.0,0.0,0.0,-0.35404930278694563,-0.8707801242493072,-0.5320220826964914,0.005627418904208005,-0.011867242926455688,-0.16939197011268584
2973,1.0,299.98941,5934.4167,0.0,-0.029730045988469955,0.0,0.0,0.0,0.0,-0.40023283704490564,-0.893164207110944,-0.5105174603916506,0.0027730171761004875,-0.007190890963610682,-0.15024039825007285
2974,1.0,299.724,6001.3311,0.0,-0.02974004197588942,0.0,0.0,0.0,0.0,-0.37406585586242563,-0.8912851145354922,-0.5589038206320125,0.0037500946528305264,-0.008678515072202752,-0.15241338401702986
2975,1.0,299.69603,5976.8854,0.0,-0.02975003796330855,0.0,0.0,0.0,0.0,-0.4085065915314616,-0.8828932758822823,-0.5254240614903175,-0.0006543551717898274,0.0019135014342728882,-0.13623094905494787
2976,1.0,299.08378999999996,5858.2092,0.0,-0.029760033950727793,0.0,0.0,0.0,0.0,-0.36829805125818765,-0.884037397365198,-0.5284138585603875,0.017423476856813284,0.007796130883568213,-0.14238130623444087
2977,1.0,299.10052,5792.2392,0.0,-0.029770029938147147,0.0,0.0,0.0,0.0,-0.3804066533982136,-0.8631721358734571,-0.5171173054480045,0.018881681552726882,0.006500721534846264,-0.13980307108998888
2978,1.0,299.41508,5779.3666,0.0,-0.029780058915623964,0.0,0.0,0.0,0.0,-0.37437266799270563,-0.8673211214554303,-0.5150893360353596,-0.004016532819625926,-0.0020638720047633083,-0.16069849703720684
2979,1.0,299.61709,5854.5733,0.0,-0.029790054903043095,0.0,0.0,0.0,0.0,-0.40768453159283063,-0.8652840327918851,-0.5066755402524825,-0.015385243220655286,-0.007036231406771974,-0.14266371930231286
2980,1.0,299.40102,5805.6213,0.0,-0.02980005089046256,0.0,0.0,0.0,0.0,-0.3881387446463116,-0.8637181864848481,-0.5129069979699795,-0.025814461340188975,-0.000988453255867741,-0.17568497264125685
2981,1.0,299.98971,5857.5107,0.0,-0.029810046877881913,0.0,0.0,0.0,0.0,-0.40505599871341463,-0.8784756067712922,-0.4970053954056135,-0.012498700388775688,-0.002810160290316227,-0.14911465712397085
2982,1.0,299.93322,5940.9106,0.0,-0.029820042865301266,0.0,0.0,0.0,0.0,-0.38360375130624264,-0.8851383543938542,-0.5371463620297184,-0.00031566675065138267,-0.0015294943384993385,-0.16974233173226383
2983,1.0,300.16931,6044.6376,0.0,-0.02983003885272051,0.0,0.0,0.0,0.0,-0.41583199458692255,-0.8831585143609592,-0.5384283767187434,0.013790920532807885,-0.003127981281607717,-0.14222557982657189
2984,1.0,300.28004,6045.0964,0.0,-0.02984003484013975,0.0,0.0,0.0,0.0,-0.3961059909776177,-0.9003522742478511,-0.5411001044499225,0.02887243595648757,-0.004247832891503466,-0.16288979223347083
2985,1.0,299.42357999999996,5925.9606,0.0,-0.029850030827559104,0.0,0.0,0.0,0.0,-0.4111067128780736,-0.8694315390287123,-0.5208057891245295,0.018748412820074282,-0.00954740570793058,-0.13176298220899388
2986,1.0,299.99096000000003,5814.1046,0.0,-0.02986005980503592,0.0,0.0,0.0,0.0,-0.36873035441335267,-0.8811687850070882,-0.5174434807876954,0.013689540807302489,0.003473751561007587,-0.15347539171184185
2987,1.0,300.37692999999996,5809.0380000000005,0.0,-0.029870055792455052,0.0,0.0,0.0,0.0,-0.39370136610529965,-0.8605603621506952,-0.5115407720651435,0.0007582262462436043,0.005203271905722956,-0.1230200017336289
2988,1.0,300.0255,5930.9297,0.0,-0.029880051779874517,0.0,0.0,0.0,0.0,-0.3711954601841397,-0.8877387391854922,-0.5439203341157575,-0.019203235458711783,0.014188436785539686,-0.16009458984510586
2989,1.0,299.59078,5972.0502,0.0,-0.02989004776729387,0.0,0.0,0.0,0.0,-0.4109517869377836,-0.8893258434796271,-0.5150764981565925,-0.012344382398545687,0.011689256427139789,-0.14578689048304586
2990,1.0,300.33402,5913.5101,0.0,-0.029900043754713224,0.0,0.0,0.0,0.0,-0.3889425154206376,-0.8836481877367862,-0.5249686967628765,-0.031351270252879475,-0.006935792382659413,-0.18364621039946985
2991,1.0,299.82285,5897.0887,0.0,-0.029910039742132466,0.0,0.0,0.0,0.0,-0.4105073146489176,-0.8794376674762403,-0.5026227425025025,-0.015725474365733485,-0.01163053149109409,-0.16688905998066786
2992,1.0,300.21667,6012.0958,0.0,-0.029920035729551597,0.0,0.0,0.0,0.0,-0.4138049573643696,-0.8850473847998761,-0.5286746488711256,-0.006930604947447453,0.0013218248801539587,-0.16991596226939984
2993,1.0,299.51707000000005,6078.89,0.0,-0.02993003171697106,0.0,0.0,0.0,0.0,-0.41691055878836863,-0.8884459269602862,-0.5424742742355425,0.01049541577506689,0.008054737336365681,-0.14253917060002086
2994,1.0,300.01678,5864.2919,0.0,-0.029940060694447768,0.0,0.0,0.0,0.0,-0.3579343367178687,-0.8817929774661911,-0.5428709920471955,0.01109755585899349,0.004335806000960736,-0.14530149302264087
2995,1.0,300.00412,5746.356,0.0,-0.02995005668186701,0.0,0.0,0.0,0.0,-0.3720299223039946,-0.8694858998965772,-0.5052329051576054,0.03080180194890117,0.01042972373133359,-0.12749242688002288
2996,1.0,300.59693,5908.882,0.0,-0.029960052669286585,0.0,0.0,0.0,0.0,-0.37426189949177363,-0.8869746979475871,-0.5349159655120955,0.02074194794132088,0.016892829673442484,-0.13848542039494685
2997,1.0,300.07119,6030.8531,0.0,-0.029970048656705828,0.0,0.0,0.0,0.0,-0.4317093804738986,-0.890843894779447,-0.5106754666122445,0.01109462756620449,0.005675570575460204,-0.15031559153999385
2998,1.0,300.31896,6069.6228,0.0,-0.02998004464412518,0.0,0.0,0.0,0.0,-0.39971537021883563,-0.9034039910315321,-0.5418944216008156,-0.00897485354017408,-0.009456558514564662,-0.14448291866435387
2999,1.0,300.00293,5941.2804,0.0,-0.029990040631544423,0.0,0.0,0.0,0.0,-0.4146638793416386,-0.8831067879433541,-0.5082302205434175,-0.014506425064422686,-0.022325307263086274,-0.15090093599026286
3000,1.0,300.09639,5946.18,0.0,-0.030000036618963555,0.0,0.0,0.0,0.0,-0.35395071355221563,-0.9001359149539981,-0.5534036153791845,-0.01637130376747188,0.0014651042198195285,-0.15518793636835687
3001,1.0,300.221,6007.2873,0.0,-0.030010032606382908,0.0,0.0,0.0,0.0,-0.43139813030818064,-0.8734626836240552,-0.5212045334363825,-0.013118644290209387,0.01680310840358768,-0.14747010154916587
3002,1.0,300.08903,6077.4129,0.0,-0.030020061583859725,0.0,0.0,0.0,0.0,-0.39461479080544765,-0.9049260244042452,-0.5478409331251906,-0.005551170618282885,0.015607458086836183,-0.15935422826203785
3003,1.0,300.18064,5977.0194,0.0,-0.03003005757127919,0.0,0.0,0.0,0.0,-0.4366138048004276,-0.8764996373537792,-0.5037512295363755,-0.010861322677679091,0.004851404900471386,-0.15452383198781486
3004,1.0,299.87358,5901.9183,0.0,-0.030040053558698543,0.0,0.0,0.0,0.0,-0.3778502335284146,-0.8888204849922522,-0.5273650737793806,0.011157282899388091,0.00923781494190135,-0.14805994482987886
3005,1.0,299.68916,5956.2929,0.0,-0.030050049546117674,0.0,0.0,0.0,0.0,-0.3996358604834886,-0.8866650892470311,-0.5242633632357655,0.02077310335539568,-0.00947594989232844,-0.1340901137136639
3006,1.0,299.6593,6005.7916,0.0,-0.03006004553353714,0.0,0.0,0.0,0.0,-0.35752662514263067,-0.9039191881773782,-0.5641648684637375,0.010301148373144189,-0.017341216147444785,-0.13441640051086587
3007,1.0,299.8526,5972.175,0.0,-0.03007004152095627,0.0,0.0,0.0,0.0,-0.38911982405563666,-0.9045458124367213,-0.5217264281653896,0.008003590193842851,-0.020400708612393178,-0.14264882452584285
3008,1.0,299.10591,5895.14,0.0,-0.030080037508375512,0.0,0.0,0.0,0.0,-0.3771563497274336,-0.8939886684523121,-0.5208303503069535,0.010688965795918791,0.005282889248230575,-0.16969546891513884
3009,1.0,299.35647,5877.6123,0.0,-0.030090033495795088,0.0,0.0,0.0,0.0,-0.4173148455782686,-0.8821514552190702,-0.48718107442352854,-0.006978398840089342,0.004048404094896377,-0.17186762381701381
3010,1.0,300.18076,5911.0004,0.0,-0.030100062473271683,0.0,0.0,0.0,0.0,-0.4002393319780466,-0.8815718660293691,-0.5149853259125945,-0.004822414193910225,-0.006635640243961703,-0.17323578502954082
3011,1.0,299.97305,5953.2993,0.0,-0.030110058460691036,0.0,0.0,0.0,0.0,-0.3956994851699986,-0.8896656976956682,-0.5242891403183095,-0.014457798178873587,-0.009396718598108922,-0.15099817760235987
3012,1.0,300.12611,5894.4885,0.0,-0.0301200544481105,0.0,0.0,0.0,0.0,-0.37210064716097463,-0.8757422531690312,-0.5439344182921475,0.0004911755900277565,-0.0005836586351501224,-0.15133019939512785
3013,1.0,300.27267,5956.3096,0.0,-0.03013005043552963,0.0,0.0,0.0,0.0,-0.4090631698113916,-0.8814339018957531,-0.5200723176421416,0.007628974913246202,0.0051589473814234645,-0.1296047493634929
3014,1.0,300.56817,6064.2075,0.0,-0.030140046422949096,0.0,0.0,0.0,0.0,-0.41117577600488964,-0.8953322076874092,-0.5368596629139235,-0.004916769056472326,5.0472109226709356e-05,-0.14593362936252785
3015,1.0,300.16122,6114.0513,0.0,-0.030150042410368227,0.0,0.0,0.0,0.0,-0.4409301894314216,-0.8949961531592432,-0.5225925948808735,-0.0001804491327564428,-0.0024013373823685473,-0.14305246283567885
3016,1.0,299.9067,5988.1395,0.0,-0.03016003839778758,0.0,0.0,0.0,0.0,-0.38671447977574763,-0.9011001946766652,-0.5324302198367715,0.004208213495368336,0.005446516372429314,-0.16725544108432686
3017,1.0,299.46625,5868.9523,0.0,-0.030170034385207045,0.0,0.0,0.0,0.0,-0.37130195276964967,-0.8743096695151461,-0.5384033190437705,0.017365132902805183,-0.0024424312600491976,-0.13602728578484788
3018,1.0,299.96249,5933.1656,0.0,-0.030180030372626176,0.0,0.0,0.0,0.0,-0.36970472610701566,-0.8908024224528541,-0.5430270426950965,0.009429134900608161,-0.01000071262574349,-0.16349085219279083
3019,1.0,300.45153,5912.5218,0.0,-0.030190059350102993,0.0,0.0,0.0,0.0,-0.3974542418256796,-0.8779681001937052,-0.5218366393787665,-0.0024242216358770475,-0.004804935123060175,-0.13747881721560287
3020,1.0,300.04472999999996,5821.5247,0.0,-0.030200055337522347,0.0,0.0,0.0,0.0,-0.39586837369666666,-0.8763671447707032,-0.49736261672836857,-0.0069139942319331035,0.00933370771546523,-0.18159062992159983
3021,1.0,299.4718,5913.6069,0.0,-0.03021005132494159,0.0,0.0,0.0,0.0,-0.43281391427540755,-0.8714238623028391,-0.4933510683899595,-0.014890977795375087,0.014164998284226488,-0.14545080555737686
3022,1.0,298.83934,5989.2311,0.0,-0.030220047312360943,0.0,0.0,0.0,0.0,-0.39968844816367866,-0.8933742741216761,-0.5275140012790785,-0.019758835952295283,0.0006038513518879883,-0.17195065966270884
3023,1.0,299.50304,6053.8642,0.0,-0.030230043299780185,0.0,0.0,0.0,0.0,-0.4009966148377846,-0.8923717644727361,-0.5468551725004035,-0.004984083110965706,-0.004772913785449915,-0.15114286971663984
3024,1.0,299.21672,6119.8214,0.0,-0.030240039287199538,0.0,0.0,0.0,0.0,-0.3941502460321006,-0.9029213597439002,-0.5632012980161405,2.6003266310822575e-05,0.017919565119023383,-0.14483130444623687
3025,1.0,299.41182000000003,5990.8722,0.0,-0.03025003527461889,0.0,0.0,0.0,0.0,-0.4043296402467286,-0.8929007722174451,-0.5238451442569905,0.01993953593537898,0.011014542304800689,-0.14729627849451085
3026,1.0,299.84188,5931.6537,0.0,-0.030260031262038134,0.0,0.0,0.0,0.0,-0.3936656490392746,-0.8857497393716932,-0.5236592229961415,0.004560668185677905,-4.9234333037050354e-05,-0.13903630420931487
3027,1.0,300.07287,6036.4525,0.0,-0.03027006023951495,0.0,0.0,0.0,0.0,-0.4244325728932336,-0.9036901429922731,-0.5068081240280675,0.005288349045069415,0.012926673926263387,-0.16735059540121783
3028,1.0,299.66019,6061.7023,0.0,-0.030280056226934304,0.0,0.0,0.0,0.0,-0.38831723878392765,-0.8984333204134652,-0.5558555691636735,0.009058602511289461,0.003758353046445567,-0.15051468505214285
3029,1.0,300.93212,6013.8587,0.0,-0.030290052214353547,0.0,0.0,0.0,0.0,-0.3915217739476906,-0.8982885776366802,-0.5382525271638885,0.011833618221887188,0.00902842609946128,-0.16743666086471184
3030,1.0,301.12892999999997,5905.1745,0.0,-0.0303000482017729,0.0,0.0,0.0,0.0,-0.37010945872695966,-0.890230473168907,-0.5346856638968666,0.001014724682870529,-0.013511077067189488,-0.13699606433795888
3031,1.0,300.01945,5978.3857,0.0,-0.030310044189192142,0.0,0.0,0.0,0.0,-0.4080990015462356,-0.8942663192447141,-0.5149146517181195,-0.005169791994593745,-0.008083596827038892,-0.16063552354349186
3032,1.0,299.77371,6142.0705,0.0,-0.030320040176611496,0.0,0.0,0.0,0.0,-0.4249340810302286,-0.8998835346190902,-0.5422184589827954,-0.016306528715079087,0.007369285600066862,-0.14715324811039487
3033,1.0,299.97952000000004,6193.5069,0.0,-0.03033003616403085,0.0,0.0,0.0,0.0,-0.44664126216256056,-0.9019334814264041,-0.5340967021437405,-0.007199671788977283,-0.0028894324185147775,-0.15931781205344384
3034,1.0,300.25667000000004,6114.9872,0.0,-0.03034003215145009,0.0,0.0,0.0,0.0,-0.3851191884208046,-0.9095986880354011,-0.5640855208484065,-0.01060731911611089,-0.0073068885443337535,-0.14532831375278787
3035,1.0,299.60508,5919.2626,0.0,-0.03035006112892691,0.0,0.0,0.0,0.0,-0.3959895989386306,-0.8827509953032402,-0.5205674524360075,-0.003766402305239966,0.0026095861157960976,-0.14984248480330187
3036,1.0,299.22238,5941.7755,0.0,-0.030360057116346262,0.0,0.0,0.0,0.0,-0.3711333479530096,-0.8815315792053932,-0.5534864485748595,0.02242563726148808,0.003130693752125417,-0.13965160033253984
3037,1.0,299.72053,6027.3213,0.0,-0.030370053103765504,0.0,0.0,0.0,0.0,-0.4261492009476516,-0.8835073155753831,-0.5224986665966035,0.008495998736989793,0.001963406940123178,-0.14281529138477186
3038,1.0,300.0873,5963.3064,0.0,-0.030380049091184858,0.0,0.0,0.0,0.0,-0.3874518320060186,-0.8986571574930562,-0.5265872523401155,0.008324861707024882,-0.008080653639473422,-0.15015391735403785
3039,1.0,300.38608,5839.5548,0.0,-0.03039004507860421,0.0,0.0,0.0,0.0,-0.3918894418789766,-0.8873208545792501,-0.4958685389259146,0.0033421964369241067,-0.014563002923506487,-0.15928681673288486
3040,1.0,300.10815,6024.4572,0.0,-0.030400041066023453,0.0,0.0,0.0,0.0,-0.3636354998630296,-0.9177835196931811,-0.5498655588125055,-0.007714562933293083,-0.007453323448785753,-0.15860209271280784
3041,1.0,299.91835,6130.3862,0.0,-0.030410037053442807,0.0,0.0,0.0,0.0,-0.42298063616243864,-0.8945637993415732,-0.5459398935525726,0.007686851353658163,-0.0030023742395862674,-0.16125065754670084
3042,1.0,299.80469,6073.9625,0.0,-0.03042003304086205,0.0,0.0,0.0,0.0,-0.3910005378312486,-0.907185734247261,-0.5481466509453624,0.00010239292494289492,-0.006896940827450062,-0.14310177771804586
3043,1.0,300.41026,6021.4043,0.0,-0.030430062018338755,0.0,0.0,0.0,0.0,-0.4146794833931786,-0.902810601375469,-0.5128664679659795,0.006629534905484153,0.009644661708179,-0.16238144465830084
3044,1.0,299.40045,5992.6193,0.0,-0.03044005800575822,0.0,0.0,0.0,0.0,-0.40257042529060766,-0.8853495461121972,-0.5336866702257735,6.622279021518054e-05,0.0024466683679923674,-0.14553767148844987
3045,1.0,300.03154,6080.3272,0.0,-0.03045005399317735,0.0,0.0,0.0,0.0,-0.41004962957874763,-0.9055212075129851,-0.5326968160705825,-0.0004207800291977556,0.016023407385387184,-0.16075025385231487
3046,1.0,300.09729,6080.0271,0.0,-0.030460049980596815,0.0,0.0,0.0,0.0,-0.39046909828629967,-0.8999131924495172,-0.5577941192549934,-0.0013522860152602387,-0.0028746399803048777,-0.14904193616429387
3047,1.0,299.97807,6053.5371,0.0,-0.03047004596801617,0.0,0.0,0.0,0.0,-0.40058993677764865,-0.9007668252612642,-0.5387673595396985,0.0007791553222266433,0.001815215059997778,-0.15147546906196485
3048,1.0,300.04714,6012.1239,0.0,-0.03048004195543541,0.0,0.0,0.0,0.0,-0.4049541366808616,-0.8993893522803181,-0.5231920539050355,0.012801491942658887,-0.017253875002074884,-0.14919859476225486
3049,1.0,300.67832000000004,6099.8707,0.0,-0.030490037942854764,0.0,0.0,0.0,0.0,-0.43381632259933756,-0.8971579830425992,-0.5232340733866825,0.006553084273514064,-0.008284830728699132,-0.14356872389412983
3050,1.0,300.61593,6165.6364,0.0,-0.030500033930273895,0.0,0.0,0.0,0.0,-0.42114018894580063,-0.9069226843888002,-0.5461366363244895,-0.006346892133814484,-0.005099904183521355,-0.15543286931502984
3051,1.0,300.39997,6110.6728,0.0,-0.030510062907750712,0.0,0.0,0.0,0.0,-0.4128965482522166,-0.906844096711044,-0.5377512926044206,-0.004189068641353886,-0.0007119652287504972,-0.15686544283641385
3052,1.0,299.82683,5964.5674,0.0,-0.030520058895170177,0.0,0.0,0.0,0.0,-0.3744043219258297,-0.8923674378948091,-0.5463078046638824,-0.0027883384295375774,0.01065778302409129,-0.16153472221223586
3053,1.0,299.89292,5995.234,0.0,-0.030530054882589308,0.0,0.0,0.0,0.0,-0.39826968524115763,-0.8917288370192842,-0.5324029127465765,-0.014556883906152588,0.021079082594093478,-0.15569547334344686
3054,1.0,299.81602000000004,6127.6359999999995,0.0,-0.03054005087000866,0.0,0.0,0.0,0.0,-0.4217364359671456,-0.8985956734769881,-0.5423162274849445,0.002975467687155797,0.008002086429369441,-0.15233467474926188
3055,1.0,299.89678,6107.4683,0.0,-0.030550046857428126,0.0,0.0,0.0,0.0,-0.42743343465439554,-0.8984380421589312,-0.5306463727707195,-0.005409150748491615,0.015739557528873384,-0.15602560035852783
3056,1.0,300.22007,6039.3252,0.0,-0.030560042844847257,0.0,0.0,0.0,0.0,-0.3949877782997586,-0.9073592533268862,-0.5334570272231095,-0.0023815277349634877,-0.008466043011033392,-0.15821185970179485
3057,1.0,300.36888999999996,6005.0842,0.0,-0.03057003883226672,0.0,0.0,0.0,0.0,-0.38522404967365365,-0.9027440004463961,-0.5374275997274746,0.00943784104944239,0.0025144995853367876,-0.15750692134222283
3058,1.0,299.642,6016.4033,0.0,-0.030580034819685853,0.0,0.0,0.0,0.0,-0.37121296914586766,-0.9013832055620961,-0.5562401989016335,0.0016773647143680087,0.004310224171711006,-0.15926103965034086
3059,1.0,299.72832,6064.24,0.0,-0.03059006379716267,0.0,0.0,0.0,0.0,-0.40390037684186364,-0.9078711979399112,-0.5316059408804215,0.024528226464497475,0.010560848426774589,-0.16351565655523884
3060,1.0,299.66222,5996.5507,0.0,-0.030600059784582023,0.0,0.0,0.0,0.0,-0.40401716404838967,-0.9020369241291132,-0.5167475806190155,0.005010312711004365,-0.00974650965655561,-0.15518918266597984
3061,1.0,300.221,5960.7512,0.0,-0.030610055772001266,0.0,0.0,0.0,0.0,-0.4245853912733156,-0.8918776429289702,-0.49545648050774754,-0.0012992146094724989,0.003652107086009906,-0.16767791571352184
3062,1.0,300.46169,6025.0619,0.0,-0.03062005175942084,0.0,0.0,0.0,0.0,-0.4034854002634086,-0.9037753573256831,-0.5242076040827626,-0.006683324097642733,-0.01419250397144109,-0.15754647862612683
3063,1.0,300.50094,6125.1391,0.0,-0.030630047746840083,0.0,0.0,0.0,0.0,-0.40300611270110664,-0.9067753882217632,-0.5521078508863024,0.0011602589093086388,0.013889345621021686,-0.16017507230054887
3064,1.0,300.25602000000003,6171.8298,0.0,-0.030640043734259215,0.0,0.0,0.0,0.0,-0.38563680723438964,-0.911085703484658,-0.5793596581558464,-0.001100406631201679,-0.0036313975711910365,-0.15398755923988885
3065,1.0,300.38391,6075.0291,0.0,-0.030650039721678568,0.0,0.0,0.0,0.0,-0.4054183268166736,-0.8964956518497321,-0.5447431641244644,-0.007389163236553633,-2.4989415353513276e-05,-0.14523021087810586
3066,1.0,300.17089,5974.7349,0.0,-0.03066003570909781,0.0,0.0,0.0,0.0,-0.4044637945599686,-0.8789670128047902,-0.5327394232372875,-0.005739657935010135,0.006708771671254213,-0.14359036691626587
3067,1.0,300.14027000000004,6064.503000000001,0.0,-0.030670031696517164,0.0,0.0,0.0,0.0,-0.4412708745125446,-0.8906921200469682,-0.5114944766680745,9.264167651827162e-05,0.010608339458961589,-0.14947317540685387
3068,1.0,299.73764,6167.7752,0.0,-0.03068006067399398,0.0,0.0,0.0,0.0,-0.4118663363455426,-0.9065131692283841,-0.5564701458793274,-0.002077955471878238,-0.011077723514786189,-0.14335377301791585
3069,1.0,299.47533,6065.6898,0.0,-0.030690056661413334,0.0,0.0,0.0,0.0,-0.39543903936429464,-0.9020969389325361,-0.5462822504963605,-0.005164962135342076,-0.016468437975058287,-0.15388867616262986
3070,1.0,299.31278,6102.4785,0.0,-0.0307000526488328,0.0,0.0,0.0,0.0,-0.3665828417539096,-0.9225385200274632,-0.5658797334629815,0.0051711646445042145,-0.023444127891005275,-0.15656432517169586
3071,1.0,299.55118,6097.7454,0.0,-0.03071004863625193,0.0,0.0,0.0,0.0,-0.39772079752948664,-0.9121393518661453,-0.5437021813692275,0.011077801535043888,-0.013645183757674787,-0.15527631204207887
3072,1.0,300.87329,6157.8266,0.0,-0.030720044623671172,0.0,0.0,0.0,0.0,-0.40439716323339264,-0.923057223018655,-0.5443711189527465,0.01992465331791018,-0.01114112054704299,-0.15664808042496187
3073,1.0,300.69017,6088.2537,0.0,-0.030730040611090526,0.0,0.0,0.0,0.0,-0.4365483893739716,-0.904059016691178,-0.5100696849074585,0.007469879752769733,0.003127181523303787,-0.15363867696545686
3074,1.0,299.65722,5958.7913,0.0,-0.030740036598509768,0.0,0.0,0.0,0.0,-0.38528559448472766,-0.8995481589684912,-0.5264900005955175,-0.0007252617653077634,0.0030535920056410674,-0.16375302052366486
3075,1.0,300.04246,5993.9548,0.0,-0.030750032585929343,0.0,0.0,0.0,0.0,-0.37663425234840664,-0.9073514006386111,-0.5380269168966225,-0.005378840891625265,0.013378001865305987,-0.15469273064698386
3076,1.0,299.91366,6094.0454,0.0,-0.030760061563405938,0.0,0.0,0.0,0.0,-0.38018499480633766,-0.9041810829307251,-0.5680715656817985,-0.004896725044319135,0.009336418970082812,-0.15516364876345987
3077,1.0,299.7052,6163.2777,0.0,-0.03077005755082529,0.0,0.0,0.0,0.0,-0.4088133631317376,-0.9185577542270922,-0.5461113962644984,-0.011406996360032888,0.010601056217242789,-0.16038716581148085
3078,1.0,300.07347999999996,6157.7116,0.0,-0.030780053538244645,0.0,0.0,0.0,0.0,-0.41856822581946757,-0.919703122007631,-0.5335192205142475,-0.012254106880886188,-0.0013174905002011888,-0.16511468680305086
3079,1.0,300.38131,6005.435,0.0,-0.030790049525663887,0.0,0.0,0.0,0.0,-0.4290427899207266,-0.8929361853084402,-0.5035233191913825,-0.01057890150380629,0.007204827408136103,-0.14659329570763188
3080,1.0,300.30924,6027.5014,0.0,-0.03080004551308313,0.0,0.0,0.0,0.0,-0.3953635724968466,-0.9176881120637651,-0.5191582343294285,0.00995538923949542,-0.0012416180287381589,-0.16130966923252485
3081,1.0,300.88858,6150.2953,0.0,-0.030810041500502483,0.0,0.0,0.0,0.0,-0.3968814819416526,-0.9121597283256561,-0.5604949677940465,0.006090559920866464,0.005447271649053854,-0.14418200364965586
3082,1.0,300.27017,6086.9083,0.0,-0.030820037487921836,0.0,0.0,0.0,0.0,-0.3932361728518886,-0.9160889196959372,-0.5409430506844225,0.023946785053613678,-0.0019032765248637683,-0.15844860558765986
3083,1.0,299.78963999999996,6067.5736,0.0,-0.0308300334753413,0.0,0.0,0.0,0.0,-0.3970972636829486,-0.9129564266142841,-0.5343371666574724,0.005184085711104425,0.006286517119980933,-0.15341012827290085
3084,1.0,299.30304,6039.0718,0.0,-0.030840062452817896,0.0,0.0,0.0,0.0,-0.41888515018574557,-0.8898105924599682,-0.5270312889314385,-0.0035535414600072366,-0.003943494915317647,-0.15621759098747584
3085,1.0,299.45783,6151.4476,0.0,-0.03085005844023725,0.0,0.0,0.0,0.0,-0.4412156118520906,-0.9087660598982271,-0.5199048071356095,-0.013267486676898987,0.008797039192050172,-0.14666058564677287
3086,1.0,299.41606,6237.9015,0.0,-0.030860054427656602,0.0,0.0,0.0,0.0,-0.4148745948324346,-0.9198433051589661,-0.5614483956081424,-0.01090176858192079,0.0028199018794276475,-0.16622974827309883
3087,1.0,300.31955,6186.313,0.0,-0.030870050415075845,0.0,0.0,0.0,0.0,-0.3979931084938616,-0.9228856797767251,-0.5596059117588035,-0.0006443323753781544,1.1640727826850387e-06,-0.14974721902889987
3088,1.0,300.0506,6035.0534,0.0,-0.030880046402494976,0.0,0.0,0.0,0.0,-0.38778993329938666,-0.9103715648141781,-0.5363440503355366,0.005557215263079444,-0.010017153115241042,-0.17169459109743684
3089,1.0,300.18818,6077.6526,0.0,-0.03089004238991444,0.0,0.0,0.0,0.0,-0.4028303746037626,-0.9095956482851012,-0.5350286186582135,0.024624013049450874,-0.001635090096345828,-0.15996733576504685
3090,1.0,300.12446,6197.0947,0.0,-0.030900038377333794,0.0,0.0,0.0,0.0,-0.4294988031282316,-0.9276912615559991,-0.5265719927936094,0.02197602779461508,-0.007907969883230863,-0.17252671260956084
3091,1.0,300.50672000000003,6177.3016,0.0,-0.030910034364753147,0.0,0.0,0.0,0.0,-0.43406184323106856,-0.9127658140054722,-0.5309177718100045,7.685085258733863e-05,0.0038746955375026765,-0.14109092209958984
3092,1.0,300.45656,5980.5275,0.0,-0.030920063342229964,0.0,0.0,0.0,0.0,-0.3792260853092006,-0.9001915930469931,-0.5385133478721296,-0.01188006357997099,0.01146509308101659,-0.16339649834347883
3093,1.0,301.05595,6087.2771,0.0,-0.030930059329649207,0.0,0.0,0.0,0.0,-0.3812363228450956,-0.9232565597108281,-0.5458873767998895,-0.010270699194389091,0.017469118707567784,-0.14260845664185887
3094,1.0,300.53393,6203.2184,0.0,-0.03094005531706856,0.0,0.0,0.0,0.0,-0.4107779638831286,-0.9111879505522492,-0.5636575949336735,0.002158544014606708,0.0012198848273432586,-0.15185074650150185
3095,1.0,301.033,6281.7,0.0,-0.030950051304487802,0.0,0.0,0.0,0.0,-0.43098813892021764,-0.9352690145488651,-0.5432227823494145,0.00017529933978569783,-0.011757619398136689,-0.15268877526170888
3096,1.0,300.40193,6122.2703,0.0,-0.030960047291906934,0.0,0.0,0.0,0.0,-0.42954181559497656,-0.9058936174547392,-0.5255818650608916,0.002770543427306347,-0.02081258464554218,-0.15523339076784284
3097,1.0,300.18901,6031.1442,0.0,-0.030970043279326398,0.0,0.0,0.0,0.0,-0.4154272619669786,-0.8972946603485881,-0.5205953269462585,0.007823129945732813,-0.015746477013806284,-0.16084946116960586
3098,1.0,299.88866,6130.6589,0.0,-0.03098003926674575,0.0,0.0,0.0,0.0,-0.3859489794576986,-0.9199679551862681,-0.5576502985357995,0.003140962028638817,-0.0037309997520460067,-0.16630062511759383
3099,1.0,299.97331,6236.4369,0.0,-0.030990035254165105,0.0,0.0,0.0,0.0,-0.41015938482957964,-0.9148353368047182,-0.5707263620038064,0.014469728185550987,0.003227783680682447,-0.17073574239530584
3100,1.0,299.67616,6151.0886,0.0,-0.03100006423164192,0.0,0.0,0.0,0.0,-0.3925974301213496,-0.9267994089504801,-0.5503805026458265,-0.0096666269438468,0.0008822191707232531,-0.14106609747213986
3101,1.0,299.59551,6061.8084,0.0,-0.031010060219061164,0.0,0.0,0.0,0.0,-0.41499410768172956,-0.9069055097996052,-0.5207387727629155,-0.0053033852712533755,0.013223757842333287,-0.16204989909307985
3102,1.0,300.06495,6154.1309,0.0,-0.031020056206480517,0.0,0.0,0.0,0.0,-0.4285133971409796,-0.9066518730345731,-0.5355368446433715,-0.01035605943581349,-0.005781015055066765,-0.1313726276079689
3103,1.0,300.5983,6240.7126,0.0,-0.03103005219389965,0.0,0.0,0.0,0.0,-0.4202090222364016,-0.9290197742921131,-0.5477919931453605,0.0023232450825864375,-0.011564836407610489,-0.15732922767218585
3104,1.0,300.19509,6268.4062,0.0,-0.031040048181319113,0.0,0.0,0.0,0.0,-0.3958450892093686,-0.920578276251502,-0.5890156175013154,-0.0010798224554201788,-0.008156571808515962,-0.1262127831962319
3105,1.0,299.99724,6169.6604,0.0,-0.031050044168738467,0.0,0.0,0.0,0.0,-0.4015773186025956,-0.9179378478159121,-0.5559075590263045,0.010198252825489189,0.011533888709806189,-0.15863907634145785
3106,1.0,300.64931,6138.1903,0.0,-0.03106004015615771,0.0,0.0,0.0,0.0,-0.38784665503998467,-0.9299824834771252,-0.5480274319385965,-0.0025703049425443475,0.012374167898485288,-0.16393618574424185
3107,1.0,300.37807999999995,6131.1437,0.0,-0.031070036143577062,0.0,0.0,0.0,0.0,-0.4303253314998036,-0.9024386980587651,-0.5309505504507396,-0.004498392922606816,-0.0038572125149772363,-0.17290765411715683
3108,1.0,301.06883,6140.6015,0.0,-0.031080032130996305,0.0,0.0,0.0,0.0,-0.4189146357636556,-0.9288157867819812,-0.5188591228999084,-0.0016113336371512486,0.005476630064076306,-0.16451262372613185
3109,1.0,300.46437000000003,5988.8001,0.0,-0.03109006110847301,0.0,0.0,0.0,0.0,-0.39440666923490764,-0.9082135244861961,-0.5178254862078965,-0.011842696942783188,0.002185546623146658,-0.17422477792214683
3110,1.0,300.01394,6035.2303,0.0,-0.031100057095892475,0.0,0.0,0.0,0.0,-0.36769967641163265,-0.912819435200764,-0.5540401998870105,0.0016242196452979985,0.009161204824365523,-0.16747762656625484
3111,1.0,300.34653,6142.9130000000005,0.0,-0.031110053083311606,0.0,0.0,0.0,0.0,-0.3908879150826336,-0.9286297945936252,-0.5477744537861295,-0.012386981459249888,0.0050782690647361356,-0.15980485097901084
3112,1.0,299.91475,6144.04,0.0,-0.03112004907073107,0.0,0.0,0.0,0.0,-0.3957923596741646,-0.9131284866137651,-0.5587139071657694,0.012376175146933387,0.01113078640927309,-0.14284193986240187
3113,1.0,299.1437,6218.8054,0.0,-0.031130045058150424,0.0,0.0,0.0,0.0,-0.4418802431226846,-0.9257965649290071,-0.5226847398449674,-0.005413690007614605,0.008604257620074112,-0.15164791409648387
3114,1.0,299.22071,6305.1016,0.0,-0.031140041045569555,0.0,0.0,0.0,0.0,-0.44456302541245457,-0.929556796845113,-0.5424736358879796,0.004557328513348306,0.006474238419632583,-0.15070787131620886
3115,1.0,299.94872000000004,6182.5476,0.0,-0.03115003703298902,0.0,0.0,0.0,0.0,-0.4079993382663996,-0.9150475721706642,-0.5562931817493625,-0.006369742342119624,-0.003202710097682877,-0.14330256335786187
3116,1.0,300.56082999999995,6172.2505,0.0,-0.03116003302040815,0.0,0.0,0.0,0.0,-0.39817902975471064,-0.9320476391684401,-0.5459833417168605,-0.01120640425098599,-0.007417800926779953,-0.14309435059481285
3117,1.0,300.72835,6242.0293,0.0,-0.031170061997884968,0.0,0.0,0.0,0.0,-0.4032451586646986,-0.9109127011625842,-0.5832631940335954,0.00861364872597594,-0.004078704123236756,-0.14879787461270685
3118,1.0,300.21531,6167.1371,0.0,-0.03118005798530432,0.0,0.0,0.0,0.0,-0.4075297576400556,-0.9247190443751641,-0.5424068728388906,-0.003213784212000807,0.003286718562148867,-0.17438635078309284
3119,1.0,299.86368999999996,6136.8431,0.0,-0.031190053972723564,0.0,0.0,0.0,0.0,-0.42502790798948864,-0.928584542844159,-0.5118346247266445,-0.0014510731377347685,-0.006436582398216224,-0.17201843596189784
3120,1.0,299.87807999999995,6207.0084,0.0,-0.031200049960142917,0.0,0.0,0.0,0.0,-0.44090459473389565,-0.9113321968364851,-0.5345387730298694,-0.0019161934371385685,-0.008736453422195822,-0.16594032351453486
3121,1.0,299.41291,6256.9757,0.0,-0.03121004594756238,0.0,0.0,0.0,0.0,-0.40980404815201066,-0.9405446937120341,-0.5516156545177265,0.012224565574220688,-0.004967928763296396,-0.16002228431796986
3122,1.0,299.61247000000003,6147.4251,0.0,-0.031220041934981513,0.0,0.0,0.0,0.0,-0.3896285262683416,-0.9186608828222701,-0.5603743201046395,0.008003681386351852,-0.008858278508219021,-0.16573481612925287
3123,1.0,299.57555,6151.6357,0.0,-0.031230037922400866,0.0,0.0,0.0,0.0,-0.36972569025158464,-0.9192937892322331,-0.5809241669727514,0.005394656509786145,-0.022986575556598377,-0.14033396347988386
3124,1.0,299.93021,6222.0363,0.0,-0.03124003390982011,0.0,0.0,0.0,0.0,-0.40389980942180764,-0.9396334171020981,-0.5478104342971805,-0.014198687836801385,0.004254802937616356,-0.16537612559385284
3125,1.0,299.64507000000003,6233.7534,0.0,-0.031250062887296925,0.0,0.0,0.0,0.0,-0.4486476189505726,-0.9065065223077281,-0.5397512253867985,-0.0019831188088935883,0.011367023643587888,-0.13192384579486988
3126,1.0,299.88397000000003,6252.5062,0.0,-0.03126005887471628,0.0,0.0,0.0,0.0,-0.4251211573961916,-0.9413394465604701,-0.5341451354985205,-0.008544274328729222,0.022586899054653376,-0.1865087331244788
3127,1.0,299.69144,6273.7462,0.0,-0.03127005486213563,0.0,0.0,0.0,0.0,-0.41583076855430157,-0.9329514785226422,-0.5582799321479395,0.002479308700088718,-0.004989974147047105,-0.14501236210660587
3128,1.0,300.47406,6169.7969,0.0,-0.031280050849554875,0.0,0.0,0.0,0.0,-0.39781617476139963,-0.9168249850985812,-0.5608230581764265,-0.008042095521493032,-0.001141385201020949,-0.17501636943027082
3129,1.0,300.44281,6168.5516,0.0,-0.03129004683697423,0.0,0.0,0.0,0.0,-0.3959391188186486,-0.9281850993897371,-0.5509614191931584,0.005036771913515685,-0.009671053225583641,-0.16171056163458983
3130,1.0,300.73419,6182.2655,0.0,-0.03130004282439347,0.0,0.0,0.0,0.0,-0.4191197783789016,-0.9162007521094742,-0.5439338002095865,0.0026489687153828574,0.0004897253656896305,-0.17549442082745084
3131,1.0,300.17553,6129.8748,0.0,-0.031310038811812824,0.0,0.0,0.0,0.0,-0.4234097374472876,-0.9153418503972071,-0.5245772883817474,0.005469770664874335,-0.008573130475677102,-0.15407391854591185
3132,1.0,299.96411,6170.8886,0.0,-0.031320034799232066,0.0,0.0,0.0,0.0,-0.4109392834315496,-0.9283884282873041,-0.5364683558578045,-0.008820033180544503,-0.0019875018248511583,-0.16188584376938886
3133,1.0,299.60916000000003,6303.9687,0.0,-0.03133006377670888,0.0,0.0,0.0,0.0,-0.4194921376581506,-0.9158915487089581,-0.5808653680694484,0.0013140806096396587,-0.006895744077756953,-0.14939152771379585
3134,1.0,299.71002999999996,6322.9619,0.0,-0.031340059764128236,0.0,0.0,0.0,0.0,-0.40313774402159763,-0.9396627202949902,-0.5792220790572684,0.0046306583350103955,-0.0014683087245857887,-0.14955463058239285
3135,1.0,299.62085,6168.9777,0.0,-0.03135005575154759,0.0,0.0,0.0,0.0,-0.3878977329775256,-0.9108986980462022,-0.5764187605356025,0.007321102315411544,-0.014724058013651384,-0.16089276747887984
3136,1.0,299.6463,6177.8326,0.0,-0.03136005173896683,0.0,0.0,0.0,0.0,-0.4157502253038526,-0.9201810112847952,-0.5419756234638295,-0.002366822030962148,0.0018184117627382682,-0.14599290449337787
3137,1.0,299.26738,6192.6342,0.0,-0.031370047726386185,0.0,0.0,0.0,0.0,-0.4344405859859476,-0.9267979802678391,-0.5211676004702375,-0.012028632389133589,0.014515832078351085,-0.16817239189482283
3138,1.0,299.71262,6152.314,0.0,-0.03138004371380543,0.0,0.0,0.0,0.0,-0.4087652945469936,-0.9209637368545441,-0.5404208215828825,-0.009891639494878809,0.034547474474320265,-0.16473940936351383
3139,1.0,299.49098,6167.3469,0.0,-0.03139003970122478,0.0,0.0,0.0,0.0,-0.4173739889866056,-0.9239019493620231,-0.5334435104667755,-0.006581897559982713,0.01093167972487279,-0.17587007316952485
3140,1.0,299.6921,6217.4362,0.0,-0.031400035688644135,0.0,0.0,0.0,0.0,-0.38536187195225563,-0.9248132766344641,-0.5797702068313644,-0.0025155033108858475,-0.0014077080599549686,-0.14159144738398785
3141,1.0,299.69104,6225.5244,0.0,-0.03141006466612073,0.0,0.0,0.0,0.0,-0.4120850565121286,-0.9153512634906362,-0.5649676563854664,-0.007337983264727562,-0.011755162266644189,-0.16166504644009785
3142,1.0,299.91846,6357.6363,0.0,-0.031420060653540194,0.0,0.0,0.0,0.0,-0.41594319878539754,-0.9434956630382721,-0.5731238130654164,0.002198349443460198,-0.0002919981301079717,-0.15265040348042186
3143,1.0,300.18772,6437.892,0.0,-0.03143005664095955,0.0,0.0,0.0,0.0,-0.4603740535503816,-0.938865667368827,-0.5577186929175495,0.010095208431394501,-0.00971763020485543,-0.15444909466043885
3144,1.0,300.18787000000003,6424.8105,0.0,-0.03144005262837879,0.0,0.0,0.0,0.0,-0.41989823816572963,-0.9561255215597421,-0.5769582148888425,0.0007163716001228722,0.012673497176776788,-0.15213215645177486
3145,1.0,299.47376,6179.8738,0.0,-0.03145004861579814,0.0,0.0,0.0,0.0,-0.4088631947716556,-0.9369528639625481,-0.5327112548845074,0.008185071595403673,0.012370934617416188,-0.16787564133803584
3146,1.0,299.76387,6090.9172,0.0,-0.031460044603217385,0.0,0.0,0.0,0.0,-0.38135847014465063,-0.9174735664875912,-0.5526547019652724,-0.0034858754024291168,0.022843252343203477,-0.15936720799581883
3147,1.0,299.50173,6101.1006,0.0,-0.03147004059063674,0.0,0.0,0.0,0.0,-0.40005500151985457,-0.9223886704701741,-0.5321385760604884,-0.006751512890947444,0.0017887833165641683,-0.16907597793649984
3148,1.0,298.91709,6059.8671,0.0,-0.03148003657805609,0.0,0.0,0.0,0.0,-0.4069042378233216,-0.9137845660535151,-0.5213594999066765,0.009652214981049451,-0.001947423831720768,-0.15339836443923985
3149,1.0,298.95115,6139.2292,0.0,-0.031490032565475334,0.0,0.0,0.0,0.0,-0.4148116010737176,-0.923859950145378,-0.5275008391602796,-0.0036418769077002666,-0.0035858276611936365,-0.17524770456060182
3150,1.0,299.3273,6332.1065,0.0,-0.03150006154295226,0.0,0.0,0.0,0.0,-0.4264210255519786,-0.944475708932495,-0.5539055389487204,0.01000463207978031,0.007030777588108723,-0.16779575670015184
3151,1.0,299.78521,6364.8288,0.0,-0.031510057530371505,0.0,0.0,0.0,0.0,-0.42688028115980364,-0.9241709672635732,-0.5836977972664874,-0.007705028959127153,-0.009320163601378531,-0.16082346117203986
3152,1.0,300.24617,6347.866,0.0,-0.031520053517790636,0.0,0.0,0.0,0.0,-0.4182166786972726,-0.948890176173169,-0.5624859029155365,0.01830913242472068,0.0016654107949882484,-0.15234210187249483
3153,1.0,300.3698,6347.6919,0.0,-0.0315300495052101,0.0,0.0,0.0,0.0,-0.4266655430661106,-0.9352108843906282,-0.5676634184090175,0.014006601962343986,-0.008982174677446622,-0.1397800804452199
3154,1.0,299.85477000000003,6295.935,0.0,-0.03154004549262923,0.0,0.0,0.0,0.0,-0.4359678071991726,-0.9379805022139681,-0.5398587312224085,0.008172294410317662,-0.007756282999535534,-0.15642702978314585
3155,1.0,299.36409,6247.2207,0.0,-0.031550041480048696,0.0,0.0,0.0,0.0,-0.4136182255034406,-0.9486638262333301,-0.5367170378298475,-0.009434438859581621,-0.015370538935204086,-0.15103916356890484
3156,1.0,299.90214,6225.8982,0.0,-0.03156003746746805,0.0,0.0,0.0,0.0,-0.42122877740204356,-0.9213324484334331,-0.5499563561539665,-0.010163985720357292,-0.003952598359516086,-0.18522348616763482
3157,1.0,299.78891,6246.5287,0.0,-0.03157003345488729,0.0,0.0,0.0,0.0,-0.4030269349906616,-0.9424171191018281,-0.5533446847533685,-0.004897006727846936,0.007412969547653133,-0.15905518776002486
3158,1.0,300.48983,6124.1995,0.0,-0.03158006243236422,0.0,0.0,0.0,0.0,-0.39465153125407365,-0.9276943823663072,-0.5392578131181025,-0.008281374025982982,0.01327654817254329,-0.20168565921732481
3159,1.0,300.54322,6207.5289,0.0,-0.03159005841978346,0.0,0.0,0.0,0.0,-0.40247076201077164,-0.9333645096609051,-0.5510985017991875,-0.0035854931873356265,0.006397302643514614,-0.13758039553812787
3160,1.0,300.43727,6299.9019,0.0,-0.031600054407202594,0.0,0.0,0.0,0.0,-0.43111197834743964,-0.9371511266096152,-0.5467497438274984,-0.002063919424867988,-0.010912592119488989,-0.17448132271496583
3161,1.0,300.2499,6390.8527,0.0,-0.03161005039462206,0.0,0.0,0.0,0.0,-0.4263692282068666,-0.9475108286795382,-0.5687795741891735,0.011817907779086688,-0.007541596885572662,-0.13497530926602586
3162,1.0,300.5349,6330.0041,0.0,-0.03162004638204119,0.0,0.0,0.0,0.0,-0.4321980507321266,-0.9309158286742392,-0.5610492966587545,0.01229766751593529,-0.01107469491023729,-0.16937852428385883
3163,1.0,299.76858,6302.4904,0.0,-0.031630042369460765,0.0,0.0,0.0,0.0,-0.41212708612627663,-0.9422678876271001,-0.5614047447938345,-0.005309362230943255,-0.0033675335662746867,-0.13619972068686587
3164,1.0,299.70142000000004,6309.762,0.0,-0.03164003835688001,0.0,0.0,0.0,0.0,-0.42377710140354363,-0.9375033728743791,-0.5567296392299375,-0.002274011462877458,0.014839458080790485,-0.15873775676869684
3165,1.0,299.75004,6369.5746,0.0,-0.03165003434429914,0.0,0.0,0.0,0.0,-0.42249379988689156,-0.9484959104267581,-0.5652019198085865,-0.003558605582682027,0.006348551837478284,-0.14863147868128487
3166,1.0,300.08507000000003,6328.1755,0.0,-0.03166006332177618,0.0,0.0,0.0,0.0,-0.43448149089248456,-0.9413105891976221,-0.5478152573676565,0.011810333734589189,0.0014054541864325287,-0.15960223135651386
3167,1.0,300.59309,6198.8286,0.0,-0.03167005930919531,0.0,0.0,0.0,0.0,-0.3945944143459366,-0.9303351755719331,-0.5593595197319865,-0.002103407301140138,-0.004897110585982185,-0.16648260483555383
3168,1.0,300.51378,6119.168000000001,0.0,-0.03168005529661455,0.0,0.0,0.0,0.0,-0.3993330912211076,-0.9178556428352992,-0.5428855321861304,0.003212786363302327,-0.006627377493371233,-0.15791702418769685
3169,1.0,300.97662,6268.2748,0.0,-0.031690051284033904,0.0,0.0,0.0,0.0,-0.4047700595351946,-0.9339762594087802,-0.5666527115667686,-0.0016289877976185783,0.004299141951392276,-0.17414746693951685
3170,1.0,300.16897,6404.6432,0.0,-0.03170004727145337,0.0,0.0,0.0,0.0,-0.42882441425917456,-0.9517033840158111,-0.5663238004518075,-0.0060194073710192544,-0.001167952213342909,-0.16233271746099184
3171,1.0,299.68363,6360.6656,0.0,-0.03171004325887272,0.0,0.0,0.0,0.0,-0.4333194348827986,-0.936513508586687,-0.5636505731104805,-0.0009271338321459851,0.01014393552737849,-0.17382123080481984
3172,1.0,299.48476,6390.3357,0.0,-0.03172003924629185,0.0,0.0,0.0,0.0,-0.42949669556802356,-0.9534407229022731,-0.5595650676472724,-0.0068874776794661235,0.0011520365873971589,-0.13445026332920787
3173,1.0,299.5925,6365.5587,0.0,-0.031730035233711096,0.0,0.0,0.0,0.0,-0.4283773885800566,-0.9458936916524392,-0.5606997963017615,0.006010766678141485,0.0023117544211523977,-0.15474906735254385
3174,1.0,299.55452,6381.1013,0.0,-0.031740064211188135,0.0,0.0,0.0,0.0,-0.42129105175318965,-0.9414633265176962,-0.5769410909621524,-0.004224142293565386,-0.01127936433768659,-0.14554575722424787
3175,1.0,300.40413,6349.3836,0.0,-0.031750060198607266,0.0,0.0,0.0,0.0,-0.41949880484380864,-0.9395734934911841,-0.5709817719565135,0.003308430079991627,0.008081286616810892,-0.16295463010736985
3176,1.0,300.39643,6167.9713,0.0,-0.03176005618602651,0.0,0.0,0.0,0.0,-0.3958450892093686,-0.9229839549039242,-0.5560802067108435,1.8069150218036282e-05,0.0013427465695437686,-0.15424442827273985
3177,1.0,300.80244,6072.2775,0.0,-0.03177005217344586,0.0,0.0,0.0,0.0,-0.4058703275537826,-0.9248815595587031,-0.5150688683833395,-0.015294585707708088,0.018035245856440184,-0.17697957189652383
3178,1.0,300.72696,6195.6601,0.0,-0.031780048160865215,0.0,0.0,0.0,0.0,-0.4116347884326906,-0.9381564632263341,-0.5335347029757754,0.001981004662559938,0.010741169454320888,-0.16611880751964983
3179,1.0,300.12151,6285.1709,0.0,-0.03179004414828468,0.0,0.0,0.0,0.0,-0.4318720273799506,-0.9304229736930981,-0.5482400016770754,-0.0023996500169770176,0.014315552050334987,-0.17207653572263185
3180,1.0,299.67556,6355.0181,0.0,-0.03180004013570381,0.0,0.0,0.0,0.0,-0.4240358246840776,-0.9403470998100331,-0.5673838931039304,0.01072149923012959,-0.0008418068962523721,-0.14479327716998386
3181,1.0,300.09946,6374.1685,0.0,-0.03181003612312305,0.0,0.0,0.0,0.0,-0.42246500331904957,-0.9453064828219861,-0.5698165647390165,-0.010090257995380929,-0.015294946424743685,-0.16551014818457982
3182,1.0,299.91769,6462.2643,0.0,-0.03182006510059998,0.0,0.0,0.0,0.0,-0.43988949038621256,-0.9586881931826581,-0.5657893110240575,0.0028188181071206876,-0.01234378356773659,-0.14748061908520388
3183,1.0,299.76044,6424.4916,0.0,-0.031830061088019224,0.0,0.0,0.0,0.0,-0.4455448039643486,-0.9527939045684372,-0.5545463284444615,-0.006690093925535864,0.004331236546984766,-0.16871120790049984
3184,1.0,299.84738,6384.9178,0.0,-0.031840057075438466,0.0,0.0,0.0,0.0,-0.4415351301386246,-0.9476623804969951,-0.5516580590344115,0.016079648845437784,-0.0033072766974027966,-0.13866467447013786
3185,1.0,300.00647000000004,6240.7939,0.0,-0.03185005306285782,0.0,0.0,0.0,0.0,-0.4009052399437666,-0.94557138692813,-0.5505689063694205,0.008397694022887873,0.01002885584992101,-0.15747216686379287
3186,1.0,300.30699,6129.3148,0.0,-0.03186004905027717,0.0,0.0,0.0,0.0,-0.3881415310840866,-0.928684591159033,-0.5463325178338215,0.009320201902232312,0.0005876117189577615,-0.15900675440524484
3187,1.0,299.87039,6175.5542,0.0,-0.031870045037696526,0.0,0.0,0.0,0.0,-0.3715547080070946,-0.944282775980954,-0.5613767790910744,0.0034435481967267467,0.009315055199674372,-0.16748971463994783
3188,1.0,300.17963,6344.6599,0.0,-0.03188004102511577,0.0,0.0,0.0,0.0,-0.42109470414881156,-0.9521908079764161,-0.5553326713170674,-0.003298604289796897,-0.013975249977749788,-0.18226423858807983
3189,1.0,300.86737,6440.1123,0.0,-0.03189003701253501,0.0,0.0,0.0,0.0,-0.4332601192219446,-0.9636246058148441,-0.5607486248240804,0.0025296130211783672,-0.004095524277546777,-0.17560891808875084
3190,1.0,300.60922999999997,6361.0398,0.0,-0.031900032999954364,0.0,0.0,0.0,0.0,-0.4435593099958956,-0.9515558750662532,-0.5384820891065445,-0.017216249986111584,0.0008391320679758872,-0.18636954295824182
3191,1.0,300.23393,6375.9274,0.0,-0.03191006197743118,0.0,0.0,0.0,0.0,-0.4323071271053916,-0.9510101081648902,-0.5548054671575365,-0.015055891341900786,0.012114060518314687,-0.13851247417261686
3192,1.0,300.04569,6429.0208,0.0,-0.03192005796485031,0.0,0.0,0.0,0.0,-0.44738381236584457,-0.93867581469759,-0.5682021736196884,-0.007305134507085643,-0.008231086423519982,-0.16008923988457785
3193,1.0,299.38473,6501.9941,0.0,-0.03193005395226989,0.0,0.0,0.0,0.0,-0.42553713709224555,-0.9556261412479571,-0.5952805833996194,-0.003127661297226137,-0.006240391948928734,-0.12522528991377388
3194,1.0,299.43152000000003,6390.4612,0.0,-0.03194004993968913,0.0,0.0,0.0,0.0,-0.43678463876728757,-0.9471480851437382,-0.5586079110728085,0.026340188181074177,-0.011810466470352289,-0.17878919604511984
3195,1.0,300.1537,6300.1476,0.0,-0.031950045927108484,0.0,0.0,0.0,0.0,-0.4045107384371016,-0.9470847671449891,-0.5634920501323354,0.006682116100873513,-0.005786417907249984,-0.14254938416102889
3196,1.0,299.8574,6185.2563,0.0,-0.031960041914527726,0.0,0.0,0.0,0.0,-0.41646188151158764,-0.9347884097614332,-0.5289131882096675,0.008986482003621721,-0.011718064140732887,-0.18631889058574283
3197,1.0,300.16413,6336.1293,0.0,-0.03197003790194686,0.0,0.0,0.0,0.0,-0.4100483630161226,-0.9507497940816991,-0.5652269369535554,-0.01115003005517229,0.0060488047961705545,-0.14705433463563286
3198,1.0,300.71812,6354.960999999999,0.0,-0.03198003388936632,0.0,0.0,0.0,0.0,-0.41477317862992563,-0.9439016014258351,-0.5730747008330694,0.002222710610314458,0.030604516074930574,-0.17132096525556284
3199,1.0,300.53742,6281.9479,0.0,-0.03199006286684314,0.0,0.0,0.0,0.0,-0.39205143017246363,-0.9427634885160121,-0.5747403725399585,-0.006201854805225415,0.021976210179633082,-0.15899369361145585
3200,1.0,299.90885,6284.9239,0.0,-0.03200005885426249,0.0,0.0,0.0,0.0,-0.4218161584850136,-0.9340979811432931,-0.5545457812894075,-0.013957491756497187,-0.007552448794143663,-0.16809496945468183
3201,1.0,299.82837,6455.5306,0.0,-0.032010054841681845,0.0,0.0,0.0,0.0,-0.4342083794605306,-0.9629848498342051,-0.5651268683736795,0.01154785433593449,-0.005353121057711915,-0.16120717898490985
3202,1.0,299.34087,6520.562,0.0,-0.03202005082910109,0.0,0.0,0.0,0.0,-0.46355822238713457,-0.960869376142924,-0.5576604310367995,0.019020862599712984,-0.004901173820208196,-0.15114576761192586
3203,1.0,299.34201,6465.6804,0.0,-0.03203004681652044,0.0,0.0,0.0,0.0,-0.44413371134508456,-0.947772601842873,-0.5734990905049534,0.01204820838106559,-0.0017765681813086283,-0.14879589877501184
3204,1.0,300.06214,6333.1161,0.0,-0.03204004280393968,0.0,0.0,0.0,0.0,-0.4141298560089346,-0.9492838542345222,-0.5616954462475244,-0.02779773527767287,-0.023079899943808775,-0.15458528560637985
3205,1.0,300.07811,6222.6349,0.0,-0.032050038791358815,0.0,0.0,0.0,0.0,-0.38508244797217867,-0.9420960606751422,-0.5643471217592244,-0.011053959760190888,-0.00996091864661613,-0.16475745534779485
3206,1.0,299.90738,6376.0791,0.0,-0.03206003477877839,0.0,0.0,0.0,0.0,-0.4090045836906096,-0.961450799315306,-0.5677134425664544,-0.008136820929616703,0.006162154045107254,-0.17256418259825884
3207,1.0,299.75928999999996,6459.5774,0.0,-0.032070063756254985,0.0,0.0,0.0,0.0,-0.42478371471538856,-0.9655687591792171,-0.5731977397927125,0.017000906982108883,0.017314826048590283,-0.1822852635276548
3208,1.0,299.66406,6372.6077,0.0,-0.03208005974367445,0.0,0.0,0.0,0.0,-0.4321789914977456,-0.9483440242367681,-0.5565906111837164,-0.001063501124134389,0.0017427320114442586,-0.15710873431792485
3209,1.0,299.65263,6238.109,0.0,-0.0320900557310938,0.0,0.0,0.0,0.0,-0.41736094845781857,-0.9355289334645172,-0.5433394986284334,0.0077054393254176535,0.011310737600532889,-0.17531593682233584
3210,1.0,299.64729,6404.5452,0.0,-0.032100051718512934,0.0,0.0,0.0,0.0,-0.4244838737457966,-0.952266548421391,-0.5700714072716675,0.004758604363562686,0.01997008441264388,-0.14298327811885087
3211,1.0,299.73469,6479.1358,0.0,-0.0321100477059324,0.0,0.0,0.0,0.0,-0.43778315621083363,-0.9480978753899751,-0.5836144777107645,0.004068904272244586,0.008095361977925023,-0.16476192378073584
3212,1.0,300.35322,6511.5319,0.0,-0.03212004369335153,0.0,0.0,0.0,0.0,-0.4459976153015376,-0.955583017323701,-0.5777624720232165,-0.017591301470876283,-0.010292011896992491,-0.13968194717303486
3213,1.0,300.13381,6412.453,0.0,-0.032130039680770994,0.0,0.0,0.0,0.0,-0.43609188980641855,-0.9569697919405651,-0.5561639214341055,-0.027116567765446874,-0.021461955356380083,-0.17661898658343683
3214,1.0,299.96471,6397.1331,0.0,-0.03214003566819035,0.0,0.0,0.0,0.0,-0.43464437084605956,-0.9515585095165131,-0.5583658456239184,-0.006551071857490453,-0.0035049699992386065,-0.14893677093641486
3215,1.0,300.1522,6499.3438,0.0,-0.03215006464566694,0.0,0.0,0.0,0.0,-0.4359582218532266,-0.9571128020596792,-0.5825672128049074,0.0009731987553472392,0.001069180796244929,-0.17974811567475782
3216,1.0,299.44247,6513.8756,0.0,-0.032160060633086296,0.0,0.0,0.0,0.0,-0.4378448226119196,-0.9583208393589031,-0.5838898790879444,0.013343402414141288,0.006544584523725203,-0.15631502511709186
3217,1.0,299.51153,6302.9865,0.0,-0.03217005662050576,0.0,0.0,0.0,0.0,-0.4068048886510166,-0.9511076030895121,-0.5580380288190655,0.013905702517385985,-0.004212715365562636,-0.17952733861046882
3218,1.0,300.37315,6219.2408,0.0,-0.03218005260792489,0.0,0.0,0.0,0.0,-0.3953585873063546,-0.9426471066095261,-0.5524882047088405,0.015182929599688486,0.01070711715821019,-0.16591686677471987
3219,1.0,299.69959,6311.1525,0.0,-0.032190048595344356,0.0,0.0,0.0,0.0,-0.41255893331889665,-0.9511078158720331,-0.5547660314636444,0.005700048063425944,-0.007307525878646654,-0.15864277470432284
3220,1.0,300.35163,6509.5637,0.0,-0.03220004458276349,0.0,0.0,0.0,0.0,-0.45460409072343055,-0.9656102213733091,-0.5585304987651685,0.002288435989976048,-0.02149627819026748,-0.16006204425189385
3221,1.0,300.63939,6521.4773,0.0,-0.03221004057018284,0.0,0.0,0.0,0.0,-0.4421988089541246,-0.96552896884779,-0.5746384801099025,-0.02186382047854108,-0.016191544080480985,-0.15141679174867387
3222,1.0,301.19097999999997,6430.4177,0.0,-0.032220036557602305,0.0,0.0,0.0,0.0,-0.4324511403421046,-0.963594025926826,-0.5586412470010985,-0.017419503903171183,0.014340457737792987,-0.16815605830321081
3223,1.0,300.49012999999997,6427.1941,0.0,-0.0322300655350789,0.0,0.0,0.0,0.0,-0.4145599604113826,-0.9637651334712131,-0.5753814356132264,-0.02826268028480937,0.017087013988856984,-0.17272700175682784
3224,1.0,300.17455,6534.9028,0.0,-0.03224006152249825,0.0,0.0,0.0,0.0,-0.4382084780728096,-0.9768725671623161,-0.5713662395744575,-0.004603954128624896,0.015064088535209788,-0.17677531080886483
3225,1.0,299.42255,6535.1701,0.0,-0.03225005750991761,0.0,0.0,0.0,0.0,-0.43859320913577954,-0.9642999471389951,-0.5836353607953254,0.014178832187841786,-0.00993430005986408,-0.16641061341594884
3226,1.0,300.38655,6353.1006,0.0,-0.03226005349733685,0.0,0.0,0.0,0.0,-0.44123020265353063,-0.9352445850889541,-0.5547091577355315,0.023596380877531478,0.003168247333956667,-0.15873287290321486
3227,1.0,299.83664,6156.1028,0.0,-0.0322700494847562,0.0,0.0,0.0,0.0,-0.3895806907311206,-0.9262164253729441,-0.5555044172090174,-0.001035619419807679,-0.014887263220508486,-0.16334673763106786
3228,1.0,300.70589,6330.3143,0.0,-0.032280045472175445,0.0,0.0,0.0,0.0,-0.42132585689412466,-0.9442228726350421,-0.5587087497227605,-0.004858992421195215,-0.015471925753460186,-0.16133471677499686
3229,1.0,299.69024,6576.718000000001,0.0,-0.0322900414595948,0.0,0.0,0.0,0.0,-0.42937932067643964,-0.9680931198158521,-0.6016856108592464,-0.009612516348756501,-0.00992748341981633,-0.16175655305662884
3230,1.0,299.83187999999996,6560.357,0.0,-0.03230003744701426,0.0,0.0,0.0,0.0,-0.46373950296252553,-0.9574098261939931,-0.5730353867291894,-0.00013527575818567786,0.020586911556769984,-0.15636865644488485
3231,1.0,300.14807,6488.2376,0.0,-0.03231006642449097,0.0,0.0,0.0,0.0,-0.42746900986540654,-0.9762028189787172,-0.5685903902630024,-0.010996404114760591,0.0006930091837596813,-0.15780977166461185
3232,1.0,299.51982000000004,6356.2285,0.0,-0.03232006241191021,0.0,0.0,0.0,0.0,-0.43823627152305256,-0.9464765029774581,-0.5474219643413415,-0.012026563332429388,-0.008793701951520811,-0.16171974168049585
3233,1.0,299.0904,6529.0155,0.0,-0.032330058399329564,0.0,0.0,0.0,0.0,-0.4146028918181196,-0.977025091699869,-0.5930296888324734,0.0063278810288132335,-0.016007971533363783,-0.16547136097075185
3234,1.0,299.72272999999996,6516.6795,0.0,-0.03234005438674881,0.0,0.0,0.0,0.0,-0.44491878765506554,-0.9565963282187071,-0.5793927407716114,0.008428732913201172,0.016658782072593786,-0.16627136245470586
3235,1.0,299.2953,6324.7399,0.0,-0.03235005037416816,0.0,0.0,0.0,0.0,-0.39357443626527266,-0.9616217954021822,-0.5673667793097414,0.0031929908000736568,-0.005802034421766214,-0.1871909746818108
3236,1.0,300.18582000000004,6209.8679,0.0,-0.03236004636158751,0.0,0.0,0.0,0.0,-0.4091213303671316,-0.942223851777754,-0.5362995990536494,-0.016796614483696782,0.0012654768261928387,-0.18052934163435883
3237,1.0,300.18595,6293.9401,0.0,-0.032370042349006756,0.0,0.0,0.0,0.0,-0.41605449417638163,-0.9470140017580051,-0.5501321347813145,-0.0006142850110827104,-0.0018766068703066784,-0.17333039219137783
3238,1.0,299.98068,6509.1747,0.0,-0.03238003833642611,0.0,0.0,0.0,0.0,-0.44612289354390156,-0.9541031047576451,-0.5784005865386934,0.012381723704480988,0.013357959778327986,-0.15721848956875686
3239,1.0,299.72188,6524.3295,0.0,-0.03239003432384535,0.0,0.0,0.0,0.0,-0.42098524274050864,-0.970363124279884,-0.5918848986044914,0.016818755011631884,-0.0023506612998172075,-0.16057446509246584
3240,1.0,300.44727,6458.5215,0.0,-0.03240006330132217,0.0,0.0,0.0,0.0,-0.41741513707316663,-0.9666705572054561,-0.5791435623070194,0.0027929187252896176,0.00023442519863096575,-0.14895682315589387
3241,1.0,300.50032999999996,6479.3878,0.0,-0.03241005928874152,0.0,0.0,0.0,0.0,-0.4160242891909006,-0.978046883498212,-0.5755009180650185,0.00016230246181300585,-0.0016630015902254786,-0.18158955587649384
3242,1.0,300.6514,6633.0378,0.0,-0.032420055276160764,0.0,0.0,0.0,0.0,-0.4675485937984536,-0.9691805398231721,-0.5795487407570075,-0.003420794044531087,0.01993824606800168,-0.13305645675664987
3243,1.0,299.62582000000003,6567.8092,0.0,-0.03243005126358012,0.0,0.0,0.0,0.0,-0.4591421339463006,-0.9652991535926091,-0.5720087110653644,0.0050166920323089555,-0.00019685702599827584,-0.16894196547827384
3244,1.0,300.02879,6497.8647,0.0,-0.03244004725099947,0.0,0.0,0.0,0.0,-0.44205720725264963,-0.952850210876494,-0.5802811989892955,-0.020844503036942283,-0.01869661142196188,-0.1287207393137479
3245,1.0,299.2024,6193.5703,0.0,-0.03245004323841871,0.0,0.0,0.0,0.0,-0.39403961938618265,-0.9296528225570901,-0.5589982656738335,0.00018707556549542084,-0.02324616009971738,-0.17082053116367385
3246,1.0,300.06985,6302.3927,0.0,-0.03246003922583807,0.0,0.0,0.0,0.0,-0.40274842293567464,-0.9456299629164111,-0.5673916242021935,-0.008233183141951914,0.0006023870332409714,-0.13858488102476288
3247,1.0,299.51197,6530.9471,0.0,-0.03247003521325731,0.0,0.0,0.0,0.0,-0.43900485212140555,-0.9674167652416011,-0.5788232334204054,0.024882907569251777,-0.0006569319681191374,-0.20472036353182682
3248,1.0,299.73411,6585.0747,0.0,-0.032480064190734126,0.0,0.0,0.0,0.0,-0.46784318613252757,-0.9672474714148931,-0.5666076118048174,0.007175765470092914,-0.002059235777605748,-0.16258090294048586
3249,1.0,299.63305,6363.348000000001,0.0,-0.03249006017815348,0.0,0.0,0.0,0.0,-0.4242635931740566,-0.970405883434104,-0.5396294124597765,0.015445932848644883,0.003020744666549287,-0.19508267308566082
3250,1.0,300.28797000000003,6367.1497,0.0,-0.03250005616557261,0.0,0.0,0.0,0.0,-0.4174041838395856,-0.961290128246949,-0.5567602089854545,0.0053942227374183345,0.017138178052656484,-0.15456480782185886
3251,1.0,299.777,6512.6885,0.0,-0.032510052152992075,0.0,0.0,0.0,0.0,-0.4145104834089996,-0.9793693066012251,-0.5858148820254274,-0.006954676324773113,-0.012800767468837387,-0.17098813286271483
3252,1.0,300.25861000000003,6648.398,0.0,-0.03252004814041143,0.0,0.0,0.0,0.0,-0.4285958655666186,-0.9816922229854791,-0.6106588828173395,-0.01236062783739899,-0.017427894627249283,-0.15304508465937386
3253,1.0,299.7123,6416.0733,0.0,-0.03253004412783067,0.0,0.0,0.0,0.0,-0.4112454876117696,-0.9685334681768112,-0.5705471180611165,-0.017148676336942583,-0.011550820118977189,-0.16731372323007884
3254,1.0,300.21988,6282.3815,0.0,-0.032540040115250024,0.0,0.0,0.0,0.0,-0.42888004168966465,-0.9450793729445721,-0.5357276801672054,-0.0047549182610238955,0.02132203058382058,-0.15901879181643283
3255,1.0,299.95916,6381.9754,0.0,-0.032550036102669266,0.0,0.0,0.0,0.0,-0.43508238873178856,-0.950636411395509,-0.5542423635469624,-0.009636778825051021,0.009009747543142852,-0.17180162070549984
3256,1.0,299.84075,6543.8665,0.0,-0.03256006508014597,0.0,0.0,0.0,0.0,-0.4447160464425565,-0.9749704231470891,-0.5694855663288495,0.005393668489613635,0.005974986993260305,-0.17418489639821083
3257,1.0,299.98839,6571.758000000001,0.0,-0.03257006106756544,0.0,0.0,0.0,0.0,-0.42577640597085953,-0.9750147528389641,-0.5968591865254154,0.00950603744212285,0.0022756888984180076,-0.17978239392564083
3258,1.0,299.79976,6402.7664,0.0,-0.03258005705498457,0.0,0.0,0.0,0.0,-0.4156452931234966,-0.9613990121026951,-0.5692368134292994,0.007370046449566952,0.01098492095137729,-0.16576778728750685
3259,1.0,299.22622,6362.4383,0.0,-0.03259005304240414,0.0,0.0,0.0,0.0,-0.4095958353889616,-0.9669935712048351,-0.5574329563893495,-0.0018345932655102583,-0.0005171944441781175,-0.18302606080826583
3260,1.0,299.69961,6555.0335,0.0,-0.032600049029823386,0.0,0.0,0.0,0.0,-0.4727284498996655,-0.958760883744832,-0.5610771610365044,-0.0048418192505503554,-0.012280601344500989,-0.16304394810368486
3261,1.0,299.53676,6652.9159,0.0,-0.03261004501724252,0.0,0.0,0.0,0.0,-0.4473923439316866,-0.9856625117798161,-0.5892654647109734,-0.002165463499539608,-0.006543746768542524,-0.14865407415851487
3262,1.0,299.82779,6437.0071,0.0,-0.03262004100466198,0.0,0.0,0.0,0.0,-0.4351260902086016,-0.9540747033573421,-0.5674886327667675,0.0060257095839912345,0.007684681579894023,-0.14709675941731987
3263,1.0,300.07595,6336.1664,0.0,-0.03263003699208111,0.0,0.0,0.0,0.0,-0.37327047479892767,-0.957688459838992,-0.5950774368870704,-0.013572108160462787,-0.0014315488215578688,-0.15007398205364886
3264,1.0,299.95937999999995,6531.1261,0.0,-0.03264006596955793,0.0,0.0,0.0,0.0,-0.42812803786294756,-0.9693794408178021,-0.5877917836330324,-0.0032654926950790365,-0.005331906944343245,-0.15541320213058885
3265,1.0,300.62517,6740.3142,0.0,-0.03265006195697728,0.0,0.0,0.0,0.0,-0.4556032059845356,-0.9885711171193732,-0.6047128677855135,-0.0015303120313300386,-0.0036764103962834568,-0.15089253614693388
3266,1.0,300.39853999999997,6526.5343,0.0,-0.03266005794439675,0.0,0.0,0.0,0.0,-0.46656311688369456,-0.970773014342837,-0.5465673081469935,0.016090000208459385,0.016132623587165985,-0.19013868134272682
3267,1.0,299.84454,6408.0841,0.0,-0.0326700539318161,0.0,0.0,0.0,0.0,-0.4131241546221796,-0.9793263346644842,-0.5554470571208564,-0.005659319158431314,-0.00986526601332595,-0.17987524816480482
3268,1.0,299.66085,6456.022,0.0,-0.03268004991923534,0.0,0.0,0.0,0.0,-0.4296455014777096,-0.970497906808186,-0.5623260627122615,-0.013457161016118387,-0.008038229972361532,-0.18948764788847483
3269,1.0,299.64668,6530.2891,0.0,-0.032690045906654475,0.0,0.0,0.0,0.0,-0.40989938485391963,-0.9824033320381601,-0.5927421081890915,0.0016910457185432184,-0.0044037744123686965,-0.16571893850018585
3270,1.0,300.01705,6547.1514,0.0,-0.03270004189407383,0.0,0.0,0.0,0.0,-0.4339564348231656,-0.9717110103579101,-0.5845030879159635,0.011468476323100489,0.0057071866130304644,-0.17583651432621283
3271,1.0,300.41994,6454.3073,0.0,-0.03271003788149307,0.0,0.0,0.0,0.0,-0.4371136106772545,-0.9622984438189621,-0.5625362107830014,0.013646356088040486,0.0013225005153206387,-0.14787160190129087
3272,1.0,299.36435,6344.6574,0.0,-0.03272006685896989,0.0,0.0,0.0,0.0,-0.42386020817674563,-0.968117326360741,-0.5366398788347324,-0.007379545669254453,-0.007872846683089473,-0.16015515180358286
3273,1.0,299.95429,6619.2728,0.0,-0.03273006284638924,0.0,0.0,0.0,0.0,-0.44844835318590653,-0.9722923322052821,-0.5913529625669934,0.01865518773137368,0.008718603501809172,-0.14936305538598585
3274,1.0,300.16052,6857.3962,0.0,-0.032740058833808594,0.0,0.0,0.0,0.0,-0.4565697249899236,-0.9999908206489101,-0.6279166699780504,-0.002844726304227627,0.012834786327694789,-0.15980019002855084
3275,1.0,299.45559,6546.7006,0.0,-0.03275005482122806,0.0,0.0,0.0,0.0,-0.41026556330755864,-0.9812128037006641,-0.5985551442777934,0.007315881341621274,0.002091274948417768,-0.17280996667501583
3276,1.0,300.64794,6339.213000000001,0.0,-0.03276005080864719,0.0,0.0,0.0,0.0,-0.4046254484809226,-0.961330648118448,-0.5610063551195165,-0.03569447865377076,-0.01155255784289869,-0.15641032128899685
3277,1.0,300.94631,6424.562,0.0,-0.03277004679606643,0.0,0.0,0.0,0.0,-0.4462796230693696,-0.953985952781083,-0.5526408508364055,-0.0014385275816216185,-0.002022199459950548,-0.17381286135899385
3278,1.0,299.94331,6578.8733,0.0,-0.032780042783485785,0.0,0.0,0.0,0.0,-0.46111368559337756,-0.9731648925288972,-0.5655346306114225,0.005608114058002765,-0.0015432917651110386,-0.15608877650226285
3279,1.0,300.20639,6527.1182,0.0,-0.03279003877090525,0.0,0.0,0.0,0.0,-0.4407956500831436,-0.973808458329912,-0.5694768422454884,0.007931105929389212,0.01021162671355909,-0.18307586205068083
3280,1.0,299.61518,6431.3969,0.0,-0.0328000347583246,0.0,0.0,0.0,0.0,-0.4109331431359436,-0.976501646698209,-0.5675492656527514,0.0064850212245467645,-0.008272303309762773,-0.16053503953107484
3281,1.0,299.78995,6477.7902,0.0,-0.03281006373580142,0.0,0.0,0.0,0.0,-0.4142752270007816,-0.9749013397552712,-0.5799099036226514,0.002428348502209338,0.01099688946155849,-0.16181701369009585
3282,1.0,300.17721,6734.8834,0.0,-0.03282005972322055,0.0,0.0,0.0,0.0,-0.45398324198965756,-0.9984914536809342,-0.5947616980234094,0.0014750002282461886,0.011814609650011187,-0.15449497462496684
3283,1.0,298.96419,6721.2191,0.0,-0.032830055710640016,0.0,0.0,0.0,0.0,-0.4772935874302095,-0.983766264880171,-0.5820229252486905,0.004679593856539955,-0.006150211170153583,-0.15654568136985586
3284,1.0,299.70597999999995,6609.4693,0.0,-0.03284005169805915,0.0,0.0,0.0,0.0,-0.4495478815319216,-0.983755777741636,-0.5758099492130174,-0.006558116073510664,-0.02325897568698218,-0.15998959686974384
3285,1.0,300.23085,6412.6306,0.0,-0.03285004768547839,0.0,0.0,0.0,0.0,-0.4162704177726916,-0.966678754398765,-0.5663303967099584,-0.0012596444572922287,-0.013775124976998988,-0.17177411096528483
3286,1.0,299.86213,6466.7365,0.0,-0.03286004367289774,0.0,0.0,0.0,0.0,-0.3994769322053036,-0.980762718006244,-0.5854867612455444,-0.007900961232289162,-0.007077580116852774,-0.18540207149775983
3287,1.0,300.51931,6685.9525,0.0,-0.032870039660317096,0.0,0.0,0.0,0.0,-0.4363090495678506,-0.991722578242898,-0.6043309738228234,-0.0035675683877665868,0.008150812190972533,-0.17458208030490982
3288,1.0,300.22161,6525.6792,0.0,-0.03288003564773656,0.0,0.0,0.0,0.0,-0.43742820456830256,-0.9862862786738771,-0.5599290372156935,0.004943218531782686,0.004836391269764655,-0.17604368344165883
3289,1.0,299.91604,6353.4493,0.0,-0.03289006462521327,0.0,0.0,0.0,0.0,-0.44041068597265054,-0.9503950450891882,-0.5404842003766375,-0.004397655597664816,0.015055744420636286,-0.15484247887926286
3290,1.0,300.39631,6577.6068,0.0,-0.03290006061263251,0.0,0.0,0.0,0.0,-0.45458253889380357,-0.9800748326458552,-0.5647708629510445,0.003457514734780137,0.015925220410946885,-0.17088745633277885
3291,1.0,300.2003,6708.5134,0.0,-0.03291005660005186,0.0,0.0,0.0,0.0,-0.44758462840316354,-0.990891703028397,-0.6007442407213405,-0.015115950728328185,-0.0006351169670436644,-0.15673724643376186
3292,1.0,299.97986000000003,6675.7945,0.0,-0.032920052587471105,0.0,0.0,0.0,0.0,-0.42614550258478656,-0.994443256086408,-0.6086860848726394,-0.0004521447199482096,-0.008132563961971572,-0.17671811284071984
3293,1.0,300.53205,6662.0344,0.0,-0.03293004857489035,0.0,0.0,0.0,0.0,-0.4334758604332366,-0.979423140579038,-0.6121931055887554,-0.007939184471111502,-0.0069885187767881034,-0.14169480902668885
3294,1.0,299.73708999999997,6481.9058,0.0,-0.0329400445623097,0.0,0.0,0.0,0.0,-0.45017017921333763,-0.957098434173261,-0.5630688966255735,0.021050336688756482,-0.005028795507403475,-0.15562439384893184
3295,1.0,299.39623,6497.2514,0.0,-0.032950040549729054,0.0,0.0,0.0,0.0,-0.4381861967031106,-0.9674501214348932,-0.5693658710945365,-0.009174601307912651,-0.01869703090750328,-0.14707962535812885
3296,1.0,299.94024,6696.738,0.0,-0.03296003653714841,0.0,0.0,0.0,0.0,-0.46903150558480555,-0.9952533394088571,-0.5713562995909764,0.009629519901334621,-0.01824055059170218,-0.17196766199938682
3297,1.0,300.52125,6745.5746,0.0,-0.032970065514625224,0.0,0.0,0.0,0.0,-0.43613589525826163,-0.995665266104511,-0.6186850901719644,-0.00011801655247482688,0.00041057323670042354,-0.14669357707002886
3298,1.0,300.28069,6457.0191,0.0,-0.032980061502044467,0.0,0.0,0.0,0.0,-0.4111951392143006,-0.974973077862351,-0.5766043575564195,0.007208410463139724,0.004032111337263406,-0.1920873842000488
3299,1.0,300.80834,6422.934,0.0,-0.03299005748946382,0.0,0.0,0.0,0.0,-0.4064622682622026,-0.977398514891723,-0.5685507823165934,-0.016629765629480087,0.015208668178728686,-0.16138647359010486
3300,1.0,301.13096,6550.7624,0.0,-0.03300005347688306,0.0,0.0,0.0,0.0,-0.46113892565336856,-0.9716093003128721,-0.5585199710966295,-0.013719736673532589,-0.001881847197173858,-0.17569166009191683
3301,1.0,300.79173,6606.2223,0.0,-0.033010049464302416,0.0,0.0,0.0,0.0,-0.4538054875246146,-0.9801398022422672,-0.5741813320622855,0.002349786257030848,0.01043606667695959,-0.15320417505757486
3302,1.0,300.30125,6471.2519999999995,0.0,-0.03302004545172177,0.0,0.0,0.0,0.0,-0.4382060766700726,-0.968048435486442,-0.5608445086810435,0.01170320381476629,-0.010622575622866589,-0.17611520876621783
3303,1.0,300.04736,6494.7658,0.0,-0.03303004143914101,0.0,0.0,0.0,0.0,-0.3910270545863656,-0.9866947907166941,-0.5965247734624115,0.01906330460665168,-0.008043276565809592,-0.15761381922777284
3304,1.0,299.46721,6555.3324,0.0,-0.033040037426560365,0.0,0.0,0.0,0.0,-0.4021674050633326,-0.996002333882777,-0.5944876240038605,0.011746301394519688,-0.016812361403500883,-0.18800062230671682
3305,1.0,300.21245,6729.4028,0.0,-0.03305006640403718,0.0,0.0,0.0,0.0,-0.4431907200070186,-0.996696207551257,-0.6056835005863074,0.01084902891421579,0.0004618788110088896,-0.16746835532783982
3306,1.0,299.68464,6779.893,0.0,-0.033060062391456424,0.0,0.0,0.0,0.0,-0.4735428294025385,-1.00618208273494,-0.5811932659343094,0.0036566259788058868,-0.0059499867695679744,-0.17287438911637384
3307,1.0,299.8345,6575.7444,0.0,-0.03307005837887578,0.0,0.0,0.0,0.0,-0.4563857694342686,-0.9736459634113751,-0.5688303684166864,-0.019945859629253083,0.00976204298323863,-0.15716378419585786
3308,1.0,299.7624,6427.9828,0.0,-0.03308005436629491,0.0,0.0,0.0,0.0,-0.42111251708556957,-0.96938276427813,-0.5634509628407804,-0.014345476365538288,0.004068535854508226,-0.17481629306552485
3309,1.0,299.89656,6607.2615,0.0,-0.03309005035371437,0.0,0.0,0.0,0.0,-0.4194352436650356,-0.9831296398423411,-0.6058776190404654,-0.011950645568686887,0.016657625954229684,-0.15557096517115884
3310,1.0,299.79911,6729.315,0.0,-0.033100046341133726,0.0,0.0,0.0,0.0,-0.44217764215953553,-0.981811127884714,-0.6215549488276975,-0.006154834529034874,0.0023626199814724374,-0.17456383167060882
3311,1.0,300.18367,6623.5621,0.0,-0.03311004232855297,0.0,0.0,0.0,0.0,-0.44934296183169753,-0.9832153506683,-0.5808391755543634,0.014583034877983486,0.002636180789845788,-0.16944808390322383
3312,1.0,300.2294,6504.0042,0.0,-0.03312003831597232,0.0,0.0,0.0,0.0,-0.44358197640063257,-0.9680680114783741,-0.5654048636711155,0.013044650688406788,-0.004538626246977535,-0.17446942715879185
3313,1.0,300.74206000000004,6645.8675,0.0,-0.03313006729344914,0.0,0.0,0.0,0.0,-0.46513511312026157,-0.977161647415846,-0.5778810020199144,0.016096165835317883,0.01091974363869479,-0.15833169679112186
3314,1.0,299.77519,6744.1585,0.0,-0.03314006328086827,0.0,0.0,0.0,0.0,-0.4521759888462956,-0.9923446428767911,-0.6055351506391664,-0.013682787495385988,-0.016893766929784983,-0.15972223056585685
3315,1.0,299.73476,6649.9569,0.0,-0.033150059268287735,0.0,0.0,0.0,0.0,-0.42412626738800363,-0.984323724687688,-0.6129708662330143,-0.0036773518069513665,-0.0067675856719837035,-0.16939615483559883
3316,1.0,300.25689,6574.8022,0.0,-0.033160055255706866,0.0,0.0,0.0,0.0,-0.4079114286877236,-0.991300123878705,-0.5993641231576334,-0.012480362588465887,-0.025592399474773177,-0.15522835491484585
3317,1.0,300.1447,6443.2488,0.0,-0.03317005124312633,0.0,0.0,0.0,0.0,-0.4220617297792496,-0.973066657931702,-0.5634583696990115,-0.0026107270354086974,0.008330291106360722,-0.17693240510436883
3318,1.0,299.41319,6600.2495,0.0,-0.033180047230545684,0.0,0.0,0.0,0.0,-0.4493340148333146,-0.99099265313586,-0.5659843819333095,-0.008439543886468132,0.0019190490798953982,-0.16189310877260585
3319,1.0,299.59173,6729.206999999999,0.0,-0.033190043217964815,0.0,0.0,0.0,0.0,-0.4737685409948145,-0.9906322806052941,-0.5811100679685984,0.0032133404084570072,0.01269150060455359,-0.18164339998680784
3320,1.0,299.95718999999997,6640.9013,0.0,-0.03320003920538428,0.0,0.0,0.0,0.0,-0.43826755055363964,-0.982089802059717,-0.5983108395461825,0.0033943021140415363,0.016686771080106085,-0.16442610230009283
3321,1.0,300.20468,6492.2761,0.0,-0.03321003519280341,0.0,0.0,0.0,0.0,-0.3986142105401596,-0.9790149629087541,-0.5958606589493683,-0.0021268143917002377,0.010714779355466388,-0.18193574290565984
3322,1.0,299.96539,6596.4096,0.0,-0.03322006417028023,0.0,0.0,0.0,0.0,-0.4336359539490366,-0.972486906621985,-0.5990209454812645,0.003350346716753477,-0.0033299987295702864,-0.17300029557379984
3323,1.0,299.61843999999996,6696.1332,0.0,-0.03323006015769958,0.0,0.0,0.0,0.0,-0.4636516744438576,-0.9819844747118222,-0.5898211209333124,-0.018391342471584183,-0.005732774116480755,-0.17286470244541782
3324,1.0,300.05357000000004,6674.6282,0.0,-0.033240056145119046,0.0,0.0,0.0,0.0,-0.46887920396227456,-0.9909999485365801,-0.5690411548349894,0.005463924110472324,-0.012839308462891089,-0.18420053926417781
3325,1.0,301.04582999999997,6676.5174,0.0,-0.03325005213253818,0.0,0.0,0.0,0.0,-0.46260870571842455,-0.979148174899401,-0.5877376862101934,-0.01724958996740198,-0.014154655027205688,-0.15899250810883886
3326,1.0,300.60961000000003,6641.0862,0.0,-0.03326004811995764,0.0,0.0,0.0,0.0,-0.4348760504814246,-0.989697699243058,-0.5941506372856025,0.0012828022883277289,0.002040100245492218,-0.16524215366563086
3327,1.0,300.22522000000004,6674.7565,0.0,-0.03327004410737677,0.0,0.0,0.0,0.0,-0.4185340792910976,-0.994362236608412,-0.6160629914306834,-0.003680929998354506,-0.0026720328207841073,-0.13907203140784088
3328,1.0,300.32599999999996,6743.5241,0.0,-0.03328004009479624,0.0,0.0,0.0,0.0,-0.45193851342035857,-0.9885316104979741,-0.6093928065523875,0.016847061166425484,0.0035207944326753563,-0.16171247667727887
3329,1.0,300.21488,6753.4462,0.0,-0.03329003608221537,0.0,0.0,0.0,0.0,-0.4592909499884875,-0.9975248637480391,-0.5960631873793565,0.009127506861814792,-0.004909045456260065,-0.14652951161383687
3330,1.0,300.07975,6570.6579,0.0,-0.033300065059692185,0.0,0.0,0.0,0.0,-0.4582584076065836,-0.981113555853369,-0.5579439688122825,0.005850140294113894,-0.008750482680430402,-0.19077739367576282
3331,1.0,299.81637,6550.8444,0.0,-0.03331006104711154,0.0,0.0,0.0,0.0,-0.4344533124072036,-0.990560005475661,-0.5662798051324655,-0.018035220525187683,-0.0038475865377022257,-0.17090934253493884
3332,1.0,299.658,6645.5265,0.0,-0.033320057034531,0.0,0.0,0.0,0.0,-0.4352439311952315,-0.991080897087069,-0.5937492889209924,-0.004807561264669355,-0.005403123328946755,-0.1934677550762808
3333,1.0,299.95165,6613.1678,0.0,-0.033330053021950135,0.0,0.0,0.0,0.0,-0.4116499871841906,-0.983154444204789,-0.6154334591435534,-0.004482505363688836,-0.005270869163619285,-0.16424393006461382
3334,1.0,300.3064,6448.9337,0.0,-0.03334004900936949,0.0,0.0,0.0,0.0,-0.41971863958550465,-0.978722711182411,-0.5618734540250925,-2.4609956230813574e-05,-0.00099006380676919,-0.1854269873177188
3335,1.0,300.52981,6572.9044,0.0,-0.03335004499678873,0.0,0.0,0.0,0.0,-0.4280794525206526,-0.9771638461685631,-0.5927555134879144,0.004678469959529035,0.015083459850621588,-0.16319918815150583
3336,1.0,300.81947,6710.8846,0.0,-0.033360040984208084,0.0,0.0,0.0,0.0,-0.46259861374742856,-0.9986009353542391,-0.5787418086423693,0.007395019822131633,0.021222840491781282,-0.17464762745387882
3337,1.0,300.02782,6727.0677,0.0,-0.03337003697162755,0.0,0.0,0.0,0.0,-0.44481770582508956,-1.009723614749462,-0.5903192853449775,0.0008993595627273781,0.008719781405050423,-0.15991343085972684
3338,1.0,299.98326000000003,6784.2880000000005,0.0,-0.03338006594910414,0.0,0.0,0.0,0.0,-0.4463783237616106,-1.00265992406233,-0.6132159005046974,0.001101352905470069,-0.013728086867606687,-0.17081690372831584
3339,1.0,300.27369,6753.4461,0.0,-0.033390061936523496,0.0,0.0,0.0,0.0,-0.4369828811493526,-1.01015888672742,-0.6057372129741084,0.005746378316298385,-0.006598475547518834,-0.16025361944830083
3340,1.0,300.33381,6470.9139,0.0,-0.03340005792394285,0.0,0.0,0.0,0.0,-0.4188994066146526,-0.9769991626298101,-0.5710976573704505,0.009505809663500371,0.002908249992746927,-0.17029269878908085
3341,1.0,299.60702000000003,6650.6274,0.0,-0.03341005391136209,0.0,0.0,0.0,0.0,-0.4433374386214986,-0.9950776114440141,-0.5832096133683075,0.011952853440654788,0.007278641056720942,-0.16487339142423685
3342,1.0,299.65889,6807.6942,0.0,-0.033420049898781445,0.0,0.0,0.0,0.0,-0.4738549813608456,-0.993858843826231,-0.6016552133562465,-0.010773214501983491,0.005744708277483564,-0.17046622800120684
3343,1.0,299.6336,6655.3789,0.0,-0.03343004588620069,0.0,0.0,0.0,0.0,-0.4564032986609986,-0.980984944018176,-0.5856807479771895,-0.0020622706643052676,0.004553156760036586,-0.16665150349472282
3344,1.0,300.02242,6644.0399,0.0,-0.03344004187362004,0.0,0.0,0.0,0.0,-0.4191120574131396,-1.001124556318301,-0.5993856243247554,-0.013332520108067287,0.009708558272735101,-0.17519957518085183
3345,1.0,299.79731,6725.7372,0.0,-0.033450037861039394,0.0,0.0,0.0,0.0,-0.4565295090934546,-0.9869868397930169,-0.6009398283881434,-0.004055227118419756,0.010695094945773689,-0.15928695858789885
3346,1.0,300.20191,6788.4909,0.0,-0.0334600668385161,0.0,0.0,0.0,0.0,-0.4508598580264036,-1.000544419973546,-0.6121274368497744,-0.008247053319920794,0.005096348790245465,-0.16641386594876986
3347,1.0,300.07981,6784.3395,0.0,-0.033470062825935565,0.0,0.0,0.0,0.0,-0.4613089591526496,-1.009621438609378,-0.5913394154131565,0.0011311359736094289,-0.01253597887320479,-0.18082770325880482
3348,1.0,300.50131,6685.6179,0.0,-0.03348005881335481,0.0,0.0,0.0,0.0,-0.4549941413494256,-0.9833794363894941,-0.5938873341146165,-0.005170106102124745,-0.013774700425207089,-0.15930556185973485
3349,1.0,300.43613,6530.7216,0.0,-0.03349005480077405,0.0,0.0,0.0,0.0,-0.42954694264048265,-0.9919225127526301,-0.5637068388885335,0.00942175266435459,-0.02181187013266398,-0.1870399193569028
3350,1.0,300.35119,6558.1359999999995,0.0,-0.0335000507881934,0.0,0.0,0.0,0.0,-0.4034335927857956,-1.004172128909073,-0.5859038453842075,0.0050629006951693955,-0.004743556383677566,-0.16371484125989685
3351,1.0,300.07987,6642.0386,0.0,-0.033510046775612645,0.0,0.0,0.0,0.0,-0.4525797487461436,-0.9821277584084631,-0.5843063654090485,0.011465611865067789,0.007533116691510733,-0.18608511352267082
3352,1.0,300.43202,6742.0324,0.0,-0.033520042763032,0.0,0.0,0.0,0.0,-0.4358685492193766,-1.011848410341663,-0.6016925313574295,0.006084264800645184,0.026521168834435574,-0.15356031220272287
3353,1.0,300.22767999999996,6541.1643,0.0,-0.03353003875045135,0.0,0.0,0.0,0.0,-0.4358700893595286,-0.9727445659899141,-0.5797359589779845,-0.001209402045783689,0.01977904015928928,-0.2002215938828328
3354,1.0,300.18017000000003,6748.8682,0.0,-0.03354006772792817,0.0,0.0,0.0,0.0,-0.45100274655550554,-1.000890860315237,-0.5995938168228024,-0.010817054794060189,0.0018126564008452582,-0.15921214020051486
3355,1.0,300.43422000000004,6924.3787,0.0,-0.03355006371534752,0.0,0.0,0.0,0.0,-0.46672405139707757,-1.0246961784296391,-0.6134179729721404,-0.014963602496292586,-0.012802230601981789,-0.2011843942603538
3356,1.0,299.99211,6747.0076,0.0,-0.033560059702766765,0.0,0.0,0.0,0.0,-0.4468756167781896,-0.990423419362181,-0.6136228116123564,-0.015710648490270287,-0.01142421654548239,-0.15661403522160186
3357,1.0,299.7183,6662.6912,0.0,-0.033570055690185896,0.0,0.0,0.0,0.0,-0.44461295837738257,-1.007927963319745,-0.5727508255711055,0.0014345957659335784,-0.010065704716307711,-0.18329433903724282
3358,1.0,300.44584,6774.578,0.0,-0.03358005167760536,0.0,0.0,0.0,0.0,-0.45126474263386257,-0.997128845078955,-0.6109089732070214,0.00975231365445342,-0.0008124301211381101,-0.14254038650014086
3359,1.0,299.96637000000004,6747.1799,0.0,-0.03359004766502449,0.0,0.0,0.0,0.0,-0.45670567275584056,-1.006695222983083,-0.5875733167789715,0.008225303197249222,-0.0028289296338436173,-0.16089001143860784
3360,1.0,300.27221000000003,6676.8274,0.0,-0.03360004365244407,0.0,0.0,0.0,0.0,-0.4422023553294746,-0.9931719717159421,-0.5942144821744034,0.019241901082527782,0.004893532394579046,-0.15182338874880186
3361,1.0,300.38171,6689.1792,0.0,-0.03361003963986331,0.0,0.0,0.0,0.0,-0.4425555439168316,-0.995428236508618,-0.5953596777024254,-0.0022100557245155177,0.00020341703006069783,-0.15606573519498887
3362,1.0,300.76221,6595.6246,0.0,-0.033620068617340126,0.0,0.0,0.0,0.0,-0.4320924396742036,-0.99120391578171,-0.5816088099328205,-0.00937295828856396,0.006208412965172654,-0.16929214471283385
3363,1.0,300.04008,6671.74,0.0,-0.03363006460475948,0.0,0.0,0.0,0.0,-0.4444279287766216,-0.996481043892522,-0.5871334041155554,-0.02011381292607878,-0.004574936165636046,-0.17750083841046885
3364,1.0,299.49536,6926.0923,0.0,-0.03364006059217872,0.0,0.0,0.0,0.0,-0.46613877787431557,-1.014816787304619,-0.6244035190988295,-0.005232865800068645,0.009490539579193331,-0.18258813411504582
3365,1.0,299.26037,6808.6865,0.0,-0.03365005657959785,0.0,0.0,0.0,0.0,-0.4631640174357296,-1.00752808416778,-0.5989785814945835,0.0018568039103522781,0.0006461377945388353,-0.17262986146974083
3366,1.0,299.95724,6550.3746,0.0,-0.03366005256701732,0.0,0.0,0.0,0.0,-0.4300026214754546,-0.984645644376959,-0.5765020496938225,-0.006827270763824164,-0.0018072154504582781,-0.1877178849988128
3367,1.0,300.05566,6633.7785,0.0,-0.03367004855443667,0.0,0.0,0.0,0.0,-0.4281880020038656,-1.002657735442114,-0.5856572709723724,0.01061326790744799,-0.01056222948666089,-0.16886087507277084
3368,1.0,300.38984,6742.941999999999,0.0,-0.033680044541856025,0.0,0.0,0.0,0.0,-0.4463359699074305,-1.0044700852334791,-0.5988799517298494,0.008080863483569132,0.0019350847759779981,-0.15618834858958983
3369,1.0,300.09645,6701.2884,0.0,-0.03369004052927527,0.0,0.0,0.0,0.0,-0.4306013205620416,-1.0053461108724362,-0.6010769211266734,0.023077702204341875,0.014991333125029383,-0.15942346364137083
3370,1.0,300.2335,6801.6148,0.0,-0.0337000365166944,0.0,0.0,0.0,0.0,-0.4439881073057146,-1.0208953759795292,-0.6026375795931984,-0.003024289724674157,0.007449885997821503,-0.16411801347468682
3371,1.0,300.46078,6783.703,0.0,-0.03371006549417144,0.0,0.0,0.0,0.0,-0.4536991570591205,-1.015294129426729,-0.5930830769802424,-0.001977434475832588,0.007628680766742173,-0.16831966779685784
3372,1.0,299.60096,6663.3809,0.0,-0.03372006148159057,0.0,0.0,0.0,0.0,-0.4378839745957836,-1.004193660473698,-0.5834237739094434,-0.011227618668329688,0.008606407635461302,-0.17174041026695883
3373,1.0,299.91202999999996,6779.9782,0.0,-0.03373005746900981,0.0,0.0,0.0,0.0,-0.44845112949118054,-1.019389686330929,-0.5931032710547355,-0.0019206602488794082,-0.001989554568228748,-0.18139974373526083
3374,1.0,300.32211,6827.581,0.0,-0.033740053456429164,0.0,0.0,0.0,0.0,-0.47631076523071253,-0.990629220589992,-0.6084741534817235,0.001094479320766699,-0.009155649782017281,-0.16153251332701785
3375,1.0,300.1313,6717.8973,0.0,-0.03375004944384863,0.0,0.0,0.0,0.0,-0.43910298539359055,-1.015695477791339,-0.5872745802519884,0.0023332363365224976,-0.007411671067649983,-0.17723582284681383
3376,1.0,300.25815,6642.4552,0.0,-0.03376004543126798,0.0,0.0,0.0,0.0,-0.44900312788065855,-0.985661012169668,-0.5844763685108264,0.013061191996289287,-0.0012831656398135888,-0.16462600641232183
3377,1.0,299.72385,6835.4362,0.0,-0.033770041418687224,0.0,0.0,0.0,0.0,-0.47045117029991557,-1.0170703568520292,-0.5902804069386404,0.011266317729398989,-0.0009288468530300472,-0.17215392776526983
3378,1.0,299.12822,6849.7541,0.0,-0.033780037406106356,0.0,0.0,0.0,0.0,-0.45644883412049253,-1.0260356950618392,-0.5996696383277854,-0.0072646665139917636,-0.0058381232492529045,-0.16176903629786085
3379,1.0,299.86879,6794.9372,0.0,-0.033790066383583395,0.0,0.0,0.0,0.0,-0.45860291264058356,-1.023941813730189,-0.5829465331123435,-0.01881094453674568,-0.006330074309979694,-0.17404335549174182
3380,1.0,299.71986,6755.9654,0.0,-0.033800062371002526,0.0,0.0,0.0,0.0,-0.43608601295583854,-1.021580333047129,-0.5959784290084914,-0.020285399737763082,0.004418174013514826,-0.15654949119023187
3381,1.0,299.75594,6707.8967,0.0,-0.03381005835842177,0.0,0.0,0.0,0.0,-0.44004543970910354,-1.002027605337425,-0.5969600353078685,-0.0005373235693397075,0.005826377046143645,-0.17811751255382982
3382,1.0,300.51093,6710.173000000001,0.0,-0.03382005434584112,0.0,0.0,0.0,0.0,-0.4228575060102866,-1.019214191413609,-0.5976533618212945,-0.004667333631654965,-0.004346468127788006,-0.17367208039009982
3383,1.0,300.57091,6644.7767,0.0,-0.033830050333260475,0.0,0.0,0.0,0.0,-0.4458138927934056,-0.9933847643694431,-0.5806475192979484,0.018753715157847583,0.0004624056706633866,-0.19246821425013383
3384,1.0,300.85305,6701.4899,0.0,-0.03384004632067994,0.0,0.0,0.0,0.0,-0.42843364422560865,-1.0029860892695202,-0.6056658700345674,0.003707855903861887,-0.015666769694689785,-0.17581441534153183
3385,1.0,300.67843,6530.8814,0.0,-0.03385004230809907,0.0,0.0,0.0,0.0,-0.42702970515205063,-0.9889691825536591,-0.5692259817857305,0.015750837028986588,-0.005068180437465465,-0.1905331598716588
3386,1.0,300.04365,6726.258000000001,0.0,-0.03386003829551831,0.0,0.0,0.0,0.0,-0.4427841534043936,-0.9970576135969251,-0.6047727204689204,-0.02094617153872618,-0.009969232161036611,-0.15840867340121886
3387,1.0,299.90926,6926.6642,0.0,-0.03387006727299524,0.0,0.0,0.0,0.0,-0.47521860321292453,-1.0086780318387711,-0.6216363128107274,-0.00016608321204363683,-0.004856027955377646,-0.17481480358787785
3388,1.0,299.42537999999996,6880.274,0.0,-0.033880063260414484,0.0,0.0,0.0,0.0,-0.4618544930064896,-1.018693279537199,-0.6108837331470304,-0.021594495562210776,0.010117208725515761,-0.15239582439279686
3389,1.0,299.43406,6824.1272,0.0,-0.033890059247833726,0.0,0.0,0.0,0.0,-0.4595366226077336,-1.0155021496722592,-0.5993254879313205,-0.009634891748064782,0.007015454206846424,-0.18151341013147881
3390,1.0,299.86324,6883.8858,0.0,-0.0339000552352533,0.0,0.0,0.0,0.0,-0.46475306717005654,-1.0217922036430391,-0.6059841318909773,0.0008201691430168922,0.0057079671195824945,-0.15537680618699684
3391,1.0,300.0195,6805.7484,0.0,-0.03391005122267243,0.0,0.0,0.0,0.0,-0.46354692464851954,-1.0111438975471332,-0.5940867518667974,0.004715893946672496,0.008048861397710773,-0.17831880481869583
3392,1.0,299.62646,6787.735,0.0,-0.0339200472100919,0.0,0.0,0.0,0.0,-0.4543435841227206,-0.9944733901443821,-0.6144849861224464,0.012329190739796388,0.003043589200653867,-0.15793227360170184
3393,1.0,300.40852,6856.2424,0.0,-0.03393004319751103,0.0,0.0,0.0,0.0,-0.4596601479274246,-1.009068882932345,-0.6153974482349994,0.0012291130026290088,-0.004739127670140486,-0.16279021001364283
3394,1.0,300.50711,6680.9961,0.0,-0.03394003918493027,0.0,0.0,0.0,0.0,-0.4322395737212246,-0.988807903535242,-0.6098084924059124,0.0006725385325193854,-0.014875995879396486,-0.16096814315381885
3395,1.0,301.20387999999997,6664.8451,0.0,-0.0339500681624072,0.0,0.0,0.0,0.0,-0.4320991980523706,-1.0002345376954629,-0.5936127534700174,-0.011655529384311188,-0.013217916455506788,-0.16606877322971184
3396,1.0,300.20547,6812.0289,0.0,-0.03396006414982644,0.0,0.0,0.0,0.0,-0.4529137970391115,-1.0074826702982982,-0.6102902320334564,-0.016868166152758383,-0.005278556185502935,-0.18157816694536982
3397,1.0,300.75581,6923.1723,0.0,-0.033970060137245794,0.0,0.0,0.0,0.0,-0.47503572170237557,-1.030269864579719,-0.5991659314380734,-0.014605759037976186,-0.00018870048428328782,-0.17129921077591584
3398,1.0,300.91195,6819.3833,0.0,-0.03398005612466515,0.0,0.0,0.0,0.0,-0.44400376201975955,-1.038427237159789,-0.5904912642844504,-0.008903788839110542,-0.005209476036085255,-0.2064951116119808
3399,1.0,300.43144,6826.6777,0.0,-0.03399005211208439,0.0,0.0,0.0,0.0,-0.45450976727162157,-1.0221020555236189,-0.5985277561275905,0.005459002754736625,0.003713192388163556,-0.16953453440175584
3400,1.0,299.97909,6791.6315,0.0,-0.034000048099503744,0.0,0.0,0.0,0.0,-0.45287694513297455,-1.017006116795689,-0.5946033169002785,0.025605706488336478,0.007250152212934314,-0.19793300641196682
3401,1.0,300.23967999999996,6606.4741,0.0,-0.034010044086922986,0.0,0.0,0.0,0.0,-0.4247069508878126,-1.000063784788611,-0.5834324169327965,0.003222438178454887,0.006535793565857604,-0.16132564818660186
3402,1.0,299.88906000000003,6600.4869,0.0,-0.03402004007434223,0.0,0.0,0.0,0.0,-0.4162322486414246,-1.002495899136142,-0.5876550556645385,0.008692218367880162,-0.0005799351031526385,-0.19052967429131482
3403,1.0,300.22675,6790.9799,0.0,-0.034030069051819156,0.0,0.0,0.0,0.0,-0.45066696560486663,-1.011884066612682,-0.6017372866143464,-0.018856798156771083,-0.004393429027522685,-0.15594472273554585
3404,1.0,299.82552999999996,6688.9273,0.0,-0.0340400650392384,0.0,0.0,0.0,0.0,-0.44012498997445454,-0.995591146859696,-0.5975507499836674,-0.0036018339730233364,0.0036241871821544266,-0.18415365618205082
3405,1.0,299.89243999999997,6839.8809,0.0,-0.03405006102665775,0.0,0.0,0.0,0.0,-0.4504744683508686,-1.018037504072479,-0.6106410090855754,-0.0021918490387686576,0.009134597180714552,-0.16434929794251282
3406,1.0,299.89833,7076.0012,0.0,-0.034060057014077105,0.0,0.0,0.0,0.0,-0.4840195719915126,-1.0412478214631589,-0.6256603139928655,0.016725184404647184,0.004613568757498785,-0.17506855181042083
3407,1.0,300.40336,7083.8103,0.0,-0.03407005300149635,0.0,0.0,0.0,0.0,-0.4748802790045345,-1.041453916533499,-0.6369672529187734,-0.0021479264707838382,-0.0065355639633849424,-0.16307706111695286
3408,1.0,300.31102000000004,6935.130999999999,0.0,-0.0340800489889157,0.0,0.0,0.0,0.0,-0.46948653593971357,-1.021835469422309,-0.6167846281519035,-0.0032079970340546564,-0.009554964756326601,-0.17527766636605885
3409,1.0,300.47447999999997,6941.7483,0.0,-0.03409004497633494,0.0,0.0,0.0,0.0,-0.4724348100206855,-1.023118345373919,-0.6145650126153444,-0.009653462393247561,0.0014123265552357786,-0.15904181285870483
3410,1.0,300.03012,6689.0049,0.0,-0.0341000409637543,0.0,0.0,0.0,0.0,-0.4418863428882866,-1.000748275761165,-0.5906558363656924,0.0012093792476564388,-0.00985565898382781,-0.18021998624632785
3411,1.0,300.44065,6528.7480000000005,0.0,-0.03411003695117365,0.0,0.0,0.0,0.0,-0.41743733738285754,-1.002643256098185,-0.5644957858138965,-0.006999703031391904,-0.004786377346153665,-0.1783809778448318
3412,1.0,299.36114,6612.0617,0.0,-0.034120065928650245,0.0,0.0,0.0,0.0,-0.4399082760430666,-0.9853906162479821,-0.5846027410632985,-0.005351919241768305,-0.006809736166868633,-0.18148356991603382
3413,1.0,299.73555,6717.3341,0.0,-0.03413006191606971,0.0,0.0,0.0,0.0,-0.4324316758076836,-1.0122909979853432,-0.5971791607744944,0.005550107110977925,-0.0005748526305185375,-0.16952907298371683
3414,1.0,300.10364,6746.1617,0.0,-0.03414005790348906,0.0,0.0,0.0,0.0,-0.4202303004885016,-1.022615570674299,-0.6078188441120495,0.012403901722669789,-0.005320228730315695,-0.1857410745837168
3415,1.0,299.84179,6969.3174,0.0,-0.034150053890908305,0.0,0.0,0.0,0.0,-0.4628384905761026,-1.031699965770859,-0.6239600296625604,0.00022108760517964776,-0.004285351313556247,-0.17242703919722385
3416,1.0,299.46294,7133.4505,0.0,-0.03416004987832766,0.0,0.0,0.0,0.0,-0.47906756544028756,-1.0511201198374789,-0.6382031039332424,0.003076147459492117,-0.0026923119069604973,-0.17730676048631483
3417,1.0,299.99,6933.418000000001,0.0,-0.03417004586574679,0.0,0.0,0.0,0.0,-0.4784924953460325,-1.011050587345424,-0.6180428618610814,-0.014022705546183286,0.008847968485801503,-0.18150658082580484
3418,1.0,300.065,6842.5081,0.0,-0.034180041853166254,0.0,0.0,0.0,0.0,-0.44129627669255156,-1.0347423505211188,-0.6039130385540764,-0.0006761910255523583,-0.0036306279064150767,-0.16694795007647983
3419,1.0,300.32437000000004,6776.5648,0.0,-0.03419003784058561,0.0,0.0,0.0,0.0,-0.4517423684660005,-1.006601821588865,-0.6015623084545775,-0.0035568777886115063,-0.006380674905398584,-0.16817068963465484
3420,1.0,300.04644,6677.8139,0.0,-0.034200066818062425,0.0,0.0,0.0,0.0,-0.4287907844883556,-0.997447208260375,-0.6036506878381844,0.005576520007959675,-0.004904132206525165,-0.16182466372835086
3421,1.0,299.72798,6700.4875,0.0,-0.034210062805481556,0.0,0.0,0.0,0.0,-0.45942494218171154,-1.007899480859434,-0.5694564657859774,0.00883622684231769,0.00991919858037368,-0.17613350806302383
3422,1.0,300.00097999999997,6892.2432,0.0,-0.03422005879290102,0.0,0.0,0.0,0.0,-0.45924182762363963,-1.019232733890439,-0.6165952821057165,0.0055658525109068754,0.003808432020712976,-0.18270769762684583
3423,1.0,300.07963,6932.2624,0.0,-0.03423005478032015,0.0,0.0,0.0,0.0,-0.4861098765503095,-1.028016295032309,-0.5931084791602494,0.005355698867291325,0.01213122902800909,-0.19105251134291482
3424,1.0,299.99759,6935.8239,0.0,-0.034240050767739616,0.0,0.0,0.0,0.0,-0.45184925621904953,-1.040874742776339,-0.6155933094793296,-0.0058349911918687955,-0.0008443371033420843,-0.17885033555615382
3425,1.0,299.48751,7063.1373,0.0,-0.03425004675515875,0.0,0.0,0.0,0.0,-0.4819047062502915,-1.032442880744179,-0.6326697957996473,-0.0019832306717046284,0.017423368439052584,-0.17135868855678582
3426,1.0,299.70403999999996,6969.3501,0.0,-0.03426004274257821,0.0,0.0,0.0,0.0,-0.4528979194100446,-1.0233357888453791,-0.6422747380025814,-0.013933272039356886,-0.017884668785579382,-0.16123869106301986
3427,1.0,300.52432000000005,6738.1089,0.0,-0.034270038729997565,0.0,0.0,0.0,0.0,-0.4374088210938896,-1.0113207502195871,-0.5994872837072884,-0.008670192235881351,-0.019321965065679483,-0.17911511807228583
3428,1.0,300.40995,6739.5914,0.0,-0.03428006770747438,0.0,0.0,0.0,0.0,-0.44158359389090757,-1.005012619867023,-0.6020712842448094,-0.00032150478362005173,-0.008932723411616163,-0.18018639700551284
3429,1.0,300.48817,6791.5932,0.0,-0.03429006369489351,0.0,0.0,0.0,0.0,-0.4784355304254106,-0.9995480810177151,-0.5864911251421675,-0.004643542823281996,0.015730869922515985,-0.18777512349696182
3430,1.0,300.22104,6740.776999999999,0.0,-0.03430005968231298,0.0,0.0,0.0,0.0,-0.4483604537397316,-1.004280688524787,-0.5963867485337894,0.004443548633119106,0.007574544637749353,-0.18926646552414583
3431,1.0,300.2037,6833.105,0.0,-0.03431005566973211,0.0,0.0,0.0,0.0,-0.4362161446661816,-1.031469654023129,-0.6094074581488333,-0.015157346047913587,0.002757875470581117,-0.17968661139368783
3432,1.0,299.96724,6931.6354,0.0,-0.03432005165715146,0.0,0.0,0.0,0.0,-0.4492083515559126,-1.038584088275269,-0.6192515983028745,0.015986798659274184,0.01138844476395199,-0.16674546217649583
3433,1.0,300.05978999999996,6912.3709,0.0,-0.03433004764457093,0.0,0.0,0.0,0.0,-0.4502444403131666,-1.035507151696599,-0.6154365596888594,-0.0036961152736281764,-8.133480851987062e-05,-0.17579364371448183
3434,1.0,299.83572999999996,6980.5348,0.0,-0.03434004363199006,0.0,0.0,0.0,0.0,-0.4686383544135045,-1.046227337754599,-0.6070425425479344,0.0012575817840636589,0.001220341803138359,-0.18500454308602682
3435,1.0,299.81022,7080.4926,0.0,-0.03435003961940952,0.0,0.0,0.0,0.0,-0.4892462909098495,-1.039220105363039,-0.6238266048893925,-0.01040192724134029,-0.003719872746072856,-0.16330714994966086
3436,1.0,299.55962999999997,6903.2498,0.0,-0.03436006859688623,0.0,0.0,0.0,0.0,-0.4592196678439526,-1.030572015759539,-0.6086238915815014,0.014273799053464287,0.008680794986252762,-0.16740563514664983
3437,1.0,299.95339,6819.7703,0.0,-0.03437006458430547,0.0,0.0,0.0,0.0,-0.4383184055761586,-1.020959514710859,-0.6137619713810903,0.007998002119541351,0.02492781785343408,-0.15042282379807687
3438,1.0,300.10217,6850.1915,0.0,-0.034380060571724824,0.0,0.0,0.0,0.0,-0.45436371740220755,-1.008805762146377,-0.6191176669046564,-0.0005910267061672944,-0.0006285331820013953,-0.16008169117133283
3439,1.0,300.07322,6862.7453,0.0,-0.03439005655914407,0.0,0.0,0.0,0.0,-0.4502604091347426,-1.0140846127823588,-0.6217581966652564,-0.011491188324091989,-0.012869309785101988,-0.16167533092861286
3440,1.0,300.93722,6836.1655,0.0,-0.03440005254656342,0.0,0.0,0.0,0.0,-0.4569233290098216,-1.020783614493499,-0.6003167302391484,-0.002783081080068717,-0.014180707713776886,-0.19803961045498783
3441,1.0,300.31709,6940.812,0.0,-0.034410048533982884,0.0,0.0,0.0,0.0,-0.48564594985952353,-1.025637285122519,-0.5985503516048204,0.008571696828110612,0.0014089018712227887,-0.18224273742095784
3442,1.0,300.27431,6977.2655,0.0,-0.034420044521402016,0.0,0.0,0.0,0.0,-0.4729868692051695,-1.046640541145379,-0.6012870590649124,0.002912091933151097,-0.008814134646412362,-0.19779274220062382
3443,1.0,300.275,6951.2446,0.0,-0.03443004050882137,0.0,0.0,0.0,0.0,-0.46147249771878956,-1.046320658088809,-0.6052116300147374,-0.013383342706583088,-0.014275332100865587,-0.16293996837842284
3444,1.0,300.20783,6979.0899,0.0,-0.034440069486298186,0.0,0.0,0.0,0.0,-0.44457514388365055,-1.045541367436899,-0.6313525301396434,0.0075397544929158315,0.004001538136696066,-0.16505025422919184
3445,1.0,299.93415,6944.6077,0.0,-0.03445006547371743,0.0,0.0,0.0,0.0,-0.4481469619436616,-1.034982186819789,-0.6278581649172764,-0.002904970203498237,0.008748859149795172,-0.16046892496204984
3446,1.0,300.10452999999995,6772.0011,0.0,-0.03446006146113678,0.0,0.0,0.0,0.0,-0.43632940576235957,-1.024526763012919,-0.5976630991547555,0.01019030489170479,0.0032486524784170368,-0.17881463875513082
3447,1.0,299.45377,6733.9995,0.0,-0.034470057448556024,0.0,0.0,0.0,0.0,-0.4555694748887066,-1.010288400355202,-0.5811098247885744,-0.014416793973826785,-0.022628234592482876,-0.17991493717122184
3448,1.0,300.00048,6952.2933,0.0,-0.03448005343597538,0.0,0.0,0.0,0.0,-0.4677199343903635,-1.030593192686629,-0.6150103866967994,0.004970488233048995,-0.0032649405750995466,-0.17865697703957084
3449,1.0,299.69203999999996,6899.6173,0.0,-0.03449004942339473,0.0,0.0,0.0,0.0,-0.4672167037281986,-1.029931236396299,-0.6001634761615234,0.004380350400531926,-0.005977082799767145,-0.18977028387136882
3450,1.0,299.53435,6774.2878,0.0,-0.03450004541081397,0.0,0.0,0.0,0.0,-0.43050616624515053,-1.030640612791309,-0.5980675581971725,-0.009367889504938711,-0.005262095734978415,-0.17705688287915383
3451,1.0,299.68021,6903.1485,0.0,-0.034510041398233327,0.0,0.0,0.0,0.0,-0.4514269031798666,-1.036336091603409,-0.6106217573336754,0.003404985113820867,-0.015137755870480185,-0.18837802757146382
3452,1.0,299.71146,7006.6997,0.0,-0.03452003738565257,0.0,0.0,0.0,0.0,-0.4558462137560185,-1.047477283077959,-0.6265382648070124,0.00981044178619022,0.001968790540554498,-0.16750225867618584
3453,1.0,300.35456,7012.8864,0.0,-0.034530066363129386,0.0,0.0,0.0,0.0,-0.4828376562798666,-1.054977866943209,-0.5939268711335184,0.030200580882815273,0.019375695691982282,-0.1962301078964038
3454,1.0,300.8913,7098.5968,0.0,-0.03454006235054874,0.0,0.0,0.0,0.0,-0.4796353401338226,-1.036544517148979,-0.6416163078225994,0.0018978340546016385,0.0019835171175078977,-0.14997488619386887
3455,1.0,300.20034,6896.3224,0.0,-0.03455005833796809,0.0,0.0,0.0,0.0,-0.4836704465370566,-1.014285337627169,-0.5983540546629474,-0.008325355869098652,-0.005123997548374185,-0.16826609726407082
3456,1.0,300.04237,6828.6477,0.0,-0.034560054325387446,0.0,0.0,0.0,0.0,-0.4332253850085166,-1.016276576723689,-0.6262363872047194,-0.02284489583486568,0.010287076355755391,-0.1417274863424139
3457,1.0,299.70899,6964.9492,0.0,-0.03457005031280669,0.0,0.0,0.0,0.0,-0.4723071405080856,-1.023618890923319,-0.6212446207195703,-0.01327335440822809,0.022063681021015778,-0.17790377757773582
3458,1.0,299.93082000000004,7028.3702,0.0,-0.03458004630022593,0.0,0.0,0.0,0.0,-0.4577817747595435,-1.051804671605039,-0.6268626162965234,-0.013990462914751187,0.006021911213341364,-0.17358439372644585
3459,1.0,300.43235,6833.3971,0.0,-0.034590042287645284,0.0,0.0,0.0,0.0,-0.46544024325537553,-1.025570613265939,-0.5861712623505995,-0.0049304043630680255,-0.02588726133337377,-0.2012016093795528
3460,1.0,300.04944,6906.1969,0.0,-0.034600038275064526,0.0,0.0,0.0,0.0,-0.4572166851787736,-1.039861188701309,-0.6022335866458275,0.006690005772777163,-0.002052129246704388,-0.1893334312232548
3461,1.0,299.67582999999996,7043.4583,0.0,-0.03461006725254123,0.0,0.0,0.0,0.0,-0.4976541693121425,-1.038902248806669,-0.6044790197949343,0.012713068646182189,0.004099982881961806,-0.18854571033051282
3462,1.0,299.46961,6985.2657,0.0,-0.0346200632399607,0.0,0.0,0.0,0.0,-0.4482810959918995,-1.0349177441134292,-0.6401475511401444,0.013103287471693786,0.0035731449110169467,-0.16695690720736384
3463,1.0,299.9836,6879.6206,0.0,-0.03463005922738005,0.0,0.0,0.0,0.0,-0.44735355671785854,-1.024548750540089,-0.6193305304856644,-0.006056522722182254,-0.007126240237005153,-0.17129227001273084
3464,1.0,299.75226000000004,6940.2291,0.0,-0.0346400552147994,0.0,0.0,0.0,0.0,-0.44668155911903756,-1.029471727475949,-0.6335030622843845,-0.0030409630590446874,0.014343809569123789,-0.15290265209281687
3465,1.0,299.36565,6862.6516,0.0,-0.034650051202218646,0.0,0.0,0.0,0.0,-0.44572438227957156,-1.028572569337209,-0.6117777338427615,0.002877157805478367,0.005062300749785185,-0.17756254534155883
3466,1.0,300.15132,6903.1238,0.0,-0.03466004718963778,0.0,0.0,0.0,0.0,-0.4588776554051986,-1.0371742520861291,-0.6023253060448794,-0.007680628376844003,-0.009030527884143711,-0.17376489409925985
3467,1.0,300.34449,7083.9829,0.0,-0.03467004317705724,0.0,0.0,0.0,0.0,-0.4924510591211355,-1.040210050710739,-0.6206928655101164,-0.0025075540598763174,-0.02432458447264958,-0.17228341099554884
3468,1.0,299.96002000000004,7036.4051,0.0,-0.034680039164476595,0.0,0.0,0.0,0.0,-0.4730511396590126,-1.049842918086429,-0.6159974138842114,0.0013878511950952486,0.013783741655849384,-0.17946877275468884
3469,1.0,300.29336,6908.8736,0.0,-0.03469006814195319,0.0,0.0,0.0,0.0,-0.4497771597645496,-1.0544285840639989,-0.5959192856001545,0.008415113109332002,0.017299093314287587,-0.1974581974151068
3470,1.0,300.06512000000004,6975.5548,0.0,-0.03470006412937254,0.0,0.0,0.0,0.0,-0.46764965536342756,-1.040113184001179,-0.6126316604970374,0.0038024704624246165,0.0074937919485046816,-0.1876375849283878
3471,1.0,299.68124,7097.161999999999,0.0,-0.03471006011679201,0.0,0.0,0.0,0.0,-0.47487988383699553,-1.057348770852199,-0.6251314278381683,-0.01111092062781249,-0.012109572833621789,-0.17829535821138184
3472,1.0,300.11471,6929.1466,0.0,-0.03472005610421136,0.0,0.0,0.0,0.0,-0.47109800889875353,-1.021063980796169,-0.6141255153844694,-3.999764442396016e-05,0.006203931562630374,-0.16982186173261282
3473,1.0,299.23264,6797.1773,0.0,-0.0347300520916306,0.0,0.0,0.0,0.0,-0.45668474914127555,-1.0137164990210292,-0.5957709153880114,0.006870945693484544,-0.00856524698459906,-0.16229203546947685
3474,1.0,299.61362,6833.052,0.0,-0.034740048079049735,0.0,0.0,0.0,0.0,-0.4427172586327916,-1.0255990855937491,-0.6087608627300194,0.013176036802373588,0.005104619849486755,-0.17034884297712183
3475,1.0,299.58415,6881.7552,0.0,-0.0347500440664692,0.0,0.0,0.0,0.0,-0.4582170872675056,-1.0223465527727489,-0.6113180729348964,-0.003876779590308356,-0.008941477588505132,-0.16058922814642285
3476,1.0,299.73517999999996,7072.3149,0.0,-0.03476004005388855,0.0,0.0,0.0,0.0,-0.46704404591115856,-1.066579783238229,-0.6161833047475574,0.010135584320054292,0.015507885999509185,-0.1968971304372338
3477,1.0,299.78452000000004,7217.6087,0.0,-0.03477006903136515,0.0,0.0,0.0,0.0,-0.4840728689467726,-1.0717302348215387,-0.6381697173424474,0.005828581979686254,-0.015508299405549986,-0.17436450511093682
3478,1.0,300.04548,6906.8478,0.0,-0.03478006501878472,0.0,0.0,0.0,0.0,-0.4459761546644196,-1.044989247457409,-0.6085439056186075,0.0066539404526927935,-0.007016290543478963,-0.1993694708137348
3479,1.0,300.18865,6821.6436,0.0,-0.034790061006203965,0.0,0.0,0.0,0.0,-0.4420843015603236,-1.043115849347519,-0.5884091163889584,-0.0015099691103973487,-0.016892653367925083,-0.1752142875723038
3480,1.0,300.76329,7027.2023,0.0,-0.03480005699362332,0.0,0.0,0.0,0.0,-0.4621411515922806,-1.038041492846719,-0.6359114057845693,-0.008682898594785372,0.007189748625447944,-0.18848633387465283
3481,1.0,300.16399,7019.4197,0.0,-0.03481005298104245,0.0,0.0,0.0,0.0,-0.47489242787323355,-1.0512501198253088,-0.6075857459265444,-0.007456289130503443,0.006690598828060694,-0.18130556213846583
3482,1.0,300.14443,6826.7952,0.0,-0.03482004896846169,0.0,0.0,0.0,0.0,-0.43946199003652164,-1.0348345562802188,-0.6008787496721154,-0.01997531176990978,0.01057045201122239,-0.18906826367208482
3483,1.0,300.25642999999997,6913.3944,0.0,-0.034830044955881045,0.0,0.0,0.0,0.0,-0.46161791937314156,-1.033257939124619,-0.6066233913790674,0.006645111903246484,-0.0005524041961430495,-0.16142395371130386
3484,1.0,300.24405,7090.6855,0.0,-0.03484004094330051,0.0,0.0,0.0,0.0,-0.4736693438100245,-1.0479842121029892,-0.6337378222000534,-0.002143459760368008,0.014449540190558587,-0.16297719518709686
3485,1.0,300.17238,7163.1984,0.0,-0.034850069920777216,0.0,0.0,0.0,0.0,-0.4853904689793095,-1.057317968049159,-0.6347249912424795,0.017253972274084484,0.004259040146884536,-0.17197312341742585
3486,1.0,299.92104,7223.1418,0.0,-0.03486006590819668,0.0,0.0,0.0,0.0,-0.4852330200462705,-1.060180804881699,-0.6502409406862844,-0.0009579014551425132,-0.006677111152004563,-0.16347414369864186
3487,1.0,300.08907999999997,7053.9214,0.0,-0.03487006189561581,0.0,0.0,0.0,0.0,-0.47475708805737654,-1.0540899558805792,-0.6153689049796824,0.013269964073393486,-0.01858065102751748,-0.17949378989965784
3488,1.0,300.17323999999996,6874.0922,0.0,-0.034880057883035276,0.0,0.0,0.0,0.0,-0.4291375186725756,-1.041060268869649,-0.6193546559705454,-0.007441059778850423,0.005308035278612295,-0.17522532186589285
3489,1.0,299.92681,7017.2813,0.0,-0.03489005387045441,0.0,0.0,0.0,0.0,-0.46888330762517955,-1.048295482533709,-0.6158995035270484,-0.009173430092122061,-0.0032970713437206066,-0.2008980700470958
3490,1.0,299.49791,7094.3502,0.0,-0.03490004985787365,0.0,0.0,0.0,0.0,-0.4700982552900856,-1.043613963096679,-0.6427931066212403,-0.027848800042962578,0.0051481306326309345,-0.16269814610955685
3491,1.0,299.73662,6811.4485,0.0,-0.034910045845293225,0.0,0.0,0.0,0.0,-0.4562180664102176,-1.021218704086439,-0.5930734713692944,0.002716851811132398,-0.006486620437179594,-0.17831210723553484
3492,1.0,299.59778,6881.7974,0.0,-0.034920041832712356,0.0,0.0,0.0,0.0,-0.4369907743676316,-1.0490918971123089,-0.6058118996389794,0.004255039936814746,0.02671023725009518,-0.16795630617849683
3493,1.0,300.33892000000003,7191.8086,0.0,-0.03493003782013182,0.0,0.0,0.0,0.0,-0.4982648247499095,-1.055142722734479,-0.6327226469248634,0.018390095160711085,0.011532258390395289,-0.18468681825216984
3494,1.0,299.8891,7219.7792,0.0,-0.03494006679760853,0.0,0.0,0.0,0.0,-0.4804006175368496,-1.074473001517229,-0.6397590203892994,-0.006237216321790324,0.0025799857366497676,-0.18934577260947283
3495,1.0,300.37674,7014.5012,0.0,-0.03495006278502777,0.0,0.0,0.0,0.0,-0.4746733834666156,-1.044284228037829,-0.6132755910680884,0.004261807535557656,0.004807567546819975,-0.18316568667204583
3496,1.0,300.58386,6975.5747,0.0,-0.03496005877244712,0.0,0.0,0.0,0.0,-0.45234097636007853,-1.0403406586486292,-0.6277188632935284,-0.0021945814703133275,0.01069607577187049,-0.17381350983905783
3497,1.0,300.93596,6875.079000000001,0.0,-0.034970054759866365,0.0,0.0,0.0,0.0,-0.45011569675546054,-1.022180177106329,-0.6175564410180754,-0.005849444799245255,-0.0004927528455309195,-0.17324343506779585
3498,1.0,300.38248,6940.081999999999,0.0,-0.03498005074728572,0.0,0.0,0.0,0.0,-0.4492387490589126,-1.050343767610859,-0.6100291377476884,-0.015810891349163483,-0.021724262502517775,-0.1858601821329718
3499,1.0,299.88041,7090.3205,0.0,-0.03499004673470518,0.0,0.0,0.0,0.0,-0.4789473129184196,-1.040809793444929,-0.6355233005987664,0.01031084922960159,-0.01031825608783259,-0.17584368813692083
3500,1.0,299.80584,7044.4291,0.0,-0.035000042722124314,0.0,0.0,0.0,0.0,-0.45595159176641853,-1.062257764936679,-0.6231211801697724,0.02332869134686258,0.009585087668549501,-0.2000168970976308
3501,1.0,300.34718,6956.2501,0.0,-0.03501003870954367,0.0,0.0,0.0,0.0,-0.46114557257402455,-1.042711866532649,-0.6106688633308245,0.01244897817986849,0.0012905231527647189,-0.1823662323431458
3502,1.0,299.79546,7140.7683,0.0,-0.035020067687020484,0.0,0.0,0.0,0.0,-0.4828193468505595,-1.055935894912759,-0.6318600265847295,-0.0009826941044193572,0.0009844591556960542,-0.17410024948485683
3503,1.0,299.80861,7248.2163,0.0,-0.035030063674439726,0.0,0.0,0.0,0.0,-0.5114913659902675,-1.050271421553719,-0.6415139796950005,-0.006143984039014014,0.0029775425193855672,-0.15527399169934986
3504,1.0,299.91816,6977.7601,0.0,-0.03504005966185908,0.0,0.0,0.0,0.0,-0.4748026336493716,-1.023092203521339,-0.6231699782945884,0.0067714864822186836,0.012648883305347589,-0.1794480011276388
3505,1.0,300.02007000000003,6986.0363,0.0,-0.03505005564927832,0.0,0.0,0.0,0.0,-0.45372067849124453,-1.0595370870931689,-0.6103228181566724,-0.01018566927249729,-0.006059551326731154,-0.18356685265163783
3506,1.0,300.46779,7101.5382,0.0,-0.035060051636697676,0.0,0.0,0.0,0.0,-0.47073807206573054,-1.048529441981799,-0.6394228240061193,-0.011070537545076989,-0.008310726969454892,-0.2037110347097138
3507,1.0,300.61755,7086.9144,0.0,-0.03507004762411703,0.0,0.0,0.0,0.0,-0.4686775367948715,-1.057155746708149,-0.6284117541094114,-0.007994633468258893,-0.00929858877097426,-0.18131373906677284
3508,1.0,300.11093999999997,6926.6356,0.0,-0.03508004361153627,0.0,0.0,0.0,0.0,-0.4540093331797325,-1.043010572662129,-0.6085043787322064,0.00916339314060649,0.006402599104437334,-0.2025389779215408
3509,1.0,300.47089,7016.4967,0.0,-0.035090039598955625,0.0,0.0,0.0,0.0,-0.45554124574092053,-1.045699839752539,-0.6315986891189374,2.4386243780984877e-05,0.0011849315492436388,-0.15242344559052287
3510,1.0,300.142,6950.2803,0.0,-0.03510006857643244,0.0,0.0,0.0,0.0,-0.45641973357762056,-1.045957711902989,-0.6103341665577924,-0.001397298941677669,-0.01132107376480299,-0.1854092554409688
3511,1.0,299.88885,7163.399,0.0,-0.035110064563851684,0.0,0.0,0.0,0.0,-0.46826957190710855,-1.064203813078739,-0.6450210004111164,-0.007431378579444962,-0.01000122218921878,-0.15995638253146585
3512,1.0,299.64793,7361.7715,0.0,-0.03512006055127104,0.0,0.0,0.0,0.0,-0.5098236576506775,-1.077134809529929,-0.6508362048550325,-0.008119666200123662,0.003779876302419746,-0.19182284486394083
3513,1.0,299.4613,7202.9338,0.0,-0.03513005653869028,0.0,0.0,0.0,0.0,-0.4876394383712655,-1.0629747407074388,-0.6388978084668044,-0.004200722841354066,0.0008011169000615822,-0.15752631494913685
3514,1.0,299.6406,6989.9692,0.0,-0.03514005252610963,0.0,0.0,0.0,0.0,-0.4452902147442226,-1.0568711247550588,-0.6226147679022934,-0.009124012972819971,-0.003642284234240466,-0.18614830993140782
3515,1.0,300.01828,7056.5346,0.0,-0.035150048513528986,0.0,0.0,0.0,0.0,-0.47998267213560153,-1.028180036248469,-0.6368476590094704,-0.005390641100964854,0.01057686284460509,-0.15337806903973686
3516,1.0,300.33802000000003,7164.0719,0.0,-0.03516004450094823,0.0,0.0,0.0,0.0,-0.47731914159773153,-1.060205832159169,-0.6401739868352534,0.012790805193854187,0.020405500272116083,-0.17852325842387384
3517,1.0,300.38658,6969.0589,0.0,-0.03517004048836758,0.0,0.0,0.0,0.0,-0.45680713962085456,-1.048000221454569,-0.6136125271238415,0.01883607313922568,0.012154619906567589,-0.18922052476461182
3518,1.0,300.0995,6967.5907,0.0,-0.0351800694658444,0.0,0.0,0.0,0.0,-0.44834552856575854,-1.054258560697219,-0.6153695027972413,0.002885576292609207,-0.018176686451149282,-0.20061596095425382
3519,1.0,300.20514,7091.5387,0.0,-0.03519006545326353,0.0,0.0,0.0,0.0,-0.47932911568860054,-1.057593774726379,-0.6187278087961804,-0.009739945721082801,-0.018157882555793484,-0.1850424589047688
3520,1.0,300.3308,7157.0739,0.0,-0.035200061440682995,0.0,0.0,0.0,0.0,-0.4742494700222785,-1.060839924071749,-0.6404823796356894,-0.019826697364492683,-0.015107444493738686,-0.1807602613321488
3521,1.0,300.20486,7196.3549,0.0,-0.03521005742810235,0.0,0.0,0.0,0.0,-0.48391268423846356,-1.0717350984220189,-0.6318643734276584,-0.016126561311817684,-0.0003536824657207416,-0.17638867483570683
3522,1.0,299.93282999999997,7151.6266,0.0,-0.03522005341552159,0.0,0.0,0.0,0.0,-0.4763657441811386,-1.054107789082339,-0.6434424175503224,-0.015028718000718986,-0.006950352583946393,-0.15751199772522387
3523,1.0,299.87412,6992.156,0.0,-0.035230049402940944,0.0,0.0,0.0,0.0,-0.4481930141607066,-1.0622241250333588,-0.6150236805381114,0.002887641093662987,0.021287389589401778,-0.18293869838464383
3524,1.0,300.25973,7030.1145,0.0,-0.035240045390360186,0.0,0.0,0.0,0.0,-0.4612305943899156,-1.052856526533849,-0.6228921552496693,0.005569397974331785,0.004118830549721926,-0.17733837388943485
3525,1.0,300.42767000000003,7203.7525,0.0,-0.03525004137777954,0.0,0.0,0.0,0.0,-0.48366155020117857,-1.073322658678699,-0.6327767139501994,0.026261942981851975,-7.384423049935813e-05,-0.2055780392114728
3526,1.0,299.42433,6984.0466,0.0,-0.03526007035525636,0.0,0.0,0.0,0.0,-0.4581790903887556,-1.051269472902219,-0.6135271608029164,-0.0024340463114966675,-0.028999047635983176,-0.1897144132608548
3527,1.0,299.72511000000003,6847.9606,0.0,-0.03527006634267549,0.0,0.0,0.0,0.0,-0.4473794655229155,-1.040589816848219,-0.5936397363201804,0.003784603012811236,-0.005244373484104365,-0.1957255397441068
3528,1.0,300.29078,7136.7236,0.0,-0.03528006233009495,0.0,0.0,0.0,0.0,-0.46340883892489154,-1.0696238905136592,-0.6363530409731554,-0.021018758749389983,0.004124756137631736,-0.17346889334754684
3529,1.0,300.24484,7248.4701,0.0,-0.035290058317514306,0.0,0.0,0.0,0.0,-0.48985098843702857,-1.069477678524229,-0.6440252896703474,-0.017981428090628783,0.019801613345017084,-0.19454771756286482
3530,1.0,300.30689,7147.1784,0.0,-0.03530005430493344,0.0,0.0,0.0,0.0,-0.4574870203054536,-1.077442330935279,-0.6376344173146175,-0.006767939802893653,-0.0058501180026116935,-0.18229946929405683
3531,1.0,300.26679,7075.8656,0.0,-0.0353100502923529,0.0,0.0,0.0,0.0,-0.46878745416571954,-1.057385754480849,-0.6247131987268925,-0.00031301156929433674,0.00966252013986649,-0.16809333812202085
3532,1.0,300.40645,7222.1784,0.0,-0.03532004627977203,0.0,0.0,0.0,0.0,-0.4818082448407715,-1.0661819812489688,-0.6473716899806113,0.021161053513933378,-0.0020473988886125383,-0.16149072689289384
3533,1.0,300.63072999999997,7207.291,0.0,-0.0353300422671915,0.0,0.0,0.0,0.0,-0.5003507925982785,-1.063365247295979,-0.6271204580494705,0.015061838106737684,0.008879881000351022,-0.16527617860398883
3534,1.0,300.38187999999997,7168.8425,0.0,-0.0353400712446682,0.0,0.0,0.0,0.0,-0.4687498321895066,-1.073652674236269,-0.6367466177094984,0.014865443892855086,0.0009509415313981222,-0.18182970628269485
3535,1.0,300.15355,7070.4742,0.0,-0.035350067232087445,0.0,0.0,0.0,0.0,-0.4635747687612676,-1.049988319475779,-0.6356845492196804,0.002701763402568287,0.007030837369864624,-0.17351423628952184
3536,1.0,299.98154,7000.1384,0.0,-0.0353600632195068,0.0,0.0,0.0,0.0,-0.4480889229779335,-1.062156743901709,-0.6176215828670044,0.00045903058524279154,-0.012672330925911688,-0.20497569242452582
3537,1.0,299.65015,7131.7461,0.0,-0.03537005920692626,0.0,0.0,0.0,0.0,-0.4734259611360045,-1.060656728453669,-0.6337900856402114,-0.021935756169390582,-0.016961341592204082,-0.1948659084917678
3538,1.0,299.94931,7152.7713,0.0,-0.035380055194345394,0.0,0.0,0.0,0.0,-0.4872119278890735,-1.045858109418159,-0.6411938838559094,-0.012899257405057589,-0.018370027742480585,-0.1920705034533828
3539,1.0,299.77471,6987.5034,0.0,-0.03539005118176475,0.0,0.0,0.0,0.0,-0.45699387148178355,-1.044468031605969,-0.6225646829498503,-0.011899117748101488,0.005764591790820915,-0.17668696553264582
3540,1.0,300.11953,6928.0616,0.0,-0.03540004716918399,0.0,0.0,0.0,0.0,-0.4464539122190706,-1.041817166694349,-0.6176866132584224,0.016889446431358587,0.0016199960135811584,-0.18952394250705681
3541,1.0,300.44659,7295.1769,0.0,-0.035410043156603344,0.0,0.0,0.0,0.0,-0.4908950717375715,-1.080965604182999,-0.6456909005822304,-0.006761495734907675,0.011652817927043589,-0.16689298125855484
3542,1.0,299.70827,7253.5324,0.0,-0.03542003914402281,0.0,0.0,0.0,0.0,-0.4872970104999705,-1.067585332637469,-0.6500104060235323,0.008606365484257143,-0.0050793674278445345,-0.17485963990480283
3543,1.0,300.37386000000004,7148.5543,0.0,-0.0354300681214994,0.0,0.0,0.0,0.0,-0.4596876374026375,-1.0769361111853188,-0.6363582186811664,-0.0033715908223251067,-0.0057030051325177855,-0.17155167217083184
3544,1.0,300.27285,7133.1801,0.0,-0.03544006410891898,0.0,0.0,0.0,0.0,-0.47685100991903057,-1.0686096271635592,-0.6228479572803075,0.004342096561556566,-0.012436709747657688,-0.17764777993997083
3545,1.0,299.44776,7211.5241,0.0,-0.03545006009633811,0.0,0.0,0.0,0.0,-0.48517423127546855,-1.068275153305549,-0.6386738396647004,-0.014801048809249788,-0.012383631654419289,-0.17695899278699284
3546,1.0,299.55598,7183.2409,0.0,-0.03546005608375735,0.0,0.0,0.0,0.0,-0.4788616831524686,-1.0769440145360991,-0.6277202210486623,0.005703690494885425,0.006997027544502853,-0.1917332026275938
3547,1.0,299.79722999999996,7187.1799,0.0,-0.035470052071176705,0.0,0.0,0.0,0.0,-0.47965252485551857,-1.062722137457509,-0.6423486039348714,-0.013145388013348788,0.024135296181718276,-0.18167681697510582
3548,1.0,299.67196,7191.434,0.0,-0.03548004805859595,0.0,0.0,0.0,0.0,-0.4659845004140896,-1.077461684012189,-0.6425701510692364,0.015760911774730886,0.0013630889838514087,-0.1924264987435168
3549,1.0,300.14487,7049.908,0.0,-0.0354900440460153,0.0,0.0,0.0,0.0,-0.45371582502326563,-1.062022589588469,-0.6272575507880005,0.0017520957595933886,0.0014349748227959886,-0.18674580325037585
3550,1.0,300.62539,7189.8593,0.0,-0.035500040033434654,0.0,0.0,0.0,0.0,-0.48838154274450557,-1.0638691365707091,-0.6332870170980625,0.011329624582396888,-0.007831907933999132,-0.17937497619293183
3551,1.0,300.68975,7381.0291,0.0,-0.03551006901091147,0.0,0.0,0.0,0.0,-0.5008613693236685,-1.086525307481699,-0.6562619058280074,0.008582169071869141,0.0023610547127179576,-0.15839214729208786
3552,1.0,300.28075,7203.3096,0.0,-0.035520064998330936,0.0,0.0,0.0,0.0,-0.4758148401017686,-1.089067855957629,-0.6247435556998885,-0.00983780835416609,-0.002311567577833958,-0.17720791793905982
3553,1.0,299.4489,7048.0749,0.0,-0.03553006098575007,0.0,0.0,0.0,0.0,-0.45861881053465253,-1.0798080672687589,-0.6040119216313354,-0.0073616474168380335,-0.006921798081553284,-0.1955044789697898
3554,1.0,300.48913999999996,7151.4959,0.0,-0.03554005697316931,0.0,0.0,0.0,0.0,-0.4619926192601216,-1.0723843890860991,-0.6394991724011544,-0.013793156775778586,-0.005074575768121635,-0.19147623226973282
3555,1.0,300.23906,7073.7321,0.0,-0.03555005296058866,0.0,0.0,0.0,0.0,-0.46980614541875654,-1.0678879904423388,-0.6125438015808664,0.0027100291929090577,0.01974073322600868,-0.19810825814926283
3556,1.0,299.49816,7024.0455,0.0,-0.035560048948007905,0.0,0.0,0.0,0.0,-0.45091373253422057,-1.061597632496529,-0.6226230562881114,-0.006180131635006504,-0.008919889281874531,-0.17550519167601383
3557,1.0,299.28927999999996,7104.4022,0.0,-0.03557004493542748,0.0,0.0,0.0,0.0,-0.47493810518774154,-1.068201793998309,-0.6164209321610093,0.001058484320239269,0.0003968230782058886,-0.21310792626961478
3558,1.0,299.46662000000003,7110.4133,0.0,-0.03558004092284661,0.0,0.0,0.0,0.0,-0.4751133467925366,-1.056395201183089,-0.6298795684692734,-0.000913574711825304,0.002688365601796028,-0.16510825266491586
3559,1.0,300.03205,7166.5336,0.0,-0.03559006990032343,0.0,0.0,0.0,0.0,-0.48623012907217755,-1.070173983992949,-0.6220431428583785,0.012706630455046788,0.009873237150537641,-0.1910662104842668
3560,1.0,300.53711,7423.2234,0.0,-0.03560006588774278,0.0,0.0,0.0,0.0,-0.4870420565098085,-1.090295813753819,-0.6791366955805733,-0.015841721509956184,-0.01061421529629149,-0.16331076725251784
3561,1.0,299.94145,7413.5786,0.0,-0.035610061875162025,0.0,0.0,0.0,0.0,-0.5037654353027775,-1.093022773747949,-0.6567545378941264,-0.015995440669377088,-0.012393089330852687,-0.18279836324579382
3562,1.0,300.28224,7258.0284,0.0,-0.03562005786258127,0.0,0.0,0.0,0.0,-0.4693237877086516,-1.082138339848739,-0.6547972933384614,-0.006454754734784693,0.0038097202668901167,-0.16112419380171986
3563,1.0,300.49869,7221.2779,0.0,-0.03563005385000062,0.0,0.0,0.0,0.0,-0.49121549181669455,-1.071228068071979,-0.6326446469321654,0.014664602524283588,0.01081288324339849,-0.17136470726237982
3564,1.0,300.37675,7222.9043,0.0,-0.035640049837419974,0.0,0.0,0.0,0.0,-0.48592035825160557,-1.068218309974939,-0.6414439134505854,0.006448771391619183,0.0016210082504310584,-0.16369683580561986
3565,1.0,299.87009,7079.1672,0.0,-0.03565004582483933,0.0,0.0,0.0,0.0,-0.4641545504684875,-1.072141614362139,-0.6155939376943914,-0.012498494699005387,-0.004440501182118346,-0.1942631260072778
3566,1.0,299.68032999999997,7063.5298,0.0,-0.03566004181225857,0.0,0.0,0.0,0.0,-0.4393706759375096,-1.072926173914569,-0.6348398228763124,0.005250257224785045,0.011022635133349388,-0.18370892044815884
3567,1.0,299.75784,7151.0929,0.0,-0.035670070789735386,0.0,0.0,0.0,0.0,-0.4825732385337705,-1.0660670786876292,-0.6251133210588814,-0.008871239192898141,0.020649429087939982,-0.17367144204253684
3568,1.0,299.29077,7206.1445,0.0,-0.03568006677715474,0.0,0.0,0.0,0.0,-0.4698561493111916,-1.0786157758760888,-0.6420160451195503,0.004300685840569646,0.005214736931929464,-0.17294917710625485
3569,1.0,299.22115,7218.9161,0.0,-0.03569006276457398,0.0,0.0,0.0,0.0,-0.49215494691191153,-1.0767285975648389,-0.6254866530582264,-0.019240916203430585,-0.025041787211431975,-0.19037165793821983
3570,1.0,300.42398,7311.0667,0.0,-0.03570005875199311,0.0,0.0,0.0,0.0,-0.4954581929004165,-1.088099695487079,-0.6388238209445024,0.003844980154469996,-0.009328364949012942,-0.17397171870967185
3571,1.0,300.51261,7245.0591,0.0,-0.03571005473941258,0.0,0.0,0.0,0.0,-0.4831670740198775,-1.073557023426829,-0.6455929192975604,0.015809949026570486,-0.01097278221517929,-0.18785004320935583
3572,1.0,299.96338,7090.6813,0.0,-0.03572005072683193,0.0,0.0,0.0,0.0,-0.45559629561885356,-1.070598637109859,-0.6291950977617214,0.019731314053079083,-0.004894485660273126,-0.18986074684029683
3573,1.0,300.11652000000004,7178.9452,0.0,-0.035730046714251285,0.0,0.0,0.0,0.0,-0.4679328283688745,-1.084306999037769,-0.6299802652642114,-0.007141043213016092,-0.014506075493138185,-0.20090756420053282
3574,1.0,300.63106,7135.5802,0.0,-0.03574004270167053,0.0,0.0,0.0,0.0,-0.46114747748421253,-1.069649323091169,-0.6382414250520244,0.003402074147608577,0.02082780366204418,-0.18654518986307683
3575,1.0,300.06257999999997,6969.6799,0.0,-0.035750071679147344,0.0,0.0,0.0,0.0,-0.4536155233958665,-1.053067586529679,-0.6119255872973534,-0.01002459584252558,0.007733811037492723,-0.18797933392211583
3576,1.0,300.00686,7134.228,0.0,-0.0357600676665667,0.0,0.0,0.0,0.0,-0.47865023812160057,-1.0671716226216388,-0.6228053197160994,-0.007733142292426723,-0.010839495244024888,-0.18705391234078383
3577,1.0,299.95262,7403.751,0.0,-0.03577006365398594,0.0,0.0,0.0,0.0,-0.4903136789626925,-1.0941357276577888,-0.6661060155845454,-0.013245565010985486,-0.030850263674683968,-0.17596791259918085
3578,1.0,299.48976,7302.6263,0.0,-0.03578005964140507,0.0,0.0,0.0,0.0,-0.4921229282087516,-1.088426569969339,-0.6392665707081985,-0.0013770550152797487,0.010671668603461689,-0.18962133610666881
3579,1.0,299.34354,7310.9241,0.0,-0.035790055628824424,0.0,0.0,0.0,0.0,-0.4916125338683795,-1.081011909712569,-0.6497139695742764,0.02139136120866298,0.013111696434273687,-0.16064224139165487
3580,1.0,299.29407000000003,7332.9277,0.0,-0.03580005161624389,0.0,0.0,0.0,0.0,-0.5039800315414565,-1.0696598608922092,-0.6553870048966614,0.014227592822404087,0.02535067245141658,-0.16911956795580185
3581,1.0,299.33872,7208.7285,0.0,-0.03581004760366324,0.0,0.0,0.0,0.0,-0.48999558935879955,-1.067648660768719,-0.6336292423193374,0.01195000418137359,0.0037388777715735063,-0.17183453106874785
3582,1.0,299.48121000000003,7176.3652,0.0,-0.035820043591082484,0.0,0.0,0.0,0.0,-0.4817325145282976,-1.066306509686259,-0.6333968534089024,-0.005037721531509405,0.011909675814143489,-0.1882137999952558
3583,1.0,300.35261,7205.3127,0.0,-0.035830039578501616,0.0,0.0,0.0,0.0,-0.47368940616200456,-1.0837583241086188,-0.6327873936062534,-0.02610691774305218,-0.0034850513261227866,-0.1958689855607638
3584,1.0,299.87295,7098.2287,0.0,-0.035840068555978655,0.0,0.0,0.0,0.0,-0.46612845285579657,-1.071684334592009,-0.6198715047140544,-0.026164052889690977,-0.017006697706430384,-0.2027642538162738
3585,1.0,299.97561,7113.6203,0.0,-0.035850064543397786,0.0,0.0,0.0,0.0,-0.45868396251608257,-1.069813266957349,-0.6338656538326694,-0.01312803610538629,-0.02054515146714858,-0.2024935437870568
3586,1.0,300.43207,7278.4816,0.0,-0.03586006053081703,0.0,0.0,0.0,0.0,-0.46127618051191455,-1.103417199898799,-0.6477832924362334,0.00016003772624949384,0.011816864131483688,-0.17834126857341284
3587,1.0,299.98306,7240.3809,0.0,-0.035870056518236604,0.0,0.0,0.0,0.0,-0.4672454091035315,-1.086505549104749,-0.6471439924181395,0.013025934945809687,0.006673321495305554,-0.17107602217638884
3588,1.0,300.25267,7246.4094,0.0,-0.035880052505655735,0.0,0.0,0.0,0.0,-0.4634417999506446,-1.0826794154021389,-0.6566063298019994,-0.00010950532256233389,0.0039311892968281765,-0.17375313026559883
3589,1.0,300.55908999999997,7409.0847,0.0,-0.0358900484930752,0.0,0.0,0.0,0.0,-0.49818975305000057,-1.1084443389449388,-0.6455426418275984,0.014568276890276987,-0.017404413569431884,-0.18794417414364584
3590,1.0,300.99826,7361.3753,0.0,-0.03590004448049433,0.0,0.0,0.0,0.0,-0.5006173888320895,-1.078874357301609,-0.6581825112600563,0.016453202746554686,-0.0010689042802926388,-0.18198607103812683
3591,1.0,300.53056000000004,7279.9252,0.0,-0.03591004046791357,0.0,0.0,0.0,0.0,-0.48882123249289955,-1.1000928276457091,-0.6240014107966444,0.009639551178649631,-0.004262702032745936,-0.19686530425159282
3592,1.0,299.84513,7280.945,0.0,-0.0359200694453905,0.0,0.0,0.0,0.0,-0.48014815614193357,-1.0778653628520292,-0.6552119558093854,-0.025933272007164675,-0.004168147762564156,-0.1878272045521018
3593,1.0,299.9869,7222.1143,0.0,-0.035930065432809744,0.0,0.0,0.0,0.0,-0.5006614246814356,-1.059245169739359,-0.6354357760551284,-0.016594435624993284,-0.0023294906548778278,-0.18782992006236984
3594,1.0,299.85927999999996,7146.5749,0.0,-0.0359400614202291,0.0,0.0,0.0,0.0,-0.4505384348296816,-1.087537443006589,-0.6343044316559734,-0.013518239732146387,0.027430547626934268,-0.1975166720783778
3595,1.0,299.34994,7250.1246,0.0,-0.03595005740764856,0.0,0.0,0.0,0.0,-0.4991943297291445,-1.060269362940439,-0.6443931197216494,0.013603333488794486,0.012603917292409788,-0.18390433586244484
3596,1.0,299.15778,7417.5935,0.0,-0.03596005339506769,0.0,0.0,0.0,0.0,-0.4985136789744695,-1.093176889088159,-0.6630726386276744,0.0031167520386994768,-0.0026530598139866174,-0.17421569920125082
3597,1.0,299.9655,7283.0142,0.0,-0.03597004938248716,0.0,0.0,0.0,0.0,-0.49651366513208356,-1.074706251690249,-0.6426345937755964,0.02365801789436458,-0.026867478466863676,-0.17351496582959383
3598,1.0,300.41309,7258.9119,0.0,-0.03598004536990629,0.0,0.0,0.0,0.0,-0.46515828615004856,-1.085789181284049,-0.6555804748707554,0.013692426543587289,-0.0022455860485470877,-0.15692711937000084
3599,1.0,300.51653,7341.4497,0.0,-0.03599004135732553,0.0,0.0,0.0,0.0,-0.48324093995216755,-1.099447995282069,-0.6489284170367484,0.009291623791111871,-0.003486878520028117,-0.17162962150102484
3600,1.0,299.78667,7319.9408,0.0,-0.03600007033480246,0.0,0.0,0.0,0.0,-0.4585220552826036,-1.0985996009733388,-0.6679575578897784,-0.011777111290310388,0.006560988029594103,-0.18333134293089484
3601,1.0,299.77997999999997,7245.5567,0.0,-0.0360100663222217,0.0,0.0,0.0,0.0,-0.4763760995971605,-1.094000864069479,-0.6320913921125634,-0.02932863154901057,-0.0012763320784891688,-0.21435910775809677
3602,1.0,300.71769,7208.1238,0.0,-0.036020062309641054,0.0,0.0,0.0,0.0,-0.47123192003196956,-1.0922561487222888,-0.6276015187994475,0.002220695458515578,0.008768472530655862,-0.2142977048020368
3603,1.0,300.61383,7009.8037,0.0,-0.03603005829706041,0.0,0.0,0.0,0.0,-0.4455344688133286,-1.0748048409249789,-0.6104659802633015,0.015930335297451685,0.00094776426279455,-0.21816592891380077
3604,1.0,300.27254,7059.5419,0.0,-0.03604005428447965,0.0,0.0,0.0,0.0,-0.4392238053355145,-1.087180677646379,-0.6195199474593585,0.006189449280276083,-0.007337634200068112,-0.2077568309015028
3605,1.0,299.94327999999996,7389.3864,0.0,-0.036050050271899,0.0,0.0,0.0,0.0,-0.4935124791308895,-1.094058214025139,-0.6586182999955653,-0.004508015961456536,-0.017939020534193485,-0.18553840429871482
3606,1.0,299.46075,7362.9914,0.0,-0.036060046259318246,0.0,0.0,0.0,0.0,-0.4864642202427806,-1.082478487907309,-0.6692228438196524,-0.006580236741743805,0.01226621927258159,-0.18135451225079682
3607,1.0,300.04829,7232.5830000000005,0.0,-0.0360700422467376,0.0,0.0,0.0,0.0,-0.4739291107381616,-1.086814083760199,-0.6377814703016303,-0.007797117586515592,0.002145963298715088,-0.16999400279210183
3608,1.0,299.97694,7372.5498,0.0,-0.036080071224214416,0.0,0.0,0.0,0.0,-0.5022946014576175,-1.0775278492437188,-0.6612486060626563,-0.002039874594694948,-0.007887995481359543,-0.16615095794532284
3609,1.0,299.49487999999997,7606.8319,0.0,-0.03609006721163377,0.0,0.0,0.0,0.0,-0.5257589913108726,-1.104039639435229,-0.6824882634663473,0.008658737646150872,-0.018552353991974784,-0.16197280089297084
3610,1.0,299.71841,7482.4755,0.0,-0.03610006319905301,0.0,0.0,0.0,0.0,-0.5178530770081194,-1.0906642314901789,-0.6659683858234624,0.00955916964291659,-0.0005468237414823015,-0.17539981366561383
3611,1.0,300.01906,7233.3398,0.0,-0.036110059186472365,0.0,0.0,0.0,0.0,-0.4837892095812776,-1.063266759386259,-0.6516986630751503,0.008771585640263101,0.012356644751255887,-0.16603763605413885
3612,1.0,300.05068,7149.785,0.0,-0.03612005517389161,0.0,0.0,0.0,0.0,-0.4623500331003956,-1.076296041097149,-0.6347100458035043,-0.00047518803345740745,0.02067519502473288,-0.1912515947225628
3613,1.0,301.4016,7166.8274,0.0,-0.03613005116131096,0.0,0.0,0.0,0.0,-0.4860601158378985,-1.057096876877339,-0.6353796217345864,-0.009663462969084541,0.007910417794147452,-0.18497609102321882
3614,1.0,300.43622,7241.9034,0.0,-0.0361400471487302,0.0,0.0,0.0,0.0,-0.4807837071346575,-1.080674902729309,-0.6398991427456284,-0.017529263207003584,0.012989782182241689,-0.2107646840883548
3615,1.0,300.2653,7315.9107,0.0,-0.03615004313614956,0.0,0.0,0.0,0.0,-0.4899427281010825,-1.0840602726384188,-0.6498512244328224,-0.0011755785415455688,-0.0037883878059097667,-0.18930005476496084
3616,1.0,299.88425,7183.1032,0.0,-0.036160072113626374,0.0,0.0,0.0,0.0,-0.4588589305433506,-1.0824288386524092,-0.6421962111198314,0.0034742252554293366,-0.016556074989457385,-0.1993630062780968
3617,1.0,300.03337999999997,7264.1140000000005,0.0,-0.03617006810104573,0.0,0.0,0.0,0.0,-0.46601992363758554,-1.1024499513533388,-0.6396394467449984,-0.0009998650763114998,-0.017005320699544486,-0.17994667216435384
3618,1.0,299.94354,7531.9023,0.0,-0.03618006408846497,0.0,0.0,0.0,0.0,-0.49593188732216653,-1.1179248135055888,-0.6756535470368134,0.002173513163634048,-0.0017209994179994185,-0.18530092887277783
3619,1.0,299.79073999999997,7465.2849,0.0,-0.03619006007588432,0.0,0.0,0.0,0.0,-0.5022866069143285,-1.108672117567419,-0.6583014870867984,-0.003117829731505837,0.02068934100937898,-0.18090038368847783
3620,1.0,299.57104,7114.4453,0.0,-0.036200056063303565,0.0,0.0,0.0,0.0,-0.4453278164554335,-1.088201729772149,-0.6290841367432705,-0.0006910959649208615,0.0018227257763640283,-0.2130593003973158
3621,1.0,300.44108,7244.9607,0.0,-0.03621005205072292,0.0,0.0,0.0,0.0,-0.4671354208051766,-1.101590917918559,-0.6335608580700883,0.008889445068044921,-0.007047066900691353,-0.18910869235107483
3622,1.0,300.19975,7271.5606,0.0,-0.03622004803814216,0.0,0.0,0.0,0.0,-0.4773586076891265,-1.1007096943065888,-0.6323046001986053,-0.001186839701831959,-0.004704012170699855,-0.2062066494410118
3623,1.0,300.20018,7195.8751,0.0,-0.036230044025561514,0.0,0.0,0.0,0.0,-0.4734043485113716,-1.080899236301449,-0.6330627037909243,0.002040394290671238,-0.007428852546945664,-0.19134124709141082
3624,1.0,300.68937,7323.4279,0.0,-0.03624004001298087,0.0,0.0,0.0,0.0,-0.48183389020080253,-1.084168386424089,-0.6601369288479423,-0.005249929843677735,-0.02209750634910408,-0.18810197771421983
3625,1.0,300.60314,7399.284000000001,0.0,-0.036250068990457684,0.0,0.0,0.0,0.0,-0.5137104242392715,-1.0864010830194388,-0.6490860179573024,-0.002337729087465898,-0.0056586880049440255,-0.16966388590952183
3626,1.0,300.63522,7354.0508,0.0,-0.03626006497787693,0.0,0.0,0.0,0.0,-0.4857794151626955,-1.0876537641180688,-0.6620146434032583,0.017567383702265786,0.0052524768504541046,-0.16876559916586784
3627,1.0,300.48042000000004,7533.8249,0.0,-0.03627006096529628,0.0,0.0,0.0,0.0,-0.5279163020987825,-1.0989266781056188,-0.6632516697878433,0.02044974687748288,0.02007928338917098,-0.16541372730506385
3628,1.0,299.53439,7596.8187,0.0,-0.03628005695271541,0.0,0.0,0.0,0.0,-0.5162833499531995,-1.107974190898539,-0.6849856412528192,0.005901097654892994,-0.0002016866420699218,-0.16471302433090987
3629,1.0,299.72478,7369.4143,0.0,-0.036290052940134876,0.0,0.0,0.0,0.0,-0.5003069897964555,-1.092377941384309,-0.6474329916116613,-0.005014213217264315,-0.00985157619387487,-0.17726810499499984
3630,1.0,299.96087,7280.9956,0.0,-0.03630004892755423,0.0,0.0,0.0,0.0,-0.4735448153727346,-1.106391088942299,-0.6333050022873374,-0.014302153844262684,-0.003017389592818167,-0.19365579402983882
3631,1.0,299.39036,7224.7668,0.0,-0.03631004491497347,0.0,0.0,0.0,0.0,-0.48594541592657853,-1.078080881148299,-0.6321223975656234,-0.0073044373910168435,-0.002075655495476248,-0.18609537774618384
3632,1.0,300.03677999999996,7280.1494,0.0,-0.036320040902392825,0.0,0.0,0.0,0.0,-0.45466685143462454,-1.103820270788579,-0.6544965100462764,-0.00987188111792881,-0.009429034183548221,-0.1997389727277018
3633,1.0,300.40551,7205.4304,0.0,-0.03633006987986964,0.0,0.0,0.0,0.0,-0.45990012608110853,-1.0999761012341889,-0.6303947149526143,0.006012579382570385,0.0034650004238689167,-0.2033518476817648
3634,1.0,300.35661,7303.9579,0.0,-0.03634006586728877,0.0,0.0,0.0,0.0,-0.46256443682155557,-1.108674954667699,-0.6489814606794834,0.016645499377032885,0.004233129821952387,-0.19990595634418182
3635,1.0,300.58467,7402.2667,0.0,-0.03635006185470824,0.0,0.0,0.0,0.0,-0.4909179711898315,-1.113914065634759,-0.6452722053759083,0.018532516581516983,0.012836148135829187,-0.19428729202216283
3636,1.0,300.16737,7348.5977,0.0,-0.03636005784212737,0.0,0.0,0.0,0.0,-0.48981522070849853,-1.101748680959129,-0.6422262438527954,0.006666727567629783,-0.01853941377494768,-0.2003562953511268
3637,1.0,299.56684,7492.0919,0.0,-0.03637005382954672,0.0,0.0,0.0,0.0,-0.5028417362466155,-1.114531033620649,-0.6600360598004873,-0.02495759828712318,0.005315347803258985,-0.18417152991381483
3638,1.0,300.40507,7472.2039,0.0,-0.03638004981696619,0.0,0.0,0.0,0.0,-0.48790609540008256,-1.108395804265149,-0.6750614644733794,-0.020850721352805978,0.014076984340790187,-0.18964726517672784
3639,1.0,300.25534,7231.7393,0.0,-0.03639004580438532,0.0,0.0,0.0,0.0,-0.4681568883634875,-1.087458409498789,-0.6426528322773964,-0.010070725674528241,0.015221592183754185,-0.17999915851953383
3640,1.0,300.08079,7226.1025,0.0,-0.03640004179180478,0.0,0.0,0.0,0.0,-0.46622237100756553,-1.088734699324749,-0.6415976437557573,-0.008104499568651833,-0.007231200788363952,-0.18682363099055682
3641,1.0,300.25789,7479.9675,0.0,-0.03641007076928149,0.0,0.0,0.0,0.0,-0.5181251042624665,-1.0955461717969888,-0.6600520792845684,0.0005213496409832035,-0.012530009816865688,-0.17796916260668882
3642,1.0,299.58912000000004,7326.5103,0.0,-0.03642006675670073,0.0,0.0,0.0,0.0,-0.49406600752801855,-1.096512609742369,-0.6364975810999204,0.018856129411705082,-0.014101044977664788,-0.1959631975550618
3643,1.0,299.16782,7187.2516,0.0,-0.036430062744120084,0.0,0.0,0.0,0.0,-0.47771404569170556,-1.0796157523997791,-0.6274152429010633,0.016936343698986982,0.002951183729959157,-0.17831163100798783
3644,1.0,299.81359,7408.0975,0.0,-0.036440058731539327,0.0,0.0,0.0,0.0,-0.4812662168322775,-1.1134138240603888,-0.6571966189127564,0.022949004242890376,0.004358466224872126,-0.19621850618275882
3645,1.0,299.61764,7490.2208,0.0,-0.0364500547189589,0.0,0.0,0.0,0.0,-0.5127596815379405,-1.102260777559669,-0.6618195927590084,-0.009223940609607061,0.026129476743278576,-0.17573863436655282
3646,1.0,299.89423,7487.4503,0.0,-0.036460050706378144,0.0,0.0,0.0,0.0,-0.4943885756973535,-1.1160343927940188,-0.6655749610746343,-0.012517077705839387,0.021274318663111778,-0.1983199666251568
3647,1.0,300.58966000000004,7448.0877,0.0,-0.036470046693797276,0.0,0.0,0.0,0.0,-0.5107691213189876,-1.096870692327709,-0.6563928481384304,-0.021245603155277782,0.009218081896203852,-0.16476987779402086
3648,1.0,299.85688999999996,7232.479,0.0,-0.03648004268121663,0.0,0.0,0.0,0.0,-0.4760677878567326,-1.0846199919936592,-0.6378052411489764,-0.008108153855137482,-0.017487739204655486,-0.19468405036381983
3649,1.0,300.02693,7270.7725,0.0,-0.036490071658693446,0.0,0.0,0.0,0.0,-0.4661943039797955,-1.103814697913029,-0.6401242970503493,0.006279228710686624,-0.01069330655934719,-0.1969312161705978
3650,1.0,300.37568,7415.6994,0.0,-0.03650006764611269,0.0,0.0,0.0,0.0,-0.47396523310422656,-1.1148478769269188,-0.6653743071573314,0.016498149507740586,-0.0007353010371660622,-0.2103155204515258
3651,1.0,300.21785,7362.7601,0.0,-0.03651006363353204,0.0,0.0,0.0,0.0,-0.47860106509424755,-1.105996732003379,-0.6534974353151753,0.00819746881170218,0.008101410473071962,-0.19651957318497182
3652,1.0,299.91613,7171.6084,0.0,-0.036520059620951395,0.0,0.0,0.0,0.0,-0.44709955518279054,-1.1023118453647092,-0.6305785083882534,0.016811803102695783,-0.007220742831431833,-0.2068294132174738
3653,1.0,299.63263,7316.1876,0.0,-0.03653005560837086,0.0,0.0,0.0,0.0,-0.48250496574203255,-1.1077109485225591,-0.6337223701360284,-0.003313345052251697,0.003075432611546567,-0.19458519768406382
3654,1.0,299.13265,7494.4238,0.0,-0.03654005159578999,0.0,0.0,0.0,0.0,-0.5132041538268065,-1.111898913835879,-0.6530146216425253,0.008634540524487803,-0.023626274795231775,-0.19035965092453483
3655,1.0,299.4434,7522.57,0.0,-0.03655004758320923,0.0,0.0,0.0,0.0,-0.5023478274853704,-1.122447860626979,-0.6618777735797503,-0.004897761599171435,-0.007883322878523393,-0.18890154350063082
3656,1.0,299.66381,7335.7078,0.0,-0.036560043570628586,0.0,0.0,0.0,0.0,-0.48908573129900357,-1.088961262047109,-0.6518250052301193,0.005100362071241545,-0.006338127723099504,-0.17643672315544884
3657,1.0,299.20299,7372.9742,0.0,-0.0365700725481054,0.0,0.0,0.0,0.0,-0.4961362902648396,-1.091482228295909,-0.6535815452059764,0.015884879884715587,0.012645735137286887,-0.16720804124464883
3658,1.0,299.25953,7477.173000000001,0.0,-0.036580068535524646,0.0,0.0,0.0,0.0,-0.5004007052982045,-1.101502663834849,-0.6709705178571344,-0.0007353094167443893,0.015264806287269088,-0.1742504435471798
3659,1.0,299.67761,7434.0659,0.0,-0.036590064522944,0.0,0.0,0.0,0.0,-0.5094750388212715,-1.092148946861709,-0.6581464496889974,-0.0024053110452857177,0.01236160866349579,-0.17453670696543183
3660,1.0,299.84598,7426.7025,0.0,-0.03660006051036335,0.0,0.0,0.0,0.0,-0.48820358562944255,-1.106819997709629,-0.6625085521645033,-0.008115204454633321,-0.007422239164867972,-0.18698107992359583
3661,1.0,300.00347,7283.8235,0.0,-0.03661005649778282,0.0,0.0,0.0,0.0,-0.4832325806388425,-1.0889157671176188,-0.6419520989057395,-0.00017554532651247481,-0.0030592749201519267,-0.1917281161120918
3662,1.0,300.02816,7276.6859,0.0,-0.03662005248520195,0.0,0.0,0.0,0.0,-0.4722551607779556,-1.098819476245039,-0.6408561473325775,0.01899942222759698,-0.019076687613972482,-0.1961988592633198
3663,1.0,300.31077999999997,7448.0236,0.0,-0.03663004847262119,0.0,0.0,0.0,0.0,-0.5013215165915815,-1.113594790528249,-0.6490968901308753,0.002213661780296408,0.0006300511015787023,-0.1902516587288768
3664,1.0,300.14504,7463.9263,0.0,-0.036640044460040544,0.0,0.0,0.0,0.0,-0.4861094307202656,-1.1126802309879888,-0.6700575187220283,0.006591099897390914,0.004617813363492695,-0.17886141037974682
3665,1.0,299.67789,7321.8989,0.0,-0.0366500404474599,0.0,0.0,0.0,0.0,-0.48296019874696056,-1.1121708701627189,-0.6305433182122804,0.007868625888472912,0.017090918041492282,-0.19192716909423682
3666,1.0,299.62554,7402.0536,0.0,-0.03666006942493649,0.0,0.0,0.0,0.0,-0.4773207020028855,-1.112102475780969,-0.6606162772052504,-0.0015118427111572585,0.01747100943225438,-0.1913042026677548
3667,1.0,299.72196,7510.9303,0.0,-0.03667006541235596,0.0,0.0,0.0,0.0,-0.5111463138012136,-1.118670768229209,-0.6533182217699883,0.003176646873310637,0.0013512812764610786,-0.1925576437039598
3668,1.0,299.81714,7436.0021,0.0,-0.03668006139977531,0.0,0.0,0.0,0.0,-0.49302938174821154,-1.115778648468779,-0.6515509109455684,-0.00942504978017999,-0.006837507528259454,-0.1977030796992748
3669,1.0,299.27917,7382.5622,0.0,-0.03669005738719466,0.0,0.0,0.0,0.0,-0.4850297823412125,-1.110755765073059,-0.6483289681450873,-0.01098770637590219,-0.004089969843148596,-0.20531802910331182
3670,1.0,299.23912,7390.2445,0.0,-0.036700053374613906,0.0,0.0,0.0,0.0,-0.4761591323532476,-1.116067222097259,-0.6542234492768273,-0.013376606619918288,-0.012552711685356186,-0.18389980663449784
3671,1.0,300.33757,7353.6762,0.0,-0.03671004936203315,0.0,0.0,0.0,0.0,-0.4838013888474795,-1.114709770938289,-0.6368227938520163,-0.0063474074728153435,0.008358385998508472,-0.2078588651865728
3672,1.0,300.21682000000004,7425.4614,0.0,-0.0367200453494525,0.0,0.0,0.0,0.0,-0.4893720251147586,-1.104306326861549,-0.6634765099850334,-0.00027838083909904974,0.007496603210907133,-0.17355748180378983
3673,1.0,300.55394,7576.3453,0.0,-0.036730041336871855,0.0,0.0,0.0,0.0,-0.5118851251116285,-1.1226429112712288,-0.6684917129449953,0.01983895971720288,0.013149419735496687,-0.18815115074157282
3674,1.0,300.68264,7450.334,0.0,-0.03674007031434845,0.0,0.0,0.0,0.0,-0.4977953657135775,-1.0969221654327888,-0.6699979598811504,0.017732819072592984,-0.0028470920405611073,-0.16208752106929283
3675,1.0,299.75316000000004,7435.0775,0.0,-0.036750066301768025,0.0,0.0,0.0,0.0,-0.49900974595842756,-1.1031375428711991,-0.6579305767551924,0.02197900168365858,-0.0046460640935058264,-0.1883996401960968
3676,1.0,299.65567000000004,7577.5962,0.0,-0.03676006228918727,0.0,0.0,0.0,0.0,-0.5153976275107854,-1.111411844512809,-0.6765905298017864,-0.00024158817769539677,0.00040640054106611066,-0.17444795638917285
3677,1.0,300.05966,7545.6868,0.0,-0.03677005827660662,0.0,0.0,0.0,0.0,-0.5173498564784554,-1.107998103600899,-0.6683524113212473,-0.02011028580248068,0.006521471579669134,-0.18957510150460583
3678,1.0,299.63665,7445.2524,0.0,-0.03678005426402586,0.0,0.0,0.0,0.0,-0.4784417821785275,-1.1256559117685887,-0.6590731074354513,-0.023687269411501476,0.016553129471416683,-0.1977492839038348
3679,1.0,299.89808,7401.3305,0.0,-0.036790050251444995,0.0,0.0,0.0,0.0,-0.49473940341197753,-1.1124708935173289,-0.6426093233181024,-0.02254623428839008,0.00034040637655049366,-0.18796559425075982
3680,1.0,299.36332000000004,7356.5996,0.0,-0.03680004623886446,0.0,0.0,0.0,0.0,-0.4701198577822176,-1.1133730914063689,-0.6527296551844014,0.018485261636603283,-0.007654980078387713,-0.2023340987513208
3681,1.0,299.35722999999996,7392.8974,0.0,-0.03681004222628381,0.0,0.0,0.0,0.0,-0.4837660061539875,-1.105177012672479,-0.6583131495954494,0.002458397852474978,-0.025084738883170976,-0.1870191173323498
3682,1.0,300.93557999999996,7546.3538,0.0,-0.03682007120376063,0.0,0.0,0.0,0.0,-0.4925215711955946,-1.117316458145549,-0.6840650528744644,0.019223746680486084,-0.009956527524657761,-0.1974235239966848
3683,1.0,300.81211,7558.6497,0.0,-0.03683006719117998,0.0,0.0,0.0,0.0,-0.49563471120033753,-1.129142708012709,-0.6728633298389404,0.0008548444663490801,-0.009506152040709162,-0.18142497366275084
3684,1.0,299.73634,7330.4765,0.0,-0.036840063178599225,0.0,0.0,0.0,0.0,-0.4704367010884875,-1.100990263259279,-0.6568548597865274,0.0037687087664425964,0.02153312199040368,-0.19835961510156983
3685,1.0,300.00968,7506.6955,0.0,-0.03685005916601858,0.0,0.0,0.0,0.0,-0.4975014623895715,-1.1202588351109388,-0.6640876923128524,-0.0048724759429259355,0.0015251234815429687,-0.1815279198729108
3686,1.0,300.30407,7690.1301,0.0,-0.03686005515343771,0.0,0.0,0.0,0.0,-0.5192369638621985,-1.131296472425269,-0.6870741016964343,-0.002180282180927098,-0.011618626815669188,-0.18986312797803181
3687,1.0,300.49612,7466.7609,0.0,-0.03687005114085695,0.0,0.0,0.0,0.0,-0.49051279273984355,-1.105986903477409,-0.6732091824955734,0.001933800988101298,-0.018796488497568983,-0.19514450160676283
3688,1.0,301.03758,7205.1848,0.0,-0.03688004712827653,0.0,0.0,0.0,0.0,-0.4661344715613906,-1.0945794298765792,-0.6294823541650714,0.008767449046729851,-0.02348026950882218,-0.18933238757565182
3689,1.0,300.04278,7299.4555,0.0,-0.03689004311569577,0.0,0.0,0.0,0.0,-0.47954549524745554,-1.078621956701699,-0.6606847222495054,0.007081736874063013,-0.005013276062246825,-0.1928539079006988
3690,1.0,299.77299,7527.6162,0.0,-0.036900072093172476,0.0,0.0,0.0,0.0,-0.5169773857416955,-1.1048578388909789,-0.6663721457233104,-0.003291318008327797,0.016031355319171586,-0.18295263057351882
3691,1.0,300.13406000000003,7663.0773,0.0,-0.03691006808059194,0.0,0.0,0.0,0.0,-0.5216167134445615,-1.1276401594394188,-0.6801272792758364,-0.0030678040541936872,0.014023730955284485,-0.1905639322771958
3692,1.0,299.74481000000003,7526.5523,0.0,-0.03692006406801107,0.0,0.0,0.0,0.0,-0.5048427126765965,-1.104014004207699,-0.6790272240397693,-0.0005248550810291636,0.009354815437573402,-0.18362347306722582
3693,1.0,299.56879,7331.0827,0.0,-0.036930060055430536,0.0,0.0,0.0,0.0,-0.4808204171857805,-1.103845095416029,-0.6438005406656664,0.008930966435942761,-0.005254561916509885,-0.18323075759346782
3694,1.0,300.65822000000003,7461.6019,0.0,-0.03694005604284967,0.0,0.0,0.0,0.0,-0.49019768209124454,-1.1127329199931888,-0.6652100998461254,0.002232356143316398,-0.005137892956270556,-0.19051524560989083
3695,1.0,299.97292999999996,7658.6525,0.0,-0.03695005203026913,0.0,0.0,0.0,0.0,-0.5238610522835605,-1.130634820109969,-0.6735432307885413,-0.001323784100547319,-0.012978663788894387,-0.18898810545667383
3696,1.0,300.27904,7548.4568,0.0,-0.036960048017688485,0.0,0.0,0.0,0.0,-0.5005863023190216,-1.1296526767880388,-0.6643034233916433,0.0034566136514662072,0.002668205167206347,-0.2030448329014648
3697,1.0,300.36172999999997,7245.6382,0.0,-0.036970044005107616,0.0,0.0,0.0,0.0,-0.4712190922857035,-1.097790318118469,-0.6334836686774703,0.010675554417595188,0.0008433529841824593,-0.19213493602724183
3698,1.0,300.24683,7398.4772,0.0,-0.03698007298258443,0.0,0.0,0.0,0.0,-0.46038859368931656,-1.1295889433567488,-0.6589747715132463,0.012880065434913487,0.016918587504234587,-0.2125672560162548
3699,1.0,300.39607,7726.2283,0.0,-0.0369900689700039,0.0,0.0,0.0,0.0,-0.5276390870039235,-1.130504516147109,-0.6904368963933163,0.0004355519794906337,0.0017768241282838885,-0.19046764312019282
3700,1.0,299.83375,7615.4059,0.0,-0.03700006495742303,0.0,0.0,0.0,0.0,-0.48994376161618447,-1.131557688301049,-0.6933917667324394,-0.022400242174231776,-0.007212467009915072,-0.1956313581473118
3701,1.0,299.71625,7315.9729,0.0,-0.03701006094484238,0.0,0.0,0.0,0.0,-0.48029813742173555,-1.110414502439379,-0.6331604418955704,-0.007711439589859832,-0.015698284812550086,-0.2062370570765128
3702,1.0,300.43959,7339.0973,0.0,-0.037020056932261625,0.0,0.0,0.0,0.0,-0.4821758215795485,-1.094714597439919,-0.6540119333184524,-0.020453891070391878,-0.0021178354759390883,-0.1878805319048648
3703,1.0,300.24134,7514.3442,0.0,-0.03703005291968098,0.0,0.0,0.0,0.0,-0.5036387385102735,-1.1214421085777189,-0.6590921768023333,0.004027538640887116,0.0032366861973860566,-0.2095123474947588
3704,1.0,299.71196000000003,7690.1977,0.0,-0.03704004890710044,0.0,0.0,0.0,0.0,-0.5157928558447915,-1.138561272992249,-0.6832739781238913,-0.017422395718956585,0.004534941259013855,-0.17427815593741483
3705,1.0,300.21775,7652.8349,0.0,-0.037050044894519574,0.0,0.0,0.0,0.0,-0.5190243029312105,-1.1231652416977789,-0.6840812040810583,0.014178347854293985,-0.0007639437835103812,-0.1888065209062528
3706,1.0,299.97132,7437.4258,0.0,-0.03706007387199639,0.0,0.0,0.0,0.0,-0.47630267949491456,-1.123362318842229,-0.6611267120756265,0.013158899703432288,0.01084572875864009,-0.18045722862474184
3707,1.0,300.47802,7449.8571,0.0,-0.037070069859415744,0.0,0.0,0.0,0.0,-0.49563862234572353,-1.118457783058189,-0.6504741503293003,0.025938450728425773,0.004651809424222846,-0.20506096755294181
3708,1.0,301.13397000000003,7743.9187,0.0,-0.037080065846834986,0.0,0.0,0.0,0.0,-0.5224539518696906,-1.140201319604109,-0.6913026375437583,-0.007344002375621602,-0.008309356447369631,-0.1843555462644758
3709,1.0,300.91517000000005,7707.9429,0.0,-0.03709006183425434,0.0,0.0,0.0,0.0,-0.5265865126675424,-1.136227859336959,-0.6802078630562893,-0.01189222866067159,-0.014089648953790087,-0.1952767206123118
3710,1.0,300.46539,7401.2072,0.0,-0.03710005782167358,0.0,0.0,0.0,0.0,-0.4841467348790625,-1.1043419932650689,-0.6612934322470804,-0.008893940858738621,0.008450115530061472,-0.17979734949711684
3711,1.0,300.37892999999997,7377.848000000001,0.0,-0.037110053809092935,0.0,0.0,0.0,0.0,-0.4741625230311976,-1.1168555306750592,-0.6516635438266843,-0.006142735410915785,0.004119565662669476,-0.18800370258702082
3712,1.0,299.82299,7633.3015,0.0,-0.03712004979651229,0.0,0.0,0.0,0.0,-0.4991310421278985,-1.120954836604629,-0.7002471838615164,-0.001137353985498099,0.011264372289206988,-0.17982525440487082
3713,1.0,299.79861,7723.5034,0.0,-0.03713004578393153,0.0,0.0,0.0,0.0,-0.5173259539085965,-1.143072971712519,-0.6873532622314854,-0.008209255139515403,-0.013140706797886788,-0.17049313992386284
3714,1.0,300.33158,7593.6353,0.0,-0.037140041771350885,0.0,0.0,0.0,0.0,-0.4966690369024175,-1.1442086224245989,-0.6673978587995404,0.00974168911920486,0.008912532984823522,-0.2031686014011798
3715,1.0,299.43118,7424.9314,0.0,-0.0371500707488277,0.0,0.0,0.0,0.0,-0.4951459193520975,-1.1113609793577888,-0.6504867855580474,0.0063664062161653745,-0.009941756162049939,-0.19006412640036882
3716,1.0,299.69037000000003,7408.8922,0.0,-0.037160066736246944,0.0,0.0,0.0,0.0,-0.4856437612393075,-1.117907486928879,-0.6485669907260784,0.013873253182933486,-0.016133212285474083,-0.21989289211923876
3717,1.0,300.33509,7600.0904,0.0,-0.0371700627236663,0.0,0.0,0.0,0.0,-0.49530280086508055,-1.136871475800479,-0.6780634002796473,-0.008482848270566942,-0.01041875631225119,-0.19730719275270384
3718,1.0,300.11841,7617.361,0.0,-0.03718005871108565,0.0,0.0,0.0,0.0,-0.5009788759377656,-1.128287828903339,-0.6862208032572203,-0.0030784775294220774,0.005593620629897374,-0.20201929207775182
3719,1.0,299.70838,7376.9413,0.0,-0.03719005469850489,0.0,0.0,0.0,0.0,-0.4752548573015026,-1.1346140559026887,-0.6325370397715454,0.006242813819317754,0.008137064818915773,-0.19617692239865483
3720,1.0,299.55202,7299.026999999999,0.0,-0.037200050685924246,0.0,0.0,0.0,0.0,-0.4776779334581415,-1.100046319466119,-0.6409977287690504,0.009454036535065762,0.004178397901900766,-0.18989321137350082
3721,1.0,299.07718,7634.6544,0.0,-0.03721004667334349,0.0,0.0,0.0,0.0,-0.5159647537242564,-1.130575342329099,-0.6742041535637693,0.015985147061611187,-0.012696569894803887,-0.18922385835744082
3722,1.0,299.51732999999996,7762.9891,0.0,-0.03722004266076284,0.0,0.0,0.0,0.0,-0.5222081677929334,-1.1420265883342489,-0.6955200985674893,0.00046286724661394053,0.002134609426044548,-0.1886046814863328
3723,1.0,299.7292,7571.7709,0.0,-0.03723007163823966,0.0,0.0,0.0,0.0,-0.4900255916942605,-1.111980784443959,-0.6996228799449024,-0.0068847442346713535,0.002296565903478408,-0.19286754624704483
3724,1.0,299.52827,7448.71,0.0,-0.03724006762565879,0.0,0.0,0.0,0.0,-0.47698805199505556,-1.121026777361729,-0.6662070062220123,-0.008430623637887772,0.015345547121487588,-0.18488645891937283
3725,1.0,300.02699,7522.4552,0.0,-0.037250063613078255,0.0,0.0,0.0,0.0,-0.5107156014487055,-1.104986521653679,-0.6709363713287644,-0.010599307347570188,0.016584507800513487,-0.17957935887060283
3726,1.0,300.25057000000004,7665.4669,0.0,-0.03726005960049761,0.0,0.0,0.0,0.0,-0.5266953255957815,-1.1379964873865092,-0.6654187685717193,0.004281582529809296,0.006542809106899983,-0.19462681186567082
3727,1.0,300.28417,7685.8819,0.0,-0.03727005558791685,0.0,0.0,0.0,0.0,-0.5303426611857455,-1.147870305635979,-0.6581032649697354,0.000882688690554591,-0.007676197434156702,-0.2042674913996318
3728,1.0,300.21858,7490.1609,0.0,-0.037280051575336204,0.0,0.0,0.0,0.0,-0.4922959710608295,-1.121514555959869,-0.6630113673941274,0.0043257228452406055,-0.005827602572139594,-0.2013640131055808
3729,1.0,300.18399,7354.2883,0.0,-0.037290047562755446,0.0,0.0,0.0,0.0,-0.47168036426122756,-1.126581617059949,-0.6372580556974734,0.021320121620632182,-0.011955526394418589,-0.1983622596843308
3730,1.0,299.99877999999995,7564.988,0.0,-0.0373000435501748,0.0,0.0,0.0,0.0,-0.4806704764359825,-1.130503198921979,-0.6883937991566784,0.0026491469460754474,0.00040922006145687563,-0.2023833933686858
3731,1.0,299.49077,7811.8662,0.0,-0.037310072527651617,0.0,0.0,0.0,0.0,-0.5412698745041775,-1.137534749315939,-0.6958076893433723,-0.001131345007105059,0.001289155467779739,-0.17981046095341083
3732,1.0,299.89788,7638.206999999999,0.0,-0.03732006851507075,0.0,0.0,0.0,0.0,-0.5033436294186485,-1.1386248037735187,-0.6798557991765434,-0.02215279535406068,-0.0013799292005134086,-0.1911445043194938
3733,1.0,299.5324,7320.5129,0.0,-0.03733006450249021,0.0,0.0,0.0,0.0,-0.47735335905360854,-1.100986007608859,-0.6469137921279203,-0.020256931462953483,0.005922529211733125,-0.19549881490173082
3734,1.0,299.28276,7463.3014,0.0,-0.037340060489909566,0.0,0.0,0.0,0.0,-0.47138750458482453,-1.122331134215459,-0.6749385876337524,-0.02271376505992408,-0.005381620743274615,-0.19403451651971582
3735,1.0,299.96907000000004,7708.0511,0.0,-0.0373500564773287,0.0,0.0,0.0,0.0,-0.5049393564711345,-1.1497966967260989,-0.6883190516968013,-0.010581154972028689,-0.0036146053825837766,-0.2020187550551988
3736,1.0,300.05467000000004,7661.7649,0.0,-0.03736005246474816,0.0,0.0,0.0,0.0,-0.5007466187498435,-1.134216760538479,-0.6940218259096214,-0.004558803400193865,0.0025724402658050876,-0.17512148399564484
3737,1.0,299.74822,7468.8598,0.0,-0.03737004845216729,0.0,0.0,0.0,0.0,-0.5007664784518036,-1.127810182806199,-0.6417701698502845,0.01843455961484938,0.0016538864936508884,-0.19090401954075983
3738,1.0,300.26583999999997,7433.25,0.0,-0.03738004443958676,0.0,0.0,0.0,0.0,-0.49876881534964956,-1.116966481561009,-0.6437870543068355,0.01068548933482569,0.002479493212931928,-0.17942114999998884
3739,1.0,300.29843,7596.1868,0.0,-0.03739007341706346,0.0,0.0,0.0,0.0,-0.5172587247644616,-1.1347335180894789,-0.6570588371641584,0.009361369949820283,-0.0029240000536263373,-0.1970931132715758
3740,1.0,299.97123999999997,7864.4094,0.0,-0.037400069404482705,0.0,0.0,0.0,0.0,-0.5195763722481955,-1.1754840053112388,-0.6955237158703463,-0.001107559163657579,-0.024234219788981274,-0.1825480499410898
3741,1.0,300.34292999999997,7743.48,0.0,-0.03741006539190228,0.0,0.0,0.0,0.0,-0.5141927718168755,-1.135560634146109,-0.7040711897389164,-0.004821207615691146,-0.004845864448924585,-0.19268922436194583
3742,1.0,299.58763999999996,7353.3525,0.0,-0.03742006137932152,0.0,0.0,0.0,0.0,-0.4556146861081685,-1.1265539553322188,-0.6530669053476854,-0.006461696004594743,-0.0023950937352523478,-0.19341612998368582
3743,1.0,300.09009,7385.3029,0.0,-0.037430057366740654,0.0,0.0,0.0,0.0,-0.4914179391866745,-1.1052611124307792,-0.6482686189691313,-0.006985396446604953,0.015200258202898685,-0.19731857155132682
3744,1.0,300.33245,7815.3601,0.0,-0.03744005335416012,0.0,0.0,0.0,0.0,-0.5419160443579495,-1.1407249672557889,-0.6930333396420654,-0.009314869977556092,0.014954258303870385,-0.19008359093478983
3745,1.0,300.41783,7774.6976,0.0,-0.03745004934157925,0.0,0.0,0.0,0.0,-0.5345339702243954,-1.1569681769588689,-0.6718118194151643,-0.003916592111912546,0.021555104451323182,-0.1996864559750188
3746,1.0,299.53092000000004,7453.5183,0.0,-0.037460045328998604,0.0,0.0,0.0,0.0,-0.4660465214527105,-1.132069379601549,-0.6675675781912904,0.004667953943366185,-0.0055517491840899845,-0.21593707253632977
3747,1.0,299.47542999999996,7481.5644,0.0,-0.03747007430647542,0.0,0.0,0.0,0.0,-0.4790782754938446,-1.145594647236389,-0.6495358199416944,0.004027682218426286,-0.008843106506521663,-0.19387168722864584
3748,1.0,299.66172,7674.4839,0.0,-0.037480070293894885,0.0,0.0,0.0,0.0,-0.5061207858227325,-1.158026618013329,-0.6687040597684524,0.014861386839454685,-0.025569942812806872,-0.1973443891638748
3749,1.0,300.422,7763.2924,0.0,-0.03749006628131424,0.0,0.0,0.0,0.0,-0.5367040175660626,-1.144594468062679,-0.6785485950900324,0.002000444473678498,-0.0015491192704111688,-0.18224465246364682
3750,1.0,300.34276,7579.5248,0.0,-0.03750006226873337,0.0,0.0,0.0,0.0,-0.49448290928166355,-1.1468764086128889,-0.6626269504386884,0.004029499381155626,0.0035836181680255767,-0.19245260006609283
3751,1.0,300.34705,7362.2355,0.0,-0.03751005825615261,0.0,0.0,0.0,0.0,-0.47146121852959955,-1.112039552949759,-0.6544349348376994,-0.005727236198059205,0.005734582767909255,-0.1917436492361248
3752,1.0,300.36253,7476.438,0.0,-0.037520054243571965,0.0,0.0,0.0,0.0,-0.4733129330873495,-1.1191035273469188,-0.6802339846438674,0.01037611368179269,-0.003917017069004486,-0.1948747035026358
3753,1.0,300.5773,7847.2494,0.0,-0.03753005023099121,0.0,0.0,0.0,0.0,-0.5145313088077865,-1.161876259118259,-0.7089602430614284,0.006466780797571573,0.0009376187921932701,-0.1948773886154008
3754,1.0,300.28467,7842.592,0.0,-0.03754004621841078,0.0,0.0,0.0,0.0,-0.5431025095625445,-1.1432315453531687,-0.6976180936945453,0.007862644571807601,-0.0037436874671481863,-0.18773323573782782
3755,1.0,300.20855,7456.034000000001,0.0,-0.037550042205830025,0.0,0.0,0.0,0.0,-0.4906692892177886,-1.1342138221131888,-0.6415650576325415,-0.007149703056320754,0.008437702608386412,-0.19277795467320283
3756,1.0,299.94712999999996,7403.2731,0.0,-0.03756007118330673,0.0,0.0,0.0,0.0,-0.49442368481331855,-1.123582498088959,-0.6324039392384093,0.004984260632383225,0.004450845148414215,-0.1967180080845558
3757,1.0,299.71043,7812.7609999999995,0.0,-0.037570067170726196,0.0,0.0,0.0,0.0,-0.5231405909324566,-1.1570532899672687,-0.6946903784581023,-0.004518297511546246,0.025035630703824377,-0.17858553277501985
3758,1.0,300.03398,7831.0166,0.0,-0.03758006315814533,0.0,0.0,0.0,0.0,-0.5115655764275916,-1.1724701942137987,-0.6963977150091033,-0.0028227786991115674,0.003941691532789666,-0.2128209029137878
3759,1.0,300.21475,7594.4875,0.0,-0.03759005914556457,0.0,0.0,0.0,0.0,-0.4795886090392105,-1.139831787292639,-0.6891141389177704,-0.0014986987295350484,0.0012139757554100788,-0.17656953997855684
3760,1.0,300.17388,7474.3999,0.0,-0.03760005513298392,0.0,0.0,0.0,0.0,-0.4832357723766575,-1.133897485431969,-0.6548976962908704,0.008965863883961872,-0.014438984151016786,-0.18981224255800982
3761,1.0,299.96277000000003,7552.6602,0.0,-0.037610051120403276,0.0,0.0,0.0,0.0,-0.5008939655793856,-1.130666028213049,-0.6642600562873634,0.016511539607812084,-0.006247379220293324,-0.17503848867995384
3762,1.0,299.67539,7786.2390000000005,0.0,-0.03762004710782274,0.0,0.0,0.0,0.0,-0.5167831659625275,-1.154754934765439,-0.6952841328842013,0.015509862850454286,-0.032533073493764365,-0.19685846481341782
3763,1.0,299.90164,7831.9284,0.0,-0.03763004309524187,0.0,0.0,0.0,0.0,-0.5264252437816265,-1.1525364236714888,-0.7017490434247383,-0.0064529629033078535,-0.00961751846052517,-0.18326868354471082
3764,1.0,300.27972,7524.1409,0.0,-0.03764007207271869,0.0,0.0,0.0,0.0,-0.47825394587498954,-1.130223744544399,-0.6786732248523324,-0.0007123872575496484,-0.01173778604067929,-0.20928472085979383
3765,1.0,300.44473,7407.9904,0.0,-0.03765006806013804,0.0,0.0,0.0,0.0,-0.4828172291578505,-1.1299115621885887,-0.6391152924682684,-0.012721717749035789,0.015798092987150385,-0.1971949955691308
3766,1.0,300.4335,7772.2443,0.0,-0.037660064047557285,0.0,0.0,0.0,0.0,-0.5308518396259975,-1.1577283171838888,-0.6739880171849384,-0.013978994950119386,0.013213502738071186,-0.2089327785700598
3767,1.0,300.70734,8009.7251,0.0,-0.03767006003497653,0.0,0.0,0.0,0.0,-0.5788885171243485,-1.157185417780309,-0.6986824419970883,-0.019020410690168382,0.012480355495715188,-0.1867527744110638
3768,1.0,300.7898,7610.9638,0.0,-0.03768005602239588,0.0,0.0,0.0,0.0,-0.5046202941471456,-1.145975527948979,-0.6629471577352903,-0.01070884576288079,-0.004794718420976865,-0.19431187346958884
3769,1.0,300.22175,7444.0007,0.0,-0.037690052009815234,0.0,0.0,0.0,0.0,-0.4683878992537866,-1.1369541570086388,-0.6574482393100893,0.006913996866383364,-0.0032125509853040968,-0.19569710794630082
3770,1.0,299.79533,7732.8730000000005,0.0,-0.03770004799723459,0.0,0.0,0.0,0.0,-0.49180326806720354,-1.1466127609368688,-0.7121842224946103,0.022058032151708276,-0.02927881004159357,-0.18759605180678884
3771,1.0,299.9581,7852.0264,0.0,-0.03771004398465383,0.0,0.0,0.0,0.0,-0.5167829531800064,-1.1620048405559489,-0.7080321464998323,0.007517291650123924,-0.0033264265163427367,-0.19138304365803582
3772,1.0,300.32419,7722.3808,0.0,-0.037720072962130646,0.0,0.0,0.0,0.0,-0.5093741191113115,-1.1423305633642489,-0.6957062427433603,0.0004841666452435275,-0.012569115191225088,-0.16848872857604283
3773,1.0,299.54200000000003,7498.4176,0.0,-0.03773006894955,0.0,0.0,0.0,0.0,-0.5001105915295725,-1.1253509234884889,-0.6538701593644604,0.0009034152178426402,0.01040830970372019,-0.1947489186352218
3774,1.0,299.72709,7461.3518,0.0,-0.03774006493696924,0.0,0.0,0.0,0.0,-0.4817078418883625,-1.133236441066729,-0.6531203846879634,-0.00876076757424544,-0.0017117956620410783,-0.19317869508775282
3775,1.0,300.13779,7736.649,0.0,-0.03775006092438837,0.0,0.0,0.0,0.0,-0.5195987853404075,-1.140587773192249,-0.6915615634743124,0.007232869104653604,0.010375635427745491,-0.2127402988683328
3776,1.0,300.40825,7967.7968,0.0,-0.03776005691180784,0.0,0.0,0.0,0.0,-0.5363943278054984,-1.167985143971159,-0.7176317894047434,-0.016261060130091685,0.015215634273166185,-0.2008722625670488
3777,1.0,300.24264,7686.6141,0.0,-0.03777005289922719,0.0,0.0,0.0,0.0,-0.5192725086757065,-1.1506640388116989,-0.6666021838935133,-0.002930147138008007,0.03300979550681317,-0.20851582615390982
3778,1.0,300.08256,7353.0674,0.0,-0.037780048886646544,0.0,0.0,0.0,0.0,-0.47544094068236753,-1.1233543141664388,-0.6363536286582133,-0.004261214176299096,0.001961654625400238,-0.2055258568313228
3779,1.0,299.73207,7572.223000000001,0.0,-0.03779004487406579,0.0,0.0,0.0,0.0,-0.5171176803505415,-1.1365799637467089,-0.6480690289644334,0.0032809536757049166,0.002684058072970907,-0.1940025890090648
3780,1.0,299.41221,7895.251,0.0,-0.037800073851542604,0.0,0.0,0.0,0.0,-0.5252347357091325,-1.153128871004959,-0.7215955224709333,0.010538073604276891,-0.02696737986047318,-0.18570790077544283
3781,1.0,299.08034,7660.2256,0.0,-0.03781006983896196,0.0,0.0,0.0,0.0,-0.5011802999251446,-1.141852005342019,-0.6854850316971054,-0.0006326536648580554,-0.016740293990138384,-0.1951124322410978
3782,1.0,299.75414,7482.069,0.0,-0.0378200658263812,0.0,0.0,0.0,0.0,-0.4583501067406336,-1.1371348195014688,-0.6788772630249693,-0.00044412468328669356,-0.014743185135789087,-0.2001725120479888
3783,1.0,299.78927999999996,7544.329000000001,0.0,-0.03783006181380055,0.0,0.0,0.0,0.0,-0.4988101356887275,-1.1213450392181388,-0.6731324693305023,0.0008665524597970693,0.0060125651970689845,-0.18217657218942784
3784,1.0,300.14669,7736.2627,0.0,-0.037840057801219906,0.0,0.0,0.0,0.0,-0.5106907464237525,-1.1594896498327187,-0.6814502495339034,0.014738561675582787,0.02267128353623148,-0.1912760343149748
3785,1.0,300.13027,7972.844,0.0,-0.03785005378863915,0.0,0.0,0.0,0.0,-0.5523235617000916,-1.162397272319679,-0.7088247208605534,-0.0033113564476054368,0.017068305339010586,-0.19367165139390383
3786,1.0,299.91559,7814.5454,0.0,-0.0378600497760585,0.0,0.0,0.0,0.0,-0.5142348622260295,-1.157611692097379,-0.7035800876804483,0.009503633404935591,-0.0016753764136967783,-0.1991807732476118
3787,1.0,300.21695,7505.3561,0.0,-0.037870045763477744,0.0,0.0,0.0,0.0,-0.48963433530064654,-1.1323201590012988,-0.6594863209587324,-0.0097487083079476,0.0018775091695207285,-0.2028561758653458
3788,1.0,300.87087,7629.9484,0.0,-0.03788007474095445,0.0,0.0,0.0,0.0,-0.4862433823834856,-1.139557804465599,-0.6935125765418624,0.01875811165003148,0.0019555030827181283,-0.1975029324070218
3789,1.0,299.70023,7951.3338,0.0,-0.037890070728373915,0.0,0.0,0.0,0.0,-0.5515505531988014,-1.1633162901603789,-0.7021401376983364,-0.0027729824216220574,0.005382362138372785,-0.18855341103127282
3790,1.0,299.61897999999997,7805.9293,0.0,-0.037900066715793046,0.0,0.0,0.0,0.0,-0.5282096278702315,-1.1513733138816988,-0.6932246007309413,-0.0022963564646827374,0.0013664949227375485,-0.19082117621258382
3791,1.0,300.17309,7509.798000000001,0.0,-0.03791006270321251,0.0,0.0,0.0,0.0,-0.49445866220677054,-1.1343080543724888,-0.6540243760296803,-0.008510360341257172,-0.007300899830942713,-0.18872207664291882
3792,1.0,300.11983,7537.5292,0.0,-0.037920058690631864,0.0,0.0,0.0,0.0,-0.4795730049876705,-1.1439464946237288,-0.6677011448194723,0.015289973393252883,0.0026561642096429978,-0.2039620674219888
3793,1.0,299.81756,7825.8849,0.0,-0.037930054678051106,0.0,0.0,0.0,0.0,-0.5218849308785325,-1.162564154611149,-0.6944244914993614,0.02064390890139518,-0.01024800137889899,-0.1957012622717108
3794,1.0,299.87948,7847.6537,0.0,-0.03794005066547046,0.0,0.0,0.0,0.0,-0.5122907696566625,-1.1708516285040589,-0.7023483707263873,0.014463133953900184,-0.00911069998108108,-0.21695995864478076
3795,1.0,298.90154,7730.9392,0.0,-0.03795004665288959,0.0,0.0,0.0,0.0,-0.5211752302434906,-1.1539765560386188,-0.6748607294960683,0.002510546694046668,0.0023117484429768078,-0.18373730158345983
3796,1.0,299.2862,7563.3053,0.0,-0.037960042640309055,0.0,0.0,0.0,0.0,-0.49080857057653454,-1.134557719197129,-0.6736896251629894,0.0036689472013468967,0.006275374307306223,-0.19860525732331283
3797,1.0,300.00391,7592.0663,0.0,-0.03797007161778587,0.0,0.0,0.0,0.0,-0.4985185932374545,-1.145102410337809,-0.6641776283917283,-0.006629605326366103,-0.005250469196705965,-0.18779877275429582
3798,1.0,299.9345,7919.2859,0.0,-0.037980067605205,0.0,0.0,0.0,0.0,-0.5268076443693666,-1.1623643416914289,-0.7180931221752733,-0.01160384754971059,-0.002078937615200168,-0.2029321088278398
3799,1.0,300.07325,7901.9883,0.0,-0.03799006359262436,0.0,0.0,0.0,0.0,-0.5439017612414244,-1.154813601946229,-0.7032917470994914,-0.01077693110335029,0.002394869806980248,-0.17529398982516983
3800,1.0,300.29454,7508.821,0.0,-0.03800005958004382,0.0,0.0,0.0,0.0,-0.48235083013682056,-1.1441769076964687,-0.6559663914363424,-0.014479529353768289,0.013923777885919886,-0.2050187656862768
3801,1.0,300.12201,7554.5307,0.0,-0.03801005556746295,0.0,0.0,0.0,0.0,-0.4950302467206815,-1.133658155758349,-0.6677002632918854,0.0005714625388639615,-0.0008454917626260402,-0.19590233162155482
3802,1.0,300.49416,7909.3072,0.0,-0.03802005155488242,0.0,0.0,0.0,0.0,-0.5239097085533625,-1.1693701555328488,-0.7109519887829984,-0.0013476612378288087,-0.0027394001722327475,-0.19970228294158082
3803,1.0,299.6185,7894.6576,0.0,-0.03803004754230155,0.0,0.0,0.0,0.0,-0.5286341796621316,-1.172747318116149,-0.6983973134189484,0.008962488545228752,-0.005450609193558245,-0.2026345274059708
3804,1.0,299.49233,7579.9207,0.0,-0.03804004352972101,0.0,0.0,0.0,0.0,-0.48746126847368154,-1.135964414310959,-0.6806808988654743,-0.0017820863413532282,-0.013197460962487986,-0.19740943982029482
3805,1.0,299.26259,7525.0882,0.0,-0.03805007250719772,0.0,0.0,0.0,0.0,-0.5037018031964975,-1.1382585138623689,-0.6454786348187814,0.015037266791812687,-0.009985377389455022,-0.2074736984260598
3806,1.0,299.38068,7723.875,0.0,-0.03806006849461718,0.0,0.0,0.0,0.0,-0.5207507088490935,-1.139993096708559,-0.6871213698135993,-0.0003579928519111437,-0.0017649624146632284,-0.1910617825813298
3807,1.0,299.62849,7887.6808,0.0,-0.038070064482036314,0.0,0.0,0.0,0.0,-0.5460213487281115,-1.156938691380959,-0.6946979271713474,0.02403571801489068,0.0004656646882850266,-0.2006789040504658
3808,1.0,300.31363,7945.0368,0.0,-0.03808006046945578,0.0,0.0,0.0,0.0,-0.5262401432533585,-1.176246881311529,-0.7126057750662144,-0.02292646753416618,0.02179712937020918,-0.1818419058138988
3809,1.0,299.62883,7629.196,0.0,-0.03809005645687491,0.0,0.0,0.0,0.0,-0.4952097743733995,-1.123831250988509,-0.7000440373489674,-0.01063942090577909,0.009693090705983572,-0.18632247749109682
3810,1.0,299.9134,7524.3159,0.0,-0.03810005244429426,0.0,0.0,0.0,0.0,-0.4646971256320355,-1.153769245068159,-0.6687378313942853,-0.023040143049635076,0.005470287827725375,-0.19717057624172082
3811,1.0,299.73301000000004,7798.5392,0.0,-0.038110048431713506,0.0,0.0,0.0,0.0,-0.5115073550768455,-1.1502918720499689,-0.7087620006793632,-0.004827029548115725,-0.006332078417352484,-0.18911533927173083
3812,1.0,300.30322,7999.5041,0.0,-0.03812004441913286,0.0,0.0,0.0,0.0,-0.5331273257730705,-1.165201745946459,-0.7333203966655883,-0.002907399470612987,-0.0003413009750637837,-0.1914757459096848
3813,1.0,300.78931,7671.4909,0.0,-0.038130073396609676,0.0,0.0,0.0,0.0,-0.5063548060658285,-1.1642047078480589,-0.6613821726908383,0.009531769232387381,-0.01008788334244657,-0.2116126730970448
3814,1.0,300.6972,7530.9814,0.0,-0.03814006938402903,0.0,0.0,0.0,0.0,-0.48699517342768156,-1.137695450781799,-0.6645397031824624,0.008539733043106032,-0.0016731956968315583,-0.2008719788570208
3815,1.0,300.04052,7821.8596,0.0,-0.03815006537144827,0.0,0.0,0.0,0.0,-0.5345967815980945,-1.1629560797498288,-0.6800971148203594,0.0036866587117698867,-0.012291996355125588,-0.2032823387249048
3816,1.0,299.19072,7997.2371,0.0,-0.038160061358867625,0.0,0.0,0.0,0.0,-0.5448077486858385,-1.176090131521059,-0.7100624970502124,0.0025830571003528876,0.013151204068922787,-0.19206795006313082
3817,1.0,299.81095,7867.488,0.0,-0.03817005734628687,0.0,0.0,0.0,0.0,-0.5350866170939375,-1.1545627212214689,-0.7018706030392353,-0.0036820628119663065,0.0007081567661296313,-0.18936259256113283
3818,1.0,299.5165,7689.9369,0.0,-0.03818005333370622,0.0,0.0,0.0,0.0,-0.49114715822995053,-1.160454263927919,-0.6859473777177354,-0.002077506602083938,0.005664150537558135,-0.18195395100995682
3819,1.0,299.75742,7516.8554,0.0,-0.038190049321125574,0.0,0.0,0.0,0.0,-0.4858271696399085,-1.125586200161709,-0.6735230367140485,-0.0025957873719592676,-0.01000254103554894,-0.18948995809870284
3820,1.0,299.56706,7690.1549,0.0,-0.03820004530854482,0.0,0.0,0.0,0.0,-0.4890998965354016,-1.146702737545749,-0.7018124323509943,0.006285101913566265,0.0006798615949671153,-0.18854528476547083
3821,1.0,300.04309,8009.3827,0.0,-0.038210074286021634,0.0,0.0,0.0,0.0,-0.5393020921474725,-1.180094698566279,-0.7152555051377223,-0.005845255314056785,-1.036798842924079e-05,-0.1932062352254708
3822,1.0,300.16874,7751.2184,0.0,-0.03822007027344099,0.0,0.0,0.0,0.0,-0.5147544062148045,-1.140755364758789,-0.7006670848354574,0.006615659661264773,-0.0025544529487048777,-0.20299235667878582
3823,1.0,300.31356,7473.8326,0.0,-0.03823006626086023,0.0,0.0,0.0,0.0,-0.4739249868102545,-1.1562352931615387,-0.6416982088281824,0.008947509263700412,-0.0073082400173171335,-0.21267795358967978
3824,1.0,300.19268,7753.0082,0.0,-0.03824006224827958,0.0,0.0,0.0,0.0,-0.5156542736286145,-1.151795737848389,-0.6892709292382443,0.02012608642454008,0.015931357666802586,-0.1992229244517718
3825,1.0,300.4277,8068.7777,0.0,-0.038250058235698825,0.0,0.0,0.0,0.0,-0.5598834510936944,-1.1815590476107989,-0.7112644447163353,0.0019638910710209584,0.0037174383113825963,-0.20472576415485982
3826,1.0,300.13454,7799.0464,0.0,-0.03826005422311818,0.0,0.0,0.0,0.0,-0.5237585924334485,-1.168331675505359,-0.6786251056050834,-0.00951283503306872,9.063943757866601e-05,-0.21417732055765581
3827,1.0,299.88662,7508.1282,0.0,-0.03827005021053753,0.0,0.0,0.0,0.0,-0.5024937354997705,-1.1329708682155188,-0.6468189012560553,-0.015171309647541684,-0.017377413494017183,-0.1963339457666518
3828,1.0,299.81503,7661.232,0.0,-0.038280046197956774,0.0,0.0,0.0,0.0,-0.49711327614376055,-1.1626425801688889,-0.6690674213868134,-0.0003077800475705257,0.012570503343862088,-0.1965871772316438
3829,1.0,300.03275,7895.9012,0.0,-0.0382900751754337,0.0,0.0,0.0,0.0,-0.5242404333860025,-1.175262812814409,-0.7006535478141213,0.0022858863487494182,-0.001023969576782929,-0.2009040380901848
3830,1.0,300.48155,7999.4109,0.0,-0.038300071162852944,0.0,0.0,0.0,0.0,-0.5282456894412905,-1.179487457781349,-0.7238880616171893,0.01927145150844418,-0.0013793879223099885,-0.19441232708450282
3831,1.0,300.14284,7896.7974,0.0,-0.03831006715027219,0.0,0.0,0.0,0.0,-0.5262524441095725,-1.1840897410605589,-0.6900870211337864,0.014625993642473186,-0.015195798889208587,-0.2062501482678048
3832,1.0,299.17681,7634.7925,0.0,-0.03832006313769154,0.0,0.0,0.0,0.0,-0.4914564730879776,-1.148912939988879,-0.6804169066844203,0.01224142200288429,-0.0014029548024108586,-0.1992612759680568
3833,1.0,299.83947,7754.899,0.0,-0.03833005912511067,0.0,0.0,0.0,0.0,-0.5106384728510935,-1.1721200149792388,-0.6745371784741364,-0.008867603144914292,-0.013392616984748387,-0.2057999004533688
3834,1.0,300.24626,8068.5435,0.0,-0.038340055112530136,0.0,0.0,0.0,0.0,-0.5399488598188035,-1.1882026245414687,-0.7244842681085303,-0.024231946055756876,-0.00903190499235462,-0.1937510395392388
3835,1.0,300.32251,7857.7863,0.0,-0.03835005109994949,0.0,0.0,0.0,0.0,-0.5267856669746975,-1.1592024947543789,-0.7025826645470103,-0.010370986636286689,-0.004303449480217396,-0.19234015970249582
3836,1.0,300.51497,7520.3223,0.0,-0.03836004708736873,0.0,0.0,0.0,0.0,-0.47068965897595255,-1.155895753053029,-0.6594048252531894,-0.0089621293480683,0.02136391428995418,-0.1950782654477258
3837,1.0,300.68153,7673.6021,0.0,-0.038370043074788085,0.0,0.0,0.0,0.0,-0.5036714462235015,-1.153177709659779,-0.6757343132022844,0.012234776095478388,0.014545874943816086,-0.20152514013648282
3838,1.0,300.26945,7998.7526,0.0,-0.0383800720522649,0.0,0.0,0.0,0.0,-0.5367993441354705,-1.1832862337312589,-0.7113355242108503,0.0027113585770402577,-0.007992120506685883,-0.1818136158711068
3839,1.0,300.83577,8025.6368,0.0,-0.03839006803968403,0.0,0.0,0.0,0.0,-0.5522306264009195,-1.189226412442509,-0.6981360874106673,0.017336395103468984,-0.005157371878842975,-0.21727026648790576
3840,1.0,300.14922,7847.5505,0.0,-0.0384000640271035,0.0,0.0,0.0,0.0,-0.5216493704952846,-1.1556724327309886,-0.7081376157027414,-0.003810798972946577,-0.003824528714451596,-0.19326108245338383
3841,1.0,300.26659,7716.0415,0.0,-0.03841006001452263,0.0,0.0,0.0,0.0,-0.5019480800559185,-1.1716268661555689,-0.6719090306297584,-0.0027254771026086477,0.005952213589312744,-0.2119497915378158
3842,1.0,300.34466000000003,7799.7017,0.0,-0.038420056001942204,0.0,0.0,0.0,0.0,-0.5002642914372415,-1.1632743416062388,-0.7073759353375693,-0.025471576493098873,-0.008541801289210152,-0.1877650011284628
3843,1.0,299.96306,8043.2098,0.0,-0.03843005198936145,0.0,0.0,0.0,0.0,-0.5503800061532774,-1.176791503240279,-0.7177633700627293,-0.01154101996400999,-0.004456485101120836,-0.19645915308150882
3844,1.0,299.92672999999996,7905.8803,0.0,-0.03844004797678058,0.0,0.0,0.0,0.0,-0.5150764880240916,-1.1831599827687989,-0.7049537103110143,-0.019362465685426582,0.007446563956043643,-0.19612886394641182
3845,1.0,300.03449,7463.9299,0.0,-0.03845004396420004,0.0,0.0,0.0,0.0,-0.48091919893802954,-1.1422334940046688,-0.6456956425926984,-0.004493519696250866,-0.008472429425088681,-0.2007347847934808
3846,1.0,299.77147,7626.383000000001,0.0,-0.03846007294167686,0.0,0.0,0.0,0.0,-0.4801165528713146,-1.1617509200808889,-0.6763625383967854,0.010899634677210189,-0.007266488236346553,-0.2033256652991808
3847,1.0,299.76878,7988.0229,0.0,-0.03847006892909599,0.0,0.0,0.0,0.0,-0.5463430455023605,-1.172789874620349,-0.7090265298829703,0.017073139555237683,0.008313074365961562,-0.1964419683598128
3848,1.0,299.92064,7956.198,0.0,-0.038480064916515344,0.0,0.0,0.0,0.0,-0.5242801223924195,-1.172010178668399,-0.7221952854701253,0.025229360069943977,0.015630660500876085,-0.1947614221414558
3849,1.0,299.61732,7734.999,0.0,-0.03849006090393481,0.0,0.0,0.0,0.0,-0.5024123107217345,-1.1835274885800688,-0.6653067335081624,0.00016851590394372483,0.0030951373875662772,-0.2103691213818158
3850,1.0,299.75198,7719.1146,0.0,-0.03850005689135416,0.0,0.0,0.0,0.0,-0.49065775843165055,-1.1577202111830889,-0.6980401832887023,-0.017321360498485185,-0.0009011975578787742,-0.19659107824452882
3851,1.0,299.83371,7874.7086,0.0,-0.038510052878773404,0.0,0.0,0.0,0.0,-0.5234398442169905,-1.1795705442895488,-0.6907043437572113,-0.016682151672900183,-0.009602687924111512,-0.21039492886186278
3852,1.0,300.35537,7977.141,0.0,-0.038520048866192536,0.0,0.0,0.0,0.0,-0.5318610569905995,-1.1805064834069188,-0.7124840837292044,0.0018314637412513983,-0.007874315490434432,-0.19590280784910183
3853,1.0,300.43329,7839.776,0.0,-0.038530044853612,0.0,0.0,0.0,0.0,-0.5298253159496875,-1.153911100082159,-0.6993597692914354,-0.0016947292879567583,-0.00854601418047593,-0.19457097165265982
3854,1.0,300.13259,7593.7921,0.0,-0.038540073831088706,0.0,0.0,0.0,0.0,-0.4813933594548256,-1.159581247641759,-0.6673485540496743,0.017795945567073083,-0.002012837029026548,-0.18667709476109481
3855,1.0,299.67888,7705.6,0.0,-0.03855006981850795,0.0,0.0,0.0,0.0,-0.5058108326171424,-1.1494513810920188,-0.6870477369288324,0.01250426211857459,0.018954368061900484,-0.1959704017632728
3856,1.0,299.80922000000004,8174.4412,0.0,-0.0385600658059273,0.0,0.0,0.0,0.0,-0.5515508774388335,-1.198538687486559,-0.7347364542103423,0.017884555301568184,0.00952502615429689,-0.19245200224853382
3857,1.0,299.74466,8219.9873,0.0,-0.038570061793346766,0.0,0.0,0.0,0.0,-0.5593590536369404,-1.208981445667179,-0.7303304476080034,-0.0032559155564588467,-0.004505583451941465,-0.1962546994763308
3858,1.0,299.73076000000003,7783.986999999999,0.0,-0.03858005778076612,0.0,0.0,0.0,0.0,-0.5065303516456535,-1.1689468196410688,-0.6906605206903863,0.0005052796159872154,-0.02145262230970898,-0.2032999895416468
3859,1.0,299.89983,7757.1331,0.0,-0.03859005376818525,0.0,0.0,0.0,0.0,-0.5111632756078875,-1.1745500926940688,-0.6722613478220294,-0.004618171952703086,-0.007971936767343903,-0.19955169371171882
3860,1.0,300.60103,7990.9587,0.0,-0.03860004975560449,0.0,0.0,0.0,0.0,-0.5384122052471475,-1.1710041226441088,-0.7196355725375013,0.01252322712069629,0.0022754793582973275,-0.20075316515029482
3861,1.0,300.47359,7948.6497,0.0,-0.038610045743023846,0.0,0.0,0.0,0.0,-0.5312646883792425,-1.1732761333433388,-0.7116501991619063,-0.0069808781617590335,-0.007860232124644513,-0.19340747682783183
3862,1.0,300.30244,7707.4921,0.0,-0.03862007472050066,0.0,0.0,0.0,0.0,-0.4772343528293635,-1.1835300217053188,-0.6821207779200794,-0.008378385326332251,-0.009100371112211701,-0.2162413718063618
3863,1.0,299.81597999999997,7591.8418,0.0,-0.038630070707919906,0.0,0.0,0.0,0.0,-0.4896376182309705,-1.146676697018179,-0.6714159729985973,-0.015473716166386884,0.008213328607567422,-0.2060181747899108
3864,1.0,299.88932,7761.7225,0.0,-0.03864006669533926,0.0,0.0,0.0,0.0,-0.5097503591384435,-1.176002992012459,-0.6736164786382705,0.005726407055502375,0.004809100290246246,-0.21250160754227582
3865,1.0,299.67472000000004,8046.6856,0.0,-0.03865006268275861,0.0,0.0,0.0,0.0,-0.5528181594714046,-1.199930082523879,-0.6932432445327813,0.004690827456423625,0.008521454923227121,-0.2077440842152448
3866,1.0,299.77611,8045.3611,0.0,-0.03866005867017808,0.0,0.0,0.0,0.0,-0.5456752123614504,-1.1856656489410888,-0.7142480001657894,0.0036770790400244466,0.002216577002159118,-0.19469823586521984
3867,1.0,300.42747,7769.5958,0.0,-0.03867005465759721,0.0,0.0,0.0,0.0,-0.5114692568730855,-1.1831961557973687,-0.6670977037224174,-0.002667816788443018,-0.0027183516239304172,-0.1999881613247948
3868,1.0,300.84418999999997,7782.1456,0.0,-0.03868005064501645,0.0,0.0,0.0,0.0,-0.49852994163857456,-1.165067895608249,-0.7019801556400473,-0.009815349159074541,-0.012416822687944988,-0.20293330446295782
3869,1.0,300.65192,8070.0792,0.0,-0.038690046632435804,0.0,0.0,0.0,0.0,-0.5404690522876424,-1.1843171143829987,-0.7283163901192313,0.007299753439779573,-0.007249477287042702,-0.19634705722294582
3870,1.0,300.37264,8045.2239,0.0,-0.03870007560991262,0.0,0.0,0.0,0.0,-0.5318315308826855,-1.1929950948644488,-0.7207206012745853,0.009484139080961651,-0.011727452916159488,-0.19413223435935983
3871,1.0,299.79025,7797.3649,0.0,-0.03871007159733175,0.0,0.0,0.0,0.0,-0.5168346998626135,-1.161744333955239,-0.6916252158455943,0.01172074317399729,0.014257141221820287,-0.1981931279776388
3872,1.0,299.5949,7645.5032,0.0,-0.03872006758475133,0.0,0.0,0.0,0.0,-0.49331792497918847,-1.163848955737949,-0.6668751636029544,0.007819763118300533,0.009982392253335411,-0.2001235315381548
3873,1.0,299.95391,7867.2491,0.0,-0.03873006357217057,0.0,0.0,0.0,0.0,-0.5169158814606255,-1.1804512612764688,-0.6940801587178783,-0.016459813190207086,0.019507251018715782,-0.1894158489863888
3874,1.0,299.28536,8034.8156,0.0,-0.03874005955958992,0.0,0.0,0.0,0.0,-0.5127122614332605,-1.1960831771942186,-0.7335878744269863,-0.014074719726816686,0.0097106688726934,-0.2043055896033918
3875,1.0,299.67196,8048.3791,0.0,-0.038750055547009166,0.0,0.0,0.0,0.0,-0.5414845923328685,-1.2056950702928388,-0.6993266258806643,-0.008853137378536631,0.016781039816409684,-0.2069496353418388
3876,1.0,300.27346,7886.6962,0.0,-0.03876005153442841,0.0,0.0,0.0,0.0,-0.5182689452466624,-1.169759851521309,-0.7093299476254152,-0.002553633533349008,0.01063872480296039,-0.2078548527161768
3877,1.0,299.72377,7725.9819,0.0,-0.03877004752184776,0.0,0.0,0.0,0.0,-0.5256396405815934,-1.160952276352069,-0.6619136831632944,-0.0008557661186400402,-0.0004876007524824475,-0.19984925486858582
3878,1.0,299.37102999999996,7944.5004,0.0,-0.03878007649932458,0.0,0.0,0.0,0.0,-0.5164873374633315,-1.195192530356319,-0.7032498593403573,0.012973751552409589,-0.008794012816651492,-0.2072736017963118
3879,1.0,299.67023,8124.646,0.0,-0.03879007248674393,0.0,0.0,0.0,0.0,-0.5545123845661115,-1.183067574359679,-0.7321095323985852,0.0032997873606136563,-0.005421469336582364,-0.19054069845240282
3880,1.0,299.35927000000004,7808.0471,0.0,-0.038800068474163285,0.0,0.0,0.0,0.0,-0.4812231537030276,-1.1792649480593886,-0.7129632395689933,-0.005840138401051785,-0.022565205370012376,-0.2127526199895488
3881,1.0,299.61662,7542.2509,0.0,-0.03881006446158253,0.0,0.0,0.0,0.0,-0.47752299738535053,-1.1382169706082688,-0.6769159857339063,-0.01849562414537598,-0.00956377344607095,-0.2023180286047348
3882,1.0,300.1921,7797.526,0.0,-0.03882006044900188,0.0,0.0,0.0,0.0,-0.5016315001946745,-1.164332985310719,-0.7042886940053823,-0.0005361867229925095,0.00024387823437890775,-0.20835638111817378
3883,1.0,300.03891,8037.8152,0.0,-0.03883005643642112,0.0,0.0,0.0,0.0,-0.5429838275783315,-1.1894772931672688,-0.7108339856763524,0.013133765021451688,0.017720269970104483,-0.2005397645467338
3884,1.0,300.47643999999997,8056.2414,0.0,-0.038840052423840254,0.0,0.0,0.0,0.0,-0.5339849406577105,-1.2036236831134088,-0.7112876380111244,0.004742938301116565,-0.005674892407168276,-0.21178579700913083
3885,1.0,300.43141,7929.559,0.0,-0.03885004841125983,0.0,0.0,0.0,0.0,-0.5332430288019896,-1.1846599982168389,-0.6924848673629354,0.00017522651750101085,-0.015373644546760587,-0.2096664830999708
3886,1.0,299.77153,7828.42,0.0,-0.03886004439867907,0.0,0.0,0.0,0.0,-0.5012744713894386,-1.1788356339920187,-0.6995341192361424,0.00014124448015224487,0.006487119766828873,-0.21169269958994277
3887,1.0,299.87203,7961.7887,0.0,-0.03887007337615589,0.0,0.0,0.0,0.0,-0.5322224225062635,-1.1888563735059887,-0.6991061730564073,-0.0010103873340949658,0.01971823704728848,-0.20212590625327378
3888,1.0,299.67002,8068.3443,0.0,-0.03888006936357524,0.0,0.0,0.0,0.0,-0.5311710640700025,-1.1917177917883888,-0.7296863853144393,0.0032359798607413466,0.02182093466805858,-0.1945087175665158
3889,1.0,299.12712,7968.9303,0.0,-0.038890065350994485,0.0,0.0,0.0,0.0,-0.5399118255276485,-1.173437442759259,-0.7090065283259963,-0.020343280636475482,0.004760475431197345,-0.18195943269299783
3890,1.0,299.14797000000004,7718.3129,0.0,-0.03890006133841384,0.0,0.0,0.0,0.0,-0.4923112610048386,-1.1625468280344389,-0.6913163569501124,0.005210335677470095,-0.004761168899565785,-0.2020397597297718
3891,1.0,299.47795,7839.7737,0.0,-0.03891005732583308,0.0,0.0,0.0,0.0,-0.5140568645809626,-1.166391706863899,-0.7026468944708494,0.001996567778795898,-0.015992144566801786,-0.19432904805878382
3892,1.0,299.90702000000005,8158.9052,0.0,-0.038920053313252434,0.0,0.0,0.0,0.0,-0.5379547228269975,-1.2017238391759089,-0.7404249111992494,0.025551196672706774,-0.01966162473770128,-0.20776773347257882
3893,1.0,300.51833999999997,8105.1227,0.0,-0.03893004930067179,0.0,0.0,0.0,0.0,-0.5424361658992816,-1.2001389133694886,-0.7211798771474123,0.019069793460292084,-0.015793399612687185,-0.19403773865503382
3894,1.0,300.56074,7847.8869,0.0,-0.03894004528809103,0.0,0.0,0.0,0.0,-0.49774594950620055,-1.1864632794198091,-0.7013524472030973,0.015761935157331885,-0.0015181597175806987,-0.2208848943646418
3895,1.0,299.94992,7850.3027,0.0,-0.03895007426556785,0.0,0.0,0.0,0.0,-0.5212499169083614,-1.1715149020195188,-0.6935311899461993,0.0073154372341024424,0.013723666057420387,-0.18654646655820284
3896,1.0,300.11959,8081.2213,0.0,-0.0389600702529872,0.0,0.0,0.0,0.0,-0.5256905867966215,-1.216135396673219,-0.7146635542968013,-0.013329699219788887,0.001104700075850409,-0.2105266311098608
3897,1.0,299.5594,8099.1918,0.0,-0.03897006624040633,0.0,0.0,0.0,0.0,-0.5492402720432945,-1.1873692263342188,-0.7253425416057353,-0.028835524268594672,-0.0022057341115140077,-0.19335546670019882
3898,1.0,299.27903,7947.2787,0.0,-0.038980062227825796,0.0,0.0,0.0,0.0,-0.5190410114253595,-1.1934886489881589,-0.7032446613673443,-0.02078424606674538,0.008174180170078772,-0.2202651602059788
3899,1.0,300.11149,7736.793000000001,0.0,-0.03899005821524493,0.0,0.0,0.0,0.0,-0.5041226667580335,-1.1687950347760887,-0.6788741827446654,-0.013000632064312487,0.02972578505820657,-0.1965036347608988
3900,1.0,300.13414,7793.8158,0.0,-0.03900005420266439,0.0,0.0,0.0,0.0,-0.49951545908333755,-1.1790378787119788,-0.6905720740891573,0.015367177984622385,0.008229334514097082,-0.20678759638584682
3901,1.0,299.71743,8172.9889,0.0,-0.039010050190083745,0.0,0.0,0.0,0.0,-0.5479008972661085,-1.2116596683314989,-0.7248240007345593,0.017304793859350184,-0.004605510683428515,-0.20386747039265282
3902,1.0,300.14761,8202.2941,0.0,-0.03902004617750299,0.0,0.0,0.0,0.0,-0.5439542475966045,-1.2119680003369289,-0.7373703775802902,0.025950537788868678,-0.007081792805468534,-0.2038762046085148
3903,1.0,300.86219,7839.5768,0.0,-0.03903007515497969,0.0,0.0,0.0,0.0,-0.5126323970603786,-1.1836370209158789,-0.6867662053885474,0.011978808855216388,-0.020796416213696482,-0.2052268669918148
3904,1.0,300.8682,7797.5106,0.0,-0.03904007114239916,0.0,0.0,0.0,0.0,-0.5020862671045566,-1.1847648696021889,-0.6833973818535704,0.0028410234830621873,-0.015021706310026986,-0.2016716763659448
3905,1.0,300.59436,8167.8139,0.0,-0.03905006712981829,0.0,0.0,0.0,0.0,-0.5518555516114024,-1.2053501599587988,-0.7256057333192103,-0.013033472513303588,-0.014521950082454884,-0.19405104262884681
3906,1.0,299.92932,8148.0159,0.0,-0.03906006311723764,0.0,0.0,0.0,0.0,-0.5378491725640805,-1.2119140954316088,-0.7270301501772893,-0.007816149463143893,0.009415958596307762,-0.2046711195769668
3907,1.0,300.42351,7929.1285,0.0,-0.039070059104656885,0.0,0.0,0.0,0.0,-0.5193992156007116,-1.189842367178299,-0.7010154706173403,-0.018823537208988484,0.02162103156907968,-0.18799986236914182
3908,1.0,299.91587999999996,7740.113,0.0,-0.03908005509207624,0.0,0.0,0.0,0.0,-0.4850508984732966,-1.165025035129019,-0.7027251579085734,-0.018058711715506083,0.006014119218747354,-0.19277950494585583
3909,1.0,299.6653,7840.4749,0.0,-0.0390900510794957,0.0,0.0,0.0,0.0,-0.5102976459149565,-1.190740208091909,-0.6822707186698773,-0.019512745874008083,0.011090596857306689,-0.20678277331537082
3910,1.0,299.0862,8117.3836,0.0,-0.039100047066914834,0.0,0.0,0.0,0.0,-0.5401217304183645,-1.1954459442063288,-0.7319142487068123,-0.0016787017991999682,0.016099787191175285,-0.2284927814154818
3911,1.0,299.49885,8145.7735,0.0,-0.03911007604439165,0.0,0.0,0.0,0.0,-0.5524403793041204,-1.1950975888219488,-0.7285737961746354,0.013969783493460288,0.008159287926734022,-0.2197796918180668
3912,1.0,299.90437000000003,7868.1686,0.0,-0.039120072031811004,0.0,0.0,0.0,0.0,-0.5015401354331576,-1.2068266680045188,-0.6833600131898824,-0.0042623347295846865,-0.01125775880580429,-0.2209158390226958
3913,1.0,300.06436,7727.5234,0.0,-0.039130068019230246,0.0,0.0,0.0,0.0,-0.5002416452975065,-1.1687823691498387,-0.6799501834233583,0.002911366142104467,-0.03308532519576737,-0.19752802047949783
3914,1.0,299.99669,8051.3236,0.0,-0.0391400640066496,0.0,0.0,0.0,0.0,-0.5188729740287755,-1.218426963099379,-0.7101014159865533,0.0027273936651727973,-0.018507813544078985,-0.2047982824645168
3915,1.0,300.65729,8130.2322,0.0,-0.039150059994069064,0.0,0.0,0.0,0.0,-0.5553601101297755,-1.198683278275829,-0.7173442290263633,0.0009926179670912661,-0.01071245293323679,-0.18415992820016983
3916,1.0,300.78587000000005,7902.1679,0.0,-0.039160055981488195,0.0,0.0,0.0,0.0,-0.5190296326267365,-1.182529741206599,-0.7005023506341993,-0.004871115857316705,-8.890295488853852e-05,-0.2007842719283648
3917,1.0,300.54345,7936.7457,0.0,-0.03917005196890755,0.0,0.0,0.0,0.0,-0.5190887557700715,-1.1956785864292887,-0.6978051700605084,-0.0025782949262078973,0.015928771852547385,-0.2148791786369238
3918,1.0,299.82347999999996,8093.2412,0.0,-0.03918004795632679,0.0,0.0,0.0,0.0,-0.5403194864403815,-1.187115508509179,-0.7327082416176732,0.013856104938241087,0.037427383557795166,-0.2052283767344638
3919,1.0,299.82321,8122.1001,0.0,-0.03919007693380361,0.0,0.0,0.0,0.0,-0.5403462463755225,-1.209508031744149,-0.7190613637058313,0.007812270944411112,0.02229867702395808,-0.2086885346334548
3920,1.0,300.20071,8080.6092,0.0,-0.03920007292122296,0.0,0.0,0.0,0.0,-0.5325238137485085,-1.1917703794685788,-0.7320092307711863,-0.012683391564003289,-0.0019396351808520882,-0.1898973251689068
3921,1.0,299.76822000000004,7889.6271,0.0,-0.039210068908642204,0.0,0.0,0.0,0.0,-0.5168896281505345,-1.177408977851219,-0.7039510486745594,-0.004503357544121786,-0.02010391853885228,-0.2063645644690968
3922,1.0,300.23261,7791.7235,0.0,-0.03922006489606156,0.0,0.0,0.0,0.0,-0.5087409492563225,-1.1803848933949188,-0.6793635622779634,-0.013365726340344487,-0.006533192046225854,-0.2202135351133838
3923,1.0,300.63695,8067.9357,0.0,-0.03923006088348091,0.0,0.0,0.0,0.0,-0.5341701121134855,-1.2017518048786688,-0.7165290389234102,0.006037356792565724,-0.024004394401299273,-0.2204239871591538
3924,1.0,300.47253,8317.2888,0.0,-0.03924005687090015,0.0,0.0,0.0,0.0,-0.5735499151299694,-1.2219314912202488,-0.7327666858834413,0.011946248063252887,-0.016002665142590085,-0.1888545185634898
3925,1.0,300.28852,8038.0518,0.0,-0.039250052858319506,0.0,0.0,0.0,0.0,-0.5306427959978665,-1.2052604873249488,-0.7074637537237364,0.014948869839838586,-0.0032920013441952362,-0.2039541944687118
3926,1.0,300.56865,7755.2072,0.0,-0.03926004884573875,0.0,0.0,0.0,0.0,-0.49349251810391953,-1.1688353621300689,-0.6950615117047304,0.018016128866803482,0.014105964306900289,-0.18681457253466283
3927,1.0,299.87242000000003,7983.939,0.0,-0.0392700448331581,0.0,0.0,0.0,0.0,-0.5183417675313495,-1.2052101287949788,-0.7033661703193362,0.0020991305751180576,0.003896697351499087,-0.20270276980020582
3928,1.0,299.56928999999997,8243.3039,0.0,-0.03928007381063492,0.0,0.0,0.0,0.0,-0.5552697383533565,-1.207159925962409,-0.7433288353233443,-0.0012590984168133388,0.005116124797747205,-0.19267739973327883
3929,1.0,299.62214,8134.0981,0.0,-0.03929006979805416,0.0,0.0,0.0,0.0,-0.5368975179376595,-1.2135741030704388,-0.7220910524323383,-0.007777642716943572,-0.011817461949042688,-0.2214246628254128
3930,1.0,300.06376,7858.9733,0.0,-0.039300065785473515,0.0,0.0,0.0,0.0,-0.5186975703039645,-1.192077394248879,-0.6781566800838533,0.006727043812957534,0.01241356306237329,-0.2183214425391488
3931,1.0,300.36359,7764.6846,0.0,-0.03931006177289287,0.0,0.0,0.0,0.0,-0.4977982332113605,-1.166376812087429,-0.6960951889267463,-0.00889074871562358,-0.02001142602997398,-0.2034677533607038
3932,1.0,300.61519,8022.9573,0.0,-0.03932005776031211,0.0,0.0,0.0,0.0,-0.5263078384925395,-1.2077463951202887,-0.7047244928733923,0.001928187683872308,-0.005319834272051765,-0.20343518750248982
3933,1.0,300.10077,8353.0245,0.0,-0.039330053747731464,0.0,0.0,0.0,0.0,-0.5646999050465414,-1.2205974461385887,-0.7538134812630983,0.003093244129754427,-0.004868482116331775,-0.20105488063257182
3934,1.0,300.846,8313.723,0.0,-0.039340049735150706,0.0,0.0,0.0,0.0,-0.5590843311373275,-1.2197901897839187,-0.7482897179454453,0.012519826653360688,0.02346562601837698,-0.1996939844232618
3935,1.0,300.66825,7955.5434,0.0,-0.03935004572257006,0.0,0.0,0.0,0.0,-0.5110372576929505,-1.2138159658693088,-0.6934333201190404,-0.004247114699832586,0.008286786808017182,-0.2111410457054988
3936,1.0,300.08218999999997,7978.7169,0.0,-0.039360074700046876,0.0,0.0,0.0,0.0,-0.5419629781025815,-1.1875759293546189,-0.6957917813168023,-0.005410808628305235,-0.003582379976403377,-0.1910842868660508
3937,1.0,299.77557,8303.2584,0.0,-0.03937007068746623,0.0,0.0,0.0,0.0,-0.5663327474501905,-1.227929222537179,-0.7297212917803843,-9.52818901448404e-05,-0.015493036819293685,-0.1998967459007728
3938,1.0,299.95276,8145.1429,0.0,-0.03938006667488558,0.0,0.0,0.0,0.0,-0.5467541109354296,-1.211822396297559,-0.7173435197512933,-0.013741423265422886,0.005399001123564925,-0.1898758442667868
3939,1.0,299.9372,7737.6271,0.0,-0.039390062662304826,0.0,0.0,0.0,0.0,-0.49596242668018053,-1.1713217765504589,-0.6847612570181744,-0.005421591635869434,-0.005168482976789555,-0.21522248803580576
3940,1.0,299.80525,7864.1826,0.0,-0.03940005864972407,0.0,0.0,0.0,0.0,-0.5034499193541385,-1.1904219462354988,-0.6966432660383374,-0.017041759199640683,0.004986687974322785,-0.2079913780346508
3941,1.0,299.38755,8134.3321,0.0,-0.03941005463714342,0.0,0.0,0.0,0.0,-0.5383905318275085,-1.205994587022399,-0.7282487354100543,0.006321583375466704,0.00965224061627698,-0.2201924797763058
3942,1.0,299.58656,8238.2725,0.0,-0.03942005062456255,0.0,0.0,0.0,0.0,-0.5626306862223255,-1.2175598236637988,-0.7240386305820493,0.0074087640531130825,0.012358436177432687,-0.2049063557201828
3943,1.0,300.07602,8192.9835,0.0,-0.03943004661198202,0.0,0.0,0.0,0.0,-0.5414572345801685,-1.220230953577419,-0.7287741967794132,-0.008696320916210053,-0.009807868333586241,-0.20801155184414183
3944,1.0,299.97431,8016.1114,0.0,-0.039440075589458834,0.0,0.0,0.0,0.0,-0.5289721188354835,-1.1956733175287688,-0.7120523074640913,-0.013362702802046088,-0.024773619426715875,-0.18731399337645183
3945,1.0,299.60683,7973.6283,0.0,-0.03945007157687819,0.0,0.0,0.0,0.0,-0.5136513517584415,-1.2164135338256687,-0.6937190059847353,-0.0035309967466072467,-0.029705316392936474,-0.20771907720277683
3946,1.0,300.05052,8298.4345,0.0,-0.03946006756429754,0.0,0.0,0.0,0.0,-0.5568813632999116,-1.2298583494025688,-0.7357771836530543,0.005408401551367676,0.01081675588528069,-0.1958852076948648
3947,1.0,300.11409,8163.4546,0.0,-0.03947006355171678,0.0,0.0,0.0,0.0,-0.5527122241734495,-1.2045668163064889,-0.7242073063261963,0.006267418672821063,0.004180626646820725,-0.1981476938431548
3948,1.0,300.57403,7741.5908,0.0,-0.039480059539135914,0.0,0.0,0.0,0.0,-0.4987768504229425,-1.197093691518949,-0.6573796929408244,-0.010969260157831688,-0.0011709934835180589,-0.2123358803559198
3949,1.0,300.5018,7879.5935,0.0,-0.03949005552655538,0.0,0.0,0.0,0.0,-0.4997168121432095,-1.196111750847039,-0.6993711379575573,0.014639386782294986,0.0027356131499839975,-0.1999214894682148
3950,1.0,300.19385,8260.0458,0.0,-0.03950005151397451,0.0,0.0,0.0,0.0,-0.5681937940413615,-1.2233631122865387,-0.7192907837934733,0.0004756513623306345,0.03209270182805307,-0.2050827321650898
3951,1.0,299.5494,8315.724,0.0,-0.039510047501394086,0.0,0.0,0.0,0.0,-0.5592945805330775,-1.2191275242185187,-0.7493503070901173,-0.0013393083079794388,0.01135757711290559,-0.21014435211213278
3952,1.0,299.96204,8129.3648,0.0,-0.03952007647887068,0.0,0.0,0.0,0.0,-0.5430299507228835,-1.2025803394854389,-0.7255135984876173,-0.03281171321826397,-0.0035514292388487767,-0.21472973437967482
3953,1.0,299.00948999999997,7950.31,0.0,-0.039530072466290145,0.0,0.0,0.0,0.0,-0.5174345337893125,-1.191111665578569,-0.7081495720539214,-0.014454721951569988,-0.008080391410347543,-0.20216426790205982
3954,1.0,299.69065,8016.1976,0.0,-0.0395400684537095,0.0,0.0,0.0,0.0,-0.5257022189077695,-1.191309654648109,-0.7197120323900473,0.00045554797372158453,-0.010720978419578189,-0.20034116752713382
3955,1.0,300.10389,8189.2059,0.0,-0.03955006444112863,0.0,0.0,0.0,0.0,-0.5370190775521565,-1.213774422615209,-0.7385206190938103,0.01084637419895379,-0.02972962223633527,-0.18891801894725682
3956,1.0,299.73227,8210.7534,0.0,-0.03956006042854787,0.0,0.0,0.0,0.0,-0.5614393878147534,-1.2057835270265689,-0.7286410658487743,0.014056413337259986,-0.020940325085649178,-0.1895644421135538
3957,1.0,299.72471,8002.3735,0.0,-0.039570056415967225,0.0,0.0,0.0,0.0,-0.5181774082326285,-1.1931687659315888,-0.7211755404369844,0.019694172357413484,-0.002894902854479667,-0.19360939730775983
3958,1.0,300.17212,7893.1243,0.0,-0.03958005240338669,0.0,0.0,0.0,0.0,-0.5111063512172695,-1.210012630293949,-0.6781937650375134,0.016183696458456485,0.04012250520728296,-0.23311492439665177
3959,1.0,299.72409,8207.2638,0.0,-0.03959004839080604,0.0,0.0,0.0,0.0,-0.5488478402795645,-1.2196083113909688,-0.7263470574898733,-0.0024374385715064577,0.017583957434151483,-0.2177424207695038
3960,1.0,300.49199,8367.6478,0.0,-0.03960007736828286,0.0,0.0,0.0,0.0,-0.5665220732313755,-1.2398307568867688,-0.7372032014462914,-0.007713059168819674,0.006787628772211804,-0.2286920370476468
3961,1.0,300.26802000000004,8028.0214,0.0,-0.03961007335570199,0.0,0.0,0.0,0.0,-0.5140103867988756,-1.2164507201043389,-0.7098569693999284,-0.015872829301276287,0.004181432079325216,-0.2071781131068878
3962,1.0,300.1968,7858.2573,0.0,-0.039620069343121456,0.0,0.0,0.0,0.0,-0.5147303516574305,-1.185979249847039,-0.6880043970107473,0.005503161106019714,0.007609804120029193,-0.20778774516205378
3963,1.0,300.43377999999996,8117.6802,0.0,-0.03963006533054059,0.0,0.0,0.0,0.0,-0.5252952267401025,-1.214240011036159,-0.7280368040191383,-0.0025939890556817874,-0.013547197406754289,-0.19581693490312682
3964,1.0,299.9617,8177.6069,0.0,-0.03964006131795983,0.0,0.0,0.0,0.0,-0.5487541754403206,-1.218458779152519,-0.7185753785603683,0.01033197448093649,-0.015915705992507884,-0.21235288269259778
3965,1.0,299.90119,8124.6061,0.0,-0.03965005730537918,0.0,0.0,0.0,0.0,-0.5375656753186014,-1.2033980323161388,-0.7287137260134453,0.01982892550146258,-0.008809646759069442,-0.2056770945412488
3966,1.0,300.09058,8116.505,0.0,-0.039660053292798536,0.0,0.0,0.0,0.0,-0.5346512640559715,-1.2143451863965387,-0.7182183497551323,0.023996600481530076,0.005905715440898735,-0.20329423428107882
3967,1.0,299.52787,8006.1991,0.0,-0.039670049280218,0.0,0.0,0.0,0.0,-0.5193583816216815,-1.2007068400505387,-0.7136193392737453,-0.002219804913002688,-0.008041883954872152,-0.19945440143711682
3968,1.0,299.64178,8134.758000000001,0.0,-0.03968004526763713,0.0,0.0,0.0,0.0,-0.5358363309754285,-1.2230199244776687,-0.7139069908446343,-0.0016014830223290686,-0.006226372924520164,-0.19771170245762582
3969,1.0,300.18239,8328.0144,0.0,-0.03969007424511395,0.0,0.0,0.0,0.0,-0.5501917138871945,-1.2368084344884887,-0.7445083192347502,-0.013814528246887788,0.02004601129563728,-0.21579050590936477
3970,1.0,299.9993,8032.8181,0.0,-0.0397000702325333,0.0,0.0,0.0,0.0,-0.5369388788067415,-1.1959086955269989,-0.7089285384657993,-0.0013247874207963388,0.03517343302834757,-0.2148850757525058
3971,1.0,300.73229,7844.0176,0.0,-0.039710066219952544,0.0,0.0,0.0,0.0,-0.4967113198290905,-1.1999389991247589,-0.6877351663266763,-0.006766759366527154,0.005435948376536335,-0.23086024027413177
3972,1.0,300.69777999999997,8148.7725,0.0,-0.03972006220737179,0.0,0.0,0.0,0.0,-0.5394402386661065,-1.209056020874539,-0.7285271056100273,-0.005927274059301405,-0.004301611849836036,-0.2061370290266408
3973,1.0,300.09578999999997,8344.6616,0.0,-0.03973005819479136,0.0,0.0,0.0,0.0,-0.5614575148590425,-1.2216233618648387,-0.7534878530784612,-0.010161871067398591,-0.006850725274488944,-0.18545539885052284
3974,1.0,300.4304,8166.0809,0.0,-0.039740054182210494,0.0,0.0,0.0,0.0,-0.5420853888471625,-1.2155843912688387,-0.7246148760464203,0.011173590146497488,-0.0003066411848556287,-0.19620611413403583
3975,1.0,299.84033999999997,8079.1192,0.0,-0.03975005016962996,0.0,0.0,0.0,0.0,-0.5330673312346496,-1.202490565526579,-0.7202925740348424,-0.006610376271268343,-0.017364645529507082,-0.19440752427902883
3976,1.0,299.59271,8205.4891,0.0,-0.03976004615704909,0.0,0.0,0.0,0.0,-0.5534394033727165,-1.229530157695179,-0.7112942140042733,-0.009114031648734892,-0.018715547039830683,-0.2130945716332968
3977,1.0,299.70927,8253.0514,0.0,-0.039770075134525906,0.0,0.0,0.0,0.0,-0.5385613151318634,-1.224799698278319,-0.7453605132313552,0.0003547502185436206,-0.002160845105583808,-0.2161758145248918
3978,1.0,299.79832999999996,8267.5165,0.0,-0.03978007112194526,0.0,0.0,0.0,0.0,-0.5492349018177645,-1.2272715218972687,-0.7366120916029533,0.016494209991351785,0.010648398301665092,-0.2037754470185708
3979,1.0,299.73016,8116.3599,0.0,-0.0397900671093645,0.0,0.0,0.0,0.0,-0.5343652134202405,-1.2168631128950387,-0.7159424380430174,0.012717358747105589,0.004590495836821665,-0.2155501933831478
3980,1.0,300.09136,7953.2318,0.0,-0.039800063096783855,0.0,0.0,0.0,0.0,-0.5030893847035566,-1.207600588430899,-0.7068939423975004,0.0008350334915863892,0.005528768773146995,-0.21093674408783583
3981,1.0,300.53497000000004,8048.9566,0.0,-0.03981005908420321,0.0,0.0,0.0,0.0,-0.5260669990762704,-1.2014902850278588,-0.7191245195845644,-0.002959063877311867,0.027694943081528072,-0.2259202913990968
3982,1.0,300.50002,8435.1819,0.0,-0.03982005507162245,0.0,0.0,0.0,0.0,-0.5689631751072934,-1.234563477566929,-0.7605580589637363,-0.010256055703943891,0.01925378751945088,-0.19926230948315882
3983,1.0,300.58975,8306.1902,0.0,-0.039830051059041804,0.0,0.0,0.0,0.0,-0.5535517829413075,-1.219458350376169,-0.7518642920457282,-0.008888299487481861,-0.0061603249260267345,-0.2150188956932128
3984,1.0,300.08344,8021.2111,0.0,-0.03984004704646105,0.0,0.0,0.0,0.0,-0.5272990605353656,-1.212458717360359,-0.6984900663331024,-0.012905035970377886,-0.017852003628855584,-0.19684835257741984
3985,1.0,299.6788,8218.4442,0.0,-0.039850076023937864,0.0,0.0,0.0,0.0,-0.5518174027451375,-1.2092813676967789,-0.7371030011439023,-0.005127778085822295,-0.0005443586762415185,-0.19023693620492382
3986,1.0,300.02348,8350.6299,0.0,-0.03986007201135722,0.0,0.0,0.0,0.0,-0.5736847179232735,-1.2208701117404988,-0.7438281649726243,0.0025021037875884175,-0.003224951038702887,-0.18903910233420682
3987,1.0,300.07425,8191.6355,0.0,-0.03987006799877646,0.0,0.0,0.0,0.0,-0.5261082890178455,-1.236700624677849,-0.7272437635633713,-0.001989772518325258,-0.0035195697172794864,-0.21888558979732578
3988,1.0,299.77535,8159.4952,0.0,-0.03988006398619581,0.0,0.0,0.0,0.0,-0.5351276739879894,-1.2218244920096888,-0.7233306423396764,0.012295359332207488,-0.015121538802629685,-0.2146778863720578
3989,1.0,299.89637999999997,8107.3525,0.0,-0.039890059973615166,0.0,0.0,0.0,0.0,-0.5116612069720294,-1.220696845973399,-0.7320747171251494,0.02060201100976018,0.009838389959723491,-0.2236656883365848
3990,1.0,300.23382999999995,8010.3313,0.0,-0.03990005596103441,0.0,0.0,0.0,0.0,-0.5306092574195566,-1.191901798006549,-0.7124297025963373,0.014989650116613285,0.007445260105814962,-0.2098925797272848
3991,1.0,300.5545,8231.0441,0.0,-0.03991005194845376,0.0,0.0,0.0,0.0,-0.5430649787788405,-1.222982231573949,-0.7359846871410333,-0.002399234381785998,0.0028334622055159473,-0.21196734102954778
3992,1.0,300.60316,8248.4911,0.0,-0.039920047935873115,0.0,0.0,0.0,0.0,-0.5495879282851054,-1.2327287856108589,-0.7250186460787693,-0.00900487360751183,-0.0037914900737409363,-0.2134872871070548
3993,1.0,300.24314,7993.4052,0.0,-0.03993007691334982,0.0,0.0,0.0,0.0,-0.5063409144069576,-1.2050732387064687,-0.7183814526237293,-0.015984930226089787,0.01992850974779078,-0.20922292273619478
3994,1.0,300.22422,8161.4296,0.0,-0.039940072900769175,0.0,0.0,0.0,0.0,-0.5290150198447175,-1.2305673204975387,-0.7212884772931304,-0.01268505633391759,-0.0005002749406957925,-0.2075266103462818
3995,1.0,300.27049,8512.8806,0.0,-0.039950068888188306,0.0,0.0,0.0,0.0,-0.5734168247293344,-1.253301916966269,-0.7609844143408143,-0.010267824603855391,-0.007131601039309222,-0.1992652783059518
3996,1.0,300.62708,8334.1952,0.0,-0.03996006487560777,0.0,0.0,0.0,0.0,-0.5615613831267935,-1.2367795568606386,-0.7350462452959163,0.008745860942749272,-0.006005209203993004,-0.19769606800858283
3997,1.0,300.33193,8074.5028,0.0,-0.039970060863027124,0.0,0.0,0.0,0.0,-0.5173713880430806,-1.225908295212729,-0.7111675172117693,0.019492044161214982,0.013596834502653088,-0.2040797057585988
3998,1.0,299.4426,8126.8949,0.0,-0.039980056850446366,0.0,0.0,0.0,0.0,-0.5410983616597504,-1.2030013449019887,-0.7262734448701084,0.01779241743022488,0.015344234962608085,-0.1996191964333808
3999,1.0,299.53324,8166.6359999999995,0.0,-0.03999005283786572,0.0,0.0,0.0,0.0,-0.5361422007831155,-1.2199612264007988,-0.7263499655176603,0.002447263956401148,-0.0068583452192159736,-0.21786022122612977
4000,1.0,299.74674,8138.7175,0.0,-0.04000004882528496,0.0,0.0,0.0,0.0,-0.5346583872041745,-1.2234430577194289,-0.7158654715654214,0.004597408026353845,-0.015299054140649086,-0.2291650525918298
4001,1.0,299.68309,8157.4793,0.0,-0.04001007780276167,0.0,0.0,0.0,0.0,-0.5312635738041325,-1.209922248385029,-0.7384842231502182,0.003209006231154257,0.0015338334807275783,-0.21464875543168277
4002,1.0,299.89049,8074.7275,0.0,-0.04002007379018113,0.0,0.0,0.0,0.0,-0.5418493927663715,-1.2052528879491988,-0.7074132432062513,-0.0035991112686796266,-0.007078090389603134,-0.2005343132611958
4003,1.0,299.70609,8102.3229,0.0,-0.040030069777600485,0.0,0.0,0.0,0.0,-0.5178613248639335,-1.2181152873686187,-0.7269272951596383,-0.02438454354731708,-0.006810552542474203,-0.21315974387972883
4004,1.0,300.02826,8458.3423,0.0,-0.04004006576501962,0.0,0.0,0.0,0.0,-0.5759713599539474,-1.2414569219722589,-0.7536965218040553,-0.012288469231527488,0.0015790824944183085,-0.19399148378796882
4005,1.0,300.33411,8429.7876,0.0,-0.04005006175243908,0.0,0.0,0.0,0.0,-0.5540598974689545,-1.2503317769481386,-0.7580532743190332,-0.0015914380661377083,0.023748043139249376,-0.2040132669495418
4006,1.0,300.32332,8054.4438,0.0,-0.04006005773985821,0.0,0.0,0.0,0.0,-0.5296468116795705,-1.204850931634529,-0.7138520625567133,0.0001992320741001748,0.006366808172480045,-0.2029185008789968
4007,1.0,299.86331,8111.0749,0.0,-0.04007005372727768,0.0,0.0,0.0,0.0,-0.5279632561084165,-1.226984265493919,-0.7106167549874133,-0.006806539261478124,-0.016484071410851182,-0.21412053802205178
4008,1.0,299.68352000000004,8297.0485,0.0,-0.04008004971469681,0.0,0.0,0.0,0.0,-0.5579472213451034,-1.2367035631031387,-0.7274447619857083,0.010656492143463888,-0.02986789034498127,-0.2044499574776398
4009,1.0,299.4242,8120.4537,0.0,-0.04009004570211627,0.0,0.0,0.0,0.0,-0.5195204813726795,-1.225236003771379,-0.7236586516620482,0.01244352284133009,0.0015928294611750285,-0.2175545236709598
4010,1.0,300.06392999999997,8061.198,0.0,-0.04010007467959298,0.0,0.0,0.0,0.0,-0.5121627151090246,-1.2266399631099387,-0.7116001851369703,0.006774893434354924,-0.0020608190822120082,-0.2123948717767418
4011,1.0,299.64124,8151.3089,0.0,-0.04011007066701244,0.0,0.0,0.0,0.0,-0.5268253661136155,-1.221977695424809,-0.7289913464083443,-0.012550854397922888,-0.003030682015580027,-0.22247778431684778
4012,1.0,299.599,8229.7748,0.0,-0.040120066654431574,0.0,0.0,0.0,0.0,-0.5393772550398904,-1.236818465664479,-0.7254503108863714,0.005561424506644865,0.0028197383408615074,-0.21895324450650278
4013,1.0,299.96193999999997,8381.2122,0.0,-0.04013006264185104,0.0,0.0,0.0,0.0,-0.5638637811965225,-1.250362073126129,-0.7334533654762112,0.013408428752558885,0.025336358267253875,-0.21688462349984577
4014,1.0,300.19549,8478.7279,0.0,-0.04014005862927017,0.0,0.0,0.0,0.0,-0.5867403846667675,-1.2405871480864188,-0.7499940654086513,0.007816059385210003,0.000912576022129241,-0.18909814441753384
4015,1.0,300.15943,8240.4751,0.0,-0.04015005461668952,0.0,0.0,0.0,0.0,-0.5419433514481445,-1.2348336100435886,-0.7281216637150133,-0.015660603054581185,-0.016569275611760182,-0.2029482296369308
4016,1.0,300.59547000000003,8092.5168,0.0,-0.04016005060410899,0.0,0.0,0.0,0.0,-0.5273496419803575,-1.217502575033149,-0.7150707896444923,-0.018095781470414584,-0.0013411326647844886,-0.19924526661647682
4017,1.0,299.78381,8290.5915,0.0,-0.04017004659152812,0.0,0.0,0.0,0.0,-0.5316517600499434,-1.2326128697994188,-0.7558681498158784,-0.004811325184815825,0.014211101163776486,-0.2071936158334178
4018,1.0,299.82648,8401.1389,0.0,-0.040180075569004936,0.0,0.0,0.0,0.0,-0.5538152279673075,-1.2477585269941789,-0.7521627144651803,-0.004929874737240755,0.0022828479156745476,-0.2083991909348988
4019,1.0,299.99374,8136.8437,0.0,-0.04019007155642429,0.0,0.0,0.0,0.0,-0.5267269389989014,-1.2218865029158088,-0.7247838760305993,-0.004853773575230156,-0.004170628097483946,-0.22692567867832078
4020,1.0,299.93438,8121.4862,0.0,-0.04020006754384353,0.0,0.0,0.0,0.0,-0.5340646226455745,-1.2306828310089386,-0.7039815069725653,0.0006259172235557204,-0.0026629179268595374,-0.22072292633615678
4021,1.0,300.06917999999996,8280.5974,0.0,-0.040210063531262885,0.0,0.0,0.0,0.0,-0.5492835479550654,-1.2353352701680989,-0.7324760553572583,0.016845249475246685,0.01891236580550518,-0.20225000912552182
4022,1.0,300.35744,8333.1939,0.0,-0.04022005951868213,0.0,0.0,0.0,0.0,-0.5512430925884575,-1.2430779194822386,-0.7387618030151133,0.010048467204281502,0.011880180103732488,-0.20826440840659682
4023,1.0,300.37778,8392.5942,0.0,-0.04023005550610148,0.0,0.0,0.0,0.0,-0.5426561728934945,-1.2546836861276387,-0.7537991843041874,0.003372368491776857,-0.0066350639073048225,-0.2123585366281558
4024,1.0,300.19114,8359.2152,0.0,-0.04024005149352072,0.0,0.0,0.0,0.0,-0.5603303957128044,-1.2285023167937388,-0.7521599989549123,-0.02275961462694908,0.0014879043735697287,-0.20268853363630082
4025,1.0,300.37904,8167.1675,0.0,-0.04025004748094008,0.0,0.0,0.0,0.0,-0.5394537351574386,-1.225106814383629,-0.7180544261539543,0.00044548474863092153,0.006841180154571914,-0.2058674031750308
4026,1.0,299.79677000000004,8282.2678,0.0,-0.040260076458417116,0.0,0.0,0.0,0.0,-0.5415888456356576,-1.250819859521309,-0.7251939079485663,-0.0033951094717212162,-0.003210350712711947,-0.2143385691785698
4027,1.0,299.5563,8423.3264,0.0,-0.04027007244583625,0.0,0.0,0.0,0.0,-0.5745541473040795,-1.2386132355666089,-0.7473135527991053,0.0069912524242328935,-0.005545156674964355,-0.2070059821798998
4028,1.0,299.69209,8227.610999999999,0.0,-0.04028006843325549,0.0,0.0,0.0,0.0,-0.5456771375366405,-1.2353964704741387,-0.7199147128075504,0.00938350541150488,0.0005613370292896515,-0.2220316705628198
4029,1.0,300.28814,8033.6904,0.0,-0.04029006442067484,0.0,0.0,0.0,0.0,-0.4999575097044645,-1.2203082645600487,-0.7217754959536953,0.011833046748830789,0.01380133877033609,-0.20816192829148278
4030,1.0,299.93326,8169.6974,0.0,-0.040300060408094085,0.0,0.0,0.0,0.0,-0.5467980758572685,-1.224235925922679,-0.7123500104759724,0.003020232367298727,0.00953892987084408,-0.2097416865223928
4031,1.0,300.52117000000004,8407.0548,0.0,-0.04031005639551344,0.0,0.0,0.0,0.0,-0.5519260434208594,-1.2468926034587187,-0.7567161388245683,-0.000939695630658238,-0.019282995466833482,-0.20316587575841083
4032,1.0,300.48114,8307.4931,0.0,-0.04032005238293279,0.0,0.0,0.0,0.0,-0.5538530829910435,-1.2398746306160988,-0.7315427405576473,-0.005317634810059694,-0.012819310958917488,-0.2191244533758998
4033,1.0,299.87796000000003,8225.8623,0.0,-0.040330048370352034,0.0,0.0,0.0,0.0,-0.5465027033206176,-1.2261833926148789,-0.7277707042778763,0.008026844283637851,6.259414402331104e-05,-0.1991554115976088
4034,1.0,300.11492999999996,8336.9163,0.0,-0.04034007734782896,0.0,0.0,0.0,0.0,-0.5605729981842474,-1.2349397986540687,-0.7387015956941713,-0.001027756700356689,0.0032289263228202168,-0.2004953436623498
4035,1.0,300.12109,8320.1153,0.0,-0.040350073335248204,0.0,0.0,0.0,0.0,-0.5363705468256514,-1.2527624626130287,-0.7399742479522723,-0.00970781221668647,-0.011666542399648091,-0.2049796643649178
4036,1.0,299.80706000000004,8301.2203,0.0,-0.04036006932266745,0.0,0.0,0.0,0.0,-0.5606578984101265,-1.2395498839590489,-0.7231558465649253,-0.004531886005987326,0.0035904271073725663,-0.2118201563200218
4037,1.0,300.35872,8381.7656,0.0,-0.0403700653100868,0.0,0.0,0.0,0.0,-0.5562225784823944,-1.2479384802119389,-0.7436864416811373,0.008125692707743432,0.008945901843741772,-0.20605831975887282
4038,1.0,299.84776,8094.172,0.0,-0.04038006129750604,0.0,0.0,0.0,0.0,-0.5230027483888525,-1.235452604529679,-0.7019708438716283,0.002288739255730978,0.0045107603493523855,-0.2318257966919248
4039,1.0,299.62106,8146.8827,0.0,-0.04039005728492562,0.0,0.0,0.0,0.0,-0.5285682474781245,-1.2361715054756288,-0.7117091095227204,-0.01215214960282379,-0.01998303982842248,-0.2136914164722008
4040,1.0,299.40589,8456.7515,0.0,-0.04040005327234475,0.0,0.0,0.0,0.0,-0.5673608011341515,-1.2494358612097187,-0.7538445677761663,-0.012054170344653989,-0.013605149232973686,-0.2249391106647618
4041,1.0,299.43256,8313.6043,0.0,-0.04041004925976399,0.0,0.0,0.0,0.0,-0.5478182565879525,-1.239298800584269,-0.7400110390634033,0.004159251224036136,-0.0012425930793093889,-0.2044546792231058
4042,1.0,299.7059,8137.9244,0.0,-0.04042007823724092,0.0,0.0,0.0,0.0,-0.5255242212627025,-1.2391738668469388,-0.7090277559155913,0.01154388847504309,0.01039202677461319,-0.2132315123843118
4043,1.0,300.19115,8314.5782,0.0,-0.04043007422466016,0.0,0.0,0.0,0.0,-0.5357685445437385,-1.2368509909926886,-0.7548046121134152,0.0066379334315880235,-0.00895814261422484,-0.20464317413920882
4044,1.0,300.00946,8454.0404,0.0,-0.04044007021207929,0.0,0.0,0.0,0.0,-0.5576716375829055,-1.2690528897707687,-0.7430926163275313,0.013340008026306287,0.011196409551999591,-0.22210411794496981
4045,1.0,300.54311,8377.8252,0.0,-0.04045006619949876,0.0,0.0,0.0,0.0,-0.5481718707403515,-1.2479005846581988,-0.7505771604436983,-0.00015587593318625685,0.023054686228320378,-0.2052705988661308
4046,1.0,300.54415,8348.0918,0.0,-0.04046006218691811,0.0,0.0,0.0,0.0,-0.5569408106832785,-1.2538951748998188,-0.7267754596321533,-0.007404042915597143,0.016124398022854182,-0.21215542051310982
4047,1.0,300.02429,8257.4915,0.0,-0.040470058174337464,0.0,0.0,0.0,0.0,-0.5454870112878765,-1.2386123236415187,-0.7259718712428453,-0.031118630056419676,-0.008351897550168111,-0.2142154491589188
4048,1.0,300.56737000000004,8178.2736,0.0,-0.04048005416175671,0.0,0.0,0.0,0.0,-0.5427359764713705,-1.2363738515205989,-0.7068811349162364,-0.016758833427218085,-0.0020712305309645383,-0.2245929641655998
4049,1.0,300.17904,8324.3451,0.0,-0.04049005014917595,0.0,0.0,0.0,0.0,-0.5441114330846175,-1.2445799614304789,-0.7417016367227524,0.010653984349466388,-0.006663772829013173,-0.2147336455250608
4050,1.0,299.84477000000004,8366.3379,0.0,-0.04050007912665288,0.0,0.0,0.0,0.0,-0.5675136195142334,-1.2237183577715989,-0.7519258267243013,0.012894163796804888,0.003409927241183617,-0.20010876848419779
4051,1.0,299.7588,8189.7469,0.0,-0.04051007511407212,0.0,0.0,0.0,0.0,-0.5280821407426495,-1.236031980936859,-0.7253644379403963,0.005655977155626484,-0.012455190416231589,-0.20994944332289678
4052,1.0,299.68638,8277.5192,0.0,-0.04052007110149125,0.0,0.0,0.0,0.0,-0.5424087169540724,-1.2318937662034488,-0.7418567146505572,0.002716516222699278,0.013148523009158187,-0.19570082657416782
4053,1.0,299.7037,8623.85,0.0,-0.040530067088910604,0.0,0.0,0.0,0.0,-0.5911094988329654,-1.2576287988682988,-0.7726967242342293,0.005719862675756495,0.016851800137143186,-0.18863082333891282
4054,1.0,300.09553,8526.9781,0.0,-0.04054006307633007,0.0,0.0,0.0,0.0,-0.5694107986039705,-1.2572344419293788,-0.7653431832234913,0.004246719228318556,0.00963920403916537,-0.2035562708894398
4055,1.0,300.11476,8221.8627,0.0,-0.04055005906374942,0.0,0.0,0.0,0.0,-0.5197696497047705,-1.2432215983464188,-0.7362497331021912,-0.007835370817540894,-0.00983901158865984,-0.21342305718321583
4056,1.0,299.83006,8274.1931,0.0,-0.040560055051168664,0.0,0.0,0.0,0.0,-0.5268896568324605,-1.254214247356309,-0.7340442422720262,0.0016901032946252084,-0.001016682586038759,-0.2163791332899578
4057,1.0,300.61785,8364.3472,0.0,-0.040570051038587795,0.0,0.0,0.0,0.0,-0.5565544280226455,-1.2461757290129687,-0.7398225238822983,0.0031353141725814168,0.004928412212046415,-0.21037397484979478
4058,1.0,300.10363,8268.0243,0.0,-0.04058004702600726,0.0,0.0,0.0,0.0,-0.5564124007561285,-1.2390859167382589,-0.7177746576688433,0.004121822981242256,0.01000835780039801,-0.22364748023228778
4059,1.0,299.67849,8253.2614,0.0,-0.040590076003483966,0.0,0.0,0.0,0.0,-0.5507597216282525,-1.2394106633953088,-0.7186149561092743,0.007844244355291644,-0.01232396844878099,-0.22593143715019676
4060,1.0,299.94201,8269.0536,0.0,-0.04060007199090321,0.0,0.0,0.0,0.0,-0.5408185121146315,-1.2466667500114288,-0.7261004932105393,0.0055600966423888145,-0.011451883339462888,-0.23214723002114776
4061,1.0,299.55143,8204.2665,0.0,-0.04061006797832256,0.0,0.0,0.0,0.0,-0.5137863572017655,-1.2460810914536289,-0.7340246561475933,0.015996067871188985,-0.010952446285672289,-0.22681350175974976
4062,1.0,299.38485,8471.2042,0.0,-0.040620063965742026,0.0,0.0,0.0,0.0,-0.5696487198599515,-1.2527883004905789,-0.7525975507455952,0.006505410754984054,-0.00038489015336820066,-0.2072365371076538
4063,1.0,299.29115,8549.1481,0.0,-0.04063005995316138,0.0,0.0,0.0,0.0,-0.5731234381628795,-1.2492921823455387,-0.7763119093985202,0.005744222525385624,-0.008489874146760341,-0.2061519845981168
4064,1.0,299.16937,8277.9211,0.0,-0.04064005594058051,0.0,0.0,0.0,0.0,-0.5483125098542315,-1.2373933837712188,-0.7305753805546763,-0.0015396584529024585,0.008056681560657562,-0.1982509440283448
4065,1.0,299.6644,8338.0113,0.0,-0.04065005192799975,0.0,0.0,0.0,0.0,-0.5456769754166245,-1.2520098204387489,-0.7368604493349643,-0.012700613775952987,0.015012537409872087,-0.2109420940483638
4066,1.0,300.13602000000003,8524.2301,0.0,-0.040660047915419106,0.0,0.0,0.0,0.0,-0.5640250500824385,-1.2546725403765386,-0.7724554997829223,-0.012991768152437688,-0.0029812103834225574,-0.1906492682006178
4067,1.0,299.95288,8427.2949,0.0,-0.04067007689289592,0.0,0.0,0.0,0.0,-0.5408634801540694,-1.2709445263824588,-0.7498791831123133,-0.012102425367416387,-0.009867212061468011,-0.22312074216780278
4068,1.0,300.45219,8285.0455,0.0,-0.040680072880315166,0.0,0.0,0.0,0.0,-0.5457811881894095,-1.227091771329529,-0.7455739644974213,0.004645843002334006,0.0018152099937472784,-0.1984515270181408
4069,1.0,299.48796,8294.4962,0.0,-0.04069006886773474,0.0,0.0,0.0,0.0,-0.5362357338998465,-1.259325080860709,-0.7257589063368273,-0.0008293271304682152,-0.00041665258531290865,-0.22206457079356676
4070,1.0,300.09263,8324.5274,0.0,-0.04070006485515387,0.0,0.0,0.0,0.0,-0.5603371338259694,-1.239409143520159,-0.7307022394671963,-0.015810299611105087,0.00018103314984908083,-0.2053288303493778
4071,1.0,300.18066,8390.4062,0.0,-0.04071006084257334,0.0,0.0,0.0,0.0,-0.5627844469250005,-1.2479385815369488,-0.7397509681602362,-0.01882643510427448,-0.02015100731074958,-0.2263620380451938
4072,1.0,299.42138,8425.9627,0.0,-0.04072005682999247,0.0,0.0,0.0,0.0,-0.5507864714308924,-1.265914955536079,-0.7445808476769082,0.01190919249384579,-0.008400558278270553,-0.22265758554709278
4073,1.0,299.53983,8273.5642,0.0,-0.04073005281741171,0.0,0.0,0.0,0.0,-0.5362908141752825,-1.2419755033734388,-0.7366906387507053,-0.002862123504469597,0.005737938449590434,-0.2214023915882148
4074,1.0,299.772,8283.7921,0.0,-0.040740048804831064,0.0,0.0,0.0,0.0,-0.5315314163355666,-1.2557355410564488,-0.7307989744542432,0.008734243219752691,-0.006846056218028143,-0.21332598782363582
4075,1.0,299.54382999999996,8476.313,0.0,-0.04075007778230788,0.0,0.0,0.0,0.0,-0.5605636965483295,-1.255229523956509,-0.7607942880920503,-0.005178329639936344,-0.012520071859884886,-0.21394373601210281
4076,1.0,299.94854,8469.9778,0.0,-0.040760073769727234,0.0,0.0,0.0,0.0,-0.5712907625745084,-1.2466983634145488,-0.7566726197327732,0.01026620745669579,0.023297404210274774,-0.1942657401925358
4077,1.0,299.90988,8165.7972,0.0,-0.0407700697571467,0.0,0.0,0.0,0.0,-0.5208306238844804,-1.2359659170303388,-0.7254018471340884,0.00947419838820558,0.021541239136954778,-0.22252828470183178
4078,1.0,300.00635,8269.5009,0.0,-0.04078006574456583,0.0,0.0,0.0,0.0,-0.5196347151889535,-1.255847099892459,-0.7382399386836093,-0.012024205499446688,-0.00038013517329892066,-0.2118746286453978
4079,1.0,300.2299,8428.0311,0.0,-0.04079006173198518,0.0,0.0,0.0,0.0,-0.5635437360199365,-1.2515039046638188,-0.7468634063096794,-0.03051756199109887,-0.0036101872068477364,-0.22717881895080377
4080,1.0,299.90932000000004,8369.5438,0.0,-0.040800057719404426,0.0,0.0,0.0,0.0,-0.5449227323071865,-1.2580237637572789,-0.7411858316268463,0.0028778593798476073,0.011561223157753889,-0.20771591586246482
4081,1.0,300.25667000000004,8397.3375,0.0,-0.04081005370682367,0.0,0.0,0.0,0.0,-0.5554162948478205,-1.2530762661689987,-0.7440883473333022,0.0012623866160378589,0.005699083246680724,-0.21902147676823677
4082,1.0,300.43041,8495.0397,0.0,-0.04082004969424324,0.0,0.0,0.0,0.0,-0.5790620159389714,-1.254635759397909,-0.7485821824543093,-0.0015831833202230286,-0.02294923931691358,-0.18762815156995682
4083,1.0,299.79229,8442.319,0.0,-0.04083007867171984,0.0,0.0,0.0,0.0,-0.5553187492606935,-1.2733198885918886,-0.7376155537069873,-0.010787502341643591,-0.016923324448452085,-0.2323741575135438
4084,1.0,300.53267,8528.9925,0.0,-0.04084007465913919,0.0,0.0,0.0,0.0,-0.5614419209400034,-1.2646501154362488,-0.7665087248135213,0.01060311210169569,0.013277458071133086,-0.1964624461443338
4085,1.0,300.89022,8623.2732,0.0,-0.040850070646558545,0.0,0.0,0.0,0.0,-0.5703732950064615,-1.2824296149409486,-0.7684567589257773,0.007681475352602593,0.016724090094539186,-0.21282678989686882
4086,1.0,301.06638,8393.5605,0.0,-0.04086006663397779,0.0,0.0,0.0,0.0,-0.5441769802335864,-1.2416757839938588,-0.7655800000368632,0.014267922202884288,-0.0024402028191042673,-0.2023002764629828
4087,1.0,300.43003999999996,8256.187,0.0,-0.04087006262139714,0.0,0.0,0.0,0.0,-0.5359880955754065,-1.2507174199361988,-0.7229691754990023,0.0005668660716403254,-0.0022669361400791776,-0.21983743694126578
4088,1.0,299.44337,8329.3625,0.0,-0.04088005860881638,0.0,0.0,0.0,0.0,-0.5526836505206295,-1.245973180317979,-0.7332614153772673,-0.003774380332552337,-0.002010214535117728,-0.2149990258587518
4089,1.0,299.72905,8371.7631,0.0,-0.040890054596235736,0.0,0.0,0.0,0.0,-0.5527370082708954,-1.2495568432716588,-0.7425130879328363,-0.005245741777039405,-0.008424591962692492,-0.2155602245591378
4090,1.0,300.21117999999996,8345.7979,0.0,-0.04090005058365509,0.0,0.0,0.0,0.0,-0.5362219536984865,-1.2683420948256188,-0.7323500678398243,-0.00979681519354538,-0.015263286412119086,-0.23287574671054678
4091,1.0,300.12382,8373.5547,0.0,-0.04091007956113191,0.0,0.0,0.0,0.0,-0.5473180454110854,-1.2558991809475988,-0.7421343553104583,-0.005741451185037114,0.00015097135687221284,-0.22329389647739178
4092,1.0,300.1626,8424.3188,0.0,-0.04092007554855115,0.0,0.0,0.0,0.0,-0.5473068591299814,-1.2501368276288987,-0.7633388630681803,0.004194044611269976,0.001252823764244079,-0.2093393654376868
4093,1.0,300.52409,8453.564,0.0,-0.0409300715359705,0.0,0.0,0.0,0.0,-0.5652838106816684,-1.2589619320248686,-0.7454266278003803,0.007615373043903803,-0.0004966858872515805,-0.1995052969896398
4094,1.0,300.67798,8593.2534,0.0,-0.040940067523389745,0.0,0.0,0.0,0.0,-0.5764893536700694,-1.263623693084949,-0.7720214335725832,0.0049560120301953055,-0.021089650792636482,-0.2071819026622618
4095,1.0,300.79816,8571.5907,0.0,-0.0409500635108091,0.0,0.0,0.0,0.0,-0.5726118481873895,-1.2690899747244289,-0.7638477071358993,0.018546886494435182,-0.009068620211053131,-0.22563844575128078
4096,1.0,299.83132,8352.2184,0.0,-0.04096005949822834,0.0,0.0,0.0,0.0,-0.5387016604032145,-1.2566592198476088,-0.7435049381907243,0.0009834011300741351,0.014310872861373185,-0.21728418854427978
4097,1.0,299.62196,8321.7797,0.0,-0.040970055485647694,0.0,0.0,0.0,0.0,-0.5354817035729296,-1.252188760406409,-0.7419427598490492,-0.0013024737284191487,0.01707749653066768,-0.2221759979070638
4098,1.0,299.41253,8483.849,0.0,-0.04098005147306705,0.0,0.0,0.0,0.0,-0.5648577998096245,-1.265145189435109,-0.7488752954432373,-0.016212474787796687,0.005081151659945626,-0.2102570964507598
4099,1.0,299.80064,8405.4566,0.0,-0.04099004746048629,0.0,0.0,0.0,0.0,-0.5601167215317164,-1.2555524467633787,-0.7393797234560973,0.0008674972141903092,0.017784647828458084,-0.2136512816357398
4100,1.0,300.13009,8285.1867,0.0,-0.04100007643796311,0.0,0.0,0.0,0.0,-0.5379117914202605,-1.257109812167079,-0.7234682315707553,0.007761668018516992,-5.685909070205535e-05,-0.21567525884299082
4101,1.0,300.38133,8421.7844,0.0,-0.04101007242538246,0.0,0.0,0.0,0.0,-0.5456147922579875,-1.2642960858513088,-0.7501012470042293,-0.008222625481209951,-0.012290612255488989,-0.21517107572573177
4102,1.0,300.41742,8517.4676,0.0,-0.04102006841280159,0.0,0.0,0.0,0.0,-0.5644834545601795,-1.2574284793235289,-0.7671855556153192,-0.014351554852888184,-0.025123333579479976,-0.2162614645558448
4103,1.0,300.03092000000004,8534.735999999999,0.0,-0.041030064400221056,0.0,0.0,0.0,0.0,-0.5510852180903765,-1.2904910327365489,-0.7527703808151522,-0.001026883278770489,-0.007691632576905033,-0.2158003445678358
4104,1.0,299.7572,8479.2826,0.0,-0.04104006038764019,0.0,0.0,0.0,0.0,-0.5643842776403915,-1.260312391758149,-0.7527934727849313,0.016275023729719784,0.013031461211855088,-0.2117472935053308
4105,1.0,300.0626,8422.4602,0.0,-0.04105005637505965,0.0,0.0,0.0,0.0,-0.5748211083079264,-1.2544486121044387,-0.7309479222189433,-0.001220275637906829,0.009103177409688662,-0.19689755600227582
4106,1.0,300.02629,8377.1629,0.0,-0.041060052362479005,0.0,0.0,0.0,0.0,-0.5344370528523306,-1.2748346974913887,-0.7371766036311662,0.014617107439096184,0.0021710085107118577,-0.23400093054909377
4107,1.0,299.6171,8446.3618,0.0,-0.04107004834989825,0.0,0.0,0.0,0.0,-0.5583122142961255,-1.264745360945649,-0.7444254860390752,-0.0019387800990926982,0.017534588849529183,-0.2162451208317318
4108,1.0,299.79852,8426.1729,0.0,-0.04108007732737495,0.0,0.0,0.0,0.0,-0.5341276164042914,-1.2754336296254987,-0.7517848633703893,0.018551971996687084,0.01948414891643578,-0.22640897178982577
4109,1.0,300.45061,8247.0532,0.0,-0.04109007331479442,0.0,0.0,0.0,0.0,-0.5324395721351945,-1.2524023535274889,-0.7220562675564053,-0.009050721148036633,0.002821675168427657,-0.2125765576521728
4110,1.0,300.07184,8350.2768,0.0,-0.04110006930221355,0.0,0.0,0.0,0.0,-0.5480982682530875,-1.2505225719419688,-0.7396547701957423,-0.007029249910932953,-0.007072322970033932,-0.2208990190710358
4111,1.0,299.78519,8596.0285,0.0,-0.04111006528963301,0.0,0.0,0.0,0.0,-0.5931514612294915,-1.2766563185211688,-0.7431702008876883,-0.015070997887641685,0.005032958141464296,-0.20106066629064281
4112,1.0,299.02098,8562.3343,0.0,-0.04112006127705237,0.0,0.0,0.0,0.0,-0.5482826291087826,-1.2830526624274388,-0.7714005747063092,-0.012943767455450386,-0.006639339417426784,-0.2053941241858218
4113,1.0,299.60852,8532.4878,0.0,-0.0411300572644715,0.0,0.0,0.0,0.0,-0.5606315437750254,-1.2706325466766688,-0.7623990938654323,-0.007610378024885832,-0.0075122996708562526,-0.2081031800506848
4114,1.0,299.6555,8690.089,0.0,-0.04114005325189096,0.0,0.0,0.0,0.0,-0.5792542497479434,-1.2758856404951089,-0.7864301843671162,-0.010907961566531989,-0.015235671293893686,-0.2022794136434238
4115,1.0,300.07341,8634.8198,0.0,-0.041150049239310094,0.0,0.0,0.0,0.0,-0.5781631009802555,-1.2720395457655287,-0.7745669508713062,0.02125590081604408,0.010992784785403388,-0.2171395369600038
4116,1.0,299.99781,8429.7277,0.0,-0.04116007821678691,0.0,0.0,0.0,0.0,-0.5609884003277446,-1.2608021968564886,-0.7406361637125983,0.007362504525097622,0.015696643347388087,-0.21207851483051982
4117,1.0,300.22614,8331.3808,0.0,-0.041170074204206264,0.0,0.0,0.0,0.0,-0.5598532663732155,-1.2348624876714387,-0.7378159745767673,0.017748797013419883,-0.002121070378208348,-0.2105958766216948
4118,1.0,300.21682999999996,8318.9277,0.0,-0.041180070191625506,0.0,0.0,0.0,0.0,-0.5358226115690745,-1.254422875551899,-0.7385008505843592,0.0024943512084232974,-0.016853070752768585,-0.2189961961782418
4119,1.0,300.45187999999996,8295.3716,0.0,-0.04119006617904486,0.0,0.0,0.0,0.0,-0.5302549238595865,-1.2641561560124988,-0.7271747105690564,-0.002057321342866808,0.014111526036699185,-0.22768018523278477
4120,1.0,299.39839,8422.5387,0.0,-0.041200062166464324,0.0,0.0,0.0,0.0,-0.5475555816320286,-1.2576272789931489,-0.7550586339134853,-0.0056703389625438845,-0.0005469253502023296,-0.22105352957878477
4121,1.0,299.92777,8697.6187,0.0,-0.041210058153883455,0.0,0.0,0.0,0.0,-0.5812292261803584,-1.306053135722409,-0.7565765332257903,-0.026219505027913675,-0.012914198791032188,-0.2164627365557088
4122,1.0,299.47767000000005,8582.4859,0.0,-0.04122005414130292,0.0,0.0,0.0,0.0,-0.5755650162663445,-1.2809501684699387,-0.7523462039257893,-0.011756784480054289,-0.013711633712482886,-0.2227108217073468
4123,1.0,299.62248,8533.9636,0.0,-0.04123005012872205,0.0,0.0,0.0,0.0,-0.5863062069989174,-1.2636330149858688,-0.7441726497416223,0.01081316695342649,0.0051510120119403055,-0.2064149229990668
4124,1.0,300.27719,8594.0719,0.0,-0.04124007910619887,0.0,0.0,0.0,0.0,-0.5559823368836845,-1.2833573467325088,-0.7730435597434592,0.01049586363161109,0.015131760469638487,-0.2186050411096378
4125,1.0,300.39887000000004,8419.3385,0.0,-0.04125007509361822,0.0,0.0,0.0,0.0,-0.5628938272732955,-1.2432714502513387,-0.7531034158580203,-0.0018374060477878579,0.0005591955454683035,-0.1955534290821208
4126,1.0,299.49183999999997,8336.8609,0.0,-0.041260071081037464,0.0,0.0,0.0,0.0,-0.5253187949374285,-1.2633504195329788,-0.7455282770504122,0.006576546890179644,-0.006853763808888823,-0.2245475198986148
4127,1.0,300.19114,8430.9425,0.0,-0.04127006706845704,0.0,0.0,0.0,0.0,-0.5724423314456595,-1.246448698589909,-0.7439049389327013,0.014063964077005187,0.012590005368536787,-0.2046655163039138
4128,1.0,299.2997,8357.2719,0.0,-0.04128006305587617,0.0,0.0,0.0,0.0,-0.5450693799941595,-1.2572487287557887,-0.7380839083007104,0.012907199259341386,0.009117558569682972,-0.2317890765083008
4129,1.0,299.8441,8338.9932,0.0,-0.04129005904329541,0.0,0.0,0.0,0.0,-0.5435295539496905,-1.2617787673028689,-0.7295374375497393,-0.0003062522994672487,-0.006984312167672944,-0.21554732588536482
4130,1.0,299.49716,8687.9198,0.0,-0.041300055030714766,0.0,0.0,0.0,0.0,-0.5666342197524434,-1.2967455216288186,-0.7775308897988242,-0.014851540074982884,-0.010784003589048291,-0.22781707532129478
4131,1.0,299.71423,8743.3346,0.0,-0.04131005101813401,0.0,0.0,0.0,0.0,-0.5885295107658405,-1.2892685464908988,-0.7799573806083002,-0.008250029032814472,0.0039981956272661864,-0.2186040987870448
4132,1.0,299.58511,8497.9141,0.0,-0.041320079995610826,0.0,0.0,0.0,0.0,-0.5500850997116725,-1.2744318292516288,-0.7586367847866212,-0.0013773748983363187,0.0048598898568087846,-0.2169262782114568
4133,1.0,300.62248,8475.6598,0.0,-0.04133007598303018,0.0,0.0,0.0,0.0,-0.5635503930730935,-1.262741760197909,-0.7500967279087832,-0.01289363386700259,-0.016093667160571284,-0.19889748878465383
4134,1.0,300.05407,8519.6847,0.0,-0.04134007197044953,0.0,0.0,0.0,0.0,-0.5727191716379815,-1.2655538332004388,-0.7514983669046144,-0.005615717081453125,-0.015909110747606987,-0.20218656953676079
4135,1.0,300.06853,8502.9129,0.0,-0.041350067957869,0.0,0.0,0.0,0.0,-0.5604930831488605,-1.2650873328543988,-0.7590927979941262,0.016078390388813587,0.011408675315448591,-0.21683339357478978
4136,1.0,300.12167,8562.7814,0.0,-0.04136006394528813,0.0,0.0,0.0,0.0,-0.5558273400158875,-1.2775335904577487,-0.7695108126073043,0.02192071447165608,0.01822725877689038,-0.21282454048164678
4137,1.0,300.0865,8532.8381,0.0,-0.04137005993270737,0.0,0.0,0.0,0.0,-0.5492535861496085,-1.280209685296859,-0.7643064358536723,-0.0012401191278652289,-0.007633747118567183,-0.21535677407155882
4138,1.0,299.71369,8406.8928,0.0,-0.041380055920126724,0.0,0.0,0.0,0.0,-0.5277615078810055,-1.2733330608431888,-0.7543909527600903,0.0006741616983845794,-0.0025972756337061475,-0.22667750333132777
4139,1.0,299.03971,8567.3463,0.0,-0.041390051907545966,0.0,0.0,0.0,0.0,-0.5782381321501604,-1.281095265884259,-0.7449259201309643,0.00831325705495459,0.011189089833277188,-0.22490287684118576
4140,1.0,299.41526,8635.5625,0.0,-0.04140004789496532,0.0,0.0,0.0,0.0,-0.5802179620505545,-1.2855299575969288,-0.7592474199593863,0.020742537652879083,0.008313554849158982,-0.2196363878564238
4141,1.0,299.92922999999996,8413.3734,0.0,-0.041410076872442136,0.0,0.0,0.0,0.0,-0.5458709216182656,-1.2701781040068187,-0.7414064567036204,0.0007153813609326433,-0.01099581338995229,-0.2105207339942788
4142,1.0,299.96495,8419.7384,0.0,-0.04142007285986149,0.0,0.0,0.0,0.0,-0.5311512651630486,-1.2815767623317789,-0.7466621647073183,-0.02951714571686547,-0.011747369360125088,-0.23784424897339979
4143,1.0,299.69572999999997,8666.663,0.0,-0.04143006884728084,0.0,0.0,0.0,0.0,-0.5967799098375914,-1.2694017517801988,-0.7682674736745964,-0.015424904869319587,-0.005596058306987954,-0.2093538042516118
4144,1.0,299.35997000000003,8574.7978,0.0,-0.041440064834700086,0.0,0.0,0.0,0.0,-0.5713205825249514,-1.2752496234073387,-0.7599542733616472,-0.008558704530028372,0.015835358299328185,-0.2183245126869518
4145,1.0,300.29508,8407.5757,0.0,-0.04145006082211933,0.0,0.0,0.0,0.0,-0.5658191715045044,-1.2547986900139887,-0.7350752141162753,0.005395073968827345,0.0022033638155550777,-0.19611886316792482
4146,1.0,300.41334,8511.7032,0.0,-0.04146005680953868,0.0,0.0,0.0,0.0,-0.5467425193542855,-1.2783326394866088,-0.7622700362001953,0.013061373368057188,-0.0016778999130708284,-0.21926555858482577
4147,1.0,299.81209,8585.232,0.0,-0.041470052796958035,0.0,0.0,0.0,0.0,-0.5590806125094605,-1.2883921864794088,-0.7622233253705853,0.02261679195910358,0.009795387524154481,-0.22747532632756678
4148,1.0,299.66931,8643.8337,0.0,-0.04148004878437739,0.0,0.0,0.0,0.0,-0.5653989361580305,-1.286155538208669,-0.7759551237733082,0.016499680528641685,0.013845962304740087,-0.2288421297849598
4149,1.0,300.27122,8672.6276,0.0,-0.041490077761854094,0.0,0.0,0.0,0.0,-0.5738840546154464,-1.2925533006650787,-0.7698248390782962,0.011412212571547689,-0.01187958735242399,-0.2141262122226118
4150,1.0,299.92415,8468.7177,0.0,-0.04150007374927345,0.0,0.0,0.0,0.0,-0.5495927310905796,-1.2775021797046489,-0.7471838365213033,-0.015927615734183286,-0.006769495141797154,-0.2089909391257998
4151,1.0,300.36032,8519.0064,0.0,-0.0415100697366928,0.0,0.0,0.0,0.0,-0.5768442546500955,-1.2751188128194288,-0.7376021585406654,-0.006790333238053714,0.006739015261564024,-0.2240453328840528
4152,1.0,300.38371,8762.0515,0.0,-0.04152006572411204,0.0,0.0,0.0,0.0,-0.5807748544380155,-1.2962553112304387,-0.7864147424355923,-0.017517737487116086,0.009729972097698481,-0.20523354430997381
4153,1.0,300.99366000000003,8718.9807,0.0,-0.041530061711531174,0.0,0.0,0.0,0.0,-0.5759057317449704,-1.2929281018770689,-0.7815185456998753,-0.01141993252405959,-0.01826740171935218,-0.2249110031069878
4154,1.0,300.72623,8523.2074,0.0,-0.04154005769895064,0.0,0.0,0.0,0.0,-0.5370152981292835,-1.2904681332842887,-0.7633587531676432,-0.009005739328397272,-0.007477106455132953,-0.2199637993612368
4155,1.0,300.29936000000004,8511.3585,0.0,-0.04155005368636999,0.0,0.0,0.0,0.0,-0.5640517694875754,-1.2858528804037987,-0.7373357852218764,0.014280078164333987,0.0043365332105575055,-0.23571197559546078
4156,1.0,300.85022000000004,8646.9901,0.0,-0.041560049673789345,0.0,0.0,0.0,0.0,-0.5910543476300224,-1.278798633207599,-0.7586161144845813,0.006074890413370004,0.006076942852772564,-0.2147252152842288
4157,1.0,300.61664,8542.8174,0.0,-0.04157007865126616,0.0,0.0,0.0,0.0,-0.5811002191776264,-1.2661889383631189,-0.7495140179087743,0.014033289956727885,-0.0003621520409216236,-0.2065669510440708
4158,1.0,300.13767,8505.0454,0.0,-0.041580074638685405,0.0,0.0,0.0,0.0,-0.5397834670049805,-1.291790627314809,-0.7537473464290713,0.013389160788657286,0.0017015027635502486,-0.2191098017794538
4159,1.0,300.09628,8636.7445,0.0,-0.04159007062610476,0.0,0.0,0.0,0.0,-0.5483610040040174,-1.2860558343988286,-0.7909377895569822,0.01867133083196688,0.005749490108680494,-0.2106991876018908
4160,1.0,300.41161,8594.6425,0.0,-0.041600066613524,0.0,0.0,0.0,0.0,-0.5575201060304505,-1.2831867154156686,-0.7718498801981523,-0.015000531409437187,-0.0005301820610448954,-0.22357822458795282
4161,1.0,300.18634,8613.5046,0.0,-0.04161006260094313,0.0,0.0,0.0,0.0,-0.5830697848545074,-1.2701490237289488,-0.7650715004741783,-0.016150514544181684,-0.018492083849526584,-0.19826365018459882
4162,1.0,300.11588,8713.7374,0.0,-0.041620058588362485,0.0,0.0,0.0,0.0,-0.5992903484178523,-1.2812990304793688,-0.7681692086798982,-0.009103112966982302,0.005169293374219535,-0.2040970424678098
4163,1.0,299.42666,8527.5952,0.0,-0.04163005457578195,0.0,0.0,0.0,0.0,-0.5735193656394544,-1.2754285633749989,-0.7432281081309033,0.005861990456683415,0.01794450120398438,-0.21322373062354383
4164,1.0,300.25531,8513.3884,0.0,-0.0416400505632013,0.0,0.0,0.0,0.0,-0.5353904097389195,-1.283649162761309,-0.7688179420564233,0.006850215508363633,0.009144267133043902,-0.22627514171661778
4165,1.0,300.7396,8727.7472,0.0,-0.04165007954067812,0.0,0.0,0.0,0.0,-0.5703226932964675,-1.2903118901188686,-0.7923826132720753,-0.018725004716264083,-0.014344860309477488,-0.21987090459206882
4166,1.0,300.48351,8704.8706,0.0,-0.04166007552809725,0.0,0.0,0.0,0.0,-0.5689908267025224,-1.2974953267028186,-0.7795771787732773,-0.005206146901556696,-0.01138385068799859,-0.2228096034595958
4167,1.0,300.38181000000003,8527.8395,0.0,-0.041670071515516716,0.0,0.0,0.0,0.0,-0.5647931747182465,-1.2874932309906888,-0.7399638216087433,0.009034777556388122,0.007532632357962932,-0.24461143228376878
4168,1.0,300.56853,8566.9402,0.0,-0.04168006750293585,0.0,0.0,0.0,0.0,-0.5768211728128174,-1.2865461461222187,-0.7407685651031654,0.008367542638337163,0.015139837086185586,-0.22563247770819178
4169,1.0,300.72438,8598.8807,0.0,-0.04169006349035509,0.0,0.0,0.0,0.0,-0.5704098125400654,-1.2819842915219988,-0.7614509450843573,0.0046768056962397855,-0.014626940018066586,-0.21478869540299378
4170,1.0,300.37504,8504.0878,0.0,-0.041700059477774665,0.0,0.0,0.0,0.0,-0.5281227112766534,-1.2854229583863686,-0.7714846440671063,0.012104336357104988,-0.002052800119595598,-0.22449666487609576
4171,1.0,300.16021,8617.3489,0.0,-0.04171005546519391,0.0,0.0,0.0,0.0,-0.5374815046327944,-1.3038570174556687,-0.7781203683095013,0.026761461095650578,0.01054073541228959,-0.22462147702341376
4172,1.0,299.90477999999996,8610.0327,0.0,-0.04172005145261326,0.0,0.0,0.0,0.0,-0.5570249813690854,-1.2897084996843187,-0.7705014368325712,0.008561015145556412,-0.0029246939272948177,-0.21453947640839782
4173,1.0,299.57489,8509.1884,0.0,-0.04173008043009008,0.0,0.0,0.0,0.0,-0.5777972974291534,-1.2669977145929388,-0.7417857871435574,-0.024152613639177378,-0.017386316922645882,-0.2092023841566678
4174,1.0,299.64577,8670.2182,0.0,-0.04174007641750921,0.0,0.0,0.0,0.0,-0.5962732847875915,-1.2896175098253386,-0.7496390225736114,-0.027054886165609374,-0.007153819891477054,-0.22456281997512476
4175,1.0,299.74935,8846.1174,0.0,-0.04175007240492867,0.0,0.0,0.0,0.0,-0.6146002737188244,-1.2932993567137088,-0.7810991412184832,-0.0026637959080711877,0.01025272920386559,-0.19873872262648482
4176,1.0,300.20198999999997,8687.061,0.0,-0.041760068392347804,0.0,0.0,0.0,0.0,-0.5512859226701845,-1.3082923171183987,-0.7810713984307452,-0.004399630320784706,0.003483765410420877,-0.23671993652993878
4177,1.0,300.27633,8582.1312,0.0,-0.04177006437976716,0.0,0.0,0.0,0.0,-0.5582730015172555,-1.2858811500815888,-0.7645994677825922,-0.0012178574152181688,-0.013888556299193786,-0.2029741992369938
4178,1.0,300.18383,8632.638,0.0,-0.04178006036718662,0.0,0.0,0.0,0.0,-0.5653534310960395,-1.2839793809688986,-0.7747735829641993,0.003587596390568197,0.015457564959792884,-0.22133120063618877
4179,1.0,300.62047,8615.7794,0.0,-0.041790056354605754,0.0,0.0,0.0,0.0,-0.5856568150098275,-1.2836637535627486,-0.7496612431483043,0.01834447965445918,0.012910494348666588,-0.20846924704681283
4180,1.0,301.01537,8507.6847,0.0,-0.04180005234202522,0.0,0.0,0.0,0.0,-0.5532360238126445,-1.2876937531854789,-0.7451939653124183,0.015172282367637685,-0.005151303321344055,-0.2320907717255758
4181,1.0,300.15623999999997,8606.9165,0.0,-0.041810081319501924,0.0,0.0,0.0,0.0,-0.5554291631240904,-1.298762699927899,-0.7620958382430033,-0.005836571659374775,-0.02913694793484287,-0.2072893477028658
4182,1.0,300.106,8739.6782,0.0,-0.041820077306921166,0.0,0.0,0.0,0.0,-0.5540962528825424,-1.3174531112724988,-0.7850945687478013,-0.0025343724595480875,-0.013285136480390888,-0.23546617125370176
4183,1.0,300.02577,8696.7052,0.0,-0.04183007329434052,0.0,0.0,0.0,0.0,-0.5669755026511255,-1.2968260750117688,-0.7797796261432572,-0.0027102161375525077,0.003973192667798586,-0.22453960641533377
4184,1.0,299.85315,8671.2788,0.0,-0.04184006928175976,0.0,0.0,0.0,0.0,-0.5688344619470904,-1.3092265337105986,-0.7577912478431733,-0.015946264602273788,-0.002124373472209338,-0.22353391516107976
4185,1.0,299.65117999999995,8652.6697,0.0,-0.041850065269179115,0.0,0.0,0.0,0.0,-0.5801159075004825,-1.2833531924070987,-0.7667264013325042,-0.012863574789535988,-0.012615779411330488,-0.2130554703119378
4186,1.0,299.7283,8561.5383,0.0,-0.04186006125659847,0.0,0.0,0.0,0.0,-0.5700514665096995,-1.2906381566510687,-0.7418042485603793,-0.016479308122131085,0.014755908517294787,-0.2239482533919718
4187,1.0,299.44064,8674.8637,0.0,-0.04187005724401771,0.0,0.0,0.0,0.0,-0.5539582279539205,-1.3081083109002387,-0.7748754449967522,0.0036179259044864863,0.025251102390589773,-0.23332833513271378
4188,1.0,300.41417,8792.2808,0.0,-0.041880053231437064,0.0,0.0,0.0,0.0,-0.5832574489055284,-1.2872009083368388,-0.8021755235010603,-0.016968922729452284,-0.0070310043534811024,-0.20657513810487882
4189,1.0,300.14882,8483.1444,0.0,-0.04189004921885631,0.0,0.0,0.0,0.0,-0.5396614108979345,-1.281431563592449,-0.7575710787289444,0.002816313859498537,-0.006356550332442675,-0.2245307404769588
4190,1.0,300.55982,8451.5707,0.0,-0.041900078196333124,0.0,0.0,0.0,0.0,-0.5438838368471556,-1.273950839429159,-0.7512318010683063,0.007148946462471083,0.007072293788431053,-0.21461864163871078
4191,1.0,300.41925,8816.3065,0.0,-0.04191007418375248,0.0,0.0,0.0,0.0,-0.6126624835650795,-1.2938467144177288,-0.7734277943138803,0.015557766275431987,0.008738166726789913,-0.2053402598105058
4192,1.0,299.65098,8875.3495,0.0,-0.04192007017117172,0.0,0.0,0.0,0.0,-0.6074024084534504,-1.3149801730784387,-0.7755020388585923,-0.005016218135237185,-0.019973318706963082,-0.2019627932521758
4193,1.0,299.95862,8671.1627,0.0,-0.04193006615859107,0.0,0.0,0.0,0.0,-0.5729594132366915,-1.2962030275252787,-0.7666545315029112,0.016040134118037983,-0.014409394208346487,-0.21420405009529378
4194,1.0,300.32473,8704.2244,0.0,-0.041940062146010426,0.0,0.0,0.0,0.0,-0.5709145934748835,-1.2969320609722288,-0.7780202490671202,0.014590859195255684,0.006495729251603563,-0.2200193558642198
4195,1.0,299.78351000000004,8693.7099,0.0,-0.04195005813342967,0.0,0.0,0.0,0.0,-0.5870203963319025,-1.2980354903311289,-0.7576148308682622,0.006114381937342515,0.012984139392434788,-0.21327466670607081
4196,1.0,300.44252,8706.8353,0.0,-0.04196005412084902,0.0,0.0,0.0,0.0,-0.5867080822535795,-1.2930568859647789,-0.7668955127741943,-0.01880673752233048,0.0015648790584915386,-0.2256187988318418
4197,1.0,299.28477000000004,8679.5782,0.0,-0.041970050108268264,0.0,0.0,0.0,0.0,-0.5857948095409464,-1.290951149606959,-0.7616291251144423,-0.031120784226132268,-0.005805767336459624,-0.2125675701237858
4198,1.0,298.97084,8555.5586,0.0,-0.04198007908574508,0.0,0.0,0.0,0.0,-0.5493270974443635,-1.2792385864010187,-0.7721105083888743,0.004851701478775655,0.00967100884522926,-0.22536003502130378
4199,1.0,299.82285,8485.7946,0.0,-0.041990075073164435,0.0,0.0,0.0,0.0,-0.5329104598541675,-1.2852675258210289,-0.7612916115061322,0.009026401119136431,0.0085952112218563,-0.22596081127059578
4200,1.0,300.00686,8628.9392,0.0,-0.04200007106058379,0.0,0.0,0.0,0.0,-0.5558598856090995,-1.2938052724886386,-0.7733169346204393,0.025177809957856376,-0.009538700876321481,-0.22599208016868177
4201,1.0,299.70605,8747.289,0.0,-0.04201006704800303,0.0,0.0,0.0,0.0,-0.5778999092667805,-1.2981823102706187,-0.7828752267887692,0.007014590309811163,-0.025585958243887475,-0.2279070012676698
4202,1.0,301.01981,8626.4384,0.0,-0.042020063035422384,0.0,0.0,0.0,0.0,-0.5517149327625245,-1.3133614047186788,-0.7571455238194452,0.03416869017618717,0.010395305651936792,-0.22660112453878978
4203,1.0,299.79073999999997,8504.0584,0.0,-0.042030059022841626,0.0,0.0,0.0,0.0,-0.5529884665482124,-1.291576324918659,-0.7404566664573833,0.002158654458867608,0.004495154879262246,-0.23003463396015078
4204,1.0,300.21721,8796.6838,0.0,-0.04204005501026098,0.0,0.0,0.0,0.0,-0.5762137293778674,-1.3072632603168386,-0.7904952728408092,0.004121260526111746,-0.00993547228890477,-0.2021802975186418
4205,1.0,299.93503,8818.2096,0.0,-0.04205005099768022,0.0,0.0,0.0,0.0,-0.5816015347971024,-1.3229623547162186,-0.7759516483254653,-0.02950486917865387,-0.015465840173359587,-0.2268954027653328
4206,1.0,299.87523999999996,8678.1154,0.0,-0.04206007997515693,0.0,0.0,0.0,0.0,-0.5736006890924804,-1.2950198553835088,-0.7693098648474722,-0.005063107904814844,0.007435097916587033,-0.20803365082882283
4207,1.0,300.31675,8807.6728,0.0,-0.04207007596257639,0.0,0.0,0.0,0.0,-0.5934577768672225,-1.3059670094639089,-0.7778878476765532,-0.015031829691776086,0.0036820212687122063,-0.22604553924395776
4208,1.0,300.74606,8786.5464,0.0,-0.042080071949995745,0.0,0.0,0.0,0.0,-0.6076061426510575,-1.285799279473509,-0.7774852631468213,0.005245342759150026,-0.0012767997947353289,-0.2151499393286458
4209,1.0,299.26416,8621.041,0.0,-0.04209006793741499,0.0,0.0,0.0,0.0,-0.5671408751999465,-1.2914338619545986,-0.7620064189216783,-0.008853387752636341,0.007575832478626453,-0.2238270484150098
4210,1.0,299.77348,8806.9043,0.0,-0.04210006392483434,0.0,0.0,0.0,0.0,-0.5802936214355214,-1.3076224574772888,-0.7891628692243112,0.014923762515610684,0.014647619439357487,-0.21938403791901878
4211,1.0,299.92041,8755.8716,0.0,-0.04211005991225347,0.0,0.0,0.0,0.0,-0.5613063379441224,-1.3082655673157588,-0.7919944067612622,0.003543573814798507,0.007060668466058724,-0.2063452012596858
4212,1.0,299.82665,8538.3403,0.0,-0.04212005589967294,0.0,0.0,0.0,0.0,-0.5593113194247296,-1.2841572063614488,-0.7519736926590254,0.004792942193551566,-0.02010069032403368,-0.21282399332659277
4213,1.0,300.06203,8713.088,0.0,-0.04213005188709229,0.0,0.0,0.0,0.0,-0.5689648165724555,-1.3094638368840188,-0.7701325023386603,0.0019672907277564784,-0.015794041000000484,-0.22172603380265582
4214,1.0,299.76216,8811.7964,0.0,-0.042140080864568885,0.0,0.0,0.0,0.0,-0.5932456630912885,-1.3130341249363788,-0.7722862667512203,0.0009197158484288872,-0.009363859403990971,-0.22278209371938076
4215,1.0,299.90031,8718.5456,0.0,-0.04215007685198824,0.0,0.0,0.0,0.0,-0.5689432850078304,-1.3182914744052388,-0.7629854009032963,-0.006096588151011404,0.008137604577244044,-0.2243148979406568
4216,1.0,300.95126,8720.3186,0.0,-0.0421600728394077,0.0,0.0,0.0,0.0,-0.5730983500904034,-1.3039257158124489,-0.7737350826717072,-0.007830219352707482,-0.0009851146879807499,-0.2188169218380488
4217,1.0,300.52062,8666.5399,0.0,-0.042170068826826834,0.0,0.0,0.0,0.0,-0.5728705208054184,-1.2965999175894487,-0.7649412877038273,-0.007596710598261963,0.02150812409718658,-0.2273104502712948
4218,1.0,300.54786,8501.7918,0.0,-0.0421800648142463,0.0,0.0,0.0,0.0,-0.5629646331902834,-1.283347720856559,-0.7380200127494043,-0.013507052437792289,0.020944035607515378,-0.23621237928984679
4219,1.0,300.64156,8578.6103,0.0,-0.04219006080166543,0.0,0.0,0.0,0.0,-0.5519270972009636,-1.3054675784896188,-0.7502886476102243,-0.008932523294721412,0.013688298562679885,-0.24817871098333177
4220,1.0,299.93765,8851.8941,0.0,-0.042200056789084894,0.0,0.0,0.0,0.0,-0.5891989853719125,-1.3161395338428588,-0.7854163060520543,-0.019940618086485784,-0.010488774933911489,-0.22951062153843477
4221,1.0,300.27437000000003,8800.0374,0.0,-0.04221005277650425,0.0,0.0,0.0,0.0,-0.5750543888784495,-1.3178064315823688,-0.7821308122053012,0.017167379920538486,-0.003579042229248966,-0.23703169332070678
4222,1.0,300.60415,8657.872,0.0,-0.04222008175398084,0.0,0.0,0.0,0.0,-0.5576384840396335,-1.3021433075615387,-0.7719951498649893,0.016825643085811685,0.01071213882570579,-0.2082239594626048
4223,1.0,299.68248,8735.5315,0.0,-0.04223007774140042,0.0,0.0,0.0,0.0,-0.5675791058681965,-1.3071335643040387,-0.7806707897387083,0.02926603599758287,0.007089049196059682,-0.21241807520403183
4224,1.0,299.62134,8879.9697,0.0,-0.04224007372881966,0.0,0.0,0.0,0.0,-0.6012584144845854,-1.3065200413684885,-0.7915106102360152,0.011517744595962888,-0.006873653705701804,-0.18653140966171683
4225,1.0,300.23453,8869.3528,0.0,-0.04225006971623879,0.0,0.0,0.0,0.0,-0.5915660794605264,-1.3170203521547887,-0.7874753214477632,0.01054389269960119,0.00981482622069793,-0.2235436119645368
4226,1.0,300.51625,8819.1711,0.0,-0.042260065703658145,0.0,0.0,0.0,0.0,-0.6031550058892644,-1.3023277190797387,-0.7753250747286272,0.021748321112892183,0.0021352963082873376,-0.21159588354288777
4227,1.0,300.20181,8627.1869,0.0,-0.04227006169107739,0.0,0.0,0.0,0.0,-0.5680025329524855,-1.2932034019292387,-0.7612434213313763,-0.006861583262560545,0.003068611918498417,-0.2310453306698988
4228,1.0,300.24293,8586.1614,0.0,-0.04228005767849674,0.0,0.0,0.0,0.0,-0.5574720171807045,-1.2953332536394386,-0.7571733983296962,-0.024978198674906273,-0.014227884638432884,-0.21582684105795077
4229,1.0,300.09653,8810.5052,0.0,-0.042290053665916205,0.0,0.0,0.0,0.0,-0.5859170075030065,-1.3019072202882387,-0.7903493648264092,-0.02097340567491398,3.4221549407403974e-05,-0.2277267339423788
4230,1.0,299.93691,8850.5318,0.0,-0.042300049653335337,0.0,0.0,0.0,0.0,-0.5809844553537015,-1.3125909293426388,-0.7967652948571122,0.0037086663012918662,0.021911668174763275,-0.22546324467648976
4231,1.0,299.59806000000003,8569.2979,0.0,-0.042310078630812376,0.0,0.0,0.0,0.0,-0.5399761466439965,-1.2996076491862887,-0.7652688005336503,0.015754321596080485,0.008723833898825372,-0.2388374772514238
4232,1.0,299.54834,8669.0063,0.0,-0.04232007461823151,0.0,0.0,0.0,0.0,-0.5593676358652875,-1.3053689892548888,-0.7704247743300053,0.023024435646584875,-0.016512356287392685,-0.22623705364535876
4233,1.0,299.57375,8937.7609,0.0,-0.04233007060565075,0.0,0.0,0.0,0.0,-0.5991944037658834,-1.3335224472584186,-0.7841392461560183,0.012489699688137387,-0.023217600632398777,-0.2195531696257108
4234,1.0,299.63481,8813.2549,0.0,-0.0423400665930701,0.0,0.0,0.0,0.0,-0.5801156744529594,-1.3087357153621588,-0.7901579821475212,0.05094608330548695,-0.01070321107907469,-0.19976524630279482
4235,1.0,299.42829,8521.811,0.0,-0.042350062580489345,0.0,0.0,0.0,0.0,-0.5496202408307944,-1.2909340256802688,-0.7498634777357632,0.005424608486717175,-0.006424049710379343,-0.20180211205131782
4236,1.0,299.69944,8636.5289,0.0,-0.04236005856790892,0.0,0.0,0.0,0.0,-0.5521983138552305,-1.2962931054591686,-0.7767977222914663,0.0031070074098377572,-0.0033377247615827867,-0.2050645037957908
4237,1.0,300.27988,8869.7954,0.0,-0.04237005455532805,0.0,0.0,0.0,0.0,-0.5911147272034815,-1.3194383721934289,-0.7856432436769513,-0.03669569438233307,-0.0027862275256042473,-0.23338442865824977
4238,1.0,300.3706,8932.2583,0.0,-0.042380050542747294,0.0,0.0,0.0,0.0,-0.6126734874611655,-1.3188821992135387,-0.7836278183005443,-0.003359786661310127,0.03729506221398607,-0.24764469778312875
4239,1.0,300.10844,8795.03,0.0,-0.04239007952022422,0.0,0.0,0.0,0.0,-0.5854486225117804,-1.305284078896509,-0.7827367560301033,-0.013792878132001087,0.015966035138224983,-0.2410876321459968
4240,1.0,299.5381,8625.9419,0.0,-0.042400075507643464,0.0,0.0,0.0,0.0,-0.5623376238959025,-1.2917177746326187,-0.7680155290372314,0.0002139493190201538,0.0069052048952656635,-0.2266432250804448
4241,1.0,300.19635,8711.6831,0.0,-0.04241007149506271,0.0,0.0,0.0,0.0,-0.5653327405289975,-1.3043947492837387,-0.7784066722577573,-0.0027291036260415577,0.0038002774852331864,-0.22947839005275378
4242,1.0,300.20732000000004,8958.5001,0.0,-0.04242006748248206,0.0,0.0,0.0,0.0,-0.5909552315052404,-1.3222298762189288,-0.8099752086633293,0.014007491595931787,0.01078316056496509,-0.20755303590888982
4243,1.0,299.74446,8838.8101,0.0,-0.04243006346990141,0.0,0.0,0.0,0.0,-0.5903701201024945,-1.3172987932822686,-0.7791086823245402,0.0003784167011293207,-0.012353733683718589,-0.2103826888006548
4244,1.0,299.21281,8552.0687,0.0,-0.04244005945732088,0.0,0.0,0.0,0.0,-0.5609913083555315,-1.2925823809429489,-0.7460416807435812,-0.0011867528662983888,-0.028185705701212576,-0.2120784844330168
4245,1.0,299.90065,8691.2203,0.0,-0.04245005544474001,0.0,0.0,0.0,0.0,-0.5681475999693024,-1.316327187761379,-0.7574391839634274,-0.0009829449648791151,-0.011658173967072189,-0.23159573825671978
4246,1.0,299.45011,8871.7975,0.0,-0.04246005143215925,0.0,0.0,0.0,0.0,-0.5901204350128524,-1.3187168367972186,-0.7879676698038542,0.003858837464162606,0.005131259410515875,-0.21569497668993678
4247,1.0,299.65255,8837.798,0.0,-0.04247008040963618,0.0,0.0,0.0,0.0,-0.5807424405673165,-1.3129227687503886,-0.7928046623362283,0.013543437235633187,0.013232872026982789,-0.22675461166393776
4248,1.0,299.96573,8755.9483,0.0,-0.04248007639705542,0.0,0.0,0.0,0.0,-0.5544634648512834,-1.3185452935552886,-0.7885808786318732,-0.011199367229041489,0.008476669167482112,-0.24096558617145175
4249,1.0,300.24543,8642.4885,0.0,-0.04249007238447455,0.0,0.0,0.0,0.0,-0.5703448328111524,-1.3020682257291287,-0.7546876425218713,-0.006565829135921884,0.016873030766488484,-0.25083885726586774
4250,1.0,299.98637,8657.4709,0.0,-0.04250006837189402,0.0,0.0,0.0,0.0,-0.5615383924820245,-1.3057885761212986,-0.7643280079483014,-0.031178568866085173,0.02677846140582837,-0.2517345804867688
4251,1.0,300.64687000000004,8812.3576,0.0,-0.04251006435931337,0.0,0.0,0.0,0.0,-0.5801116214525593,-1.3209966495222187,-0.7776284049884483,-0.02203924446835408,0.006086184200309614,-0.23564463499381477
4252,1.0,299.46124,8824.367,0.0,-0.042520060346732724,0.0,0.0,0.0,0.0,-0.5833095806231734,-1.306789261920059,-0.7922884215427792,-0.009836696210856331,-0.02002104481317328,-0.21570914192633478
4253,1.0,299.91095,8732.1767,0.0,-0.04253005633415197,0.0,0.0,0.0,0.0,-0.5603563450478655,-1.3197439684235885,-0.7742634216713503,0.014342935134287487,-0.016961501685719884,-0.2028185437566318
4254,1.0,300.19001000000003,8751.3993,0.0,-0.04254005232157121,0.0,0.0,0.0,0.0,-0.5583213234145245,-1.3272826504925987,-0.7746028503223492,0.00961715936468973,0.005731978107202194,-0.2034524836816968
4255,1.0,300.05836,8970.6885,0.0,-0.04255008129904814,0.0,0.0,0.0,0.0,-0.6100754635422604,-1.3219694709432288,-0.7948203511576613,0.019098336715609083,-0.008900896212725062,-0.1997707178533348
4256,1.0,299.27637999999996,9113.3096,0.0,-0.04256007728646738,0.0,0.0,0.0,0.0,-0.6236351715479994,-1.3446439816810287,-0.8019394058302572,-0.0002330612221413518,0.008523657627619512,-0.2083831511858158
4257,1.0,300.06132,8860.0238,0.0,-0.04257007327388651,0.0,0.0,0.0,0.0,-0.5915637793827994,-1.3153920592440886,-0.7862701516463223,0.015103797806628787,0.014942276621437885,-0.2295158499089508
4258,1.0,299.98379,8646.4455,0.0,-0.042580069261305975,0.0,0.0,0.0,0.0,-0.5584668463938866,-1.2989513670965187,-0.7708853066329562,-0.000942732077762912,0.02253019453930708,-0.22050979931012277
4259,1.0,301.36366,8770.106,0.0,-0.04259006524872533,0.0,0.0,0.0,0.0,-0.5598204877324805,-1.3063512339018288,-0.7997214520238622,-0.013295862745949488,-0.007693022148092174,-0.2360564097019538
4260,1.0,301.18196,8901.6912,0.0,-0.04260006123614468,0.0,0.0,0.0,0.0,-0.5848979616124343,-1.3011821385166786,-0.8198117190441172,-0.029114722293899373,-0.008236972089375853,-0.22007665515737482
4261,1.0,300.83202,8893.3596,0.0,-0.042610057223563924,0.0,0.0,0.0,0.0,-0.5945830518982784,-1.3224926119698588,-0.7862836380051533,-0.009722300578541362,-0.006650234186477013,-0.2235841622335388
4262,1.0,300.16823999999997,8735.921999999999,0.0,-0.042620053210983055,0.0,0.0,0.0,0.0,-0.5792444009569714,-1.3040764874273287,-0.7721812737758583,0.0037292551380238266,0.013663228728705687,-0.2172247918234178
4263,1.0,300.31323,8685.2221,0.0,-0.042630082188460094,0.0,0.0,0.0,0.0,-0.5662392345984615,-1.3026666512381888,-0.7711847929650133,0.012214849519011788,-0.0006510177083454454,-0.2137824164636818
4264,1.0,300.32191,8920.8306,0.0,-0.042640078175879226,0.0,0.0,0.0,0.0,-0.5848302765057545,-1.3367401242759787,-0.7901393890081863,0.016331798159322983,-0.004877500954146865,-0.21906562407509378
4265,1.0,300.36782,9103.8224,0.0,-0.04265007416329869,0.0,0.0,0.0,0.0,-0.6034043768713754,-1.3386215270616588,-0.8253088136191382,0.026179471516462677,-0.01938629023502788,-0.2098542383435008
4266,1.0,299.95,8762.3467,0.0,-0.042660070150718044,0.0,0.0,0.0,0.0,-0.5655510553955435,-1.3315469135384486,-0.7664366422014073,0.01941156575877238,-0.004506509157232825,-0.23772104789374077
4267,1.0,299.70475,8444.3952,0.0,-0.042670066138137286,0.0,0.0,0.0,0.0,-0.5362262194814075,-1.2948314921899189,-0.7358276029780303,-0.0013763005492552888,-0.027100818819142575,-0.2200985818895388
4268,1.0,299.96168,8742.0669,0.0,-0.04268006212555664,0.0,0.0,0.0,0.0,-0.5669524613438515,-1.3165446312328386,-0.7738729353478122,-0.01088146710291719,-0.0013807210554665588,-0.24524542287133874
4269,1.0,300.07634,9039.8139,0.0,-0.04269005811297588,0.0,0.0,0.0,0.0,-0.6105356006776724,-1.3347938734838987,-0.8025482070203412,-0.0036774977149657668,0.005809257577754084,-0.23218457841983378
4270,1.0,300.23129,8887.2987,0.0,-0.04270005410039501,0.0,0.0,0.0,0.0,-0.5823823351916614,-1.3175911159361187,-0.8015434378236782,0.01133538490921539,0.024715657467995478,-0.25743461892431874
4271,1.0,300.01014,8702.3192,0.0,-0.042710050087814366,0.0,0.0,0.0,0.0,-0.5568415628359834,-1.3058248504748788,-0.7826213367112123,-0.005414318931951675,0.0011130696230014189,-0.2196402584718058
4272,1.0,300.29897,8736.2935,0.0,-0.04272007906529118,0.0,0.0,0.0,0.0,-0.5878046316443004,-1.3045206962711688,-0.7632897204383302,-0.01026877300594899,0.0019279732801511483,-0.22484961028342879
4273,1.0,300.59269,8969.5501,0.0,-0.04273007505271065,0.0,0.0,0.0,0.0,-0.6029754985015485,-1.3292527126620288,-0.7942910698354252,-0.002734523602151467,0.00042391098213925664,-0.20311866843625181
4274,1.0,300.68788,9045.2104,0.0,-0.04274007104013,0.0,0.0,0.0,0.0,-0.6162948433185654,-1.3399293289657288,-0.7932938898820113,-0.0013844186077314787,0.020735470233431582,-0.22221447101336078
4275,1.0,300.49363,8867.47,0.0,-0.04275006702754913,0.0,0.0,0.0,0.0,-0.5812759876724735,-1.3282909356671089,-0.7859225764645191,-0.0016414037590439386,-0.011994063335471887,-0.1987670328342788
4276,1.0,299.76701,8711.0463,0.0,-0.0427600630149686,0.0,0.0,0.0,0.0,-0.5620205374096084,-1.3155735323369988,-0.7703465311572832,-0.012519279498306687,-0.01101917691075809,-0.22478897739744477
4277,1.0,299.72181,8935.0636,0.0,-0.04277005900238773,0.0,0.0,0.0,0.0,-0.5762286545518405,-1.3361357205913287,-0.8036718811162392,0.007652903827607803,-0.01136649270053549,-0.22545215972039578
4278,1.0,299.74477,9046.9799,0.0,-0.04278005498980697,0.0,0.0,0.0,0.0,-0.6232672300391864,-1.3295887063951886,-0.7972000399450183,0.028717900117486074,8.147236431369633e-05,-0.2377355677676738
4279,1.0,299.5263,8839.1934,0.0,-0.042790050977226546,0.0,0.0,0.0,0.0,-0.5738975916367824,-1.3239813803417886,-0.7890150461672223,0.023364821818928377,-0.01070960063420529,-0.22569756889461579
4280,1.0,299.61449,8593.5448,0.0,-0.04280007995470336,0.0,0.0,0.0,0.0,-0.5540380720618004,-1.2950985849162788,-0.7630863510107593,0.0003799448646651386,-0.00972412645522156,-0.23215757530466877
4281,1.0,300.07014,8788.4319,0.0,-0.042810075942122494,0.0,0.0,0.0,0.0,-0.5676096756237134,-1.3121675934508588,-0.7916865509833794,-0.003340861074617317,0.0017334029164485481,-0.2167877365252838
4282,1.0,299.92644,9062.6155,0.0,-0.04282007192954196,0.0,0.0,0.0,0.0,-0.5936062788018784,-1.3476113859238887,-0.8135912044277002,-0.03186325032965797,0.02905731762273397,-0.23905671417556076
4283,1.0,300.84622,9019.3144,0.0,-0.04283006791696109,0.0,0.0,0.0,0.0,-0.6038331032536874,-1.3314584568047187,-0.8063548255260252,-0.029938907017990072,0.0025925780035925276,-0.2100575469760658
4284,1.0,301.06964,8838.8246,0.0,-0.04284006390438044,0.0,0.0,0.0,0.0,-0.5868342116260274,-1.3393241146809987,-0.7606236263777073,-0.030658173747226174,0.004532284618576666,-0.23377769128706177
4285,1.0,300.72322,8758.8395,0.0,-0.042850059891799686,0.0,0.0,0.0,0.0,-0.5748058892914244,-1.3359685343248286,-0.7516940660289283,0.008792810899382872,0.0038019861288768166,-0.2161563398579698
4286,1.0,299.93984,8933.0042,0.0,-0.04286005587921904,0.0,0.0,0.0,0.0,-0.5878852458222564,-1.3442433425914886,-0.7832816718013822,0.026775182528504773,-0.006959711164520014,-0.23957608591181878
4287,1.0,299.61304,9022.6618,0.0,-0.0428700518666385,0.0,0.0,0.0,0.0,-0.5981734428326224,-1.3403333117805987,-0.8041571975166363,0.028903329952036576,-0.004853694237747326,-0.2143273930299668
4288,1.0,299.6636,8859.4211,0.0,-0.04288008084411521,0.0,0.0,0.0,0.0,-0.5592195594956735,-1.334994091703659,-0.7988291738533013,0.002028085835081488,-0.012958000579605089,-0.2268544978587958
4289,1.0,299.97807,8635.1938,0.0,-0.04289007683153445,0.0,0.0,0.0,0.0,-0.5562923610167815,-1.3026048429820887,-0.7659860498819373,0.017406037809342183,0.001845163997178508,-0.2231657000747398
4290,1.0,299.8635,8762.2725,0.0,-0.042900072818953805,0.0,0.0,0.0,0.0,-0.5825766258983365,-1.3082530030145187,-0.7726824070103162,-0.02985986641743937,0.016054991404254287,-0.2303550135092698
4291,1.0,300.43767,9077.3088,0.0,-0.04291006880637305,0.0,0.0,0.0,0.0,-0.6208581671314304,-1.3281823152563887,-0.8102347932064482,-0.00956777699986607,-0.0052083313674472845,-0.2078860912167598
4292,1.0,299.8729,9024.2054,0.0,-0.0429200647937924,0.0,0.0,0.0,0.0,-0.6124383323779574,-1.3280396496423088,-0.8026550947733903,-0.03484205262289287,-0.008704997579466371,-0.20926784011312782
4293,1.0,300.37613,8895.0243,0.0,-0.04293006078121164,0.0,0.0,0.0,0.0,-0.5745680592279524,-1.3317045752540089,-0.7975926540937662,0.00842895045799764,0.011429286848982789,-0.2205339146625028
4294,1.0,300.29641000000004,8848.752,0.0,-0.042940056768630996,0.0,0.0,0.0,0.0,-0.5728068380366335,-1.3302866330640686,-0.7867061227668493,0.010376330517314089,0.00897547952608586,-0.2286590861543948
4295,1.0,299.27148,8920.7171,0.0,-0.04295005275605035,0.0,0.0,0.0,0.0,-0.5850443458543814,-1.3386278092122788,-0.7880031031598512,0.014290576448620087,0.0063743165583710635,-0.23199708662132976
4296,1.0,299.3053,9001.0262,0.0,-0.04296008173352717,0.0,0.0,0.0,0.0,-0.6111216442705104,-1.3417539897458088,-0.7832116055569672,0.011485830257563188,-0.006989813710415904,-0.2331632969564258
4297,1.0,299.48586,8884.4646,0.0,-0.04297007772094641,0.0,0.0,0.0,0.0,-0.5928159842538824,-1.3293275918444187,-0.7785118273531353,0.027502699140055077,-0.012582855875831188,-0.23832229023807874
4298,1.0,299.19521000000003,8635.6882,0.0,-0.04298007370836576,0.0,0.0,0.0,0.0,-0.5638651389516565,-1.3051760664358487,-0.7559923844106393,0.01890619612564628,-0.012358359170425088,-0.23068463389930077
4299,1.0,299.87241,8760.1613,0.0,-0.042990069695785005,0.0,0.0,0.0,0.0,-0.5482265659807495,-1.3210740618298589,-0.7935696357642252,0.0003116115109686617,-0.019486996149216784,-0.21514705156586078
4300,1.0,300.34517999999997,9065.2367,0.0,-0.04300006568320436,0.0,0.0,0.0,0.0,-0.5840242765812085,-1.3462622434157385,-0.8253190677101502,-0.014102841470092088,0.005773369981737254,-0.2196667042994158
4301,1.0,299.87085,9105.3399,0.0,-0.04301006167062371,0.0,0.0,0.0,0.0,-0.6179501393444304,-1.3387133275207188,-0.8111325327950483,-0.01909068262435368,0.02023155765394928,-0.21600215359025277
4302,1.0,300.38338999999996,8961.3851,0.0,-0.043020057658042954,0.0,0.0,0.0,0.0,-0.5949439918489003,-1.3418384948041489,-0.7872548382260033,-0.00884534862634294,0.02604338493528198,-0.2291192942173138
4303,1.0,300.34415,8841.9385,0.0,-0.04303005364546231,0.0,0.0,0.0,0.0,-0.5929311502602485,-1.3233347241279687,-0.7714626261424333,-0.0032289370632712774,0.006912609929646483,-0.21809898347969378
4304,1.0,299.98928,9024.0004,0.0,-0.043040082622939124,0.0,0.0,0.0,0.0,-0.6051616362548035,-1.3454176994573888,-0.7924914971278212,0.012796959674961588,-0.006558565956555063,-0.2263512165341258
4305,1.0,299.91067000000004,9133.581,0.0,-0.04305007861035837,0.0,0.0,0.0,0.0,-0.6015596132093114,-1.3522114400528789,-0.8226095356177402,0.0015923090559236686,-0.0028778957555261977,-0.2218987422822008
4306,1.0,299.29331,8815.4312,0.0,-0.04306007459777772,0.0,0.0,0.0,0.0,-0.5755172212591274,-1.3264707331874688,-0.7776830293013393,0.017603458445576085,-0.011702560400952789,-0.23913569702085577
4307,1.0,299.72692,8603.9505,0.0,-0.04307007058519696,0.0,0.0,0.0,0.0,-0.5534251469438094,-1.306639807530309,-0.7553211872793973,-0.0008150576508999272,-0.019882709830020683,-0.22015105811221777
4308,1.0,300.05687,8793.8998,0.0,-0.043080066572616316,0.0,0.0,0.0,0.0,-0.5754600435559845,-1.3260485118707988,-0.7716174102277092,-0.0026729812228777077,-0.002039371212045268,-0.2234218091700158
4309,1.0,300.14965,9164.9054,0.0,-0.04309006256003567,0.0,0.0,0.0,0.0,-0.6128619823772684,-1.3633045021476786,-0.8097359600497173,0.003017353825089637,0.0032559666242638874,-0.21764552366244078
4310,1.0,300.52013,9191.4338,0.0,-0.04310005854745491,0.0,0.0,0.0,0.0,-0.6309414241765704,-1.3449351897597686,-0.8180897815591752,0.007954199013743321,0.011385303688641988,-0.2124782825249738
4311,1.0,300.22449,8896.2867,0.0,-0.043110054534874265,0.0,0.0,0.0,0.0,-0.5589484948289215,-1.3387636860506886,-0.8065368863039932,-0.011646974513716888,0.005519009452158824,-0.2181642266536328
4312,1.0,300.1652,8763.582,0.0,-0.04312005052229351,0.0,0.0,0.0,0.0,-0.5565485815695684,-1.3308930632489187,-0.7764684768039722,0.003994839742934986,-0.002229752191884408,-0.22584685103184882
4313,1.0,300.74303,9037.6515,0.0,-0.04313007949977021,0.0,0.0,0.0,0.0,-0.5955507158762795,-1.3510985874680488,-0.8005711128952173,-0.016843029444277586,0.004554307609500165,-0.23158891908354676
4314,1.0,299.95134,9071.0525,0.0,-0.04314007548718968,0.0,0.0,0.0,0.0,-0.6102830886202514,-1.3521436536211886,-0.7949467237101332,-0.01310273322388909,-0.004080725050561206,-0.24223789392451878
4315,1.0,299.48071,8835.6511,0.0,-0.04315007147460881,0.0,0.0,0.0,0.0,-0.5921386062970304,-1.3240627443248187,-0.7696159677026823,-0.013843756459272386,-0.015760725336712484,-0.2398421856530808
4316,1.0,299.75309,8713.9744,0.0,-0.04316006746202827,0.0,0.0,0.0,0.0,-0.5606235087017325,-1.3259612710371886,-0.7622458093903043,0.0013946598304672086,-0.006554425917971473,-0.24082098524968076
4317,1.0,299.67277,8889.2094,0.0,-0.043170063449447627,0.0,0.0,0.0,0.0,-0.5645988840115714,-1.3428170917507287,-0.7946817689414842,0.025950682683632972,-0.0035607414125678164,-0.2392989316119658
4318,1.0,300.41283,9252.4668,0.0,-0.04318005943686687,0.0,0.0,0.0,0.0,-0.6130357446369173,-1.3702512435082685,-0.8292318646938133,0.014619524040584685,-0.014798416385489987,-0.22270520830179277
4319,1.0,300.52317999999997,9236.7592,0.0,-0.04319005542428622,0.0,0.0,0.0,0.0,-0.6277840659374634,-1.3608216341026387,-0.8191384346176692,0.011311462074354389,-0.014215936393253685,-0.2160379010537808
4320,1.0,300.40725,8904.9177,0.0,-0.043200051411705354,0.0,0.0,0.0,0.0,-0.5844025431085405,-1.3440051274929787,-0.7784650151985153,0.004707654500834326,-0.003059713252145187,-0.2157684170571848
4321,1.0,299.9827,8772.5115,0.0,-0.04321008038918217,0.0,0.0,0.0,0.0,-0.5834640911309225,-1.3143590507671388,-0.7688013450197853,-0.0027035851249230776,0.02195143520143798,-0.22323719500179579
4322,1.0,299.68557999999996,9060.5297,0.0,-0.043220076376601635,0.0,0.0,0.0,0.0,-0.5966498287897535,-1.3425187909212886,-0.8150062081923503,-0.01193665461130609,0.014716155676121487,-0.22906294737925276
4323,1.0,299.67618999999996,9109.7851,0.0,-0.043230072364020766,0.0,0.0,0.0,0.0,-0.5983283383754094,-1.3440493051973386,-0.8267695453608013,-0.024962340297591177,0.010423812430250189,-0.22826225688523077
4324,1.0,300.10416000000004,8885.0072,0.0,-0.04324006835144034,0.0,0.0,0.0,0.0,-0.5733051240383105,-1.3338098049867788,-0.7937054416751282,-0.017167061760007086,-0.003056723961700167,-0.23708167694813975
4325,1.0,299.37992,8671.7551,0.0,-0.043250064338859584,0.0,0.0,0.0,0.0,-0.5375957688465715,-1.3295685427181987,-0.7688327456403843,0.01222954873821249,0.002425325065235948,-0.25089560940396877
4326,1.0,299.86787000000004,8901.530999999999,0.0,-0.043260060326278715,0.0,0.0,0.0,0.0,-0.5837444675660934,-1.3356794540712986,-0.7864192412660362,0.012046208225368189,-0.005900721739105895,-0.2346152438197218
4327,1.0,300.30368,9222.394,0.0,-0.04327005631369818,0.0,0.0,0.0,0.0,-0.6315365768878074,-1.3614310027127787,-0.8104098929562292,0.021743294379146082,-0.009778010791564531,-0.23208188552219877
4328,1.0,300.37972,9113.6995,0.0,-0.04328005230111731,0.0,0.0,0.0,0.0,-0.6030091485373693,-1.3515476599123686,-0.8157802299437402,0.013369045747672089,0.007587829359810452,-0.2234218091700158
4329,1.0,300.16329,8882.3667,0.0,-0.04329008127859413,0.0,0.0,0.0,0.0,-0.5625380650306845,-1.3530406839347187,-0.7844389250055943,0.002014231970439218,0.015585052087374885,-0.2377082910749818
4330,1.0,299.86887,8879.0076,0.0,-0.04330007726601348,0.0,0.0,0.0,0.0,-0.5731766743231335,-1.3370619325077386,-0.7887579947493533,-0.00932440131727176,-0.0033042610624551766,-0.21780386425556778
4331,1.0,299.64931,9068.6196,0.0,-0.043310073253432946,0.0,0.0,0.0,0.0,-0.6001554917507353,-1.3471675823800886,-0.8093108104402582,-0.01914395830136158,-0.007239204248253832,-0.2282550932070238
4332,1.0,300.18638,9160.1305,0.0,-0.0433200692408523,0.0,0.0,0.0,0.0,-0.6141259713470144,-1.3488449165956287,-0.8214800353337672,0.002361748991686478,-0.01047725934652499,-0.21144949930094079
4333,1.0,300.96957000000003,8920.8409,0.0,-0.04333006522827143,0.0,0.0,0.0,0.0,-0.5779396185381994,-1.3418351510788187,-0.7919381004532052,0.009497029750058861,0.007693196427109373,-0.24001568446770377
4334,1.0,300.62506,8742.7055,0.0,-0.04334006121569067,0.0,0.0,0.0,0.0,-0.5442260722009316,-1.3386193992364488,-0.7747186749412802,0.005566587725179434,0.012537680120122687,-0.23739077902364575
4335,1.0,300.11015,9005.4049,0.0,-0.043350057203110026,0.0,0.0,0.0,0.0,-0.5894743056890844,-1.3486493593263287,-0.7992945292267282,-0.002734953625493907,0.006892445036756364,-0.23774773690137477
4336,1.0,300.1765,9357.2141,0.0,-0.04336005319052927,0.0,0.0,0.0,0.0,-0.6428376288306344,-1.3636089838027288,-0.8379128342630582,-0.010819712549072491,0.014894186758441785,-0.2342925236628718
4337,1.0,299.85998,9117.3211,0.0,-0.043370082168006086,0.0,0.0,0.0,0.0,-0.6022185398818424,-1.3612346348433988,-0.8079848105643922,-0.013764839475233886,0.012119421624593788,-0.2343944160929278
4338,1.0,299.68444,8768.345,0.0,-0.04338007815542544,0.0,0.0,0.0,0.0,-0.5760953311036825,-1.3229952853444686,-0.7662673078446953,-0.0018336062585878484,-0.009589869398421422,-0.22090971899209177
4339,1.0,299.69518999999997,8981.8101,0.0,-0.04339007414284479,0.0,0.0,0.0,0.0,-0.5847952991123024,-1.3488368105948287,-0.7966139051596712,-0.015272229357501685,-0.01384583058222709,-0.21613154562802278
4340,1.0,299.48305,9221.4452,0.0,-0.04340007013026426,0.0,0.0,0.0,0.0,-0.6156484809472744,-1.3548596705142386,-0.8325809095868382,0.010826067653699688,-0.006481557733054943,-0.2179282711028458
4341,1.0,299.84526,9119.8334,0.0,-0.04341006611768339,0.0,0.0,0.0,0.0,-0.5994210880782554,-1.3591054924082686,-0.8136750812709782,0.009875687695904491,0.003928338011046777,-0.23807821855399078
4342,1.0,300.35716,8848.2937,0.0,-0.04342006210510263,0.0,0.0,0.0,0.0,-0.5628766222865975,-1.3350567105598385,-0.7917269897948703,0.01233423875179459,-0.0019392682829908782,-0.24521918982624977
4343,1.0,300.18998999999997,8792.4785,0.0,-0.043430058092521984,0.0,0.0,0.0,0.0,-0.5652978340630525,-1.3340323147087387,-0.7733638075700653,0.0026657337488874377,-0.01087270046305199,-0.24712118185396179
4344,1.0,300.12931000000003,9044.8995,0.0,-0.04344005407994134,0.0,0.0,0.0,0.0,-0.5961749488653865,-1.3535447758594688,-0.7997038518696252,0.013653804489525589,-0.0023617152504581476,-0.23574445026116575
4345,1.0,300.08492,9253.5665,0.0,-0.04345008305741804,0.0,0.0,0.0,0.0,-0.6136948131644624,-1.3734474396237089,-0.8257108915238202,-0.013599173083883887,0.001104133162419459,-0.24207978637891478
4346,1.0,299.96132,9036.5768,0.0,-0.043460079044837396,0.0,0.0,0.0,0.0,-0.5839067193046064,-1.3558306680850687,-0.8071563468851293,-0.020652678581010678,0.003927974456910897,-0.22362581694514977
4347,1.0,299.29822,8747.1959,0.0,-0.04347007503225675,0.0,0.0,0.0,0.0,-0.5578059844136645,-1.3385225325268886,-0.7626006191778213,-0.024961205457479176,-0.004426521978438706,-0.23304139283689476
4348,1.0,299.05489,8953.1752,0.0,-0.0434800710196761,0.0,0.0,0.0,0.0,-0.5798828194474784,-1.3459048701054686,-0.7957540307273082,-0.004734255963659686,0.003730695979666027,-0.2240414724011718
4349,1.0,299.49273999999997,9276.3347,0.0,-0.043490067007095345,0.0,0.0,0.0,0.0,-0.6421071261710394,-1.3674020855520788,-0.8102649171319213,0.01186638976987149,0.002091160856456508,-0.2323695776230918
4350,1.0,300.0148,9226.888,0.0,-0.04350006299451459,0.0,0.0,0.0,0.0,-0.6293462746766414,-1.357950285969259,-0.8174470162257392,0.017739108315963682,-0.011110297479000988,-0.2086788378299978
4351,1.0,299.09517999999997,8885.1024,0.0,-0.04351005898193394,0.0,0.0,0.0,0.0,-0.5757329320729164,-1.3345857519133588,-0.7905305542092912,0.008576355853395421,-0.009503031331726171,-0.23131726673173678
4352,1.0,299.5196,8944.8863,0.0,-0.043520054969353295,0.0,0.0,0.0,0.0,-0.5681777036297735,-1.3458081047209185,-0.8050362629058933,0.0046818369896113364,-0.01082006516010729,-0.2233370609316518
4353,1.0,300.47475,9188.144,0.0,-0.04353008394682989,0.0,0.0,0.0,0.0,-0.6148845815643834,-1.3557800055800686,-0.8223017507673642,-0.0014143838582388187,-0.0009954368491344682,-0.25473629337801473
4354,1.0,300.38861,9239.6174,0.0,-0.043540079934249465,0.0,0.0,0.0,0.0,-0.6027055180124034,-1.3638567234521788,-0.8420507146239351,-0.01866771048935958,0.004717636838169506,-0.2280834283750818
4355,1.0,299.91202999999996,8996.5511,0.0,-0.04355007592166871,0.0,0.0,0.0,0.0,-0.6003649609439085,-1.3490436149402387,-0.7853183146348832,-0.01156013290064629,0.007610742389621793,-0.24527048054631176
4356,1.0,300.15704,8797.96,0.0,-0.04356007190908806,0.0,0.0,0.0,0.0,-0.5733481669025585,-1.3227923313494387,-0.7782197073493052,-0.0020206553681231584,0.01083834115216099,-0.21325963007458681
4357,1.0,299.62461,8907.8856,0.0,-0.0435700678965073,0.0,0.0,0.0,0.0,-0.5716272426677165,-1.3457704118171987,-0.7903771380116502,0.011909751807900989,0.01906835160539978,-0.23810274933891176
4358,1.0,299.85916000000003,9245.143,0.0,-0.043580063883926434,0.0,0.0,0.0,0.0,-0.5980235324803275,-1.3710845403905088,-0.8411845884384552,0.018501998501755084,-0.006210896542492764,-0.21518465327707179
4359,1.0,300.27677,9245.8968,0.0,-0.0435900598713459,0.0,0.0,0.0,0.0,-0.6072755495409304,-1.3667554293382589,-0.8364907377477081,0.002067238325570538,-0.00956174806044606,-0.22909725602763878
4360,1.0,299.70291000000003,8910.9513,0.0,-0.04360005585876525,0.0,0.0,0.0,0.0,-0.5533306309744814,-1.3668510801476987,-0.7885249472263532,-0.005484237343177084,0.0058433631708200455,-0.2389866377986448
4361,1.0,299.64625,8967.4634,0.0,-0.043610051846184605,0.0,0.0,0.0,0.0,-0.6088123459676005,-1.3397868660016687,-0.7772857542021313,0.006706121211642634,-0.00014380601693504886,-0.24172886747178177
4362,1.0,300.03213999999997,9330.6166,0.0,-0.04362008082366142,0.0,0.0,0.0,0.0,-0.6300749332210543,-1.3668357800711886,-0.8393637273462501,-0.0030237981970506474,0.002058242691182738,-0.23238906242251475
4363,1.0,299.19583,9242.4607,0.0,-0.043630076811080665,0.0,0.0,0.0,0.0,-0.6095070099711584,-1.3617962793738287,-0.8381739589463292,-0.007370489949135723,-0.007826213772412164,-0.2181677122339768
4364,1.0,299.72861,8990.3651,0.0,-0.04364007279850002,0.0,0.0,0.0,0.0,-0.5767370730545174,-1.3447324384147588,-0.8113769489841702,-0.004146254265003436,-0.0027369506401159977,-0.22904297621978179
4365,1.0,300.36492000000004,8922.4746,0.0,-0.04365006878591926,0.0,0.0,0.0,0.0,-0.5760203911262864,-1.3360127120291887,-0.8001763810537603,-0.0004723645917887555,0.012600945429866488,-0.2350986553099308
4366,1.0,300.31686,9026.7866,0.0,-0.04366006477333839,0.0,0.0,0.0,0.0,-0.6002095081135664,-1.3435970916777087,-0.8001111277473203,-0.0030214937623482168,0.014312559922789684,-0.2393954031539868
4367,1.0,300.06812,9173.5547,0.0,-0.04367006076075797,0.0,0.0,0.0,0.0,-0.6281119941998273,-1.360012959197829,-0.8004066421389853,0.00036454294638758763,0.0026175040573775377,-0.2191181813577808
4368,1.0,299.99118,9133.1888,0.0,-0.04368005674817721,0.0,0.0,0.0,0.0,-0.6054632301470685,-1.3717015083763986,-0.7990965806871922,-0.0010465326300097288,0.012589186662455988,-0.23830983739434977
4369,1.0,300.32297,8927.8138,0.0,-0.04369005273559656,0.0,0.0,0.0,0.0,-0.5574665760276675,-1.352048104136759,-0.8043177773924842,-0.0005822218971708275,-0.0025360813058417373,-0.22584075126624678
4370,1.0,300.45587,8916.4516,0.0,-0.04370008171307338,0.0,0.0,0.0,0.0,-0.5647946439308915,-1.3502533342346288,-0.7953306340405223,-0.0014273492038683986,-0.012330463381921989,-0.21956843930471778
4371,1.0,299.54253,9233.041,0.0,-0.04371007770049251,0.0,0.0,0.0,0.0,-0.5906524825078614,-1.3734078215447987,-0.8425535703835633,-0.003095471253474227,-0.014081292680215386,-0.23843472046917477
4372,1.0,299.47251,9373.508,0.0,-0.043720073687911976,0.0,0.0,0.0,0.0,-0.6409311683699814,-1.3789401670907986,-0.8294410197794552,0.006371678764385734,-0.0026258024743715277,-0.23160969071059676
4373,1.0,300.50082000000003,9117.6074,0.0,-0.04373006967533111,0.0,0.0,0.0,0.0,-0.6055030711410004,-1.3662432314127089,-0.7997786803895103,0.0014860688710135784,0.004803155754559566,-0.24864621444697074
4374,1.0,300.02313,8803.7007,0.0,-0.04374006566275057,0.0,0.0,0.0,0.0,-0.5740953881888035,-1.3286661421791386,-0.7733436844230793,0.01056006417119719,0.006697565023823203,-0.2400455145506478
4375,1.0,300.06489,8980.0295,0.0,-0.043750061650169925,0.0,0.0,0.0,0.0,-0.5783911937102665,-1.3458863276286386,-0.8054272051919762,0.004197558359966756,-0.012863723737300686,-0.2310158856219928
4376,1.0,300.00406,9203.9391,0.0,-0.04376005763758917,0.0,0.0,0.0,0.0,-0.6049879550551625,-1.3671710645292787,-0.8256086849862333,0.013804546720152688,-0.002344782625387028,-0.23748188034013676
4377,1.0,300.19972,9182.9186,0.0,-0.04377005362500852,0.0,0.0,0.0,0.0,-0.5959954009476665,-1.3775003386986988,-0.8178821868786872,-0.01085274044933209,-0.007010903295347283,-0.23569726320400877
4378,1.0,299.99375,8979.7369,0.0,-0.04378008260248534,0.0,0.0,0.0,0.0,-0.6024422351064194,-1.3511208789702487,-0.7760526997579382,-0.014060779431940885,-0.011522124876145188,-0.23266433207718176
4379,1.0,300.37116000000003,9050.505,0.0,-0.04379007858990447,0.0,0.0,0.0,0.0,-0.6111709084903724,-1.3534449707246186,-0.7865116395426552,-0.014206027820525787,-0.009245964309805631,-0.2188635313426488
4380,1.0,299.97001,9348.5087,0.0,-0.04380007457732393,0.0,0.0,0.0,0.0,-0.6174998712649925,-1.3955303136281187,-0.8286829972471442,-0.0004054671046764876,0.017663738720525284,-0.23699387882697479
4381,1.0,300.63742,9395.73,0.0,-0.043810070564743064,0.0,0.0,0.0,0.0,-0.6256936600536565,-1.3833798237289587,-0.8469938147067813,0.015601723091270184,0.011267110090977188,-0.21780915342108978
4382,1.0,300.42503,9135.9233,0.0,-0.04382006655216242,0.0,0.0,0.0,0.0,-0.5838889367653515,-1.3663893420771287,-0.8268142702202153,-0.0027257910074896274,0.005079978620304855,-0.22690818998159482
4383,1.0,299.86419,8937.5607,0.0,-0.04383006253958188,0.0,0.0,0.0,0.0,-0.5807929004222965,-1.3418908798343185,-0.7941115421827073,-0.002718047040950357,-0.007741867996987882,-0.2134342637293218
4384,1.0,299.58256,9199.7557,0.0,-0.04384005852700101,0.0,0.0,0.0,0.0,-0.6218106120929294,-1.3748653818136487,-0.7998200311260912,-0.0016276340954849786,0.006041561679155714,-0.23667276973778378
4385,1.0,300.04098999999997,9340.0186,0.0,-0.04385005451442048,0.0,0.0,0.0,0.0,-0.6353384837805264,-1.3850929256730287,-0.8187010854770063,-0.0019759824884392884,0.0034652863630471368,-0.24169669678110678
4386,1.0,299.94407,9068.5948,0.0,-0.043860083491897184,0.0,0.0,0.0,0.0,-0.5826222322853375,-1.3664472999828488,-0.8075568137221523,-0.01831798721734458,-0.0009552409440899411,-0.24456507609169378
4387,1.0,299.86066,8821.4329,0.0,-0.043870079479316426,0.0,0.0,0.0,0.0,-0.5590797715118775,-1.3410436001006987,-0.7813719385429062,-0.005577005760057614,-0.002933273723841577,-0.23963562448769476
4388,1.0,299.85643999999996,8983.244,0.0,-0.04388007546673578,0.0,0.0,0.0,0.0,-0.5734727763998565,-1.3621972224383987,-0.7950118655590622,-0.006902874014735624,0.018699706901017382,-0.22853818515246277
4389,1.0,300.29757,9306.1312,0.0,-0.04389007145415502,0.0,0.0,0.0,0.0,-0.6127553175392415,-1.3920508127847186,-0.8240253297174682,0.009292915077039311,0.013281281063760385,-0.24372202161099077
4390,1.0,300.05234,9291.2964,0.0,-0.043900067441574375,0.0,0.0,0.0,0.0,-0.6314191715987204,-1.3782124508689788,-0.8146905098586932,0.0026520966184415576,-0.0015304888434724885,-0.2242665760433878
4391,1.0,300.61175,9077.2183,0.0,-0.04391006342899384,0.0,0.0,0.0,0.0,-0.5969763790319814,-1.3585389842773588,-0.8037323721472092,0.009958385724016151,-0.0016389567600524383,-0.23882839853052776
4392,1.0,301.08448,8989.8915,0.0,-0.04392005941641297,0.0,0.0,0.0,0.0,-0.5728829736491474,-1.363254650242759,-0.7965649449148393,0.009315119642380732,0.00973298398362073,-0.2287652038373678
4393,1.0,300.572,9143.6564,0.0,-0.043930055403832324,0.0,0.0,0.0,0.0,-0.5784945350879654,-1.3711531374222787,-0.8297955863869483,0.008075740491063533,-0.00954816736803075,-0.24086779740430078
4394,1.0,299.90741,9381.0634,0.0,-0.04394008438130914,0.0,0.0,0.0,0.0,-0.6162552353721564,-1.3845945079488384,-0.8507592344633992,-0.02172903693698898,-0.017016512046898982,-0.21715723843925078
4395,1.0,299.83127,9274.3771,0.0,-0.043950080368728384,0.0,0.0,0.0,0.0,-0.6234723523894304,-1.3764273068427988,-0.8192794182365832,-0.004409218301180966,-0.017080475485961682,-0.22902577123308376
4396,1.0,299.91808,8999.1321,0.0,-0.04396007635614774,0.0,0.0,0.0,0.0,-0.6163013179867044,-1.3556757421447787,-0.7635344203374802,0.0039183513167361655,0.005200106005785505,-0.23448120096399278
4397,1.0,300.20052000000004,9092.0189,0.0,-0.04397007234356709,0.0,0.0,0.0,0.0,-0.5940508929457584,-1.3667799499906788,-0.8029159154816312,0.02173240295382118,0.005771185009221614,-0.24073106943580677
4398,1.0,299.89139,9339.7309,0.0,-0.04398006833098633,0.0,0.0,0.0,0.0,-0.6198957923189514,-1.3880750220423386,-0.8310741661581342,0.008311134802620143,-0.0021348768227459377,-0.23451260158459175
4399,1.0,299.43637,9310.7531,0.0,-0.043990064318405686,0.0,0.0,0.0,0.0,-0.6039022778380144,-1.3711603314979885,-0.8551738840890912,0.01060292870342759,-0.006863847572559014,-0.2160795557653918
4400,1.0,300.14661,9176.396,0.0,-0.04400006030582493,0.0,0.0,0.0,0.0,-0.6049576284796694,-1.3732656625557687,-0.8111719482239382,-0.00953672199887618,0.008883690922052032,-0.23147483725478776
4401,1.0,299.74893,9088.7622,0.0,-0.04401005629324428,0.0,0.0,0.0,0.0,-0.6039679871069994,-1.3656099501002088,-0.7931787846706513,0.004158494123561416,-0.0036919672303687965,-0.2140760158126578
4402,1.0,299.70009,9154.6315,0.0,-0.044020052280663524,0.0,0.0,0.0,0.0,-0.6039879177364664,-1.3725776657378688,-0.8062138216421092,-0.01110421493865069,-0.0016582174285533187,-0.24029756051302276
4403,1.0,300.04522000000003,9391.3512,0.0,-0.04403008125814034,0.0,0.0,0.0,0.0,-0.5978916579798125,-1.4079084808247486,-0.8489361340884732,-0.0025606483651163174,-0.012242303530471288,-0.22376741864662478
4404,1.0,300.23675,9211.5587,0.0,-0.044040077245559694,0.0,0.0,0.0,0.0,-0.5990657919306904,-1.3780997774578587,-0.8229182526582082,0.009922981346972011,-0.003033412116649467,-0.25676224642296075
4405,1.0,300.51697,8891.3337,0.0,-0.04405007323297905,0.0,0.0,0.0,0.0,-0.5582007669176265,-1.3601577526371187,-0.7843849593052682,0.003421103491111627,-0.005519051502037975,-0.2401272534362148
4406,1.0,300.72517999999997,8839.9936,0.0,-0.04406006922039829,0.0,0.0,0.0,0.0,-0.5646747764440615,-1.3465741217965188,-0.7758884012542233,-0.0006829658791659843,-0.0013535462957346186,-0.24726693788084675
4407,1.0,300.5347,9175.9157,0.0,-0.044070065207817644,0.0,0.0,0.0,0.0,-0.6210862193314374,-1.3709203938743086,-0.7972426065817192,0.008663727092293292,-0.006414631652024854,-0.23157702352737275
4408,1.0,300.00338999999997,9362.542,0.0,-0.044080061195236886,0.0,0.0,0.0,0.0,-0.6382881054841314,-1.3849047651294588,-0.8227861349776692,0.0025259397869158476,0.01133584289826059,-0.24939080128295577
4409,1.0,300.11582999999996,9150.5749,0.0,-0.04409005718265624,0.0,0.0,0.0,0.0,-0.5903425596997744,-1.3725824280133385,-0.8186212616341283,-0.004709074773499495,-0.001077625425228349,-0.23386168972035176
4410,1.0,299.36057999999997,9035.6862,0.0,-0.04410005317007559,0.0,0.0,0.0,0.0,-0.5757142680060745,-1.3661566998541685,-0.8047519651928352,-0.009257156062460171,-0.01280336848184409,-0.2275772086251218
4411,1.0,300.1787,9295.5232,0.0,-0.04411008214755219,0.0,0.0,0.0,0.0,-0.5901203843503475,-1.3797815699738385,-0.8557049892615072,-0.009460384242967232,-0.008173942461605311,-0.21797120250958277
4412,1.0,299.96791,9541.5488,0.0,-0.04412007813497165,0.0,0.0,0.0,0.0,-0.6532588149166253,-1.4004088088845885,-0.8467249893227503,0.00985183406602532,0.0044564127550636955,-0.2156655721720348
4413,1.0,299.9761,9348.6295,0.0,-0.044130074122391005,0.0,0.0,0.0,0.0,-0.6463903167287574,-1.3798307126036886,-0.8155288932564353,0.016921546194526585,0.006921820271730473,-0.2154304880163338
4414,1.0,299.49034,8919.8508,0.0,-0.04414007010981025,0.0,0.0,0.0,0.0,-0.5871293105851514,-1.3546015957137687,-0.7696810386241043,-0.0012653137942517487,0.008508885555736622,-0.23398200303722577
4415,1.0,300.25777,8970.4608,0.0,-0.0441500660972296,0.0,0.0,0.0,0.0,-0.5554708077032005,-1.3729982658543787,-0.7983269767062382,-0.002987686166136667,0.007515760021272764,-0.24542311654137577
4416,1.0,300.62832000000003,9327.095,0.0,-0.04416006208464884,0.0,0.0,0.0,0.0,-0.6132246955155654,-1.3748560599127289,-0.8471232675395571,-0.014793577103012386,0.005580661769068434,-0.24969219252520078
4417,1.0,300.26202,9436.6934,0.0,-0.0441700580720682,0.0,0.0,0.0,0.0,-0.6188361252318704,-1.3974111084637386,-0.8522718851401863,-0.01078049065095159,-0.0038261478881113967,-0.24804665409779877
4418,1.0,300.03042,9009.665,0.0,-0.04418005405948755,0.0,0.0,0.0,0.0,-0.6026060675150884,-1.3458737633273987,-0.7902334186174662,-0.01118985585035279,-0.005775032319851314,-0.23315094543770679
4419,1.0,300.17657,8909.5431,0.0,-0.04419008303696437,0.0,0.0,0.0,0.0,-0.5811344974285094,-1.3488459298457287,-0.7782981734370492,0.011425754659134188,0.009313085745455,-0.23032998623179976
4420,1.0,300.50792,9350.1389,0.0,-0.04420007902438372,0.0,0.0,0.0,0.0,-0.6176926927590224,-1.3931589030940787,-0.8313571567785633,0.018352448866495685,0.01238361442916759,-0.24053402268885976
4421,1.0,300.18473,9557.8309,0.0,-0.04421007501180296,0.0,0.0,0.0,0.0,-0.6341903295622124,-1.4058536096219487,-0.8652979852457623,0.013393537015839188,-0.007453597836912833,-0.23114118412935877
4422,1.0,299.46277000000003,9261.2538,0.0,-0.044220070999222094,0.0,0.0,0.0,0.0,-0.5926455251895595,-1.3920576015603885,-0.8304867850751642,0.0036438683494468068,-0.02041587392663988,-0.22928303543347378
4423,1.0,299.42746,8976.8451,0.0,-0.04423006698664156,0.0,0.0,0.0,0.0,-0.5655362416790815,-1.3678862164498589,-0.7953142903164092,0.0003179255992318137,0.0003019222866224097,-0.23732458339461276
4424,1.0,299.9085,9166.0735,0.0,-0.04424006297406069,0.0,0.0,0.0,0.0,-0.6166475759433775,-1.3714368474502787,-0.7981730842810503,-0.0004962790470714285,0.007894799962406093,-0.22341278111162477
4425,1.0,300.09439,9375.8674,0.0,-0.044250058961480154,0.0,0.0,0.0,0.0,-0.6375050962043544,-1.3872128475322487,-0.8253116000569132,-0.016398427459398783,0.006648841372889555,-0.24850687229321874
4426,1.0,300.0727,9361.892,0.0,-0.04426005494889951,0.0,0.0,0.0,0.0,-0.6246989726954884,-1.3904407583758187,-0.8306416400879472,-0.02752580833508577,0.0003907295846220077,-0.2271758906580148
4427,1.0,299.89841,9074.9254,0.0,-0.044270083926376325,0.0,0.0,0.0,0.0,-0.5727700975880075,-1.3648006672453388,-0.8209799153494092,-0.0011483485596831787,0.008240103842784932,-0.24845437580553778
4428,1.0,300.34726,9115.0761,0.0,-0.04428007991379568,0.0,0.0,0.0,0.0,-0.5688128391899565,-1.3821189353045187,-0.8198237361903031,0.0071863686257643625,-0.002007406008490548,-0.2278848516204838
4429,1.0,300.23177000000004,9383.4289,0.0,-0.04429007590121492,0.0,0.0,0.0,0.0,-0.6218989067066434,-1.392001062204809,-0.8384281327339141,0.02469816066526868,-0.009807291186329281,-0.24743324261975977
4430,1.0,299.8525,9498.4063,0.0,-0.04430007188863405,0.0,0.0,0.0,0.0,-0.6624038327666684,-1.3960505162294587,-0.8288239707335573,0.018480436539627082,-0.022658513545221182,-0.2127228405691098
4431,1.0,299.52982000000003,9217.1147,0.0,-0.044310067876053405,0.0,0.0,0.0,0.0,-0.6098355259185805,-1.3847499405141785,-0.8071872510131792,0.0069827508505938525,0.013900085058831588,-0.2330951153571968
4432,1.0,299.30084,9030.0976,0.0,-0.04432006386347265,0.0,0.0,0.0,0.0,-0.5854033707623144,-1.3713189051386387,-0.7882018926969703,-0.007137424086308914,0.00923840424815951,-0.2271782008682428
4433,1.0,299.69841,9268.4389,0.0,-0.04433005985089222,0.0,0.0,0.0,0.0,-0.5900803812363995,-1.4010182788197385,-0.8262753630220293,-0.015859203113931485,0.0070818392123231134,-0.24555189049658477
4434,1.0,299.9617,9407.8397,0.0,-0.044340055838311465,0.0,0.0,0.0,0.0,-0.6051948607255824,-1.3924633069004286,-0.8620901772841761,-0.02035477595885998,0.010982206454359388,-0.22566029142343677
4435,1.0,299.87602000000004,9189.1349,0.0,-0.04435008481578817,0.0,0.0,0.0,0.0,-0.6032190838255884,-1.3753538696868588,-0.8146945831240953,0.005287276013213515,0.010834884956069888,-0.23466192425182875
4436,1.0,300.54486,9079.6772,0.0,-0.044360080803207635,0.0,0.0,0.0,0.0,-0.5947222015345115,-1.3742700973798987,-0.7910028300809012,0.017014052888906284,0.00022173933777646878,-0.23925328469496077
4437,1.0,300.12273,9117.7675,0.0,-0.04437007679062677,0.0,0.0,0.0,0.0,-0.6008942929286494,-1.3704158966495186,-0.8002634293698513,-0.0035978191721521067,-0.013423131011509886,-0.25154282290534374
4438,1.0,299.9313,9369.4589,0.0,-0.04438007277804601,0.0,0.0,0.0,0.0,-0.6252232992247354,-1.4031615054312587,-0.8196967962177752,0.005929368852558145,-0.024014335398030377,-0.24040593774371877
4439,1.0,300.53487,9519.6453,0.0,-0.04439006876546536,0.0,0.0,0.0,0.0,-0.6261288205741034,-1.4056862207054286,-0.8619193939798212,-0.0013199110533650786,-0.01032952140244439,-0.2376857462602568
4440,1.0,299.76026,9270.4472,0.0,-0.04440006475288483,0.0,0.0,0.0,0.0,-0.6058535036880854,-1.3759090294166487,-0.8362218819661742,0.00909627798710774,-0.003776377448499437,-0.22622327344399878
4441,1.0,299.63009,9076.3623,0.0,-0.04441006074030418,0.0,0.0,0.0,0.0,-0.5880126417573295,-1.3822623101936686,-0.7887125099523642,-0.007410822470691233,-0.01992113531356298,-0.2362198570755848
4442,1.0,300.22416,9261.8021,0.0,-0.04442005672772331,0.0,0.0,0.0,0.0,-0.6308520555177504,-1.3739197154953187,-0.8105848204534932,0.006718723813736414,-0.013300601716667186,-0.21777693206790982
4443,1.0,299.64304,9409.7121,0.0,-0.044430052715142554,0.0,0.0,0.0,0.0,-0.6324784840482663,-1.3890086306844787,-0.8388304436861191,-0.002410990717396258,0.024848832981638876,-0.2239125971209528
4444,1.0,299.68067,9355.9011,0.0,-0.04444008169261959,0.0,0.0,0.0,0.0,-0.6272760324698244,-1.3913598775415288,-0.8253244683331832,0.011244800350275388,0.015653114123092088,-0.22732840506306679
4445,1.0,299.82005,9135.7625,0.0,-0.044450077680038724,0.0,0.0,0.0,0.0,-0.5725897289377064,-1.380420120186859,-0.8240338714158112,-0.0064003793774432645,0.011389831903338888,-0.23359335069636877
4446,1.0,299.64855,9083.9526,0.0,-0.04446007366745797,0.0,0.0,0.0,0.0,-0.5833645899711025,-1.3726024903653187,-0.8053277141646572,-0.00972038685307749,-0.0028400776140938377,-0.2369525280903938
4447,1.0,300.41702999999995,9342.965,0.0,-0.04447006965487732,0.0,0.0,0.0,0.0,-0.6187436661602453,-1.3910473912106887,-0.8302369479980073,0.0015932191571634885,0.0028240956202665373,-0.2416030015443598
4448,1.0,300.12347,9466.8155,0.0,-0.04448006564229667,0.0,0.0,0.0,0.0,-0.6474146517848514,-1.3980569540774785,-0.8322039501521351,0.00964638240949882,0.0033690151405709064,-0.24772283963084077
4449,1.0,299.9044,9291.7504,0.0,-0.04449006162971614,0.0,0.0,0.0,0.0,-0.6184608883223374,-1.3980208823739186,-0.8079783257637522,-0.011860619310551988,-0.003652830850556337,-0.2499717684927928
4450,1.0,299.78622,9078.4151,0.0,-0.04450005761713527,0.0,0.0,0.0,0.0,-0.5863039474511944,-1.3664542914085387,-0.8068532736477182,-0.0007530526925580142,-0.01104907488145879,-0.24316974964398577
4451,1.0,300.05118,9235.8538,0.0,-0.04451005360455451,0.0,0.0,0.0,0.0,-0.5834784590173404,-1.3878836190984487,-0.8361068679473233,0.00029676265499319375,0.015441726847479787,-0.2305134655599078
4452,1.0,300.0366,9567.6185,0.0,-0.04452008258203144,0.0,0.0,0.0,0.0,-0.6321046656888734,-1.4070180366368688,-0.8691943878428072,0.008066263968178273,0.014062988317158886,-0.2326639875721478
4453,1.0,300.32995,9412.4574,0.0,-0.04453007856945068,0.0,0.0,0.0,0.0,-0.6314696010561974,-1.3819039236332986,-0.8477784958492232,0.007938680480511762,-0.004264051580554126,-0.22344088866939876
4454,1.0,299.75514,9020.2965,0.0,-0.044540074556869924,0.0,0.0,0.0,0.0,-0.5746302018565854,-1.3814936586678088,-0.7858210589370003,0.0030323556007701975,-0.002066025363875828,-0.23018314602730777
4455,1.0,300.83322999999996,9146.1091,0.0,-0.0445500705442895,0.0,0.0,0.0,0.0,-0.5952595685925455,-1.3752741269039885,-0.8096550925592363,0.0060942027576259845,0.011804800375793088,-0.23377773181706576
4456,1.0,300.38331,9535.6952,0.0,-0.04456006653170863,0.0,0.0,0.0,0.0,-0.6494095385817314,-1.3973984428374886,-0.8518052429391322,0.005846050006110214,-0.003601781891968197,-0.23326404441386878
4457,1.0,299.6957,9562.4683,0.0,-0.044570062519127984,0.0,0.0,0.0,0.0,-0.6385139285339183,-1.4234632884098886,-0.8447743612902382,-0.018864908210571484,-0.007985169307024852,-0.2543207696445058
4458,1.0,299.41029,9289.4387,0.0,-0.04458005850654723,0.0,0.0,0.0,0.0,-0.6068726813011704,-1.3847024190844885,-0.8321822969974982,-0.026448197601983876,-0.028705129113225675,-0.23394823141139276
4459,1.0,299.78008,9182.1311,0.0,-0.04459005449396647,0.0,0.0,0.0,0.0,-0.5945767798801594,-1.3877708443623187,-0.8087909624764532,0.004070112471663826,-0.0001916927232860988,-0.24870303751257877
4460,1.0,299.61357000000004,9355.5299,0.0,-0.0446000834714434,0.0,0.0,0.0,0.0,-0.6208111219292873,-1.3933280145357687,-0.8297083252883363,0.007187417136967843,0.015720985667790486,-0.22990568775242476
4461,1.0,300.20462000000003,9511.302,0.0,-0.04461007945886264,0.0,0.0,0.0,0.0,-0.6441004424302644,-1.3988692766826487,-0.8482285612786412,0.007991850576859243,0.007728540110472523,-0.23837820137859678
4462,1.0,299.99779,9345.4525,0.0,-0.04462007544628199,0.0,0.0,0.0,0.0,-0.6145628645251324,-1.3917312337031789,-0.8344900652927572,0.0022623331475248977,-0.01024679054502949,-0.2163199696166188
4463,1.0,300.09432000000004,9057.1217,0.0,-0.044630071433701346,0.0,0.0,0.0,0.0,-0.5609105624550624,-1.3828963007812387,-0.8093319164398413,0.0006217426736737244,0.01062350477320829,-0.24400179009610176
4464,1.0,300.95743999999996,9225.9937,0.0,-0.04464006742112059,0.0,0.0,0.0,0.0,-0.5898571521068684,-1.3961751459917588,-0.8184394237711823,0.004019152679084486,-0.00937684633184768,-0.2387456463948608
4465,1.0,301.08875,9518.388,0.0,-0.04465006340853994,0.0,0.0,0.0,0.0,-0.6303506284407634,-1.4265017214847586,-0.8364998975286122,0.0050874633974685455,-0.013557314709002788,-0.25680115522680075
4466,1.0,300.18271,9459.7304,0.0,-0.044660059395959184,0.0,0.0,0.0,0.0,-0.6237938566461604,-1.4054822534602986,-0.8462457118929492,-0.01055559675150629,-0.008749724972005622,-0.23211203984517478
4467,1.0,300.02545,9112.4179,0.0,-0.044670055383378315,0.0,0.0,0.0,0.0,-0.5833270591873984,-1.3932706645801087,-0.7933498212875313,0.009119858850059991,0.016245244309280784,-0.25260547908021974
4468,1.0,299.74775,9182.6891,0.0,-0.044680084360855354,0.0,0.0,0.0,0.0,-0.5835491534768175,-1.3989793156435086,-0.8087797761953492,-0.010641148497199592,0.005530431111261056,-0.23466102245923978
4469,1.0,299.81077,9433.0524,0.0,-0.044690080348274486,0.0,0.0,0.0,0.0,-0.6181018634144044,-1.3991464005849987,-0.8501641628121702,-0.017056318590327583,-0.014125037726782686,-0.24268292350093978
4470,1.0,300.35205,9533.4459,0.0,-0.04470007633569395,0.0,0.0,0.0,0.0,-0.6322863920943085,-1.4141434139900884,-0.8514997176364792,-0.016282311024438986,-0.019791062371725784,-0.2262376413304168
4471,1.0,299.97776,9299.3331,0.0,-0.044710072323113303,0.0,0.0,0.0,0.0,-0.6006686218663775,-1.3971719814401387,-0.8289244040834692,0.004149401318489026,0.008741884138756793,-0.23380477546223477
4472,1.0,299.34393,9248.2014,0.0,-0.044720068310532546,0.0,0.0,0.0,0.0,-0.6072351411269424,-1.3846506420043787,-0.8193364946147162,0.009273847331357471,-0.01129925747689989,-0.22640799906972978
4473,1.0,299.92027,9469.0033,0.0,-0.0447300642979519,0.0,0.0,0.0,0.0,-0.6325730000175944,-1.4116150510155587,-0.8341524807569403,0.010485924661380189,-0.019207524546385083,-0.2298209192490588
4474,1.0,300.00604,9585.7748,0.0,-0.04474006028537114,0.0,0.0,0.0,0.0,-0.6521080566455544,-1.4072062985054488,-0.8545218576497412,-0.0033566612913766766,-0.008559468115303732,-0.22461383711765978
4475,1.0,300.59232000000003,9518.7549,0.0,-0.044750056272790495,0.0,0.0,0.0,0.0,-0.6146811716068085,-1.4319357817710587,-0.8468468934422811,-0.0014980714263981387,0.012983474700369188,-0.2456128780201038
4476,1.0,300.42552,9214.6936,0.0,-0.04476008525026731,0.0,0.0,0.0,0.0,-0.6007340980878395,-1.3963036261044386,-0.8039990291760263,0.00973389307161045,0.015711873509641185,-0.2552962863107818
4477,1.0,300.15841,9168.8664,0.0,-0.04477008123768644,0.0,0.0,0.0,0.0,-0.5875816051647895,-1.3880381397386987,-0.8114866839700002,-0.01118184813481249,0.014938661345081086,-0.24480119376249676
4478,1.0,300.06462,9445.8593,0.0,-0.04478007722510591,0.0,0.0,0.0,0.0,-0.6389872176556284,-1.4071237186222987,-0.8251944784778542,0.004564000967906825,0.002256492469973468,-0.23876638762440774
4479,1.0,300.11368,9486.8801,0.0,-0.04479007321252526,0.0,0.0,0.0,0.0,-0.6287471094950084,-1.3930978041130486,-0.8619297899258472,-0.005564356143159194,0.014582510014431687,-0.2247118791973358
4480,1.0,299.30852000000004,9256.2702,0.0,-0.04480006919994439,0.0,0.0,0.0,0.0,-0.5843668463075175,-1.3982150210930788,-0.8310931645975093,-0.009074352065543821,-0.002962198569146237,-0.24227333741301676
4481,1.0,299.78,9208.7362,0.0,-0.04481006518736386,0.0,0.0,0.0,0.0,-0.5848666319193424,-1.3845614759955789,-0.8297977142121582,-0.001200797829909519,-0.012357718796361886,-0.23639813843067975
4482,1.0,299.68054,9362.5149,0.0,-0.04482006117478299,0.0,0.0,0.0,0.0,-0.6225936213727065,-1.3915186538321986,-0.8318585129280432,0.01907053921236568,-0.0024462344942995473,-0.24585288657129079
4483,1.0,299.81928999999997,9482.9685,0.0,-0.04483005716220245,0.0,0.0,0.0,0.0,-0.6227046634511655,-1.4226971700092785,-0.8371837704186053,0.01175128253201129,0.024547304950630375,-0.2351741221773788
4484,1.0,300.14886,9471.9905,0.0,-0.044840053149621806,0.0,0.0,0.0,0.0,-0.6301891670373284,-1.4194469676635086,-0.8296124110338702,0.003927445033733647,0.0026185955303852575,-0.24132576618449877
4485,1.0,300.07536,9304.8487,0.0,-0.04485008212709862,0.0,0.0,0.0,0.0,-0.6019187597072564,-1.4055948255464088,-0.8209280876067943,-0.008329013397984622,-0.011001704426033689,-0.23157507808718078
4486,1.0,299.84001,9300.421999999999,0.0,-0.044860078114517754,0.0,0.0,0.0,0.0,-0.6021898851690144,-1.4070073975108186,-0.8178987535178222,0.003118216590394017,-0.014770962374030487,-0.23804822635103076
4487,1.0,300.23301000000004,9464.5185,0.0,-0.04487007410193722,0.0,0.0,0.0,0.0,-0.6233494552848015,-1.4064581146316086,-0.8471697250566422,0.01117128905552039,-0.002554601389844528,-0.2291197299148568
4488,1.0,300.69755,9588.1937,0.0,-0.04488007008935635,0.0,0.0,0.0,0.0,-0.6458953136574044,-1.4250083934873787,-0.8436678009885293,-0.00042229512180728355,-0.009123673939336512,-0.24028225030401176
4489,1.0,300.79242,9460.3208,0.0,-0.044890066076775814,0.0,0.0,0.0,0.0,-0.6143490991515353,-1.4087567738084685,-0.8525954361621182,-0.014907219181227987,-0.0008893939946813533,-0.2358199576586178
4490,1.0,300.91716,9286.9349,0.0,-0.044900062064194945,0.0,0.0,0.0,0.0,-0.6283608889543914,-1.377073557756579,-0.8175618782570752,0.0036649362508260463,0.004461321546498156,-0.22158134168837576
4491,1.0,300.10913,9388.803,0.0,-0.0449100580516143,0.0,0.0,0.0,0.0,-0.6032736676084755,-1.4128365240111087,-0.8378515224995072,0.0002512116218451568,0.00994230433035404,-0.23641535354987878
4492,1.0,300.19178,9534.0352,0.0,-0.04492005403903376,0.0,0.0,0.0,0.0,-0.6297596705849404,-1.4034381227085588,-0.8649108325150532,-0.015161651347588486,-0.0034197108801741864,-0.2376831016774958
4493,1.0,300.24176,9498.2607,0.0,-0.04493008301651058,0.0,0.0,0.0,0.0,-0.6218084944002205,-1.4254903965599488,-0.8399352105351512,0.0016091224214580184,-0.014699222240450286,-0.2504025619053088
4494,1.0,300.40885,9296.2008,0.0,-0.04494007900392971,0.0,0.0,0.0,0.0,-0.6090454036231014,-1.3957270867975387,-0.8210404671753853,0.015801119565199088,-0.001242354560235849,-0.2411159220887888
4495,1.0,300.13344,9207.1901,0.0,-0.044950074991349065,0.0,0.0,0.0,0.0,-0.5925337941010325,-1.3968634467846885,-0.8093586662424812,0.027470232580350876,0.023441032411949777,-0.24985008728828376
4496,1.0,299.72697,9359.4404,0.0,-0.04496007097876831,0.0,0.0,0.0,0.0,-0.6185634190999565,-1.4128314577606087,-0.8136412691151412,-0.0013514902086316988,-0.0036014514711105866,-0.24161344815289076
4497,1.0,299.90065,9573.0514,0.0,-0.04497006696618766,0.0,0.0,0.0,0.0,-0.6246687271800034,-1.4194896254927185,-0.8658102135688153,-0.00983741602372737,0.005674562796910744,-0.2346642648595598
4498,1.0,300.43607000000003,9463.7065,0.0,-0.044980062953607125,0.0,0.0,0.0,0.0,-0.6207357665193504,-1.4148604910858589,-0.8411342197759842,-0.017231232915340285,0.012213095583088687,-0.2301237189089428
4499,1.0,299.58353999999997,9194.0252,0.0,-0.044990058941026256,0.0,0.0,0.0,0.0,-0.5996753530583494,-1.3868257859940487,-0.8082529773358582,0.019262650418075584,0.012233563235108687,-0.24130478177492776
4500,1.0,299.87585,9452.1973,0.0,-0.04500005492844572,0.0,0.0,0.0,0.0,-0.6134497586277774,-1.4138571708368386,-0.8459250688988041,-0.005711219247103454,0.0004113184821489736,-0.24359087665054777
4501,1.0,300.44222,9684.5831,0.0,-0.04501008390592243,0.0,0.0,0.0,0.0,-0.6467089129577004,-1.4360165452237985,-0.8611460105759942,0.0026181690534181675,-0.004668760693095806,-0.24588009233647573
4502,1.0,300.5274,9630.4808,0.0,-0.04502007989334167,0.0,0.0,0.0,0.0,-0.6451965459909413,-1.4255047847113684,-0.8567243593921111,-0.013000728323071987,-0.007252320770798333,-0.23658081729120875
4503,1.0,300.72011000000003,9318.9537,0.0,-0.04503007588076102,0.0,0.0,0.0,0.0,-0.6017122492043755,-1.4031062833008088,-0.8279106777559222,0.007508317192663212,0.004394339635387556,-0.24224323375254578
4504,1.0,300.46165,9125.8661,0.0,-0.045040071868180265,0.0,0.0,0.0,0.0,-0.5806660516422774,-1.4003109289249287,-0.7930584206912723,0.013068283733739187,-0.013950682715825185,-0.23854842739539675
4505,1.0,300.00287000000003,9381.4623,0.0,-0.04505006785559962,0.0,0.0,0.0,0.0,-0.6100251455422945,-1.4065672416673787,-0.8351379272741962,0.018967419736438583,-0.005745113476198555,-0.24652832922045176
4506,1.0,300.01883,9673.8298,0.0,-0.04506006384301897,0.0,0.0,0.0,0.0,-0.6431020161792275,-1.4423380099476786,-0.8551626876754861,0.0018432179490364485,0.01739078332908668,-0.23842225749294477
4507,1.0,299.90484,9465.1245,0.0,-0.045070059830438214,0.0,0.0,0.0,0.0,-0.6315604389276624,-1.4099980051809686,-0.8356030496001001,0.0074925705768341426,0.012650958441552387,-0.24309039189615378
4508,1.0,300.53878,9233.5511,0.0,-0.04508005581785757,0.0,0.0,0.0,0.0,-0.5965893478912844,-1.3842507121899088,-0.8259289226803382,-0.015246391479951686,0.0033328241774741372,-0.2287321516191058
4509,1.0,300.19734,9353.9128,0.0,-0.045090084795334384,0.0,0.0,0.0,0.0,-0.5869303994580204,-1.4214997110410987,-0.8349258337632641,-0.013400716906047789,0.0024918322686746978,-0.24571642204782276
4510,1.0,299.84145,9615.5252,0.0,-0.045100080782753627,0.0,0.0,0.0,0.0,-0.6503486289069125,-1.4102605382818787,-0.8622703432844572,-0.005646572776148344,0.007958257789668893,-0.22714475348244179
4511,1.0,300.16607,9670.0135,0.0,-0.04511007677017298,0.0,0.0,0.0,0.0,-0.6351136537158374,-1.4361327650102687,-0.8681962756993012,-0.005481265075333744,0.008148417475686192,-0.24483672844350374
4512,1.0,299.78666,9226.3755,0.0,-0.04512007275759222,0.0,0.0,0.0,0.0,-0.5984559470930034,-1.4019035554321089,-0.8042282364811473,0.004097022671794656,-0.01043918444751729,-0.25963054467353974
4513,1.0,299.95737,9217.7699,0.0,-0.045130068745011576,0.0,0.0,0.0,0.0,-0.5969045193348895,-1.3986898300899386,-0.8063774817982613,0.01034897073811389,-0.011404027537239889,-0.2460770681559158
4514,1.0,300.06524,9550.4818,0.0,-0.04514006473243093,0.0,0.0,0.0,0.0,-0.6332009820320714,-1.4376206214571088,-0.8322864084452732,0.00047354192760994953,0.02177426639495278,-0.25339138625528274
4515,1.0,299.49556,9547.9005,0.0,-0.04515006071985017,0.0,0.0,0.0,0.0,-0.6370272778546974,-1.4142981372803587,-0.8509978953919533,-0.019177567807178584,-0.0006372271110394194,-0.22894099259721679
4516,1.0,299.79937,9367.2994,0.0,-0.045160056707269525,0.0,0.0,0.0,0.0,-0.6195800331902884,-1.4070603904910486,-0.8207847025851432,-0.013680522881412489,-0.008398848013426764,-0.23767935265212575
4517,1.0,300.40224,9275.184000000001,0.0,-0.04517008568474634,0.0,0.0,0.0,0.0,-0.5932762227143045,-1.399512791821159,-0.8266353403850561,-0.011139847904917389,-0.01035598749505639,-0.2236011544377158
4518,1.0,300.16132000000005,9524.544,0.0,-0.04518008167216547,0.0,0.0,0.0,0.0,-0.6292914375812294,-1.4225438652691487,-0.8433882858159432,0.021296807749081277,0.013250192524192187,-0.23973368683237276
4519,1.0,299.99307000000005,9890.4841,0.0,-0.04519007765958494,0.0,0.0,0.0,0.0,-0.6626091375019304,-1.4522633013022286,-0.8915877926053641,0.012305971100504787,-0.007442479443565533,-0.2273560363932938
4520,1.0,299.7582,9748.8367,0.0,-0.04520007364700407,0.0,0.0,0.0,0.0,-0.6563185769061004,-1.4384348692374687,-0.8686494518065262,-0.014768011789739285,-0.011886288988585387,-0.24239680193770177
4521,1.0,299.5247,9261.6151,0.0,-0.045210069634423644,0.0,0.0,0.0,0.0,-0.5885550548008615,-1.3981943507910386,-0.8285503121465492,-0.013854804938362787,-0.016581130637930184,-0.23814606578068676
4522,1.0,299.78719,9167.5184,0.0,-0.045220065621842886,0.0,0.0,0.0,0.0,-0.5949269489822184,-1.4053768754498985,-0.7863928866309353,-0.0027342732280517573,0.016832031627692184,-0.24658516241856077
4523,1.0,300.22579,9491.6377,0.0,-0.04523006160926213,0.0,0.0,0.0,0.0,-0.6070900437126224,-1.4250324075147487,-0.8530983831142552,-0.012040241195529289,0.008749716258054761,-0.24883713103081276
4524,1.0,300.37625,9562.9131,0.0,-0.04524005759668148,0.0,0.0,0.0,0.0,-0.6474507234884114,-1.4137017382714987,-0.8457343752299842,-0.008989520436696591,-0.0016367806028126687,-0.24569865977356975
4525,1.0,299.70648,9418.9752,0.0,-0.0452500865741583,0.0,0.0,0.0,0.0,-0.6069064225295004,-1.4207450423666186,-0.8354817736956313,0.0004528018633005646,-0.0020402760443845682,-0.24292032799936975
4526,1.0,299.81897000000004,9256.8986,0.0,-0.04526008256157743,0.0,0.0,0.0,0.0,-0.5955910736277624,-1.3906532369217885,-0.8276216684298991,0.013539066074701787,0.00927366170393915,-0.23862244531520177
4527,1.0,299.66135,9519.0324,0.0,-0.045270078548996895,0.0,0.0,0.0,0.0,-0.6099359896659954,-1.4358144018288486,-0.8477977881311273,0.019084153240709282,-0.013482245035593988,-0.2488058013377208
4528,1.0,299.35374,9781.3324,0.0,-0.04528007453641625,0.0,0.0,0.0,0.0,-0.6582405198282814,-1.4385750017262986,-0.8764652983078901,-0.0004044173370428836,-0.026293905956256476,-0.24378998029519777
4529,1.0,299.29512,9689.2061,0.0,-0.0452900705238356,0.0,0.0,0.0,0.0,-0.6364980877249704,-1.4331983927206686,-0.8755802243455401,0.008252806250013562,-0.01065237125530719,-0.24054965713790277
4530,1.0,300.22272999999996,9319.4894,0.0,-0.045300066511254844,0.0,0.0,0.0,0.0,-0.6008161612134384,-1.4129532504226288,-0.8191226887111153,0.014690604548349787,0.02086244668296318,-0.24347928741703478
4531,1.0,299.95575,9236.6519,0.0,-0.045310062498673975,0.0,0.0,0.0,0.0,-0.5857820527221874,-1.4038550751247088,-0.8180743902901562,-0.004056570890702376,0.01100677979578459,-0.2426965517147848
4532,1.0,301.02865,9508.4723,0.0,-0.04532005848609344,0.0,0.0,0.0,0.0,-0.6129482504907824,-1.4363308554048186,-0.8410590872810692,-0.03162041785044227,0.002913237209739127,-0.25445748748049873
4533,1.0,300.25361000000004,9587.7867,0.0,-0.04533005447351257,0.0,0.0,0.0,0.0,-0.6489032783017674,-1.4169220497393185,-0.8486224217250122,-0.02155571240138318,0.011709702800907688,-0.24172879654427476
4534,1.0,300.1819,9463.0215,0.0,-0.04534008345098939,0.0,0.0,0.0,0.0,-0.6220850914125184,-1.4236359462269288,-0.8308011965811943,-0.003415331106616937,0.019161472329340082,-0.25318183600210176
4535,1.0,299.64567999999997,9284.6082,0.0,-0.04535007943840874,0.0,0.0,0.0,0.0,-0.5921843444065444,-1.4073676079213686,-0.8227371544678352,0.024645232533045076,0.003649242020027147,-0.24639716399500677
4536,1.0,300.29207,9517.1287,0.0,-0.045360075425828206,0.0,0.0,0.0,0.0,-0.6276182982211034,-1.4256198899227288,-0.8397312838200252,0.01804068396972688,-0.022035316097716376,-0.24685475787266775
4537,1.0,299.4298,9722.1966,0.0,-0.04537007141324756,0.0,0.0,0.0,0.0,-0.6460779013254243,-1.4274570136790385,-0.8817701084114342,0.03842839157008696,-0.00976923746424867,-0.24548445870242977
4538,1.0,299.91046,9661.0448,0.0,-0.0453800674006668,0.0,0.0,0.0,0.0,-0.6356307051093664,-1.4342825703276687,-0.8668031378718092,0.0063656260135883744,-0.002353944331466218,-0.23528682598600176
4539,1.0,299.66569,9329.095,0.0,-0.04539006338808593,0.0,0.0,0.0,0.0,-0.6087884737952445,-1.3994935400692587,-0.8275299287658452,-0.00017740505587851584,-0.012388676626667188,-0.2396408123282068
4540,1.0,300.01417999999995,9352.7223,0.0,-0.045400059375505286,0.0,0.0,0.0,0.0,-0.6047175591334765,-1.4164231253900785,-0.8218533774656132,-0.024725370483454075,-0.004226530524051086,-0.23655831300648777
4541,1.0,299.68802999999997,9689.0229,0.0,-0.04541005536292475,0.0,0.0,0.0,0.0,-0.6342043326785943,-1.4440723901438486,-0.8669443038757411,-0.013001526764150787,0.018082252555079382,-0.23852533542561777
4542,1.0,299.68387,9749.0769,0.0,-0.045420084340401345,0.0,0.0,0.0,0.0,-0.6606458337106673,-1.4309007467939088,-0.8719293727777293,-0.01004463995600378,0.027516242240891678,-0.23173728929568976
4543,1.0,300.08999,9441.6985,0.0,-0.0454300803278207,0.0,0.0,0.0,0.0,-0.5897966104133934,-1.4277144805294486,-0.8525294634481071,-0.015382435504628185,0.0017131880703284983,-0.26266854205086676
4544,1.0,300.47728,9248.9533,0.0,-0.04544007631524005,0.0,0.0,0.0,0.0,-0.5871152365412624,-1.4127882933063487,-0.8115473371209861,0.005646773500993155,-0.015882913166271485,-0.25434896839478877
4545,1.0,300.21316,9452.0134,0.0,-0.04545007230265952,0.0,0.0,0.0,0.0,-0.6252910653914234,-1.4142571006513087,-0.8336278705176653,0.015224403952781684,-0.0047095630587226855,-0.24855435319290478
4546,1.0,299.82322999999997,9713.4448,0.0,-0.04546006829007865,0.0,0.0,0.0,0.0,-0.6650244521628034,-1.4394524763128986,-0.8481677358751382,0.029319641994123374,0.011499894168951188,-0.25101333893308775
4547,1.0,300.32857,9623.2282,0.0,-0.04547006427749789,0.0,0.0,0.0,0.0,-0.6453179637504244,-1.4257062188312486,-0.854196948872675,0.013378699994624887,-0.02006865439562198,-0.24092758929270178
4548,1.0,299.98587000000003,9307.0025,0.0,-0.045480060264917244,0.0,0.0,0.0,0.0,-0.6024580012779754,-1.4135042558270088,-0.8131340665125842,-0.004377428693868576,-0.018828995587277183,-0.24465369494543976
4549,1.0,300.29705,9358.8174,0.0,-0.04549005625233671,0.0,0.0,0.0,0.0,-0.5845600731015874,-1.4119427360978987,-0.8483440109950352,-0.005117362888044395,0.0012308903446294189,-0.22897481488555477
4550,1.0,299.42638999999997,9678.6946,0.0,-0.0455000852298133,0.0,0.0,0.0,0.0,-0.6487945261685344,-1.4253060863667588,-0.8679808181980372,-0.003164023094289767,0.006012615758248974,-0.2512584036022738
4551,1.0,299.37913,9891.4725,0.0,-0.04551008121723288,0.0,0.0,0.0,0.0,-0.6688073606161474,-1.4498944238934386,-0.8880589160845911,-0.014926546926885486,-0.004654848161272746,-0.23138862993627976
4552,1.0,299.33542,9619.6979,0.0,-0.04552007720465201,0.0,0.0,0.0,0.0,-0.6304030641334384,-1.4351753449907787,-0.8585695992817222,-0.007870449130702853,-0.01197132802972809,-0.2636956838097378
4553,1.0,300.06291,9307.0683,0.0,-0.045530073192071474,0.0,0.0,0.0,0.0,-0.6037882365392594,-1.4016410223311988,-0.8236870865690862,0.018159948572747383,0.007877331530682092,-0.2300067087873948
4554,1.0,300.11575,9518.4447,0.0,-0.045540069179490605,0.0,0.0,0.0,0.0,-0.6226868606469084,-1.4341224768118686,-0.8365601453795583,0.022941649060414477,0.011906873164366887,-0.26215930281560873
4555,1.0,299.6935,9797.9688,0.0,-0.04555006516690985,0.0,0.0,0.0,0.0,-0.6439655788419544,-1.4356829832908786,-0.8986893484487332,-0.014159304831914589,-0.006808882604984394,-0.23189660260891276
4556,1.0,300.15879,9672.3844,0.0,-0.0455600611543292,0.0,0.0,0.0,0.0,-0.6416659874750024,-1.4458696931712285,-0.8526276676477993,-0.023091334471187275,-0.012888781412273688,-0.25813078253802474
4557,1.0,299.70918,9388.044,0.0,-0.045570057141748554,0.0,0.0,0.0,0.0,-0.6058925746119415,-1.4165999375325287,-0.8312384646618491,-0.013657291083119687,0.02130879855076468,-0.2191235110533068
4558,1.0,299.72912,9370.2292,0.0,-0.04558008611922537,0.0,0.0,0.0,0.0,-0.6197850542155224,-1.3993467201297685,-0.8291838873015782,0.01081599696095579,0.024201495863751678,-0.24238630466666578
4559,1.0,300.46469,9786.6679,0.0,-0.045590082106644725,0.0,0.0,0.0,0.0,-0.6555955520322434,-1.4506210255401486,-0.8686860605326393,0.005604771447247875,-0.01047916121696269,-0.23903376406079577
4560,1.0,300.4438,9832.7336,0.0,-0.04560007809406397,0.0,0.0,0.0,0.0,-0.6531409030024883,-1.4487321247037286,-0.8870324734682892,0.0027039634725104173,-0.006520704346693414,-0.23985799235464078
4561,1.0,299.48644,9447.2946,0.0,-0.04561007408148332,0.0,0.0,0.0,0.0,-0.5777492795069145,-1.4356929131418588,-0.8582994769375633,0.007527601165916393,-0.004728553797396925,-0.24755816622458876
4562,1.0,300.34643,9250.3219,0.0,-0.04562007006890256,0.0,0.0,0.0,0.0,-0.5875039902071295,-1.4110511773349088,-0.8133117297851182,0.02302347001923958,-0.0037098355919072666,-0.24260959459120277
4563,1.0,299.90693,9488.4506,0.0,-0.045630066056321805,0.0,0.0,0.0,0.0,-0.6062698785516785,-1.4254409499550686,-0.8525412070167662,-0.01132345287603779,-0.000959128217303585,-0.25337297550096577
4564,1.0,299.8657,9788.3615,0.0,-0.04564006204374127,0.0,0.0,0.0,0.0,-0.6632345762586564,-1.4542737921506486,-0.8579090716740331,-0.01274969358429679,-0.0013325737411897887,-0.23708222410319377
4565,1.0,299.54426,9662.2841,0.0,-0.04565005803116051,0.0,0.0,0.0,0.0,-0.6539637735411994,-1.4321387357660884,-0.8509906202562353,-0.009426281284351532,0.01984369868792058,-0.23985993779483275
4566,1.0,299.84596,9386.2188,0.0,-0.04566008700863733,0.0,0.0,0.0,0.0,-0.5892209222365774,-1.4297767484579786,-0.8341785010195082,-0.012212335645513689,0.008458115848876041,-0.23991158315242977
4567,1.0,300.34394,9466.9142,0.0,-0.04567008299605668,0.0,0.0,0.0,0.0,-0.6128409067751884,-1.4281848312258687,-0.8366797595538631,0.008064934685372081,-0.015653851769164884,-0.25375334958850576
4568,1.0,300.85401,9836.404,0.0,-0.045680078983475925,0.0,0.0,0.0,0.0,-0.6529645366900825,-1.4500127715051185,-0.8870438826644151,-0.01107436763045499,-0.006806713439170313,-0.2333936289691578
4569,1.0,300.32141,9763.1658,0.0,-0.04569007497089528,0.0,0.0,0.0,0.0,-0.6507187286384384,-1.4558007600513487,-0.8612391079951821,0.015098717370627384,0.006723267024534794,-0.24143171161495477
4570,1.0,300.06913,9450.4941,0.0,-0.04570007095831452,0.0,0.0,0.0,0.0,-0.6216258560696954,-1.4241047770481987,-0.8269835843119252,0.0015741758308090584,-0.006713884936558854,-0.24022503207086476
4571,1.0,299.44485,9300.3957,0.0,-0.045710066945733874,0.0,0.0,0.0,0.0,-0.6038676550820974,-1.4210998825516385,-0.8021205242856322,0.0029922417385862673,-0.0029171813870783876,-0.25699262909819776
4572,1.0,299.54023,9531.1315,0.0,-0.04572006293315323,0.0,0.0,0.0,0.0,-0.6072524170411474,-1.4327360467000385,-0.8572374692427512,-0.0005618241594077274,-0.02139476572899898,-0.2600688665342988
4573,1.0,299.47425,9778.690999999999,0.0,-0.04573005892057247,0.0,0.0,0.0,0.0,-0.6465399231060224,-1.4495904488634386,-0.8763475485137692,0.01011562795403475,-0.0014746508596117085,-0.24670608368549476
4574,1.0,299.12778,9664.8504,0.0,-0.04574005490799182,0.0,0.0,0.0,0.0,-0.6234965184043154,-1.4552299962700186,-0.8591466756111752,-0.009332803491075991,-0.007374570611263453,-0.23811976180809077
4575,1.0,299.84578,9415.3411,0.0,-0.04575008388546864,0.0,0.0,0.0,0.0,-0.6080914286539514,-1.4201202723549589,-0.8338168619263171,-0.004539683370806866,-0.002522258547977538,-0.25047327662978774
4576,1.0,300.20268,9554.1099,0.0,-0.04576007987288788,0.0,0.0,0.0,0.0,-0.6397727499281544,-1.4267986037640588,-0.8376394391210763,0.005880401413650434,0.009214179768743742,-0.2088258300220048
4577,1.0,299.7867,9737.9398,0.0,-0.045770075860307236,0.0,0.0,0.0,0.0,-0.6491359813197334,-1.4481410959203986,-0.8628134960005622,0.008247347162449792,0.017740941285394583,-0.2403546875536608
4578,1.0,299.54289,9765.1811,0.0,-0.04578007184772637,0.0,0.0,0.0,0.0,-0.6351370395281454,-1.4575438541983785,-0.8756902734389012,-0.0014725592074302785,-0.0007471485450203202,-0.22783142294271078
4579,1.0,300.21296,9547.0351,0.0,-0.04579006783514583,0.0,0.0,0.0,0.0,-0.6147454521931525,-1.4602540955658587,-0.8270607635720423,-0.0068001037047929844,-0.012100145554691386,-0.28101544134656475
4580,1.0,299.96571,9469.1134,0.0,-0.045800063822565185,0.0,0.0,0.0,0.0,-0.6190729319127414,-1.4279713394297986,-0.8313297179658552,0.0025956155247423077,-0.015550464795211385,-0.24241514176451176
4581,1.0,300.11331,9614.7111,0.0,-0.04581005980998443,0.0,0.0,0.0,0.0,-0.6347152336440164,-1.4408188440727485,-0.8470979768170612,0.0026813003101737376,0.003958693666817646,-0.2648228232209777
4582,1.0,300.57309,9703.5279,0.0,-0.04582005579740378,0.0,0.0,0.0,0.0,-0.6473859362770173,-1.4473664662189487,-0.8548777516148652,0.003004960965766557,-0.011950867470458789,-0.23129587702212576
4583,1.0,299.69374,9579.1665,0.0,-0.0458300847748806,0.0,0.0,0.0,0.0,-0.6139754429121584,-1.4367749629236486,-0.8610770487741882,-0.002529980425664628,0.003199900456480587,-0.25972239579510475
4584,1.0,299.4734,9398.1663,0.0,-0.04584008076229973,0.0,0.0,0.0,0.0,-0.5885393494243114,-1.4243174582441886,-0.8439510753189862,0.004567050040107746,0.005183335298080365,-0.24007753325380776
4585,1.0,299.83147,9508.9182,0.0,-0.04585007674971919,0.0,0.0,0.0,0.0,-0.6062574257079494,-1.4283227345644787,-0.8558935145751131,0.008425572282164243,0.005985431777941124,-0.23943411944030776
4586,1.0,299.14196,9814.5398,0.0,-0.045860072737138324,0.0,0.0,0.0,0.0,-0.6584786639992843,-1.4447190463576687,-0.8801772792542343,-0.003366585974781167,-0.0025636100951586176,-0.24231133429176677
4587,1.0,298.92372,9900.9686,0.0,-0.04587006872455779,0.0,0.0,0.0,0.0,-0.6675914807611494,-1.4808394872474786,-0.8612162997354312,-0.008488043406479663,0.0027042347195621874,-0.2215480057600858
4588,1.0,299.86944,9630.1613,0.0,-0.04588006471197714,0.0,0.0,0.0,0.0,-0.6531946559202935,-1.4243159383690385,-0.8498179453855012,-0.003896036915083906,-0.002788547665683227,-0.24131106392554777
4589,1.0,299.80902000000003,9597.2988,0.0,-0.04589006069939627,0.0,0.0,0.0,0.0,-0.6227437546400234,-1.4369767010185588,-0.8576187045928763,-0.0032540117608459568,0.01824294186193818,-0.2267661323175748
4590,1.0,300.1685,9758.3898,0.0,-0.04590005668681574,0.0,0.0,0.0,0.0,-0.6429315165849003,-1.4562708067727386,-0.8671045493790561,0.015234867786564384,-0.002964940829216877,-0.26657938346183674
4591,1.0,299.96124,9842.9024,0.0,-0.045910085664292555,0.0,0.0,0.0,0.0,-0.6530411687951454,-1.4524275491434386,-0.8865278445209862,0.004708495599742336,-0.0005116758079059705,-0.25424217183424874
4592,1.0,299.77475,9622.038,0.0,-0.045920081651711686,0.0,0.0,0.0,0.0,-0.6308322566107964,-1.4437380176108485,-0.8502889749594881,0.006836419702952093,0.003952297525561396,-0.26072154145371274
4593,1.0,300.09246,9380.6282,0.0,-0.04593007763913104,0.0,0.0,0.0,0.0,-0.6149242199082954,-1.4111210915918087,-0.8254314472787412,0.002917244917859657,0.008861045795567131,-0.2283470051235948
4594,1.0,299.72449,9415.8432,0.0,-0.045940073626550504,0.0,0.0,0.0,0.0,-0.5945207978121344,-1.4232733040161385,-0.8443871477645232,0.0028922624260440772,0.005447134049690275,-0.24697021772156277
4595,1.0,300.13306,9690.268,0.0,-0.045950069613969635,0.0,0.0,0.0,0.0,-0.6143920204257713,-1.4589845945155684,-0.8722228910666971,-0.01040046512144599,0.008760176646787122,-0.24999596490518075
4596,1.0,299.85855,9840.9744,0.0,-0.0459600656013891,0.0,0.0,0.0,0.0,-0.6317695332182983,-1.4659743990054088,-0.8936665663780232,-0.0015466096525634885,-0.0012424279195430887,-0.23335723302556577
4597,1.0,299.92082,9676.7978,0.0,-0.04597006158880823,0.0,0.0,0.0,0.0,-0.6363123488491395,-1.4503833170666887,-0.8548092761731071,-0.005713232980352194,-0.0017668642851009283,-0.24987007871275677
4598,1.0,299.49348,9521.8932,0.0,-0.045980057576227695,0.0,0.0,0.0,0.0,-0.6272584424480884,-1.4420566303949087,-0.8251026577537922,0.013990404146245385,-0.017512121041811785,-0.2515661884526498
4599,1.0,299.5759,9740.7091,0.0,-0.0459900865537044,0.0,0.0,0.0,0.0,-0.6593243022677424,-1.4512424518264788,-0.8503655564020463,0.009655154419589551,-0.01835344995759448,-0.25882710827174676
4600,1.0,298.90416,9804.2077,0.0,-0.046000082541123644,0.0,0.0,0.0,0.0,-0.6545335342049303,-1.4625483977672886,-0.8631524281590122,0.011280542747552889,0.0005910213562067664,-0.2549931624108658
4601,1.0,300.03357,9590.4285,0.0,-0.046010078528543,0.0,0.0,0.0,0.0,-0.6112070105914355,-1.4371993120655286,-0.8668445088733921,0.003941614728432086,0.003075167849295437,-0.25485959578268375
4602,1.0,299.87593,9425.3876,0.0,-0.04602007451596235,0.0,0.0,0.0,0.0,-0.6017840481064615,-1.4218828209039087,-0.8414156601237601,-0.013521897565007386,-0.009066224279866671,-0.2540459559523838
4603,1.0,299.87094,9539.1393,0.0,-0.04603007050338159,0.0,0.0,0.0,0.0,-0.6177127652435035,-1.4434588672082986,-0.8384885528373773,-0.003616717705067247,0.015240664590386484,-0.25691207571524777
4604,1.0,299.884,9821.5567,0.0,-0.046040066490800946,0.0,0.0,0.0,0.0,-0.6517602382837274,-1.4525823737587185,-0.8811654210167561,-0.003981632838481566,0.013059517093873988,-0.24001866342299774
4605,1.0,300.50344,9927.7525,0.0,-0.04605006247822019,0.0,0.0,0.0,0.0,-0.6744568682712104,-1.4708664718132185,-0.8724655340681442,0.007431444339376453,0.01197662124825049,-0.2268847028442768
4606,1.0,299.75285,9695.9739,0.0,-0.04606005846563954,0.0,0.0,0.0,0.0,-0.6199694454687203,-1.4587668470690787,-0.8685976341964121,-0.022108585225697478,-0.001815028115354328,-0.2433482133840988
4607,1.0,300.07248,9568.1567,0.0,-0.04607008744311636,0.0,0.0,0.0,0.0,-0.6023960612993624,-1.4379927882188384,-0.8680918906739992,-0.0025750578961134273,-0.008788272045559922,-0.24302682058487976
4608,1.0,299.87708,9796.4335,0.0,-0.0460800834305356,0.0,0.0,0.0,0.0,-0.6347211408920994,-1.4761779288374186,-0.8669721277234872,-0.005583981379046055,-0.005731325675462805,-0.25317080170851275
4609,1.0,299.64912999999996,9825.7072,0.0,-0.046090079417955176,0.0,0.0,0.0,0.0,-0.6682196856906484,-1.4427582047641487,-0.875791760568917,0.0038316973575840867,0.003358035663812317,-0.24679166278894077
4610,1.0,299.54002,9635.3498,0.0,-0.04610007540537431,0.0,0.0,0.0,0.0,-0.6440088851512284,-1.4501076117144787,-0.8347892881797883,0.01197787869162459,-0.014229715581363588,-0.2655699026522087
4611,1.0,299.55076,9306.6359,0.0,-0.04611007139279355,0.0,0.0,0.0,0.0,-0.6113906013770544,-1.4151892907433086,-0.8024050651787142,0.005370394641441684,-0.006136132060014084,-0.26495705859422575
4612,1.0,299.11562999999995,9487.0162,0.0,-0.046120067380212904,0.0,0.0,0.0,0.0,-0.5949499801569914,-1.4309742074261589,-0.8578918768198363,0.012893169798456788,9.77848539791137e-05,-0.2579892314990547
4613,1.0,299.69586,9811.3626,0.0,-0.046130063367632146,0.0,0.0,0.0,0.0,-0.6236488402918484,-1.4681000963901987,-0.8906602735963253,0.015596751073029486,-0.00984107203273819,-0.24520972607031574
4614,1.0,299.64,9867.336,0.0,-0.0461400593550515,0.0,0.0,0.0,0.0,-0.6454696472903944,-1.4610091695403786,-0.8929449397893042,-0.007235124700701212,-0.0006480481864098764,-0.2435734183513248
4615,1.0,300.1096,9771.7621,0.0,-0.04615005534247085,0.0,0.0,0.0,0.0,-0.6493765268934734,-1.4456340111979684,-0.8753611799389222,-0.015688467432331186,-0.0009181860535604082,-0.23324024316901978
4616,1.0,300.29127,9648.3248,0.0,-0.04616008431994767,0.0,0.0,0.0,0.0,-0.6419124098993224,-1.4555630515778886,-0.8353743286550273,-0.00933397744264185,0.016862056254655384,-0.2401181848478198
4617,1.0,300.13934,9781.3503,0.0,-0.04617008030736702,0.0,0.0,0.0,0.0,-0.6531822841365723,-1.4527184532471487,-0.8673855540292892,-0.02075506851686578,0.023558692026811878,-0.22003454448321877
4618,1.0,300.07248,10020.699,0.0,-0.046180076294786265,0.0,0.0,0.0,0.0,-0.6615078967632464,-1.4832414979345385,-0.9012928540506793,-0.016033115334595286,0.0069001364156154425,-0.2580572813757708
4619,1.0,300.42817,9835.9017,0.0,-0.04619007228220551,0.0,0.0,0.0,0.0,-0.6462551187679144,-1.4709315224696387,-0.8726819034944981,-0.01082437957903309,-0.013440597416733688,-0.2399724186884338
4620,1.0,299.66569,9322.4516,0.0,-0.04620006826962486,0.0,0.0,0.0,0.0,-0.5864713465002155,-1.4092048330026885,-0.8381163556781442,0.0025724612400821576,-0.0025889046680049976,-0.26713012542119074
4621,1.0,300.19309,9540.2381,0.0,-0.0462100642570441,0.0,0.0,0.0,0.0,-0.6180203981063643,-1.4440057182872685,-0.8379680867910111,0.02541094664686518,-0.006062028723225654,-0.24914841159403378
4622,1.0,299.63447,9907.3528,0.0,-0.04622006024446346,0.0,0.0,0.0,0.0,-0.6716086121076094,-1.4530172607016385,-0.8869619613938301,0.027191886698380272,-0.0014048486681727684,-0.2735669790664587
4623,1.0,298.99428,9880.4703,0.0,-0.04623005623188281,0.0,0.0,0.0,0.0,-0.6572247568680334,-1.4559525449163286,-0.8902389439397431,0.017618777773837985,0.0025963544880402375,-0.2396677141183618
4624,1.0,300.0511,9679.9159,0.0,-0.04624008520935963,0.0,0.0,0.0,0.0,-0.6000521807705395,-1.4715590282565685,-0.8708415069403651,0.0027481399609702974,0.012563749018695489,-0.2709300362112127
4625,1.0,300.01061,9569.8616,0.0,-0.04625008119677898,0.0,0.0,0.0,0.0,-0.6050166097679904,-1.4383551264545986,-0.8656272307332561,-0.007452322459011963,0.006352286272046844,-0.2170664917602948
4626,1.0,299.52729,9753.319,0.0,-0.04626007718419822,0.0,0.0,0.0,0.0,-0.6253974769169255,-1.4849758781307087,-0.8543920907094341,-0.013758501595858385,0.003939471805795596,-0.26705906619167774
4627,1.0,300.31047,10007.440999999999,0.0,-0.046270073171617354,0.0,0.0,0.0,0.0,-0.6920772368477053,-1.4717980539551587,-0.8781368975278642,-0.012284617867897389,0.004523546653689295,-0.22907557247549878
4628,1.0,300.13452,9737.551,0.0,-0.04628006915903682,0.0,0.0,0.0,0.0,-0.6538011165026464,-1.4431931930320787,-0.8629780174192992,-0.015742918479455085,0.008084840591536644,-0.2501076554637037
4629,1.0,299.6839,9477.6152,0.0,-0.04629006514645617,0.0,0.0,0.0,0.0,-0.6011841027222514,-1.4381967554639685,-0.8415774761647301,-0.02265012890064368,0.002448309326529318,-0.24181899606817678
4630,1.0,300.38287,9669.253,0.0,-0.046300061133875525,0.0,0.0,0.0,0.0,-0.6094570263437253,-1.4477199891788384,-0.8820344957600271,-0.011801570134474288,-0.009120586262306782,-0.26274580237099177
4631,1.0,299.48971,9910.2623,0.0,-0.04631005712129477,0.0,0.0,0.0,0.0,-0.6649990195852934,-1.4595151322679285,-0.8879580774346392,0.02049380704483128,-0.02183801502499428,-0.25790724943346377
4632,1.0,299.36306,9882.4036,0.0,-0.046320086098771585,0.0,0.0,0.0,0.0,-0.6580334115078413,-1.4643907904241187,-0.8815797389826461,0.025311083756759476,-0.0038226211698133366,-0.25454828482195974
4633,1.0,300.09469,9585.5951,0.0,-0.04633008208619094,0.0,0.0,0.0,0.0,-0.6377048280640664,-1.4452619457612486,-0.8308148450600411,0.015859070378168385,-0.018163852625382684,-0.24840246700291474
4634,1.0,299.54332,9557.2955,0.0,-0.04634007807361018,0.0,0.0,0.0,0.0,-0.6066475979239564,-1.4701790829453787,-0.8283524851970252,0.013819087872337788,-0.005609457222335325,-0.25338748524239774
4635,1.0,299.88006,9987.1641,0.0,-0.04635007406102931,0.0,0.0,0.0,0.0,-0.6508504004889334,-1.4843621525451385,-0.9006359234808452,-0.0007534314657103963,0.013527581898068386,-0.24283841686128577
4636,1.0,300.04037,10016.459,0.0,-0.046360070048448776,0.0,0.0,0.0,0.0,-0.6551870805194304,-1.4787179441880984,-0.9108484003112381,-0.008764306451544702,0.014571677357612587,-0.23019918577639076
4637,1.0,300.18494,9734.0482,0.0,-0.04637006603586813,0.0,0.0,0.0,0.0,-0.6342298767136154,-1.4654196445756587,-0.8592581229896743,-0.013163868681922687,0.012931684448007887,-0.24985634917390173
4638,1.0,300.49595,9593.3557,0.0,-0.04638006202328748,0.0,0.0,0.0,0.0,-0.6150153313572874,-1.4494170817713286,-0.8517081431820491,-0.026212237998196476,0.01308728115986409,-0.24166597503807477
4639,1.0,300.23826,9715.5578,0.0,-0.046390058010706725,0.0,0.0,0.0,0.0,-0.6446576691902584,-1.4644418582291587,-0.8441874463023142,0.011807131864273188,-0.004536959653213056,-0.2553602426570938
4640,1.0,300.17774,9954.2653,0.0,-0.04640008698818354,0.0,0.0,0.0,0.0,-0.6648558676111654,-1.4708030423569587,-0.8901891730948313,-0.0033924968063383664,0.011569335238054488,-0.23910535018036075
4641,1.0,300.11404,9783.0975,0.0,-0.046410082975602895,0.0,0.0,0.0,0.0,-0.6467193899637343,-1.4468257959655886,-0.8802722106561032,-0.0008003632142396991,0.008149755979068293,-0.25286046346788477
4642,1.0,299.42111,9496.1856,0.0,-0.04642007896302203,0.0,0.0,0.0,0.0,-0.5915244551464184,-1.4550770968299287,-0.8400017202717152,-0.007420051760552093,-0.009464577781156102,-0.2614609708466888
4643,1.0,299.57822000000004,9574.7673,0.0,-0.04643007495044127,0.0,0.0,0.0,0.0,-0.6297625178177214,-1.4352159763197885,-0.8455116729905052,0.00911194931845438,0.005028580901032295,-0.26590572413285174
4644,1.0,299.85343,10046.902,0.0,-0.04644007093786062,0.0,0.0,0.0,0.0,-0.6761052437988924,-1.4857987385369185,-0.8921032835937391,0.01875723924169538,0.008914927902759882,-0.24444838007767675
4645,1.0,299.34709,10084.676,0.0,-0.04645006692528009,0.0,0.0,0.0,0.0,-0.7040767423494644,-1.4814946547621386,-0.8799183634561812,0.008891245106847571,-0.005792120884112824,-0.2409165549991128
4646,1.0,299.91037,9788.765,0.0,-0.04646006291269944,0.0,0.0,0.0,0.0,-0.6274763114845904,-1.4660785611156886,-0.8819852923351712,-0.013929709452005286,0.004438949693565225,-0.23805805487700077
4647,1.0,300.00977,9644.2378,0.0,-0.04647005890011868,0.0,0.0,0.0,0.0,-0.6099294643353514,-1.4677863941592386,-0.8538916059550402,-0.017729299041745583,-0.01109691041867979,-0.24005771408185175
4648,1.0,300.39287,9856.1151,0.0,-0.04648008787759539,0.0,0.0,0.0,0.0,-0.6367908460763634,-1.4569685307915985,-0.9022534658079843,-0.005244377537104766,0.01865353106746018,-0.22150628012096776
4649,1.0,300.00169,9921.6463,0.0,-0.04649008386501485,0.0,0.0,0.0,0.0,-0.6703862271869693,-1.4724385293433686,-0.8731079650290472,-0.01143660454120499,0.0055987999591085354,-0.24722143281885578
4650,1.0,299.62819,9729.7302,0.0,-0.046500079852433984,0.0,0.0,0.0,0.0,-0.6338182134629874,-1.4690050300545088,-0.8547717859194072,-0.013899240008248185,0.003050361764322267,-0.26211236907097674
4651,1.0,299.81686,9667.997,0.0,-0.04651007583985323,0.0,0.0,0.0,0.0,-0.6434562889441914,-1.4510638158338487,-0.8443096037343701,-0.0033581700207755767,-0.003928306093668626,-0.25843349100539975
4652,1.0,300.38027,9749.3636,0.0,-0.0465200718272728,0.0,0.0,0.0,0.0,-0.6189389397195174,-1.4746993942914985,-0.869924738514887,0.0024088391821339176,0.016343372515215285,-0.25651939063899276
4653,1.0,300.17251,9948.7725,0.0,-0.04653006781469193,0.0,0.0,0.0,0.0,-0.6457926004947674,-1.4861338203449885,-0.8922520084434171,0.016271680004389784,-0.003986370694624156,-0.2531037042868908
4654,1.0,301.02576,10000.58,0.0,-0.0465400638021114,0.0,0.0,0.0,0.0,-0.6627004009384373,-1.4695797455112285,-0.907646570525242,0.012933997697986187,-0.005580322026309905,-0.24626201669666878
4655,1.0,300.10249,9789.2017,0.0,-0.04655005978953053,0.0,0.0,0.0,0.0,-0.6418823872988594,-1.4806886143075884,-0.8531019193571041,0.009984699423813111,-0.0010305803244103592,-0.2516811214114928
4656,1.0,300.351,9635.3477,0.0,-0.04656005577694977,0.0,0.0,0.0,0.0,-0.6310590219831763,-1.4450932396195986,-0.8527528749626562,0.007925763466911952,0.0007324278449175002,-0.23131922230442975
4657,1.0,300.34308,9831.73,0.0,-0.0465700847544267,0.0,0.0,0.0,0.0,-0.6481027093977574,-1.4809499315083785,-0.8595477909282623,0.004874636496114165,0.004516277293496866,-0.24335019935429478
4658,1.0,299.53762,10007.089,0.0,-0.04658008074184594,0.0,0.0,0.0,0.0,-0.6518864892461874,-1.4885952074879087,-0.9014234315910662,-0.008116462201982453,-0.003350767012894957,-0.24349388835097577
4659,1.0,299.42876,9886.7085,0.0,-0.046590076729265295,0.0,0.0,0.0,0.0,-0.6343596132564194,-1.4799493470346285,-0.8910035829952072,-0.017858566449753283,-0.007724874171610723,-0.2530057939297278
4660,1.0,300.5878,9705.7728,0.0,-0.04660007271668476,0.0,0.0,0.0,0.0,-0.6277914018681874,-1.4702890205812285,-0.8522321758687672,-0.015922234362902184,0.01737180718121388,-0.24553788738020277
4661,1.0,299.84447,9737.3468,0.0,-0.04661006870410389,0.0,0.0,0.0,0.0,-0.6358361516996424,-1.4551406276111987,-0.8689335164720612,-0.013898303765155787,-0.003794031811616786,-0.25400137294798375
4662,1.0,300.15979,9962.4953,0.0,-0.046620064691523244,0.0,0.0,0.0,0.0,-0.6788818125179183,-1.4721130734112486,-0.8773548913656861,0.006291357618358654,0.004849343139167905,-0.25403412119121577
4663,1.0,299.76089,9899.7066,0.0,-0.046630060678942487,0.0,0.0,0.0,0.0,-0.6605866497723263,-1.4710363938549886,-0.8776405367013772,-0.006147330297469264,0.0014732510545985586,-0.2583373639684128
4664,1.0,299.87796000000003,9717.3901,0.0,-0.04664005666636173,0.0,0.0,0.0,0.0,-0.6319047007816384,-1.4398821956803087,-0.882057050707253,0.004537182466910045,0.004646329463707016,-0.23266746301999078
4665,1.0,299.31998,9632.848,0.0,-0.04665008564383866,0.0,0.0,0.0,0.0,-0.6025873730507435,-1.4717074693962184,-0.8538503970734732,0.008033751710894562,-0.006773128352680724,-0.24593880004726978
4666,1.0,298.84901,9809.5393,0.0,-0.0466600816312579,0.0,0.0,0.0,0.0,-0.6471082550871123,-1.4603442748247586,-0.8744024629593042,0.022996211565049378,-0.0018337419327762383,-0.23918564011828478
4667,1.0,299.08675,10125.325,0.0,-0.04667007761867725,0.0,0.0,0.0,0.0,-0.6776852756073294,-1.5018257206686587,-0.8983349439612562,0.018181376785862183,-0.0058048503451191245,-0.25712086603085377
4668,1.0,299.53432000000004,10053.716999999999,0.0,-0.046680073606096606,0.0,0.0,0.0,0.0,-0.6792379496630664,-1.5062093445762885,-0.8706315007246391,0.00017952908140064083,-0.0022790105348958274,-0.24913122687233777
4669,1.0,299.34212,9746.4489,0.0,-0.04669006959351585,0.0,0.0,0.0,0.0,-0.6305556899960014,-1.4737066118435185,-0.8584148151964462,-0.0008835921347412543,0.007590734955797212,-0.2668961659731008
4670,1.0,300.2341,9766.1857,0.0,-0.0467000655809352,0.0,0.0,0.0,0.0,-0.6166977926183335,-1.4831409835246185,-0.8688377947351142,-0.016100286723474584,0.007471566814186233,-0.25905123919386674
4671,1.0,300.03038,9831.0667,0.0,-0.046710061568354444,0.0,0.0,0.0,0.0,-0.6384695684445404,-1.4719237982925686,-0.8780053979298862,-0.003450218219485027,0.006523371727581664,-0.26316837832519674
4672,1.0,299.98885,9825.1797,0.0,-0.0467200575557738,0.0,0.0,0.0,0.0,-0.6395441505730934,-1.4633956775009087,-0.8836694254588822,-0.02008251160398958,-0.0020326619765081177,-0.23261625335993677
4673,1.0,300.22941000000003,9732.5989,0.0,-0.046730086533250614,0.0,0.0,0.0,0.0,-0.6346296950705744,-1.4808277335463185,-0.8430096139885712,-0.0018472098504554182,0.011236633554469388,-0.27096734407989476
4674,1.0,299.67526000000004,9697.5203,0.0,-0.04674008252066986,0.0,0.0,0.0,0.0,-0.6265399974646834,-1.4533462630091085,-0.8679177940418172,-0.0015173758673033386,0.010603091836693689,-0.24296042230582676
4675,1.0,299.45248,9909.0585,0.0,-0.04675007850808921,0.0,0.0,0.0,0.0,-0.6629288483059833,-1.4814147093292485,-0.8677628174390222,0.0045973793513760155,0.013009543598941988,-0.26577727441767474
4676,1.0,300.45142000000004,10251.671999999999,0.0,-0.04676007449550856,0.0,0.0,0.0,0.0,-0.6814476049511423,-1.4974513173369386,-0.9373535435820921,0.0018225159322683181,0.004264324651456076,-0.2242961933438108
4677,1.0,299.95871,10033.363000000001,0.0,-0.046770070482927806,0.0,0.0,0.0,0.0,-0.6849456786688753,-1.4673837285694986,-0.8975625231450242,-0.006700621999374904,-0.0055322780635433345,-0.2435639647278918
4678,1.0,300.00719,9756.8711,0.0,-0.04678006647034716,0.0,0.0,0.0,0.0,-0.6270526006902734,-1.4774568531136385,-0.8613357619222212,0.002918230303581907,-0.008216170470122892,-0.24412901377865778
4679,1.0,299.81489,9727.7572,0.0,-0.0467900624577664,0.0,0.0,0.0,0.0,-0.6452647782526754,-1.4602597697664186,-0.8514707893461241,0.01352976950503429,-0.021559832276289777,-0.2610229428284587
4680,1.0,299.94426,9898.9742,0.0,-0.046800058445185755,0.0,0.0,0.0,0.0,-0.6579147193911273,-1.4696560432437586,-0.8814701661168323,0.004024543676241536,-0.004445910113802166,-0.24582722094625775
4681,1.0,299.56808,9868.5094,0.0,-0.04681008742266257,0.0,0.0,0.0,0.0,-0.6447298835248854,-1.4925053396238086,-0.8625452279040862,-0.0044176120650093655,0.0006509487769411423,-0.26263809388536175
4682,1.0,299.21864,9694.3428,0.0,-0.046820083410081925,0.0,0.0,0.0,0.0,-0.6111916598524204,-1.4514313216451185,-0.8842151416977402,-0.018668857488472784,0.0015069694848013086,-0.25199137859211274
4683,1.0,299.64968999999996,9754.0383,0.0,-0.04683007939750117,0.0,0.0,0.0,0.0,-0.6344909406018804,-1.4844155508254087,-0.8460776339663613,-0.013223179276526189,-0.0019464867780282884,-0.24789462605279478
4684,1.0,299.76623,10060.448,0.0,-0.04684007538492052,0.0,0.0,0.0,0.0,-0.6654722377794964,-1.4854806793305286,-0.9071720857684141,-0.0009274932116914531,0.00013520342226103888,-0.2402600398618198
4685,1.0,299.54426,10263.79,0.0,-0.04685007137233976,0.0,0.0,0.0,0.0,-0.6975489900377254,-1.5026012622951985,-0.9197856917582802,0.01884494921010168,0.0004211660876183566,-0.25559022003229076
4686,1.0,300.1306,10113.489,0.0,-0.04686006735975912,0.0,0.0,0.0,0.0,-0.6585107130999475,-1.5082263202253485,-0.90751118004688,0.007532260900476274,-0.003755306102069856,-0.25319812906370975
4687,1.0,300.51039,9808.2015,0.0,-0.04687006334717825,0.0,0.0,0.0,0.0,-0.6250395969816054,-1.4666208525692086,-0.8897878753927261,-0.003456002965630937,0.001852204160198318,-0.25787618318539773
4688,1.0,300.12302,9741.4434,0.0,-0.04688005933459771,0.0,0.0,0.0,0.0,-0.6255610256155664,-1.4709939386757986,-0.8646005854669341,0.004770223809084435,0.0010757418946174592,-0.24646522400422377
4689,1.0,300.2983,9895.2337,0.0,-0.04689008831207453,0.0,0.0,0.0,0.0,-0.6562433734836784,-1.4773260425257286,-0.8743345549376021,0.004711883502776695,0.007568758169078273,-0.2540123363140657
4690,1.0,300.41359,9897.6987,0.0,-0.04690008429949388,0.0,0.0,0.0,0.0,-0.6598923708038064,-1.4796721218072686,-0.8690887767848842,0.009707354328966281,0.004632548046446895,-0.2511536639394367
4691,1.0,300.56676,9726.3123,0.0,-0.046910080286913014,0.0,0.0,0.0,0.0,-0.6217457134240244,-1.4922362203972486,-0.8425740886980881,-0.0069330406993628425,-0.015019292748288787,-0.26362373292013674
4692,1.0,299.83308999999997,9824.8086,0.0,-0.04692007627433248,0.0,0.0,0.0,0.0,-0.6417350202043154,-1.4682197612270087,-0.8765417378954341,-0.001191329514350069,0.0039849842645123265,-0.2500890825893708
4693,1.0,299.33162999999996,10132.468,0.0,-0.04693007226175161,0.0,0.0,0.0,0.0,-0.6609721205078694,-1.4943646535573087,-0.924680591533869,-0.00950472558721838,-0.004986634069417465,-0.24991463131965377
4694,1.0,299.44055,10195.846,0.0,-0.046940068249171074,0.0,0.0,0.0,0.0,-0.6787104719260084,-1.5071609890702087,-0.9134111631266632,0.003165606804196067,-0.006400142783544914,-0.26334139077977176
4695,1.0,299.77187999999995,9979.6343,0.0,-0.04695006423659043,0.0,0.0,0.0,0.0,-0.6621861765126873,-1.4739597217184985,-0.8974137071028371,-0.009311052557804341,0.0014905282860286887,-0.24099793924714477
4696,1.0,299.85924,9733.2528,0.0,-0.04696006022400967,0.0,0.0,0.0,0.0,-0.6383534195855773,-1.4697105560991386,-0.8506018057953622,0.006264868220994354,0.0032548062502493666,-0.24177623691395678
4697,1.0,299.9523,9725.709,0.0,-0.046970089201486376,0.0,0.0,0.0,0.0,-0.6336098183149205,-1.4700127072789586,-0.8527501087898832,0.00977222999709401,0.01018175610061109,-0.2510892718955818
4698,1.0,299.57851,10060.440999999999,0.0,-0.04698008518890584,0.0,0.0,0.0,0.0,-0.6671602820485933,-1.4985683242471786,-0.8923943599499661,0.009211216113526252,0.009707522629807891,-0.26117243774821275
4699,1.0,300.28666,10179.654,0.0,-0.04699008117632497,0.0,0.0,0.0,0.0,-0.6663158900777584,-1.5213937079248685,-0.9066511840245052,0.004815470694949956,0.004920166990682675,-0.2607919927331658
4700,1.0,300.80062000000004,9813.2428,0.0,-0.047000077163744325,0.0,0.0,0.0,0.0,-0.6274030940323644,-1.4783187236486988,-0.8772589872437211,-0.014172428447209787,0.008281659559861163,-0.2554079870018058
4701,1.0,300.64401000000004,9777.7901,0.0,-0.04701007315116357,0.0,0.0,0.0,0.0,-0.6280264860238884,-1.4844088633747485,-0.8597687098475653,0.003619237962040976,0.010722333134961888,-0.26622268902913376
4702,1.0,300.86253999999997,10155.860999999999,0.0,-0.04702006913858292,0.0,0.0,0.0,0.0,-0.6643226346135394,-1.5141158364315985,-0.9086897925632003,0.0023639077210245276,-0.01215307976641559,-0.26125271755363577
4703,1.0,300.11876,10137.254,0.0,-0.047030065126002385,0.0,0.0,0.0,0.0,-0.6868162700759883,-1.5014113013777588,-0.8932445274463711,0.002936596981519557,-0.008194714088655311,-0.25675126279187677
4704,1.0,299.44632,9805.3443,0.0,-0.047040061113421516,0.0,0.0,0.0,0.0,-0.6322296703537105,-1.4820401886159786,-0.8663099586506362,-0.004485165955801416,-0.0045478902913168254,-0.24833436646369378
4705,1.0,299.58524,9796.7528,0.0,-0.04705005710084098,0.0,0.0,0.0,0.0,-0.6363793246807494,-1.4696419590673686,-0.8719469425344633,-0.007496162244463613,0.004003718954886296,-0.2533709591332668
4706,1.0,299.80644,9899.1664,0.0,-0.04706008607831769,0.0,0.0,0.0,0.0,-0.6474907266023594,-1.4751993318908385,-0.8864093246567891,-0.001040879302401789,0.012965356775331088,-0.24130385971733678
4707,1.0,299.89347000000004,10030.235,0.0,-0.04707008206573693,0.0,0.0,0.0,0.0,-0.6670443459721513,-1.5000045049389186,-0.8818921341209771,0.015339038002845187,0.0069107568978636034,-0.25685147322676677
4708,1.0,300.34081000000003,10104.011999999999,0.0,-0.04708007805315628,0.0,0.0,0.0,0.0,-0.6662424091805064,-1.4907896032294785,-0.9143352472178632,0.03127478709558117,0.017436948016892783,-0.2363564735865678
4709,1.0,299.77038,9922.4139,0.0,-0.047090074040575525,0.0,0.0,0.0,0.0,-0.6629219582053033,-1.4857864782107089,-0.8674576265089021,0.008349691502050392,-0.001075853352128459,-0.25487213981892176
4710,1.0,300.36929,9851.9397,0.0,-0.04710007002799488,0.0,0.0,0.0,0.0,-0.6175338759383484,-1.4962394702173385,-0.8809703399750033,-0.003954901476993386,-0.021624405691912683,-0.26209990609474676
4711,1.0,300.16934,10061.835,0.0,-0.04711006601541423,0.0,0.0,0.0,0.0,-0.6650994934652094,-1.4931909046414684,-0.9002563397283831,-0.005547509441696556,-0.02253797528682498,-0.25131215652007877
4712,1.0,300.01987,10176.6,0.0,-0.047120062002833474,0.0,0.0,0.0,0.0,-0.6650607670463874,-1.5137102324165685,-0.9146611793775301,-0.003138798638350307,-0.004957895459481185,-0.2525481696545638
4713,1.0,299.85892,9940.2673,0.0,-0.04713005799025283,0.0,0.0,0.0,0.0,-0.6547352216373353,-1.4786251304789384,-0.8882326682117393,-0.011821466313437888,0.0032432604680098873,-0.24046425028697377
4714,1.0,299.87745,9808.2952,0.0,-0.047140086967729644,0.0,0.0,0.0,0.0,-0.6324751504554375,-1.4860172965834884,-0.8629843603649251,-0.015387895909417087,-0.005529062514350985,-0.24888174443271577
4715,1.0,299.19608,9916.0604,0.0,-0.047150082955148886,0.0,0.0,0.0,0.0,-0.6604995913237344,-1.4783947174061987,-0.8753404995043812,-0.0037195881241197663,-0.0037290391131025065,-0.23705037765255077
4716,1.0,299.48496,10088.918,0.0,-0.04716007894256824,0.0,0.0,0.0,0.0,-0.6541344656530454,-1.4991604676056185,-0.913484117133863,0.02241306282774708,0.002412117958132508,-0.25816651986905176
4717,1.0,299.78336,10058.294,0.0,-0.04717007492998748,0.0,0.0,0.0,0.0,-0.6651689720245664,-1.5014117066777986,-0.8908894201064401,0.016728179571942784,0.012451013799319387,-0.25888587677754676
4718,1.0,300.02965,9853.9791,0.0,-0.04718007091740706,0.0,0.0,0.0,0.0,-0.6344920146469863,-1.4836101183209185,-0.8772614798389672,-0.00887879368166871,0.0003103722756988587,-0.2706654766101027
4719,1.0,300.32211,9719.9976,0.0,-0.04719006690482619,0.0,0.0,0.0,0.0,-0.6202128990702475,-1.4709967757760787,-0.8634268669485972,-0.008652712962381282,-0.006578022486300274,-0.2553036526390088
4720,1.0,300.46072000000004,9833.7499,0.0,-0.04720006289224543,0.0,0.0,0.0,0.0,-0.6494465323428824,-1.4842245531815588,-0.8555433252080522,0.0009056096135842101,0.010659724411282889,-0.26948983291657574
4721,1.0,300.57242,10143.032,0.0,-0.047210058879664785,0.0,0.0,0.0,0.0,-0.6844055657030703,-1.4988565939006286,-0.8999662462247531,0.0003569730156854936,0.012986424271410288,-0.24863126900799576
4722,1.0,300.78303999999997,10073.666,0.0,-0.0472200878571416,0.0,0.0,0.0,0.0,-0.6588665564025664,-1.5034690096808385,-0.8998073686090732,-0.003919153304190316,0.0014596221314784885,-0.26646637567818376
4723,1.0,300.87226,9931.8862,0.0,-0.047230083844560844,0.0,0.0,0.0,0.0,-0.6507809421945784,-1.4872284344280184,-0.8810359783164812,-0.017966673142672585,-0.01065816299287879,-0.24283872083631577
4724,1.0,299.9769,10025.862,0.0,-0.0472400798319802,0.0,0.0,0.0,0.0,-0.6472244850060834,-1.4997590957646985,-0.9006279897325621,-0.0025491905329855175,0.013172392141763887,-0.2559623158665138
4725,1.0,300.44083,10295.034,0.0,-0.04725007581939955,0.0,0.0,0.0,0.0,-0.6963180228887383,-1.5228715331957186,-0.9102438750365761,0.00035618573049029463,0.008481814350164901,-0.22964823103451576
4726,1.0,300.09693,10098.763,0.0,-0.047260071806818904,0.0,0.0,0.0,0.0,-0.6699127962102454,-1.5065282143827587,-0.8933307752948831,-0.00034322783224894965,0.0077712424213619135,-0.2731139245492457
4727,1.0,299.62419,9842.9483,0.0,-0.047270067794238146,0.0,0.0,0.0,0.0,-0.6341113973794223,-1.4874951218543384,-0.8704040362096902,-0.011562070234837489,0.0018722735036040081,-0.2311384382215878
4728,1.0,299.63804,9790.9579,0.0,-0.04728006378165739,0.0,0.0,0.0,0.0,-0.6093108548842995,-1.4951126347811288,-0.8717832013183032,0.007608632093638523,-0.0004303002130298245,-0.27590829607252876
4729,1.0,299.86927000000003,9947.6155,0.0,-0.04729005976907674,0.0,0.0,0.0,0.0,-0.6481016961476574,-1.4941668671377883,-0.8815581972855202,0.01047505350105729,8.198271609756412e-05,-0.24065028300533375
4730,1.0,299.84603,10129.081,0.0,-0.04730008874655356,0.0,0.0,0.0,0.0,-0.6583985868438814,-1.5252292648534085,-0.8953598998126422,0.012442212708950788,-0.004525319537389266,-0.2857154525979197
4731,1.0,300.53242,10198.972,0.0,-0.04731008473397269,0.0,0.0,0.0,0.0,-0.6958868748386874,-1.5054899370052883,-0.8988559774276782,-0.003600956397111726,-0.016826922820687984,-0.23199696503131778
4732,1.0,299.95533,9957.0336,0.0,-0.047320080721392155,0.0,0.0,0.0,0.0,-0.6610238266604724,-1.4958383245027485,-0.8698274563727862,-0.007857117495162122,0.006183726038411244,-0.25703474990485475
4733,1.0,300.47952000000004,10041.065999999999,0.0,-0.04733007670881151,0.0,0.0,0.0,0.0,-0.6638985995791904,-1.5104456419193786,-0.8778891680109151,-0.002299992310016568,0.005923190458748385,-0.22769729902697378
4734,1.0,300.81116000000003,10237.065,0.0,-0.04734007269623086,0.0,0.0,0.0,0.0,-0.6665851410268314,-1.5131385567101485,-0.9320885846049811,-0.0025486965735617676,0.0019637860983105983,-0.25027094071731876
4735,1.0,300.93666,10045.392,0.0,-0.047350068683650104,0.0,0.0,0.0,0.0,-0.6605491595186264,-1.4941676777378685,-0.8988315277027651,-0.018731226071878083,0.0008439604478824112,-0.23421972164318675
4736,1.0,300.56757000000005,9745.7024,0.0,-0.047360064671069235,0.0,0.0,0.0,0.0,-0.5923612173440004,-1.4945868593042384,-0.8755021635578362,-0.006013756373886544,0.004172634535331965,-0.26573479897348273
4737,1.0,300.7116,9850.3137,0.0,-0.0473700606584887,0.0,0.0,0.0,0.0,-0.6533729575403904,-1.4818034933926185,-0.8590729414013982,0.0006083015361946874,0.0018144387077711586,-0.25817386593227676
4738,1.0,299.71326,10023.41,0.0,-0.04738008963596552,0.0,0.0,0.0,0.0,-0.6568702510555463,-1.5074067022194588,-0.8825894933698012,0.0005969958435664024,-0.003745223452974777,-0.27599272007086073
4739,1.0,300.69507999999996,10133.917,0.0,-0.04739008562338465,0.0,0.0,0.0,0.0,-0.6905131535958424,-1.5059040523211586,-0.8840403763204923,0.02316308676376868,-0.015995470053629984,-0.2579377685264757
4740,1.0,300.58211,10042.738000000001,0.0,-0.047400081610804,0.0,0.0,0.0,0.0,-0.6436959732553464,-1.5042915661120184,-0.9047541569222831,0.013728167927614686,-0.0032798312985691472,-0.26302760748880377
4741,1.0,300.48409,10025.98,0.0,-0.047410077598223466,0.0,0.0,0.0,0.0,-0.6593671830119744,-1.4916824792175987,-0.8965977671948102,0.01152393150107349,0.0017103875483771083,-0.2383838553141548
4742,1.0,299.96762,10110.189,0.0,-0.04742007358564282,0.0,0.0,0.0,0.0,-0.6517344409361814,-1.5186282444269386,-0.9028822888200441,-0.005180560917981554,-0.014806638910051484,-0.26148525845158577
4743,1.0,299.76489,10210.768,0.0,-0.04743006957306206,0.0,0.0,0.0,0.0,-0.7106519654283883,-1.4988687529018287,-0.8942979022503311,-0.0036361690672369468,-0.008919004917187251,-0.22312889883110779
4744,1.0,299.52734,10176.173,0.0,-0.04744006556048119,0.0,0.0,0.0,0.0,-0.6797364788447674,-1.5227168099054487,-0.890849315667482,0.0014965230789203284,0.007890994802980552,-0.25173463114927375
4745,1.0,299.993,9983.6328,0.0,-0.04745006154790066,0.0,0.0,0.0,0.0,-0.6611755102004423,-1.4937195172186386,-0.8798800423373991,-0.005133234944235845,0.0033380584248407165,-0.2280777947045258
4746,1.0,299.96578999999997,9938.8593,0.0,-0.04746005753532001,0.0,0.0,0.0,0.0,-0.6123603222527584,-1.5130823213295985,-0.8957223697709151,-0.02276268477475208,-0.004242570881084146,-0.2685701463308097
4747,1.0,300.05638999999996,10121.129,0.0,-0.04747008651279683,0.0,0.0,0.0,0.0,-0.6481520445451264,-1.5074689157755985,-0.9209496932081581,-0.007416177902769773,-0.003297560540868887,-0.24071918401213377
4748,1.0,300.31023,10165.574,0.0,-0.04748008250021618,0.0,0.0,0.0,0.0,-0.6476295013360553,-1.5200033261376484,-0.9224479456010242,0.004422474348264235,0.023405604122203275,-0.26581855422674877
4749,1.0,300.25423,10029.327,0.0,-0.04749007848763531,0.0,0.0,0.0,0.0,-0.6698619310552254,-1.5060075051563684,-0.8727954179032011,0.008249576920619851,0.005101048750834315,-0.2567180383210978
4750,1.0,300.73643,10033.85,0.0,-0.04750007447505478,0.0,0.0,0.0,0.0,-0.6612799864182534,-1.5093897339901685,-0.8793701546220771,0.0013939150916437086,-0.011210707524160689,-0.26870580025419777
4751,1.0,300.34443999999996,9988.056999999999,0.0,-0.04751007046247391,0.0,0.0,0.0,0.0,-0.6713765575697074,-1.4907877793792985,-0.8739556399302061,0.0044057575454644156,-0.011694778640184788,-0.25254094518135073
4752,1.0,299.51122000000004,9961.1501,0.0,-0.04752006644989315,0.0,0.0,0.0,0.0,-0.6365355982436723,-1.5005888462715886,-0.8908164660992401,0.015214230921777686,0.008613824524868292,-0.25860511530733776
4753,1.0,299.91834,10188.841999999999,0.0,-0.047530062437312504,0.0,0.0,0.0,0.0,-0.6692933457616104,-1.5061827974236686,-0.9216775006224871,0.005820634755176925,0.0035547921146056667,-0.2418829017519838
4754,1.0,300.08375,10196.001,0.0,-0.04754005842473197,0.0,0.0,0.0,0.0,-0.6598300255251534,-1.5237024996027286,-0.9157970530046321,-0.0046164513527082755,-0.008402449914882242,-0.2548873284379208
4755,1.0,300.06532000000004,10000.804,0.0,-0.047550087402208674,0.0,0.0,0.0,0.0,-0.6632831312034484,-1.4948256823528088,-0.8818860039578722,-0.008970660913910302,-0.00034937195794032766,-0.2523886435588198
4756,1.0,299.50646,9929.8929,0.0,-0.04756008338962814,0.0,0.0,0.0,0.0,-0.6372024181344824,-1.4994888619630287,-0.8817482019442721,0.0002847736467624707,0.007652309657749163,-0.26912985555354874
4757,1.0,299.21726,10105.873,0.0,-0.04757007937704727,0.0,0.0,0.0,0.0,-0.6658937194235934,-1.5055682612380186,-0.9004711487495831,0.0026062233413642177,-0.006056511880406183,-0.25647383491449677
4758,1.0,298.91398,10078.828000000001,0.0,-0.047580075364466734,0.0,0.0,0.0,0.0,-0.6444707346793094,-1.5161371690560883,-0.903104139929439,-0.016985194512808183,-0.008359121111456022,-0.2785397268472308
4759,1.0,299.92804,9899.2695,0.0,-0.047590071351885865,0.0,0.0,0.0,0.0,-0.6393915551080334,-1.4852687074096087,-0.8844705111204433,-0.005286536441965525,0.007667519251025232,-0.24341959685364375
4760,1.0,299.66022000000004,9853.1761,0.0,-0.04760006733930511,0.0,0.0,0.0,0.0,-0.6354170815907835,-1.4877022301747787,-0.8720002394897233,0.01153134038580469,0.019507477986738183,-0.2730518427156188
4761,1.0,299.79364,9994.8642,0.0,-0.04761006332672468,0.0,0.0,0.0,0.0,-0.6796576479869874,-1.4908613413365586,-0.8676701253198741,0.014221305605533587,0.011294817414961689,-0.23739631136919176
4762,1.0,299.56374,10257.126,0.0,-0.047620059314143814,0.0,0.0,0.0,0.0,-0.6849200029113414,-1.5229871450321286,-0.9100031673428202,0.013529888055295985,-0.012237476406994886,-0.27578565228042473
4763,1.0,300.3931,10377.466999999999,0.0,-0.04763008829162063,0.0,0.0,0.0,0.0,-0.7210509917346923,-1.5130008560215586,-0.9204389442302511,-0.004955052279700585,-0.01832099960989188,-0.23162576085718278
4764,1.0,300.17287999999996,10086.042,0.0,-0.047640084279039985,0.0,0.0,0.0,0.0,-0.6444717377969084,-1.5136065769313383,-0.907826645333014,-0.004744834700003725,0.001047524297882599,-0.26446169075283676
4765,1.0,300.19651,10003.317,0.0,-0.04765008026645923,0.0,0.0,0.0,0.0,-0.6408422658062074,-1.5093409966603586,-0.8905754442979532,-0.004561882667247766,-0.006866083308904663,-0.24261369825410778
4766,1.0,300.01749,10184.52,0.0,-0.04766007625387858,0.0,0.0,0.0,0.0,-0.6511377480847924,-1.5089934518760588,-0.9357085016472392,-0.008294014827605532,-0.008916992602488651,-0.24654887793247976
4767,1.0,300.11152999999996,10154.246,0.0,-0.04767007224129782,0.0,0.0,0.0,0.0,-0.6709502933851383,-1.5226812448269385,-0.8930056030727912,-0.013111276948732289,0.003319658816274817,-0.25672209132149776
4768,1.0,299.91191000000003,9804.0087,0.0,-0.047680068228717176,0.0,0.0,0.0,0.0,-0.6193402779516264,-1.4936763527643786,-0.8671572586492582,0.000988375316670049,0.011527015834377888,-0.2727317164790248
4769,1.0,300.43326,9832.3609,0.0,-0.04769006421613664,0.0,0.0,0.0,0.0,-0.6410025214420234,-1.4978772876789788,-0.8499124005598233,0.008521378321519562,-0.001035767658297309,-0.27542981911030673
4770,1.0,299.78349,10085.129,0.0,-0.04770006020355577,0.0,0.0,0.0,0.0,-0.6570481372431024,-1.5155359064467484,-0.8930433973015212,0.01205639746837379,-0.012933015858639287,-0.27224004700050075
4771,1.0,299.01332,10250.91,0.0,-0.04771008918103259,0.0,0.0,0.0,0.0,-0.6781848180391303,-1.5206395458754385,-0.9171964324527402,0.009038816472611733,-0.006142391007206795,-0.2676293436129597
4772,1.0,299.45714,10163.293,0.0,-0.04772008516845194,0.0,0.0,0.0,0.0,-0.6755308120522003,-1.5150841995521684,-0.8987723741619272,-0.005587682781661355,-0.0013755140645276688,-0.24386382596248576
4773,1.0,299.66971,10042.323,0.0,-0.047730081155871185,0.0,0.0,0.0,0.0,-0.6670354800337763,-1.4897318714500885,-0.8958479114583051,-0.019755399007956084,0.0020573610622707282,-0.24514300355123075
4774,1.0,300.07047,10040.045,0.0,-0.04774007714329054,0.0,0.0,0.0,0.0,-0.6507801315944983,-1.4966180204546986,-0.90452472670214,-0.012730707303922988,-0.01121439980752509,-0.23746934643639975
4775,1.0,300.3811,10210.825,0.0,-0.04775007313070978,0.0,0.0,0.0,0.0,-0.6766793209080494,-1.5142644802212686,-0.9128920143054271,0.005921365797968305,0.004699349497714686,-0.24333745266803677
4776,1.0,299.78282,10294.211,0.0,-0.047760069118129134,0.0,0.0,0.0,0.0,-0.6632639807765583,-1.5201885482559285,-0.9457305786513411,-0.004009397816396756,-0.0006591780902783123,-0.23847464252311476
4777,1.0,300.31729,10069.369,0.0,-0.04777006510554849,0.0,0.0,0.0,0.0,-0.6484727179367744,-1.5190497564685386,-0.8933143910407662,0.0026483246936192975,-0.004014630037263136,-0.2627025264592207
4778,1.0,300.8466,10020.119,0.0,-0.04778006109296773,0.0,0.0,0.0,0.0,-0.6389156214035624,-1.5151307077317586,-0.8918196647582481,-0.015052859697601586,-0.002929026888697447,-0.25438648904599176
4779,1.0,300.28508,10237.992,0.0,-0.047790090070444546,0.0,0.0,0.0,0.0,-0.6946879871878663,-1.5254653521267085,-0.8919406062901841,0.01035786707399189,0.007894805028656592,-0.2677986982346737
4780,1.0,300.27749,10383.283000000001,0.0,-0.0478000860578639,0.0,0.0,0.0,0.0,-0.6869818756723324,-1.5358882506053686,-0.933388543953277,-0.0068163998061512845,0.006511880255547544,-0.2555011756135028
4781,1.0,299.62032,10190.013,0.0,-0.04781008204528314,0.0,0.0,0.0,0.0,-0.6889015185167864,-1.5160044332929885,-0.8926035960956161,-0.007793552364713733,0.01053752948897319,-0.26038442301294173
4782,1.0,299.60566,10096.662,0.0,-0.047820078032702495,0.0,0.0,0.0,0.0,-0.6360827565089804,-1.5185088835651588,-0.9145414030832091,-0.012701789146068988,-0.00855388855230307,-0.24605396605363578
4783,1.0,299.84029,10109.229,0.0,-0.04783007402012185,0.0,0.0,0.0,0.0,-0.6647112058943884,-1.5102320487982985,-0.8980100959791962,0.026266058803758176,0.0024387206368579875,-0.25554019587485377
4784,1.0,300.04269,10120.069,0.0,-0.04784007000754109,0.0,0.0,0.0,0.0,-0.6606901532700414,-1.5056136548424985,-0.9099444393670241,0.013002591690005885,0.0016993941900921485,-0.24484759048457577
4785,1.0,300.0413,10147.348,0.0,-0.047850065994960445,0.0,0.0,0.0,0.0,-0.6606288719039934,-1.5311136134841485,-0.8927978868022911,0.0014292082138268685,-0.013471806533063787,-0.26346182568665777
4786,1.0,300.17151,10061.703000000001,0.0,-0.04786006198237969,0.0,0.0,0.0,0.0,-0.6457114492942584,-1.5035254477114086,-0.9092695134754141,-0.014944896886196487,-0.001366337159696979,-0.24526762318102976
4787,1.0,300.02669,10102.888,0.0,-0.04787005796979904,0.0,0.0,0.0,0.0,-0.6585161441204833,-1.5251182126424487,-0.8873912957262022,-0.003916599305988256,0.025312675572666577,-0.27998169319704175
4788,1.0,300.6592,10316.603000000001,0.0,-0.04788008694727586,0.0,0.0,0.0,0.0,-0.6673278634826323,-1.5320906905555787,-0.936571071324868,0.0049752857696224746,0.012864111812088987,-0.25474325440620177
4789,1.0,300.71452999999997,10334.832,0.0,-0.04789008293469499,0.0,0.0,0.0,0.0,-0.6938984728424474,-1.5327983444254185,-0.9148340195795881,-0.013930764245359387,0.005047972785421125,-0.27231837123323077
4790,1.0,300.24573,10131.933,0.0,-0.04790007892211445,0.0,0.0,0.0,0.0,-0.6619272911121374,-1.5254036451956186,-0.8925237215902332,-0.014172761806492686,-0.008231956906680894,-0.24360958124739376
4791,1.0,300.78328999999997,10033.385,0.0,-0.047910074909533806,0.0,0.0,0.0,0.0,-0.6802882036567184,-1.5071509578942184,-0.8624594360181191,-0.004894204584695385,0.0044844707649078054,-0.26453039924211774
4792,1.0,299.99575,10130.196,0.0,-0.04792007089695305,0.0,0.0,0.0,0.0,-0.6700778039890304,-1.5095627971072485,-0.8996859407170892,0.014167128135936687,0.0024809779283034576,-0.23225785666706578
4793,1.0,300.42179,10248.105,0.0,-0.0479300668843724,0.0,0.0,0.0,0.0,-0.6978540492453323,-1.5140414638742588,-0.903272623156067,0.012116759816581089,-0.01162735191228029,-0.2612927814625898
4794,1.0,299.98193,10222.264000000001,0.0,-0.047940062871791644,0.0,0.0,0.0,0.0,-0.6533241796805764,-1.5153176523752085,-0.9386710422896191,-0.0013128082714890887,-0.017909994971828883,-0.24405449936630377
4795,1.0,299.4707,10131.378,0.0,-0.047950058859211,0.0,0.0,0.0,0.0,-0.6711369036560554,-1.5099821813236385,-0.8985667654516352,-0.008912783561573252,0.007427372087224554,-0.26725601161361473
4796,1.0,299.02763,10206.413,0.0,-0.047960087836687815,0.0,0.0,0.0,0.0,-0.6645218902457043,-1.5200726324444884,-0.9179000029246772,0.005962349738013104,-0.007058229775718044,-0.25866063128031674
4797,1.0,299.90837,10275.372,0.0,-0.047970083824106946,0.0,0.0,0.0,0.0,-0.6858785881684463,-1.5311635667140786,-0.9064143976086362,-0.00020322284067903282,-0.007430486412731914,-0.2640293369351668
4798,1.0,299.88567,10197.886999999999,0.0,-0.0479800798115263,0.0,0.0,0.0,0.0,-0.6614700721370134,-1.5269752974257287,-0.9114577081263722,-0.006148834061942675,-0.00951937515716418,-0.27032157952616276
4799,1.0,300.31696,10125.711,0.0,-0.047990075798945764,0.0,0.0,0.0,0.0,-0.6590906062646783,-1.5236542688979684,-0.8952184500986822,-0.0024654705408229975,0.00034714315222536166,-0.2490271863520698
4800,1.0,300.1692,9879.1185,0.0,-0.048000071786364895,0.0,0.0,0.0,0.0,-0.6294930338211254,-1.4996278798767484,-0.8738843780506732,0.010204557267611391,0.010114384797487061,-0.25564502673019973
4801,1.0,300.33608,10004.476,0.0,-0.04801006777378436,0.0,0.0,0.0,0.0,-0.6574131200616233,-1.5110919941581684,-0.8726058489419922,-0.00031873558122925267,-0.0024851311391383478,-0.2540062466809648
4802,1.0,300.30478999999997,10344.23,0.0,-0.04802006376120349,0.0,0.0,0.0,0.0,-0.6928876241451843,-1.5285948763855683,-0.9229052760336591,0.008922954059452003,0.0038338401788955666,-0.25301275495791475
4803,1.0,300.07922,10359.553,0.0,-0.048030059748622955,0.0,0.0,0.0,0.0,-0.6909760974340313,-1.5455231444812585,-0.9125462933713072,-0.005503208019499345,0.01002791403395306,-0.26333276802142075
4804,1.0,299.57,10132.155,0.0,-0.04804008872609966,0.0,0.0,0.0,0.0,-0.6536466161273984,-1.5152552361690486,-0.9110202981907032,-0.0034370500211854263,0.0027822749382891573,-0.26497659405615376
4805,1.0,299.16781000000003,10213.329,0.0,-0.048050084713518904,0.0,0.0,0.0,0.0,-0.6604886178251513,-1.5189400214827087,-0.9251684106620132,-0.0024476088667351875,-0.016290661218513084,-0.25812772252272276
4806,1.0,299.65837999999997,10345.965,0.0,-0.04806008070093848,0.0,0.0,0.0,0.0,-0.6824989836524054,-1.5335454137241487,-0.9288705326848841,0.009507844472351189,-0.014780429169714785,-0.25047865698781874
4807,1.0,299.93464,10247.503,0.0,-0.04807007668835772,0.0,0.0,0.0,0.0,-0.6842526966604833,-1.5156659064345785,-0.9150665402125361,0.004066618380018986,0.01175188541582079,-0.25286721171355075
4808,1.0,299.69237000000004,10114.05,0.0,-0.04808007267577685,0.0,0.0,0.0,0.0,-0.6622087415924144,-1.5187370674876786,-0.8934727721638972,0.0005145556470751886,0.0037311854807893364,-0.24861361819125374
4809,1.0,300.07561,10121.782,0.0,-0.048090068663196206,0.0,0.0,0.0,0.0,-0.6719028599366493,-1.5183517284746486,-0.886514500017169,-0.008437321930323842,-0.0013029091219871186,-0.24935486130190876
4810,1.0,299.91312,10257.96,0.0,-0.04810006465061545,0.0,0.0,0.0,0.0,-0.6628375646044744,-1.5312994435524885,-0.9240266905818341,-0.007171102493132712,-0.0005253568323461825,-0.23532086105686076
4811,1.0,299.81633,10427.713,0.0,-0.0481100606380348,0.0,0.0,0.0,0.0,-0.6822671520295253,-1.5600245772624384,-0.9274727339069322,0.0026513179357397073,0.022047097156629083,-0.2567215542989447
4812,1.0,300.15576,10378.933,0.0,-0.04812008961551162,0.0,0.0,0.0,0.0,-0.6795664048154824,-1.5402550545613383,-0.9351149701361621,-0.004722712613220446,0.010859132030962887,-0.25851282848822976
4813,1.0,299.72985,10112.483,0.0,-0.04813008560293097,0.0,0.0,0.0,0.0,-0.6664113990321844,-1.5190597876445286,-0.8884710758277682,-0.008445391758095272,0.006564083103349563,-0.2623559138650127
4814,1.0,300.1725,10127.916,0.0,-0.048140081590350436,0.0,0.0,0.0,0.0,-0.6562783812746333,-1.5294260454425985,-0.8929291229552432,0.002089553335172858,-0.01099455088032769,-0.2786278694734297
4815,1.0,300.15386,10322.735999999999,0.0,-0.04815007757776957,0.0,0.0,0.0,0.0,-0.6965097906026643,-1.5317871208256186,-0.9095570637212931,0.014441839489798587,0.004213717469911536,-0.26320752017655974
4816,1.0,300.44759,10255.053,0.0,-0.04816007356518881,0.0,0.0,0.0,0.0,-0.6595595080134553,-1.5412143997560184,-0.9165061862196181,0.00975048828439827,0.006774481041564224,-0.2747545487136627
4817,1.0,299.9575,10040.811,0.0,-0.048170069552608163,0.0,0.0,0.0,0.0,-0.6387541397351254,-1.5209698654080384,-0.8924316982161512,-0.0020372201834079782,-0.02701512521843527,-0.26238969562334674
4818,1.0,299.83076,10055.369,0.0,-0.048180065540027406,0.0,0.0,0.0,0.0,-0.6440570347959804,-1.5074930311279786,-0.9050309160545972,-0.00046069009638907254,-0.01946654470919838,-0.25566219118689376
4819,1.0,299.21494,10312.729,0.0,-0.04819006152744698,0.0,0.0,0.0,0.0,-0.7020239077793653,-1.5428261766900884,-0.8899620936149201,0.006561870063806154,0.011931029046750887,-0.2500789906183748
4820,1.0,299.49026000000003,10465.591999999999,0.0,-0.048200090504923576,0.0,0.0,0.0,0.0,-0.6878494001429504,-1.5564984669144384,-0.93693069405036,0.00023795059970389577,0.008325584255671191,-0.2487162097638788
4821,1.0,299.38677,10351.832,0.0,-0.04821008649234293,0.0,0.0,0.0,0.0,-0.7079876952179454,-1.5379323813571086,-0.9007784675049132,-0.017344226513491882,-0.007039391531183854,-0.25129443477582974
4822,1.0,299.84582,10266.91,0.0,-0.048220082479762394,0.0,0.0,0.0,0.0,-0.6601047885547704,-1.5383647351747787,-0.9224148325877561,-0.009349047714029172,-0.0035502092857283766,-0.25282567859195176
4823,1.0,300.05197999999996,10180.538,0.0,-0.048230078467181525,0.0,0.0,0.0,0.0,-0.6770746404345643,-1.5157521340180884,-0.9018025087184782,0.010474728247775188,0.003183131775275647,-0.2589831589196478
4824,1.0,300.23775,10265.237,0.0,-0.04824007445460077,0.0,0.0,0.0,0.0,-0.6638165668510944,-1.5363469489256383,-0.9202121383278671,0.016312768309194883,0.016315751317489285,-0.2564058964952918
4825,1.0,300.04443,10211.497,0.0,-0.04825007044202012,0.0,0.0,0.0,0.0,-0.6794729831562624,-1.5201818608052686,-0.9043851818983681,-0.0055887998898966045,-0.010760715048749888,-0.2608852117423658
4826,1.0,300.13815,10113.408000000001,0.0,-0.048260066429439474,0.0,0.0,0.0,0.0,-0.6550222652581643,-1.5172388758898185,-0.9019621868017372,0.004153412572984906,-0.003920417941640126,-0.25876247304786776
4827,1.0,299.99617,10132.242,0.0,-0.04827006241685894,0.0,0.0,0.0,0.0,-0.6633519714152424,-1.5282207844486486,-0.8883758809808732,-0.005078941457502495,-0.004929620512790665,-0.2650244802558797
4828,1.0,300.17764,10293.719000000001,0.0,-0.04828005840427807,0.0,0.0,0.0,0.0,-0.6712379550885283,-1.5325045018964185,-0.925290932864105,0.004778419381193276,-0.0024525947665022577,-0.2696930503566317
4829,1.0,300.03604,10394.603000000001,0.0,-0.04829008738175489,0.0,0.0,0.0,0.0,-0.6786395748165114,-1.5554807585139985,-0.9255793849025732,-0.01010367241345483,-0.01912233959722798,-0.25769096106711775
4830,1.0,300.11802,10306.869,0.0,-0.04830008336917424,0.0,0.0,0.0,0.0,-0.6774648430480743,-1.5398233086937285,-0.9157426414742621,-0.0016990203008052486,0.008978988005882121,-0.2617632436165207
4831,1.0,299.61597,10265.51,0.0,-0.04831007935659348,0.0,0.0,0.0,0.0,-0.6761946225902133,-1.5415067224098684,-0.9027572942877081,0.0035951615184648166,-0.0010072472517700642,-0.25230385479045175
4832,1.0,300.34807,10224.52,0.0,-0.048320075344012725,0.0,0.0,0.0,0.0,-0.6682213980833174,-1.5375239402417986,-0.9022534151454792,0.015108206457813887,0.009880523432006742,-0.26441157540289073
4833,1.0,300.16755,10303.101999999999,0.0,-0.04833007133143208,0.0,0.0,0.0,0.0,-0.6828333156554014,-1.5341993653386885,-0.9148531092114722,-0.0039594071975380665,-0.002815011123844967,-0.25177355008561475
4834,1.0,299.77349,10252.091999999999,0.0,-0.04834006731885143,0.0,0.0,0.0,0.0,-0.6590462563078013,-1.5319799423196485,-0.9253537442378041,0.008271480652006582,0.0050134607777400555,-0.25955316276340273
4835,1.0,299.34971,10138.756,0.0,-0.048350063306270785,0.0,0.0,0.0,0.0,-0.6662121839300233,-1.5129577928923088,-0.9027587128378481,-0.0003136267640925517,0.017477994778443785,-0.25036587211918776
4836,1.0,300.01571,10214.148000000001,0.0,-0.04836005929369003,0.0,0.0,0.0,0.0,-0.6647456563977884,-1.5297625458008086,-0.9103376006708263,-0.0072297775772734935,0.007275877721048223,-0.2731428629721017
4837,1.0,300.36995,10355.131,0.0,-0.048370088271166845,0.0,0.0,0.0,0.0,-0.6890159853805833,-1.5359623191876786,-0.9227229214131621,-0.014468832472462587,-0.004961176971255045,-0.24595456621882575
4838,1.0,300.28643,10377.271999999999,0.0,-0.0483800842585862,0.0,0.0,0.0,0.0,-0.6835357310222243,-1.5454855529025484,-0.9254104355808991,-0.013937470947771287,0.0004413953218898266,-0.25994647605471977
4839,1.0,299.45487,10311.354,0.0,-0.04839008024600544,0.0,0.0,0.0,0.0,-0.6880363650514023,-1.5300462558288086,-0.9163114902129031,0.0004002158448407286,-0.001168687528940479,-0.23769325444349776
4840,1.0,299.97954,10305.083,0.0,-0.04840007623342457,0.0,0.0,0.0,0.0,-0.6742228277631124,-1.5426854362511986,-0.9155797716531882,0.0029396710809979475,-0.003102685087561177,-0.26974877911213174
4841,1.0,299.92438,10258.018,0.0,-0.048410072220844036,0.0,0.0,0.0,0.0,-0.6751402345361533,-1.5400002221611884,-0.9030408523281932,0.007100219670462123,-0.014896687459688588,-0.24175676224703477
4842,1.0,299.87814,10267.437,0.0,-0.04842006820826339,0.0,0.0,0.0,0.0,-0.6698023215518424,-1.5463957554673786,-0.9048462917538761,0.006171868681766014,-0.003080858667157077,-0.27351700557152675
4843,1.0,299.66662,10325.836,0.0,-0.04843006419568274,0.0,0.0,0.0,0.0,-0.6830372525030283,-1.5369109239312984,-0.9188482327657601,0.002842161261599477,0.011434737121270688,-0.26147216726029376
4844,1.0,299.98229,10127.981,0.0,-0.048440060183101985,0.0,0.0,0.0,0.0,-0.6539555459503874,-1.5335847278280286,-0.8911129430785001,-0.0054295480809546754,0.012594094845940387,-0.27793912285045574
4845,1.0,300.43293,10021.817,0.0,-0.0484500891605788,0.0,0.0,0.0,0.0,-0.6263941806427924,-1.5314451489168686,-0.8885427430073413,-0.00993757295901209,-0.008521738126630072,-0.27271501811737675
4846,1.0,300.69905,10218.14,0.0,-0.048460085147998155,0.0,0.0,0.0,0.0,-0.6493626858971073,-1.5327237692180586,-0.9239728768690232,0.001969155209265488,0.004069458013424236,-0.2812073813130077
4847,1.0,299.74072,10401.655999999999,0.0,-0.04847008113541729,0.0,0.0,0.0,0.0,-0.6942418734338384,-1.5518616318068184,-0.9157400475540062,0.011285090214001689,-0.0010997196476338791,-0.2769089109437817
4848,1.0,300.06734,10325.148000000001,0.0,-0.04848007712283653,0.0,0.0,0.0,0.0,-0.6726572550336024,-1.5527503534695286,-0.9131797064063202,0.0009476816727788989,0.004712790057641166,-0.27735514628782176
4849,1.0,300.14912000000004,10280.964,0.0,-0.048490073110256104,0.0,0.0,0.0,0.0,-0.6804889588990313,-1.5499263241158185,-0.8947410066515622,0.0009485805877376151,-0.016891088909770684,-0.2634628895992628
4850,1.0,299.97213999999997,10322.675,0.0,-0.04850006909767535,0.0,0.0,0.0,0.0,-0.6718000758465054,-1.5488315073827685,-0.9172037886484661,0.002560310446207968,-0.011208382115181189,-0.24425365367345875
4851,1.0,299.33407,10415.601999999999,0.0,-0.0485100650850947,0.0,0.0,0.0,0.0,-0.6951837299317923,-1.5418434254180984,-0.929055856128174,0.014555037764470386,-0.0005592725727409055,-0.24067440849021476
4852,1.0,299.2649,10397.677,0.0,-0.04852006107251394,0.0,0.0,0.0,0.0,-0.6681865422798774,-1.5619538054528386,-0.9304939113325992,0.005811247296975454,0.00047591839426198854,-0.24894904450435779
4853,1.0,299.64961,10246.287,0.0,-0.04853009004999065,0.0,0.0,0.0,0.0,-0.6827018869849303,-1.5199155786789884,-0.9119979832121932,-0.004824519626293016,-0.0072541306381269524,-0.24823845220922774
4854,1.0,299.76104,10224.74,0.0,-0.04854008603741011,0.0,0.0,0.0,0.0,-0.6479123703664723,-1.5415741035415185,-0.9185792047317092,-0.006465244001144904,0.007057037383000364,-0.2675768065952748
4855,1.0,299.35967,10328.997,0.0,-0.048550082024829244,0.0,0.0,0.0,0.0,-0.6925421565235894,-1.5377769487917685,-0.909437895377032,0.016259819911969287,0.012748416889170788,-0.2554606658745047
4856,1.0,300.13998,10569.528,0.0,-0.04856007801224871,0.0,0.0,0.0,0.0,-0.7121063136944213,-1.5556979993354385,-0.9450681562659652,0.0005871387236785803,0.007940417393833181,-0.2531318321096668
4857,1.0,299.83157,10343.461,0.0,-0.04857007399966806,0.0,0.0,0.0,0.0,-0.6830457232738643,-1.5325752267533985,-0.9285330292090752,-0.01041415311704689,-0.02211100182718598,-0.24930769450975374
4858,1.0,300.01215,10144.42,0.0,-0.04858006998708719,0.0,0.0,0.0,0.0,-0.6429056381773464,-1.5376203003263087,-0.903124263076425,-0.007207607259785452,-0.015736934224364486,-0.26216682113135076
4859,1.0,300.26718,10336.582,0.0,-0.04859006597450666,0.0,0.0,0.0,0.0,-0.6741631777297253,-1.5419324901018885,-0.9259672063783481,0.0064100723305498845,0.003684537877985577,-0.2602455165567327
4860,1.0,299.68034,10477.619,0.0,-0.04860006196192579,0.0,0.0,0.0,0.0,-0.6908813686821824,-1.5725547319740685,-0.9214983478723061,0.014409065915314087,0.0008353336365310113,-0.2708111921069838
4861,1.0,299.64097000000004,10286.181999999999,0.0,-0.048610090939402606,0.0,0.0,0.0,0.0,-0.6860700113773384,-1.5429484759771586,-0.8977238629584472,-0.0018787982262979486,-0.013315276617865487,-0.2726724818781787
4862,1.0,300.63656000000003,10138.121,0.0,-0.04862008692682196,0.0,0.0,0.0,0.0,-0.6535134750642584,-1.5349157331593883,-0.8933065079549882,-0.0012718310188949487,0.0014192194930160585,-0.2709074711314857
4863,1.0,300.27317,10194.565999999999,0.0,-0.0486300829142412,0.0,0.0,0.0,0.0,-0.6505615836804295,-1.5438484447159786,-0.9044835887480801,0.0013635930757761588,0.007865983636187143,-0.26809328043624675
4864,1.0,300.37728,10382.084,0.0,-0.048640078901660555,0.0,0.0,0.0,0.0,-0.6654394490062604,-1.5481296290384985,-0.9423251362577502,0.0016097947128993686,0.018235014193155784,-0.26502499701343074
4865,1.0,300.67144,10569.813999999998,0.0,-0.04865007488908002,0.0,0.0,0.0,0.0,-0.6864775304350573,-1.5752720660922486,-0.951209829892101,-0.012294573050129888,-0.004970896674164306,-0.26318278674161877
4866,1.0,299.9184,10463.594000000001,0.0,-0.04866007087649915,0.0,0.0,0.0,0.0,-0.6869450338986963,-1.5563225666970786,-0.9374038311845551,-0.008600480021051293,-0.002851137441585357,-0.26337385531297575
4867,1.0,299.63338999999996,10327.015,0.0,-0.048670066863918615,0.0,0.0,0.0,0.0,-0.6893447039780254,-1.5380879152474587,-0.9117221562699711,0.0026941425459161674,0.01090324286081629,-0.25225853211347876
4868,1.0,299.87358,10426.708,0.0,-0.048680062851337746,0.0,0.0,0.0,0.0,-0.7054798708229423,-1.5509632842681587,-0.913015884130152,0.02018447496155258,-0.012864485701375886,-0.26930526941086075
4869,1.0,299.5152,10534.347,0.0,-0.04869009182881456,0.0,0.0,0.0,0.0,-0.7140457351808274,-1.5396051559471984,-0.948527483299874,0.005506146444789344,-0.02041153620296178,-0.24207540913848277
4870,1.0,299.72562,10410.412,0.0,-0.04870008781623392,0.0,0.0,0.0,0.0,-0.6830344761977544,-1.5474636197477685,-0.9340072344643372,-0.000982823567384634,-0.009594891673867081,-0.25992363739746577
4871,1.0,300.11814,10252.381,0.0,-0.04871008380365316,0.0,0.0,0.0,0.0,-0.6611840924287894,-1.5334598954157088,-0.9218238139369272,0.007019540441849702,0.017294799160363784,-0.25059827116212374
4872,1.0,300.43593,10378.017,0.0,-0.04872007979107251,0.0,0.0,0.0,0.0,-0.6833820412470564,-1.5513512577314486,-0.919924800864509,-0.0057925041966256545,0.016687748866452586,-0.2686917971378157
4873,1.0,300.00437999999997,10469.812,0.0,-0.048730075778491866,0.0,0.0,0.0,0.0,-0.7013372585840983,-1.5597522156355585,-0.9214718108521872,-0.002095505267585268,0.01027896123570449,-0.25814232345666377
4874,1.0,299.25706,10341.457,0.0,-0.04874007176591111,0.0,0.0,0.0,0.0,-0.6764927106371323,-1.5545689347490086,-0.9124830868300691,-0.003302144990946337,0.009348073575383031,-0.26496047324706273
4875,1.0,298.9908,10380.864,0.0,-0.04875006775333046,0.0,0.0,0.0,0.0,-0.6708395958117134,-1.5625323712599384,-0.9221513470317522,-0.0023418362967462477,0.012059515238931489,-0.2509257130644398
4876,1.0,299.58067,10393.202,0.0,-0.048760063740749704,0.0,0.0,0.0,0.0,-0.6575453390671724,-1.5592593707869185,-0.942469301481978,-0.001107185071720659,-0.007358487495076173,-0.26516851375759476
4877,1.0,299.55661000000003,10371.469000000001,0.0,-0.04877005972816906,0.0,0.0,0.0,0.0,-0.6676389008658294,-1.5565824653477287,-0.9284462038080061,0.0006275699256613294,-0.01307173790333009,-0.26325037052328876
4878,1.0,299.87302999999997,10330.574,0.0,-0.048780088705645874,0.0,0.0,0.0,0.0,-0.6703963495554683,-1.5481400655145288,-0.9217001670272241,0.01279723527898879,0.0034013807805651467,-0.2657789665453418
4879,1.0,300.34553999999997,10410.249,0.0,-0.04879008469306523,0.0,0.0,0.0,0.0,-0.6952046434138563,-1.5516609069620086,-0.9175901814416001,0.01075832681826419,0.00935107684867943,-0.2748119391993267
4880,1.0,300.61986,10348.042,0.0,-0.04880008068048447,0.0,0.0,0.0,0.0,-0.6846723443218993,-1.5488018191548383,-0.9120723253720302,-0.003480975932895577,-0.006117649668915015,-0.2802595061094597
4881,1.0,300.63383999999996,10281.515,0.0,-0.04881007666790382,0.0,0.0,0.0,0.0,-0.6667579204338834,-1.5407454676097383,-0.9178205945143402,-0.0008873113705583142,-0.008394878099534962,-0.27953906502335774
4882,1.0,300.03422,10383.86,0.0,-0.048820072655323066,0.0,0.0,0.0,0.0,-0.6698457393186273,-1.5579749749601586,-0.9286133292795001,0.0007383393689159222,-0.006430394682505544,-0.2582482891521217
4883,1.0,300.05965,10433.308,0.0,-0.04883006864274242,0.0,0.0,0.0,0.0,-0.6727940235321004,-1.5602369544833985,-0.9384341038862352,0.014739004465876485,0.01033110308585049,-0.2595050333836528
4884,1.0,299.41978,10471.57,0.0,-0.04884006463016166,0.0,0.0,0.0,0.0,-0.6951164805226553,-1.5699918171711287,-0.9179874970708121,-0.012576250498429288,-0.007919291534548224,-0.2475147281928018
4885,1.0,299.42366,10495.128,0.0,-0.048850060617581015,0.0,0.0,0.0,0.0,-0.7025337346996814,-1.5578954348273086,-0.9298277399218532,-0.0012518573262986989,0.0013641969728357588,-0.24752860971917176
4886,1.0,299.49067,10439.392,0.0,-0.04886008959505783,0.0,0.0,0.0,0.0,-0.7057917492037223,-1.5435542982119486,-0.9239685198935931,-0.005917301550492193,0.01827345588869968,-0.23316118939621777
4887,1.0,299.91771,10466.822,0.0,-0.048870085582477185,0.0,0.0,0.0,0.0,-0.6812173742634203,-1.5524574228656185,-0.9479778457831292,0.007090032555281733,0.024068781378903774,-0.25266884774147375
4888,1.0,299.92942999999997,10527.046,0.0,-0.04888008156989643,0.0,0.0,0.0,0.0,-0.6891406962028913,-1.5571177653755586,-0.953700479697909,-0.000950675948414411,-0.002021039592561078,-0.25815102727502276
4889,1.0,300.64099,10401.597,0.0,-0.04889007755731578,0.0,0.0,0.0,0.0,-0.6877514492557834,-1.5436174236931786,-0.9304568567764421,-0.01009312985013936,-0.01091701900917589,-0.2760390154679297
4890,1.0,300.50647999999995,10174.206,0.0,-0.04890007354473502,0.0,0.0,0.0,0.0,-0.6595541073904224,-1.5360732700736286,-0.8970771864796252,-0.005127694391364035,7.531596613710713e-05,-0.2772196848819527
4891,1.0,300.96263,10309.913,0.0,-0.04891006953215438,0.0,0.0,0.0,0.0,-0.6787493807298484,-1.5522068461158884,-0.902999896759151,0.008810740055927342,0.005865041048759484,-0.2856544346768977
4892,1.0,300.33043,10571.885,0.0,-0.04892006551957373,0.0,0.0,0.0,0.0,-0.7007397450001283,-1.5853097268828884,-0.9275397502685461,-0.00035585874455052363,-0.015839624082249183,-0.2806420789497167
4893,1.0,299.5613,10453.324,0.0,-0.04893006150699297,0.0,0.0,0.0,0.0,-0.6678096031101765,-1.5873440291086587,-0.9223958442808821,-0.003994452782721796,-0.012986363476404288,-0.2820321162319028
4894,1.0,299.94622999999996,10337.059000000001,0.0,-0.04894009048446979,0.0,0.0,0.0,0.0,-0.6546597345048853,-1.5657392065014286,-0.921809040750469,0.005257680598992675,0.011076407302906289,-0.26535142566564673
4895,1.0,300.22357999999997,10407.373,0.0,-0.04895008647188914,0.0,0.0,0.0,0.0,-0.6614401407290593,-1.5682664549008485,-0.9338749040012772,0.005480429144001245,0.009725440437951241,-0.26008591953348176
4896,1.0,300.48843999999997,10496.215,0.0,-0.048960082459308274,0.0,0.0,0.0,0.0,-0.6800430579275243,-1.5679212405917784,-0.9426229101971382,0.0041823000293608765,-0.00947929412428349,-0.2553827266768128
4897,1.0,299.72719,10456.678,0.0,-0.04897007844672774,0.0,0.0,0.0,0.0,-0.6832009835866873,-1.5552669627428986,-0.9401009712282421,0.007682848205163083,-0.0005407821769660454,-0.2476267632563588
4898,1.0,299.57694,10408.854,0.0,-0.04898007443414687,0.0,0.0,0.0,0.0,-0.6990068745466073,-1.5410689983666686,-0.9239557428098321,0.014202761102203384,0.015000936709477185,-0.26521968288764475
4899,1.0,300.01599999999996,10323.437,0.0,-0.048990070421566334,0.0,0.0,0.0,0.0,-0.6688663520369693,-1.5392296454601384,-0.9299711857385101,0.004059566564623027,0.025473446952783474,-0.26666505375779176
4900,1.0,299.73537999999996,10356.851999999999,0.0,-0.04900006640898569,0.0,0.0,0.0,0.0,-0.6788222739420424,-1.5512812421495386,-0.918120779988966,-0.0063695750545281135,-0.01014344207457979,-0.28518757969332276
4901,1.0,299.46041,10517.206,0.0,-0.04901006239640493,0.0,0.0,0.0,0.0,-0.6942860207406953,-1.5611861671770786,-0.941495983568419,-0.007873388163942913,-0.00945883944186477,-0.26830180730682673
4902,1.0,300.14194,10510.65,0.0,-0.04902009137388186,0.0,0.0,0.0,0.0,-0.7134695606439633,-1.5452098475503384,-0.9362956496826862,0.01152486470441559,0.007596370754178423,-0.26231840334631074
4903,1.0,299.9551,10455.878,0.0,-0.0490300873613011,0.0,0.0,0.0,0.0,-0.6897098793140654,-1.5603054501901588,-0.9283105802821211,-0.001054396058735789,-0.0023698680634127675,-0.2502330958260838
4904,1.0,300.17607000000004,10499.311000000002,0.0,-0.04904008334872023,0.0,0.0,0.0,0.0,-0.6975974233925054,-1.5586581081775785,-0.935272875031746,0.0004416956492194666,-0.00968509717594467,-0.24907895329967877
4905,1.0,300.21542,10713.748,0.0,-0.049050079336139696,0.0,0.0,0.0,0.0,-0.7078020779321264,-1.5834150505208986,-0.9654949236444301,-0.007911573709861532,-0.002781613488623877,-0.24564284995806177
4906,1.0,300.12717999999995,10615.568000000001,0.0,-0.04906007532355883,0.0,0.0,0.0,0.0,-0.7036381874411823,-1.5739572727624884,-0.9492720802683602,0.013547113306995987,0.02269251112582648,-0.25728740381728976
4907,1.0,300.18044,10460.308,0.0,-0.04907007131097818,0.0,0.0,0.0,0.0,-0.6866265693922664,-1.5680577253802486,-0.924988153469223,-0.002050882543781348,0.014970179502691685,-0.2573625160472027
4908,1.0,300.47479,10458.838,0.0,-0.049080067298397645,0.0,0.0,0.0,0.0,-0.6768751922848804,-1.5730316687961385,-0.929318885721633,-0.008069344248482272,0.0005112582576722615,-0.2718994227143837
4909,1.0,300.25667000000004,10425.438,0.0,-0.049090063285816776,0.0,0.0,0.0,0.0,-0.6732312409502503,-1.5632926128099685,-0.9325488939929102,0.0028043603454188173,-0.015429383434761586,-0.2692200550774507
4910,1.0,299.88111000000004,10479.508,0.0,-0.049100092263293815,0.0,0.0,0.0,0.0,-0.6727076743585784,-1.5813934139213786,-0.9314076906702821,0.01012732207608887,0.01087469453924879,-0.2886949955769777
4911,1.0,299.36845,10524.421,0.0,-0.04911008825071295,0.0,0.0,0.0,0.0,-0.6897102947466064,-1.5795550742649487,-0.929895931653583,0.0005442858539568315,0.0026284677274345677,-0.2815832971001077
4912,1.0,300.06652,10401.68,0.0,-0.04912008423813219,0.0,0.0,0.0,0.0,-0.6862058476857443,-1.5588186069934185,-0.9168265961662402,-0.02174267933633538,-0.019123239363316783,-0.2888407921338667
4913,1.0,299.67528,10383.615,0.0,-0.04913008022555154,0.0,0.0,0.0,0.0,-0.6775427721132654,-1.5693352311063284,-0.9094816069863462,-0.003985632237951277,0.006750172969015203,-0.25750789717155076
4914,1.0,299.78312,10593.987,0.0,-0.049140076212970785,0.0,0.0,0.0,0.0,-0.7038897977060143,-1.5758809280773383,-0.9405367295662482,0.010987490553630888,0.003554470914323966,-0.25283278147515276
4915,1.0,299.9296,10574.926000000001,0.0,-0.04915007220039036,0.0,0.0,0.0,0.0,-0.6887782465096203,-1.5761767971065384,-0.949558374084115,0.020895214177947083,0.005958748444507684,-0.24441845880222376
4916,1.0,299.76755,10399.583,0.0,-0.0491600681878096,0.0,0.0,0.0,0.0,-0.6753997481517653,-1.5643680764661085,-0.9214456284696031,-0.006985371824627523,-0.01752341472742638,-0.2580619828562348
4917,1.0,300.27648,10381.49,0.0,-0.049170064175228734,0.0,0.0,0.0,0.0,-0.6704563238288873,-1.5606336418975484,-0.924623869793271,0.003952561781187476,-0.007557627515404762,-0.2702214197537778
4918,1.0,301.04364,10510.258999999998,0.0,-0.04918006016264809,0.0,0.0,0.0,0.0,-0.6942366754608253,-1.5734640226138086,-0.9271555258306261,-0.007936248173646712,0.023194533993872276,-0.26274347189576175
4919,1.0,300.14166,10552.524,0.0,-0.049190089140124904,0.0,0.0,0.0,0.0,-0.6905224754967624,-1.5807775605105985,-0.9364036722758472,-0.0018242257918120685,0.007445786489241914,-0.27833696536971975
4920,1.0,299.58963,10587.045,0.0,-0.049200085127544146,0.0,0.0,0.0,0.0,-0.7049894172445383,-1.5737917076961485,-0.9394161661481572,-0.015830239359822987,-0.005071803110547995,-0.26307270725075477
4921,1.0,300.25125,10588.968,0.0,-0.0492100811149635,0.0,0.0,0.0,0.0,-0.6964259137593863,-1.5822512314560384,-0.9401048621086261,-0.01171316304999919,0.00912682322197232,-0.27378912401838273
4922,1.0,300.03947,10551.492,0.0,-0.04922007710238285,0.0,0.0,0.0,0.0,-0.7110278204204824,-1.5641035168649986,-0.932258790356779,0.0017604809107959385,0.0036072812055609367,-0.25096176450299773
4923,1.0,300.09553,10509.423999999999,0.0,-0.04923007308980232,0.0,0.0,0.0,0.0,-0.6825662533265443,-1.5782989481159786,-0.9337372033126871,0.0002225788965443268,-0.00972635104581611,-0.27817703397393573
4924,1.0,299.44734,10430.391,0.0,-0.04924006907722145,0.0,0.0,0.0,0.0,-0.6948830986271224,-1.5613602435442586,-0.9143349128453302,-0.002060897507769748,-0.015453465349888286,-0.24789338988767276
4925,1.0,299.34071,10350.671999999999,0.0,-0.04925006506464069,0.0,0.0,0.0,0.0,-0.6733273071922314,-1.5504165345141985,-0.9226019798812262,0.01850016755882438,0.0035242911587704566,-0.27000460449737973
4926,1.0,299.74102999999997,10482.803,0.0,-0.049260061052060045,0.0,0.0,0.0,0.0,-0.6791868413280224,-1.5787873346641785,-0.928536251344393,0.012082534254703289,0.014660162462345385,-0.26233336905028776
4927,1.0,300.14803,10587.611,0.0,-0.04927009002953686,0.0,0.0,0.0,0.0,-0.6817123469372703,-1.5842671938549986,-0.9523897596335511,0.02218186752592988,-0.0008749088853592841,-0.2754742197296887
4928,1.0,299.7662,10545.545,0.0,-0.049280086016956104,0.0,0.0,0.0,0.0,-0.6798389792248833,-1.5900310670488484,-0.9357121898776031,0.005394753173845684,-0.010710802348823888,-0.2788156449819617
4929,1.0,299.87911,10461.505,0.0,-0.04929008200437546,0.0,0.0,0.0,0.0,-0.6642587593272354,-1.5883272870056984,-0.9274502701522152,0.002200641719161428,0.01059280734817869,-0.27770324835967675
4930,1.0,300.30078,10556.183,0.0,-0.04930007799179481,0.0,0.0,0.0,0.0,-0.6967687671957233,-1.5770486988175882,-0.934998517302169,0.0014496643147957288,0.016156912205313085,-0.2611611298770967
4931,1.0,300.59123,10536.183,0.0,-0.049310073979214164,0.0,0.0,0.0,0.0,-0.6954000689606433,-1.5748432586499286,-0.9324931044424041,-0.016949275810013285,0.0016252987566544985,-0.26225247116230377
4932,1.0,300.89105,10461.275,0.0,-0.049320069966633406,0.0,0.0,0.0,0.0,-0.6883467336895334,-1.5519935569698384,-0.9396262027613861,-0.004545665599397266,-0.0016407690591812984,-0.24714896517170376
4933,1.0,300.07761,10574.59,0.0,-0.04933006595405265,0.0,0.0,0.0,0.0,-0.7035373893212343,-1.5710802504285484,-0.9397937436654211,0.00046842139730209254,-0.01035411298237139,-0.25002013092006575
4934,1.0,299.3395,10730.197,0.0,-0.049340061941472,0.0,0.0,0.0,0.0,-0.7155445651262503,-1.5828880591438883,-0.9632791483257501,0.004679354020241285,0.0018964547172405084,-0.2548262598543938
4935,1.0,299.62964,10683.837,0.0,-0.04935009091894882,0.0,0.0,0.0,0.0,-0.6974497117929274,-1.5900966243303185,-0.9600733364668611,-0.013790960049561787,-0.024287787282017977,-0.26407874301004275
4936,1.0,299.85497000000004,10562.055,0.0,-0.04936008690636795,0.0,0.0,0.0,0.0,-0.6873093581046523,-1.5897486742459785,-0.9335427606184971,0.00883241823784181,-0.01011166503156864,-0.27387757061961177
4937,1.0,299.3803,10592.315,0.0,-0.049370082893787526,0.0,0.0,0.0,0.0,-0.6828273982748173,-1.5823265159384685,-0.9546454874036742,0.008049168209841053,0.017241968300149783,-0.25895457513432674
4938,1.0,300.1248,10558.205,0.0,-0.04938007888120677,0.0,0.0,0.0,0.0,-0.7052100220563103,-1.5812787140100586,-0.9229419962172831,0.014152857521528287,0.018669139172000585,-0.27255705242678674
4939,1.0,299.46451,10442.756,0.0,-0.04939007486862612,0.0,0.0,0.0,0.0,-0.6678017402894003,-1.5859618546472485,-0.9205734734460281,-0.02114040347689538,0.0007991354185635253,-0.27883432931380575
4940,1.0,299.61522,10417.71,0.0,-0.049400070856045364,0.0,0.0,0.0,0.0,-0.6919797824530873,-1.5598282093930587,-0.9149155659476361,-0.004060311708746566,-0.007455371024587833,-0.27506198905900475
4941,1.0,300.19362,10477.94,0.0,-0.049410066843464495,0.0,0.0,0.0,0.0,-0.6755545018395384,-1.5843402491872087,-0.925137303883943,-0.0006303547422361694,-4.1073601532898865e-06,-0.2704883908901257
4942,1.0,299.95761,10481.053,0.0,-0.04942006283088396,0.0,0.0,0.0,0.0,-0.7024056396220394,-1.5667673513778986,-0.9168054901666572,0.007804972098640772,-0.012690647447969387,-0.26233017731247277
4943,1.0,299.76511,10610.206,0.0,-0.04943009180836078,0.0,0.0,0.0,0.0,-0.6886712169015574,-1.5685473278285684,-0.9680190005710372,-0.00915451777900556,-0.02850618961509187,-0.26441010619024574
4944,1.0,300.48127,10710.163999999999,0.0,-0.04944008779578013,0.0,0.0,0.0,0.0,-0.7136806814347992,-1.5902864060740485,-0.951655366093572,-0.004249171597535586,-0.010567489267929988,-0.25637412097215573
4945,1.0,300.24601,10617.237,0.0,-0.04945008378319948,0.0,0.0,0.0,0.0,-0.6906603991003744,-1.5828338502635384,-0.953880615300687,0.01131042754600229,0.014747490435463986,-0.27525571234562374
4946,1.0,299.67803,10623.575,0.0,-0.049460079770618726,0.0,0.0,0.0,0.0,-0.6986179182307204,-1.5966664366537087,-0.9340172859053293,-0.003948993114335276,0.016917492180876483,-0.26598139365031975
4947,1.0,299.95572000000004,10541.764,0.0,-0.04947007575803808,0.0,0.0,0.0,0.0,-0.6793553245546504,-1.5899802018938285,-0.9350975219694402,0.0026975230522247973,0.0044245778554718364,-0.28674630285215674
4948,1.0,300.03843,10454.286,0.0,-0.04948007174545732,0.0,0.0,0.0,0.0,-0.6819821045113934,-1.5728213180753785,-0.9230383968317971,-0.005249926702602424,0.0068491619309096535,-0.2610642834325388
4949,1.0,300.22479,10505.729,0.0,-0.04949006773287645,0.0,0.0,0.0,0.0,-0.6680371588176344,-1.5845812000609882,-0.9408609898632501,0.005045520213554075,0.019828443194414982,-0.2697178648515808
4950,1.0,299.43911,10604.046999999999,0.0,-0.04950006372029592,0.0,0.0,0.0,0.0,-0.7082645252777664,-1.5729023780833784,-0.9421986623802682,-0.015942379801390384,0.002815446010787887,-0.24659540637707175
4951,1.0,299.70684,10612.527,0.0,-0.04951009269777262,0.0,0.0,0.0,0.0,-0.6854132530600213,-1.5890800305049884,-0.951449878973292,-0.0023414701081601076,-0.009054450617679701,-0.2614471703803268
4952,1.0,299.94545,10659.666000000001,0.0,-0.04952008868519209,0.0,0.0,0.0,0.0,-0.7092299195755434,-1.5931544104820985,-0.9378880431423431,-0.02257151386513498,-0.004578273710140436,-0.2527955141364748
4953,1.0,299.83426000000003,10819.983999999999,0.0,-0.04953008467261144,0.0,0.0,0.0,0.0,-0.7151079049956554,-1.6006508400219384,-0.973246418631943,0.01067431419947279,0.017056232464069086,-0.25313547981002676
4954,1.0,300.13372000000004,10826.889,0.0,-0.04954008066003068,0.0,0.0,0.0,0.0,-0.7270478516565363,-1.6023214867868183,-0.961734630933318,-0.012878616487270489,-0.009369028094076082,-0.2585714348740138
4955,1.0,300.13771,10579.233999999999,0.0,-0.049550076647450036,0.0,0.0,0.0,0.0,-0.6800265014208904,-1.5925460551220585,-0.9432504261165691,0.005549928069685255,-0.015847764533552584,-0.2708327439366107
4956,1.0,299.40495,10514.788999999999,0.0,-0.04956007263486917,0.0,0.0,0.0,0.0,-0.6847037348099974,-1.5796485972491785,-0.931880908864485,-0.004133397337134556,0.004985651216820465,-0.2657631294462787
4957,1.0,300.29008999999996,10502.823,0.0,-0.04957006862228863,0.0,0.0,0.0,0.0,-0.6679101580501005,-1.5913116125252287,-0.9333742064643621,0.007884159721780982,0.02207162794155008,-0.29459501918676473
4958,1.0,299.86521,10438.905999999999,0.0,-0.049580064609707986,0.0,0.0,0.0,0.0,-0.6834141714077273,-1.5789100392512885,-0.9108426653156722,0.0033099026363619566,0.0031636901403069065,-0.2913644333629307
4959,1.0,299.76046,10445.759,0.0,-0.04959006059712723,0.0,0.0,0.0,0.0,-0.6874014625387423,-1.5788965630249585,-0.9089517177140501,-3.335493990162627e-05,-0.006339692383903924,-0.3003813257378287
4960,1.0,300.22317000000004,10517.0,0.0,-0.049600089574603934,0.0,0.0,0.0,0.0,-0.6898268894356133,-1.5798879269227986,-0.9271906349465912,0.01321290390726209,-0.004681184861846975,-0.2684351510199868
4961,1.0,300.38246000000004,10573.351,0.0,-0.0496100855620234,0.0,0.0,0.0,0.0,-0.6909132353978273,-1.5845911299119686,-0.938530129598212,0.01102963365179009,0.0067129125204378835,-0.26220225448734774
4962,1.0,299.77291,10719.732,0.0,-0.04962008154944253,0.0,0.0,0.0,0.0,-0.7063672144655163,-1.5951752364815384,-0.9569882837548902,0.0055046379180404646,-0.008497019485140532,-0.25583297449124875
4963,1.0,299.71497999999997,10820.311000000002,0.0,-0.049630077536861994,0.0,0.0,0.0,0.0,-0.7074603998659054,-1.6111904649121185,-0.9704535771163111,-0.01091692173716629,-0.017062091076147284,-0.26953033252307274
4964,1.0,300.09413,10696.538999999999,0.0,-0.049640073524281125,0.0,0.0,0.0,0.0,-0.7040359590329394,-1.5987435993587087,-0.9487012151620201,-0.003890758692662986,0.008074169142808452,-0.2604230886367577
4965,1.0,299.92722000000003,10597.035,0.0,-0.04965006951170059,0.0,0.0,0.0,0.0,-0.6905835339477884,-1.5872002489194685,-0.9434503707588022,-0.0003187472944004087,0.01825021902415638,-0.26926887346726874
4966,1.0,298.91822,10619.193000000001,0.0,-0.04966006549911994,0.0,0.0,0.0,0.0,-0.7073205206896004,-1.5824398986246586,-0.9382089799790171,0.01078509688590619,-0.0073955650520104435,-0.2724977772959367
4967,1.0,299.31034,10508.059,0.0,-0.049670061486539074,0.0,0.0,0.0,0.0,-0.6775630675127683,-1.5778969918013086,-0.9387275107176921,0.01884966892906748,-0.008766543606440491,-0.2651874919319678
4968,1.0,300.3342,10515.353000000001,0.0,-0.04968009046401589,0.0,0.0,0.0,0.0,-0.6877600720141344,-1.5783883167747985,-0.9302563143166501,0.024306526329367376,-0.009601651571909231,-0.2762888525450867
4969,1.0,299.86272,10700.851999999999,0.0,-0.049690086451435356,0.0,0.0,0.0,0.0,-0.6836337832344014,-1.6013472468156684,-0.967810818205491,0.016227505339780086,0.004363399131658965,-0.26213578528078774
4970,1.0,300.29352,10681.27,0.0,-0.04970008243885449,0.0,0.0,0.0,0.0,-0.7127161078696033,-1.5976197023477883,-0.9365035078082002,0.0030238332555041067,-0.006232505418100395,-0.2681888400531777
4971,1.0,300.07524,10715.401000000002,0.0,-0.04971007842627384,0.0,0.0,0.0,0.0,-0.6926440084236414,-1.6017157658770385,-0.9628545256063432,-0.012709451343325188,-0.009771933722764772,-0.24960628918172278
4972,1.0,299.73641000000003,10723.931,0.0,-0.04972007441369308,0.0,0.0,0.0,0.0,-0.7171976623993983,-1.5858848476396485,-0.956724595548866,0.0023023164017709377,0.01891324935959238,-0.25465576026006675
4973,1.0,300.66531000000003,10709.841999999999,0.0,-0.049730070401112436,0.0,0.0,0.0,0.0,-0.7016765251150814,-1.5937396637398586,-0.960108445582826,-0.015882537250484385,0.014766701657359984,-0.2529944151311047
4974,1.0,300.07286,10588.89,0.0,-0.0497400663885319,0.0,0.0,0.0,0.0,-0.6856422475826214,-1.5866037485855984,-0.9465120984534711,-0.00094057596261012,-0.00945201388521614,-0.28461844724465374
4975,1.0,299.49571000000003,10610.673,0.0,-0.04975006237595103,0.0,0.0,0.0,0.0,-0.6828156141761543,-1.5884900149717587,-0.9540741156722841,-0.02044853300386308,-0.012597181205744988,-0.2893268583393377
4976,1.0,299.731,10567.413,0.0,-0.04976009135342785,0.0,0.0,0.0,0.0,-0.6918448074072664,-1.5908453148292085,-0.9295394804009042,0.018116178194927585,0.0036982736989911963,-0.29041648723187574
4977,1.0,299.81461,10407.501,0.0,-0.0497700873408472,0.0,0.0,0.0,0.0,-0.6646681731626414,-1.5692863924515086,-0.9296657718933682,0.01030241594901929,0.01062876050147699,-0.26891796469263674
4978,1.0,299.68932,10557.028999999999,0.0,-0.049780083328266445,0.0,0.0,0.0,0.0,-0.6826205027368983,-1.5845516131580684,-0.941901121488403,0.006489586726847344,0.005223623540606505,-0.27437099302080875
4979,1.0,299.90282,10749.67,0.0,-0.0497900793156858,0.0,0.0,0.0,0.0,-0.6961007921997993,-1.6006595539727986,-0.970870965230004,0.012873666760531989,-0.009503557917803142,-0.25310024910404977
4980,1.0,299.45581,10695.445,0.0,-0.04980007530310515,0.0,0.0,0.0,0.0,-0.7053754351351353,-1.6078805821354585,-0.9378921265402461,-0.004325067880375966,-0.00027337934541294074,-0.2684195469684468
4981,1.0,300.02269,10780.411,0.0,-0.049810071290524394,0.0,0.0,0.0,0.0,-0.6972528879610024,-1.6102954610987883,-0.9694274182100371,-0.006320205254005694,0.002390576463656528,-0.25621063306852077
4982,1.0,299.74374,10851.376,0.0,-0.04982006727794375,0.0,0.0,0.0,0.0,-0.7416575603434022,-1.6051528115412486,-0.951736963124125,-0.023696115084874476,-0.01051923019216719,-0.27069848829836074
4983,1.0,299.90811,10855.513,0.0,-0.04983006326536299,0.0,0.0,0.0,0.0,-0.7172317582652633,-1.6086835828397086,-0.973889487940409,-0.018970741170266384,0.027168160434038673,-0.2559093532837868
4984,1.0,300.48019,10797.465,0.0,-0.049840092242839806,0.0,0.0,0.0,0.0,-0.7211451733314873,-1.6031906527225985,-0.957823870582356,-0.018407339664162983,0.02217535435428708,-0.26221406898351374
4985,1.0,299.85618,10647.191,0.0,-0.04985008823025916,0.0,0.0,0.0,0.0,-0.6938201891397213,-1.5757759553669786,-0.966884008471522,-0.003188982585328077,0.02148532191693618,-0.25692123549615176
4986,1.0,299.74307999999996,10509.319,0.0,-0.0498600842176784,0.0,0.0,0.0,0.0,-0.6713606394106363,-1.5804318395764787,-0.942778170509961,-0.0086647748942217,-0.01013663506040799,-0.27618176214201773
4987,1.0,300.41809,10522.952,0.0,-0.049870080205097755,0.0,0.0,0.0,0.0,-0.6756657465680174,-1.5888365465059586,-0.9342122656220722,0.01998656593877048,-0.018856683659509783,-0.29674733465168174
4988,1.0,300.5211,10640.783000000001,0.0,-0.04988007619251711,0.0,0.0,0.0,0.0,-0.7021352943628583,-1.5998005205380184,-0.9325966788676261,0.003828453336063926,-0.008261646553161034,-0.29139159859811176
4989,1.0,299.95099999999996,10743.73,0.0,-0.04989007217993635,0.0,0.0,0.0,0.0,-0.7154484583542653,-1.6042679402289184,-0.9461093720687251,0.015797551911596982,-0.0021637207093676077,-0.27565024153706075
4990,1.0,300.74301,10816.296999999999,0.0,-0.049900068167355704,0.0,0.0,0.0,0.0,-0.7124843167767273,-1.6206022411159884,-0.95479763703869,0.0008539513471809361,-0.007869186215778212,-0.27280576479633273
4991,1.0,300.01097999999996,10756.448,0.0,-0.04991006415477495,0.0,0.0,0.0,0.0,-0.6986480928186983,-1.6234596063979883,-0.9475838232167422,0.0036000021181675466,0.00981286517645439,-0.25971586033195976
4992,1.0,299.59674,10794.19,0.0,-0.049920093132251764,0.0,0.0,0.0,0.0,-0.6971613914769723,-1.6146285238264284,-0.969374212447286,-0.0014850581540388284,0.018515795928366784,-0.2684105594400597
4993,1.0,300.01516000000004,10834.982,0.0,-0.04993008911967112,0.0,0.0,0.0,0.0,-0.7084465657907323,-1.6147221481356684,-0.9703951328505431,-0.005454569582899105,0.0008011644822862783,-0.25761511929713277
4994,1.0,299.54454,10689.258999999998,0.0,-0.04994008510709025,0.0,0.0,0.0,0.0,-0.7061298403645893,-1.6034492341481184,-0.939688689895053,-0.007267649116986123,-0.01116403823780479,-0.2973825006093677
4995,1.0,299.35713,10590.936000000002,0.0,-0.04995008109450971,0.0,0.0,0.0,0.0,-0.6910959851858633,-1.5789021359005087,-0.9493818557841941,0.011574851371598888,-0.003838678954748116,-0.26533606479413074
4996,1.0,301.06592,10604.44,0.0,-0.049960077081929066,0.0,0.0,0.0,0.0,-0.6937436380946663,-1.5938175826725485,-0.935923797028487,0.005830794917904655,0.00831052979098543,-0.28612377212321777
4997,1.0,300.50088,10603.381000000001,0.0,-0.04997007306934831,0.0,0.0,0.0,0.0,-0.6783518827156183,-1.5789396261542086,-0.9658715791041032,0.007867591664095843,-0.004017309982452626,-0.2546067493527297
4998,1.0,299.97522999999995,10781.598999999998,0.0,-0.04998006905676766,0.0,0.0,0.0,0.0,-0.7171254379322703,-1.6046800290445884,-0.9555313314361,-0.005640168934191335,-0.011286237213114888,-0.27585452288972173
4999,1.0,300.9367,10942.936000000002,0.0,-0.049990065044186904,0.0,0.0,0.0,0.0,-0.7145684911724193,-1.6342085687588284,-0.977602157896821,0.0013345981135645787,0.0056299852640612855,-0.2639624218985627
5000,1.0,299.71283,10796.028999999999,0.0,-0.05000009402166361,0.0,0.0,0.0,0.0,-0.7249664535661183,-1.6035550174585587,-0.953201828926196,0.008464838155339481,0.0019367387041162281,-0.26210919759816376
5001,1.0,299.88968,10854.666000000001,0.0,-0.050010090009083075,0.0,0.0,0.0,0.0,-0.7121849925646864,-1.6198880011204984,-0.9674743381122831,0.007636480056736903,0.007488491535906573,-0.2512352711024908
5002,1.0,299.85548,10858.625,0.0,-0.050020085996502206,0.0,0.0,0.0,0.0,-0.7369314579019722,-1.6060332245531383,-0.9577862688711452,0.0009590629538646441,-0.0034334781119329063,-0.24315340591987275
5003,1.0,299.51205,10672.721000000001,0.0,-0.05003008198392178,0.0,0.0,0.0,0.0,-0.6768873715510824,-1.6009849085799086,-0.9663685884106541,0.004920770381117225,-0.01233587515070609,-0.25375075566824973
5004,1.0,300.16611,10629.835,0.0,-0.050040077971341024,0.0,0.0,0.0,0.0,-0.6873747836636094,-1.5995681822900882,-0.9442615585238601,3.4944517539255364e-05,0.004814409720770245,-0.2592149804100268
5005,1.0,300.33047,10664.32,0.0,-0.050050073958760155,0.0,0.0,0.0,0.0,-0.6684084136542744,-1.5987381278081685,-0.9745404504671541,-0.0010439272600275991,-0.006354770761292044,-0.27234199009306176
5006,1.0,300.17383,10664.437,0.0,-0.05006006994617962,0.0,0.0,0.0,0.0,-0.6895654506448113,-1.6086611900124985,-0.943495997410805,-0.0034339058048001164,-0.01048947002348009,-0.29971710989977574
5007,1.0,300.48447999999996,10769.505,0.0,-0.05007006593359875,0.0,0.0,0.0,0.0,-0.6927431346809243,-1.6210863720137685,-0.9598312000904641,-0.008688517573214921,-0.007764334386155143,-0.30028310127313473
5008,1.0,299.4919,10710.714,0.0,-0.050080061921018215,0.0,0.0,0.0,0.0,-0.7135599932153883,-1.6033027181836585,-0.9389268980723702,0.007254798471267863,0.007837003467427023,-0.29147262820860875
5009,1.0,298.79643,10702.177,0.0,-0.05009009089849492,0.0,0.0,0.0,0.0,-0.6847295321575433,-1.6221947662981586,-0.946270083667086,-0.012244424262930589,0.00995323851483316,-0.27527880431540275
5010,1.0,299.50338,10787.291000000001,0.0,-0.050100086885914386,0.0,0.0,0.0,0.0,-0.7223750461703663,-1.6129737850881185,-0.943718426072757,-0.007867610003922653,0.011104186567647889,-0.27519009426914776
5011,1.0,298.81846,10817.665,0.0,-0.05011008287333374,0.0,0.0,0.0,0.0,-0.7092389273689323,-1.6145250709912184,-0.964536206664812,-0.013495260233128487,0.0004007615408145846,-0.2560429503094718
5012,1.0,299.10618,10679.51,0.0,-0.05012007886075298,0.0,0.0,0.0,0.0,-0.6989933273927703,-1.6161228650739086,-0.9311883321561332,0.008261575321679003,0.015586032913471685,-0.27502854167320373
5013,1.0,299.67484,10615.614,0.0,-0.05013007484817211,0.0,0.0,0.0,0.0,-0.7019496162820333,-1.5884178715646384,-0.9365140962717451,0.011116711352133988,-0.0021939445413004677,-0.25847490253698674
5014,1.0,299.79278,10768.798999999999,0.0,-0.05014007083559158,0.0,0.0,0.0,0.0,-0.7179968836807753,-1.6026415724934084,-0.9528074314572721,0.005397194295986604,-0.021874929752637478,-0.27841329349975275
5015,1.0,299.98883,10845.785,0.0,-0.05015006682301071,0.0,0.0,0.0,0.0,-0.7117896021106643,-1.6100047596450986,-0.9750532968727681,-0.011736830545834988,-0.01988839416308168,-0.27733395922823073
5016,1.0,299.93122,10720.618,0.0,-0.050160062810430284,0.0,0.0,0.0,0.0,-0.6904718332567643,-1.5991674418755384,-0.969160801711224,-0.016261383356873584,-0.0032434729465558565,-0.2757567847850757
5017,1.0,299.59981,10735.749,0.0,-0.05017009178790688,0.0,0.0,0.0,0.0,-0.6860459872174673,-1.6189142677743986,-0.9584392477655892,-0.008755325509283353,0.01236126922471229,-0.2958807930336607
5018,1.0,300.15606,10874.785,0.0,-0.05018008777532634,0.0,0.0,0.0,0.0,-0.7244209298447793,-1.6047039417469484,-0.9765381844968151,-0.014223916751041286,0.00945010593527784,-0.26472024178085374
5019,1.0,300.6133,10813.229,0.0,-0.050190083762745696,0.0,0.0,0.0,0.0,-0.7139202441559422,-1.6164957411107086,-0.956535523080206,-0.001029636279292189,0.003443434206090497,-0.28308836866614673
5020,1.0,300.57349,10745.749,0.0,-0.05020007975016483,0.0,0.0,0.0,0.0,-0.7085974184656203,-1.6152747747402085,-0.9425672928991492,0.0042285087935463265,0.005770166084921055,-0.2477632379123278
5021,1.0,300.05075,10741.305,0.0,-0.05021007573758407,0.0,0.0,0.0,0.0,-0.6893693664854593,-1.6152948370921885,-0.960424224976491,0.00905592246477496,-0.00036869427257729166,-0.2629981016458917
5022,1.0,299.63501,10826.062,0.0,-0.05022007172500342,0.0,0.0,0.0,0.0,-0.7081638082178263,-1.6266269248855785,-0.9560618793209611,-0.013484296867046486,-0.020053964295672178,-0.25393665666409676
5023,1.0,299.68287999999995,10940.748,0.0,-0.05023006771242289,0.0,0.0,0.0,0.0,-0.7067485916706553,-1.6277430198707286,-0.991222498788544,-0.002086417528763378,-0.017082193958131285,-0.2862280051610047
5024,1.0,299.81658,10872.465,0.0,-0.05024006369984224,0.0,0.0,0.0,0.0,-0.7186153006143083,-1.6281442669103285,-0.9581983070243101,-0.012914634488575188,0.012076639165621489,-0.2671990162954898
5025,1.0,299.72015,10585.077,0.0,-0.050250092677318836,0.0,0.0,0.0,0.0,-0.6658444248062284,-1.6147232627107786,-0.9370315124353101,0.006803638934391883,0.012083455299044189,-0.2913727217487487
5026,1.0,300.05111,10634.752,0.0,-0.05026008866473819,0.0,0.0,0.0,0.0,-0.6928778057517153,-1.5955820563966885,-0.944239358214169,-0.001141067040489549,-0.007833650622846123,-0.28394838495352376
5027,1.0,299.73036,10810.58,0.0,-0.050270084652157654,0.0,0.0,0.0,0.0,-0.6985038566669634,-1.6127136837874485,-0.974928849495486,0.00030130321107631176,0.006088096507223344,-0.28185135241406273
5028,1.0,299.14744,10769.067,0.0,-0.050280080639576785,0.0,0.0,0.0,0.0,-0.7061990656114213,-1.6119614469132086,-0.9553668606798681,0.004132449745641036,0.009425842445733221,-0.2702744532640117
5029,1.0,300.14911,10769.782,0.0,-0.05029007662699603,0.0,0.0,0.0,0.0,-0.7036226036546444,-1.6080221331744287,-0.9620999075943681,0.010998340435701689,0.002263104737476048,-0.2668495463359997
5030,1.0,300.19919,10808.347,0.0,-0.05030007261441538,0.0,0.0,0.0,0.0,-0.7191610269856673,-1.6210983283649485,-0.9452081671647831,-0.006549042317540154,-0.004503221464633355,-0.26978243928045376
5031,1.0,300.09311,10798.042,0.0,-0.050310068601834734,0.0,0.0,0.0,0.0,-0.7120690666207453,-1.6126771054588382,-0.9575888573541622,0.01051142411339679,-0.007996539796997033,-0.2556931966399537
5032,1.0,300.41955,10925.264,0.0,-0.0503200645892542,0.0,0.0,0.0,0.0,-0.7317868629042403,-1.6272158258436986,-0.9620047634099781,0.017078104480727684,0.01041868943774459,-0.24955782542943974
5033,1.0,300.43196,10954.107,0.0,-0.050330093566730905,0.0,0.0,0.0,0.0,-0.6975969167674554,-1.6397180148525683,-0.9924601432556901,0.0026984692251681773,0.0047498443098231355,-0.26171161852392577
5034,1.0,300.39745,10872.847,0.0,-0.05034008955415015,0.0,0.0,0.0,0.0,-0.7190458407142993,-1.6206118669919385,-0.965416285304169,-0.008072917778934952,-0.004136487648614546,-0.26953467936600173
5035,1.0,300.74977,10779.608999999999,0.0,-0.0503500855415695,0.0,0.0,0.0,0.0,-0.6777702568932163,-1.6254984682492084,-0.973463183225836,-0.00948046138839869,-0.008450955311744352,-0.2869362973784077
5036,1.0,299.44741,10858.582,0.0,-0.05036008152898874,0.0,0.0,0.0,0.0,-0.7360069583782313,-1.6132549619908685,-0.951475787778349,0.011952049933325489,0.013650105113410487,-0.27694180104202776
5037,1.0,298.53607,10912.706,0.0,-0.050370077516407985,0.0,0.0,0.0,0.0,-0.6976337180110873,-1.6234012431922284,-0.9961552738528712,0.015338171674009684,0.0025822811534263073,-0.28658099109834173
5038,1.0,299.53539,10842.457,0.0,-0.05038007350382734,0.0,0.0,0.0,0.0,-0.7241559852086313,-1.6224284217712184,-0.949251876061366,0.0026062159446384875,-0.016338915228025382,-0.27660903957668675
5039,1.0,299.80066,10737.846000000001,0.0,-0.05039006949124669,0.0,0.0,0.0,0.0,-0.6737350187674693,-1.6210330750585085,-0.9692690776169101,0.001043378990398489,0.00036519393931183565,-0.2718424375287597
5040,1.0,299.58192,10746.351,0.0,-0.050400065478666045,0.0,0.0,0.0,0.0,-0.7256693654254903,-1.6120985396517384,-0.9288543814782902,0.009397572970593241,0.022089551322568977,-0.2555599542518038
5041,1.0,299.66643,10933.591,0.0,-0.05041009445614286,0.0,0.0,0.0,0.0,-0.7119182139458573,-1.6416812882463283,-0.9699390689805332,0.008455204781338743,0.012995654979821289,-0.27676157424674075
5042,1.0,299.6304,10961.764,0.0,-0.050420090443562104,0.0,0.0,0.0,0.0,-0.7355091688691032,-1.6363947571745883,-0.9601984829867121,-0.0035778209589034365,0.0038792604318531963,-0.27887418044023876
5043,1.0,300.02396,10788.993,0.0,-0.05043008643098146,0.0,0.0,0.0,0.0,-0.6846501034822043,-1.6422099008234985,-0.9527246083940981,-0.015684776162216883,-0.0017714461007281182,-0.2840679079353197
5044,1.0,300.14903,10655.498,0.0,-0.0504400824184007,0.0,0.0,0.0,0.0,-0.6826217287695193,-1.6088742765085287,-0.9475094709244042,-0.003007917021608297,0.012025485234322989,-0.2801002738562447
5045,1.0,300.20859,10803.913999999999,0.0,-0.05045007840581983,0.0,0.0,0.0,0.0,-0.6840886919992973,-1.6246883747942586,-0.975343116798871,-0.023188380526014976,0.0002842265727684787,-0.2768099164090117
5046,1.0,300.20734,10963.517,0.0,-0.05046007439323941,0.0,0.0,0.0,0.0,-0.7221690118950324,-1.6271092319331786,-0.983357266477306,-0.013850118656650288,-0.018275468203398284,-0.2875512388640977
5047,1.0,300.26076,10893.077,0.0,-0.05047007038065865,0.0,0.0,0.0,0.0,-0.7109851625912723,-1.6235776500346384,-0.9766605445788911,-0.01087961690823459,0.0017461447391060683,-0.28222858542629276
5048,1.0,299.86376,10770.402,0.0,-0.050480066368078,0.0,0.0,0.0,0.0,-0.7240724123403833,-1.6096227643573984,-0.9402381044967761,0.0029840269147255274,0.01734079666190338,-0.2709326199989677
5049,1.0,299.95705,10794.641000000001,0.0,-0.050490062355497245,0.0,0.0,0.0,0.0,-0.7062502347414714,-1.6172426077594184,-0.9578084286508322,0.0021704398747557376,-0.004012362383539336,-0.27560207162730677
5050,1.0,299.83808999999997,10960.833,0.0,-0.05050009133297406,0.0,0.0,0.0,0.0,-0.7389570056468783,-1.6267595593236686,-0.9661030256919452,-0.0024591813987773076,-0.005596523490108865,-0.25847617923211275
5051,1.0,299.85715,10961.124,0.0,-0.050510087320393415,0.0,0.0,0.0,0.0,-0.7132294609002673,-1.6395828472892284,-0.9790957696042292,0.0030410007519484066,0.0038435065848495664,-0.2795042598824227
5052,1.0,299.6185,10893.843,0.0,-0.05052008330781266,0.0,0.0,0.0,0.0,-0.7261440730973403,-1.6307015075127085,-0.954610702527741,-0.0019303215885829081,0.012979757085752289,-0.25393690997662177
5053,1.0,299.75647000000004,10734.338,0.0,-0.05053007929523201,0.0,0.0,0.0,0.0,-0.6880615341838864,-1.6131451256800284,-0.961764106378727,-0.008978971084605452,0.010237246742337591,-0.30318678221720574
5054,1.0,299.85026,10767.843,0.0,-0.050540075282651364,0.0,0.0,0.0,0.0,-0.7072487521850174,-1.6206740805480786,-0.9452324750346821,-0.014698603144639185,-0.031031269659297873,-0.28461568107188073
5055,1.0,300.43802999999997,10944.927,0.0,-0.05055007127007061,0.0,0.0,0.0,0.0,-0.6911331815970343,-1.6432559802267384,-0.992595260156525,0.0018169592687199184,-0.007003320536898924,-0.3018802570082617
5056,1.0,300.20859,10939.651000000002,0.0,-0.05056006725748996,0.0,0.0,0.0,0.0,-0.7234233851213294,-1.6207306199036586,-0.9812268574795511,-0.0012203743284665688,-0.001018332765151619,-0.25422023496958374
5057,1.0,300.09064,10830.59,0.0,-0.0505700632449092,0.0,0.0,0.0,0.0,-0.6788714976319004,-1.6283790369584985,-0.9849784058423001,0.0090695460176695,-0.0077718621251230725,-0.2745994302558537
5058,1.0,300.80385,10831.62,0.0,-0.05058009222238591,0.0,0.0,0.0,0.0,-0.7171289032476124,-1.6178261384920085,-0.957586891648968,-0.005679599967132875,-0.0014650651083656686,-0.2634106565566078
5059,1.0,299.80694,10882.017,0.0,-0.05059008820980537,0.0,0.0,0.0,0.0,-0.6967931155956264,-1.6358904625998185,-0.975177987430074,0.017475446454442285,0.026715479806112576,-0.29091829934390073
5060,1.0,299.9326,11077.673999999999,0.0,-0.050600084197224504,0.0,0.0,0.0,0.0,-0.7542742972760773,-1.6392966041359784,-0.973765425598165,0.01768917737753588,0.024494448759163876,-0.26883145339909875
5061,1.0,299.71952000000005,11019.101,0.0,-0.05061008018464397,0.0,0.0,0.0,0.0,-0.7136303330373304,-1.6419376405216284,-0.993963492296559,0.002099314378686198,0.000973007473993361,-0.2774124253159747
5062,1.0,300.09965,10807.688,0.0,-0.05062007617206332,0.0,0.0,0.0,0.0,-0.7176727551062864,-1.6158397629959684,-0.951754664603372,-0.011172981183187389,-0.027616621888548375,-0.25765070464064477
5063,1.0,299.70212999999995,10794.35,0.0,-0.050630072159482564,0.0,0.0,0.0,0.0,-0.6808295021251404,-1.6176007916697683,-0.9827825814180892,0.0029091951524402074,-0.005836063615774634,-0.26943316183848276
5064,1.0,299.70819,10949.854,0.0,-0.05064006814690192,0.0,0.0,0.0,0.0,-0.7322722400996433,-1.6216114382155884,-0.9745984590353791,0.003951007556859086,0.011478510538840789,-0.26841110659511375
5065,1.0,299.80644,10957.233999999999,0.0,-0.05065006413432105,0.0,0.0,0.0,0.0,-0.7171169975589373,-1.6339473528830484,-0.9796611124975241,-0.0040849256815007765,0.0005946763924974904,-0.2894605161600287
5066,1.0,300.44834,10821.156,0.0,-0.050660093111797866,0.0,0.0,0.0,0.0,-0.7160894302350242,-1.6141290928521383,-0.9591427777075221,-0.008240440647118173,-0.012420841237841589,-0.2795839114727838
5067,1.0,299.74636,10720.618999999999,0.0,-0.05067008909921722,0.0,0.0,0.0,0.0,-0.6788734430720924,-1.6310299018701184,-0.9488971979963621,0.012349953247595488,0.007522915694803972,-0.2765955228203527
5068,1.0,299.9765,10862.665,0.0,-0.05068008508663646,0.0,0.0,0.0,0.0,-0.7119871858801643,-1.6234953741265186,-0.966496278188256,0.013628280719506588,0.006070599096546484,-0.26306808683029875
5069,1.0,300.66037,11110.47,0.0,-0.050690081074055815,0.0,0.0,0.0,0.0,-0.7311951349783413,-1.6426755905694586,-1.003434604426285,0.007039615966081003,-0.0018352187447969882,-0.2711809574659767
5070,1.0,300.34305,11044.995,0.0,-0.05070007706147528,0.0,0.0,0.0,0.0,-0.7455845630934673,-1.6428743902390786,-0.968943743274802,-0.0008405842985492112,-0.01124690284423289,-0.2836878580878117
5071,1.0,300.39658,10807.139,0.0,-0.05071007304889441,0.0,0.0,0.0,0.0,-0.6984943118510214,-1.6304391770618183,-0.9561668520313211,0.005247920264754405,0.02137654343920058,-0.2831645549411657
5072,1.0,300.15027000000003,10768.886999999999,0.0,-0.050720069036313875,0.0,0.0,0.0,0.0,-0.6910510982064333,-1.6365709613669785,-0.9458506690531931,0.0038858137281999566,0.013179051221421089,-0.28049040554224774
5073,1.0,299.99781,11016.361,0.0,-0.050730065023733006,0.0,0.0,0.0,0.0,-0.6981054365951423,-1.6586554565715486,-0.9919376304441221,-0.015965263041648785,-0.0041764217602307365,-0.27708791170644775
5074,1.0,300.01009,11002.681,0.0,-0.05074009400120982,0.0,0.0,0.0,0.0,-0.7215419316731444,-1.6423278431351385,-0.9806704615846391,-0.02282784688868308,-0.018268456512706286,-0.2720525552019967
5075,1.0,300.15991,10793.354,0.0,-0.05075008998862918,0.0,0.0,0.0,0.0,-0.6866490939419894,-1.6358907665748486,-0.958370316361286,-0.012943520222425987,0.008570187896061692,-0.2659270023849517
5076,1.0,299.75455,10706.796999999999,0.0,-0.05076008597604864,0.0,0.0,0.0,0.0,-0.6904564723852484,-1.6303979377827484,-0.9337445797734151,-0.013580123982003886,0.01107081720210459,-0.2877571008869147
5077,1.0,300.09898,11001.907,0.0,-0.05077008196346777,0.0,0.0,0.0,0.0,-0.7241310592561713,-1.6478535012304785,-0.9723204498955571,-0.018659087731008585,-0.010546244453083291,-0.29096512163102173
5078,1.0,300.39026,11227.886,0.0,-0.050780077950887126,0.0,0.0,0.0,0.0,-0.7594909140909173,-1.6580757761893383,-0.995430354201327,-0.005342157387654885,-0.010184331782365292,-0.2950717533588147
5079,1.0,299.57335,11091.515,0.0,-0.05079007393830637,0.0,0.0,0.0,0.0,-0.7383762208220593,-1.6335930193230785,-0.999574384990311,0.004859019474972885,0.02611385343998668,-0.26183440417104376
5080,1.0,300.04005,10884.125,0.0,-0.05080006992572572,0.0,0.0,0.0,0.0,-0.7175614901128053,-1.6211760446476184,-0.969764708903325,0.029388633180182273,0.011790277462109788,-0.25344947588351574
5081,1.0,300.61379,10810.107,0.0,-0.050810065913144964,0.0,0.0,0.0,0.0,-0.6963965092414843,-1.6089363887396586,-0.980669833369577,0.004599342118144726,-0.018969491832893082,-0.25104838725404677
5082,1.0,300.62664,10999.327,0.0,-0.05082009489062178,0.0,0.0,0.0,0.0,-0.7293171063154943,-1.6434559957964785,-0.970747703355339,0.005919482773982464,-0.013741951168724988,-0.2678947644766548
5083,1.0,300.11289,11066.545,0.0,-0.050830090878041134,0.0,0.0,0.0,0.0,-0.7358573317359642,-1.6441488562148585,-0.983947130023021,0.003432983139259057,0.006229783524356765,-0.2781527767665417
5084,1.0,300.06347,10946.421999999999,0.0,-0.05084008686546049,0.0,0.0,0.0,0.0,-0.7153962861066163,-1.6510083567418383,-0.961034373789208,-0.013808998941092087,0.010804357757057091,-0.28311985034675374
5085,1.0,299.99245,10834.546999999999,0.0,-0.05085008285287973,0.0,0.0,0.0,0.0,-0.6867808873824964,-1.6491337427318284,-0.9575170685845771,-0.02833607505580287,-0.006933762234759054,-0.2862944845000657
5086,1.0,299.68411000000003,10941.528,0.0,-0.05086007884029908,0.0,0.0,0.0,0.0,-0.7175837512175023,-1.6422226677747584,-0.966144741198562,-0.000992106022478241,-0.007251423639159794,-0.2798380447303648
5087,1.0,300.16382000000004,11026.288999999999,0.0,-0.050870074827718326,0.0,0.0,0.0,0.0,-0.7130288677779703,-1.6473610616818783,-0.9913264886463071,0.014264810511827184,0.016980304567825583,-0.27195093634946776
5088,1.0,300.43656,10955.051000000001,0.0,-0.05088007081513768,0.0,0.0,0.0,0.0,-0.7144886369320383,-1.6439215842174284,-0.9716516946970561,0.02178613965962458,0.007937720223391993,-0.2841249539159497
5089,1.0,299.97333,10890.213,0.0,-0.05089006680255703,0.0,0.0,0.0,0.0,-0.6907295331546973,-1.6396372588195984,-0.9799859604795841,0.004416848277083986,-0.016249972134247385,-0.3038663791917767
5090,1.0,299.57915,10938.081,0.0,-0.050900062789976275,0.0,0.0,0.0,0.0,-0.7058571139676733,-1.6438912880394383,-0.9751551791703231,-0.006056913532745824,-0.012828751410099187,-0.29926903044055375
5091,1.0,300.24519,10955.764,0.0,-0.050910091767453314,0.0,0.0,0.0,0.0,-0.7239394840597643,-1.6261166521352184,-0.980222432787922,0.013602669809978986,0.012333168759688989,-0.27441717696036677
5092,1.0,300.1563,10891.985,0.0,-0.050920087754872445,0.0,0.0,0.0,0.0,-0.7254467847760233,-1.6220111653800384,-0.9634335777734911,0.0035346024984131068,0.0027038478606740074,-0.26538105309857074
5093,1.0,300.43597,10828.328000000001,0.0,-0.05093008374229169,0.0,0.0,0.0,0.0,-0.6899945519296603,-1.6337985064433587,-0.967748432396834,-0.005574534544388725,-0.004698593815790106,-0.26325984441172373
5094,1.0,300.20675,10904.54,0.0,-0.05094007972971104,0.0,0.0,0.0,0.0,-0.7014592336311363,-1.6422262141501085,-0.971022365059946,-0.006339528946662795,0.00042104283587619264,-0.27811048370736774
5095,1.0,300.05236,11111.858,0.0,-0.05095007571713028,0.0,0.0,0.0,0.0,-0.7316006275358603,-1.6536312559506985,-0.992495384094168,0.013495593592411386,0.020530781554230382,-0.2780892865152757
5096,1.0,300.26307,11206.883999999998,0.0,-0.050960071704549637,0.0,0.0,0.0,0.0,-0.7384310477849703,-1.6712361724631684,-0.9969454974733601,-0.007302668458992263,0.01920216647985628,-0.2864137237718337
5097,1.0,300.54342,10965.466999999999,0.0,-0.05097006769196899,0.0,0.0,0.0,0.0,-0.7272320909222193,-1.6313360047253285,-0.974660165966469,-0.01022537043791549,-0.01175404870478429,-0.26298611489720874
5098,1.0,300.03027000000003,10793.702,0.0,-0.05098006367938823,0.0,0.0,0.0,0.0,-0.7027145187825233,-1.6236837373201085,-0.9546176534234271,-0.0011947221796598988,-0.008109241477794822,-0.27886657093198775
5099,1.0,299.83666,10894.823,0.0,-0.05099009265686516,0.0,0.0,0.0,0.0,-0.7246629041011603,-1.6025764205119786,-0.984514823656548,0.01006023843466823,0.01260687294295149,-0.24154481059111677
5100,1.0,299.57712999999995,11064.431,0.0,-0.0510000886442844,0.0,0.0,0.0,0.0,-0.7455598701885303,-1.6301152410048485,-0.9876355022420351,0.02334128705885568,-0.00020108827735586783,-0.28079983185778573
5101,1.0,299.92258,11180.157,0.0,-0.051010084631703645,0.0,0.0,0.0,0.0,-0.7355418867148323,-1.6642652144251884,-0.9986814684721871,0.00945607630884207,-0.015033304983921685,-0.28137356446190875
5102,1.0,299.56694,11066.488000000001,0.0,-0.051020080619123,0.0,0.0,0.0,0.0,-0.7287743183694253,-1.6514467900601084,-0.9837149437626062,0.004850505235707595,0.006063309066052015,-0.3043388070509017
5103,1.0,300.07162,11018.282,0.0,-0.05103007660654213,0.0,0.0,0.0,0.0,-0.7183857589366544,-1.6705890096242983,-0.9603076809499891,0.015854622210229385,0.016287537368454785,-0.2720472356389717
5104,1.0,300.28502000000003,10972.528999999999,0.0,-0.051040072593961594,0.0,0.0,0.0,0.0,-0.7142451529330084,-1.6468779440341985,-0.9742518261761691,0.008172237465662043,0.014127822138057486,-0.27975335728700673
5105,1.0,300.22766,10953.982,0.0,-0.05105006858138095,0.0,0.0,0.0,0.0,-0.7025417799054753,-1.6701378093547683,-0.957057357014207,-0.011774428204045591,-0.007423207730638562,-0.27449549106059573
5106,1.0,299.83991000000003,10852.553,0.0,-0.05106006456880019,0.0,0.0,0.0,0.0,-0.6941843106956573,-1.6446762528919086,-0.9600444689715121,-0.023899819898228578,-0.013419434675145088,-0.28728962782077877
5107,1.0,300.69465,10929.47,0.0,-0.05107009354627712,0.0,0.0,0.0,0.0,-0.6889451288010903,-1.6549295333038283,-0.978411136776661,-0.01821779907395678,0.01007725201842234,-0.2837024184917487
5108,1.0,300.56656,10949.082,0.0,-0.05108008953369636,0.0,0.0,0.0,0.0,-0.7053204257872063,-1.6605504369085684,-0.9623768085816962,-0.02151847343370798,-0.005078841044417586,-0.30615515918016173
5109,1.0,300.37026000000003,11054.652,0.0,-0.05109008552111549,0.0,0.0,0.0,0.0,-0.7334439523827823,-1.6382791997105683,-0.988615021246206,-0.006308688957344124,-0.018659571051306282,-0.28202085902329177
5110,1.0,299.46576,11143.103000000001,0.0,-0.051100081508534956,0.0,0.0,0.0,0.0,-0.7388163665329983,-1.6558757062472085,-0.9925330060703812,0.008484707077875391,-0.0004116842958325767,-0.2826108542915197
5111,1.0,299.87915,11076.998,0.0,-0.05111007749595431,0.0,0.0,0.0,0.0,-0.7420372251558723,-1.6418625586892184,-0.9832310459123491,0.02412387583984118,0.026790869666552974,-0.25752984416871677
5112,1.0,300.0388,11083.693000000001,0.0,-0.05112007348337366,0.0,0.0,0.0,0.0,-0.7310199035060473,-1.6552860960140183,-0.982859821473212,0.021656127512793378,0.011220862316662888,-0.27578715189057273
5113,1.0,300.18715,11220.008999999998,0.0,-0.051130069470792905,0.0,0.0,0.0,0.0,-0.7425352477125233,-1.6737100225823185,-0.994357413537936,-0.015340421089231684,-0.026838236068977676,-0.27217073056115976
5114,1.0,299.90616,11165.766000000001,0.0,-0.051140065458212036,0.0,0.0,0.0,0.0,-0.7525848141918383,-1.6642101949447587,-0.977319086216384,-0.003202567837368837,-0.010984817599867091,-0.2787978523102057
5115,1.0,299.34809,10978.919,0.0,-0.051150094435689075,0.0,0.0,0.0,0.0,-0.7201968219003924,-1.6448833612123486,-0.972237140472335,-0.00853611513229897,-0.00018579511121154984,-0.2618453574046248
5116,1.0,299.94732999999997,11000.473,0.0,-0.05116009042310821,0.0,0.0,0.0,0.0,-0.7158669914405713,-1.6636256509620682,-0.9643766501715652,-0.0011525956988023389,0.0075857613163563525,-0.26887908628629975
5117,1.0,300.06917000000004,11055.345,0.0,-0.05117008641052745,0.0,0.0,0.0,0.0,-0.7173392033058673,-1.6577168830039184,-0.985492812653068,-0.02051289262371488,-0.01091570786354649,-0.26784117367886573
5118,1.0,299.73135,11100.339,0.0,-0.0511800823979468,0.0,0.0,0.0,0.0,-0.7143864405269523,-1.6669181058370086,-0.992921303773703,-0.004105751314781105,0.015877140680451783,-0.26938997711922075
5119,1.0,300.12948,11080.355,0.0,-0.05119007838536627,0.0,0.0,0.0,0.0,-0.7087469437828773,-1.6663444036303885,-0.9930599467848861,-0.011318279221027188,0.02094415618427728,-0.2802205466431147
5120,1.0,300.41151,10973.812,0.0,-0.05120007437278562,0.0,0.0,0.0,0.0,-0.7123852918444543,-1.6374198623007585,-0.9859598702866631,-0.007981541162391782,0.001158402229825399,-0.2833386414408467
5121,1.0,300.39322999999996,10922.458,0.0,-0.05121007036020486,0.0,0.0,0.0,0.0,-0.6996435705119443,-1.6535572886933985,-0.9669535275608832,-0.0029200205138585874,-0.02301043556995318,-0.3014154183923857
5122,1.0,300.27579,10938.518,0.0,-0.051220066347623994,0.0,0.0,0.0,0.0,-0.7159309072568794,-1.6394330889244484,-0.969672219434197,0.026429841563172272,-0.0010240321956391089,-0.2684289803268778
5123,1.0,300.20976,11083.705,0.0,-0.05123009532510103,0.0,0.0,0.0,0.0,-0.7299182878648263,-1.6644652299949287,-0.9747859407013821,0.025900131636143974,0.01943083372267398,-0.28903914597344277
5124,1.0,299.70122000000003,11072.492,0.0,-0.051240091312520164,0.0,0.0,0.0,0.0,-0.7191270628423153,-1.6633768980625185,-0.9832570256449131,0.0021971340499652475,-0.0009276668523610901,-0.29504784065645473
5125,1.0,299.35856,11022.958,0.0,-0.051250087299939406,0.0,0.0,0.0,0.0,-0.7244398472241463,-1.6508479592510086,-0.9754163038535941,-0.013457235996625787,-0.023777053502862477,-0.2951680729133207
5126,1.0,299.29526,11070.37,0.0,-0.05126008328735876,0.0,0.0,0.0,0.0,-0.7212699348163003,-1.6701128834023085,-0.9737332042449851,-5.689236380883915e-05,0.002254626265939288,-0.2871949193339317
5127,1.0,300.18188,11056.282,0.0,-0.05127007927477811,0.0,0.0,0.0,0.0,-0.7217045279166914,-1.6471223399583184,-0.992006723968441,0.013687281259579489,0.010655808199646389,-0.26249751556648776
5128,1.0,299.95037,11102.625,0.0,-0.05128007526219758,0.0,0.0,0.0,0.0,-0.7174301222373403,-1.6699456971358086,-0.987544877153091,-0.004934971689218785,0.0009595684136770291,-0.26114366144537277
5129,1.0,299.61615,11139.958999999999,0.0,-0.05129007124961671,0.0,0.0,0.0,0.0,-0.7362773745649193,-1.6564636952802383,-0.993528372306116,-0.014873195256120087,-0.019493305657589482,-0.25773708421166974
5130,1.0,300.06182,11154.165,0.0,-0.05130006723703595,0.0,0.0,0.0,0.0,-0.7256570645692764,-1.6566911699276883,-1.008239547857996,-0.01029004720504859,0.02352882749336448,-0.27001072452798375
5131,1.0,300.37734,11129.141000000001,0.0,-0.051310063224455305,0.0,0.0,0.0,0.0,-0.7381985879470283,-1.6525514353191284,-0.992231087938084,0.004180886140171336,0.024383954849008977,-0.25914063825018974
5132,1.0,300.71797000000004,11194.889,0.0,-0.05132009220193212,0.0,0.0,0.0,0.0,-0.7383909129485092,-1.6485191052211685,-1.016056600126979,0.004280665133168756,-0.012475274046463689,-0.2873835459725477
5133,1.0,299.90204,11173.42,0.0,-0.051330088189351364,0.0,0.0,0.0,0.0,-0.7390517343987273,-1.665492564271318,-0.991896299972543,0.016163672609980285,-0.027329144596676576,-0.2891590033277717
5134,1.0,300.83621,11126.822,0.0,-0.05134008417677094,0.0,0.0,0.0,0.0,-0.7390683922303712,-1.6602808110569585,-0.982926929027335,0.030826645828103072,-0.0028451308949925575,-0.27761082981805574
5135,1.0,300.67256000000003,11058.931,0.0,-0.05135008016419007,0.0,0.0,0.0,0.0,-0.7332825213768502,-1.6508173590979884,-0.977538880428076,0.04320115519187205,0.003261990396108387,-0.2817365207802297
5136,1.0,300.6757,10990.162,0.0,-0.051360076151609535,0.0,0.0,0.0,0.0,-0.7109512187129223,-1.6612192832995782,-0.968564392569863,-0.01940705983557768,-0.005727079752243765,-0.2820813500542617
5137,1.0,299.74945,11032.623,0.0,-0.051370072139028666,0.0,0.0,0.0,0.0,-0.7063900429902692,-1.6733056344674087,-0.973946300873516,-0.03510805914514567,-0.02063296073406468,-0.30775971164101873
5138,1.0,299.51443,11001.508999999998,0.0,-0.05138006812644791,0.0,0.0,0.0,0.0,-0.7061944553234664,-1.6517115523112385,-0.9862779193605521,-0.025938362575667076,-0.0035386106118336764,-0.27804506828091174
5139,1.0,299.79455,11017.411,0.0,-0.05139006411386726,0.0,0.0,0.0,0.0,-0.7003039663971203,-1.6705480743202585,-0.9781659201199601,-0.003922807084050916,0.008418255096567092,-0.2954571329018487
5140,1.0,300.30034,11064.485,0.0,-0.05140009309134408,0.0,0.0,0.0,0.0,-0.7269305071624553,-1.6507506872414086,-0.985645843815671,0.015286363183146587,-0.016739031480513783,-0.2599281260954088
5141,1.0,298.93426,11120.434,0.0,-0.05141008907876343,0.0,0.0,0.0,0.0,-0.7249018791372452,-1.6685396099720382,-0.986892810183737,0.002883895006718278,-0.01932846709157118,-0.2979923353145537
5142,1.0,299.55321000000004,11160.915,0.0,-0.051420085066182786,0.0,0.0,0.0,0.0,-0.7507227948805713,-1.6526246933013584,-0.989291953373014,-0.00017178876256173083,0.02781867105123908,-0.27006846965118275
5143,1.0,300.7714,11140.925,0.0,-0.05143008105360203,0.0,0.0,0.0,0.0,-0.7493954271170703,-1.6499019889576483,-0.9872655443655232,0.009176335181483771,0.028607092099800172,-0.28174117159818873
5144,1.0,300.18654,11100.874,0.0,-0.05144007704102138,0.0,0.0,0.0,0.0,-0.7216675442880413,-1.6686638344342983,-0.9840572601763901,0.006041859676010124,0.009828312680853941,-0.2962298171631067
5145,1.0,300.65064,11174.708999999999,0.0,-0.051450073028440624,0.0,0.0,0.0,0.0,-0.7309579229974302,-1.6755358992625184,-0.9903386407263141,-0.014272322748068588,-0.00969077796263032,-0.29691296051302773
5146,1.0,300.19748,11195.423999999999,0.0,-0.051460069015859866,0.0,0.0,0.0,0.0,-0.7396378387865713,-1.6694450502613984,-0.994046345757236,0.009608340947744421,0.008527633823661932,-0.26981754839641875
5147,1.0,300.14252,11139.326000000001,0.0,-0.05147006500327944,0.0,0.0,0.0,0.0,-0.7411683530626213,-1.6658386905054783,-0.9790697189441581,-0.0022170976100604977,-0.005469045785752795,-0.2680312290001227
5148,1.0,300.41249,11181.54,0.0,-0.051480093980756036,0.0,0.0,0.0,0.0,-0.7311931490081452,-1.6681940916879383,-0.999521564262598,-0.012967662932558688,-0.016854240043383983,-0.2598983466749698
5149,1.0,299.82122999999996,11094.411,0.0,-0.05149008996817539,0.0,0.0,0.0,0.0,-0.7205029247556023,-1.6797384553772783,-0.972182445231937,-0.016249819133482286,-0.01948014961829108,-0.2796105498179127
5150,1.0,299.72809,11228.726,0.0,-0.05150008595559474,0.0,0.0,0.0,0.0,-0.6969419316378134,-1.6824820326730485,-1.033828500255929,0.00034338997252995174,0.017758920395168982,-0.2608919599880317
5151,1.0,299.97745,11329.44,0.0,-0.051510081943013986,0.0,0.0,0.0,0.0,-0.7469557843212963,-1.6876100914291485,-1.009301119855265,0.0016683360480269486,0.003148339603941927,-0.27885024747287673
5152,1.0,299.53325,11129.992,0.0,-0.05152007793043334,0.0,0.0,0.0,0.0,-0.7256846047069943,-1.6692564844177882,-0.9882986237699801,0.005693276715657665,-0.01190425796585879,-0.26897961082872074
5153,1.0,300.07363,11045.183,0.0,-0.05153007391785258,0.0,0.0,0.0,0.0,-0.7213856277127183,-1.6589090730715785,-0.97716513299619,0.0006855130683273723,-0.012277979053242188,-0.2983587164182127
5154,1.0,300.63717,11177.058,0.0,-0.051540069905271935,0.0,0.0,0.0,0.0,-0.7390948684554843,-1.6681085733794985,-0.99034295717174,0.014500643459352088,0.011371745389053887,-0.26862442613866677
5155,1.0,300.38454,11164.319,0.0,-0.05155006589269129,0.0,0.0,0.0,0.0,-0.7247441768916814,-1.6717592121647884,-0.997170702440586,-0.0014804250679565786,0.014098157214879786,-0.30727315907549974
5156,1.0,300.48624,11143.67,0.0,-0.05156009487016788,0.0,0.0,0.0,0.0,-0.7063739728436833,-1.6647575526487786,-1.016265734947619,-0.007197477393235712,0.0069141838110268125,-0.28665148290779874
5157,1.0,299.57832,11046.774,0.0,-0.05157009085758735,0.0,0.0,0.0,0.0,-0.7049543993210823,-1.6851493122362884,-0.9678396755683392,-0.002698277822224287,0.005836234348416484,-0.30080755952489474
5158,1.0,299.557,11040.873,0.0,-0.0515800868450067,0.0,0.0,0.0,0.0,-0.7184907620445173,-1.6530125654396384,-0.9846464245795361,0.008570792097096321,0.01301489659922029,-0.2615139840919208
5159,1.0,300.11987,11209.066,0.0,-0.05159008283242594,0.0,0.0,0.0,0.0,-0.7453527112055853,-1.6774774891041384,-0.9844459429147501,-0.006019982694426034,-0.004530011898602366,-0.2730379713217498
5160,1.0,299.52398999999997,11216.511999999999,0.0,-0.051600078819845296,0.0,0.0,0.0,0.0,-0.7366157697008163,-1.6726316205008884,-1.000292211891155,-0.02077406695624078,-0.01930267785002598,-0.26605566488264976
5161,1.0,299.62801,11224.133999999998,0.0,-0.05161007480726454,0.0,0.0,0.0,0.0,-0.7321275277203613,-1.6706080587261787,-1.009120852529974,-0.01168260241373309,-0.02017188836881038,-0.27881886711727977
5162,1.0,300.06314,11293.612,0.0,-0.05162007079468389,0.0,0.0,0.0,0.0,-0.7240503032232013,-1.6905109251404382,-1.018414838409719,-0.0036183376893271267,0.010080400287808051,-0.27540206619006774
5163,1.0,299.80117,11315.296,0.0,-0.051630066782103246,0.0,0.0,0.0,0.0,-0.7660094458267462,-1.6736464918010483,-0.9999115439610862,0.009418708253104131,0.006697110175853314,-0.27278249044153574
5164,1.0,300.15719,11315.198999999999,0.0,-0.05164009575958006,0.0,0.0,0.0,0.0,-0.7523947588705813,-1.6741588923766184,-1.01298413198125,-0.0072340330250434725,-0.006055777375408694,-0.27934751009195274
5165,1.0,299.94628,11070.492,0.0,-0.051650091746999194,0.0,0.0,0.0,0.0,-0.7326077272077534,-1.6602594314798484,-0.9722858676696441,0.004898949533588675,0.00025601583573679575,-0.2720503564492797
5166,1.0,300.27142000000003,10982.438999999998,0.0,-0.05166008773441866,0.0,0.0,0.0,0.0,-0.7159528441215443,-1.6469998380212283,-0.9754344714278871,-0.005843338954142655,0.0002898911575850297,-0.29403712368170476
5167,1.0,300.21639,11113.333999999999,0.0,-0.05167008372183779,0.0,0.0,0.0,0.0,-0.7123832248142503,-1.6674717456916486,-0.998321004749112,0.004488903632770296,-0.002968395302782807,-0.2838443849632597
5168,1.0,299.84058999999996,11160.964,0.0,-0.051680079709257254,0.0,0.0,0.0,0.0,-0.7123491086833833,-1.6854937159452785,-0.994811450907746,-0.026064640895879773,-0.017247809686976284,-0.3048413689680007
5169,1.0,298.99415,11112.202,0.0,-0.051690075696676385,0.0,0.0,0.0,0.0,-0.7286686971790013,-1.6703888927295485,-0.978774427467515,-0.006384215606548024,0.004412882416192586,-0.27802138862607473
5170,1.0,299.63125,11187.503,0.0,-0.05170007168409585,0.0,0.0,0.0,0.0,-0.7295634071498023,-1.6943975498740182,-0.9767607854112842,-0.017281712022072182,0.01033131586837149,-0.27992131362358275
5171,1.0,299.6045,11271.59,0.0,-0.0517100676715152,0.0,0.0,0.0,0.0,-0.7368950518258793,-1.6833516039088683,-1.006035110807935,-0.01072176470165579,-0.00026754759459489175,-0.26437421687170376
5172,1.0,299.78314,11292.524,0.0,-0.05172009664899202,0.0,0.0,0.0,0.0,-0.7417831324282953,-1.6885614319480384,-1.0023007876968861,-0.01071539642477729,-0.019207541771636784,-0.2825638090893767
5173,1.0,299.95649,11253.69,0.0,-0.05173009263641115,0.0,0.0,0.0,0.0,-0.7245138448789493,-1.6869619153401785,-1.009364934346563,-0.0015330464893749086,-0.021792941607545878,-0.3019766373577737
5174,1.0,300.49262000000004,11198.385,0.0,-0.051740088623830616,0.0,0.0,0.0,0.0,-0.7409788854264223,-1.6597208890516983,-1.0033294999934121,0.014235990639232886,0.0011504326124888587,-0.28058649204923075
5175,1.0,300.60921,11094.666000000001,0.0,-0.05175008461124975,0.0,0.0,0.0,0.0,-0.7398578356482833,-1.6564638979302586,-0.9761796155514271,0.018028759029299984,-0.005748661168773684,-0.2906385409912907
5176,1.0,300.29191000000003,11078.333,0.0,-0.0517600805986691,0.0,0.0,0.0,0.0,-0.7264780200652984,-1.6511058314014584,-0.9899527444257291,0.014816664006540884,0.0019071872649497285,-0.2839304909567577
5177,1.0,300.0824,11174.961000000001,0.0,-0.05177007658608834,0.0,0.0,0.0,0.0,-0.7398511481976232,-1.6532171406348284,-1.003840694801363,-0.0052341662052469845,0.009243044123017432,-0.2740007615667698
5178,1.0,299.82395,11175.943000000001,0.0,-0.051780072573507696,0.0,0.0,0.0,0.0,-0.7169114395111503,-1.6676000231543084,-1.012696044712818,-0.0029724787006858073,0.020568079290411382,-0.2780737229937398
5179,1.0,299.96656,11258.775,0.0,-0.05179006856092716,0.0,0.0,0.0,0.0,-0.7288533924072294,-1.6824417053190683,-1.011091299734442,-0.011949255389549688,-0.004870453799701365,-0.2834675268535667
5180,1.0,299.68726000000004,11385.646999999999,0.0,-0.05180006454834629,0.0,0.0,0.0,0.0,-0.7506279445387103,-1.6944943152585683,-1.015830037404619,-0.008437561462647482,-0.0028568417356733275,-0.29096526348603574
5181,1.0,299.50658,11396.35,0.0,-0.05181009352582311,0.0,0.0,0.0,0.0,-0.7693788773117832,-1.6939115951260584,-1.000915289775148,0.008635417897749392,-0.00975467624971159,-0.26284555684333677
5182,1.0,299.63185,11181.723,0.0,-0.05182008951324246,0.0,0.0,0.0,0.0,-0.7236084045895893,-1.6718317608719484,-1.0035244189151489,0.012755290777849187,0.015481063242861985,-0.2683985726913768
5183,1.0,299.91671,11109.415,0.0,-0.051830085500661705,0.0,0.0,0.0,0.0,-0.7353787635812333,-1.6697656425930385,-0.9718403213356721,-0.0007356542764159243,-0.0034151934059283465,-0.2553686121029197
5184,1.0,299.67123,11208.378,0.0,-0.05184008148808106,0.0,0.0,0.0,0.0,-0.6922767559248963,-1.6908520864491083,-1.023938368679849,0.0048894842577795255,-0.018343495788612083,-0.2908305924152447
5185,1.0,299.95005,11220.163,0.0,-0.05185007747550052,0.0,0.0,0.0,0.0,-0.7251151378857923,-1.6768827112954383,-1.008651646806167,0.0028751685928820473,-0.004505978416830446,-0.3108275998962957
5186,1.0,300.41126,11218.407,0.0,-0.051860073462919654,0.0,0.0,0.0,0.0,-0.7320852751911913,-1.6825509336798485,-0.9954793853736661,0.028800119283600472,-0.0016735611761426285,-0.3027926785908107
5187,1.0,300.43421,11191.487,0.0,-0.05187006945033901,0.0,0.0,0.0,0.0,-0.7562185418329592,-1.6683052452239084,-0.9774087385852321,0.007864983558338442,-0.00893776200038843,-0.30110793751703974
5188,1.0,300.32974,11151.445,0.0,-0.05188006543775825,0.0,0.0,0.0,0.0,-0.7180885625498233,-1.6809179798186882,-0.990754316447338,-0.0014111157213662787,0.006971225130706353,-0.28351126886038375
5189,1.0,300.35801000000004,11226.521,0.0,-0.051890094415235066,0.0,0.0,0.0,0.0,-0.7324378152984843,-1.6807839268304585,-0.999360214316674,0.002973336112920427,0.002133818077716448,-0.26996380091585276
5190,1.0,299.70038999999997,11332.677,0.0,-0.05190009040265442,0.0,0.0,0.0,0.0,-0.7098354682328063,-1.6899807926881183,-1.045034641061889,-0.012724003641261387,0.019076361347440285,-0.25730589563161477
5191,1.0,299.44752,11282.673,0.0,-0.05191008639007366,0.0,0.0,0.0,0.0,-0.7373820603539433,-1.6870114632700681,-1.005257502151191,-0.014128769526900987,0.0005080538137010076,-0.27937814064247574
5192,1.0,299.84567000000004,11322.399,0.0,-0.051920082377493015,0.0,0.0,0.0,0.0,-0.7507502235607784,-1.7003944705908682,-0.9905818004853121,-0.012808173313818288,-0.014177927355502487,-0.27266394017983575
5193,1.0,300.06275,11387.957,0.0,-0.05193007836491237,0.0,0.0,0.0,0.0,-0.7750530576067813,-1.691858547773438,-0.9947429754659881,-0.001142803548510929,0.007828919758129223,-0.2813156065561887
5194,1.0,300.26354,11337.329,0.0,-0.05194007435233161,0.0,0.0,0.0,0.0,-0.7518662780159242,-1.6860822116033582,-1.008316362348077,0.012243463701835789,0.007266543863777044,-0.2707408117550377
5195,1.0,300.2661,11251.271,0.0,-0.051950070339750964,0.0,0.0,0.0,0.0,-0.7339348011287252,-1.6721279338761785,-1.014042562903209,0.014217594070417287,-0.004496090413079576,-0.2681969764514807
5196,1.0,299.75396,11218.718,0.0,-0.05196006632717021,0.0,0.0,0.0,0.0,-0.7003304426222333,-1.6839894448468185,-1.025890293672489,-0.01042188725506019,-0.005844430224500354,-0.30508642350468573
5197,1.0,300.04265,11259.697,0.0,-0.051970095304647024,0.0,0.0,0.0,0.0,-0.7267199639241763,-1.6866653370359084,-1.009281564128335,0.02331387357740018,-0.0003184604534295997,-0.2873754501042487
5198,1.0,299.64001,11169.023000000001,0.0,-0.05198009129206638,0.0,0.0,0.0,0.0,-0.7396974989524593,-1.6710470999945084,-0.984359401223709,0.013031394337348488,0.005333341402509814,-0.3040030261002627
5199,1.0,299.33041000000003,11253.791000000001,0.0,-0.05199008727948562,0.0,0.0,0.0,0.0,-0.7536720214166374,-1.6877606603940085,-0.979438876353091,0.008052379908683023,-0.006108720909033813,-0.27764951570687374
5200,1.0,299.23931,11290.145,0.0,-0.052000083266905195,0.0,0.0,0.0,0.0,-0.7464469098560743,-1.6887883999704383,-0.996686834987832,-0.013197925031033786,-0.019363795069557783,-0.28929963230915073
5201,1.0,299.72987,11238.157,0.0,-0.052010079254324326,0.0,0.0,0.0,0.0,-0.7215147664379633,-1.6961135902433784,-0.998490845730874,-0.011703060946502189,0.006271683645141984,-0.25587291681019075
5202,1.0,299.71524,11311.238000000001,0.0,-0.05202007524174357,0.0,0.0,0.0,0.0,-0.7005425462656664,-1.7073139555237684,-1.0304774795252092,-0.026977687653740475,0.015950309496672987,-0.27252604697372673
5203,1.0,300.21293,11403.435,0.0,-0.05203007122916292,0.0,0.0,0.0,0.0,-0.7486471216532182,-1.6928160691179381,-1.024896193999379,-0.01102619265445049,0.007559607000800122,-0.25897422205376575
5204,1.0,299.69165,11345.67,0.0,-0.052040067216582164,0.0,0.0,0.0,0.0,-0.7492372891739633,-1.7028311344313483,-0.9967320867372981,-0.013248780053552787,0.0007383809527000263,-0.29982949960086774
5205,1.0,300.67662,11377.196000000002,0.0,-0.05205009619405887,0.0,0.0,0.0,0.0,-0.7684599405310912,-1.6938827174982083,-0.996040888049082,0.012417064854718888,0.006171240770679045,-0.2841164628801117
5206,1.0,300.06047,11297.954,0.0,-0.052060092181478335,0.0,0.0,0.0,0.0,-0.7595210076188873,-1.6762807394110284,-0.9984941489262,0.01113536731297519,-0.001074282105198389,-0.29036876315216575
5207,1.0,299.69211,11239.187,0.0,-0.05207008816889769,0.0,0.0,0.0,0.0,-0.7279790892934422,-1.6778797493938382,-1.01057330601832,0.010055803236330511,-0.008392070282182851,-0.28636413531193977
5208,1.0,300.09066,11243.561000000002,0.0,-0.05208008415631704,0.0,0.0,0.0,0.0,-0.7219236331183153,-1.6739124699522983,-1.021925648681209,-0.004123263417584416,-0.014908809983884986,-0.29575641658388574
5209,1.0,300.46432000000004,11346.303,0.0,-0.052090080143736284,0.0,0.0,0.0,0.0,-0.7428071128468543,-1.6892392962649383,-1.016946436364799,-0.003912299072563856,0.011146543461578189,-0.2764734565808057
5210,1.0,300.10312000000005,11339.278,0.0,-0.052100076131155526,0.0,0.0,0.0,0.0,-0.7510040427108283,-1.6893865215044683,-1.00646670468803,0.0013578369032830686,-0.0005727243392134914,-0.2822084014843007
5211,1.0,300.02002000000005,11364.51,0.0,-0.05211007211857488,0.0,0.0,0.0,0.0,-0.7661329306164333,-1.6905717201464383,-0.9978225464949182,-0.017774309637687783,-0.006846930450214423,-0.2695645905089537
5212,1.0,299.52585,11388.261,0.0,-0.05212006810599401,0.0,0.0,0.0,0.0,-0.7649398488886853,-1.6904755627119483,-1.006331597919696,0.007290956098436344,-0.013687064424058088,-0.28936678039327773
5213,1.0,299.58544,11337.086000000001,0.0,-0.05213009708347083,0.0,0.0,0.0,0.0,-0.7404703453337333,-1.684197870392388,-1.021522881766459,-0.0044391110029811465,0.0006732066392378224,-0.2664462930612017
5214,1.0,299.6324,11214.016000000001,0.0,-0.05214009307089018,0.0,0.0,0.0,0.0,-0.7042002778016563,-1.6875454460727681,-1.017034994423539,0.012214522239229489,0.022274904150111876,-0.2889245169896297
5215,1.0,299.56728,11315.794,0.0,-0.052150089058309645,0.0,0.0,0.0,0.0,-0.7385674109834283,-1.6957144710289882,-1.005436898081396,-0.014345881665578286,-0.0024522019294384878,-0.27596817915343874
5216,1.0,300.09595,11305.165,0.0,-0.052160085045729,0.0,0.0,0.0,0.0,-0.7366211196613444,-1.6880131623189285,-1.011853598182175,0.012004301214482288,0.006094932297697984,-0.3106374939125337
5217,1.0,300.46218,11194.506000000001,0.0,-0.05217008103314824,0.0,0.0,0.0,0.0,-0.7598489358812514,-1.6748084870157285,-0.968193026275712,0.005021045461363605,0.00955473636975406,-0.28023761990729973
5218,1.0,299.99576,11193.6,0.0,-0.05218007702056737,0.0,0.0,0.0,0.0,-0.7240854731341723,-1.6860250642977186,-0.9924644191711121,0.026391006726589575,-0.006004596086357494,-0.30087407939395966
5219,1.0,300.18262999999996,11334.975,0.0,-0.05219007300798684,0.0,0.0,0.0,0.0,-0.7428716568782243,-1.6896294988784486,-1.0130482200500752,-0.002860365008921047,-0.025221039260122775,-0.28692437142473076
5220,1.0,300.86325,11414.273000000001,0.0,-0.05220006899540619,0.0,0.0,0.0,0.0,-0.7273703286333623,-1.7278032910959085,-1.014480388271419,0.011926681190571789,-0.008415495915219782,-0.3070175971352777
5221,1.0,300.34947,11354.332,0.0,-0.052210064982825544,0.0,0.0,0.0,0.0,-0.7377704087197703,-1.7015732857572086,-1.012089584130465,0.005903121723292755,0.014601645242570186,-0.27788760921537176
5222,1.0,300.37068,11397.213,0.0,-0.05222009396030214,0.0,0.0,0.0,0.0,-0.7368697307058802,-1.7224705558196083,-1.005127917595902,-0.0039684977734602365,0.01007930010084947,-0.2714440681194437
5223,1.0,300.24518,11350.841,0.0,-0.0522300899477216,0.0,0.0,0.0,0.0,-0.7570480390273243,-1.6904157809560483,-1.002908423649355,-0.011689618157425488,-0.002425480092501248,-0.2708714196929278
5224,1.0,300.39462000000003,11379.032,0.0,-0.052240085935140956,0.0,0.0,0.0,0.0,-0.7444431368558173,-1.7054281957626582,-1.0090702001574752,-0.015614095888241286,-0.008041658810699933,-0.27423384961977376
5225,1.0,300.47092000000004,11498.362,0.0,-0.05225008192256009,0.0,0.0,0.0,0.0,-0.7367722965762643,-1.7177836661570485,-1.0406590218300489,0.005426227457726955,0.007754267239786593,-0.2866018539179007
5226,1.0,299.82757999999995,11431.604,0.0,-0.05226007790997933,0.0,0.0,0.0,0.0,-0.7447141305950623,-1.7051262472328583,-1.025081821417699,0.00977518787678593,-0.002810397188189607,-0.2743632213925417
5227,1.0,299.45999,11327.016000000001,0.0,-0.05227007389739868,0.0,0.0,0.0,0.0,-0.7380805949728834,-1.6934395219044684,-1.011609810208115,-0.0025959461482499375,-0.01144840383861949,-0.3003341386806717
5228,1.0,300.18273999999997,11335.888,0.0,-0.05228006988481815,0.0,0.0,0.0,0.0,-0.7583911628298803,-1.6873640743048686,-1.000071708404393,0.006634091795158883,0.010683762756655292,-0.2895757530939017
5229,1.0,299.83501,11199.323,0.0,-0.0522900658722375,0.0,0.0,0.0,0.0,-0.7563071809517072,-1.6651527201877787,-0.9828545424401911,0.011063420476374592,0.009313338652679961,-0.2843193662126367
5230,1.0,299.73868999999996,11169.091,0.0,-0.05230009484971432,0.0,0.0,0.0,0.0,-0.7154920382410663,-1.6850062413221685,-0.994626654354508,0.014828151222924588,-0.003620918943956877,-0.27868383127645274
5231,1.0,300.10391,11350.944,0.0,-0.05231009083713345,0.0,0.0,0.0,0.0,-0.7415153101618632,-1.6975046813056682,-1.011383652785795,-0.005291180369823845,-0.019775622466701982,-0.2975904904573947
5232,1.0,300.1837,11498.907,0.0,-0.052320086824552914,0.0,0.0,0.0,0.0,-0.7574940311913403,-1.7175824346871882,-1.0203041445461791,-0.002340949702908748,-0.013336021900412887,-0.30012160947219674
5233,1.0,299.62005,11423.848999999998,0.0,-0.052330082811972045,0.0,0.0,0.0,0.0,-0.7514318470355493,-1.7141992939282986,-1.006933701526619,-0.0016704879885893283,0.01220602715039109,-0.2910289969173257
5234,1.0,300.00928999999996,11388.569,0.0,-0.05234007879939129,0.0,0.0,0.0,0.0,-0.7475774943176543,-1.7007180013477983,-1.013544955779099,-0.014469963259574187,-4.740411356692175e-07,-0.27675559607115074
5235,1.0,300.05624,11386.257,0.0,-0.05235007478681064,0.0,0.0,0.0,0.0,-0.7513216358221723,-1.7036570345878583,-1.006159011030163,0.004874323908458315,-0.005384028833462275,-0.2699688874313547
5236,1.0,300.64197,11420.31,0.0,-0.052360070774229994,0.0,0.0,0.0,0.0,-0.7222872075191973,-1.7205992855349286,-1.028602662865179,0.0007762766280300382,0.004281327494759126,-0.29133064147209575
5237,1.0,300.40758,11353.025,0.0,-0.05237006676164946,0.0,0.0,0.0,0.0,-0.7295041117539502,-1.6960679939888783,-1.025463816705399,0.015837898517328884,0.026994991938948273,-0.28009484283570873
5238,1.0,299.56658,11247.389,0.0,-0.052380095739126276,0.0,0.0,0.0,0.0,-0.7273522725165803,-1.6989379235721183,-0.9926353544629821,-0.01237082214665509,-0.0007495423787790734,-0.3048754445688637
5239,1.0,299.4569,11289.465,0.0,-0.05239009172654541,0.0,0.0,0.0,0.0,-0.7448014828861833,-1.6867773011719585,-1.000136536145791,0.0003285293628533237,0.007517935773212493,-0.28590769653939274
5240,1.0,299.88256,11389.059,0.0,-0.05240008771396476,0.0,0.0,0.0,0.0,-0.7573305027577013,-1.7080083358172984,-0.996650682224264,-0.004254978432533676,0.0036800904193216464,-0.29799367280468575
5241,1.0,298.95673999999997,11475.607,0.0,-0.052410083701384,0.0,0.0,0.0,0.0,-0.7603478399654893,-1.7052434802694283,-1.0227065605332792,0.0071925851177778825,-0.004076274349496957,-0.2764326428667777
5242,1.0,299.52555,11507.748,0.0,-0.052420079688803245,0.0,0.0,0.0,0.0,-0.7344443950015183,-1.7093582889255283,-1.0542652481478791,-0.008091580731201843,-0.009558180913469012,-0.27560591184518574
5243,1.0,300.15717,11492.856000000002,0.0,-0.05243007567622282,0.0,0.0,0.0,0.0,-0.7420920419862823,-1.7293681545503483,-1.0220809799215391,-0.0027675013465311175,-0.025103230697495975,-0.28812536663575966
5244,1.0,300.09411,11467.431999999999,0.0,-0.05244007166364195,0.0,0.0,0.0,0.0,-0.7579463257709782,-1.7011207682625484,-1.026745983381939,0.008842655204927122,0.004696415530725125,-0.2839353342922357
5245,1.0,300.34479,11439.22,0.0,-0.052450067651061416,0.0,0.0,0.0,0.0,-0.7721897850766982,-1.7043878918849884,-1.0006594745224011,-0.004140831755768276,0.012998950069146488,-0.2758703194587807
5246,1.0,300.42131,11241.466999999999,0.0,-0.05246009662853812,0.0,0.0,0.0,0.0,-0.7445265982665543,-1.6891113227773085,-0.9834873069951401,0.0037271651070425564,0.007832594005641841,-0.27510353231310475
5247,1.0,300.16776,11319.091,0.0,-0.052470092615957364,0.0,0.0,0.0,0.0,-0.7225720219898063,-1.6948330447669984,-1.0233159291434188,-0.01061007819613319,0.0003748088518957536,-0.2795807298674698
5248,1.0,300.21795,11482.489,0.0,-0.05248008860337672,0.0,0.0,0.0,0.0,-0.7348686022883842,-1.7177876178324383,-1.037733566141329,0.012066020304573488,0.014207087680130384,-0.29052635394021875
5249,1.0,299.16459,11465.493,0.0,-0.05249008459079596,0.0,0.0,0.0,0.0,-0.7358166497444493,-1.7132427858338983,-1.0361642443864492,0.0015187587510398185,0.01114712000088509,-0.28477408246001373
5250,1.0,299.74445,11458.983,0.0,-0.052500080578215313,0.0,0.0,0.0,0.0,-0.7539813261421633,-1.7099503309589585,-1.019312983298359,0.0016042314632253186,0.002127741515541738,-0.3082363242230567
5251,1.0,300.50221,11496.396,0.0,-0.05251007656563467,0.0,0.0,0.0,0.0,-0.7649082456180663,-1.7232161052431882,-1.0064930593231312,-0.012704809644617088,-0.005429168922767255,-0.3007111183803767
5252,1.0,299.98672,11480.118,0.0,-0.05252007255305391,0.0,0.0,0.0,0.0,-0.7653459088662603,-1.7119034718517183,-1.012419721278047,0.0041031436143237465,-0.0025111679176829777,-0.29037814584809174
5253,1.0,299.23242,11478.585,0.0,-0.05253006854047326,0.0,0.0,0.0,0.0,-0.7449899879347873,-1.7226295347602982,-1.021583778097469,-0.000874226076381896,-0.009032829785720892,-0.2733072425358247
5254,1.0,299.26675,11418.907,0.0,-0.05254009751795008,0.0,0.0,0.0,0.0,-0.7263225976324593,-1.7091169327517086,-1.035623168833049,0.004090121931988606,-0.01988294287754368,-0.26651465704544874
5255,1.0,299.34608,11284.858,0.0,-0.05255009350536932,0.0,0.0,0.0,0.0,-0.7278384805770653,-1.6937951726895681,-1.0086813958291032,-0.015128598116076385,-0.01046327244214459,-0.27414303201331075
5256,1.0,300.24145,11349.883,0.0,-0.052560089492788675,0.0,0.0,0.0,0.0,-0.7412845323190873,-1.7001143069382183,-1.008682307754193,0.0026594503823673178,0.014420480177690587,-0.2766118361469627
5257,1.0,299.83251,11438.943000000001,0.0,-0.05257008548020792,0.0,0.0,0.0,0.0,-0.7768193855786042,-1.6983274403868682,-1.002006306820323,-0.014768551852042587,0.012548135847904589,-0.29145950661981374
5258,1.0,299.76681,11508.413999999999,0.0,-0.05258008146762727,0.0,0.0,0.0,0.0,-0.7659617217470363,-1.7139258177263086,-1.018382718381549,-0.0024304099595377875,0.004834031815581796,-0.2897301318791377
5259,1.0,300.60162,11461.809,0.0,-0.052590077455046624,0.0,0.0,0.0,0.0,-0.7441914556634782,-1.7161774620985282,-1.0237349080597689,-0.0036563715517057773,-0.007658804793540182,-0.3062294912074977
5260,1.0,300.48006000000004,11428.21,0.0,-0.05260007344246587,0.0,0.0,0.0,0.0,-0.7292173923731533,-1.7138534716691685,-1.030819755408989,0.01050250345951639,0.006603567433246364,-0.28245719491385474
5261,1.0,300.03974,11488.97,0.0,-0.05261006942988522,0.0,0.0,0.0,0.0,-0.7521205733935213,-1.7191857003204185,-1.0210536456451489,0.004005840801920706,-0.0005490450086165236,-0.2917356274045647
5262,1.0,299.96667,11436.785,0.0,-0.05262006541730446,0.0,0.0,0.0,0.0,-0.7517997480143583,-1.7068309392010985,-1.017866467455599,-0.0034078612242297163,-0.011964935434847187,-0.2789017611079607
5263,1.0,299.73505,11301.157,0.0,-0.05263009439478117,0.0,0.0,0.0,0.0,-0.7466066082043353,-1.7059831528424285,-0.982679817592947,0.004590292477526595,-0.015408781020478286,-0.3042312606852877
5264,1.0,300.48082999999997,11404.615,0.0,-0.05264009038220063,0.0,0.0,0.0,0.0,-0.7504276959214473,-1.7089809545882881,-1.007309404531198,0.004951825280782105,-0.0026103687501733376,-0.28689901990722877
5265,1.0,300.10875,11462.583,0.0,-0.052650086369619986,0.0,0.0,0.0,0.0,-0.7511387036491183,-1.7101393021026086,-1.023061096743269,0.005969044990698874,-0.0007760650107466534,-0.2961136885691457
5266,1.0,300.00888,11418.95,0.0,-0.05266008235703923,0.0,0.0,0.0,0.0,-0.7311011560315662,-1.7128298864181482,-1.027144798621299,-0.015175696007224584,-0.00972239552007573,-0.2791746800223957
5267,1.0,299.9218,11472.264,0.0,-0.05267007834445858,0.0,0.0,0.0,0.0,-0.7634001140367253,-1.7018137300059382,-1.022067908995249,0.008117331367918233,0.0037112874779755564,-0.2925229024672627
5268,1.0,299.11334,11445.241000000002,0.0,-0.052680074331877824,0.0,0.0,0.0,0.0,-0.7380608061984303,-1.7142158099049285,-1.0267908703613688,-0.016038623362138883,0.026473962525526674,-0.2926789936451677
5269,1.0,299.5063,11417.753,0.0,-0.05269007031929718,0.0,0.0,0.0,0.0,-0.7561125964025033,-1.7216924810678182,-0.992906652177257,-0.007214071795423453,0.025215631544339076,-0.3009022376142387
5270,1.0,300.00537,11572.278999999999,0.0,-0.05270006630671631,0.0,0.0,0.0,0.0,-0.7475236806048433,-1.7262493707425484,-1.043910642725959,-0.017135608450402882,0.0015937167642875985,-0.29775491055112174
5271,1.0,299.50386000000003,11468.156,0.0,-0.052710095284193126,0.0,0.0,0.0,0.0,-0.7515475601969692,-1.7223484591825584,-1.012137135957658,0.006088143826003014,-0.014190582849251487,-0.29313533109270473
5272,1.0,299.9536,11319.566,0.0,-0.05272009127161259,0.0,0.0,0.0,0.0,-0.7202748522905933,-1.695986022055788,-1.024604681945609,0.013779405958671487,-0.02216735778449788,-0.2745049548165297
5273,1.0,300.14903,11381.593,0.0,-0.052730087259031944,0.0,0.0,0.0,0.0,-0.7611790596850242,-1.6921595843781483,-1.0063815511496261,0.013963224725562986,-0.021319570412577777,-0.26913265212382476
5274,1.0,300.05584,11501.503999999999,0.0,-0.052740083246451075,0.0,0.0,0.0,0.0,-0.7501343397524953,-1.7213739152363783,-1.024661626601229,-0.009703586051844381,-0.003164283094265427,-0.29018613495414175
5275,1.0,300.3595,11564.63,0.0,-0.05275007923387054,0.0,0.0,0.0,0.0,-0.7640404171724182,-1.7159843366294685,-1.035334088579519,-0.003435346241142277,0.006577519812925665,-0.28411085960705873
5276,1.0,299.8293,11549.76,0.0,-0.05276007522128967,0.0,0.0,0.0,0.0,-0.7430799304362794,-1.732574989791838,-1.0351837222646791,0.002382659231350158,0.029803052471082267,-0.2899781957686197
5277,1.0,300.10079,11512.874,0.0,-0.052770071208709135,0.0,0.0,0.0,0.0,-0.7421475883567642,-1.7135658099657785,-1.043912871876179,0.013472919081673588,0.015974891957349083,-0.28001888960821275
5278,1.0,300.56554,11495.153,0.0,-0.052780067196128266,0.0,0.0,0.0,0.0,-0.7542785731914993,-1.7047978528754482,-1.0351630519626391,0.014533290377574087,0.004081729688035356,-0.28334766949923773
5279,1.0,301.08263,11572.294,0.0,-0.05279009617360508,0.0,0.0,0.0,0.0,-0.7525587837967692,-1.7360271328825385,-1.029102397814499,0.004644390406990646,-0.003105772663265897,-0.28126167125336576
5280,1.0,300.70012,11544.841999999999,0.0,-0.05280009216102444,0.0,0.0,0.0,0.0,-0.7604802109585533,-1.715834578264688,-1.0330289446020189,0.0026379738372227473,0.002326111060494288,-0.2820957686031847
5281,1.0,300.59494,11511.581,0.0,-0.0528100881484439,0.0,0.0,0.0,0.0,-0.7455150034741023,-1.7328304301420485,-1.020887979253799,0.006078013148853194,-0.0052165313978565645,-0.28734663327140475
5282,1.0,299.81179,11432.312,0.0,-0.05282008413586303,0.0,0.0,0.0,0.0,-0.7408504559762472,-1.7232210701686785,-1.011065938084439,-0.0073432137630687734,-0.005332944208470615,-0.2903903656442977
5283,1.0,300.1883,11484.014,0.0,-0.0528300801232825,0.0,0.0,0.0,0.0,-0.7562154412876533,-1.7141860203519885,-1.0204520790607792,0.0009204557743144122,-0.025493460668758676,-0.27726176515860573
5284,1.0,299.76571,11497.973,0.0,-0.05284007611070163,0.0,0.0,0.0,0.0,-0.7695209045783002,-1.7191531749922084,-1.006422608043678,0.01004790809287632,-0.005158330920062625,-0.2820639221525417
5285,1.0,300.11169,11498.81,0.0,-0.05285007209812098,0.0,0.0,0.0,0.0,-0.7559187515258723,-1.7240057310461185,-1.015426662539809,0.00953113362059965,-0.008199894329791561,-0.27600894220496175
5286,1.0,299.92888,11501.577,0.0,-0.052860068085540446,0.0,0.0,0.0,0.0,-0.7521263286540893,-1.7226617561134785,-1.021404230179749,0.0010259163342000589,-0.00848637985246548,-0.3054937095148817
5287,1.0,299.79003,11532.903999999999,0.0,-0.05287009706301704,0.0,0.0,0.0,0.0,-0.7418264894000742,-1.7332032048538382,-1.030685094470699,-0.015726343734319286,-0.016530561351939383,-0.2951728250562898
5288,1.0,299.72955,11516.045,0.0,-0.052880093050436616,0.0,0.0,0.0,0.0,-0.7401278971974363,-1.7137067530546881,-1.046755545031729,-0.008322391808581122,0.016462095029432286,-0.2898813290590597
5289,1.0,300.2318,11469.081,0.0,-0.05289008903785575,0.0,0.0,0.0,0.0,-0.7447195717480993,-1.7169858330283085,-1.0246088362710188,-0.0065310086949103745,0.00851041009183708,-0.2826645666793207
5290,1.0,300.12076,11376.943000000001,0.0,-0.05290008502527499,0.0,0.0,0.0,0.0,-0.7429648049599172,-1.704372490483468,-1.01096938548241,0.0022792919144485977,0.015821855728495586,-0.2863612880791587
5291,1.0,300.31188,11468.438999999998,0.0,-0.05291008101269434,0.0,0.0,0.0,0.0,-0.7587572602235113,-1.7205455832796284,-1.0068164279600451,-0.013230348020983686,-0.0008481621832645903,-0.28680486870793676
5292,1.0,299.75012000000004,11618.348,0.0,-0.052920077000113586,0.0,0.0,0.0,0.0,-0.7721741202301523,-1.7374986760027682,-1.022015017340029,-0.01005876810744812,-0.0007776566544012364,-0.2953697400807237
5293,1.0,299.99881,11614.281,0.0,-0.05293007298753294,0.0,0.0,0.0,0.0,-0.7721906463392832,-1.7276097603268084,-1.0306509479423291,-0.009396297896667401,-0.008069200772268113,-0.2889363010882927
5294,1.0,300.378,11507.916000000001,0.0,-0.0529400689749524,0.0,0.0,0.0,0.0,-0.7302966455846673,-1.7338011237378483,-1.034021423074969,-0.0087540878242862,-0.013147116618019386,-0.29023285591625275
5295,1.0,300.57317,11422.813,0.0,-0.05295009795242911,0.0,0.0,0.0,0.0,-0.7473129955115503,-1.7153956383213682,-1.009541331056472,0.009376570525170462,-0.014880327523573987,-0.2805332558889767
5296,1.0,300.11446,11500.923999999999,0.0,-0.052960093939848574,0.0,0.0,0.0,0.0,-0.7500584270550033,-1.7120665037928087,-1.033868624959889,0.012358491906188188,0.01182844659337679,-0.28622642449084873
5297,1.0,300.24806,11628.033000000001,0.0,-0.052970089927267705,0.0,0.0,0.0,0.0,-0.7853380223493283,-1.7275434937702683,-1.0217500524388792,0.010840819561905591,0.01825306929668768,-0.3003251106222807
5298,1.0,299.64387999999997,11563.41,0.0,-0.05298008591468695,0.0,0.0,0.0,0.0,-0.7481119634804022,-1.7213497998839986,-1.0455261686853992,0.002923330193985227,0.011418111713629888,-0.3074826586661757
5299,1.0,299.56007999999997,11467.955,0.0,-0.0529900819021063,0.0,0.0,0.0,0.0,-0.7385412995283513,-1.7242864013238182,-1.023144385901489,-0.011925523045707489,-0.00017185942662370485,-0.3056500540053117
5300,1.0,299.51225,11510.014,0.0,-0.05300007788952554,0.0,0.0,0.0,0.0,-0.7300198053923452,-1.7287126830606585,-1.040024321967409,-0.007903040928119413,0.014485178223075787,-0.2791718125246127
5301,1.0,299.58789,11577.792,0.0,-0.05301007387694512,0.0,0.0,0.0,0.0,-0.7676591689770612,-1.7178968461932185,-1.0338037769534891,0.0021312337833363977,0.008584534098927551,-0.27179630425170676
5302,1.0,299.27717,11653.171999999999,0.0,-0.05302006986436425,0.0,0.0,0.0,0.0,-0.7656815479618854,-1.7438756668321282,-1.032716052971139,-0.0099623125747787,-0.0019399590155840482,-0.27502252296760976
5303,1.0,300.29677000000004,11621.758999999998,0.0,-0.05303006585178349,0.0,0.0,0.0,0.0,-0.7751776975015823,-1.7344896271807986,-1.023057347717899,-0.008274908781069913,-0.009277655631858322,-0.28753851244284173
5304,1.0,300.31721,11554.9,0.0,-0.05304009482926042,0.0,0.0,0.0,0.0,-0.7570279766753443,-1.7326864473028383,-1.022686700831319,-0.004335060654187176,-0.005557481342555705,-0.2974920228126767
5305,1.0,300.35552,11533.831,0.0,-0.05305009081667966,0.0,0.0,0.0,0.0,-0.7392015839560163,-1.7292311631368285,-1.037563745424569,0.015143473640794486,-0.012255907426313887,-0.30410253739258375
5306,1.0,300.16081,11541.533000000001,0.0,-0.053060086804098905,0.0,0.0,0.0,0.0,-0.7454122396489603,-1.7158961838707685,-1.047029426533759,0.01055249012669969,-0.014433120472688087,-0.2947317167577557
5307,1.0,300.3072,11437.733,0.0,-0.05307008279151826,0.0,0.0,0.0,0.0,-0.7441289178673063,-1.7101582498794785,-1.022497932337689,0.02863724844927637,-0.007865695467858702,-0.2909782938823217
5308,1.0,300.07726,11381.843,0.0,-0.05308007877893761,0.0,0.0,0.0,0.0,-0.7399263009575403,-1.7084744308632986,-1.0113952342344381,0.006665927505350823,0.012025966528120489,-0.2925148471289677
5309,1.0,300.75279,11512.149,0.0,-0.053090074766356965,0.0,0.0,0.0,0.0,-0.7605843730688332,-1.7180853107118184,-1.020736093063809,0.007944388320975082,0.01637183369727418,-0.2918803803138507
5310,1.0,299.8936,11574.597,0.0,-0.05310007075377621,0.0,0.0,0.0,0.0,-0.7656624481975003,-1.7272799474192584,-1.025445983503639,-0.017417158229189683,-0.0006157695845992264,-0.2939947900925267
5311,1.0,299.61749,11611.11,0.0,-0.05311006674119545,0.0,0.0,0.0,0.0,-0.7448292763364264,-1.7453994936575183,-1.0392586088668392,-0.016768784556450183,-0.0017512559779105082,-0.28675870503338075
5312,1.0,299.444,11646.583,0.0,-0.05312009571867238,0.0,0.0,0.0,0.0,-0.7582212914506152,-1.7425778961040481,-1.039471188737819,0.005852198509042025,0.002141641179088528,-0.2675459328647277
5313,1.0,300.07164,11709.623,0.0,-0.05313009170609162,0.0,0.0,0.0,0.0,-0.7695629443249492,-1.7490222680650584,-1.040847790323679,0.016806945581716384,-0.006881349036236274,-0.2741482299863237
5314,1.0,300.22019,11704.275,0.0,-0.05314008769351075,0.0,0.0,0.0,0.0,-0.7865584516972752,-1.7396871948937584,-1.031561758457219,0.0025617293003229974,-0.016993800045907486,-0.2811747546597877
5315,1.0,299.84427999999997,11604.083,0.0,-0.053150083680930216,0.0,0.0,0.0,0.0,-0.7681094066589963,-1.7447245677659085,-1.014517371900069,-0.004181851970166656,-0.02039469801279998,-0.29622769947039773
5316,1.0,299.80683,11626.335,0.0,-0.05316007966834957,0.0,0.0,0.0,0.0,-0.7610229178446143,-1.7475342089681982,-1.025558352939729,0.0054772008278576355,0.002705285966540937,-0.3022050036653117
5317,1.0,300.47455,11600.681,0.0,-0.05317007565576892,0.0,0.0,0.0,0.0,-0.7471464881226173,-1.7355440152348585,-1.043626730047939,0.0016949553440540686,0.006296385466679864,-0.3054967290001797
5318,1.0,300.23145,11532.561000000002,0.0,-0.053180071643188165,0.0,0.0,0.0,0.0,-0.7359660636041954,-1.7311752861036982,-1.038469287038939,0.0013548428505625787,-0.017034374632911884,-0.2937262180210207
5319,1.0,300.59321,11598.114,0.0,-0.053190067630607296,0.0,0.0,0.0,0.0,-0.7586297325659253,-1.7288904071281983,-1.0380169721942991,-0.001025812577389819,-0.004544258498983396,-0.27425462124682376
5320,1.0,300.52676,11577.731000000002,0.0,-0.053200096608084335,0.0,0.0,0.0,0.0,-0.7570291925754643,-1.7272215842134981,-1.0350905032554791,-0.003926903350230186,0.012938984914978385,-0.2857614338874577
5321,1.0,299.84154,11571.413,0.0,-0.05321009259550358,0.0,0.0,0.0,0.0,-0.7758950988373843,-1.7378737811897882,-1.0036518857777292,-0.013335103895822289,0.00965194738169804,-0.2810290087654037
5322,1.0,299.68489,11625.5,0.0,-0.05322008858292271,0.0,0.0,0.0,0.0,-0.7636776939016202,-1.7283613892509881,-1.041822638244889,-0.025671706560100177,-0.009565263430343002,-0.3129340759266887
5323,1.0,300.08822000000004,11634.71,0.0,-0.05323008457034206,0.0,0.0,0.0,0.0,-0.7649457358717663,-1.7416902890164483,-1.030025367330589,-0.01742052323277178,0.0065176726010692035,-0.29172178640819874
5324,1.0,300.18214,11547.208,0.0,-0.05324008055776153,0.0,0.0,0.0,0.0,-0.7414772626206083,-1.7347521602817086,-1.033833667831439,0.011102668718998092,-0.003511208276129277,-0.3024786521198187
5325,1.0,299.93703,11542.681,0.0,-0.05325007654518088,0.0,0.0,0.0,0.0,-0.7627047508905983,-1.7249318416375183,-1.021050200594809,0.002825854419790117,-0.002762025033715648,-0.27354407961419874
5326,1.0,300.13799,11572.046999999999,0.0,-0.05326007253260012,0.0,0.0,0.0,0.0,-0.7629707391743493,-1.7310939221206683,-1.0235486726913892,0.00868698179003835,-0.02002850638690968,-0.28884522003680374
5327,1.0,300.44696,11618.866000000002,0.0,-0.053270068520019254,0.0,0.0,0.0,0.0,-0.7790371772649833,-1.7360990736396384,-1.016708930541359,-0.0005449065304380874,-0.0055288022104002955,-0.28344873106421176
5328,1.0,300.19382,11616.319,0.0,-0.05328009749749629,0.0,0.0,0.0,0.0,-0.7627692746569663,-1.7317046079559382,-1.036597003504159,0.008935638836128891,0.021904398105295778,-0.2980045551107597
5329,1.0,299.93285,11708.142,0.0,-0.053290093484915424,0.0,0.0,0.0,0.0,-0.7638096089321392,-1.7505250192883683,-1.044648187473749,-0.01174560833145129,0.012089053505846688,-0.29939504835549074
5330,1.0,299.77058,11671.165,0.0,-0.053300089472334666,0.0,0.0,0.0,0.0,-0.7526871017894333,-1.7396332899884381,-1.055422278437069,-0.0016639950819485286,-0.009082309625204172,-0.27313343974617177
5331,1.0,299.30832000000004,11618.473,0.0,-0.05331008545975424,0.0,0.0,0.0,0.0,-0.7530852381512263,-1.7397712946520585,-1.038869216853409,-0.00994961006622506,0.0014128011615826186,-0.2845396771818797
5332,1.0,299.71652,11722.128999999999,0.0,-0.053320081447173484,0.0,0.0,0.0,0.0,-0.7742976188622253,-1.7460007562668585,-1.042936200104789,-0.0022252447488145576,0.0016760235765356484,-0.2622379208908678
5333,1.0,300.17825,11657.966999999999,0.0,-0.05333007743459284,0.0,0.0,0.0,0.0,-0.7691192218411572,-1.7454435700368682,-1.029168056420979,-0.01134600174376319,-0.0015202965607165886,-0.30217873009021873
5334,1.0,299.88698,11588.413,0.0,-0.05334007342201197,0.0,0.0,0.0,0.0,-0.7464322379946263,-1.7520386122877485,-1.024117409972519,-0.01794584072061658,-0.018108147174634985,-0.2968993019016797
5335,1.0,300.13832,11652.559,0.0,-0.05335006940943121,0.0,0.0,0.0,0.0,-0.7549861966638363,-1.7482577708646083,-1.038842872350809,0.005780152171281604,0.01050013954703309,-0.3108600948270027
5336,1.0,300.81766,11651.253999999999,0.0,-0.05336009838690825,0.0,0.0,0.0,0.0,-0.7471135878918703,-1.7502255025588085,-1.044351203869439,0.014132682698787185,0.0035195561397281467,-0.28893762844592374
5337,1.0,299.98177999999996,11558.212,0.0,-0.05337009437432738,0.0,0.0,0.0,0.0,-0.7480902697957613,-1.7360513495599286,-1.029266341680679,0.003361621049291167,0.012472856431725089,-0.28368470688000075
5338,1.0,299.66628,11632.017,0.0,-0.053380090361746735,0.0,0.0,0.0,0.0,-0.7639772308961823,-1.7303327686455483,-1.041532646066269,0.001114410558183759,-0.02179066787432148,-0.27219822003637273
5339,1.0,299.77277999999995,11647.275,0.0,-0.0533900863491662,0.0,0.0,0.0,0.0,-0.7639528115687723,-1.7356003519404184,-1.040927735756569,0.006716909589432363,0.016864246901371584,-0.28096454579404173
5340,1.0,300.23687,11677.893,0.0,-0.05340008233658533,0.0,0.0,0.0,0.0,-0.7540741195863213,-1.7397742330773485,-1.055939643938129,-0.002106537939974108,-0.0016963118832879485,-0.2892001818118357
5341,1.0,300.26072999999997,11716.678999999998,0.0,-0.053410078324004795,0.0,0.0,0.0,0.0,-0.7724684389866993,-1.7400627053808182,-1.049046604832839,-0.004719640438917245,-0.009466593338255022,-0.29643780701113376
5342,1.0,300.33586,11710.635,0.0,-0.053420074311423926,0.0,0.0,0.0,0.0,-0.7732253874739043,-1.7370359246820983,-1.049479363950549,-0.01112075725978329,-0.01703226707270388,-0.28804635339296175
5343,1.0,299.84542000000005,11600.286,0.0,-0.05343007029884317,0.0,0.0,0.0,0.0,-0.7709852029603153,-1.7278479754253182,-1.027364167267949,0.005058473400182455,0.012882920773695287,-0.28799112113001074
5344,1.0,299.73906,11727.239,0.0,-0.0534400992763201,0.0,0.0,0.0,0.0,-0.7698609411793592,-1.755476468552038,-1.0394505184357792,0.024803003679615875,0.010365655927510589,-0.2793115295809017
5345,1.0,299.97648,11809.101,0.0,-0.05345009526373934,0.0,0.0,0.0,0.0,-0.7762565758105592,-1.7591172788113585,-1.0542980774511188,0.0021324835260097376,0.0025612663463523075,-0.29688428553519774
5346,1.0,299.78045,11669.791000000001,0.0,-0.05346009125115869,0.0,0.0,0.0,0.0,-0.7522418189004872,-1.7486461496279382,-1.0464371818503089,0.01139741506708729,-0.015564466898343286,-0.2819386743076807
5347,1.0,299.56086,11586.988000000001,0.0,-0.053470087238578046,0.0,0.0,0.0,0.0,-0.7541073440571003,-1.7470905067494087,-1.020957184235629,0.016532450050125783,0.001022548088217639,-0.3000797723755677
5348,1.0,299.56762000000003,11608.431,0.0,-0.05348008322599729,0.0,0.0,0.0,0.0,-0.7652147639058172,-1.7306258005744684,-1.032832475407629,0.02318381279456418,-0.007314693913829083,-0.2824039080910957
5349,1.0,300.20876,11636.911,0.0,-0.05349007921341664,0.0,0.0,0.0,0.0,-0.7639384436823542,-1.7484634606349085,-1.024928516677569,0.0002746163008700187,-0.005513942593708764,-0.3006192773913127
5350,1.0,300.37427,11597.206,0.0,-0.053500075200835884,0.0,0.0,0.0,0.0,-0.7520243855615283,-1.7418334612555784,-1.0314032861415792,-0.013952298849734686,-0.02024731571950448,-0.2916070966293797
5351,1.0,300.0823,11617.011,0.0,-0.05351007118825524,0.0,0.0,0.0,0.0,-0.7525574767041403,-1.7394689408222181,-1.0392549611664792,-0.007423269133594622,0.015209071452268488,-0.3065735301464517
5352,1.0,300.01108,11676.703000000001,0.0,-0.0535200671756747,0.0,0.0,0.0,0.0,-0.7378063689658192,-1.7634262261866183,-1.048193448248639,-1.869794181934318e-05,0.010243699118974391,-0.31580986209550665
5353,1.0,299.89801,11644.562,0.0,-0.053530096153151296,0.0,0.0,0.0,0.0,-0.7515565375928553,-1.7410148564997883,-1.0470847499892189,0.0036454656369044464,0.012704196628306588,-0.3126764773537657
5354,1.0,299.9533,11624.073,0.0,-0.05354009214057065,0.0,0.0,0.0,0.0,-0.7472867827314632,-1.7488976383027586,-1.037243457067959,0.011893178076015289,-0.008616567595539013,-0.3147309939190307
5355,1.0,299.86015,11623.735,0.0,-0.05355008812799,0.0,0.0,0.0,0.0,-0.7774028048536833,-1.7368654960152785,-1.0190569349980891,0.0021223376501084182,0.015131823291144686,-0.27472372564562075
5356,1.0,300.46027000000004,11589.139,0.0,-0.053560084115409246,0.0,0.0,0.0,0.0,-0.7592132531660143,-1.7323827762478683,-1.031212795122779,0.013422517995199385,-0.007804260391770532,-0.2868078983257357
5357,1.0,300.57714,11734.015,0.0,-0.0535700801028286,0.0,0.0,0.0,0.0,-0.7657201223931923,-1.7604951976223484,-1.0406321707023989,-0.014908283093832984,-0.014613789045018685,-0.27433493144974974
5358,1.0,300.78297000000003,11875.832,0.0,-0.05358007609024784,0.0,0.0,0.0,0.0,-0.7736550055163043,-1.7595964447836485,-1.076704887512499,0.001245993850620019,-0.009255846031405881,-0.2832439734840037
5359,1.0,300.62104,11915.476999999999,0.0,-0.053590072077667195,0.0,0.0,0.0,0.0,-0.7931388626167112,-1.7603247689555284,-1.068543765907059,-0.01020042827345389,-0.003927440575433206,-0.27777477368423575
5360,1.0,300.17992999999996,11811.676000000001,0.0,-0.05360006806508655,0.0,0.0,0.0,0.0,-0.7942946162107752,-1.756350396763288,-1.039809614271219,0.006606615086897143,0.011763420254959188,-0.3033800090112757
5361,1.0,299.92217999999997,11801.473,0.0,-0.053610097042563365,0.0,0.0,0.0,0.0,-0.8011088751207902,-1.7464546923116584,-1.039789551919239,-0.007134148654035654,0.009165985135687303,-0.2820898208250977
5362,1.0,300.38268999999997,11739.05,0.0,-0.05362009302998261,0.0,0.0,0.0,0.0,-0.7763634736961093,-1.7544318076989383,-1.037582895851459,0.007894692456570481,0.01044145716749159,-0.2886209067296657
5363,1.0,300.15416,11682.196000000002,0.0,-0.05363008901740196,0.0,0.0,0.0,0.0,-0.7530411313743732,-1.7463150664478784,-1.0517395196236088,-0.008327012026387103,0.01017025571197609,-0.28963149198190274
5364,1.0,300.10213999999996,11633.604,0.0,-0.0536400850048212,0.0,0.0,0.0,0.0,-0.7328900896131203,-1.7474374435836486,-1.055997500518839,9.375941499508381e-05,-0.009009124900956402,-0.29166084954718474
5365,1.0,299.9155,11625.743,0.0,-0.053650080992240556,0.0,0.0,0.0,0.0,-0.7440438149914073,-1.7546833976987684,-1.035208344242109,-0.008786908616225362,-0.019815585050645984,-0.3099430528239977
5366,1.0,299.5757,11636.368999999999,0.0,-0.0536600769796598,0.0,0.0,0.0,0.0,-0.7465635045450814,-1.7539156580979982,-1.036686372162979,-0.009374193339110852,-0.02190757869735968,-0.29128675761026473
5367,1.0,299.89254,11704.22,0.0,-0.05367007296707915,0.0,0.0,0.0,0.0,-0.7753986366858873,-1.7542278404538085,-1.0281641282218992,-0.003242948893604137,-0.00885809024635044,-0.29670373449987875
5368,1.0,299.35652000000005,11784.758999999998,0.0,-0.053680068954498505,0.0,0.0,0.0,0.0,-0.7727291178399263,-1.7618604508070883,-1.0476829728482588,-0.009733485643745241,0.0025254253598400774,-0.2913630857402977
5369,1.0,299.62561,11663.431,0.0,-0.05369009793197532,0.0,0.0,0.0,0.0,-0.7574619212956714,-1.7463806237293484,-1.041549364692919,-0.0015988317521174085,-0.0015563147646713085,-0.2936471642482187
5370,1.0,300.038,11621.684,0.0,-0.053700093919394565,0.0,0.0,0.0,0.0,-0.7364480464117633,-1.7514109038507986,-1.044842731492949,0.003257913179030997,0.006459913495018824,-0.29179999918341776
5371,1.0,300.23432,11714.659,0.0,-0.05371008990681392,0.0,0.0,0.0,0.0,-0.7605173567072192,-1.7490085891887082,-1.051437773743829,0.004620164509024735,0.015261424058435285,-0.2922652532318347
5372,1.0,300.74517000000003,11868.34,0.0,-0.05372008589423305,0.0,0.0,0.0,0.0,-0.7903817179021022,-1.7577889079302584,-1.0595084121153389,0.004317612386140166,0.007254835454896514,-0.2956436722452587
5373,1.0,300.47135,11827.82,0.0,-0.053730081881652514,0.0,0.0,0.0,0.0,-0.7915364582460662,-1.7721090702685482,-1.031716583072499,-0.005453164103685395,0.00033085958477079865,-0.2997156913496357
5374,1.0,300.62306,11747.358999999999,0.0,-0.05374007786907187,0.0,0.0,0.0,0.0,-0.7638215247533153,-1.7499975212863084,-1.057084819201149,-0.009886612051857641,0.001122554049237459,-0.2734338278708177
5375,1.0,300.48104,11748.339,0.0,-0.05375007385649111,0.0,0.0,0.0,0.0,-0.7589063397107243,-1.7652469352913085,-1.047048576960649,0.004832158316146896,-0.008572182782858572,-0.27535234600766073
5376,1.0,299.61117,11817.011,0.0,-0.05376006984391046,0.0,0.0,0.0,0.0,-0.7614464158564103,-1.7633747530815382,-1.0672550131048688,-0.0018346594307417881,-0.009052570937419192,-0.27325676241584274
5377,1.0,299.46628,11889.483999999999,0.0,-0.05377009882138728,0.0,0.0,0.0,0.0,-0.7902651434780973,-1.7635478161986184,-1.060293275642799,-0.006018917971220954,-0.02344794683063218,-0.28342598359946675
5378,1.0,299.68872000000005,11754.728000000001,0.0,-0.05378009480880641,0.0,0.0,0.0,0.0,-0.7634656003906883,-1.7590885025085181,-1.0505896834101291,-0.015206981117312186,-0.013247055501882586,-0.2791493589023967
5379,1.0,299.61372,11615.952,0.0,-0.053790090796225876,0.0,0.0,0.0,0.0,-0.7661795097235303,-1.7443711461310283,-1.020408813281509,0.004142716806254316,-0.005013760091819595,-0.30029979963478276
5380,1.0,299.98759,11709.82,0.0,-0.05380008678364501,0.0,0.0,0.0,0.0,-0.7571784544476953,-1.7535793603898082,-1.048735131752099,-0.008681718462393902,0.01902508683937988,-0.2993862229471197
5381,1.0,300.35803,11798.111,0.0,-0.05381008277106447,0.0,0.0,0.0,0.0,-0.7762685524267413,-1.7520480355136785,-1.058014678817919,0.00962448232581245,0.00946446044679452,-0.3175530474350457
5382,1.0,300.04971,11708.739,0.0,-0.053820078758483825,0.0,0.0,0.0,0.0,-0.7490275058732593,-1.7427567347466981,-1.067379946842199,0.004629314461402766,0.015123707157843684,-0.29885270623946575
5383,1.0,300.82878999999997,11637.104,0.0,-0.053830074745902956,0.0,0.0,0.0,0.0,-0.7470915598346962,-1.7498722835739484,-1.040425163706969,0.013047417874429887,0.01070435706493779,-0.3048422808930907
5384,1.0,300.84229,11777.979,0.0,-0.05384007073332242,0.0,0.0,0.0,0.0,-0.7711944492384663,-1.7683891251764183,-1.040628016376989,0.0038547321800574464,0.006122786036321933,-0.30706850282030174
5385,1.0,300.65362000000005,11882.935,0.0,-0.05385009971079924,0.0,0.0,0.0,0.0,-0.8042202419378582,-1.765339749000468,-1.042555420717209,-0.004353098937767416,-0.015674109678414185,-0.2930631775530837
5386,1.0,299.67079,11794.447,0.0,-0.05386009569821837,0.0,0.0,0.0,0.0,-0.7755708385403822,-1.7712045419042783,-1.0384421319362591,-0.01180102095292009,0.01180451666576509,-0.29825615524309074
5387,1.0,299.76422,11719.598999999998,0.0,-0.05387009168563772,0.0,0.0,0.0,0.0,-0.7697168671476403,-1.7570359617809483,-1.035712638816879,-0.006678722624963603,-0.001083960670153589,-0.27219171497073075
5388,1.0,299.54044,11759.784,0.0,-0.053880087673056964,0.0,0.0,0.0,0.0,-0.7507097847492873,-1.7646031161777682,-1.059367874326469,-0.005418808947119805,0.0008544288615555631,-0.29472153359425074
5389,1.0,299.33664,11864.226999999999,0.0,-0.05389008366047632,0.0,0.0,0.0,0.0,-0.7644081661637122,-1.7805123586478884,-1.0615083651627188,-0.006340183607552404,-0.01989414030439878,-0.2721077570674447
5390,1.0,300.29759,11879.993999999999,0.0,-0.05390007964789578,0.0,0.0,0.0,0.0,-0.7871950767351052,-1.7582338260491686,-1.065792487910529,0.02155780881584008,-0.012017151252250488,-0.30088742389777673
5391,1.0,299.97895,11849.438999999998,0.0,-0.053910075635314914,0.0,0.0,0.0,0.0,-0.7843921128509742,-1.7681964050073984,-1.049345209637309,0.017424230714887683,0.003071879548745907,-0.27992992624943275
5392,1.0,299.91954,11732.613000000001,0.0,-0.05392007162273438,0.0,0.0,0.0,0.0,-0.7741545074181012,-1.7510361026388084,-1.041230697536469,0.007689640121908392,0.009659631161181372,-0.3167507053433607
5393,1.0,300.47806,11847.601,0.0,-0.05393006761015351,0.0,0.0,0.0,0.0,-0.7862613161054502,-1.7603024774533282,-1.054811085976749,0.009421986623802682,-0.004765507636493985,-0.29892042174364875
5394,1.0,300.23051,11865.866000000002,0.0,-0.053940096587630326,0.0,0.0,0.0,0.0,-0.7717301849638393,-1.7704530143051085,-1.064743672732019,-0.012486820031353188,0.013186015289358387,-0.3074223196227207
5395,1.0,300.06399,11737.956,0.0,-0.05395009257504968,0.0,0.0,0.0,0.0,-0.7618633682725602,-1.7492487294624086,-1.056933439636209,-0.004770003629837706,0.009444849497734071,-0.29088168048528673
5396,1.0,299.93324,11648.236,0.0,-0.05396008856246892,0.0,0.0,0.0,0.0,-0.7690762600369172,-1.7526713869751984,-1.019025220269959,-0.011647525721771291,0.002733028450303907,-0.2905311871431957
5397,1.0,299.15299,11692.956,0.0,-0.0539700845498885,0.0,0.0,0.0,0.0,-0.7692181961109252,-1.7579700770481381,-1.027178438524619,-0.0075727348717457435,-0.018510509802595086,-0.3018862453163527
5398,1.0,299.55987999999996,11762.908000000001,0.0,-0.05398008053730763,0.0,0.0,0.0,0.0,-0.7693643270403473,-1.764271783395068,-1.0419942828118292,0.008238831909934402,0.0003865818554701586,-0.28474943008508075
5399,1.0,300.04077,11764.368,0.0,-0.05399007652472687,0.0,0.0,0.0,0.0,-0.7589042220180152,-1.7708076518401086,-1.046362302667919,0.015026673262017185,-0.01125988561776419,-0.31048318605480474
5400,1.0,299.59961,11820.148000000001,0.0,-0.054000072512146224,0.0,0.0,0.0,0.0,-0.7494014660876663,-1.7703170361416882,-1.0733113102775789,0.016316018815515684,0.006749548604303584,-0.2936923754676807
5401,1.0,300.02143,11807.208,0.0,-0.05401006849956547,0.0,0.0,0.0,0.0,-0.7617543324292994,-1.7714927102327185,-1.0558493633542188,0.011599907020071689,-0.023190309754205374,-0.3147353508944607
5402,1.0,299.92467,11761.337,0.0,-0.054020097477042284,0.0,0.0,0.0,0.0,-0.7678183910977753,-1.7638866470320584,-1.043447587430259,0.012393016376845489,0.004275232998057646,-0.2933088501723297
5403,1.0,300.56842,11755.223999999998,0.0,-0.05403009346446164,0.0,0.0,0.0,0.0,-0.7719770228207002,-1.7649151972085684,-1.036402459484959,0.006382015941905933,0.0005385948435776724,-0.3072148060022407
5404,1.0,300.04645,11808.896,0.0,-0.05404008945188099,0.0,0.0,0.0,0.0,-0.7709450478588522,-1.7641210117801884,-1.054543486625339,-0.01948791212730718,0.014400008472670187,-0.29393140116627076
5405,1.0,299.4457,11881.331,0.0,-0.054050085439300455,0.0,0.0,0.0,0.0,-0.7850158594800332,-1.7667981198693983,-1.059813907020489,-0.02416426804182758,0.0019549143844100284,-0.3080791488675447
5406,1.0,299.54377,11918.411,0.0,-0.054060081426719586,0.0,0.0,0.0,0.0,-0.7650996181644533,-1.7764553052474883,-1.0813444583953888,-0.025020848398115476,0.011565835472209091,-0.29392839181347374
5407,1.0,300.1901,11948.345,0.0,-0.05407007741413883,0.0,0.0,0.0,0.0,-0.7869236979608223,-1.7919572211774084,-1.053117438434599,0.0025227092416220177,0.003806668154938897,-0.2870638655659977
5408,1.0,299.78983999999997,11975.035,0.0,-0.05408007340155818,0.0,0.0,0.0,0.0,-0.7777407642920373,-1.7789687734455484,-1.083402065373459,-0.01277409568645509,-0.008699433721842263,-0.26630415433717375
5409,1.0,300.07527000000005,11855.008999999998,0.0,-0.054090069388977424,0.0,0.0,0.0,0.0,-0.7864671477307643,-1.7700421413895586,-1.047117477967449,0.014091228610695988,-0.015877556112992786,-0.27283403447412274
5410,1.0,300.0889,11806.892,0.0,-0.05410009836645413,0.0,0.0,0.0,0.0,-0.7574762790495883,-1.764431370285818,-1.067092690438849,-0.008367111399094601,-0.008327057622641602,-0.2689756996833348
5411,1.0,300.28058,11804.481000000002,0.0,-0.054110094353873595,0.0,0.0,0.0,0.0,-0.7763308267778873,-1.7551518232199983,-1.056784998496559,0.026308760202722475,0.0017104205803303684,-0.2994500779684217
5412,1.0,299.62192999999996,11760.63,0.0,-0.05412009034129295,0.0,0.0,0.0,0.0,-0.7474991498199223,-1.7685501306173084,-1.058888607029169,-0.0016940186956616284,0.0050667020042445545,-0.3014277496461027
5413,1.0,299.59146,11829.185,0.0,-0.0541300863287123,0.0,0.0,0.0,0.0,-0.7935100667908462,-1.7603913394870983,-1.041875428575099,0.007174329289401174,-0.007200571656391093,-0.3267304690232867
5414,1.0,299.33342000000005,11862.641000000001,0.0,-0.054140082316131544,0.0,0.0,0.0,0.0,-0.7896533937302223,-1.7681206138999181,-1.0481726766215889,-0.0011478612877100888,0.013258517387013788,-0.3012037504464957
5415,1.0,298.91433,11667.274,0.0,-0.054150078303550786,0.0,0.0,0.0,0.0,-0.7700697821574702,-1.7536865622503883,-1.0228036298928591,0.0013510561322888585,0.0020638815293142483,-0.32193042972205965
5416,1.0,299.32464,11769.281,0.0,-0.05416007429097014,0.0,0.0,0.0,0.0,-0.7612033574224223,-1.7633346283775786,-1.0530294883259188,-0.004000830077526186,-0.004676221658882146,-0.2841886468172357
5417,1.0,299.78066,11915.34,0.0,-0.05417007027838949,0.0,0.0,0.0,0.0,-0.7645516018478683,-1.782902919608818,-1.074511201045999,-0.025568307427145477,-0.0025988729211637875,-0.3001137162539177
5418,1.0,299.59297999999995,11862.428999999998,0.0,-0.05418009925586609,0.0,0.0,0.0,0.0,-0.7593410240036242,-1.784773885918468,-1.061767149238259,-0.006790563955101484,0.014287893362355288,-0.2896966338308317
5419,1.0,299.91944,11843.1,0.0,-0.05419009524328566,0.0,0.0,0.0,0.0,-0.7670749391019023,-1.7862106745602682,-1.0467211958533391,-0.006325369688440384,0.005265860668374985,-0.29321044332261775
5420,1.0,299.29128,11746.288,0.0,-0.054200091230704905,0.0,0.0,0.0,0.0,-0.7680073825064272,-1.7666541370301883,-1.0359168087120292,0.0034658342273762074,-0.0038745511493634265,-0.28403906070497276
5421,1.0,299.35951,11857.138,0.0,-0.05421008721812426,0.0,0.0,0.0,0.0,-0.7767462390538853,-1.7842029194871183,-1.043324781518139,0.01033105343659559,-0.026240259429711976,-0.2774987136944907
5422,1.0,300.18707,11944.608,0.0,-0.0542200832055435,0.0,0.0,0.0,0.0,-0.7762525430751612,-1.7734023826961882,-1.0812076696318889,0.005576065970589864,-0.006412526219642063,-0.2853625274555887
5423,1.0,299.75023999999996,11945.552,0.0,-0.05423007919296263,0.0,0.0,0.0,0.0,-0.7685498867424683,-1.7856331220032684,-1.0769665086883191,0.0058868069781326145,0.001915809212700648,-0.2942034689506217
5424,1.0,299.87636000000003,11930.111,0.0,-0.0542400751803821,0.0,0.0,0.0,0.0,-0.7913827988684012,-1.7731028659666284,-1.061970204558299,-0.01074012378021769,-8.044299036485503e-05,-0.3130887586869547
5425,1.0,300.56108,11975.888,0.0,-0.05425007116780145,0.0,0.0,0.0,0.0,-0.8207378296355172,-1.7798943774118983,-1.0397386867642189,-0.006341816460088555,-0.005836788393571165,-0.3050929994978347
5426,1.0,299.86185,11951.735,0.0,-0.05426010014527827,0.0,0.0,0.0,0.0,-0.8152381512727412,-1.7720190936596685,-1.045771881834649,-0.012956510088707988,0.016602215359261086,-0.30904446210531367
5427,1.0,299.95175,11919.366000000002,0.0,-0.05427009613269762,0.0,0.0,0.0,0.0,-0.7918796663199383,-1.769600769645998,-1.0617092926575489,-0.015651072424140586,0.004872174501021185,-0.2785610658943367
5428,1.0,300.32036,11828.778999999999,0.0,-0.05428009212011686,0.0,0.0,0.0,0.0,-0.7470956027025953,-1.7758328657110583,-1.0727250437697189,-0.0015139275745630185,-0.006622194921759753,-0.28825178985073674
5429,1.0,299.98126,11806.393,0.0,-0.054290088107536216,0.0,0.0,0.0,0.0,-0.7360316918131723,-1.7766418445908982,-1.076175160360219,0.005529224330391954,-0.01239576228461649,-0.28860645778323973
5430,1.0,299.77635,11888.185,0.0,-0.05430008409495546,0.0,0.0,0.0,0.0,-0.7567881201116723,-1.7877111966333583,-1.0692120043480091,0.029694322629351472,0.006904999306820373,-0.3028127612077927
5431,1.0,299.86529,11843.201000000001,0.0,-0.05431008008237459,0.0,0.0,0.0,0.0,-0.7688384299734453,-1.7864760447614583,-1.0447227626811089,0.0027618038412188174,-0.002842449632577937,-0.3147121474671707
5432,1.0,299.08471000000003,11754.188,0.0,-0.05432007606979394,0.0,0.0,0.0,0.0,-0.7569639696665272,-1.7793501607831883,-1.036665397885909,-0.007905006531988402,-0.004701845943311066,-0.3045754820092597
5433,1.0,299.62682,11885.954,0.0,-0.05433007205721341,0.0,0.0,0.0,0.0,-0.7738540078359443,-1.7886899962299583,-1.050489371650229,-0.009669542064384501,-0.004933871806235235,-0.3068290211591667
5434,1.0,299.83583,11963.998,0.0,-0.05434006804463276,0.0,0.0,0.0,0.0,-0.7642600593965952,-1.7937368936530482,-1.078759657390289,0.005636141670343875,0.012479032191084588,-0.2907207459719037
5435,1.0,299.60974,11934.508999999998,0.0,-0.05435009702210958,0.0,0.0,0.0,0.0,-0.7777897549343722,-1.7752837854818682,-1.074719119966519,-0.005332576905309365,0.0014953283557274189,-0.30335687651149273
5436,1.0,299.91339,11945.302,0.0,-0.05436009300952871,0.0,0.0,0.0,0.0,-0.7898781326024022,-1.7784264819920284,-1.062769050937139,-0.00939143966641293,-0.02356566014774958,-0.2971724639961387
5437,1.0,300.65617000000003,11950.041000000001,0.0,-0.054370088996948174,0.0,0.0,0.0,0.0,-0.8181325103158922,-1.7661775041831482,-1.0482038847246689,0.0005691500893532403,-0.009512292234990151,-0.3039800759854977
5438,1.0,300.34904,11854.476,0.0,-0.054380084984367305,0.0,0.0,0.0,0.0,-0.7902376742678863,-1.7642671224446083,-1.048959870624279,0.013915603997363187,0.01096598533350849,-0.2932032289819057
5439,1.0,300.18617,11946.261,0.0,-0.05439008097178677,0.0,0.0,0.0,0.0,-0.7971446658270532,-1.7783403557335282,-1.0558799635072391,0.006735980577514524,0.016553642175967286,-0.2858240932736417
5440,1.0,300.30842,11991.486,0.0,-0.05440007695920612,0.0,0.0,0.0,0.0,-0.7691769466993542,-1.7727516734819684,-1.1031836457507491,-0.007256511471886924,-0.0049040173039638256,-0.2782302498691877
5441,1.0,299.58436,11931.378,0.0,-0.054410072946625365,0.0,0.0,0.0,0.0,-0.7619458974932053,-1.7969989510249882,-1.0678960964431388,-0.01643960695671288,-0.006605536178190664,-0.2951252326990927
5442,1.0,299.86444,12012.457,0.0,-0.05442006893404472,0.0,0.0,0.0,0.0,-0.7712272684092053,-1.7954050072926784,-1.0848546607168188,0.01094440918587909,-0.004721412512017136,-0.2987263336869937
5443,1.0,299.80372,12005.08,0.0,-0.054430097911521536,0.0,0.0,0.0,0.0,-0.8043952504951303,-1.7894690842318484,-1.055380329882929,0.009981995565921262,-0.0019960584179706284,-0.30726500241219473
5444,1.0,300.51727999999997,11966.829,0.0,-0.05444009389894067,0.0,0.0,0.0,0.0,-0.7837336421409883,-1.7970682573318284,-1.0568151933495389,0.007615235241890203,-0.0032943697149789767,-0.3056209433299387
5445,1.0,299.80969,11844.066,0.0,-0.05445008988636002,0.0,0.0,0.0,0.0,-0.7866761204313882,-1.7536131016181382,-1.0600110854899492,0.009710980548424161,0.010420210326144689,-0.2974634795573597
5446,1.0,299.9484,11836.57,0.0,-0.05446008587377926,0.0,0.0,0.0,0.0,-0.7538982092364602,-1.7813032003509381,-1.0628202200671888,0.010245136920866291,0.013961340080376987,-0.29942716838366074
5447,1.0,300.12829,11761.693000000001,0.0,-0.054470081861198616,0.0,0.0,0.0,0.0,-0.7667773070175283,-1.7599112615897181,-1.0485723024610292,0.00971499200557006,0.014132581373777186,-0.3044184383762607
5448,1.0,300.0472,11889.417,0.0,-0.05448007784861808,0.0,0.0,0.0,0.0,-0.7754245353584432,-1.7812789836735483,-1.057382410755519,-0.008204758740871643,-0.022683866075973277,-0.3105027316492337
5449,1.0,299.48122,11974.382,0.0,-0.05449007383603721,0.0,0.0,0.0,0.0,-0.7899913633010772,-1.7994738143942381,-1.0504479297211389,-0.0023974059719805477,-0.003726071607534637,-0.3193229825772247
5450,1.0,299.39837,11970.443000000001,0.0,-0.054500069823456676,0.0,0.0,0.0,0.0,-0.7797256705754323,-1.796430315068868,-1.062559814791489,-0.002455455272859568,0.0012336645220782088,-0.3083022564070637
5451,1.0,300.45581,12001.548999999999,0.0,-0.05451009880093338,0.0,0.0,0.0,0.0,-0.7794129815945723,-1.8059547646838585,-1.0628035014405388,0.0032709490468675368,0.016841714245647788,-0.29769119738483374
5452,1.0,300.15106000000003,12027.014,0.0,-0.054520094788352624,0.0,0.0,0.0,0.0,-0.7743401956314272,-1.8096104697196482,-1.071961154519329,-0.017709747367815984,-0.005088541292924925,-0.2985152534261617
5453,1.0,300.44993,12030.411,0.0,-0.05453009077577198,0.0,0.0,0.0,0.0,-0.7915176320592082,-1.790093144968438,-1.075333757477179,-0.00990073848077681,-0.004246126071710016,-0.28021220759479176
5454,1.0,300.22411,11912.011,0.0,-0.05454008676319122,0.0,0.0,0.0,0.0,-0.7736428971776093,-1.7924048750715882,-1.0549063314861489,0.006747040607656063,0.0037161397300544364,-0.3112110238666367
5455,1.0,300.13011,11968.746000000001,0.0,-0.05455008275061057,0.0,0.0,0.0,0.0,-0.7858318601830663,-1.7816220701574086,-1.070745963674399,-0.0034969955183015867,0.005296992980347505,-0.2794068764153117
5456,1.0,300.17169,11997.713,0.0,-0.05456007873802993,0.0,0.0,0.0,0.0,-0.7924404597202843,-1.7717543314085382,-1.082810225990049,0.011662154013464989,-0.020028878249696378,-0.2945292896527777
5457,1.0,300.58673,11946.986,0.0,-0.05457007472544917,0.0,0.0,0.0,0.0,-0.7826659197156123,-1.7742056873754681,-1.074713952391009,-0.007513243108024362,0.0016871841210871084,-0.28191096191744575
5458,1.0,298.95468999999997,11847.982,0.0,-0.05458007071286852,0.0,0.0,0.0,0.0,-0.7770236567987643,-1.7569361566460984,-1.067530718457079,0.004668128425033405,0.024183616052487075,-0.3023700013115957
5459,1.0,299.34616,11956.112,0.0,-0.05459009969034534,0.0,0.0,0.0,0.0,-0.7908459890979223,-1.7822244473418585,-1.061289097841079,-0.011747411916629289,0.00854595095366969,-0.2996031699260307
5460,1.0,300.06902,12014.153999999999,0.0,-0.05460009567776458,0.0,0.0,0.0,0.0,-0.7846356475125092,-1.7984139547896383,-1.068953220272469,-0.0006223949027630944,-0.008981978512227262,-0.32001233715025873
5461,1.0,299.80622999999997,12012.001,0.0,-0.054610091665183935,0.0,0.0,0.0,0.0,-0.7864924688507633,-1.7919558026272682,-1.0729002347120091,-0.002155110920617888,0.006638157055885093,-0.29586365897446976
5462,1.0,299.96531,12047.925,0.0,-0.05462008765260329,0.0,0.0,0.0,0.0,-0.7721590329361633,-1.817215823645238,-1.0728934459363388,0.014672906108853087,0.006990953718103414,-0.31551670857657466
5463,1.0,299.68449,11919.392,0.0,-0.05463008364002253,0.0,0.0,0.0,0.0,-0.7634799784096072,-1.7831963568377784,-1.076521286594379,-0.001121726831855819,0.00942150836975548,-0.28114503603435476
5464,1.0,300.17834,11812.188999999998,0.0,-0.054640079627441884,0.0,0.0,0.0,0.0,-0.7487374934296374,-1.7881893493555483,-1.0536835412654688,-0.014302859066332286,-0.021924799896059277,-0.29667446170448974
5465,1.0,300.18126,11863.955,0.0,-0.05465007561486113,0.0,0.0,0.0,0.0,-0.7773866941770933,-1.7829262243611184,-1.046033300360449,-0.011572822844898687,-0.004212063744423326,-0.2908358106532597
5466,1.0,300.04974,11906.281,0.0,-0.05466007160228048,0.0,0.0,0.0,0.0,-0.7768219085713532,-1.7814653203669382,-1.0609247331051188,0.006180120083955364,0.0013486828979046388,-0.3099573497829087
5467,1.0,299.65653,12001.374,0.0,-0.0546701005797573,0.0,0.0,0.0,0.0,-0.7756620411818833,-1.820116758681538,-1.052339363682809,-0.0027806053047743774,-0.012501024784505089,-0.3053756456132297
5468,1.0,299.84531,12044.832,0.0,-0.05468009656717654,0.0,0.0,0.0,0.0,-0.7689303824200202,-1.7999226841885383,-1.092475010743889,0.0035895367645096964,-0.021204713447492283,-0.30461269868543267
5469,1.0,299.05177000000003,12075.532,0.0,-0.05469009255459589,0.0,0.0,0.0,0.0,-0.7847200613783403,-1.8007409849692984,-1.085199267075829,-0.0012918367301943587,-0.00022171401665646982,-0.3033426504800887
5470,1.0,299.91763,12028.989,0.0,-0.054700088542015246,0.0,0.0,0.0,0.0,-0.7835867208764883,-1.804684453033488,-1.068241108102189,0.01252509656713079,0.02972478903335827,-0.3177376312057627
5471,1.0,299.27769,12010.72,0.0,-0.05471008452943449,0.0,0.0,0.0,0.0,-0.8090090544279772,-1.7819611036408682,-1.059988793987749,-0.02073510445014548,0.017512374354336786,-0.3050070353593507
5472,1.0,299.06936,11969.848999999998,0.0,-0.05472008051685384,0.0,0.0,0.0,0.0,-0.7854179576497172,-1.7996132376079983,-1.0535038920227389,-0.006122345981803504,-0.006004442680292354,-0.3101304128999887
5473,1.0,299.66904,11863.655,0.0,-0.054730076504273084,0.0,0.0,0.0,0.0,-0.7878270914849802,-1.7630663197510983,-1.055361584756079,-0.013066834786096188,-0.0008936922725330602,-0.2868078679282327
5474,1.0,299.54961000000003,11903.858,0.0,-0.05474007249169244,0.0,0.0,0.0,0.0,-0.7643446961774483,-1.7729742845289382,-1.0811565005018389,0.014628126533933685,-0.0024492469881718577,-0.28792396291338274
5475,1.0,299.27997999999997,11962.188,0.0,-0.05475006847911179,0.0,0.0,0.0,0.0,-0.7843323006975712,-1.7883625137976382,-1.0635115606104188,0.007706886449210472,-0.017099330043822483,-0.28142361901684876
5476,1.0,299.81557999999995,12072.692,0.0,-0.054760097456588386,0.0,0.0,0.0,0.0,-0.7819196103544573,-1.7882077905073683,-1.099669390428919,0.0037959492861060267,-0.020330321167696484,-0.28686699107156777
5477,1.0,299.58272999999997,12177.935,0.0,-0.05477009344400785,0.0,0.0,0.0,0.0,-0.8134174523005522,-1.8184676941437883,-1.0699030409162091,0.016022177299765787,0.011263512039872092,-0.3072778301584607
5478,1.0,299.64906,12193.083999999999,0.0,-0.054780089431427204,0.0,0.0,0.0,0.0,-0.8068328870557062,-1.8224959712413482,-1.0770643886479792,-0.006534889341468364,0.027156307434368875,-0.3298829129994087
5479,1.0,299.90512,12060.88,0.0,-0.054790085418846446,0.0,0.0,0.0,0.0,-0.7945275928062683,-1.797099262784888,-1.074579494102739,0.0006623882793776334,0.012740032244593288,-0.3216053385599757
5480,1.0,300.60289,11937.198,0.0,-0.0548000814062658,0.0,0.0,0.0,0.0,-0.7505125860148253,-1.8164998611245782,-1.061597531171519,-0.02152218800857458,-0.01037145982408339,-0.3283209271752527
5481,1.0,299.94351,11816.958,0.0,-0.05481007739368493,0.0,0.0,0.0,0.0,-0.7532687985393423,-1.7745952820389184,-1.064196112377979,-0.0045547946788232355,0.00902977281016919,-0.29634191302166973
5482,1.0,299.59657000000004,11824.241000000002,0.0,-0.054820073381104395,0.0,0.0,0.0,0.0,-0.7552526409101322,-1.7862930517933984,-1.052728451721209,0.002108405055933378,-0.003565130204050957,-0.30509011173504974
5483,1.0,299.26145,11880.673999999999,0.0,-0.05483006936852375,0.0,0.0,0.0,0.0,-0.7656993305011403,-1.8000025282964183,-1.045726386905159,0.005374171328539416,-0.009155310545883802,-0.3008198907786117
5484,1.0,299.19721,12020.718,0.0,-0.05484009834600034,0.0,0.0,0.0,0.0,-0.7916275089000522,-1.7973689899615084,-1.065001544882469,-0.002312367842762938,-0.01965982520552368,-0.29233725478394074
5485,1.0,299.45583999999997,12258.573999999999,0.0,-0.05485009433341992,0.0,0.0,0.0,0.0,-0.8013275446248712,-1.8269605538319682,-1.098012219890369,0.012842619764217886,-0.006073030795461474,-0.2933076950672157
5486,1.0,300.08907999999997,12261.508,0.0,-0.05486009032083916,0.0,0.0,0.0,0.0,-0.8034195514438363,-1.8146557459425785,-1.1091171370113388,0.01058027851069219,0.013272768749670287,-0.2890103088755967
5487,1.0,299.95016,12087.923,0.0,-0.05487008630825829,0.0,0.0,0.0,0.0,-0.7869966924980263,-1.7913713599695882,-1.096058775022579,0.0035426952256367964,-0.008300233346119252,-0.27616562106792475
5488,1.0,300.23543,12018.591,0.0,-0.05488008229567776,0.0,0.0,0.0,0.0,-0.7852858804991822,-1.7956135341632584,-1.072452074192779,-0.006042418990065324,-0.009330394488963242,-0.28524709800419673
5489,1.0,300.14317,12058.653999999999,0.0,-0.05489007828309689,0.0,0.0,0.0,0.0,-0.8039701312831743,-1.7938778367419583,-1.067681895371999,-0.004061575130296256,0.004067667397847517,-0.2979936626721847
5490,1.0,300.06495,12079.906,0.0,-0.05490007427051635,0.0,0.0,0.0,0.0,-0.8063544708884902,-1.8012264330922083,-1.0644088948989792,-0.0008263080808677582,0.015333836990081886,-0.33120923711530664
5491,1.0,299.6775,11958.208999999999,0.0,-0.054910070257935706,0.0,0.0,0.0,0.0,-0.7841266109272713,-1.786213916960588,-1.0646565332234188,0.0063173225574711936,-0.0004661489509053196,-0.3134150556166577
5492,1.0,299.57522,11819.902,0.0,-0.05492009923541252,0.0,0.0,0.0,0.0,-0.7572247701097663,-1.7776618834665683,-1.058068482398229,0.0035538067288834164,0.006754059796398803,-0.3084545276320917
5493,1.0,300.03733,11966.812,0.0,-0.054930095222831876,0.0,0.0,0.0,0.0,-0.7648904124163063,-1.7977485534489683,-1.074973243091599,0.021387844217565878,0.01142813984986959,-0.2832053787876947
5494,1.0,300.13253,12183.499,0.0,-0.05494009121025101,0.0,0.0,0.0,0.0,-0.7915193343193763,-1.816443524419018,-1.095516584894069,0.011314435963397889,0.014462933330380385,-0.2973788427765067
5495,1.0,299.7137,12195.278999999999,0.0,-0.05495008719767025,0.0,0.0,0.0,0.0,-0.7924489304911203,-1.8242495018644085,-1.090361978985349,-0.013516096708184886,-0.012613210822326987,-0.2853412998659937
5496,1.0,300.37138,12053.833999999999,0.0,-0.0549600831850896,0.0,0.0,0.0,0.0,-0.7778942818146882,-1.8207146775655483,-1.065455480927269,-0.019139144350136483,-0.008394430648290803,-0.3212456955694817
5497,1.0,300.35242999999997,12148.526000000002,0.0,-0.054970079172508846,0.0,0.0,0.0,0.0,-0.7901491567391503,-1.8257195251094882,-1.076979984914649,-0.011194834961344189,-0.0012665500606987587,-0.3017796007433277
5498,1.0,300.23652999999996,12094.598999999998,0.0,-0.05498007515992842,0.0,0.0,0.0,0.0,-0.7836976920274402,-1.8150264941541685,-1.077731816488849,0.01181274932282759,0.027390498916731773,-0.3232225465145817
5499,1.0,300.31116000000003,11970.42,0.0,-0.05499007114734766,0.0,0.0,0.0,0.0,-0.7629080392581613,-1.8048532605001482,-1.0709474991192889,-0.005332269586554035,-0.017026807681165084,-0.29592056310008574
5500,1.0,300.36136,11920.725,0.0,-0.05500010012482437,0.0,0.0,0.0,0.0,-0.7759464402199513,-1.7882761848891182,-1.059380033327669,0.0023337922055273576,-0.012138959113021989,-0.29687337283162074
5501,1.0,300.31827000000004,11989.263,0.0,-0.055010096112243834,0.0,0.0,0.0,0.0,-0.7895006260126453,-1.8037102130623384,-1.051225700497899,-0.015663819110398585,0.002305492839509428,-0.3041840330981267
5502,1.0,299.99412,12049.032,0.0,-0.055020092099662965,0.0,0.0,0.0,0.0,-0.7951408421642912,-1.8002570567215381,-1.0672070863751388,0.009776763075391392,0.025726106944719076,-0.31388878043591073
5503,1.0,299.55129,12125.822,0.0,-0.05503008808708221,0.0,0.0,0.0,0.0,-0.8015565087499682,-1.8064090047036883,-1.077981582638499,-0.011949384072312387,0.008573620584750473,-0.30143159999648267
5504,1.0,299.31849,12142.356000000002,0.0,-0.05504008407450156,0.0,0.0,0.0,0.0,-0.7903082572698523,-1.806263603314338,-1.094401300508999,-0.02087226203668188,0.00966890999897212,-0.2822047639164417
5505,1.0,299.81799,12158.893,0.0,-0.055050080061920914,0.0,0.0,0.0,0.0,-0.7830783530363162,-1.8131441794433982,-1.099777200239559,0.01094106546054909,-0.0018671506124234185,-0.2892333252226067
5506,1.0,299.40086,12170.255,0.0,-0.05506007604934038,0.0,0.0,0.0,0.0,-0.7912985369900852,-1.822383399155238,-1.085771753382329,0.012501872874838789,0.0009110853893771273,-0.29098582233056475
5507,1.0,299.74779,12241.543,0.0,-0.05507007203675951,0.0,0.0,0.0,0.0,-0.8099228844281653,-1.8213100633243082,-1.0898905137138188,0.012503211378220887,-0.03408269462695007,-0.2979644506718017
5508,1.0,300.01171,12159.321000000002,0.0,-0.05508010101423633,0.0,0.0,0.0,0.0,-0.8103604970138543,-1.8106110541933982,-1.0751584652098791,0.01117351313948989,-0.025188075194619478,-0.2986552541924787
5509,1.0,300.30809,12005.505,0.0,-0.05509009700165568,0.0,0.0,0.0,0.0,-0.7816898254967793,-1.8074648113078884,-1.060219004410469,0.01931132492637938,0.00961011930299493,-0.3137183011065857
5510,1.0,300.23069,12052.618999999999,0.0,-0.05510009298907492,0.0,0.0,0.0,0.0,-0.7810428551754283,-1.8037927929454882,-1.0788596651751592,0.0051001721881728055,0.025191343939442078,-0.3058863135311287
5511,1.0,299.96918999999997,12116.021,0.0,-0.055110088976494165,0.0,0.0,0.0,0.0,-0.7846817098620553,-1.8143001964824883,-1.083986001406089,-0.007626871811338643,-0.004020950083436877,-0.3094835945661527
5512,1.0,299.76249,12143.118,0.0,-0.05512008496391352,0.0,0.0,0.0,0.0,-0.7993198402142262,-1.8185145062984083,-1.073370281433399,-0.03055617188615937,-0.0006554514172055183,-0.29493375882769574
5513,1.0,300.41934,12117.471000000001,0.0,-0.05513008095133287,0.0,0.0,0.0,0.0,-0.8042110922894552,-1.8049341178581284,-1.0742633600715388,0.0005458168343279275,-0.004673012189190396,-0.3210795428180837
5514,1.0,300.61863,12132.885,0.0,-0.055140076938752336,0.0,0.0,0.0,0.0,-0.7948150822571413,-1.8295990570923684,-1.063679962777039,0.001974555325673438,0.0018915882796602282,-0.3089738284408427
5515,1.0,300.64598,12051.485,0.0,-0.05515007292617147,0.0,0.0,0.0,0.0,-0.7798276035354922,-1.8080341565390783,-1.075488886067489,0.01926095018440778,-0.017922525835815585,-0.33107660267721667
5516,1.0,300.51872000000003,12180.969,0.0,-0.055160101903648284,0.0,0.0,0.0,0.0,-0.7839395649588112,-1.8230104996421281,-1.0957603728681289,0.0004847216428533016,-0.00946733736780345,-0.2973430041204697
5517,1.0,300.41418999999996,12201.667,0.0,-0.05517009789106764,0.0,0.0,0.0,0.0,-0.7817928122369433,-1.8308702806678283,-1.0963389386752291,0.015032034368296287,0.005533353628524485,-0.3173615026361417
5518,1.0,300.01032999999995,12025.936000000002,0.0,-0.05518009387848688,0.0,0.0,0.0,0.0,-0.7813411965348722,-1.8038803377541284,-1.070362853811589,-0.011375684905442688,0.004174446023860746,-0.2872173222936427
5519,1.0,299.57683,11919.594,0.0,-0.05519008986590601,0.0,0.0,0.0,0.0,-0.7767464822339092,-1.8007265968178783,-1.045785966011039,0.007374783393784453,-0.02039103004743798,-0.2941562210984587
5520,1.0,299.32099,12074.393,0.0,-0.055200085853325476,0.0,0.0,0.0,0.0,-0.8017551766970752,-1.7918310715399581,-1.0767278882897688,-0.01028481376828209,-0.014730563079293385,-0.2747408495723107
5521,1.0,299.79975,12210.625,0.0,-0.05521008184074483,0.0,0.0,0.0,0.0,-0.7924367106949143,-1.8170936256831782,-1.102194814978159,0.01910683079119738,0.006183731712611805,-0.3032892015373137
5522,1.0,299.40852,12233.663,0.0,-0.05522007782816418,0.0,0.0,0.0,0.0,-0.7887028840764142,-1.8278902107987183,-1.102134931897249,-0.009480649954242302,0.018568054302274282,-0.30164672312521373
5523,1.0,300.25093,12313.735,0.0,-0.055230073815583425,0.0,0.0,0.0,0.0,-0.8074815697697263,-1.8219497281124382,-1.1136368404073989,-0.003873634056697916,0.0018693329504887982,-0.30353961616702774
5524,1.0,300.27497,12248.534,0.0,-0.05524006980300267,0.0,0.0,0.0,0.0,-0.8157860763968172,-1.8196318171836785,-1.087830576260519,-0.005100122640242915,0.003718697983906916,-0.3090725392655847
5525,1.0,300.28872,12214.612,0.0,-0.055250098780479595,0.0,0.0,0.0,0.0,-0.8026093161338723,-1.8272442638599682,-1.0830834995420189,0.0005556721607630725,0.0093025803684182,-0.30364809472273374
5526,1.0,300.79812000000004,12214.315,0.0,-0.05526009476789884,0.0,0.0,0.0,0.0,-0.8013688649639493,-1.8239772415625384,-1.0875005607029489,-1.939980800461198e-05,-0.00013381470220398287,-0.3109155905349797
5527,1.0,300.19425,12086.079,0.0,-0.05527009075531797,0.0,0.0,0.0,0.0,-0.7711554796396203,-1.8179968368223183,-1.084714021602939,-0.015275677447591984,-0.02398127507376758,-0.2910757685419417
5528,1.0,299.8589,12041.127,0.0,-0.055280086742737544,0.0,0.0,0.0,0.0,-0.7636205161984773,-1.8140415137319583,-1.082539789538359,-0.00890290660224847,0.001228355496854249,-0.3132571203235707
5529,1.0,300.70327000000003,12086.938999999998,0.0,-0.05529008273015679,0.0,0.0,0.0,0.0,-0.7851420293824852,-1.8137062292738682,-1.075279244621799,-0.0034206064919375767,0.016797723992556284,-0.3031865491696827
5530,1.0,299.93861,12058.718,0.0,-0.05530007871757614,0.0,0.0,0.0,0.0,-0.7983763929136153,-1.8138855745415683,-1.053287056501339,-0.01023861159022229,0.03025934634886497,-0.3106712452733647
5531,1.0,299.70493,12088.798,0.0,-0.05531007470499538,0.0,0.0,0.0,0.0,-0.7920647972457092,-1.807304616467078,-1.0753232196761389,-0.007876568857331822,-0.0026625092830942078,-0.3024858867255327
5532,1.0,300.23907,12140.651000000002,0.0,-0.055320070692414514,0.0,0.0,0.0,0.0,-0.7889470672180133,-1.8224144046082984,-1.079093421973229,0.00989641848897546,0.0015476431676654885,-0.2980857164437697
5533,1.0,299.95112,12174.843,0.0,-0.05533009966989155,0.0,0.0,0.0,0.0,-0.7674507738289943,-1.830149454546688,-1.1032479871320988,0.024482574481241977,-0.006994201792623974,-0.3137723579994207
5534,1.0,299.819,12213.776000000002,0.0,-0.055340095657310684,0.0,0.0,0.0,0.0,-0.7894926213368553,-1.8233641239270284,-1.099826241544399,0.009029698741586881,-0.026817842384214974,-0.3050380002824067
5535,1.0,299.91337000000004,12285.803999999998,0.0,-0.05535009164473015,0.0,0.0,0.0,0.0,-0.8112546699621022,-1.838257279196868,-1.0850657207126488,-0.014344671844958886,-0.042814042991167055,-0.31198978762849466
5536,1.0,299.83225,12193.573999999999,0.0,-0.0553600876321495,0.0,0.0,0.0,0.0,-0.8335158759841121,-1.8108961827715382,-1.0621298927740588,-0.013256465555561288,-0.01107742561925679,-0.29202048240517775
5537,1.0,299.94919,12115.541000000001,0.0,-0.055370083619568744,0.0,0.0,0.0,0.0,-0.7901559353823192,-1.822461419412938,-1.070204685470979,0.005891487686969564,0.017049499417154584,-0.31139410802720574
5538,1.0,300.24388,12117.761,0.0,-0.0553800796069881,0.0,0.0,0.0,0.0,-0.7765431634688432,-1.8348497191105684,-1.072103820133409,0.008307960695356883,0.021825856023794277,-0.28169114744075174
5539,1.0,300.3417,12235.871000000001,0.0,-0.05539007559440723,0.0,0.0,0.0,0.0,-0.7657941707105003,-1.8360978405837483,-1.117507253139379,-0.0013682966840653688,0.0025249598727441376,-0.29056454333648774
5540,1.0,299.97631,12291.906,0.0,-0.05540007158182647,0.0,0.0,0.0,0.0,-0.7897256283298513,-1.8332504051527283,-1.1134563805645887,0.017079572680122584,0.013210494398524288,-0.2893336471150077
5541,1.0,300.00882,12301.786,0.0,-0.05541010055930351,0.0,0.0,0.0,0.0,-0.8111756465868033,-1.8446885802315882,-1.083571480790179,0.0074885764462649515,0.016096808235881287,-0.3000423733143767
5542,1.0,300.06537000000003,12287.146999999999,0.0,-0.05542009654672264,0.0,0.0,0.0,0.0,-0.8296733073648802,-1.8339374900455383,-1.071375090661489,0.012292223323147989,0.0012618354079834589,-0.3063881864381597
5543,1.0,299.78649,12282.031,0.0,-0.055430092534141995,0.0,0.0,0.0,0.0,-0.8223482285494512,-1.8288291896663882,-1.082253242410079,-0.018345718859331485,-0.019217567881376282,-0.3133994515651177
5544,1.0,299.71182999999996,12324.728000000001,0.0,-0.05544008852156146,0.0,0.0,0.0,0.0,-0.8012757979422642,-1.8352054712206782,-1.1099282437163889,-0.007334133522297622,-0.004140998435409726,-0.3109314478990447
5545,1.0,299.44587,12125.237,0.0,-0.05545008450898059,0.0,0.0,0.0,0.0,-0.7658888285348423,-1.8199467353147585,-1.099933747380009,0.0014036926511336787,0.008523622265191023,-0.32510349333771665
5546,1.0,299.72295,12005.383,0.0,-0.055460080496400055,0.0,0.0,0.0,0.0,-0.7553867749583703,-1.8177100870440182,-1.076239704391589,-0.0065767804443276935,-0.005917726710234154,-0.3124482326362397
5547,1.0,299.93362,11926.15,0.0,-0.055470076483819186,0.0,0.0,0.0,0.0,-0.7792286714013822,-1.7999449756907384,-1.0460781873398792,-0.004003911269755277,-0.011469852316736289,-0.3138928334363107
5548,1.0,299.58898,12080.65,0.0,-0.05548007247123865,0.0,0.0,0.0,0.0,-0.8059360289946932,-1.8110737041890586,-1.0552063548407589,-0.006141139643333294,0.004871970432451045,-0.29920130480386975
5549,1.0,299.73908,12178.191,0.0,-0.05549010144871536,0.0,0.0,0.0,0.0,-0.8024874829418482,-1.8195428538248983,-1.079835526346469,0.017493390100463184,0.03474572597563617,-0.3183582367595117
5550,1.0,299.74903,12220.624,0.0,-0.0555000974361346,0.0,0.0,0.0,0.0,-0.7877172754391423,-1.8245190263910085,-1.102528275586069,-0.0028882853180765672,0.01197791111562779,-0.2874940408959527
5551,1.0,299.92864,12340.551000000001,0.0,-0.05551009342355395,0.0,0.0,0.0,0.0,-0.7799953673545492,-1.8449835373356982,-1.126240455751279,-0.002184816779099628,0.00016334257317315683,-0.3037311103034267
5552,1.0,300.7961,12449.482,0.0,-0.05552008941097342,0.0,0.0,0.0,0.0,-0.8231474093008243,-1.8396373258330683,-1.1215469799630688,-0.0017257912803723382,-0.007634196596311543,-0.2786057096937427
5553,1.0,300.31397999999996,12372.472,0.0,-0.05553008539839255,0.0,0.0,0.0,0.0,-0.8258626155937943,-1.844110521049538,-1.0909493600683189,0.007455418647342534,0.013692701134364386,-0.3161001075866517
5554,1.0,300.25301,12271.198,0.0,-0.0555400813858119,0.0,0.0,0.0,0.0,-0.8339303560700181,-1.8182104299433983,-1.077996984040019,0.002126266527371168,-0.01035039942075489,-0.2964284749777127
5555,1.0,300.17208999999997,12170.43,0.0,-0.055550077373231144,0.0,0.0,0.0,0.0,-0.8028738250724773,-1.8119792458034283,-1.084653631896979,0.004505079360016716,-0.006721282878188974,-0.3135577516282407
5556,1.0,299.67884,12147.175,0.0,-0.0555600733606505,0.0,0.0,0.0,0.0,-0.7838463459496112,-1.815674163618088,-1.092917497062559,0.01000297703706697,0.011677937410272688,-0.30849803659138575
5557,1.0,299.8523,12191.453000000001,0.0,-0.055570102338127314,0.0,0.0,0.0,0.0,-0.7657777763238822,-1.822029369570298,-1.118090074596899,0.013252671947186887,0.03404169042190327,-0.3112532054682997
5558,1.0,299.7347,12179.327,0.0,-0.05558009832554667,0.0,0.0,0.0,0.0,-0.7890133641720563,-1.8226070234523082,-1.0905909735079489,-0.002995840397641427,-0.0018719027553924183,-0.3025921766610227
5559,1.0,299.91404,12311.498,0.0,-0.05559009431296591,0.0,0.0,0.0,0.0,-0.8154310132967753,-1.8435308406673283,-1.083426079400829,-0.012738643078706188,-0.023271163059184977,-0.2924368471362697
5560,1.0,300.68145,12415.958,0.0,-0.05560009030038526,0.0,0.0,0.0,0.0,-0.8297163806266312,-1.8496068962169883,-1.094818050275129,-0.006787180915667604,-0.018245123389403484,-0.31090623823655666
5561,1.0,300.35216,12417.823999999999,0.0,-0.055610086287804505,0.0,0.0,0.0,0.0,-0.8099555212138863,-1.8684459513512583,-1.096306919972069,0.0025820797193064275,0.007898035371300403,-0.3139777944571957
5562,1.0,300.89542,12391.732,0.0,-0.05562008227522386,0.0,0.0,0.0,0.0,-0.8039234508510672,-1.8531438483410583,-1.1097098883198389,0.002830119594761057,-0.0017259868376416384,-0.3239392183103117
5563,1.0,300.95817999999997,12225.938,0.0,-0.0556300782626431,0.0,0.0,0.0,0.0,-0.7780760690151294,-1.8316687217466283,-1.106635079566379,-0.0012938688032699088,0.011658607638114988,-0.3038655077966907
5564,1.0,300.06619,12048.833,0.0,-0.055640074250062455,0.0,0.0,0.0,0.0,-0.7801341218232433,-1.8237717544422585,-1.0586384355794791,0.009255142126561412,0.006149689143702063,-0.3210091523336367
5565,1.0,300.22733999999997,12065.028999999999,0.0,-0.05565007023748181,0.0,0.0,0.0,0.0,-0.7927845594542443,-1.8145067981778784,-1.060176042606229,-0.002370553425780408,0.007066252284709804,-0.3064802098122417
5566,1.0,300.48354,12142.627,0.0,-0.055660099214958625,0.0,0.0,0.0,0.0,-0.8015463559839663,-1.8298442636165682,-1.0596647566057689,-0.0042087239707687156,-0.017382435161512784,-0.32678426247109565
5567,1.0,299.67441,12212.948,0.0,-0.05567009520237787,0.0,0.0,0.0,0.0,-0.7835817356859962,-1.8341868508951482,-1.094662617709789,-0.013033027696509688,-0.02122576675807008,-0.3083428978685747
5568,1.0,299.839,12343.194,0.0,-0.05568009118979722,0.0,0.0,0.0,0.0,-0.7944846310020283,-1.8491502243969182,-1.108387900914369,0.016030641991101182,-0.01008293128523284,-0.3142577858573287
5569,1.0,299.8372,12381.665,0.0,-0.05569008717721646,0.0,0.0,0.0,0.0,-0.7897724100869682,-1.8535496550061084,-1.120394914599369,0.0007275295203565733,0.00978110576399498,-0.3003609188808147
5570,1.0,300.71366,12334.427,0.0,-0.055700083164635816,0.0,0.0,0.0,0.0,-0.8179211970075373,-1.8363203503057082,-1.0951161484545489,0.023673543925646877,-0.01034766769848529,-0.2840403779301027
5571,1.0,299.9975,12332.044,0.0,-0.05571007915205517,0.0,0.0,0.0,0.0,-0.8095328338021702,-1.8430561329954782,-1.096044488196169,-0.01005345492789875,0.00027394297591356676,-0.2815951115962737
5572,1.0,299.43256,12372.798,0.0,-0.05572007513947441,0.0,0.0,0.0,0.0,-0.8180591104786482,-1.8513297253620185,-1.091632898585779,0.018971066423548483,0.005050043058025445,-0.2974598318569997
5573,1.0,298.46166,12376.812,0.0,-0.055730071126893765,0.0,0.0,0.0,0.0,-0.8013399974686002,-1.844103732273868,-1.1167979780693789,-0.011116997088662189,0.02093113592049228,-0.3108732569458017
5574,1.0,298.77979,12186.742,0.0,-0.05574010010437058,0.0,0.0,0.0,0.0,-0.7884871833951262,-1.8344373263198683,-1.081540623614749,-0.0036761981203875063,0.007097230886642154,-0.3183647012951497
5575,1.0,299.4771,12111.018999999998,0.0,-0.055750096091789825,0.0,0.0,0.0,0.0,-0.7781826527931482,-1.8220907725263584,-1.081174029728569,-0.03292621047956397,0.003156231302345777,-0.30391788269435965
5576,1.0,299.98769,12164.919,0.0,-0.05576009207920918,0.0,0.0,0.0,0.0,-0.7971357086961691,-1.8280190962114382,-1.072676813064959,-0.012297875232205789,-0.002410422588065188,-0.30850855412742373
5577,1.0,300.06804,12191.473,0.0,-0.05577008806662842,0.0,0.0,0.0,0.0,-0.7819380211087742,-1.8371191966845484,-1.086846102463359,-0.01024518049062059,0.008696369248239822,-0.31256673223543474
5578,1.0,300.61302,12307.447,0.0,-0.055780084054047774,0.0,0.0,0.0,0.0,-0.7962428631055523,-1.8465184085871784,-1.098395329753179,0.01053362746283809,-0.029212209112520572,-0.3106815601593827
5579,1.0,300.28137000000004,12371.003999999999,0.0,-0.05579008004146713,0.0,0.0,0.0,0.0,-0.7963488895960162,-1.8559853055964879,-1.1081421877651187,0.01137955146782429,-0.0050572315608598956,-0.3137626409309617
5580,1.0,299.48163,12286.643,0.0,-0.05580007602888637,0.0,0.0,0.0,0.0,-0.7912450779148092,-1.854185064143818,-1.089402532465659,0.019772647564408382,-0.014653837755221185,-0.3268495360425377
5581,1.0,299.42715,12251.872,0.0,-0.05581007201630572,0.0,0.0,0.0,0.0,-0.7960981203287673,-1.8422438103903085,-1.085921106447069,0.006265287199910704,0.0007202935264899364,-0.3226496447755407
5582,1.0,299.32906,12309.003,0.0,-0.05582010099378254,0.0,0.0,0.0,0.0,-0.8113132763478862,-1.8484598971037882,-1.0818564536709188,-0.016258746880113382,-0.005059712098429705,-0.3092113139992807
5583,1.0,299.89052000000004,12231.955,0.0,-0.05583009698120167,0.0,0.0,0.0,0.0,-0.8016495859041542,-1.8232879275195084,-1.0932714253224889,-0.014266186505462986,0.01120580136717649,-0.2996072735889357
5584,1.0,300.25539,12277.606000000002,0.0,-0.055840092968621136,0.0,0.0,0.0,0.0,-0.7964423416527393,-1.8379418544407382,-1.097701456084699,-0.007327664528359182,0.014887257141007883,-0.3031474985108287
5585,1.0,300.0618,12262.447,0.0,-0.05585008895604027,0.0,0.0,0.0,0.0,-0.7851186739676803,-1.8241577014053483,-1.118201532107899,0.005919483483257534,0.01649606525228488,-0.29878540616782373
5586,1.0,300.10074,12408.09,0.0,-0.05586008494345973,0.0,0.0,0.0,0.0,-0.8047525528778932,-1.8434746052867783,-1.123522412358029,0.005078759376459525,-0.013344447074994385,-0.2996660015647317
5587,1.0,300.55817,12540.558,0.0,-0.055870080930879085,0.0,0.0,0.0,0.0,-0.8276237658576062,-1.8487904192864082,-1.135602380050229,0.004666633273185845,-0.0015066930701740286,-0.29835634541297873
5588,1.0,300.29343,12484.327,0.0,-0.055880076918298216,0.0,0.0,0.0,0.0,-0.8395816065152533,-1.8417231011639181,-1.1136190072056389,0.0043994490503418155,-0.006875637548072593,-0.30697416923599175
5589,1.0,299.65634,12464.753999999999,0.0,-0.05589007290571768,0.0,0.0,0.0,0.0,-0.8115663152953593,-1.8646254918492084,-1.1127823665980687,-0.011468961669898388,0.004987780359255595,-0.2964276137151277
5590,1.0,299.42413,12372.555,0.0,-0.0559001018831945,0.0,0.0,0.0,0.0,-0.8107058937079422,-1.8446606145288285,-1.105581299462379,-0.02369299630106668,-0.017758965991423483,-0.2963365022661357
5591,1.0,299.28056000000004,12362.425,0.0,-0.05591009787061363,0.0,0.0,0.0,0.0,-0.7901545674946843,-1.8401946133880682,-1.127519380027499,-0.007125931297049663,-0.003005270614997117,-0.30201218217128173
5592,1.0,299.82201000000003,12331.25,0.0,-0.05592009385803298,0.0,0.0,0.0,0.0,-0.8016987690640082,-1.860713738513148,-1.085979469652829,-0.014502550396040287,-0.004336130950267806,-0.3174820388680377
5593,1.0,300.4921,12226.778999999999,0.0,-0.055930089845452446,0.0,0.0,0.0,0.0,-0.7813093500842293,-1.8370970065073584,-1.098229156736779,0.013635821326750789,-0.004279331898687176,-0.3099979811119187
5594,1.0,300.23055,12171.989,0.0,-0.0559400858328718,0.0,0.0,0.0,0.0,-0.7959075989124642,-1.8402125479148383,-1.0638604226198491,-0.0036916488671873762,-0.017451495248578485,-0.3185604814794717
5595,1.0,300.72516,12313.738000000001,0.0,-0.05595008182029104,0.0,0.0,0.0,0.0,-0.7947411453973442,-1.845884114024578,-1.102443567877709,0.011504715212926989,0.011403968768734089,-0.2982989751923167
5596,1.0,300.43643,12377.545,0.0,-0.055960077807710173,0.0,0.0,0.0,0.0,-0.8086149204040792,-1.8545711124319182,-1.0992784785403389,0.004241483663726845,0.01167642665437359,-0.3196900324259497
5597,1.0,300.24159,12333.026000000002,0.0,-0.05597007379512964,0.0,0.0,0.0,0.0,-0.7721136595966852,-1.8608551882271083,-1.115963059986979,-0.015396993882064986,0.006350173138963295,-0.3151714638700017
5598,1.0,300.25793,12284.622,0.0,-0.055980102772606344,0.0,0.0,0.0,0.0,-0.7944244540785893,-1.8471729681517783,-1.092620918758289,-0.014079761659314289,-0.010823673343713388,-0.3259741082211397
5599,1.0,299.69847999999996,12326.843,0.0,-0.055990098760025586,0.0,0.0,0.0,0.0,-0.7904637911602023,-1.8560083063737582,-1.100580606243849,-0.015497128323197485,-0.006104060667848884,-0.30957151427732965
5600,1.0,299.44266,12364.493999999999,0.0,-0.05600009474744494,0.0,0.0,0.0,0.0,-0.8220730298222912,-1.8538971997904083,-1.082527326562129,0.020653197365061878,0.005219259776400835,-0.3305042886232337
5601,1.0,300.33345,12413.15,0.0,-0.056010090734864404,0.0,0.0,0.0,0.0,-0.8255405844470122,-1.8504219545974285,-1.097325134997559,0.00979446637848857,-0.003170381542642297,-0.2856895640578647
5602,1.0,299.91219,12309.633999999998,0.0,-0.05602008672228376,0.0,0.0,0.0,0.0,-0.8224851895654682,-1.8385283235986183,-1.080807739817419,0.02081777856555478,0.003732797966998476,-0.3137864928383157
5603,1.0,299.79708,12314.213,0.0,-0.05603008270970289,0.0,0.0,0.0,0.0,-0.7937744541394393,-1.8351022210354881,-1.114336590926459,0.011270916871602888,0.006118098842684344,-0.28978527294957973
5604,1.0,300.1976,12395.937,0.0,-0.05604007869712213,0.0,0.0,0.0,0.0,-0.8208159410857262,-1.8467602713860483,-1.100479078583829,0.02096957558953598,0.005515417277904305,-0.3177992976068487
5605,1.0,300.16308,12516.35,0.0,-0.056050074684541484,0.0,0.0,0.0,0.0,-0.8136235879008963,-1.869749294954888,-1.1212850548122189,-0.006091184893528144,-0.014037635786406788,-0.29668506030053576
5606,1.0,300.46538,12477.465,0.0,-0.05606007067196073,0.0,0.0,0.0,0.0,-0.8393474646821452,-1.845113233348498,-1.108377160463309,-0.01958200861109378,-0.02018605259195828,-0.3009405080705157
5607,1.0,300.2761,12405.452,0.0,-0.056070099649437544,0.0,0.0,0.0,0.0,-0.8117802225239702,-1.868273698834258,-1.0908937326378292,-0.028665310410795872,0.0017829427403377482,-0.2954950993830957
5608,1.0,300.24986,12379.773000000001,0.0,-0.0560800956368569,0.0,0.0,0.0,0.0,-0.8044818124511732,-1.8665318205873482,-1.092128377884679,-0.009428912998836261,0.01945888453844238,-0.3237857413176647
5609,1.0,300.16347,12415.751,0.0,-0.05609009162427625,0.0,0.0,0.0,0.0,-0.7852911899297063,-1.8585757808021481,-1.1302112815681689,-0.004898204085490105,0.015520311485485485,-0.3200626956802287
5610,1.0,299.94774,12371.777,0.0,-0.056100087611695715,0.0,0.0,0.0,0.0,-0.7895465262421753,-1.876632302884188,-1.0945325163969488,-0.0056263850851309746,0.009657443250240441,-0.3242777147712187
5611,1.0,300.27442,12327.301000000001,0.0,-0.056110083599114846,0.0,0.0,0.0,0.0,-0.7885160103604713,-1.8434013473045485,-1.115274252568999,0.019519632934937782,-0.0054168580353772654,-0.3193992397797507
5612,1.0,299.79527,12319.853000000001,0.0,-0.05612007958653409,0.0,0.0,0.0,0.0,-0.8028463051997612,-1.8602272771401382,-1.0818540218706791,0.007070468925000953,0.0033172059404327366,-0.3154202876970587
5613,1.0,299.87973,12307.266000000001,0.0,-0.05613007557395344,0.0,0.0,0.0,0.0,-0.8022461774305332,-1.8434479568091484,-1.095407356533289,0.008200992084949904,-0.023798072362936875,-0.3113048710908987
5614,1.0,300.12289,12383.575,0.0,-0.056140071561372795,0.0,0.0,0.0,0.0,-0.8082743062504633,-1.8518296629613584,-1.104193450800409,-0.004780841352907305,-0.015604278508022386,-0.3042468647368277
5615,1.0,300.15668999999997,12428.988000000001,0.0,-0.0561501005388495,0.0,0.0,0.0,0.0,-0.8089279032274682,-1.8634994670130782,-1.105674721121599,-0.0011378799636250088,0.005190689568631175,-0.3124767049640497
5616,1.0,300.01409,12451.219,0.0,-0.05616009652626908,0.0,0.0,0.0,0.0,-0.8135762792537272,-1.8657721869873782,-1.1055112838804688,0.008879029971592031,0.01798017571350518,-0.3219804538794967
5617,1.0,300.03738,12576.553,0.0,-0.05617009251368821,0.0,0.0,0.0,0.0,-0.8223164023638102,-1.8716306977405683,-1.1290108841746989,0.012944558803778487,0.0027096524665218774,-0.30459857397903867
5618,1.0,299.82108999999997,12527.419,0.0,-0.05618008850110756,0.0,0.0,0.0,0.0,-0.8371579832035603,-1.8461629604520982,-1.1247015314993989,-0.005159061473384725,-0.009968820477520979,-0.2909415433011947
5619,1.0,300.46164,12448.353000000001,0.0,-0.056190084488526804,0.0,0.0,0.0,0.0,-0.8073775393819592,-1.8456065848221879,-1.131004453746449,0.006926209569838664,-0.01968312894457358,-0.2870266387573237
5620,1.0,300.46247,12399.635,0.0,-0.056200080475946046,0.0,0.0,0.0,0.0,-0.7995516515721043,-1.8459051896266583,-1.1237226305777888,-0.018372604437484882,-0.004644410773317655,-0.2997971262601727
5621,1.0,300.46213,12343.023000000001,0.0,-0.0562100764633654,0.0,0.0,0.0,0.0,-0.7998803904345482,-1.844476304335638,-1.107614081812999,0.003215621639732147,-0.00960061744885717,-0.2971513681290567
5622,1.0,300.10769,12355.794,0.0,-0.05622007245078475,0.0,0.0,0.0,0.0,-0.8110816473750262,-1.8481763897258083,-1.096594784325479,-0.024577500816860477,-0.004178269016488046,-0.2925366016086147
5623,1.0,299.93039,12433.448999999999,0.0,-0.05623010142826157,0.0,0.0,0.0,0.0,-0.8166617676632413,-1.8559493352179381,-1.106847051487299,0.0049800224098649455,0.002655827405309758,-0.3169255619131177
5624,1.0,299.97163,12511.476999999999,0.0,-0.05624009741568092,0.0,0.0,0.0,0.0,-0.8212778311438111,-1.8782674858955684,-1.1036314009699388,0.005698142646612895,0.01848378837095788,-0.30311031223215873
5625,1.0,300.15831000000003,12455.854,0.0,-0.056250093403100165,0.0,0.0,0.0,0.0,-0.7992332883906843,-1.872374018013928,-1.1146611349334887,0.02163702977490858,-0.0015212476985854585,-0.32539507631899367
5626,1.0,299.90814,12443.335,0.0,-0.05626008939051952,0.0,0.0,0.0,0.0,-0.8065274833430652,-1.8735956936594982,-1.1023399123924789,0.0003831799898494207,-0.007067950086577362,-0.3105919584530397
5627,1.0,299.86411,12541.567,0.0,-0.05627008537793876,0.0,0.0,0.0,0.0,-0.8034981897840973,-1.8891014599397982,-1.1197235350831092,0.00989817678187399,-0.013916780380729285,-0.3155440156667697
5628,1.0,299.36756,12487.563,0.0,-0.05628008136535789,0.0,0.0,0.0,0.0,-0.8107788071851382,-1.8833372827709183,-1.1017914401133488,-0.011935549155446989,0.009860821898387351,-0.33037905091087366
5629,1.0,299.90957000000003,12302.633,0.0,-0.05629007735277747,0.0,0.0,0.0,0.0,-0.7813216408079422,-1.8598320082761284,-1.0985395152424091,-0.013016025359831688,-0.012180355445857488,-0.3103772811543527
5630,1.0,300.22193,12211.935,0.0,-0.05630007334019671,0.0,0.0,0.0,0.0,-0.7831532423512072,-1.8480907700923583,-1.0808793765994889,-0.015630474062857686,0.0013806519518097385,-0.31173162163551565
5631,1.0,300.52487,12403.205,0.0,-0.05631010231767353,0.0,0.0,0.0,0.0,-0.7877068997581183,-1.8673978454478182,-1.115160059282729,-4.221569955536516e-05,0.007657450382131514,-0.2960766238804877
5632,1.0,299.95639,12432.388,0.0,-0.05632009830509288,0.0,0.0,0.0,0.0,-0.8234356080267672,-1.8653406437697881,-1.0903591418850689,0.0013538637469909488,0.02056802153515568,-0.33334734681382167
5633,1.0,300.03276,12432.917,0.0,-0.05633009429251212,0.0,0.0,0.0,0.0,-0.8129267758071262,-1.8725132385776682,-1.0938564759302292,0.012528511219967788,0.003368777026797406,-0.3063023844196917
5634,1.0,300.26063,12519.808,0.0,-0.056340090279931476,0.0,0.0,0.0,0.0,-0.8448438905121002,-1.8682767385845584,-1.092588292105069,0.0001972592153604688,0.002721867804427437,-0.32525927040809066
5635,1.0,299.78577,12583.873,0.0,-0.05635008626735072,0.0,0.0,0.0,0.0,-0.8364762685362802,-1.8680504798372284,-1.120656637100199,0.0072350296578418336,-0.005866288258307574,-0.29007131345280973
5636,1.0,299.64665,12606.585,0.0,-0.05636008225477007,0.0,0.0,0.0,0.0,-0.8317626088060783,-1.8823031597188584,-1.118021274915109,-0.0027525364531541976,0.007467606323520363,-0.3132855521213767
5637,1.0,300.25826,12556.583999999999,0.0,-0.056370078242189425,0.0,0.0,0.0,0.0,-0.8181597566110812,-1.8651196539229782,-1.133608607828459,-0.015879420493176786,-0.015176107386765185,-0.2914238908787987
5638,1.0,299.65045,12335.124,0.0,-0.05638007422960867,0.0,0.0,0.0,0.0,-0.7941891267428642,-1.860549085371898,-1.094831425176449,-0.014236100070243686,0.0020469275246660177,-0.3095565384408517
5639,1.0,300.00141,12365.319,0.0,-0.056390103207085485,0.0,0.0,0.0,0.0,-0.7925770863637682,-1.854929296342268,-1.111241719821019,-0.000948990082633029,-0.006014961736205504,-0.3104767113866657
5640,1.0,300.04793,12461.87,0.0,-0.05640009919450484,0.0,0.0,0.0,0.0,-0.8201676940692493,-1.8644351021554184,-1.1034946122064389,-0.011705974040539689,0.007091400240266713,-0.31551128768853975
5641,1.0,299.95417000000003,12434.943000000001,0.0,-0.05641009518192397,0.0,0.0,0.0,0.0,-0.8012986264670172,-1.8793570337280983,-1.099256592338179,-0.01034281929675679,-0.003552450290974547,-0.3147947374828217
5642,1.0,300.46488999999997,12391.114,0.0,-0.056420091169343434,0.0,0.0,0.0,0.0,-0.7927992921106983,-1.8619340969335882,-1.111855850706629,-0.008450100939260033,0.0047996769629912355,-0.30842777782945174
5643,1.0,300.84372,12429.435,0.0,-0.056430087156762565,0.0,0.0,0.0,0.0,-0.7962366620149403,-1.8796863400105983,-1.102314783789999,0.003593700107845587,0.0036182179231653067,-0.32538176221267967
5644,1.0,299.723,12516.961000000001,0.0,-0.05644008314418203,0.0,0.0,0.0,0.0,-0.8204384040984662,-1.8866053183184484,-1.097799741344399,0.0007860111649207621,0.004161231013406526,-0.3228100118688677
5645,1.0,299.65213,12562.534,0.0,-0.05645007913160138,0.0,0.0,0.0,0.0,-0.8177831112839092,-1.8864799792810782,-1.1144334576360189,0.01093225423767949,-0.027678012685607177,-0.3253011176372207
5646,1.0,299.66149,12426.543,0.0,-0.056460075119020625,0.0,0.0,0.0,0.0,-0.8142423797369662,-1.863648516102788,-1.0994679563090388,0.002271080332988178,-0.015114048857890486,-0.3014077784866317
5647,1.0,300.09202,12396.604,0.0,-0.05647007110643998,0.0,0.0,0.0,0.0,-0.7939835889600794,-1.860492546016318,-1.1137819378217189,0.019139250741396982,-0.008387575808714283,-0.30300128652139874
5648,1.0,299.97451,12496.204,0.0,-0.056480100083916795,0.0,0.0,0.0,0.0,-0.8070903944361203,-1.8518931937426282,-1.1395504077398688,0.014998315431468486,0.017237911246749383,-0.2956183511252597
5649,1.0,300.1181,12533.811000000002,0.0,-0.05649009607133593,0.0,0.0,0.0,0.0,-0.8120082848564782,-1.8685428180608181,-1.1294143603645188,-0.006457078623889044,0.01270176178831629,-0.31429386769338974
5650,1.0,299.61762000000004,12577.201000000001,0.0,-0.05650009205875539,0.0,0.0,0.0,0.0,-0.8204619418982892,-1.8674755617304881,-1.1352174463372386,-0.021757790948326777,0.006485816929850294,-0.2981142495665857
5651,1.0,299.72452000000004,12544.221000000001,0.0,-0.05651008804617452,0.0,0.0,0.0,0.0,-0.8309867530720073,-1.8751083747337882,-1.107034705405819,-0.021623955808868278,-0.012024134571939689,-0.3237904427981287
5652,1.0,300.26544,12492.443000000001,0.0,-0.056520084033593876,0.0,0.0,0.0,0.0,-0.8151820780122072,-1.8723789829394182,-1.109829755806669,-0.0042639073950648965,-0.004340011292850766,-0.2971461701560437
5653,1.0,300.45908,12470.283000000001,0.0,-0.05653008002101334,0.0,0.0,0.0,0.0,-0.8222590422756492,-1.8551684233658683,-1.113227183391969,0.004617653776601946,-0.02727795013537408,-0.3164539041240687
5654,1.0,299.80252,12484.668,0.0,-0.05654007600843247,0.0,0.0,0.0,0.0,-0.7989006485153552,-1.8716378918162784,-1.124488748978399,0.02421045299463568,-0.013720877593145185,-0.2938184237801207
5655,1.0,299.33724,12443.77,0.0,-0.056550071995851936,0.0,0.0,0.0,0.0,-0.8065518114779662,-1.8709034881437983,-1.105139826393809,0.02014944386584528,0.007110258141852844,-0.3180072367923707
5656,1.0,299.74586,12482.901000000002,0.0,-0.05656010097332864,0.0,0.0,0.0,0.0,-0.8205434680013353,-1.8759202920389182,-1.098026405391769,0.01172731815389619,0.014751844371143687,-0.31534460804708975
5657,1.0,300.26491,12499.694,0.0,-0.056570096960747884,0.0,0.0,0.0,0.0,-0.8308711007055932,-1.869974135152078,-1.098749561988139,0.012064198480893688,0.0033293930086605067,-0.33458332955080367
5658,1.0,299.98759,12566.077,0.0,-0.05658009294816724,0.0,0.0,0.0,0.0,-0.8193539326489372,-1.8719759120496382,-1.1284436667687188,-0.013765204245269887,0.01136592629372959,-0.3109142530448477
5659,1.0,299.61537999999996,12564.357,0.0,-0.0565900889355867,0.0,0.0,0.0,0.0,-0.7943439108281402,-1.8870420291115482,-1.137864764873509,-0.003609691018273767,0.014339343162682988,-0.32090472677833065
5660,1.0,300.16981,12482.377,0.0,-0.05660008492300583,0.0,0.0,0.0,0.0,-0.7958455069463363,-1.8731011262856883,-1.125384158091769,-0.012586338416424887,0.009490118877751811,-0.3052534172536667
5661,1.0,299.96702,12381.731000000002,0.0,-0.0566100809104253,0.0,0.0,0.0,0.0,-0.7930459374500403,-1.8686969334010282,-1.101994191458359,-0.007261289554058483,-0.0022823720934275877,-0.31972718830711666
5662,1.0,300.34304,12490.161,0.0,-0.05662007689784443,0.0,0.0,0.0,0.0,-0.8177176553274492,-1.8825915306973182,-1.0963877773300488,0.005055911599954625,-0.009681533271367941,-0.3105005936915227
5663,1.0,300.60681,12663.561000000002,0.0,-0.05663007288526378,0.0,0.0,0.0,0.0,-0.8400976750561852,-1.8933763621116981,-1.115932155858929,0.021865282598435377,0.005701866340730395,-0.3196567978226697
5664,1.0,299.81272,12674.026000000002,0.0,-0.0566401018627406,0.0,0.0,0.0,0.0,-0.8460254921162152,-1.887427266799568,-1.119134735449999,0.010049310836314761,-0.008051205045192071,-0.3062840445928817
5665,1.0,300.36782999999997,12558.046999999999,0.0,-0.05665009785015984,0.0,0.0,0.0,0.0,-0.8142524413104592,-1.881391031978838,-1.121689240277109,0.003096631526163737,-0.013955865490086686,-0.3059200547594587
5666,1.0,300.20707000000004,12498.456,0.0,-0.056660093837579195,0.0,0.0,0.0,0.0,-0.8106148835839602,-1.8598573395286284,-1.1287463245735887,-0.014571413912586586,-0.01064560071813899,-0.2920296827160857
5667,1.0,299.65276,12582.5,0.0,-0.05667008982499855,0.0,0.0,0.0,0.0,-0.8257986997774862,-1.8869020992727379,-1.1120649855272688,-0.014566624279363885,0.009913170958178803,-0.3127260962111627
5668,1.0,299.30746,12608.785,0.0,-0.05668008581241779,0.0,0.0,0.0,0.0,-0.8507835423332982,-1.8720364030806085,-1.109935944417149,-0.013256564854071087,-0.0010477331287282092,-0.3221281654790747
5669,1.0,300.3161,12507.399,0.0,-0.056690081799837144,0.0,0.0,0.0,0.0,-0.8268848532221812,-1.8675648290642983,-1.1074873242254888,-0.02244440062683988,0.005414361387130865,-0.3213776409975037
5670,1.0,299.82957000000005,12386.041000000001,0.0,-0.05670007778725639,0.0,0.0,0.0,0.0,-0.7962438358256483,-1.8702105264004083,-1.0985927108726592,-0.008201195241594952,-0.01011115587339339,-0.3196153660260807
5671,1.0,299.61852999999996,12517.878,0.0,-0.05671007377467574,0.0,0.0,0.0,0.0,-0.7835128752092003,-1.8803684599779182,-1.1412410155317187,0.012404711309499689,-0.006484332315803774,-0.3130633261094447
5672,1.0,300.05537999999996,12727.396999999999,0.0,-0.05672010275215256,0.0,0.0,0.0,0.0,-0.8221569674605752,-1.9094393146219881,-1.1372145622843388,0.015788594780712987,-0.002878037914515227,-0.3159678987136037
5673,1.0,300.72637000000003,12695.02,0.0,-0.0567300987395718,0.0,0.0,0.0,0.0,-0.8200666932992813,-1.9017895803420184,-1.1371127306492887,-0.0027615451584682873,-0.007859143894037112,-0.3067893625502527
5674,1.0,300.46996,12472.976,0.0,-0.05674009472699115,0.0,0.0,0.0,0.0,-0.8277218383347853,-1.8633992565781883,-1.1003522196713091,0.001048312809110419,-0.010708140540811189,-0.31442560033889067
5675,1.0,300.6392,12470.177,0.0,-0.056750090714410506,0.0,0.0,0.0,0.0,-0.8165847201256372,-1.8832752718647983,-1.0907626180748888,-0.015523576177307685,0.01121669076600119,-0.32212743593900267
5676,1.0,299.72072000000003,12562.431,0.0,-0.05676008670182975,0.0,0.0,0.0,0.0,-0.8189928001807962,-1.862408905930448,-1.137263704914189,0.0011188804096748989,-0.0018373215427295183,-0.3010693428207307
5677,1.0,299.76015,12634.421999999999,0.0,-0.0567700826892491,0.0,0.0,0.0,0.0,-0.8095042601493502,-1.8894910546032482,-1.1415534005375487,-0.014385516969739985,-0.005616230495278795,-0.32076314534185774
5678,1.0,299.97434,12440.368,0.0,-0.056780078676668344,0.0,0.0,0.0,0.0,-0.7977595363852362,-1.8628697320759282,-1.120931937152369,0.01205444493543109,-0.0020106213550328783,-0.3112824883961897
5679,1.0,299.77284,12364.696000000002,0.0,-0.0567900746640877,0.0,0.0,0.0,0.0,-0.8020358469747753,-1.855755601798818,-1.100767348237279,0.013297341077845385,0.005228691513631675,-0.3289889730986837
5680,1.0,299.76673999999997,12627.538999999999,0.0,-0.056800103641564514,0.0,0.0,0.0,0.0,-0.8325270046815183,-1.8966325426330581,-1.1092968875790792,0.021604329154431275,0.00839744638456343,-0.3151505199904347
5681,1.0,299.37332000000004,12778.671,0.0,-0.056810099628983646,0.0,0.0,0.0,0.0,-0.8542578350711842,-1.8863317407914482,-1.1438073753849989,-0.018309574201764284,0.005526471532520275,-0.32264648343522867
5682,1.0,299.32529,12675.32,0.0,-0.05682009561640322,0.0,0.0,0.0,0.0,-0.8226424155834853,-1.8827923568671383,-1.147546065603979,-0.017172979140591085,-0.004558643509328086,-0.2952813745395027
5683,1.0,300.0581,12470.338,0.0,-0.056830091603822463,0.0,0.0,0.0,0.0,-0.7961770930415613,-1.8706838155221182,-1.1238105806864689,-0.02912607981427027,0.0048488398578432354,-0.30595960191086174
5684,1.0,299.72182999999995,12412.621000000001,0.0,-0.056840087591241706,0.0,0.0,0.0,0.0,-0.8000470700759983,-1.852283396356138,-1.1207963642889889,-0.0034747035094765365,-0.012375739449390388,-0.2943293855405487
5685,1.0,300.1189,12620.413,0.0,-0.05685008357866106,0.0,0.0,0.0,0.0,-0.8327215790982213,-1.8943894095616785,-1.109179451892489,-0.0060299105189058335,0.0036060451417639465,-0.3209766878004327
5686,1.0,300.44616,12783.728000000001,0.0,-0.05686007956608019,0.0,0.0,0.0,0.0,-0.8615487876232452,-1.8874445933762782,-1.136940782107319,0.005964068514157734,-0.009025778578274992,-0.3066464132261447
5687,1.0,299.66116,12598.023000000001,0.0,-0.056870075553499655,0.0,0.0,0.0,0.0,-0.8280873885733622,-1.881277547967638,-1.1201194118971791,0.01106102920613859,0.017808260608788484,-0.3399569393361377
5688,1.0,300.49664,12620.277,0.0,-0.05688010453097647,0.0,0.0,0.0,0.0,-0.8113855818750222,-1.8991677957082682,-1.125695732497519,0.010775100160419592,-0.0026198340259824876,-0.3236572916024877
5689,1.0,300.52308,12675.125,0.0,-0.056890100518395825,0.0,0.0,0.0,0.0,-0.8126194063892912,-1.8913516857618784,-1.1489503289175689,0.010547252636932791,0.00032473009041086474,-0.3344392960490887
5690,1.0,299.91848999999996,12715.095,0.0,-0.05690009650581518,0.0,0.0,0.0,0.0,-0.8308697632154612,-1.9047366182578682,-1.129464921544509,-0.004198817728516046,-0.00969926889714331,-0.3121176597911147
5691,1.0,299.94845,12640.774,0.0,-0.05691009249323442,0.0,0.0,0.0,0.0,-0.8259867488635452,-1.8885325200086485,-1.1279603464710188,-0.005789997314553244,-0.0014186421431090785,-0.3352095383776057
5692,1.0,299.42107999999996,12505.655,0.0,-0.05692008848065355,0.0,0.0,0.0,0.0,-0.8279806021453232,-1.8681635585483882,-1.1052628349559488,0.003279805967316647,-0.012511705453809188,-0.2957743004481507
5693,1.0,299.45669,12486.685,0.0,-0.05693008446807302,0.0,0.0,0.0,0.0,-0.7855640277841333,-1.893511833650068,-1.1165645252463388,-0.014499613997250487,0.008986924388615381,-0.3270685601841537
5694,1.0,299.4811,12636.346000000001,0.0,-0.05694008045549215,0.0,0.0,0.0,0.0,-0.8213274297362062,-1.875458351318328,-1.1443479443133489,0.006353406116057364,0.0003525510503940797,-0.27949292161380374
5695,1.0,299.73466,12710.908000000001,0.0,-0.05695007644291172,0.0,0.0,0.0,0.0,-0.8215459168552691,-1.894226884245638,-1.1480257382013188,-0.00045075707393625955,0.01177319203892359,-0.3197383137932147
5696,1.0,299.90872,12619.986,0.0,-0.056960072430330966,0.0,0.0,0.0,0.0,-0.8403554560141263,-1.8865058171586284,-1.109299522029339,0.01033589575882349,-0.002767815251412097,-0.3094219281650667
5697,1.0,300.0673,12555.212,0.0,-0.05697010140780778,0.0,0.0,0.0,0.0,-0.8130861701803572,-1.893781560826688,-1.1096032944093188,0.02078813492062918,-0.014422752897664886,-0.3287549933855917
5698,1.0,299.92118,12654.476,0.0,-0.056980097395227136,0.0,0.0,0.0,0.0,-0.8447561633184423,-1.9011816302820184,-1.100706958531319,-0.003658929805558257,-0.024556226617760878,-0.3222093065470827
5699,1.0,300.21437000000003,12790.34,0.0,-0.05699009338264638,0.0,0.0,0.0,0.0,-0.8355804845203731,-1.893881365961538,-1.158482073933279,-0.01079577147570969,-0.013060169626938387,-0.3156234240771067
5700,1.0,299.92885,12625.348999999998,0.0,-0.05700008937006551,0.0,0.0,0.0,0.0,-0.8318722323343972,-1.879314477223898,-1.126604212537179,-0.018758528095822583,-0.025875993992261773,-0.3106531587590797
5701,1.0,299.87435,12462.27,0.0,-0.05701008535748486,0.0,0.0,0.0,0.0,-0.8038827789920532,-1.8787092629391684,-1.105626794391869,-0.005927664667214954,0.027605738569224273,-0.3133287672381417
5702,1.0,299.86861,12557.725,0.0,-0.05702008134490433,0.0,0.0,0.0,0.0,-0.8244894489257732,-1.8807892627444482,-1.111956162466529,0.007901683679610463,0.0024235106382818777,-0.3107305102717137
5703,1.0,299.52497999999997,12747.068000000001,0.0,-0.05703007733232368,0.0,0.0,0.0,0.0,-0.8237822206209752,-1.9157793218226982,-1.135228794738359,0.008681707620617832,0.013393704202105686,-0.3098976186895137
5704,1.0,299.09328,12872.431999999999,0.0,-0.05704007331974292,0.0,0.0,0.0,0.0,-0.8476815278146531,-1.9163579889548081,-1.1488582244834789,-0.01135047929595509,-0.012225075239020989,-0.3144315379844767
5705,1.0,299.34578,12700.882,0.0,-0.05705010229721963,0.0,0.0,0.0,0.0,-0.7993214006193803,-1.909108792439368,-1.1523209053752188,-0.0016623478412609582,-0.0099517038462317,-0.3085011270041907
5706,1.0,299.46959,12373.228000000001,0.0,-0.057060098284639094,0.0,0.0,0.0,0.0,-0.7772550324590992,-1.891068178383898,-1.092829242978849,-0.0004321811598529596,-0.0035764334142164966,-0.3240033367766397
5707,1.0,299.79929,12515.062,0.0,-0.057070094272058225,0.0,0.0,0.0,0.0,-0.7939730815565422,-1.8903419820372285,-1.119951212380579,-0.006928419670956784,0.01150533126898779,-0.3187916139597827
5708,1.0,299.81913,12801.442,0.0,-0.05708009025947747,0.0,0.0,0.0,0.0,-0.8623943346991941,-1.914103507482308,-1.1148207218242387,0.004322235238396406,0.007618991663985932,-0.3243393811723047
5709,1.0,299.93272,12653.745,0.0,-0.05709008624689682,0.0,0.0,0.0,0.0,-0.8372153939542262,-1.8968337741029184,-1.1123732162076887,-0.013802261841177185,0.024101633986896076,-0.3254544527748537
5710,1.0,299.48277,12393.483999999999,0.0,-0.057100082234316285,0.0,0.0,0.0,0.0,-0.8054891755680922,-1.8575663810525282,-1.104254245806409,0.018644693500087982,0.008496670319156071,-0.3186641166996997
5711,1.0,300.16437,12576.737,0.0,-0.05711007822173564,0.0,0.0,0.0,0.0,-0.7891923750672232,-1.8992344675648483,-1.1345872047750387,-0.0037786150086952667,-0.010226165839243991,-0.3234421887387587
5712,1.0,300.5151,12843.428,0.0,-0.05712007420915477,0.0,0.0,0.0,0.0,-0.8440344151397112,-1.8903298230360281,-1.1697170923670888,0.011876289223348489,-0.017242242890926882,-0.30013516675853474
5713,1.0,299.77488,12856.958999999999,0.0,-0.05713010318663159,0.0,0.0,0.0,0.0,-0.8422574075118341,-1.9065617856629982,-1.1593753552214388,-0.01080886570675199,-0.0008009460863597244,-0.30292518130638774
5714,1.0,299.53426,12664.872,0.0,-0.05714009917405105,0.0,0.0,0.0,0.0,-0.840274223753609,-1.8970597288752182,-1.1124709948423388,0.0013820915775518189,0.003928832882395617,-0.3091288253086397
5715,1.0,299.73901,12609.729,0.0,-0.05715009516147018,0.0,0.0,0.0,0.0,-0.8294680938221273,-1.8756187488091582,-1.1279560908205988,-0.013115917634190287,-0.008630660891179913,-0.3100893560059367
5716,1.0,299.81802999999996,12688.49,0.0,-0.057160091148889425,0.0,0.0,0.0,0.0,-0.8310063999914463,-1.8949922933711785,-1.1309856072945887,-0.005270635812121255,-0.006739142221801555,-0.3069284412589787
5717,1.0,300.0461,12741.073,0.0,-0.05717008713630878,0.0,0.0,0.0,0.0,-0.8247699064209522,-1.892160360666688,-1.1560377093920389,0.004115964571814077,0.0033671300900848665,-0.3132661585144627
5718,1.0,299.31612,12537.843,0.0,-0.05718008312372813,0.0,0.0,0.0,0.0,-0.8067720920497062,-1.874647345938288,-1.129771632349779,0.024030756129150975,-0.0020538115458454183,-0.3071697974327987
5719,1.0,299.18879,12396.28,0.0,-0.057190079111147596,0.0,0.0,0.0,0.0,-0.7925366374197763,-1.8940910074072284,-1.0815320109888988,0.0053688440648136555,0.0027887538620785775,-0.33385859228427767
5720,1.0,300.14248,12792.695,0.0,-0.05720007509856673,0.0,0.0,0.0,0.0,-0.8524070831010293,-1.9116036168355879,-1.124649247794239,0.01835739859323418,0.003061470531793617,-0.3252363608233297
5721,1.0,300.2011,12909.62,0.0,-0.057210104076043544,0.0,0.0,0.0,0.0,-0.8724382675079533,-1.9099803901753882,-1.1417836109602688,0.006383182902046104,0.015182512140647286,-0.3454457556578417
5722,1.0,299.97444,12782.487,0.0,-0.0572201000634629,0.0,0.0,0.0,0.0,-0.8364396395451653,-1.9146106391573583,-1.1345064487420689,-0.008641321903432073,0.003977476486571366,-0.3233970788443067
5723,1.0,299.6099,12500.251,0.0,-0.05723009605088214,0.0,0.0,0.0,0.0,-0.7904425331731042,-1.872352841086838,-1.136968747810079,-0.003126951718181107,-0.020828999297162178,-0.3190851626462537
5724,1.0,300.34561,12551.083,0.0,-0.05724009203830127,0.0,0.0,0.0,0.0,-0.8012722515669142,-1.901822814945298,-1.1121209169327888,-0.014898748410391986,-0.016146107919496784,-0.3100587457204157
5725,1.0,300.3939,12726.883999999998,0.0,-0.05725008802572085,0.0,0.0,0.0,0.0,-0.8322360093852993,-1.899130001479538,-1.1372888335166689,0.012798811896144386,-0.009039016488181471,-0.3079280935426367
5726,1.0,300.52422,12802.633,0.0,-0.05726008401314009,0.0,0.0,0.0,0.0,-0.8493399243858243,-1.9246504277732082,-1.117690448757459,-0.004105732670979267,-0.001082363585345969,-0.3144994257411767
5727,1.0,300.15884,12678.931999999999,0.0,-0.05727008000055944,0.0,0.0,0.0,0.0,-0.8219917468992692,-1.9116051367107383,-1.120481648807929,-0.005933975999437834,0.007941191111609543,-0.3337932680503307
5728,1.0,300.10845,12682.648000000001,0.0,-0.057280075987978685,0.0,0.0,0.0,0.0,-0.8383459176208001,-1.8893293398872881,-1.1275329575788386,-0.02014071370298368,-0.007430259343384503,-0.3130418249423227
5729,1.0,300.25619,12901.573999999999,0.0,-0.0572901049654555,0.0,0.0,0.0,0.0,-0.8453577096378102,-1.9192778717679781,-1.1571206710989188,0.006059617998587734,0.004734727530256225,-0.31856443315486166
5730,1.0,299.79784,12940.028999999999,0.0,-0.057300100952874855,0.0,0.0,0.0,0.0,-0.8647259042393022,-1.9114464617450784,-1.157273266563979,-0.005294816316482685,0.0021137688979877478,-0.3016930691847877
5731,1.0,299.72893,12726.63,0.0,-0.0573100969402941,0.0,0.0,0.0,0.0,-0.8278438843093302,-1.9024066496529184,-1.138327212219149,0.008704396924807092,-0.009281841975971481,-0.2990899891478837
5732,1.0,299.89909,12589.909,0.0,-0.05732009292771345,0.0,0.0,0.0,0.0,-0.8294525606980943,-1.900616135401208,-1.096949219210459,-0.01943243972408248,-0.0014389574023140387,-0.31142500202275475
5733,1.0,299.9159,12788.153,0.0,-0.057330088915132804,0.0,0.0,0.0,0.0,-0.8547335965231381,-1.8872387009559584,-1.1453068842079888,0.001991934388738618,0.002162863398457998,-0.30310628962926167
5734,1.0,299.78857999999997,12843.487,0.0,-0.057340084902552046,0.0,0.0,0.0,0.0,-0.8493112494079941,-1.9175617300736083,-1.1372265186355188,-0.0009970703096206781,0.02067479073794298,-0.3279684377304647
5735,1.0,299.94038,12711.411,0.0,-0.0573500808899714,0.0,0.0,0.0,0.0,-0.8120987072954022,-1.9116430322644782,-1.1402097295799387,-0.0056471149662768545,-0.0009583654426283051,-0.3001074746333017
5736,1.0,299.22176,12609.73,0.0,-0.05736007687739064,0.0,0.0,0.0,0.0,-0.8125693923643552,-1.8977363772919982,-1.122737447505559,-0.0058256110290680445,-0.0006317230655687124,-0.3349926015311957
5737,1.0,299.46069,12684.985,0.0,-0.057370072864809774,0.0,0.0,0.0,0.0,-0.8218607133963372,-1.9220214490637482,-1.112036614524469,0.003344685181819727,-0.0025978103257839175,-0.3028971244111187
5738,1.0,300.06696,12777.383,0.0,-0.05738010184228681,0.0,0.0,0.0,0.0,-0.8354985531172873,-1.9161254480568584,-1.132381460632349,0.0016706479807801185,0.002303610828773688,-0.3464187594638697
5739,1.0,300.11496,12758.228000000001,0.0,-0.057390097829705944,0.0,0.0,0.0,0.0,-0.8196977385403682,-1.9137283009702784,-1.144756790728699,0.002414206165263598,-0.0007717017632985343,-0.3169973912127067
5740,1.0,300.43056,12600.531,0.0,-0.05740009381712541,0.0,0.0,0.0,0.0,-0.8064134319118091,-1.9043962675492783,-1.1194370892798389,-0.013965362683273988,0.0068393778866190445,-0.35343685389650165
5741,1.0,300.47017999999997,12658.678999999998,0.0,-0.05741008980454476,0.0,0.0,0.0,0.0,-0.7956337072779331,-1.8930476637792581,-1.1592410995831888,0.0018340756973591783,-0.003319584646367497,-0.3037199341548237
5742,1.0,300.31935,12811.162,0.0,-0.057420085791964004,0.0,0.0,0.0,0.0,-0.8271490075232513,-1.9267293130033782,-1.140394951698219,-0.0006198965826540294,0.011790168031098988,-0.3290898117486357
5743,1.0,299.90795,12828.469,0.0,-0.05743008177938336,0.0,0.0,0.0,0.0,-0.8323078792148921,-1.901921809480068,-1.1653045908316089,0.006477043602534434,-0.007482831318197953,-0.29123398754505675
5744,1.0,300.44291,12808.336000000001,0.0,-0.0574400777668026,0.0,0.0,0.0,0.0,-0.8529972202242712,-1.9039284499781084,-1.1364885685876887,-0.004007550256164416,-0.007259869788018364,-0.30923605756672273
5745,1.0,299.71274,12749.396,0.0,-0.05745007375422195,0.0,0.0,0.0,0.0,-0.8266672172332022,-1.9183630082526881,-1.130467937818499,-0.013170425423319787,-0.001995312868547048,-0.31336709848942473
5746,1.0,299.43627000000004,12726.555,0.0,-0.05746010273169877,0.0,0.0,0.0,0.0,-0.8374235965847743,-1.8972600484199882,-1.133871444904399,0.0029238409733606373,0.0059314003176836345,-0.3146213602582107
5747,1.0,299.9078,12884.667,0.0,-0.05747009871911812,0.0,0.0,0.0,0.0,-0.8317752237698233,-1.932343731807478,-1.152498122817709,-0.0032583828204523465,-0.01138929386753579,-0.3195578438179037
5748,1.0,299.82074,12896.077,0.0,-0.057480094706537366,0.0,0.0,0.0,0.0,-0.8602788812729152,-1.9218720959990083,-1.1379344764803887,0.008898393383653051,-0.0019145645362778083,-0.3142133041779387
5749,1.0,299.39911,12833.845,0.0,-0.05749009069395672,0.0,0.0,0.0,0.0,-0.8393086065408102,-1.908108410615638,-1.1537514118663987,0.0007038950058115285,-0.016592497277551986,-0.30341875569509974
5750,1.0,300.36307999999997,12742.159,0.0,-0.05750008668137585,0.0,0.0,0.0,0.0,-0.8436397440932603,-1.9120519800048381,-1.117606348999159,0.014849786139059786,0.007062504171264894,-0.3134509348026987
5751,1.0,299.70701,12662.962,0.0,-0.057510082668795315,0.0,0.0,0.0,0.0,-0.8150750585366452,-1.8915717636835983,-1.142577391088609,0.005661304520677255,-0.02163208308792038,-0.31782196401158574
5752,1.0,300.1503,12819.067,0.0,-0.057520078656214446,0.0,0.0,0.0,0.0,-0.8347173170251851,-1.913130179436248,-1.1488287389055687,0.008442752342909782,0.008710559917215331,-0.3336169321354277
5753,1.0,300.42237,12878.178,0.0,-0.05753007464363391,0.0,0.0,0.0,0.0,-0.8344629000575762,-1.9245959149178282,-1.1555857998474388,-0.011094218213164092,0.006976665169168244,-0.32691054383105866
5754,1.0,300.01052000000004,12672.265,0.0,-0.057540103621110616,0.0,0.0,0.0,0.0,-0.8187605024628701,-1.9032303206592085,-1.130061219228359,0.005983441045469654,0.018075309765394183,-0.3269912897315277
5755,1.0,300.40513,12556.442,0.0,-0.05755009960853008,0.0,0.0,0.0,0.0,-0.8032263043847642,-1.909934084645818,-1.103684495275179,-0.0052739441750227645,0.01020435259109119,-0.3242769649661447
5756,1.0,300.33537,12793.677,0.0,-0.05756009559594921,0.0,0.0,0.0,0.0,-0.8362860105650033,-1.9138997428871982,-1.138772434313089,-0.015238564122929186,-0.002943633192863977,-0.3202157775053367
5757,1.0,299.45076,12883.899,0.0,-0.05757009158336868,0.0,0.0,0.0,0.0,-0.8360785070770241,-1.924091215043018,-1.156213710934409,-8.823119033724052e-06,-0.01183257254778399,-0.32402948876172066
5758,1.0,299.84746,12875.641000000001,0.0,-0.05758008757078781,0.0,0.0,0.0,0.0,-0.8265528719594172,-1.9420424604396682,-1.1452781079051488,-0.030360294429827767,-0.007406301146095013,-0.32948400656753973
5759,1.0,299.41576000000003,12732.233999999999,0.0,-0.05759008355820727,0.0,0.0,0.0,0.0,-0.8257401541867082,-1.895374592633908,-1.149166455163899,0.005417856492025806,-0.007982323290143973,-0.3270691377367107
5760,1.0,299.68327999999997,12760.435,0.0,-0.057600079545626404,0.0,0.0,0.0,0.0,-0.8479869011297911,-1.9072154333025082,-1.123651399095759,-0.006589306140738885,-0.002039214867554838,-0.3157217194693077
5761,1.0,300.2763,12943.346000000001,0.0,-0.05761007553304576,0.0,0.0,0.0,0.0,-0.8699426527766552,-1.9172486357927083,-1.147262558225999,0.009492021052164542,0.0021475130647430384,-0.3166691285778097
5762,1.0,299.80905,12959.925,0.0,-0.057620104510522574,0.0,0.0,0.0,0.0,-0.8744815775271123,-1.907181894724198,-1.1578301488189386,-0.01205642786587679,0.005290466535128395,-0.2962581071058987
5763,1.0,300.08014,12745.521,0.0,-0.05763010049794193,0.0,0.0,0.0,0.0,-0.8099589865292282,-1.9198430626737581,-1.1445181703301488,-0.004492762494451135,-0.00882101420929132,-0.3308390360587707
5764,1.0,300.4027,12667.951000000001,0.0,-0.05764009648536117,0.0,0.0,0.0,0.0,-0.8080992571631872,-1.9029522848317681,-1.1396893243285788,-0.003424865587407917,0.003853160426502327,-0.3093054854635747
5765,1.0,300.44212999999996,12939.412,0.0,-0.05765009247278052,0.0,0.0,0.0,0.0,-0.8369885981843432,-1.9296356182652081,-1.166633873637799,0.012032350003750488,0.015778555498722185,-0.3229395862916557
5766,1.0,300.2724,13080.4,0.0,-0.057660088460199765,0.0,0.0,0.0,0.0,-0.8813093531934612,-1.9414403872302484,-1.1533650596032687,0.01088163226268349,0.030309857879600072,-0.3227737375152877
5767,1.0,300.33838,12808.712,0.0,-0.05767008444761912,0.0,0.0,0.0,0.0,-0.8408327677387333,-1.9063139446885382,-1.1463817399140688,0.003634667126613716,-0.0028559494676352677,-0.3109871361245407
5768,1.0,299.94665,12553.274,0.0,-0.05768008043503858,0.0,0.0,0.0,0.0,-0.8103476692675882,-1.9051781926514482,-1.100355867371669,-0.005525099591884875,-0.0069494841272856826,-0.3230438091969417
5769,1.0,299.38491,12760.505,0.0,-0.057690076422457715,0.0,0.0,0.0,0.0,-0.8037245397239362,-1.9216726883793283,-1.1534777330143888,0.003694749716468406,-0.007832888962745952,-0.3113526559656147
5770,1.0,299.29688,12925.375,0.0,-0.057700105399934754,0.0,0.0,0.0,0.0,-0.8465099168565242,-1.9220398902155682,-1.160441496976659,-0.007816236602652493,0.005629786160416634,-0.3358213793179897
5771,1.0,299.48122,12855.551000000001,0.0,-0.057710101387353885,0.0,0.0,0.0,0.0,-0.8187918422884632,-1.950981352821868,-1.1379932449861887,0.0015049383236508487,0.007046860096345943,-0.3304291257308157
5772,1.0,299.89637999999997,12695.912,0.0,-0.05772009737477313,0.0,0.0,0.0,0.0,-0.8446218468851863,-1.8927269701226084,-1.1218911810220389,-0.004062195543332486,0.003428002609717517,-0.33774878365820965
5773,1.0,299.48598,12784.577,0.0,-0.05773009336219248,0.0,0.0,0.0,0.0,-0.8293227532277833,-1.9247395937820082,-1.132129769307509,0.009843189218822141,0.0027823621791227674,-0.3064588099701297
5774,1.0,299.71945,12919.883999999998,0.0,-0.05774008934961172,0.0,0.0,0.0,0.0,-0.8598066459313091,-1.9320081433743583,-1.1355073371908488,0.007142107226946103,-0.0023490883303619674,-0.34084587378136866
5775,1.0,299.73442,13040.669,0.0,-0.057750085337031076,0.0,0.0,0.0,0.0,-0.8361575304523233,-1.9295898193606882,-1.198290441212059,-0.004554378131707126,-0.01354577683011409,-0.3054986136453657
5776,1.0,300.04922,12893.24,0.0,-0.05776008132445043,0.0,0.0,0.0,0.0,-0.8384240392035102,-1.936799397797218,-1.143999487603959,0.005488715199344015,-0.013867744142139787,-0.3241107210222377
5777,1.0,300.0787,12725.407,0.0,-0.05777007731186967,0.0,0.0,0.0,0.0,-0.8034449637563442,-1.9000661432469281,-1.1646949182464388,0.00909918723079486,0.0015528414446535183,-0.3075653500068367
5778,1.0,300.29805,12849.309,0.0,-0.057780073299289025,0.0,0.0,0.0,0.0,-0.8593589109771211,-1.921983452184998,-1.124526847182159,0.018063077810186984,0.019954816760137082,-0.3240460655333567
5779,1.0,300.153,13012.698999999999,0.0,-0.05779010227676584,0.0,0.0,0.0,0.0,-0.8540831203564413,-1.9367628194686082,-1.164689548020909,-0.005299617703406544,-0.007128552676383373,-0.3138750812945587
5780,1.0,300.20925,12836.878999999999,0.0,-0.057800098264185085,0.0,0.0,0.0,0.0,-0.8552970953012512,-1.9026817470550679,-1.144111654390029,-0.007979347577250294,-0.012873600899275488,-0.29567539710588975
5781,1.0,299.93781,12716.865,0.0,-0.05781009425160444,0.0,0.0,0.0,0.0,-0.7972777967576923,-1.9262644338574981,-1.142067118338249,-0.0015623506955170087,-0.003208122879717077,-0.30791056431590674
5782,1.0,298.84578999999997,12889.007,0.0,-0.05782009023902368,0.0,0.0,0.0,0.0,-0.8422670232552831,-1.921182680630968,-1.1544865248139489,0.02180824371055608,0.005472399542258785,-0.3228695504447437
5783,1.0,299.47536,13004.895,0.0,-0.057830086226443256,0.0,0.0,0.0,0.0,-0.8374831047631472,-1.9348577066305879,-1.180822617438119,0.0035632511317405064,-0.00967968023958506,-0.3303401927695387
5784,1.0,300.0221,12888.648000000001,0.0,-0.05784008221386239,0.0,0.0,0.0,0.0,-0.8516262725739691,-1.932660068488698,-1.133540922721779,0.006705916231147404,0.0004473912901515826,-0.3274412639684367
5785,1.0,299.97876,12779.877,0.0,-0.05785007820128163,0.0,0.0,0.0,0.0,-0.8396228559268243,-1.8943463464324284,-1.150794241449549,0.00940105682841207,0.01106037565982409,-0.33178400323453167
5786,1.0,299.42716,12712.121000000001,0.0,-0.05786007418870098,0.0,0.0,0.0,0.0,-0.8228672861781782,-1.9243815111966682,-1.116918453506269,0.002907528558675727,0.002874692871960097,-0.3348001448072017
5787,1.0,299.76332,12724.194,0.0,-0.0578701031661778,0.0,0.0,0.0,0.0,-0.8155770125036842,-1.9185516754213083,-1.1337087169383389,-0.009095892850744731,-0.008029295639604783,-0.33110677726519466
5788,1.0,300.39134,12900.518999999998,0.0,-0.05788009915359693,0.0,0.0,0.0,0.0,-0.8314722011949172,-1.9246688689250282,-1.165294458330609,-0.007426032469267342,0.003257610622551137,-0.3098116241535267
5789,1.0,300.15413,12918.001,0.0,-0.057890095141016396,0.0,0.0,0.0,0.0,-0.8344092788622841,-1.944623411094388,-1.1477168995708389,-0.0015391858730558186,0.004444627136525546,-0.3248484177575427
5790,1.0,299.4545,12901.59,0.0,-0.05790009112843575,0.0,0.0,0.0,0.0,-0.8513046467272272,-1.9301978707456982,-1.1402586695597687,-0.006191728485051024,0.01209030284321999,-0.3155791653127387
5791,1.0,300.03546,12933.125,0.0,-0.0579100871158551,0.0,0.0,0.0,0.0,-0.8464957921501302,-1.9471684926955681,-1.1376827851555489,-0.028910788486022673,-0.007450972809878762,-0.33144055198063566
5792,1.0,300.10231,13057.201000000001,0.0,-0.057920083103274345,0.0,0.0,0.0,0.0,-0.8621760907601552,-1.947755367153488,-1.159131668572389,-0.008139220204528492,-0.0077486014492024234,-0.3117921025339847
5793,1.0,300.75907,13048.886,0.0,-0.05793007909069359,0.0,0.0,0.0,0.0,-0.8543427150320613,-1.9239457123286583,-1.188247308870879,-0.0015031203503214285,0.013401825401657186,-0.32177710471692766
5794,1.0,300.40006,12920.803999999998,0.0,-0.05794007507811294,0.0,0.0,0.0,0.0,-0.8315523898078312,-1.9476731925703783,-1.148376221410909,0.013858106107188588,0.003424734979470027,-0.3195461205142467
5795,1.0,299.89871,12842.88,0.0,-0.05795010405558976,0.0,0.0,0.0,0.0,-0.8333272392129952,-1.915339165979258,-1.155248286239129,0.0006544106269678004,-0.011883428583553091,-0.3360750768780277
5796,1.0,299.72952000000004,12873.028999999999,0.0,-0.05796010004300889,0.0,0.0,0.0,0.0,-0.8509982702944902,-1.9187056894365084,-1.143375528192379,-0.004091207224170716,-0.005300154827284555,-0.3089111791871597
5797,1.0,300.2596,12985.693000000001,0.0,-0.05797009603042835,0.0,0.0,0.0,0.0,-0.8643212121493621,-1.933837667754918,-1.149167468413999,0.015009245360297185,0.02076323936567218,-0.3258818821970377
5798,1.0,299.76916,13009.188999999998,0.0,-0.057980092017847706,0.0,0.0,0.0,0.0,-0.8748926125626783,-1.9207389784121782,-1.158837015443309,0.0009579023265375992,0.01120579630092599,-0.31645795712446867
5799,1.0,299.71876000000003,12860.348,0.0,-0.05799008800526706,0.0,0.0,0.0,0.0,-0.8177295306186212,-1.947987401426388,-1.1435078586554388,-0.006539403269338854,0.008968320204854292,-0.3236606555928197
5800,1.0,299.84151,12855.468,0.0,-0.0580000839926863,0.0,0.0,0.0,0.0,-0.8244700958488632,-1.933770894573328,-1.1495003210718489,-0.011606488079471188,-0.009627337867244273,-0.3105031774792777
5801,1.0,300.1459,13109.032,0.0,-0.05801007998010543,0.0,0.0,0.0,0.0,-0.8571621037003132,-1.9432496466088083,-1.184406584366829,0.0009125227555714842,0.023075876327661678,-0.3063868590805287
5802,1.0,300.03907000000004,13032.426000000001,0.0,-0.0580200759675249,0.0,0.0,0.0,0.0,-0.8617260354632381,-1.951841399506748,-1.147964740545299,0.0035601642653108564,-0.004061162940155577,-0.32826655617488665
5803,1.0,300.45545,12782.851999999999,0.0,-0.058030104945001604,0.0,0.0,0.0,0.0,-0.8145655558563613,-1.9259974424561483,-1.145104842138049,-0.011420965025911488,-0.018469672783814783,-0.32108625053374573
5804,1.0,300.19846,12733.635,0.0,-0.058040100932420846,0.0,0.0,0.0,0.0,-0.8113883784452983,-1.929050668982478,-1.130268124898779,-0.009361467120504872,-0.007662267474431923,-0.3392934023756517
5805,1.0,300.09649,12992.943000000001,0.0,-0.0580500969198402,0.0,0.0,0.0,0.0,-0.8233150920598732,-1.9509772998214683,-1.175237785536939,-0.0066434663850840825,0.01194676887380429,-0.32216187630990173
5806,1.0,300.09122,13139.36,0.0,-0.058060092907259664,0.0,0.0,0.0,0.0,-0.8740675939337551,-1.9478854684663283,-1.1720843485757189,0.006830753912367924,0.004538826870497336,-0.35021377625590866
5807,1.0,300.1104,12880.411,0.0,-0.05807008889467902,0.0,0.0,0.0,0.0,-0.8266961860535612,-1.946921664971208,-1.1417053880525487,-0.007824264279219763,-0.012909686788336887,-0.32931946488380065
5808,1.0,300.12809,12657.313999999998,0.0,-0.05808008488209826,0.0,0.0,0.0,0.0,-0.8331101301140682,-1.9078903591941183,-1.106506903428729,-0.003919732173972446,-0.017811769493884782,-0.32883654988614064
5809,1.0,300.1984,12950.515,0.0,-0.05809008086951739,0.0,0.0,0.0,0.0,-0.8369265771457222,-1.942253317785478,-1.1574532197817389,0.004784607907504035,-0.0004614168297582955,-0.3127456519380927
5810,1.0,299.71701,13261.795,0.0,-0.058100076856936744,0.0,0.0,0.0,0.0,-0.8849936318820713,-1.9676317877401381,-1.1786290322966289,0.01830547459185968,-0.008251198931379931,-0.3226838926289207
5811,1.0,300.09143,13167.708,0.0,-0.05811010583441356,0.0,0.0,0.0,0.0,-0.8505710536548272,-1.9462389370538282,-1.205844423357579,0.009249173880822392,-0.013426147457057587,-0.3076279992605197
5812,1.0,300.08239,12846.396,0.0,-0.058120101821832804,0.0,0.0,0.0,0.0,-0.8355133060387433,-1.9189958842651482,-1.1504742570679687,0.0061110207841107945,-0.008288243861660981,-0.30062825478719873
5813,1.0,300.2456,12856.514,0.0,-0.05813009780925238,0.0,0.0,0.0,0.0,-0.8258777636827893,-1.9262901704100381,-1.1558911934275788,0.008522476785952972,0.029980044972050073,-0.3037652466992957
5814,1.0,300.26751,13126.47,0.0,-0.05814009379667151,0.0,0.0,0.0,0.0,-0.8954222146937922,-1.9183016052966282,-1.176395322451179,0.008966354297010272,0.01026461868053899,-0.3007298229772227
5815,1.0,300.29013,13186.695,0.0,-0.058150089784090975,0.0,0.0,0.0,0.0,-0.8678889164139673,-1.966352863463918,-1.1741843094079687,-0.0023267033051777375,-0.0028375594849453173,-0.3405861676482377
5816,1.0,299.73868,12828.128,0.0,-0.058160085771510106,0.0,0.0,0.0,0.0,-0.8285795748094372,-1.9212564452382483,-1.149594452006139,0.008380676487458372,0.003646399650846627,-0.3222196822281067
5817,1.0,299.70995,12738.733,0.0,-0.05817008175892935,0.0,0.0,0.0,0.0,-0.8068038371753393,-1.9412208159335782,-1.124232092728069,-0.007481886766454733,0.021708892511750878,-0.35458178597949763
5818,1.0,299.32554,12939.673999999999,0.0,-0.0581800777463487,0.0,0.0,0.0,0.0,-0.8424888135696722,-1.950256575025338,-1.140592434142709,0.012273755826825387,0.018708249612610483,-0.3450497775187617
5819,1.0,300.22047000000003,13087.948,0.0,-0.058190073733768055,0.0,0.0,0.0,0.0,-0.8792472676499492,-1.9489228339187081,-1.150239183044769,-0.011284644383957688,-0.01034843878181139,-0.3370230534065857
5820,1.0,300.8403,12959.761999999999,0.0,-0.05820010271124487,0.0,0.0,0.0,0.0,-0.8331719079726653,-1.9566000272763882,-1.1496720669637988,0.013747400427762787,0.0006167816694616114,-0.3164434980455417
5821,1.0,300.72388,12784.365,0.0,-0.058210098698664337,0.0,0.0,0.0,0.0,-0.8119183893076062,-1.931883310962038,-1.142326105063809,-0.010163341293293689,-0.0012620252910521988,-0.3132760579679397
5822,1.0,300.27624,12949.423,0.0,-0.05822009468608347,0.0,0.0,0.0,0.0,-0.8108652779486722,-1.9464770508273281,-1.178959047854199,0.008077815728593342,-0.01027134666120299,-0.3116030098003227
5823,1.0,300.24192999999997,13153.421,0.0,-0.05823009067350282,0.0,0.0,0.0,0.0,-0.8585151168238451,-1.955991874566368,-1.183804713807429,-0.007720153743369852,-0.02315148910312408,-0.32816984145284167
5824,1.0,300.07833999999997,13237.857,0.0,-0.058240086660922064,0.0,0.0,0.0,0.0,-0.8760357005304922,-1.9528568787569682,-1.1950853284957388,0.018123622543412283,0.0016827544956249383,-0.2901301528861167
5825,1.0,299.30983,12928.708,0.0,-0.058250082648341306,0.0,0.0,0.0,0.0,-0.8598878579268243,-1.937803832621348,-1.1323127622755689,0.0016350246403893686,0.024944531413833577,-0.3324056017733787
5826,1.0,299.55259,12897.386,0.0,-0.05826007863576088,0.0,0.0,0.0,0.0,-0.8449868904987132,-1.933405212612238,-1.1420912336906288,-0.012933574159444386,0.011056749237716188,-0.31837046668821867
5827,1.0,299.18933,13008.673,0.0,-0.05827007462318001,0.0,0.0,0.0,0.0,-0.8642532939951592,-1.9414356249547782,-1.1486227451602389,-0.014761829950879185,-0.00014054089954780685,-0.3510029663612957
5828,1.0,300.00521000000003,13110.493,0.0,-0.05828010360065683,0.0,0.0,0.0,0.0,-0.8573956071858582,-1.949040472255318,-1.1788265147411188,-0.00017602885959269585,0.021342305718321578,-0.3084384169555017
5829,1.0,300.81571,13028.291000000001,0.0,-0.05829009958807618,0.0,0.0,0.0,0.0,-0.8448085382161111,-1.9493057411314982,-1.166160787166109,0.015785584414665883,0.01980191529354688,-0.3400107733139507
5830,1.0,300.1218,12860.748,0.0,-0.058300095575495425,0.0,0.0,0.0,0.0,-0.8494999064441133,-1.9148296025039682,-1.1450167907043591,-0.0029205075831816567,-0.008133921007830502,-0.29488316725020275
5831,1.0,299.6104,12966.641000000001,0.0,-0.05831009156291478,0.0,0.0,0.0,0.0,-0.8477389486978202,-1.9556706742846681,-1.1381254741242388,-0.017548706463172484,-0.03072155456748137,-0.3356952904755457
5832,1.0,300.05847,13131.351999999999,0.0,-0.05832008755033402,0.0,0.0,0.0,0.0,-0.8696173994945551,-1.9303222978579782,-1.1916633802580188,0.0036541314583846967,-0.01048837166037169,-0.2810456361995447
5833,1.0,299.77853,13170.338,0.0,-0.058330083537753374,0.0,0.0,0.0,0.0,-0.8438892062678802,-1.972127578433838,-1.1874370127659089,0.013956100564109885,0.004812014498858855,-0.3344640497490317
5834,1.0,300.40175,13097.714,0.0,-0.05834007952517273,0.0,0.0,0.0,0.0,-0.8298889269861602,-1.967538872705968,-1.1839502165217888,-0.0024856870081432078,-0.013703016020382385,-0.3277128251277377
5835,1.0,300.82732999999996,12905.083,0.0,-0.05835007551259197,0.0,0.0,0.0,0.0,-0.8202839239882203,-1.948038469231428,-1.154500608990339,-0.001149187328115959,-0.019080670700115585,-0.3479326361732777
5836,1.0,300.37444,12885.666000000001,0.0,-0.05836010449006879,0.0,0.0,0.0,0.0,-0.8373050665880761,-1.9621951943285882,-1.117420518930819,-0.011066939493971889,0.004360731345470676,-0.3419281059481767
5837,1.0,300.71905,13129.106000000002,0.0,-0.05837010047748814,0.0,0.0,0.0,0.0,-0.8743447178361051,-1.9542707679465083,-1.162304762585549,0.005694753831653444,0.02181178096665518,-0.3223329534567857
5838,1.0,300.48356,13163.273000000001,0.0,-0.05838009646490738,0.0,0.0,0.0,0.0,-0.8626066815226512,-1.978042729867618,-1.160656812622909,-0.024009364393039776,0.006178014955547604,-0.35149049164691065
5839,1.0,299.93975,12885.988000000001,0.0,-0.058390092452326736,0.0,0.0,0.0,0.0,-0.8159244964929782,-1.9532673463724781,-1.1478266345566688,-0.015109007938642983,0.0013872640166622985,-0.3241386259299917
5840,1.0,299.65219,12865.124,0.0,-0.05840008843974598,0.0,0.0,0.0,0.0,-0.8010694090293952,-1.9346131080564481,-1.174993896237869,-0.00048722499881536356,0.004558954070483736,-0.3206450611752037
5841,1.0,298.99843,13068.778999999999,0.0,-0.05841008442716533,0.0,0.0,0.0,0.0,-0.8454712747090183,-1.957473854162628,-1.1696374509092289,0.032828117737382964,0.01089811581531029,-0.2958863557767097
5842,1.0,299.87897999999996,13228.837,0.0,-0.058420080414584685,0.0,0.0,0.0,0.0,-0.8870628203087843,-1.9524759980443784,-1.1816973562494488,0.009188432374427673,-0.014133965473413786,-0.3137269441299387
5843,1.0,300.46574,13117.643999999998,0.0,-0.05843007640200393,0.0,0.0,0.0,0.0,-0.8888301108682021,-1.9322416975224084,-1.166364551761219,0.015310702463798686,-0.030262285787405068,-0.30395039789006867
5844,1.0,300.58524,12903.636999999999,0.0,-0.058440105379480745,0.0,0.0,0.0,0.0,-0.8411218074622593,-1.941893006049918,-1.139368630671929,0.008373361936311483,-0.0027977990443962676,-0.3183950886656487
5845,1.0,299.71398,13018.221000000001,0.0,-0.0584501013669001,0.0,0.0,0.0,0.0,-0.8313303867109211,-1.944334330840858,-1.181549421734849,0.015120317836259186,0.01900556252320298,-0.32080114222060774
5846,1.0,300.0787,13354.196000000002,0.0,-0.05846009735431934,0.0,0.0,0.0,0.0,-0.8701883557934041,-1.976488809514258,-1.212664812430699,-0.0033043287475618566,0.024066998058727775,-0.3397994802705977
5847,1.0,300.6805,13358.521,0.0,-0.058470093341738694,0.0,0.0,0.0,0.0,-0.8956803705542702,-1.9798983961007581,-1.1850779638830888,-0.012211150142896688,0.01153486750940279,-0.34080866723769665
5848,1.0,300.57464,12787.575,0.0,-0.058480089329157825,0.0,0.0,0.0,0.0,-0.8588629149206702,-1.8992755041938982,-1.128964983945169,-0.00887161105568484,0.021475571411223877,-0.3191594845410887
5849,1.0,300.46532,12735.298999999999,0.0,-0.05849008531657729,0.0,0.0,0.0,0.0,-0.8235404186171111,-1.9484929119012782,-1.099179585330579,-0.00957826434105109,0.0062318702116127035,-0.3356926965552897
5850,1.0,300.58965,13093.317,0.0,-0.05850008130399664,0.0,0.0,0.0,0.0,-0.8494647871956472,-1.9474924287525381,-1.1830841916613188,0.004945341493392205,0.0035470612189926866,-0.3248600397361897
5851,1.0,299.97476,13263.483,0.0,-0.058510077291415885,0.0,0.0,0.0,0.0,-0.8511920138461111,-1.974986970216038,-1.2055886790323387,-0.0015751088315011388,-0.015099984946502486,-0.32534100929365767
5852,1.0,300.47652999999997,13016.838,0.0,-0.05852010626889259,0.0,0.0,0.0,0.0,-0.8016791322770702,-1.9651315931183881,-1.1899829049671686,0.012988382883853587,0.005727643524599405,-0.3188790371784107
5853,1.0,300.37917999999996,12808.098,0.0,-0.058530102256312055,0.0,0.0,0.0,0.0,-0.8168944098862012,-1.928871729014818,-1.1475758551569188,0.00027468600234439774,0.007308563750724082,-0.3176119172658557
5854,1.0,299.69485,13091.138,0.0,-0.05854009824373119,0.0,0.0,0.0,0.0,-0.8566869096684152,-1.9803667202969781,-1.142325598438759,-0.00903545511672999,-0.01006112107683034,-0.33566109328467064
5855,1.0,300.19765,13474.793,0.0,-0.05855009423115065,0.0,0.0,0.0,0.0,-0.9296936869336231,-1.996440717233358,-1.169866242781809,-0.013666241121252988,-0.02312138645590318,-0.32991691767276465
5856,1.0,299.63479,13328.597,0.0,-0.058560090218570005,0.0,0.0,0.0,0.0,-0.8727213695858932,-1.9851794556219582,-1.1936596856050388,0.0008719897523511881,-0.012845611891763187,-0.3295186901184627
5857,1.0,299.90445,12890.128,0.0,-0.05857008620598925,0.0,0.0,0.0,0.0,-0.8259970941470662,-1.954838795952568,-1.137441125006699,0.014445759754435485,-0.004478035917497736,-0.33841124657358973
5858,1.0,300.46491000000003,12876.666000000001,0.0,-0.0585800821934086,0.0,0.0,0.0,0.0,-0.7983517405386823,-1.933586381730118,-1.182246639128659,0.01384791787743309,0.013290991039468686,-0.3286275569205147
5859,1.0,300.3479,13127.975,0.0,-0.05859007818082773,0.0,0.0,0.0,0.0,-0.8832748962674452,-1.9390608706954082,-1.168240989621409,-0.00898037818501932,0.013249093147833686,-0.3211145404765377
5860,1.0,300.84365,13224.702,0.0,-0.05860010715830455,0.0,0.0,0.0,0.0,-0.89067298988508,-1.942503083935128,-1.186803224828359,0.010004749008841851,0.017218876330370784,-0.2978333867713667
5861,1.0,300.38855,12852.577,0.0,-0.0586101031457239,0.0,0.0,0.0,0.0,-0.8541622349242491,-1.916035978073028,-1.1366641648300189,0.00027966753500353674,0.014595938618006987,-0.3132491156477807
5862,1.0,299.80978999999996,12894.427,0.0,-0.058620099133143144,0.0,0.0,0.0,0.0,-0.8162767224927402,-1.9599142670284784,-1.1433928547690888,0.01001777940512785,0.005697188468993725,-0.3201320526495737
5863,1.0,299.69718,13398.478000000001,0.0,-0.0586300951205625,0.0,0.0,0.0,0.0,-0.8738111707309482,-1.9872117313475282,-1.211779839793359,-0.0036426040159720265,-0.02673560092659837,-0.3389495052917117
5864,1.0,299.16545,13532.358999999999,0.0,-0.05864009110798196,0.0,0.0,0.0,0.0,-0.8805019347187751,-2.003100404840618,-1.2298967515813588,-0.007057745746145273,-0.0037624339112233163,-0.3147005558860267
5865,1.0,299.73541,13251.892,0.0,-0.05865008709540109,0.0,0.0,0.0,0.0,-0.8581975135800001,-1.9983486671716582,-1.1716980976375988,-0.003958582107981636,-0.00037965512579904366,-0.33798802213932067
5866,1.0,300.38912,12890.758,0.0,-0.05866008308282056,0.0,0.0,0.0,0.0,-0.8387944834400702,-1.9424912289089582,-1.1371829488812188,-0.011288955763133188,-0.004766518758768776,-0.3173412275016407
5867,1.0,300.09441,12920.566,0.0,-0.05867007907023969,0.0,0.0,0.0,0.0,-0.8406750249631653,-1.9632471505824083,-1.1236072213913988,-0.009890715106812581,-0.00903266827365495,-0.3404710523043767
5868,1.0,300.22264,13217.415,0.0,-0.05868007505765904,0.0,0.0,0.0,0.0,-0.8599926786496691,-1.973419776286368,-1.184351564886399,-0.0013152796898079988,-0.016227749533054184,-0.3252327435204727
5869,1.0,300.1487,13112.112,0.0,-0.05869010403513586,0.0,0.0,0.0,0.0,-0.8307214132683202,-1.958302692744428,-1.196730644008119,0.02292232739425758,0.0040283794358200965,-0.3279619731948267
5870,1.0,299.74097,12798.13,0.0,-0.0587001000225551,0.0,0.0,0.0,0.0,-0.7866291562892532,-1.9662028011241082,-1.137480135135549,0.005947938281840805,0.0017474957054643982,-0.3417760069756657
5871,1.0,299.79086,12797.291000000001,0.0,-0.058710096009974455,0.0,0.0,0.0,0.0,-0.8241095206682773,-1.925328697390148,-1.1406185759952887,0.015307128730695986,0.0045723987847356255,-0.3170821293185697
5872,1.0,299.58063,13216.21,0.0,-0.05872009199739381,0.0,0.0,0.0,0.0,-0.8736421403492661,-1.9828547559175282,-1.160900904571999,-0.014038854726277089,0.003088492392085467,-0.33568866381989165
5873,1.0,299.8245,13497.531,0.0,-0.05873008798481305,0.0,0.0,0.0,0.0,-0.9069912307580651,-1.9887100242703981,-1.2072111964174688,0.006956028912331603,0.01105472273751619,-0.3043358280956077
5874,1.0,299.94444,13283.136999999999,0.0,-0.058740083972232404,0.0,0.0,0.0,0.0,-0.8576905338924652,-1.986947171746418,-1.1931041205752089,0.0017662277613881081,0.005093698634608915,-0.35148948852931167
5875,1.0,300.23384,13025.907,0.0,-0.05875007995965165,0.0,0.0,0.0,0.0,-0.8225551848823762,-1.9774719660862883,-1.1595232897360388,0.008723364966679092,-0.007345981557041932,-0.30784268669170767
5876,1.0,299.99097,13051.423999999999,0.0,-0.058760075947071,0.0,0.0,0.0,0.0,-0.8526893441813861,-1.938544011819398,-1.1760735142194187,-0.004531293862628886,-0.005037255132488375,-0.32424382155537373
5877,1.0,299.81472,13238.55,0.0,-0.05877010492454782,0.0,0.0,0.0,0.0,-0.8819225214914761,-1.964444913525618,-1.1778211679918988,-0.0016717266868365784,-0.001174773109041079,-0.2976769713534297
5878,1.0,299.98235,13175.561000000002,0.0,-0.05878010091196706,0.0,0.0,0.0,0.0,-0.8843111572772162,-1.955119770205298,-1.165610592361809,0.013838930349046086,0.009905434793665301,-0.3277068469521477
5879,1.0,299.75453,13081.098999999998,0.0,-0.058790096899386635,0.0,0.0,0.0,0.0,-0.8622597548209122,-1.9396799665065083,-1.174387770028049,0.01098889795801979,0.0024285029215245775,-0.3105485406862547
5880,1.0,299.7651,12932.242,0.0,-0.058800092886805766,0.0,0.0,0.0,0.0,-0.8319169267963082,-1.957770128491868,-1.1413914831715688,0.017234886695200884,0.00925977318614346,-0.3527453107032517
5881,1.0,300.78487,13216.79,0.0,-0.05881008887422501,0.0,0.0,0.0,0.0,-0.8488644770414012,-1.9692986854796481,-1.1994109944976488,0.0029980141230809576,0.004057826003601246,-0.3365413644415467
5882,1.0,300.8371,13385.598,0.0,-0.05882008486164436,0.0,0.0,0.0,0.0,-0.8852872717610512,-1.9873728381134281,-1.1962272613584388,-0.00939461671210148,0.007717880820745533,-0.34858074133474065
5883,1.0,300.58259,13215.482,0.0,-0.058830080849063604,0.0,0.0,0.0,0.0,-0.8565017584776422,-1.995318846722638,-1.1653558612866688,-0.01200099497940599,-0.010725932199317091,-0.33260617463067366
5884,1.0,300.54364,12997.483,0.0,-0.05884007683648296,0.0,0.0,0.0,0.0,-0.8424849834842942,-1.9668222009102379,-1.1416032524424689,-0.015914428284131785,0.004382899129833465,-0.3307152067640497
5885,1.0,300.15238,13055.91,0.0,-0.058850105813959774,0.0,0.0,0.0,0.0,-0.8304227172713412,-1.978652503777798,-1.159595433143159,-0.02082631519764728,0.0026342096131012475,-0.3302290898960737
5886,1.0,300.04109,13169.878,0.0,-0.05886010180137913,0.0,0.0,0.0,0.0,-0.845836490575062,-1.971832823979748,-1.1856448773140387,0.00902434097903311,-0.013832788026939886,-0.3319555363439607
5887,1.0,300.17041,13167.716,0.0,-0.05887009778879848,0.0,0.0,0.0,0.0,-0.8593984783935261,-1.946583442087828,-1.1966751179026387,-0.001078613242750839,-5.539135132270074e-05,-0.3220015902765827
5888,1.0,299.30801,12965.749,0.0,-0.05888009377621772,0.0,0.0,0.0,0.0,-0.8310488653031372,-1.9559441504866582,-1.154270905192669,0.02039350440418218,-0.004441018547619405,-0.33719987568153664
5889,1.0,299.74317,12874.905,0.0,-0.058890089763636966,0.0,0.0,0.0,0.0,-0.8440030753141181,-1.9187571625415882,-1.150889182983919,-0.002959134602168847,-0.013199292918668788,-0.31700603423605966
5890,1.0,300.53015,13276.923999999999,0.0,-0.05890008575105632,0.0,0.0,0.0,0.0,-0.8660779041127341,-1.995867015026738,-1.1739083000807289,-0.011876917438410487,0.00013224958543701787,-0.33572494830597266
5891,1.0,300.0498,13506.365,0.0,-0.05891008173847556,0.0,0.0,0.0,0.0,-0.9061249627175711,-1.9897105074191381,-1.2097622561942387,-0.016090938478051986,-0.00851771086278261,-0.3057522200128947
5892,1.0,299.83849,13407.216,0.0,-0.05892007772589514,0.0,0.0,0.0,0.0,-0.8809639261018701,-1.9891785511166382,-1.205316520055479,0.008456824258973572,0.007092243669649953,-0.3248569290583827
5893,1.0,300.14772999999997,13085.92,0.0,-0.05893010670337173,0.0,0.0,0.0,0.0,-0.8549207539491092,-1.975846814250898,-1.1470253563775887,0.000992791709085913,-0.0025548874303477575,-0.3221945536256267
5894,1.0,300.27937000000003,13065.434,0.0,-0.058940102690791085,0.0,0.0,0.0,0.0,-0.8407404707871242,-1.9580046958900181,-1.172820373448359,0.009853672810981791,-0.009024090807583422,-0.3229389175465897
5895,1.0,301.04446,13429.065,0.0,-0.05895009867821044,0.0,0.0,0.0,0.0,-0.9088298135945191,-1.992944903063348,-1.180325719589079,-0.010111728663674921,0.0013642557413415587,-0.3073709174451477
5896,1.0,300.51369,13297.336000000001,0.0,-0.05896009466562968,0.0,0.0,0.0,0.0,-0.8687627230352052,-1.986617156188848,-1.1866780884410089,-0.0017495337567155383,0.0033868206806031767,-0.32008085312202067
5897,1.0,299.7185,12911.288999999999,0.0,-0.05897009065304881,0.0,0.0,0.0,0.0,-0.8236409228945302,-1.9423508937701084,-1.1587178572315489,-0.0054590059971369445,-0.003774037144743466,-0.3187339498965917
5898,1.0,300.051,13030.476999999999,0.0,-0.05898008664046828,0.0,0.0,0.0,0.0,-0.8145970172719663,-1.976518193767158,-1.1698242942276689,-0.017457225177893984,0.00010797643961894488,-0.3344315142883207
5899,1.0,299.92222999999996,13315.909,0.0,-0.05899008262788763,0.0,0.0,0.0,0.0,-0.8845459171928851,-1.9767120285112882,-1.1864459528430988,-0.007082443210707724,0.012460327594238589,-0.3343948143696987
5900,1.0,299.81338,13512.707,0.0,-0.05900007861530698,0.0,0.0,0.0,0.0,-0.8875391795782971,-2.0144897412646583,-1.2054964732732387,-0.010623819893989389,0.008222289082176752,-0.34118793688262766
5901,1.0,300.497,13388.763,0.0,-0.05901010759278358,0.0,0.0,0.0,0.0,-0.8886374616266891,-2.008321074655858,-1.1728910983053389,0.006248735151577144,-0.0036554279118876463,-0.34896780287294066
5902,1.0,299.77497999999997,13030.598999999998,0.0,-0.05902010358020304,0.0,0.0,0.0,0.0,-0.8292836519064242,-1.9780997758482481,-1.1535934461758088,0.0006269141704616114,-0.0027863428334656275,-0.3356930917228287
5903,1.0,300.4615,13076.896999999999,0.0,-0.059030099567622396,0.0,0.0,0.0,0.0,-0.8349283972860172,-1.9759053801066784,-1.164216562874229,0.02990273702917037,0.006886539713848555,-0.32731467863344366
5904,1.0,300.55721,13289.881000000001,0.0,-0.05904009555504164,0.0,0.0,0.0,0.0,-0.8609044922821582,-1.9802596197614082,-1.198627853495359,0.027678066387862472,-0.006162477170564145,-0.3307108497886197
5905,1.0,299.56935,13204.165,0.0,-0.05905009154246077,0.0,0.0,0.0,0.0,-0.8647909954257262,-1.973964398215118,-1.1749810279615989,0.013312260172317786,-0.008383158240928302,-0.3107973239833077
5906,1.0,299.31541,12992.586000000001,0.0,-0.059060087529880234,0.0,0.0,0.0,0.0,-0.8270131104198393,-1.9763234470979378,-1.146085262934809,-0.004468357453867546,-0.016676571704599484,-0.3462795186351277
5907,1.0,299.37164,13153.117,0.0,-0.05907008351729959,0.0,0.0,0.0,0.0,-0.8651407288302421,-1.9578549375252379,-1.1752234987105288,-0.007774636099921843,0.013135126829586088,-0.30009702802477073
5908,1.0,299.82306,13543.417,0.0,-0.05908007950471894,0.0,0.0,0.0,0.0,-0.8929511611449182,-2.0085932336327184,-1.215316082642359,-0.018789303541109883,0.01139161623676499,-0.3370377556655367
5909,1.0,300.41073,13528.521,0.0,-0.05909007549213818,0.0,0.0,0.0,0.0,-0.8876160649958851,-2.0083766007613377,-1.2163400731934186,0.004319590250335366,0.003979263251797706,-0.3042659239712087
5910,1.0,299.79688,13170.743999999999,0.0,-0.05910010446961489,0.0,0.0,0.0,0.0,-0.8487710452496802,-1.9727858870238082,-1.182020380381329,-0.014109449887244288,0.005361800659393525,-0.34049866336960166
5911,1.0,300.02101,13206.434,0.0,-0.059110100457034354,0.0,0.0,0.0,0.0,-0.8785608413697041,-1.970731421121048,-1.165133858189759,0.02285339092370408,0.02321429541057258,-0.30431015233807374
5912,1.0,300.27389,13302.332,0.0,-0.059120096444453485,0.0,0.0,0.0,0.0,-0.8882455060905061,-1.9732146944661282,-1.1821167404658388,0.009124516558119671,0.0005625425233311245,-0.3514175781697147
5913,1.0,299.96345,13345.156,0.0,-0.05913009243187273,0.0,0.0,0.0,0.0,-0.8900219159008242,-1.9904796655700483,-1.176092664646309,-0.006783059926185894,-0.005756980661369755,-0.32605045661617466
5914,1.0,300.08247,13195.847,0.0,-0.05914008841929208,0.0,0.0,0.0,0.0,-0.8510438665489902,-1.9760862452495283,-1.184077683384369,0.005293514594079215,-0.03222538996839837,-0.34556846024495164
5915,1.0,300.20967,13030.313,0.0,-0.059150084406711545,0.0,0.0,0.0,0.0,-0.8275742483252192,-1.9614520767052483,-1.171863561378929,0.010921971775664688,-0.003045562201248587,-0.3078438823268257
5916,1.0,300.85104,13038.981000000002,0.0,-0.0591600803941309,0.0,0.0,0.0,0.0,-0.8281860791331023,-1.973926097361338,-1.161412393222479,0.004606987090149226,0.0025745146927348174,-0.3323266391930857
5917,1.0,301.32772,13407.753999999999,0.0,-0.05917007638155003,0.0,0.0,0.0,0.0,-0.8724503859791493,-2.0078610591104584,-1.1953108779679988,-0.02007565899356328,-0.013548673712149987,-0.3298426667054367
5918,1.0,300.93021,13482.19,0.0,-0.05918010535902685,0.0,0.0,0.0,0.0,-0.8827284302235131,-2.017087714521058,-1.1984329041761188,-0.018099303527762182,-0.004546881600842276,-0.34922250355057766
5919,1.0,300.68957,13257.025,0.0,-0.05919010134644631,0.0,0.0,0.0,0.0,-0.8608969334364122,-1.998282197965098,-1.170625369756729,-0.013590539179781789,0.012151699719779387,-0.35005332810257367
5920,1.0,300.23857999999996,13246.042,0.0,-0.05920009733386544,0.0,0.0,0.0,0.0,-0.8612699310632242,-1.993194567887988,-1.172001566042549,0.009270326692560012,0.01779155414113968,-0.3405292229926177
5921,1.0,300.16882000000004,13309.827,0.0,-0.059210093321284796,0.0,0.0,0.0,0.0,-0.8737116594386273,-1.983961832976788,-1.1881815489393888,-0.008635021311660251,-0.00987393132818115,-0.3355393006226507
5922,1.0,300.18699,13232.123,0.0,-0.05922008930870426,0.0,0.0,0.0,0.0,-0.8526605780110471,-1.9708677032594981,-1.1987067856781488,-0.0024495855150302673,-0.01901886345726568,-0.3138642597834907
5923,1.0,300.00425,13220.356000000002,0.0,-0.05923008529612339,0.0,0.0,0.0,0.0,-0.8563149455567052,-1.9802429011347584,-1.1821003258142186,-0.0015723438746282586,-0.00972497961180576,-0.3273067550176617
5924,1.0,300.15521,13252.737,0.0,-0.059240081283542856,0.0,0.0,0.0,0.0,-0.8538229582607653,-1.980520025037108,-1.194158103329229,0.012862090378139488,-0.0035573081159289764,-0.3155488590022477
5925,1.0,300.26856000000004,13231.257,0.0,-0.05925007727096199,0.0,0.0,0.0,0.0,-0.8818306602374101,-1.9773212957964181,-1.162819797611379,-0.002720492722716727,-0.004493187856843116,-0.33738861377766366
5926,1.0,299.73561,13347.704,0.0,-0.059260106248438804,0.0,0.0,0.0,0.0,-0.8532958250287412,-2.004456538774458,-1.199616278967909,0.004210277891122076,-0.016251011728849983,-0.3181517769191357
5927,1.0,300.11428,13485.927,0.0,-0.05927010223585816,0.0,0.0,0.0,0.0,-0.9143238076242343,-2.001958066677878,-1.1831031394381888,0.009533399146498242,0.01180888883994659,-0.3188218493427667
5928,1.0,299.48672,13422.787,0.0,-0.0592800982232774,0.0,0.0,0.0,0.0,-0.8686896474379932,-2.0021830082000784,-1.2093194659005386,-0.0017711905590528983,0.02339837660923998,-0.3063319814551127
5929,1.0,299.10434,13221.236,0.0,-0.05929009421069675,0.0,0.0,0.0,0.0,-0.8673795150586932,-1.999961660005848,-1.1515843738775289,-0.01925087847841378,0.002163378737458858,-0.3407319844701287
5930,1.0,299.21742,13273.671999999999,0.0,-0.05930009019811622,0.0,0.0,0.0,0.0,-0.8547297056427542,-1.992652276434468,-1.1874828116704288,-0.032311407809137674,-0.0005225508996392586,-0.3271729654744577
5931,1.0,299.6551,13294.695,0.0,-0.05931008618553535,0.0,0.0,0.0,0.0,-0.8780649162407602,-1.9899480132425782,-1.1732423921150088,-0.015503095353036385,0.014802031661846784,-0.33787059658523166
5932,1.0,299.97535,13176.226,0.0,-0.0593200821729547,0.0,0.0,0.0,0.0,-0.8411368035637392,-1.9768674610766281,-1.187239530321419,0.018221747709596482,0.007345682648262432,-0.3306784967129267
5933,1.0,300.17941,13148.448,0.0,-0.059330078160373945,0.0,0.0,0.0,0.0,-0.8673402921473221,-1.9669495664478085,-1.162510047055809,0.01147151202040009,1.8752370574964882e-05,-0.3419248027528507
5934,1.0,300.17938,13215.731000000002,0.0,-0.05934010713785076,0.0,0.0,0.0,0.0,-0.8428397426093063,-1.9889322300173282,-1.185480325497799,0.022399437653652376,-0.011709070532845289,-0.3228314522409837
5935,1.0,299.69671,13293.41,0.0,-0.059350103125270115,0.0,0.0,0.0,0.0,-0.8549270664972322,-2.003996320579038,-1.181941346873529,0.017455948482767984,0.004862148289956675,-0.3416965681678257
5936,1.0,299.95662999999996,13527.57,0.0,-0.05936009911268936,0.0,0.0,0.0,0.0,-0.8678270878928651,-2.0341027168253083,-1.210113752653929,-0.004012635555766296,0.025778107953101176,-0.34599148202920066
5937,1.0,299.77029,13425.926000000001,0.0,-0.05937009510010871,0.0,0.0,0.0,0.0,-0.8729049806365141,-2.024746669376938,-1.1834944566268089,-0.0019713614600332286,-0.011776690791518888,-0.35093759146484366
5938,1.0,299.9443,13129.695,0.0,-0.059380091087528064,0.0,0.0,0.0,0.0,-0.8361862763576603,-1.9877659791522282,-1.1671470848134489,-0.017405796655818383,-0.01092393748085869,-0.32782154686346765
5939,1.0,299.85391,13144.065,0.0,-0.059390087074947306,0.0,0.0,0.0,0.0,-0.8634691397427692,-1.9805277257378682,-1.151470687216309,0.0015688157377800585,0.003978887032035576,-0.3208105553140367
5940,1.0,299.66609,13453.881000000001,0.0,-0.05940008306236666,0.0,0.0,0.0,0.0,-0.8964516565303902,-1.9917848330238583,-1.201407401169679,-0.004926406483473466,-0.008825419719401111,-0.3111463683777557
5941,1.0,299.58137,13381.885,0.0,-0.0594100790497859,0.0,0.0,0.0,0.0,-0.8862671859327612,-1.9817586219593482,-1.199733208029449,0.0016647129696443785,-0.01023602070971659,-0.3237183399210127
5942,1.0,299.98251,13163.985,0.0,-0.05942010802726272,0.0,0.0,0.0,0.0,-0.8466418014895403,-1.9736512026092083,-1.181229538678279,-0.014207541616175188,-0.006892957133356904,-0.32661266856666066
5943,1.0,300.02485,13385.458999999999,0.0,-0.05943010401468207,0.0,0.0,0.0,0.0,-0.874170408421402,-1.987420967493178,-1.2072539555716888,0.013816596290341885,0.012562154163038089,-0.3155207007819687
5944,1.0,300.2402,13618.882,0.0,-0.059440100002101426,0.0,0.0,0.0,0.0,-0.918107020052608,-2.003989126503328,-1.2177037051779989,0.0013357093449492487,0.008754021152429622,-0.3289512599299617
5945,1.0,300.57291000000004,13536.153999999999,0.0,-0.05945009598952067,0.0,0.0,0.0,0.0,-0.9064907358711701,-2.010116249858028,-1.1980459439629287,0.0036676495319438265,-0.00888657169341134,-0.3281019334311397
5946,1.0,299.6844,13326.931999999999,0.0,-0.05946009197694002,0.0,0.0,0.0,0.0,-0.8700636449710962,-1.9878092449314984,-1.193181634207859,-0.0012297100095879287,-0.015451745864468585,-0.3430460349160077
5947,1.0,299.98434,13199.063999999998,0.0,-0.059470087964359264,0.0,0.0,0.0,0.0,-0.8481656080499281,-1.9882089720959482,-1.1758112850935387,9.289531328330361e-05,0.010507523100511791,-0.3148758988158317
5948,1.0,300.08947,13253.243,0.0,-0.05948008395177862,0.0,0.0,0.0,0.0,-0.8453474048842933,-2.0079532648695584,-1.1753543092984389,-0.0039755067283769666,0.01766391705254288,-0.3453320993941247
5949,1.0,299.55707,13381.766000000001,0.0,-0.05949007993919786,0.0,0.0,0.0,0.0,-0.8683086350028901,-2.009672750289258,-1.1897413461433288,-0.013956575778406786,-0.014339877145485687,-0.32571976218103765
5950,1.0,299.81665,13221.735,0.0,-0.05950007592661721,0.0,0.0,0.0,0.0,-0.8427703045799532,-1.9859924875021981,-1.1903144403998889,-0.0006128849020945303,-0.011228894350205592,-0.3273769935145937
5951,1.0,299.59933,13074.781,0.0,-0.05951010490409403,0.0,0.0,0.0,0.0,-0.8426940575099281,-1.9836621135972083,-1.1480508668037988,0.003450729201510457,0.003254337216778077,-0.3244732112455127
5952,1.0,299.35615,13357.774,0.0,-0.05952010089151338,0.0,0.0,0.0,0.0,-0.8644902931935491,-2.0002446607587783,-1.1956947984308888,0.014212963517460287,0.0006595470754347285,-0.34375581661105764
5953,1.0,300.3141,13688.583999999999,0.0,-0.059530096878932626,0.0,0.0,0.0,0.0,-0.922621606535663,-2.025087020085528,-1.213278943316309,-0.012582523529798386,-0.016690070222431682,-0.3539062622703287
5954,1.0,299.74826,13469.246000000001,0.0,-0.05954009286635198,0.0,0.0,0.0,0.0,-0.8669037738717411,-2.0110432723745184,-1.2163673296211088,-0.016574924481067684,-0.002873911048182937,-0.33890548970736767
5955,1.0,300.12678,13216.243,0.0,-0.05955008885377122,0.0,0.0,0.0,0.0,-0.8481606836544421,-1.997515674264448,-1.171731636215909,0.0044219728907897455,0.01995896804579678,-0.35162249786993865
5956,1.0,300.46765,13392.591999999999,0.0,-0.059560084841190575,0.0,0.0,0.0,0.0,-0.8637045076084982,-2.002597528815988,-1.2047115084207687,0.0009384105356889091,0.028514283456890676,-0.3131993650678707
5957,1.0,300.15308999999996,13423.283000000001,0.0,-0.05957008082860993,0.0,0.0,0.0,0.0,-0.8947698741469111,-1.992436454163168,-1.193136544578409,-0.00953412807862018,-0.007198187276255773,-0.3301928358074957
5958,1.0,299.82752999999997,13283.806,0.0,-0.05958007681602917,0.0,0.0,0.0,0.0,-0.8500108884695432,-1.999121979647978,-1.188812499776659,0.004756230521228405,-0.014931710449395086,-0.31872507382571574
5959,1.0,300.44512000000003,13262.89,0.0,-0.059590105793505876,0.0,0.0,0.0,0.0,-0.8678896966165442,-1.9850213886063584,-1.1786762497512888,0.005359105312802515,0.014082719336356185,-0.32435032427338467
5960,1.0,299.60527,13260.158000000001,0.0,-0.05960010178092534,0.0,0.0,0.0,0.0,-0.8532148460807493,-1.9890994162838282,-1.1884427648151688,0.012472658847955589,0.00966214645322961,-0.3193040145353527
5961,1.0,300.0065,13445.396,0.0,-0.05961009776834447,0.0,0.0,0.0,0.0,-0.8838859570052521,-2.012226343191278,-1.1909523826628488,-0.018492098035027982,-0.01087302166333369,-0.34070423154988966
5962,1.0,299.32239,13591.068000000001,0.0,-0.05962009375576394,0.0,0.0,0.0,0.0,-0.8969000196996401,-2.012406600384068,-1.222038693080829,-0.021806964988929877,0.005136050056988675,-0.3173613607811277
5963,1.0,299.74307999999996,13504.014,0.0,-0.05963008974318307,0.0,0.0,0.0,0.0,-0.8984264911077913,-2.008194215743338,-1.198262475509299,-0.005520208734977184,0.011348582491767888,-0.33067123170970963
5964,1.0,300.24118,13421.021,0.0,-0.05964008573060253,0.0,0.0,0.0,0.0,-0.8690466458457262,-2.009983716744948,-1.2006247667924388,0.010903476921589389,0.02067466002868008,-0.3399057702060877
5965,1.0,301.07435,13446.938999999998,0.0,-0.059650081718021886,0.0,0.0,0.0,0.0,-0.8984866578987291,-1.999356243071098,-1.1896908862883488,0.007200943823152822,-0.019794252083040583,-0.34867567273660965
5966,1.0,300.63088999999997,13447.575,0.0,-0.05966007770544102,0.0,0.0,0.0,0.0,-0.8606164252787282,-2.019141471148748,-1.2079692088172789,0.025503168617966775,-0.013859942116369787,-0.3388048435749347
5967,1.0,300.47764,13306.726999999999,0.0,-0.059670106682918056,0.0,0.0,0.0,0.0,-0.8484056773961212,-1.998530241589578,-1.1979768403061088,0.016645107249244184,0.007274776318189523,-0.3394399487376147
5968,1.0,299.75147999999996,13289.875,0.0,-0.0596801026703373,0.0,0.0,0.0,0.0,-0.8453224080043261,-1.9998987371746382,-1.1945690775697888,0.01822143765506588,0.007798832208334812,-0.3340595197791077
5969,1.0,299.68417,13364.475,0.0,-0.05969009865775643,0.0,0.0,0.0,0.0,-0.8569665059010092,-2.016694978782298,-1.1888052043759387,-0.005823015183636854,-0.023975466110944275,-0.3394952721930747
5970,1.0,300.19937000000004,13293.81,0.0,-0.05970009464517578,0.0,0.0,0.0,0.0,-0.8547330088380802,-2.006001542526938,-1.1802516510067689,-0.005594589296992975,-0.007978762425317544,-0.33271337649125365
5971,1.0,299.67418,13361.104,0.0,-0.059710090632595025,0.0,0.0,0.0,0.0,-0.8673088712617213,-2.024561548583668,-1.169571589652729,-0.007451830222113384,0.011633635076150388,-0.34608741654866865
5972,1.0,300.19737000000003,13544.548999999999,0.0,-0.05972008662001438,0.0,0.0,0.0,0.0,-0.8927365547737383,-2.016590917997028,-1.2078774083582189,-0.014367900603501385,0.009554633626193921,-0.31793351271509473
5973,1.0,300.09191,13477.687,0.0,-0.05973008260743384,0.0,0.0,0.0,0.0,-0.8758897925160922,-2.013287418695998,-1.2077030280160088,-0.017408296343815084,-0.009130457344780981,-0.33227845915083065
5974,1.0,299.98434,13413.192,0.0,-0.059740078594852974,0.0,0.0,0.0,0.0,-0.8802567687245793,-2.0057433664014583,-1.191275305469719,-0.014946736948378087,-0.005487809961704675,-0.3214953705266227
5975,1.0,300.0345,13559.487,0.0,-0.05975010757233001,0.0,0.0,0.0,0.0,-0.9005913506089462,-1.995662845131588,-1.225491342796579,0.013697802848617888,0.01151396415983979,-0.3177148736085167
5976,1.0,300.50388,13631.086000000001,0.0,-0.059760103559749145,0.0,0.0,0.0,0.0,-0.9196838499907292,-2.016124417650988,-1.2077015081408589,0.0007824093647902923,-0.0012631907313172188,-0.34619118349140965
5977,1.0,299.51658,13475.006000000001,0.0,-0.05977009954716839,0.0,0.0,0.0,0.0,-0.9030562030672081,-2.0046298045415583,-1.188379335358909,0.004589274363826115,-0.026317633233848177,-0.34815143739987164
5978,1.0,300.32965,13342.921999999999,0.0,-0.05978009553458774,0.0,0.0,0.0,0.0,-0.8632540875415452,-1.995724146762638,-1.1969369417284788,0.014241164294243486,-0.004423679406608165,-0.3482657522761537
5979,1.0,300.25934,13354.608999999999,0.0,-0.05979009152200698,0.0,0.0,0.0,0.0,-0.8479813383867423,-2.015184729508248,-1.1963017352407888,0.02109208867237708,0.025944797727052177,-0.3159552330873537
5980,1.0,300.58262,13397.614,0.0,-0.05980008750942656,0.0,0.0,0.0,0.0,-0.8465233525528502,-2.008478533721398,-1.2175382414366689,0.011581536795758688,0.009973491053856929,-0.32597043012327664
5981,1.0,300.48068,13566.162,0.0,-0.05981008349684569,0.0,0.0,0.0,0.0,-0.8764457223159582,-2.038823347716198,-1.2085053194451887,-0.007930085586538512,-0.013629147048342087,-0.3152309923133767
5982,1.0,300.34772000000004,13492.708999999999,0.0,-0.05982007948426493,0.0,0.0,0.0,0.0,-0.8765263162289121,-2.026511649726128,-1.1984086874987288,-0.011317247732425388,0.013727449533293787,-0.3365444143243477
5983,1.0,299.62247,13366.336000000001,0.0,-0.05983010846174197,0.0,0.0,0.0,0.0,-0.8682254167721772,-2.0192162490061283,-1.175590801871779,-0.001971541615901008,0.02401920609126108,-0.32989914526601066
5984,1.0,299.74383,13605.411,0.0,-0.0598401044491611,0.0,0.0,0.0,0.0,-0.8791167103745642,-2.051958919362578,-1.204629536487679,-0.015078610435642986,0.004885339051620426,-0.3586239547359287
5985,1.0,299.74082999999996,13760.704,0.0,-0.059850100436580345,0.0,0.0,0.0,0.0,-0.9130326635518081,-2.028887721210628,-1.240989813676159,-0.029099389793386173,-0.008967709316369001,-0.32837824673340965
5986,1.0,300.03602,13391.867,0.0,-0.0598600964239997,0.0,0.0,0.0,0.0,-0.8714480688477282,-2.000922221100648,-1.198422873000129,-0.0038230953708601367,0.0028217680834618274,-0.3489293297666437
5987,1.0,299.82956,13138.565,0.0,-0.05987009241141905,0.0,0.0,0.0,0.0,-0.8347303778189741,-1.991194918815638,-1.167870241409819,0.01973034437273338,0.01984765340306088,-0.3371958125486357
5988,1.0,300.42892,13366.114,0.0,-0.059880088398838516,0.0,0.0,0.0,0.0,-0.8809570765311943,-1.9888945371136082,-1.1931132398261088,0.010357308773186791,0.008511376935082502,-0.33951461513748366
5989,1.0,299.79292999999996,13544.193000000001,0.0,-0.05989008438625765,0.0,0.0,0.0,0.0,-0.8902817436239672,-2.020659218473538,-1.2061553898132689,0.015914842703422687,-0.015001200154503186,-0.3494349516990447
5990,1.0,300.0119,13456.921,0.0,-0.05990008037367689,0.0,0.0,0.0,0.0,-0.8635197617177651,-2.0209479947520377,-1.206100066357809,0.00989877743653327,0.006071290133114684,-0.33625193968298267
5991,1.0,300.22562999999997,13397.511999999999,0.0,-0.05991010935115382,0.0,0.0,0.0,0.0,-0.8647903976081672,-2.009627356684778,-1.198091337567409,-0.0015095390870549087,0.0069995937017061135,-0.3091684129900467
5992,1.0,300.07551,13496.48,0.0,-0.05992010533857306,0.0,0.0,0.0,0.0,-0.8675635314093542,-2.030868422506108,-1.2041609083164289,0.0010804941389114691,-0.008968473002969372,-0.3099200824442307
5993,1.0,299.56133,13606.69,0.0,-0.0599301013259923,0.0,0.0,0.0,0.0,-0.9068051169796972,-2.020209842054188,-1.2090791229768187,-0.02341355104273758,-0.019601546099521982,-0.33136227841041066
5994,1.0,299.95816,13645.786,0.0,-0.059940097313411655,0.0,0.0,0.0,0.0,-0.9172191596524831,-2.032522553294358,-1.1982365363067389,-0.004700217751725375,-0.005360077323623444,-0.3182620489275187
5995,1.0,299.50767,13440.173999999999,0.0,-0.05995009330083101,0.0,0.0,0.0,0.0,-0.8842325594669591,-2.009886242085328,-1.1913584933029289,0.006174823319057614,0.004213448553334996,-0.3380358374115397
5996,1.0,299.49773999999996,13351.139,0.0,-0.05996008928825036,0.0,0.0,0.0,0.0,-0.8549088178629312,-2.004900747618298,-1.1986034341679488,0.006583776632293165,0.0026081132554507374,-0.34185631717859166
5997,1.0,299.64214,13580.417,0.0,-0.059970085275669605,0.0,0.0,0.0,0.0,-0.8912695611464572,-2.0226094209410084,-1.2142286626350387,0.001076682899985329,-0.0029455075028989577,-0.34407577059513467
5998,1.0,299.60434,13631.14,0.0,-0.05998008126308885,0.0,0.0,0.0,0.0,-0.8743296102771141,-2.023541813683028,-1.245654715811549,0.014874115287210886,0.005961122692142004,-0.33323758143048865
5999,1.0,299.88809,13316.752,0.0,-0.0599900772505082,0.0,0.0,0.0,0.0,-0.8575536235389531,-2.010373615383428,-1.1800328903101789,-0.0017751498338186484,0.013763031837055486,-0.3328228277670557
6000,1.0,299.91341,13332.284,0.0,-0.06000010622798502,0.0,0.0,0.0,0.0,-0.8525129576039782,-2.025742896875258,-1.1744254629317687,-0.0019085848408126583,-0.01114600137277469,-0.3449039606968707
6001,1.0,300.17155,13595.893999999998,0.0,-0.06001010221540415,0.0,0.0,0.0,0.0,-0.8998738783456371,-2.034763862515558,-1.1981747280506387,0.004846909819052755,-0.013974382635664185,-0.3412801831717317
6002,1.0,300.33787,13655.163999999999,0.0,-0.06002009820282361,0.0,0.0,0.0,0.0,-0.8837087294302611,-2.063936650119688,-1.203183425944959,0.007280329941987624,-0.006119194875317514,-0.3467412769706997
6003,1.0,300.22627,13392.44,0.0,-0.060030094190242966,0.0,0.0,0.0,0.0,-0.8655919088347702,-2.0194787821070377,-1.185896568638879,-0.01135083595999029,-0.004708584157801076,-0.33561245727987066
6004,1.0,300.28772000000004,13457.123,0.0,-0.06004009017766232,0.0,0.0,0.0,0.0,-0.8548812067977061,-2.029263940972758,-1.2064843921207387,-0.015050465387615286,-0.019068899773703882,-0.3350281362122027
6005,1.0,299.6624,13566.74,0.0,-0.06005008616508156,0.0,0.0,0.0,0.0,-0.9007398018810971,-2.0256197869881083,-1.1975906906929987,-0.014627482106870086,-0.014811341403765589,-0.3329092580005857
6006,1.0,299.9843,13595.339,0.0,-0.06006008215250069,0.0,0.0,0.0,0.0,-0.8988960210716301,-2.017840154045318,-1.2159074154007188,0.009229285199909532,0.011807193672529288,-0.33995467978841465
6007,1.0,299.9122,13633.309,0.0,-0.06007007813992016,0.0,0.0,0.0,0.0,-0.9026082148004951,-2.025301626456708,-1.216275731812069,-0.00024669371190177373,0.0022905387879085777,-0.3373369988175697
6008,1.0,299.80135,13461.228000000001,0.0,-0.060080107117396864,0.0,0.0,0.0,0.0,-0.8736105472111482,-1.9996392438240282,-1.218627383969159,-0.005389896564791375,-0.004765872811830026,-0.3442899007387677
6009,1.0,299.55619,13424.055,0.0,-0.060090103104816106,0.0,0.0,0.0,0.0,-0.8593010847939142,-2.020034549786888,-1.2012419374283487,-0.011409282252258488,-0.00024583399958942685,-0.33864056533622167
6010,1.0,299.66751,13583.875,0.0,-0.06010009909223568,0.0,0.0,0.0,0.0,-0.8760710426939802,-2.0298126159019083,-1.2232750608528489,0.015697208740943883,0.010723824639109092,-0.3366912545288397
6011,1.0,299.27277000000004,13603.544,0.0,-0.060110095079654924,0.0,0.0,0.0,0.0,-0.8989712954215591,-2.026220948272438,-1.209945451812319,-0.0028183644750509173,0.013779041188635488,-0.3176641807060137
6012,1.0,300.89711,13490.45,0.0,-0.06012009106707428,0.0,0.0,0.0,0.0,-0.8750514192508512,-2.041214820602218,-1.1844938252004389,-0.004313558777790106,-0.007787201921036993,-0.3451554696366927
6013,1.0,300.4157,13573.08,0.0,-0.06013008705449352,0.0,0.0,0.0,0.0,-0.8820555206996022,-2.049174305437758,-1.194647503127529,0.014680155913318588,-0.004983231170281626,-0.3181328899372717
6014,1.0,300.18296000000004,13704.853000000001,0.0,-0.06014008304191265,0.0,0.0,0.0,0.0,-0.892252515068467,-2.051431421360518,-1.2222491451265989,-0.007352429576703303,0.0047387572259039255,-0.35731226195147464
6015,1.0,299.90927,13676.725,0.0,-0.060150079029332004,0.0,0.0,0.0,0.0,-0.8761500964667821,-2.055269410089298,-1.2259634160181687,0.0003537743675048117,0.0019126151444104184,-0.3299078288193677
6016,1.0,299.90735,13541.576000000001,0.0,-0.06016010800680882,0.0,0.0,0.0,0.0,-0.8614084626168963,-2.031715499589708,-1.223177079568179,-0.04108158391718666,-0.0006944798656173264,-0.35711102034911363
6017,1.0,300.1082,13556.843,0.0,-0.060170103994228286,0.0,0.0,0.0,0.0,-0.8871358756409942,-2.033117229778048,-1.2006886015487388,-0.02166846484601098,0.015013437175960886,-0.3224852956093207
6018,1.0,300.63013,13332.238000000001,0.0,-0.06018009998164764,0.0,0.0,0.0,0.0,-0.8606704315090582,-2.012137379832498,-1.1798597258680887,0.0015282096386975484,0.013240219103457886,-0.36576888781607864
6019,1.0,299.76101,13283.848,0.0,-0.06019009596906677,0.0,0.0,0.0,0.0,-0.8546317547555873,-1.9948725100535882,-1.188454011891279,0.009440741477853641,0.026825418455212677,-0.3354917791929607
6020,1.0,299.58797999999996,13598.163,0.0,-0.060200091956486235,0.0,0.0,0.0,0.0,-0.8789695661950422,-2.029478243368908,-1.2250542267034388,-0.0028909522936647774,0.005170122820751395,-0.35307074637036967
6021,1.0,299.75029,13692.104,0.0,-0.060210087943905366,0.0,0.0,0.0,0.0,-0.8876034905621442,-2.0375051093360983,-1.236948972277359,0.0003370509887118427,-0.011692965935755889,-0.3287371196538277
6022,1.0,299.92836,13569.783000000001,0.0,-0.06022008393132461,0.0,0.0,0.0,0.0,-0.8903269852409322,-2.027523481275988,-1.2070245557490489,-0.002220697079715738,0.007450897018771284,-0.33996925032485265
6023,1.0,299.86107999999996,13599.178999999998,0.0,-0.060230079918744184,0.0,0.0,0.0,0.0,-0.9043653627264121,-2.032556395847698,-1.1968892176487689,0.0016097413146190986,-0.006283545257437634,-0.3203166465527917
6024,1.0,299.78001,13668.526000000002,0.0,-0.06024010889622078,0.0,0.0,0.0,0.0,-0.9021476318350392,-2.031841446577138,-1.2209015224935988,0.004808406213927746,-0.016977643773062982,-0.3122881897829447
6025,1.0,300.27725,13652.185,0.0,-0.06025010488364013,0.0,0.0,0.0,0.0,-0.8867211422425632,-2.045757524775548,-1.217444617127429,-0.003233207709792757,-0.0017858327322729684,-0.33569208860522964
6026,1.0,300.61237,13647.204,0.0,-0.060260100871059596,0.0,0.0,0.0,0.0,-0.8905408924695432,-2.0278906831122283,-1.2299777102643488,0.01158529190062929,0.005625667096110115,-0.3197217370215787
6027,1.0,300.32549,13504.325,0.0,-0.06027009685847873,0.0,0.0,0.0,0.0,-0.8631529449165631,-2.020121993270518,-1.221702800672679,0.004021269865168436,0.005317212588743026,-0.34423825538117064
6028,1.0,300.233,13440.555,0.0,-0.06028009284589819,0.0,0.0,0.0,0.0,-0.8674173599499281,-2.021996100655478,-1.1961795372787287,0.0040446371349996055,-0.0025292548372680174,-0.3335652259828247
6029,1.0,300.58516000000003,13705.968,0.0,-0.060290088833317323,0.0,0.0,0.0,0.0,-0.9131193876278672,-2.035705577158498,-1.217446947602659,0.006259120458477094,0.008673399983047931,-0.3335897263702427
6030,1.0,300.15177,13830.214,0.0,-0.06030008482073668,0.0,0.0,0.0,0.0,-0.9182531408495292,-2.050740080817288,-1.2350464938895986,0.012305819112989788,0.00951655234371059,-0.33747734408892066
6031,1.0,299.68866,13552.316,0.0,-0.06031008080815614,0.0,0.0,0.0,0.0,-0.877419607649573,-2.0298916494097083,-1.212254446140199,0.005620413596991634,0.006392714647061814,-0.3438885017116527
6032,1.0,300.26883,13541.105,0.0,-0.060320109785632736,0.0,0.0,0.0,0.0,-0.8493938495561462,-2.037869068772018,-1.2288949512074887,0.0014558032931765988,-0.007238921551475933,-0.3357564907815857
6033,1.0,299.9706,13755.532,0.0,-0.06033010577305209,0.0,0.0,0.0,0.0,-0.8862628492223331,-2.0655965564335084,-1.2294787859151088,-0.009133397391271142,-0.005915523701866734,-0.3368650370534907
6034,1.0,300.02358,13678.377,0.0,-0.06034010176047144,0.0,0.0,0.0,0.0,-0.8837636273206793,-2.052531000369038,-1.2215904312365888,0.0004312195348455546,-0.007219899199398573,-0.3326594006584267
6035,1.0,300.04815,13470.812,0.0,-0.060350097747890685,0.0,0.0,0.0,0.0,-0.8891855488707812,-2.032016029569368,-1.1735890249742187,-0.012064512588424689,-0.009475014561161132,-0.3370783971270477
6036,1.0,299.35266,13444.986,0.0,-0.06036009373531004,0.0,0.0,0.0,0.0,-0.8646335262276851,-2.027258111074798,-1.1950484461920987,0.01624083768459588,-0.00970221471915904,-0.33888976406581567
6037,1.0,299.55249,13490.828000000001,0.0,-0.06037008972272928,0.0,0.0,0.0,0.0,-0.8715356845838752,-2.027341298908008,-1.2019977206779389,-0.004590250630297465,0.01009891986518579,-0.34596958569453967
6038,1.0,299.67862,13682.425,0.0,-0.060380085710148634,0.0,0.0,0.0,0.0,-0.8635172792550202,-2.059405598322508,-1.2361926824027187,0.007619429995979192,0.01101172445627259,-0.36368309222022666
6039,1.0,299.89512,13741.883999999998,0.0,-0.0603900816975681,0.0,0.0,0.0,0.0,-0.9030221983938521,-2.034082755798338,-1.2400845760368187,-0.009655736126471961,-0.002718513034671347,-0.35561995189945667
6040,1.0,300.08293,13633.568000000001,0.0,-0.06040007768498723,0.0,0.0,0.0,0.0,-0.9052773486114182,-2.035376270875998,-1.2036107135121288,-0.004959269629266805,0.009876232824458292,-0.3395965364080687
6041,1.0,300.84115,13459.221000000001,0.0,-0.06041010666246405,0.0,0.0,0.0,0.0,-0.8963105715864661,-2.012703178688338,-1.1822533265793187,0.015994198424754483,0.009799896689749501,-0.33414472398001666
6042,1.0,300.46892,13695.453000000001,0.0,-0.0604201026498834,0.0,0.0,0.0,0.0,-0.9089595400048222,-2.0372944546403082,-1.216821772290959,0.013996356990582886,0.005059465574680375,-0.3287735459949227
6043,1.0,300.15718,13908.673999999999,0.0,-0.06043009863730264,0.0,0.0,0.0,0.0,-0.9049302800546651,-2.062244015827638,-1.2607154626479287,0.006760076171517574,-0.002505886148886708,-0.32970410475426165
6044,1.0,299.47854,13630.597,0.0,-0.060440094624721996,0.0,0.0,0.0,0.0,-0.8609084946200531,-2.042584633412408,-1.239867943165439,0.0014067286524083087,-0.0039051009438534562,-0.33167554494382767
6045,1.0,300.07339,13539.704,0.0,-0.06045009061214124,0.0,0.0,0.0,0.0,-0.8555996112511072,-2.0488536117811083,-1.2112785849688887,0.0024677314057711276,0.0027832977129400973,-0.3273836910977547
6046,1.0,299.9577,13660.011,0.0,-0.06046008659956059,0.0,0.0,0.0,0.0,-0.9071141481276962,-2.045030213853768,-1.2001577598213489,-0.00946129758660737,-0.01055537991598489,-0.3335251316763677
6047,1.0,299.37575,13606.946000000002,0.0,-0.060470082586979945,0.0,0.0,0.0,0.0,-0.8917985182286612,-2.039392591622378,-1.2049807289723387,-0.005778693699087665,-0.01231764171515659,-0.3376455537380217
6048,1.0,300.08817999999997,13530.063,0.0,-0.06048007857439919,0.0,0.0,0.0,0.0,-0.8699951188668331,-2.036654891177188,-1.206151336812869,-0.02066359939058848,-0.0018614389216097184,-0.35247650558422267
6049,1.0,300.34494,13717.124,0.0,-0.060490107551876005,0.0,0.0,0.0,0.0,-0.8813252814850331,-2.046605108484198,-1.2417328299744887,-0.002039542248662148,0.013308376384684486,-0.34468646656290564
6050,1.0,299.81182,13686.458,0.0,-0.06050010353929536,0.0,0.0,0.0,0.0,-0.8689893060225671,-2.044146761091578,-1.247205292439579,-0.008033399302509783,0.0034567265275273467,-0.3741759049557866
6051,1.0,300.08464,13656.28,0.0,-0.0605100995267146,0.0,0.0,0.0,0.0,-0.8852305297554512,-2.055047812292428,-1.210889800905519,0.009377531390240291,0.002777970651864357,-0.3459463518697467
6052,1.0,300.18852000000004,13716.548999999999,0.0,-0.060520095514133954,0.0,0.0,0.0,0.0,-0.9258943030336532,-2.036208858483168,-1.2073851714596389,-0.005166959453939196,-0.0006540120143784604,-0.34585257557299165
6053,1.0,300.24037999999996,13704.29,0.0,-0.06053009150155331,0.0,0.0,0.0,0.0,-0.9137199105646341,-2.041382817468798,-1.210659185182759,0.017072457637920382,-0.008789704375901281,-0.3076454170297387
6054,1.0,300.15109,13546.045,0.0,-0.06054008748897255,0.0,0.0,0.0,0.0,-0.8829377372966702,-2.037213597282328,-1.197508212134859,-0.0018135728855607084,-0.007813726275529743,-0.34253267175284263
6055,1.0,299.69337,13616.886,0.0,-0.0605500834763919,0.0,0.0,0.0,0.0,-0.8512316420575222,-2.051960641887748,-1.2360009754837988,0.001181573131787189,-0.006023722195245094,-0.33607108467263364
6056,1.0,299.40425,13744.527,0.0,-0.060560079463811145,0.0,0.0,0.0,0.0,-0.8644790562499401,-2.064366977437158,-1.2491470849312187,-0.009514798914412542,0.002032199123862438,-0.3425318510202617
6057,1.0,299.56462,13637.028,0.0,-0.06057010844128785,0.0,0.0,0.0,0.0,-0.8794915622490591,-2.039167650100178,-1.2266568843866088,-0.016057804186531882,0.017783856480129985,-0.3348595415280637
6058,1.0,299.58485,13645.983999999999,0.0,-0.060580104428707315,0.0,0.0,0.0,0.0,-0.9238789181872501,-2.039546099012528,-1.1846132873872288,-0.013501884862282288,0.002097897855046398,-0.32846009707648766
6059,1.0,299.86125,13648.673999999999,0.0,-0.06059010041612645,0.0,0.0,0.0,0.0,-0.9094491424531421,-2.026708929520598,-1.212698047033979,0.007427676771529623,-0.024373639962990978,-0.3462249956472467
6060,1.0,299.64653,13663.538999999999,0.0,-0.06060009640354591,0.0,0.0,0.0,0.0,-0.8771023286457602,-2.044964656572298,-1.231307702345609,0.01178485860057499,0.001103750660506709,-0.3317997086110817
6061,1.0,300.60033,13814.437,0.0,-0.060610092390965264,0.0,0.0,0.0,0.0,-0.8890563392180292,-2.059017016909158,-1.251170646705929,0.013884382722031886,-0.002837000576190157,-0.36692099370978265
6062,1.0,300.8467,13865.292,0.0,-0.06062008837838451,0.0,0.0,0.0,0.0,-0.8966744499623781,-2.062952885597598,-1.255075104641269,0.0015463241186853085,-0.01256052283037709,-0.3399035917183727
6063,1.0,300.14886,13574.538,0.0,-0.06063008436580386,0.0,0.0,0.0,0.0,-0.9008318049901771,-2.040940635125158,-1.184548135405799,-0.023010193403179276,-0.011447947876074489,-0.3563424194857586
6064,1.0,300.12739,13439.64,0.0,-0.06064008035322299,0.0,0.0,0.0,0.0,-0.8772752195103232,-2.031589147302238,-1.1764506459066388,0.004576849688449896,0.0024540375333196476,-0.3157256103496917
6065,1.0,300.33439,13803.963,0.0,-0.06065010933069981,0.0,0.0,0.0,0.0,-0.9142854358429471,-2.066818738704128,-1.2149558722318088,0.0003971109020292946,0.012196338452934889,-0.3275973652788427
6066,1.0,299.22427999999996,13989.595,0.0,-0.06066010531811927,0.0,0.0,0.0,0.0,-0.9063916400113902,-2.0785733517892178,-1.2675225781447386,-0.002388741670375448,0.006768331728032333,-0.3255854052177777
6067,1.0,299.90333,13753.573999999999,0.0,-0.060670101305538404,0.0,0.0,0.0,0.0,-0.8643305745802863,-2.071057873147498,-1.2453546924569387,1.952671048688628e-06,-0.009201912856408092,-0.35221890701129965
6068,1.0,299.95833999999996,13483.812,0.0,-0.06068009729295776,0.0,0.0,0.0,0.0,-0.8212065388667752,-2.0612866971331583,-1.2162488806844187,-0.0006168395564398243,0.013371449176909288,-0.34423426317577666
6069,1.0,299.69577000000004,13563.702,0.0,-0.06069009328037722,0.0,0.0,0.0,0.0,-0.8867583082562311,-2.038590604168228,-1.1976777288765887,0.0054948282385223245,0.02198479544773038,-0.34029332823683667
6070,1.0,299.56606,13821.183,0.0,-0.06070008926779635,0.0,0.0,0.0,0.0,-0.9308586104410921,-2.0443787953644783,-1.2260572429774288,-0.0015707863065745386,0.0010067538293688672,-0.3297758124638387
6071,1.0,299.99297,13829.711000000001,0.0,-0.06071008525521582,0.0,0.0,0.0,0.0,-0.9155151465618101,-2.060062792337368,-1.2283088873496488,-0.004418178167840236,-0.004048938989624166,-0.3384335786057937
6072,1.0,300.04382999999996,13631.441,0.0,-0.06072008124263495,0.0,0.0,0.0,0.0,-0.8718858030234292,-2.043412560069118,-1.228319121175659,0.022291059409706278,-0.011636563368939389,-0.3322684279748407
6073,1.0,300.52996,13622.535,0.0,-0.060730110220111766,0.0,0.0,0.0,0.0,-0.8567630351484281,-2.049641920358908,-1.234505519661209,0.02556468201828768,0.004792514196709325,-0.35848188693940763
6074,1.0,300.02603999999997,13912.073999999999,0.0,-0.06074010620753112,0.0,0.0,0.0,0.0,-0.913121008828027,-2.073081637572228,-1.242720444846959,0.0004681999717577395,-0.012880998638255588,-0.33887308596916965
6075,1.0,300.19379,13955.868,0.0,-0.060750102194950584,0.0,0.0,0.0,0.0,-0.95443995975339,-2.056076261143928,-1.231719081886209,-0.007911645853268654,-0.02143862020657708,-0.34603977352896664
6076,1.0,300.22462,13693.081,0.0,-0.06076009818236994,0.0,0.0,0.0,0.0,-0.915421988347616,-2.042997735478178,-1.2039350548691388,-0.005173207559355835,0.006198288367523433,-0.3192250519550597
6077,1.0,300.18711,13542.933,0.0,-0.06077009416978918,0.0,0.0,0.0,0.0,-0.8789237672905221,-2.0433356543865284,-1.1944539723584289,0.006810780219771674,0.016601236559664487,-0.34382392728277966
6078,1.0,300.20123,13809.351,0.0,-0.06078009015720831,0.0,0.0,0.0,0.0,-0.9032325592471132,-2.051002411268178,-1.2434629545202387,-0.0030454373688362673,0.0044697300024530056,-0.3132460657649797
6079,1.0,299.94826,13920.669,0.0,-0.060790086144627664,0.0,0.0,0.0,0.0,-0.8835278946849142,-2.0884922596681377,-1.2595155718795088,-0.013086052087492788,-0.02026698999669618,-0.35386204403596466
6080,1.0,299.60804,13698.793,0.0,-0.060800082132046906,0.0,0.0,0.0,0.0,-0.8765865235498542,-2.049824913326968,-1.2376794242744489,-0.0008249712797458262,0.004178784456813916,-0.34002697518304964
6081,1.0,299.40464,13632.168,0.0,-0.06081007811946626,0.0,0.0,0.0,0.0,-0.8860936972506391,-2.050000104269258,-1.207744976570149,0.01004185534207896,0.017944826457266482,-0.3401651520991867
6082,1.0,299.84951,13726.127,0.0,-0.06082010709694308,0.0,0.0,0.0,0.0,-0.9155133328441312,-2.049663603911048,-1.2072230514436388,0.01997870615774478,0.007539308561546822,-0.3511845610442177
6083,1.0,299.96862999999996,13839.18,0.0,-0.06083010308436243,0.0,0.0,0.0,0.0,-0.9048659690708181,-2.062933735170708,-1.2389654413013687,0.01053070930255009,-0.0003430341393598337,-0.3446368477055087
6084,1.0,300.21218,13807.266000000001,0.0,-0.060840099071781895,0.0,0.0,0.0,0.0,-0.8929088782182452,-2.066383851761208,-1.2377713260585188,0.005376274126471944,0.0030089731321875273,-0.35441380937791966
6085,1.0,299.74509,13704.396,0.0,-0.060850095059201026,0.0,0.0,0.0,0.0,-0.8527189716143102,-2.071191926135728,-1.2418833989393487,0.0035578260893800963,-8.371945007371642e-05,-0.34234478478679964
6086,1.0,299.65724,13695.083,0.0,-0.06086009104662027,0.0,0.0,0.0,0.0,-0.8825682860452081,-2.060266860907508,-1.220128007367259,-0.018977910927973983,-0.004957239987991495,-0.36424926597860363
6087,1.0,300.07718,13848.271999999999,0.0,-0.06087008703403962,0.0,0.0,0.0,0.0,-0.9254226047146001,-2.0715323781693282,-1.212573923896729,-0.00891281882267673,-0.013018370020563089,-0.3401612409538007
6088,1.0,300.27957000000004,13843.141000000001,0.0,-0.060880083021458864,0.0,0.0,0.0,0.0,-0.9143446197812881,-2.061444966798778,-1.2321797053816688,-0.005959377368844754,-0.002423371012418098,-0.3332421106584357
6089,1.0,299.77886,13756.646999999999,0.0,-0.06089007900887844,0.0,0.0,0.0,0.0,-0.9015125570698622,-2.0582628548597284,-1.221901904317329,0.002397127530853068,0.014376268022827187,-0.3283671415123137
6090,1.0,299.63716,13752.663,0.0,-0.060900107986355034,0.0,0.0,0.0,0.0,-0.8740577046127792,-2.058837570316448,-1.2475709744006687,0.004497766024769946,-0.0023490582368339975,-0.33653784846369966
6091,1.0,299.40108,13760.61,0.0,-0.06091010397377439,0.0,0.0,0.0,0.0,-0.8769730176679982,-2.056869230672188,-1.2490394777705986,-0.0004912605206511386,-0.011526626746339488,-0.34721389734734365
6092,1.0,300.25191,13736.809,0.0,-0.06092009996119374,0.0,0.0,0.0,0.0,-0.8817946695938581,-2.049820252376508,-1.2440318944513888,0.003207762669306527,0.002173709632828438,-0.32522184094939666
6093,1.0,300.48062000000004,13778.067,0.0,-0.06093009594861298,0.0,0.0,0.0,0.0,-0.9098393146691492,-2.061017780556618,-1.2173312344412388,-0.01239395464643809,0.006880258272503623,-0.3416933662975096
6094,1.0,300.013,13898.678999999998,0.0,-0.060940091936032226,0.0,0.0,0.0,0.0,-0.9148136532525781,-2.059694678576038,-1.250343125349259,-0.011991704489239089,-0.0006964667274734143,-0.3382259940578067
6095,1.0,300.05987000000005,13869.296,0.0,-0.06095008792345158,0.0,0.0,0.0,0.0,-0.9285793955336511,-2.069863048629578,-1.2174770411306288,-0.012802089760217886,0.0013633289214750887,-0.35549036734416767
6096,1.0,300.77987,13766.226999999999,0.0,-0.06096008391087093,0.0,0.0,0.0,0.0,-0.8745856484448832,-2.0619561514742277,-1.2480474045976886,0.004053485138847836,0.010202921881949989,-0.3399231778428057
6097,1.0,300.40328999999997,13784.794,0.0,-0.0609700798982904,0.0,0.0,0.0,0.0,-0.8689169295679241,-2.077443071302668,-1.243873016835709,-0.0042527516127889055,-0.00913175531815908,-0.34594613908722566
6098,1.0,299.80159,13793.976999999999,0.0,-0.0609801088757671,0.0,0.0,0.0,0.0,-0.8963621460165561,-2.061160446170698,-1.235502051134559,-0.0038850955365290762,-0.021705400851906278,-0.3370841929176197
6099,1.0,299.87088,13782.203000000001,0.0,-0.060990104863186345,0.0,0.0,0.0,0.0,-0.914857638439419,-2.061417609046078,-1.2131703229055888,0.011960520704161488,0.0017761182982642286,-0.3373720876685327
6100,1.0,299.68924,13793.722,0.0,-0.0610001008506057,0.0,0.0,0.0,0.0,-0.9036431889826393,-2.0602784119586484,-1.2290254578203688,0.014048058076935387,0.019155638035264284,-0.3265750465904477
6101,1.0,299.75372999999996,13802.048999999999,0.0,-0.06101009683802494,0.0,0.0,0.0,0.0,-0.9089913965879662,-2.066000640573388,-1.2204861912776088,-0.003926009258341946,0.018159932360745784,-0.32815639562401466
6102,1.0,299.86148,13867.341,0.0,-0.06102009282544407,0.0,0.0,0.0,0.0,-0.8738236235746772,-2.0908039897712882,-1.2506979655342787,-0.028008772982000673,0.0038254392209914564,-0.3497675814418727
6103,1.0,299.78301,13911.078000000001,0.0,-0.06103008881286354,0.0,0.0,0.0,0.0,-0.8978041022338661,-2.082903172116538,-1.2479131489594388,-0.005943422530120135,0.008460773907863373,-0.35851057204973863
6104,1.0,299.87961,13853.661,0.0,-0.06104008480028289,0.0,0.0,0.0,0.0,-0.9008655158210042,-2.071134778830088,-1.2391668754212488,0.005073639525029235,0.004572141824510266,-0.3325216695723337
6105,1.0,300.35298,13736.995,0.0,-0.06105008078770224,0.0,0.0,0.0,0.0,-0.8986893788462361,-2.064797304754628,-1.2122169558864988,0.007224940017321062,-0.006918173077995525,-0.35042832183208267
6106,1.0,300.11143,13830.741000000002,0.0,-0.06106010976517906,0.0,0.0,0.0,0.0,-0.9015230442083971,-2.079971028977158,-1.222705715621659,-0.0035816386826302165,-0.02764599904869768,-0.34896229079239666
6107,1.0,300.15783999999996,13861.729,0.0,-0.0610701057525983,0.0,0.0,0.0,0.0,-0.9158245323473442,-2.070688340836028,-1.2271065647809887,0.0007014906545167373,-0.01149022674974709,-0.35188935754877565
6108,1.0,300.54596000000004,13754.386,0.0,-0.061080101740017656,0.0,0.0,0.0,0.0,-0.8623048748478651,-2.074005316363388,-1.2446798678903388,0.011593012866391288,-0.0018487713701845284,-0.3426658026834817
6109,1.0,300.58081,13656.534,0.0,-0.0610900977274369,0.0,0.0,0.0,0.0,-0.8724559791197012,-2.052430485959118,-1.2263587862071887,-0.004662527786430665,-0.006637859970955774,-0.33676486714860465
6110,1.0,300.47909,13864.989,0.0,-0.06110009371485603,0.0,0.0,0.0,0.0,-0.9053245660660783,-2.066970523569108,-1.2423153474569788,-0.013925126521802986,-0.01962806285463898,-0.3373756340438827
6111,1.0,300.02222,14063.91,0.0,-0.061110089702275605,0.0,0.0,0.0,0.0,-0.93407819236884,-2.087053951151188,-1.2539453307797688,-0.004341327200755636,0.0006456592871791104,-0.3323069213461397
6112,1.0,299.97115,13964.577,0.0,-0.06112008568969485,0.0,0.0,0.0,0.0,-0.9299376572927012,-2.0715307569691683,-1.2434141158654188,-0.0015837919795580985,0.02221036721149258,-0.3342616935715607
6113,1.0,299.54521,13889.296,0.0,-0.0611300816771142,0.0,0.0,0.0,0.0,-0.9072796929290342,-2.078953117926698,-1.2357663067606386,-0.002320161458557108,0.008546570556105842,-0.3282878040294837
6114,1.0,299.98381,13882.948999999999,0.0,-0.06114011065459102,0.0,0.0,0.0,0.0,-0.8758288860525811,-2.083707490045918,-1.2605333816049589,-0.004426963451507276,-0.001052314235080329,-0.3617796107148677
6115,1.0,300.56113999999997,13899.696000000002,0.0,-0.06115010664201026,0.0,0.0,0.0,0.0,-0.9111123215647852,-2.0760526895154476,-1.2379955583056488,-0.0015482136274717886,0.02567594194551818,-0.3357369451871567
6116,1.0,300.11946,13796.213,0.0,-0.061160102629429614,0.0,0.0,0.0,0.0,-0.8942496006180642,-2.069405667534438,-1.2300491443963988,0.025048053150050376,0.015021201711477184,-0.35821959701852163
6117,1.0,299.56747,13745.695,0.0,-0.061170098616848745,0.0,0.0,0.0,0.0,-0.8980294287911043,-2.051812808698158,-1.228505761844079,0.007735956189279433,-0.006623471414235733,-0.3233978083843787
6118,1.0,299.65162000000004,13738.466999999999,0.0,-0.06118009460426821,0.0,0.0,0.0,0.0,-0.8863852498344131,-2.0659868603720284,-1.223778747477559,-0.0028219821832079577,-0.031017805591969073,-0.35986302788571567
6119,1.0,299.49235,13931.673,0.0,-0.06119009059168756,0.0,0.0,0.0,0.0,-0.9040454999348442,-2.079067513862988,-1.2517678563148686,-0.002315032589200928,-0.005038028444964695,-0.3253191433564997
6120,1.0,299.58791,13979.046999999999,0.0,-0.061200086579106805,0.0,0.0,0.0,0.0,-0.8850720270423083,-2.095382562998158,-1.268826529698429,0.004346818509672586,0.007377912715393293,-0.3585191036155807
6121,1.0,300.17933,13883.931999999999,0.0,-0.06121008256652616,0.0,0.0,0.0,0.0,-0.904790755515895,-2.074968106608408,-1.240609844888659,-0.009919399406543501,0.003888668155056666,-0.3189223536201857
6122,1.0,300.21482000000003,13985.756000000001,0.0,-0.0612200785539454,0.0,0.0,0.0,0.0,-0.899031958705046,-2.0927154860849377,-1.2595731244851887,-0.013861421461515786,-0.002154473484979978,-0.35409434175389065
6123,1.0,300.25966,14071.692,0.0,-0.06123010753142211,0.0,0.0,0.0,0.0,-0.9275372576733001,-2.0944468265308083,-1.2554590251041589,-0.004164488916453056,0.026482210381340677,-0.3310823782027867
6124,1.0,300.32741,13820.556,0.0,-0.06124010351884157,0.0,0.0,0.0,0.0,-0.893308899225224,-2.074103702948098,-1.2336914745308687,0.0013236953398385587,0.017764226785942683,-0.3435214315979257
6125,1.0,300.44442000000004,13725.783000000001,0.0,-0.0612500995062607,0.0,0.0,0.0,0.0,-0.8936216591335913,-2.048533120774478,-1.2301405395554188,-0.0006643524545639823,-0.004304351982081465,-0.34156871627020763
6126,1.0,300.31042,13794.161,0.0,-0.06126009549368017,0.0,0.0,0.0,0.0,-0.8818624864230512,-2.077769641809898,-1.2334484971568886,-0.010953176838994388,-0.025467525519199074,-0.36463042026872067
6127,1.0,299.82867000000005,13873.311000000002,0.0,-0.06127009148109952,0.0,0.0,0.0,0.0,-0.9213545879481182,-2.064927507392478,-1.2308580219512288,0.00960821743255723,0.001169102556181439,-0.3519436069591297
6128,1.0,300.25467000000003,13952.062,0.0,-0.06128008746851865,0.0,0.0,0.0,0.0,-0.9089351612074161,-2.0830602258820377,-1.249083148849909,0.005290844173440665,0.012063860055360288,-0.35384415003919867
6129,1.0,299.98362000000003,13935.965,0.0,-0.061290083455938116,0.0,0.0,0.0,0.0,-0.9177218330270931,-2.077563546739558,-1.2409000397172987,0.005300859340079085,-0.01119116395623189,-0.3338486016382917
6130,1.0,299.91285,13876.812,0.0,-0.06130007944335725,0.0,0.0,0.0,0.0,-0.8983643484791581,-2.076728223357118,-1.2431115593855588,-0.004752868152096565,-0.015693874134864786,-0.3367101719082067
6131,1.0,300.17422,13978.761,0.0,-0.061310108420834064,0.0,0.0,0.0,0.0,-0.9038076496063702,-2.095676912152208,-1.2497096413867388,0.0030242154534418273,0.016728122829937183,-0.34302741137916964
6132,1.0,300.14177,14023.313999999998,0.0,-0.06132010440825342,0.0,0.0,0.0,0.0,-0.9068039010795772,-2.0977830538100677,-1.2581503186947687,-0.0036600036480142362,0.012755947363913988,-0.34513682583485267
6133,1.0,299.67323999999996,13869.533000000001,0.0,-0.06133010039567266,0.0,0.0,0.0,0.0,-0.9151255012358551,-2.0748763061493483,-1.225989963170789,-0.02454770214466958,-0.0017725091014080285,-0.3543839083674687
6134,1.0,299.29451,13840.604,0.0,-0.06134009638309201,0.0,0.0,0.0,0.0,-0.8879057228019721,-2.085956499967878,-1.233335621095749,-0.007720765037155182,-0.005516056537392395,-0.3609311252136287
6135,1.0,299.39677,13825.508999999998,0.0,-0.06135009237051148,0.0,0.0,0.0,0.0,-0.907363255664781,-2.0738943654774378,-1.2213521148130688,0.01946343403139138,0.00921777812382387,-0.3658984419738647
6136,1.0,299.96763,13849.08,0.0,-0.06136008835793061,0.0,0.0,0.0,0.0,-0.8858612171476952,-2.086993865420258,-1.2369194866994488,0.022537933743570878,0.009883166900192631,-0.34134655105328165
6137,1.0,300.51991,13824.169,0.0,-0.06137008434535007,0.0,0.0,0.0,0.0,-0.8925799468382821,-2.065574872881368,-1.2440471945278988,0.007677431167478463,-0.026239779149164574,-0.34323589771974566
6138,1.0,300.35407000000004,13963.193000000001,0.0,-0.06138008033276943,0.0,0.0,0.0,0.0,-0.9005475579396242,-2.0957372005331583,-1.2481772019354986,-0.008744459313885941,-0.018323187216857783,-0.3329753928346127
6139,1.0,300.01696,14052.625,0.0,-0.06139010931024602,0.0,0.0,0.0,0.0,-0.9354290270046571,-2.086408206862458,-1.2498099531466387,-0.002810423735342227,0.022749357496186777,-0.3455288421660417
6140,1.0,299.72367,14077.735,0.0,-0.061400105297665375,0.0,0.0,0.0,0.0,-0.9222033774243871,-2.092539281892548,-1.2645372393751089,0.0012970275091316486,0.013927097293247486,-0.3375842318419697
6141,1.0,300.13606,13907.582,0.0,-0.06141010128508473,0.0,0.0,0.0,0.0,-0.9234233508097891,-2.076589509418428,-1.227544694124229,-0.011343009616217889,0.014197673573451287,-0.34149104051754164
6142,1.0,300.0391,13887.982,0.0,-0.06142009727250397,0.0,0.0,0.0,0.0,-0.8887224327800752,-2.082797388806098,-1.2500799842982888,-0.007832496834957252,-0.009540177587017222,-0.34020173042779667
6143,1.0,299.726,13967.428999999998,0.0,-0.061430093259923324,0.0,0.0,0.0,0.0,-0.908128695187824,-2.0828972952659583,-1.2547238108315988,0.01006206654049865,0.007312104958498573,-0.34362485403563264
6144,1.0,300.00628,13904.906,0.0,-0.061440089247342566,0.0,0.0,0.0,0.0,-0.9005726561446011,-2.0908096639718483,-1.2353619186457288,0.00101151887101164,-0.009246463436804893,-0.3511158829524397
6145,1.0,299.61014,13846.204,0.0,-0.06145008523476192,0.0,0.0,0.0,0.0,-0.8983460390498511,-2.072711294660678,-1.2378430641655989,0.007646962027696392,-0.015660246390545984,-0.3350757083043977
6146,1.0,299.53127,13906.032,0.0,-0.06146008122218116,0.0,0.0,0.0,0.0,-0.9033887517500281,-2.091304940620728,-1.232392791877699,0.005228814724843835,-0.0048676299729976755,-0.3534307136008956
6147,1.0,299.09914,14051.455,0.0,-0.06147011019965798,0.0,0.0,0.0,0.0,-0.9217524507323841,-2.093749811787018,-1.255789344636759,0.002851388119660097,0.015366085701014586,-0.32957729650424666
6148,1.0,298.9892,14056.627,0.0,-0.06148010618707733,0.0,0.0,0.0,0.0,-0.9040179901946291,-2.1035458124288082,-1.2652998114003688,-0.007288701515638832,0.00973851116159122,-0.34357842691605067
6149,1.0,299.39808,13900.18,0.0,-0.061490102174496686,0.0,0.0,0.0,0.0,-0.8843757722360931,-2.090618970303028,-1.2503128291712688,-0.021500582476692277,-0.0038151799624039466,-0.32046387179232166
6150,1.0,300.15324,13761.017,0.0,-0.06150009816191593,0.0,0.0,0.0,0.0,-0.8827607832992063,-2.073824957845588,-1.226419783863209,0.0019673666201889682,0.002004585018887138,-0.34917029077292466
6151,1.0,299.98236,13951.633999999998,0.0,-0.06151009414933528,0.0,0.0,0.0,0.0,-0.9084194675690211,-2.092318089395718,-1.2402108269992789,-0.0018489867871557882,0.015256264588926085,-0.3393420181154497
6152,1.0,300.35337999999996,14072.638,0.0,-0.061520090136754524,0.0,0.0,0.0,0.0,-0.928081119664475,-2.109997175815508,-1.2396521208941387,0.0011079256562187489,0.006333618354854464,-0.36669662974013967
6153,1.0,300.3836,13913.163999999999,0.0,-0.06153008612417388,0.0,0.0,0.0,0.0,-0.9009179312486771,-2.094989117984328,-1.2333472734718989,-0.004243761956576697,-0.00881723752219359,-0.3436910293996637
6154,1.0,300.27624,13880.686000000002,0.0,-0.06154008211159323,0.0,0.0,0.0,0.0,-0.8828858690240511,-2.101135999715978,-1.235360196120559,-0.0049396173396022754,0.004223028731705486,-0.3568196096203537
6155,1.0,300.23298,14085.656,0.0,-0.061550111089069826,0.0,0.0,0.0,0.0,-0.9226323368542222,-2.097755898707388,-1.2612992973555488,0.010698977720156889,0.009096371510091971,-0.3285301937184057
6156,1.0,299.59847,14174.508999999998,0.0,-0.06156010707648929,0.0,0.0,0.0,0.0,-0.9368701118268812,-2.103868937885698,-1.2679575664126688,-0.009194075569534612,-0.012981951785468886,-0.3375407634126797
6157,1.0,299.17274,14113.032,0.0,-0.06157010306390864,0.0,0.0,0.0,0.0,-0.9170962321503512,-2.107334455877718,-1.2655787591528989,-0.014537575412246987,-0.023987196507351975,-0.33621058894640166
6158,1.0,299.3046,13976.367,0.0,-0.061580099051327886,0.0,0.0,0.0,0.0,-0.9165448011809292,-2.090503358466618,-1.2414183171434487,-0.003941813730751726,-0.020628388949613483,-0.3322819143336717
6159,1.0,299.41902000000005,13926.982,0.0,-0.06159009503874724,0.0,0.0,0.0,0.0,-0.9059483228276382,-2.086184379915368,-1.2413220583839488,0.017579874036248486,0.02019332975417648,-0.33428271851113567
6160,1.0,299.37197000000003,13954.825,0.0,-0.06160009102616648,0.0,0.0,0.0,0.0,-0.9043273151851571,-2.084138830613488,-1.2534521819560989,0.003743334856113387,-0.002126440806388368,-0.3334996180388497
6161,1.0,300.0051,13977.065,0.0,-0.061610087013585835,0.0,0.0,0.0,0.0,-0.9099114986062731,-2.095833256642638,-1.2429340379680387,-0.004184856864663216,0.004635131530226866,-0.33844380229930265
6162,1.0,300.14435,13991.311000000002,0.0,-0.06162008300100519,0.0,0.0,0.0,0.0,-0.9028366115055362,-2.093913249028148,-1.2562592900331386,-0.01084661028622709,0.007240553998712044,-0.34311160232997867
6163,1.0,300.54077,14090.128,0.0,-0.06163011197848178,0.0,0.0,0.0,0.0,-0.926986799423974,-2.115057042839878,-1.2410031885774788,0.011272381017997388,0.019221306774245283,-0.3711201655692086
6164,1.0,300.6918,14114.641000000001,0.0,-0.06164010796590136,0.0,0.0,0.0,0.0,-0.9424253770901431,-2.1057495300712983,-1.242323453457779,0.0014912565088755585,-0.0012449196028639989,-0.35591641874621566
6165,1.0,300.34655,14005.107,0.0,-0.0616501039533206,0.0,0.0,0.0,0.0,-0.9203633456402901,-2.099397161219368,-1.2374423237510488,-0.005581676741693605,-0.027271424804730073,-0.36730768034544564
6166,1.0,299.74951,13947.527,0.0,-0.06166009994073973,0.0,0.0,0.0,0.0,-0.886963572461489,-2.097959258002458,-1.2547770064618486,0.005091991206865406,-0.013147084194016188,-0.3330431184712967
6167,1.0,299.69656000000003,13906.2,0.0,-0.061670095928159196,0.0,0.0,0.0,0.0,-0.9143684716886421,-2.0783253081647377,-1.2344438127301187,0.010112713137472081,0.01202856652787709,-0.33499862023678967
6168,1.0,300.15788,14010.793,0.0,-0.06168009191557833,0.0,0.0,0.0,0.0,-0.9026820402027812,-2.1011126949636783,-1.2551364062723187,0.016638115823554185,0.004815885519540896,-0.3216637524282407
6169,1.0,300.10643,13932.695,0.0,-0.06169008790299779,0.0,0.0,0.0,0.0,-0.9050263868266502,-2.099279117582718,-1.2308859876539888,-0.0008628084500150641,-0.008943083792563653,-0.35503278359900764
6170,1.0,299.74504,13966.874,0.0,-0.061700083890416924,0.0,0.0,0.0,0.0,-0.9018705991251981,-2.101726420549248,-1.2419840146742789,0.008317742510497272,0.009239747615142091,-0.33968842805963767
6171,1.0,300.24425,14132.861,0.0,-0.06171007987783639,0.0,0.0,0.0,0.0,-0.920367003473151,-2.118864938040688,-1.2568047225619687,0.010024697876810651,0.02322845456746998,-0.3603410083553887
6172,1.0,299.84724,14141.998,0.0,-0.061720108855313316,0.0,0.0,0.0,0.0,-0.9142115091156511,-2.111639755552618,-1.2729630219066688,0.012599756887499187,0.014865331422093985,-0.3341460614701487
6173,1.0,299.6528,14047.568000000001,0.0,-0.06173010484273256,0.0,0.0,0.0,0.0,-0.920640510072644,-2.108339498651908,-1.2411297435149689,0.00016787711055068084,0.00011326560514094489,-0.3548197072354787
6174,1.0,300.22522999999995,14084.069,0.0,-0.06174010083015169,0.0,0.0,0.0,0.0,-0.9075829080214592,-2.109822288848248,-1.2638002012523688,-0.017420557683275183,-0.0019128548793840782,-0.34879551995843766
6175,1.0,300.13183,14049.337,0.0,-0.061750096817571154,0.0,0.0,0.0,0.0,-0.9280963386809771,-2.095254386860508,-1.2472967889236088,0.0012765768797133288,0.00949312701464869,-0.3587984769331527
6176,1.0,300.31722,14090.045,0.0,-0.061760092804990285,0.0,0.0,0.0,0.0,-0.9151761637408552,-2.105450418641778,-1.2623951273386989,-0.009632096596338922,-0.0075859151277215325,-0.34500431298677464
6177,1.0,300.49712999999997,14026.951000000001,0.0,-0.06177008879240986,0.0,0.0,0.0,0.0,-0.9048743385166442,-2.099989203252798,-1.2589792586015789,-0.0017738841831187384,-0.006616724789769894,-0.34243411291561565
6178,1.0,300.10434,13906.875,0.0,-0.0617800847798291,0.0,0.0,0.0,0.0,-0.883767072371019,-2.086790202150158,-1.256785369485059,-0.007954153822788862,0.002217093455735088,-0.3210871219288317
6179,1.0,300.33184,14102.905,0.0,-0.061790080767248234,0.0,0.0,0.0,0.0,-0.9276910082434741,-2.1005587511340083,-1.2586812617471688,0.009155496983902202,0.01038304937872719,-0.32545820180022367
6180,1.0,300.38548,14279.614,0.0,-0.06180010974472527,0.0,0.0,0.0,0.0,-0.9370061609178081,-2.125002295221398,-1.2786376277667089,-0.01062832277743379,-0.0059539424979583744,-0.3433706701155467
6181,1.0,299.24802999999997,14195.294,0.0,-0.061810105732144405,0.0,0.0,0.0,0.0,-0.9384328575886122,-2.120701757821968,-1.255880435820749,0.0007312097561772843,-0.02223055621973508,-0.3540676730112587
6182,1.0,299.93249,14144.316,0.0,-0.06182010171956365,0.0,0.0,0.0,0.0,-0.9216740859696501,-2.119522841330618,-1.2583219632617089,-0.0013280196886153387,-0.0036231492087519866,-0.36961057490772364
6183,1.0,299.73897,14111.357,0.0,-0.061830097706983,0.0,0.0,0.0,0.0,-0.9195250331700552,-2.112877136574738,-1.2570979571409089,0.002050750111993278,0.005573029462690184,-0.35008278328298065
6184,1.0,299.44906000000003,14052.418,0.0,-0.061840093694402465,0.0,0.0,0.0,0.0,-0.9185549779218181,-2.096362679819888,-1.2566666165733387,0.008778813659851451,0.0026700145279099172,-0.3452851453844907
6185,1.0,300.0498,14033.053999999998,0.0,-0.06185008968182182,0.0,0.0,0.0,0.0,-0.9033052802067901,-2.0979441605759677,-1.2644486813163687,-0.004858027503124985,0.003061845738305647,-0.3334655525704877
6186,1.0,299.86255,13852.271,0.0,-0.06186008566924106,0.0,0.0,0.0,0.0,-0.8914134325281561,-2.080661660245318,-1.2386695722721688,0.0024469589681210473,0.019447828966601282,-0.35074154783549566
6187,1.0,300.29992999999996,13941.17,0.0,-0.06187008165666019,0.0,0.0,0.0,0.0,-0.8980857452316622,-2.095489359558698,-1.2441925959172488,-0.005862546933638334,0.003473099939868277,-0.34761976480739964
6188,1.0,300.41966,14113.271,0.0,-0.06188011063413723,0.0,0.0,0.0,0.0,-0.9233184388944352,-2.112171002580048,-1.2545924936186388,-0.017940022638542382,-0.01903868465572188,-0.3619976621363877
6189,1.0,299.85635,14189.388,0.0,-0.06189010662155636,0.0,0.0,0.0,0.0,-0.9243221036484891,-2.119714750899558,-1.2691827884335887,-0.00892110437139445,-0.022881510640479278,-0.3367266068248287
6190,1.0,299.5668,14192.202,0.0,-0.061900102608975605,0.0,0.0,0.0,0.0,-0.9244394380100691,-2.1208069331823483,-1.2688286575236387,-0.002983861248334177,-0.004259451830400166,-0.3439459631248237
6191,1.0,300.49132000000003,14237.066,0.0,-0.06191009859639496,0.0,0.0,0.0,0.0,-0.9106280082819872,-2.137051865410598,-1.2800326705043887,0.018019586076144685,0.0030703422456941874,-0.3375457384706707
6192,1.0,299.21719,14171.118,0.0,-0.06192009458381431,0.0,0.0,0.0,0.0,-0.9151869852519231,-2.129049722745848,-1.263429250390759,0.007858147565213783,-0.004074649501636596,-0.36101714001461765
6193,1.0,299.75389,14076.085,0.0,-0.061930090571233776,0.0,0.0,0.0,0.0,-0.925402917265157,-2.111352499149268,-1.2420228221531089,0.0074759548963943025,0.0006481852791484063,-0.35966632564380263
6194,1.0,299.3221,13934.476,0.0,-0.06194008655865291,0.0,0.0,0.0,0.0,-0.8930533372850021,-2.099902469044238,-1.2427769842025387,0.0028878219588058377,0.014762689186963987,-0.3622833480020826
6195,1.0,299.42067000000003,13842.615,0.0,-0.06195008254607215,0.0,0.0,0.0,0.0,-0.9002370474464793,-2.069503547494098,-1.2380687149628689,0.003261819055516477,0.011394445231044189,-0.34658934011820464
6196,1.0,299.70591,13959.223,0.0,-0.06196011152354908,0.0,0.0,0.0,0.0,-0.895118077543776,-2.0903608955025583,-1.2577762267578487,-0.016375560431141984,-0.007809407904928553,-0.35026322286078865
6197,1.0,300.12302,14114.043,0.0,-0.06197010751096832,0.0,0.0,0.0,0.0,-0.9146469938761301,-2.107493232168388,-1.2681765297592789,-0.013670600123183186,-0.00968937825894218,-0.3420502431152307
6198,1.0,299.92888,14231.306999999999,0.0,-0.06198010349838756,0.0,0.0,0.0,0.0,-0.9261413131430312,-2.122599271284238,-1.2772214081019386,0.01043048873515909,0.02225118801827128,-0.3529225788082467
6199,1.0,299.85777,14357.618999999999,0.0,-0.061990099485806915,0.0,0.0,0.0,0.0,-0.9628660766574831,-2.1380817328122377,-1.2634097959888386,0.0044940898520821355,0.013715583361372687,-0.3489256010062756
6200,1.0,300.22409,14294.726999999999,0.0,-0.06200009547322627,0.0,0.0,0.0,0.0,-0.9299015146616342,-2.133470026307098,-1.2818684770355686,0.00974263113782283,-0.00023728482346068876,-0.3634896222461326
6201,1.0,300.66919,14148.271999999999,0.0,-0.06201009146064562,0.0,0.0,0.0,0.0,-0.9271636520964281,-2.124768234448298,-1.2487895089709289,-0.002142869440859748,-0.011322838846477189,-0.34728609141696865
6202,1.0,301.08068,14078.538999999999,0.0,-0.062020087448064865,0.0,0.0,0.0,0.0,-0.8904289080684912,-2.108420457334898,-1.2806748684177687,0.03362789529306487,0.011659045362158189,-0.3251435572466707
6203,1.0,299.75083,13978.958999999999,0.0,-0.06203008343548411,0.0,0.0,0.0,0.0,-0.8985831801032551,-2.0899342158854477,-1.260737044875059,0.00973165692996476,-0.0009590901089673241,-0.34411937074693766
6204,1.0,299.30092,13983.353000000001,0.0,-0.062040112412961035,0.0,0.0,0.0,0.0,-0.899759168301816,-2.097000014132788,-1.253831137493499,-0.005318928426462365,-0.012046856705432188,-0.34701464171517865
6205,1.0,299.3263,14068.345,0.0,-0.06205010840038028,0.0,0.0,0.0,0.0,-0.9294060150977322,-2.1010978001872083,-1.2459219098629188,-0.01743043991150048,-0.011116320237595389,-0.3591118346590787
6206,1.0,299.44661,14152.363000000001,0.0,-0.06206010438779941,0.0,0.0,0.0,0.0,-0.9079398355016852,-2.1213563173865677,-1.2726688754026387,-0.0037345247478188966,0.018246061658996084,-0.35313881651208767
6207,1.0,299.62358,14216.836000000001,0.0,-0.062070100375218984,0.0,0.0,0.0,0.0,-0.9385760703577462,-2.121051734406508,-1.261935415768329,-0.0030083075281968374,0.011053352823380989,-0.3614415398190026
6208,1.0,300.12366000000003,14308.367,0.0,-0.062080096362638226,0.0,0.0,0.0,0.0,-0.9315590094402161,-2.1299781638124777,-1.2878490844258088,-0.001962686620627088,-0.007768464596212763,-0.3429873778677187
6209,1.0,300.42734,14276.319,0.0,-0.06209009235005758,0.0,0.0,0.0,0.0,-0.9394995363663852,-2.1343243987914184,-1.2658204193017488,0.003043234056493817,-0.011741187521264988,-0.35109611444298866
6210,1.0,301.12268,14208.598999999998,0.0,-0.06210008833747682,0.0,0.0,0.0,0.0,-0.9196556613729471,-2.130262785765568,-1.269141042529469,0.02340667107455858,0.0002984386719836037,-0.34070340068480764
6211,1.0,300.4773,14153.925,0.0,-0.06211008432489595,0.0,0.0,0.0,0.0,-0.9204641032302341,-2.116012841659208,-1.2659627809407987,0.002012224316691078,0.0033726433865289866,-0.35352996144819065
6212,1.0,299.74471,14214.146999999999,0.0,-0.06212008031231542,0.0,0.0,0.0,0.0,-0.9174870325814201,-2.132775139388518,-1.2704835989119687,-0.007961751476013692,-0.008914348627677711,-0.34606106191356767
6213,1.0,299.86227,14179.899,0.0,-0.062130109289792235,0.0,0.0,0.0,0.0,-0.9269122343491151,-2.115229801981928,-1.2681930457359087,-0.011643613563135188,-0.007347442562361124,-0.3381794960107177
6214,1.0,300.0216,14123.872,0.0,-0.06214010527721159,0.0,0.0,0.0,0.0,-0.9159865814358371,-2.114808897890388,-1.2625091179749488,0.009361364174294711,0.014286039114672288,-0.3348791681825007
6215,1.0,300.11725,14138.795,0.0,-0.06215010126463094,0.0,0.0,0.0,0.0,-0.9176834105833012,-2.116253184582928,-1.2639040593876187,-0.00016480545300503183,-0.001072635067160839,-0.3392204483684517
6216,1.0,300.38629,14177.962,0.0,-0.062160097252050184,0.0,0.0,0.0,0.0,-0.9268551073084771,-2.1175090067568676,-1.2653823912835187,-0.003224466502505067,-0.020732418324130378,-0.3562554218321726
6217,1.0,300.68549,14208.087,0.0,-0.06217009323946954,0.0,0.0,0.0,0.0,-0.9281152459278431,-2.122621664111448,-1.2681668025583188,0.00011534682084634488,-0.008460257454287402,-0.35796943570133266
6218,1.0,300.89564,14232.615,0.0,-0.06218008922688878,0.0,0.0,0.0,0.0,-0.9276202327239891,-2.131183627456448,-1.2675555087729886,1.3971330726362985e-05,0.014984194778074885,-0.3644176580127227
6219,1.0,300.43772,14180.71,0.0,-0.06219008521430791,0.0,0.0,0.0,0.0,-0.9178346381607262,-2.128141951981258,-1.2646052284568188,-0.005876421265932625,0.013946769543938987,-0.3524143629555897
6220,1.0,300.03622,14160.892,0.0,-0.062200081201727486,0.0,0.0,0.0,0.0,-0.9089474114011252,-2.130287407742998,-1.2653228121776388,-0.012507744659168289,-0.00897800221485983,-0.35748825336134366
6221,1.0,299.5963,14218.805,0.0,-0.06221011017920408,0.0,0.0,0.0,0.0,-0.9209519020933761,-2.1399395268705876,-1.2612701157526687,-0.001109446949918889,0.002896524865239747,-0.34654666202399265
6222,1.0,299.24009,14143.65,0.0,-0.062220106166623546,0.0,0.0,0.0,0.0,-0.925455038850301,-2.122964750595308,-1.2508966638788888,-0.002308374016168778,0.016439833924735286,-0.35053878635798463
6223,1.0,299.67266,14129.406,0.0,-0.0622301021540429,0.0,0.0,0.0,0.0,-0.9069267272566991,-2.124673191588918,-1.2633867952115687,-0.0006250795190355453,0.008996373452422931,-0.34712938215650263
6224,1.0,300.17654,14114.258999999998,0.0,-0.06224009814146214,0.0,0.0,0.0,0.0,-0.9112236777507752,-2.1100419614699284,-1.2691166232020588,-0.013970480609529087,-0.01052876284910799,-0.35746303356635467
6225,1.0,300.05096000000003,14194.139,0.0,-0.062250094128881495,0.0,0.0,0.0,0.0,-0.9240868675052732,-2.117162475222668,-1.2734146274762388,-0.0003103960769437077,9.93423875823303e-05,-0.3353899779554137
6226,1.0,299.68526,14189.612,0.0,-0.062260090116300626,0.0,0.0,0.0,0.0,-0.9231462370399401,-2.115855889218718,-1.2742856172621988,0.01715829005389138,0.003453857408544187,-0.34430167470492967
6227,1.0,299.83101,14227.681,0.0,-0.06227008610372009,0.0,0.0,0.0,0.0,-0.9357523956415711,-2.1256720535374978,-1.2634352285663488,0.004269241244916306,0.007356255203780864,-0.3488535386591637
6228,1.0,299.87629,14371.263,0.0,-0.062280082091139444,0.0,0.0,0.0,0.0,-0.9428152858611241,-2.140187469170058,-1.2855022958691988,-0.006140303205375744,-0.015435777042892585,-0.35956516275381867
6229,1.0,300.13208,14406.896,0.0,-0.06229011106861604,0.0,0.0,0.0,0.0,-0.9415224597935322,-2.1458765645065276,-1.2919375485793088,-0.012297330103651988,-0.0053282858924608755,-0.3522170021011116
6230,1.0,299.82001,14301.223,0.0,-0.06230010705603539,0.0,0.0,0.0,0.0,-0.9291996160523621,-2.128524251243988,-1.289490752237829,0.013346720808218786,0.01049057446608909,-0.3508498541386847
6231,1.0,300.05866000000003,14189.472,0.0,-0.062310103043454856,0.0,0.0,0.0,0.0,-0.9310021981127632,-2.115148944623948,-1.2670940746774488,0.007352764759836383,0.009690064735884931,-0.34717560662606467
6232,1.0,300.73316,14146.437,0.0,-0.06232009903087399,0.0,0.0,0.0,0.0,-0.9201539271096221,-2.113637783424808,-1.2663718300061688,0.008427435243798102,-0.007894249362301754,-0.34316803022804765
6233,1.0,300.92253,14078.191,0.0,-0.06233009501829345,0.0,0.0,0.0,0.0,-0.9239744068766741,-2.1060739727533178,-1.2493701012782288,-0.001965822528361578,0.004367509988639676,-0.34658959343072965
6234,1.0,299.94607,14045.43,0.0,-0.06234009100571258,0.0,0.0,0.0,0.0,-0.8961982730778831,-2.1138341512941876,-1.259427621770829,0.005305830649044715,0.011981373391219489,-0.35605250836714664
6235,1.0,299.35033,14182.167,0.0,-0.06235008699313194,0.0,0.0,0.0,0.0,-0.9058821271986052,-2.134838927192198,-1.2703036456942087,-0.0048595644008766654,-0.003982655005182446,-0.3711828350878937
6236,1.0,299.43996,14302.982,0.0,-0.0623600829805514,0.0,0.0,0.0,0.0,-0.9306026128033271,-2.1397721379540684,-1.2773748141670789,-0.002479234732831418,-0.016617947080313684,-0.3523490184566407
6237,1.0,299.60455,14341.598,0.0,-0.06237011195802822,0.0,0.0,0.0,0.0,-0.937814258270061,-2.138023369606478,-1.2836499733613886,-0.005422334550842755,-0.003081487692819157,-0.3537524509051487
6238,1.0,300.37816000000004,14381.226999999999,0.0,-0.06238010794544735,0.0,0.0,0.0,0.0,-0.9450023152744671,-2.146395044582698,-1.2801364273146287,0.02234096400363148,0.008262743193744261,-0.3307637921063447
6239,1.0,300.28749,14322.9,0.0,-0.0623901039328667,0.0,0.0,0.0,0.0,-0.9418559811964481,-2.127374921655558,-1.2845729428774788,-0.0010024651875256108,0.0049057242250822855,-0.35949538021943167
6240,1.0,300.07692000000003,14281.508999999998,0.0,-0.062400099920285945,0.0,0.0,0.0,0.0,-0.9213550945731681,-2.137361717291178,-1.2825052033984088,-0.0034275687360246967,-0.016706704749323384,-0.34565575174106666
6241,1.0,300.64784,14204.042,0.0,-0.0624100959077053,0.0,0.0,0.0,0.0,-0.909984341155962,-2.131860377198238,-1.275829405114559,0.0025894825245370277,-0.003426477769642027,-0.3647052791861087
6242,1.0,300.27339,14172.515,0.0,-0.06242009189512454,0.0,0.0,0.0,0.0,-0.9129504991011992,-2.121635467789118,-1.2735046040851186,-0.004824892198354786,0.005308357998769145,-0.3380873510466237
6243,1.0,299.98452000000003,14215.693000000001,0.0,-0.062430087882543894,0.0,0.0,0.0,0.0,-0.9185910496253781,-2.146926190285118,-1.255698354777779,-0.0016749529764799884,-0.008478321271770162,-0.36314175322180064
6244,1.0,300.17891000000003,14281.177,0.0,-0.06244008386996336,0.0,0.0,0.0,0.0,-0.9364237548928293,-2.133882317772788,-1.2708151343446887,-0.01815894950814878,-0.018202767508723284,-0.3232803625652877
6245,1.0,299.81633999999997,14284.902,0.0,-0.062450112847440065,0.0,0.0,0.0,0.0,-0.938261780441728,-2.140041662480668,-1.2639499596171488,0.002134764757284878,0.010000791456601271,-0.3533762210105177
6246,1.0,299.00065,14294.777,0.0,-0.06246010883485931,0.0,0.0,0.0,0.0,-0.9224256135688202,-2.141949511093958,-1.2808802542130386,-0.006376807937716943,0.011078427723605688,-0.34807418721224764
6247,1.0,299.32027999999997,14331.511999999999,0.0,-0.06247010482227866,0.0,0.0,0.0,0.0,-0.9363818266036911,-2.134538599862558,-1.2855013839441087,0.0019795993859962483,0.009313619424282672,-0.35960497335024766
6248,1.0,299.59094,14412.719,0.0,-0.0624801008096979,0.0,0.0,0.0,0.0,-0.9502817535955072,-2.136824492088158,-1.2940004244578989,-0.015699003206870985,-0.00919434742453644,-0.3406720709917157
6249,1.0,300.63259,14265.757,0.0,-0.062490096797117256,0.0,0.0,0.0,0.0,-0.9324004528532601,-2.122087681308748,-1.281945889343209,0.013303188544172487,0.0073608240498067735,-0.33882029563895966
6250,1.0,300.43422000000004,14097.17,0.0,-0.06250009278453661,0.0,0.0,0.0,0.0,-0.909902511077886,-2.120677135844538,-1.2546079963451688,0.0021743244729891175,0.0031571905462154473,-0.3462200712517607
6251,1.0,299.88995,14189.051000000001,0.0,-0.06251008877195585,0.0,0.0,0.0,0.0,-0.9023591781909172,-2.130166020381018,-1.2805919845595888,-0.0025527543362372377,-0.0044445949151723655,-0.36029184546053666
6252,1.0,300.12535,14280.418,0.0,-0.0625200847593752,0.0,0.0,0.0,0.0,-0.9244698456455701,-2.140803119930818,-1.2756174331936387,-0.016800873173867085,-0.009479510655829861,-0.3718923938679216
6253,1.0,300.43465,14391.462,0.0,-0.06253008074679445,0.0,0.0,0.0,0.0,-0.9303143938123822,-2.169821082919668,-1.2745095455342987,-1.5836661338956785e-06,0.013184513652710186,-0.36453396899170165
6254,1.0,300.41537999999997,14328.748,0.0,-0.06254010972427126,0.0,0.0,0.0,0.0,-0.938157354886422,-2.152451341755408,-1.2649730382431188,-0.012777528577793887,0.01224847726333059,-0.35888812930200065
6255,1.0,299.77195,14201.228000000001,0.0,-0.06255010571169062,0.0,0.0,0.0,0.0,-0.9173890918267541,-2.142614101834548,-1.256815665663049,-0.0047377066882002454,-0.005521097456639895,-0.34836348024829866
6256,1.0,299.45694,14231.435,0.0,-0.06256010169910986,0.0,0.0,0.0,0.0,-0.933992106640344,-2.1401771340190376,-1.2518316910711689,-0.007412095720766893,-0.006114349614664324,-0.3376501741584777
6257,1.0,300.15731,14392.711000000001,0.0,-0.06257009768652921,0.0,0.0,0.0,0.0,-0.9352835952178041,-2.1431909451164777,-1.2965500656845288,0.005449656434489214,0.026380400024542772,-0.33944588638320067
6258,1.0,300.44052,14382.159,0.0,-0.06258009367394857,0.0,0.0,0.0,0.0,-0.9388880399310351,-2.1397321145751182,-1.293197221103629,0.0026308144146661677,0.014246808097300487,-0.35718450124636564
6259,1.0,300.36695,14361.026000000002,0.0,-0.06259008966136781,0.0,0.0,0.0,0.0,-0.9189726497455392,-2.144434810939238,-1.3019857471709886,-0.003491251707459716,-0.008116861625171872,-0.3494226204453277
6260,1.0,299.85244,14368.745,0.0,-0.06260008564878716,0.0,0.0,0.0,0.0,-0.9316380733455191,-2.137603681415058,-1.2984980390017788,-0.00949215409190267,-0.016409740396765283,-0.3495692073372947
6261,1.0,299.39932000000005,14374.146,0.0,-0.0626100816362064,0.0,0.0,0.0,0.0,-0.9282795950940631,-2.147219728839088,-1.2938820768462187,0.019844486996498382,0.004694809934616666,-0.33500074806199964
6262,1.0,299.80199,14272.016000000001,0.0,-0.06262011061368322,0.0,0.0,0.0,0.0,-0.9403617514064793,-2.1240088034983478,-1.2739657342056288,0.014551173228588987,-0.007106840449265543,-0.3480056712404857
6263,1.0,300.21558999999996,14284.358,0.0,-0.06263010660110258,0.0,0.0,0.0,0.0,-0.9169854535169181,-2.148254966466258,-1.2768477214650589,-0.003502734161567947,-0.012329994247125688,-0.35018111920518563
6264,1.0,299.69642000000005,14282.823999999999,0.0,-0.0626401025885217,0.0,0.0,0.0,0.0,-0.9436847152419301,-2.1433373597559275,-1.2545998903443687,-0.005913356461227844,-0.018181938126417583,-0.3567016977062167
6265,1.0,300.40837,14351.465,0.0,-0.06265009857594117,0.0,0.0,0.0,0.0,-0.9385429168144741,-2.152093056520048,-1.2718511825719387,-0.0056334296051262145,0.010693152545331989,-0.3667278885057247
6266,1.0,299.69657,14379.208999999999,0.0,-0.06266009456336052,0.0,0.0,0.0,0.0,-0.9514067043865312,-2.151694849230748,-1.2678188524739789,0.006764753232654163,0.005795626020183755,-0.34816118486583364
6267,1.0,300.41607999999997,14365.183,0.0,-0.06267009055077977,0.0,0.0,0.0,0.0,-0.9331730560545102,-2.141347741859568,-1.2921362469239188,-0.003573101442587656,-0.013928766116162186,-0.3424449749566877
6268,1.0,301.5039,14376.498,0.0,-0.06268008653819912,0.0,0.0,0.0,0.0,-0.9269099342713881,-2.150948894507128,-1.2922376732589287,0.0034353313463658065,0.001222221280748849,-0.3302204570052217
6269,1.0,300.95087,14338.428999999998,0.0,-0.06269008252561836,0.0,0.0,0.0,0.0,-0.9072546859165661,-2.145115715006438,-1.3061539541073588,0.006874392972974763,0.014897232588242385,-0.3551791070459487
6270,1.0,299.97665,14365.652,0.0,-0.06270011150309507,0.0,0.0,0.0,0.0,-0.931485204302932,-2.1447617867465083,-1.290552638342629,0.012258261206296188,0.012011795212221886,-0.3526854377548427
6271,1.0,300.08512,14359.023000000001,0.0,-0.06271010749051453,0.0,0.0,0.0,0.0,-0.9323368308794812,-2.1626615590380776,-1.2697861788681386,-0.010807646766881689,-0.012942587019083886,-0.38456292424840566
6272,1.0,299.64639,14238.391000000001,0.0,-0.06272010347793389,0.0,0.0,0.0,0.0,-0.9366781211979331,-2.1316987638072877,-1.259738486901509,0.004322416407514286,-0.0032122424506486474,-0.35361974553955167
6273,1.0,300.03312999999997,14265.527,0.0,-0.06273009946535324,0.0,0.0,0.0,0.0,-0.9222210586386322,-2.145742815493328,-1.2684000527313386,-0.004632315606873955,0.02042845849288188,-0.3599373092505467
6274,1.0,300.45743,14302.146,0.0,-0.06274009545277248,0.0,0.0,0.0,0.0,-0.9212354702663621,-2.144626923158198,-1.2816329977123289,-0.0072466321820869135,0.006712405388762834,-0.3343871947289467
6275,1.0,299.76783,14350.008,0.0,-0.06275009144019161,0.0,0.0,0.0,0.0,-0.9219839277177292,-2.145285637048208,-1.2947744462092885,-0.019940564384230478,-0.016416549437437283,-0.35186994367685964
6276,1.0,300.22529,14609.141000000001,0.0,-0.06276008742761108,0.0,0.0,0.0,0.0,-0.9687672249748811,-2.178012095403058,-1.2940346723112788,-0.004425663147653945,-0.0072900650462984036,-0.3423937956941367
6277,1.0,300.26896,14574.854,0.0,-0.06277008341503021,0.0,0.0,0.0,0.0,-0.9675477480820281,-2.157213617225408,-1.3056304077806886,0.012216536580428289,0.014620494734180485,-0.36390279523940966
6278,1.0,299.8012,14368.412,0.0,-0.06278011239250703,0.0,0.0,0.0,0.0,-0.9449517946244812,-2.148099128600878,-1.2745873631419788,-0.004591548198375526,0.009581922173912091,-0.34835480682744263
6279,1.0,299.91008999999997,14366.693000000001,0.0,-0.06279010837992638,0.0,0.0,0.0,0.0,-0.932452726425919,-2.137451592575048,-1.2972114140247988,-0.005049656604437305,-0.006227064163738384,-0.3419643499042537
6280,1.0,300.49522,14445.333,0.0,-0.06280010436734584,0.0,0.0,0.0,0.0,-0.9344535711333871,-2.138945933822528,-1.3176209054890589,0.0016215046416550483,0.00943527347368899,-0.3248117482364237
6281,1.0,299.99863999999997,14367.546999999999,0.0,-0.0628101003547652,0.0,0.0,0.0,0.0,-0.9249613834015811,-2.1491037660750276,-1.2933105024648088,0.01890202052198418,0.025667067901142374,-0.3564414140205287
6282,1.0,300.01025,14380.745,0.0,-0.06282009634218444,0.0,0.0,0.0,0.0,-0.9477354459617061,-2.138655232368838,-1.2849965827442886,-0.004194840823198556,-0.0008807362184068971,-0.35140968495143565
6283,1.0,300.64104,14384.631000000001,0.0,-0.06283009232960357,0.0,0.0,0.0,0.0,-0.9537828873285422,-2.1503993076528882,-1.2683862725299788,-0.014660871737415386,-0.02260641121182908,-0.37539817841891565
6284,1.0,300.09103,14325.796999999999,0.0,-0.06284008831702292,0.0,0.0,0.0,0.0,-0.9368928491591251,-2.161982377496048,-1.2558094069887389,-0.0009060253197027373,-0.011795100532585789,-0.36334723020957965
6285,1.0,300.39332,14396.178,0.0,-0.06285008430444239,0.0,0.0,0.0,0.0,-0.9353472171915831,-2.149609073899898,-1.2911222875488488,0.015677091673458488,0.008623159091414541,-0.35318217348386666
6286,1.0,299.9109,14441.892,0.0,-0.06286011328191898,0.0,0.0,0.0,0.0,-0.9288766425829872,-2.1673655726273275,-1.2937324198064488,-0.011585985976947788,0.001745593632376678,-0.34741077184177366
6287,1.0,299.2068,14329.242,0.0,-0.06287010926933834,0.0,0.0,0.0,0.0,-0.9055872207570002,-2.153478777356808,-1.296665880170959,-0.02387045591033058,-0.02317871006706058,-0.3477574857609917
6288,1.0,299.64626,14266.61,0.0,-0.06288010525675769,0.0,0.0,0.0,0.0,-0.9173270606556321,-2.1434356450156278,-1.275930426149529,-0.018235004060654782,0.008470418528940222,-0.3677414020507507
6289,1.0,300.16151,14384.258,0.0,-0.06289010124417715,0.0,0.0,0.0,0.0,-0.9312291458701611,-2.157760670954398,-1.2834655618431887,0.008293227734927851,0.03721854561943446,-0.36266829184757365
6290,1.0,300.04616,14277.195,0.0,-0.06290009723159629,0.0,0.0,0.0,0.0,-0.933613911040519,-2.1349943597575383,-1.271302406317779,0.009850111034230271,0.00042020075411558565,-0.36685167727044166
6291,1.0,300.1979,14289.941,0.0,-0.06291009321901553,0.0,0.0,0.0,0.0,-0.9137805535831192,-2.1493878814030682,-1.280616707862029,-0.00030401699881914176,-0.007208144484988473,-0.33979437349009367
6292,1.0,299.68582999999995,14346.97,0.0,-0.06292008920643488,0.0,0.0,0.0,0.0,-0.9309114514338072,-2.1396975627467083,-1.2905117030385886,0.009244567544542781,0.0022787723197973176,-0.35411958181388165
6293,1.0,299.36351,14466.067,0.0,-0.06293008519385435,0.0,0.0,0.0,0.0,-0.9448221796716891,-2.1552946228610184,-1.2972063477742988,0.02275912117415038,0.007907655674374852,-0.3422483943047867
6294,1.0,300.5824,14510.697,0.0,-0.0629400811812737,0.0,0.0,0.0,0.0,-0.966645296880463,-2.1632271552438977,-1.281017245626559,0.009093970816630041,-0.009091544690590602,-0.37452207171995067
6295,1.0,300.49575,14547.835,0.0,-0.06295011015875052,0.0,0.0,0.0,0.0,-0.9692659365416,-2.1603331103082777,-1.2925796451676788,-0.004928433895598556,-0.014034277875575384,-0.34721233694218967
6296,1.0,300.65012,14609.065,0.0,-0.06296010614616965,0.0,0.0,0.0,0.0,-0.9766590956312481,-2.1751470294202977,-1.2889848364628989,0.0049928653548824455,0.0040906493286656555,-0.35404070029359663
6297,1.0,300.38736,14495.73,0.0,-0.06297010213358911,0.0,0.0,0.0,0.0,-0.939238279960601,-2.153735737582168,-1.3133659643441289,0.0013132125582789888,0.02061779643306808,-0.3300954624728857
6298,1.0,300.01793,14560.896999999999,0.0,-0.06298009812100824,0.0,0.0,0.0,0.0,-0.9450346784826611,-2.167896211704698,-1.3132183338045587,0.007617964127059523,-0.004771317308592355,-0.3355660504252907
6299,1.0,300.10138,14569.167,0.0,-0.06299009410842749,0.0,0.0,0.0,0.0,-0.9340492539459841,-2.1728090561395583,-1.3218047164769688,-0.0044537102143969755,-0.01859549412823238,-0.3374229730885547
6300,1.0,300.07902,14280.982,0.0,-0.06300009009584684,0.0,0.0,0.0,0.0,-0.9169727777581672,-2.1529333448279777,-1.2711558903533189,1.8671610488994482e-05,0.004729391451254596,-0.38147777021142465
6301,1.0,299.45619,14287.411,0.0,-0.06301008608326619,0.0,0.0,0.0,0.0,-0.9077064941361561,-2.1587848641554777,-1.2765248999831988,-0.003625125857047067,0.015836651206455787,-0.3830257833167016
6302,1.0,299.28988,14454.788,0.0,-0.06302008207068566,0.0,0.0,0.0,0.0,-0.94942163598312,-2.164715720965808,-1.279757269127209,-0.0015232324528813386,0.004630841429303465,-0.37566181596243464
6303,1.0,299.81199,14381.886999999999,0.0,-0.06303011104816236,0.0,0.0,0.0,0.0,-0.927830441589735,-2.145784054772398,-1.2981200967144788,-0.007679463949829083,-0.01111740137545209,-0.34934209745988065
6304,1.0,299.98052,14322.626,0.0,-0.0630401070355816,0.0,0.0,0.0,0.0,-0.9311878964585901,-2.1568415517886876,-1.2656911285889887,0.014247700770638588,0.01027643115020479,-0.36554768518674763
6305,1.0,300.26781,14458.016000000001,0.0,-0.06305010302300096,0.0,0.0,0.0,0.0,-0.9462068061983411,-2.145929760136778,-1.3027394025953687,-0.008892621505783412,0.006153504131653574,-0.3464019192472077
6306,1.0,299.99271,14583.633,0.0,-0.0630600990104202,0.0,0.0,0.0,0.0,-0.9618794446376101,-2.184410263159508,-1.2867704796943589,-0.005154499314809475,-0.011434635796260688,-0.37667641368506766
6307,1.0,299.84967,14552.02,0.0,-0.06307009499783944,0.0,0.0,0.0,0.0,-0.9544944422112671,-2.167662556231638,-1.3012936973526885,-0.0090802277002237,-0.017675264440412782,-0.35163683535885365
6308,1.0,299.95659,14579.146,0.0,-0.06308009098525902,0.0,0.0,0.0,0.0,-0.9633692870546461,-2.167976866412658,-1.3003502601845789,0.020069987832753582,0.01107663832392909,-0.34643432298540566
6309,1.0,300.61081,14471.313,0.0,-0.06309008697267815,0.0,0.0,0.0,0.0,-0.9308670609469261,-2.1583740925649377,-1.3096765180800087,0.0008924447286124373,0.01006458132592184,-0.3223326900117597
6310,1.0,300.61771,14371.746000000001,0.0,-0.0631000829600975,0.0,0.0,0.0,0.0,-0.929379427415108,-2.147803766196728,-1.2914688190830488,0.002509494940442868,-0.0020923774658515777,-0.33694558030393973
6311,1.0,300.46699,14536.13,0.0,-0.06311011193757432,0.0,0.0,0.0,0.0,-0.9436105149371071,-2.164542961823758,-1.3104672584580488,0.001018767044144479,-0.0016091962873903084,-0.34186408880685865
6312,1.0,300.34191,14556.008999999998,0.0,-0.06312010792499356,0.0,0.0,0.0,0.0,-0.9605117799176321,-2.175503085505438,-1.2886484374296987,0.017181788336960484,0.018808391146493682,-0.3705605576714796
6313,1.0,300.19235,14489.871000000001,0.0,-0.06313010391241292,0.0,0.0,0.0,0.0,-0.9489511332991852,-2.1682111298357776,-1.2873967695811688,0.0030506266278984067,0.004809780890338415,-0.36649690801292867
6314,1.0,300.42409,14528.277,0.0,-0.06314009989983216,0.0,0.0,0.0,0.0,-0.9573406617421671,-2.177130466491048,-1.2817622884250885,-0.021573077481596977,-0.022349377019211775,-0.3700727790733397
6315,1.0,299.82378,14565.098999999998,0.0,-0.06315009588725151,0.0,0.0,0.0,0.0,-0.9434914580503571,-2.1627486985466775,-1.3211862286159288,-0.016336573607044286,-0.014232697576407886,-0.3362796926032217
6316,1.0,299.50444,14440.212,0.0,-0.06316009187467087,0.0,0.0,0.0,0.0,-0.9448251383619811,-2.1633916057351277,-1.2812470507492386,-0.002720506604243097,0.012467661498462387,-0.35884381987512765
6317,1.0,299.89782,14401.538999999999,0.0,-0.06317008786209011,0.0,0.0,0.0,0.0,-0.9275701072415421,-2.165035198722338,-1.2851028726797789,-0.0019502060138453482,0.017234465183159284,-0.3539181983565067
6318,1.0,299.80814,14355.52,0.0,-0.06318008384950946,0.0,0.0,0.0,0.0,-0.928932715843521,-2.1653203273004777,-1.2694667011116088,-0.017997191222434483,-0.013706367851713187,-0.3802030509231196
6319,1.0,299.44041,14319.341,0.0,-0.06319011282698628,0.0,0.0,0.0,0.0,-0.9146634693227561,-2.161337443807398,-1.2767212678525788,-0.0041960888433467255,-0.013765118119011386,-0.36407304152121167
6320,1.0,299.86674,14398.403,0.0,-0.06320010881440552,0.0,0.0,0.0,0.0,-0.9229924966022671,-2.1668821510046183,-1.2868802146801885,0.003954170011746196,6.710283136428385e-05,-0.37818579156403165
6321,1.0,299.90307,14528.721000000001,0.0,-0.06321010480182487,0.0,0.0,0.0,0.0,-0.932291133299971,-2.1614400860425276,-1.3226370001091088,0.030207479089496073,-0.004737024365582905,-0.34112871241428266
6322,1.0,299.87826,14510.372,0.0,-0.06322010078924412,0.0,0.0,0.0,0.0,-0.9469793992670901,-2.171763888661408,-1.2920475875401687,-0.003985741364987046,-0.00033687672995964466,-0.35804957365174167
6323,1.0,300.68414,14505.48,0.0,-0.06323009677666347,0.0,0.0,0.0,0.0,-0.94095116912215,-2.157785090281808,-1.3105673675679288,-0.002766697231251757,0.0038702675332406666,-0.3383287376179467
6324,1.0,300.54679,14673.651000000002,0.0,-0.06324009276408282,0.0,0.0,0.0,0.0,-0.9815982237737021,-2.1783680501631877,-1.3004570567451186,-0.00019212984951173985,0.022752174331464776,-0.36328640480607666
6325,1.0,299.88651,14715.934,0.0,-0.06325008875150206,0.0,0.0,0.0,0.0,-0.9716025925972102,-2.175045197785248,-1.3266286988780587,0.013151049041657488,0.012568263047890988,-0.34168369989155567
6326,1.0,299.92392,14583.927,0.0,-0.06326008473892142,0.0,0.0,0.0,0.0,-0.9634024709954211,-2.168015167266438,-1.3017319280209387,-0.0025111813939093074,-0.018100979443427583,-0.35368984218146965
6327,1.0,299.85911,14548.42,0.0,-0.06327011371639824,0.0,0.0,0.0,0.0,-0.9398592806818892,-2.164438495738448,-1.3180587308572687,-0.00014634312425794186,-0.005406814193761015,-0.3311297881749657
6328,1.0,299.52506,14495.341,0.0,-0.06328010970381737,0.0,0.0,0.0,0.0,-0.962867343220108,-2.163857295481088,-1.2794971678265386,-0.0014626437446016987,0.014827774293887387,-0.35721357139173465
6329,1.0,299.89869,14477.257,0.0,-0.06329010569123683,0.0,0.0,0.0,0.0,-0.9462450158596122,-2.171163031352108,-1.2833165127534787,0.002713239675850907,0.0019468630991154282,-0.36280098708066966
6330,1.0,299.76831,14486.702,0.0,-0.06330010167865596,0.0,0.0,0.0,0.0,-0.9504215314468021,-2.185673076759138,-1.2675010972426186,-0.0087400077008966,-0.006745486180677654,-0.37649584238474665
6331,1.0,299.5146,14500.048999999999,0.0,-0.06331009766607543,0.0,0.0,0.0,0.0,-0.923162195729015,-2.174040661636108,-1.3104501345313588,0.0006522411571786904,-0.01132283276697659,-0.36512961819548767
6332,1.0,299.9377,14492.353000000001,0.0,-0.06332009365349478,0.0,0.0,0.0,0.0,-0.9316061053048642,-2.182843373204868,-1.2908639087733487,0.0023777085926865674,0.005977182098276943,-0.36352238062186565
6333,1.0,300.14938,14519.347,0.0,-0.06333008964091391,0.0,0.0,0.0,0.0,-0.9138337998758741,-2.179124947987888,-1.3205601413791386,0.004899131310656615,0.0005480650133848054,-0.35286493501005767
6334,1.0,300.02312,14629.97,0.0,-0.06334008562833338,0.0,0.0,0.0,0.0,-0.966507717781885,-2.1809810195210684,-1.2996568931411487,0.005139842145487925,-0.007625055053909343,-0.34321520715270365
6335,1.0,299.57934,14509.537,0.0,-0.06335011460581019,0.0,0.0,0.0,0.0,-0.9362012654358711,-2.176018019206258,-1.2983178831339988,0.003984238715088746,0.01329522034538609,-0.3635611171731887
6336,1.0,299.94007,14488.181,0.0,-0.06336011059322932,0.0,0.0,0.0,0.0,-0.9559313423105781,-2.182589959354858,-1.2655238409974787,0.00932936958648709,0.023211125964259775,-0.36999074634524365
6337,1.0,300.88302000000004,14579.857,0.0,-0.06337010658064868,0.0,0.0,0.0,0.0,-0.9354826684649511,-2.187093856049358,-1.3093359647213987,-0.014174370847651488,-0.005294522169978655,-0.37374907335116164
6338,1.0,300.7741,14463.938999999998,0.0,-0.06338010256806814,0.0,0.0,0.0,0.0,-0.9411633639580922,-2.1661841230107277,-1.2893287335468386,-0.006993877755241993,-0.02315861225132708,-0.3642856416571936
6339,1.0,300.47021,14421.731000000002,0.0,-0.06339009855548727,0.0,0.0,0.0,0.0,-0.9099340839510022,-2.176219858626178,-1.2976920998722385,0.006092410419524094,-0.0074705312725840325,-0.35786424007595063
6340,1.0,299.8907,14545.982,0.0,-0.06340009454290674,0.0,0.0,0.0,0.0,-0.9619859169581182,-2.1756311603180776,-1.2839982274207589,0.01231408014105509,0.02249901278072968,-0.3398656961646327
6341,1.0,299.4481,14686.482,0.0,-0.06341009053032587,0.0,0.0,0.0,0.0,-0.9727934857047421,-2.181949990591698,-1.3095802593205088,-0.011427198540526689,0.010861791812475388,-0.3503061238700227
6342,1.0,299.71341,14761.836000000001,0.0,-0.06342008651774533,0.0,0.0,0.0,0.0,-0.983017777031301,-2.196401064842908,-1.3078107193458688,-0.002720697399236927,-0.0011985896539665887,-0.34482476506905463
6343,1.0,299.8874,14725.61,0.0,-0.06343008250516446,0.0,0.0,0.0,0.0,-0.9558802643730371,-2.187169444506818,-1.333168215023459,-0.005854863762105064,0.011021951189531889,-0.3418046008934877
6344,1.0,299.89566,14723.776000000002,0.0,-0.06344011148264128,0.0,0.0,0.0,0.0,-0.9546038732220671,-2.1911853599531583,-1.3298709978730487,0.0090637968366021,0.013113855670236789,-0.3257928175132477
6345,1.0,299.7586,14639.362,0.0,-0.06345010747006063,0.0,0.0,0.0,0.0,-0.9403849852312721,-2.1877724296413277,-1.3218429160057386,-0.0061762946595278236,0.0014977246922139188,-0.3362663480994047
6346,1.0,299.70442,14519.067,0.0,-0.0634601034574801,0.0,0.0,0.0,0.0,-0.9609922529825511,-2.164350039004718,-1.2880915551747385,-0.007963154827402192,-0.012470418551984488,-0.33790165270079664
6347,1.0,299.73353,14479.761,0.0,-0.06347009944489923,0.0,0.0,0.0,0.0,-0.9416248588486381,-2.1791086346612776,-1.2807521794003989,0.013425145352708686,0.0002051357656753238,-0.37489117846637865
6348,1.0,300.20356,14459.638,0.0,-0.06348009543231858,0.0,0.0,0.0,0.0,-0.9493914309976392,-2.178289827255468,-1.2676876365860288,0.008421827917744701,0.013353100230848387,-0.39433985552331363
6349,1.0,300.32101,14461.613000000001,0.0,-0.06349009141973783,0.0,0.0,0.0,0.0,-0.9319719493859702,-2.1770196169301084,-1.2869777906648188,-0.004079858519075686,-0.004994839672702295,-0.3889298801918906
6350,1.0,300.73871,14521.49,0.0,-0.06350008740715718,0.0,0.0,0.0,0.0,-0.9380713299529321,-2.177890201416028,-1.2982088574232387,-0.022035305965215378,-0.022804150008594377,-0.3684702632451836
6351,1.0,300.36537000000004,14432.903999999999,0.0,-0.06351008339457664,0.0,0.0,0.0,0.0,-0.9067882564980332,-2.176491612302998,-1.3039624967910788,-0.0029174063286005877,0.005773687635643605,-0.3612301353181387
6352,1.0,300.74152000000004,14580.195,0.0,-0.06352011237205324,0.0,0.0,0.0,0.0,-0.9595930153894571,-2.1830180575221076,-1.2894042206792886,0.01110072530530629,0.004953152233113065,-0.34557002065010567
6353,1.0,300.01145,14751.646999999999,0.0,-0.06353010835947259,0.0,0.0,0.0,0.0,-0.960855595941564,-2.199160246190218,-1.3241163452551088,-0.0016706486900551886,0.005443728516104175,-0.36062023981794666
6354,1.0,299.48887,14723.135,0.0,-0.06354010434689195,0.0,0.0,0.0,0.0,-0.99576901278225,-2.181297457527298,-1.2983988418169887,-0.014768078664245884,-0.009965958653938541,-0.3471845029619427
6355,1.0,299.58026,14699.687,0.0,-0.06355010033431119,0.0,0.0,0.0,0.0,-0.9457926402199661,-2.206700752109408,-1.3158445767387488,0.002799331281197487,0.008105508664426423,-0.3632111507211496
6356,1.0,299.71486,14599.591,0.0,-0.06356009632173054,0.0,0.0,0.0,0.0,-0.9579671644114981,-2.171207107731458,-1.3087368299372686,0.00982778518285188,0.02343738673808998,-0.3370915491133457
6357,1.0,299.84078,14552.632,0.0,-0.06357009230914978,0.0,0.0,0.0,0.0,-0.9244608175871792,-2.1821041059319084,-1.3170717239348588,0.016045479012315483,0.0008457096113975401,-0.3512515774058317
6358,1.0,300.15016,14507.052,0.0,-0.06358008829656914,0.0,0.0,0.0,0.0,-0.9640627554230861,-2.1548060336627977,-1.2909126461031588,0.005866807447658814,-0.008241785331325883,-0.33731355221025566
6359,1.0,300.08144,14485.612,0.0,-0.06359008428398849,0.0,0.0,0.0,0.0,-0.9244018261663571,-2.171632672773458,-1.3072299243885488,0.0003097772851076377,0.010230908862962091,-0.37787722651107863
6360,1.0,300.56267,14613.187,0.0,-0.0636001132614652,0.0,0.0,0.0,0.0,-0.970229669109213,-2.1890202471394775,-1.2827940810019187,-0.006648147296571055,0.01042232700560359,-0.3678528696942517
6361,1.0,300.51715,14703.343,0.0,-0.06361010924888477,0.0,0.0,0.0,0.0,-0.9448139318158751,-2.187927355581618,-1.3367079029227988,-0.015423680863198787,-0.006095331822212415,-0.37521628989346467
6362,1.0,299.58793,14823.944,0.0,-0.0636201052363039,0.0,0.0,0.0,0.0,-0.978469702632441,-2.205731274413728,-1.3219077640121388,-0.014202060946384288,-0.008983398784892432,-0.34893614893981667
6363,1.0,299.17707,14761.936000000002,0.0,-0.06363010122372315,0.0,0.0,0.0,0.0,-0.9484078184630642,-2.1978021870811877,-1.3410498822513186,0.01114561329798639,0.0015920957667776184,-0.34498741197510663
6364,1.0,299.48566,14611.177,0.0,-0.0636400972111425,0.0,0.0,0.0,0.0,-0.9574585939213061,-2.191759366134808,-1.2922150777816988,0.020586635952742783,0.005840313591994074,-0.35123751349444365
6365,1.0,299.47845,14588.84,0.0,-0.06365009319856174,0.0,0.0,0.0,0.0,-0.9225751591510791,-2.200528539125258,-1.3115392770638488,0.018269909513349683,-0.014458175107910786,-0.35626373048299265
6366,1.0,299.86281,14573.17,0.0,-0.0636600891859811,0.0,0.0,0.0,0.0,-0.9590199515304001,-2.171268206712488,-1.2995915385096988,0.005774690449267574,-0.011286272676868388,-0.3604749802836107
6367,1.0,299.91568,14430.044,0.0,-0.06367008517340045,0.0,0.0,0.0,0.0,-0.9028177143911712,-2.188254128738868,-1.2953013362612886,0.008006357683840983,0.012092513754938188,-0.38297031800622766
6368,1.0,300.45519,14423.188,0.0,-0.06368011415087727,0.0,0.0,0.0,0.0,-0.9256551658775521,-2.1712910048397376,-1.2873428646758487,0.0040472237598548864,0.01049515435654109,-0.3649315278009377
6369,1.0,300.50243,14514.323,0.0,-0.06369011013829662,0.0,0.0,0.0,0.0,-0.9262610286423462,-2.184023505596338,-1.3017072047184988,-0.005919130264272675,-6.589704854653234e-05,-0.3799388054295406
6370,1.0,300.6726,14682.726999999999,0.0,-0.06370010612571586,0.0,0.0,0.0,0.0,-0.966657506544168,-2.191759670109838,-1.3047652948453088,0.0002298353175329798,-0.005971911475231774,-0.34587014532972565
6371,1.0,300.50978,14820.346000000001,0.0,-0.0637101021131351,0.0,0.0,0.0,0.0,-0.9691161072493131,-2.2077815859910777,-1.3281172645999686,-0.01222431834119629,-0.0003602141798403717,-0.37532622752931466
6372,1.0,300.96062,14842.274,0.0,-0.06372009810055446,0.0,0.0,0.0,0.0,-0.9907072813776961,-2.2069256936316077,-1.3140475776863987,-0.010356496146606591,-0.003239612058374817,-0.34512286324847463
6373,1.0,301.25944,14714.14,0.0,-0.06373009408797359,0.0,0.0,0.0,0.0,-0.948604885475013,-2.2050701287234777,-1.3190559716056887,-0.016320050537663586,-0.009561863874932491,-0.3627853222341237
6374,1.0,301.19586,14685.457,0.0,-0.06374009007539316,0.0,0.0,0.0,0.0,-0.9787378592714061,-2.173065509739868,-1.312209035379949,0.007910914793321502,6.456908803172285e-05,-0.3355306677317987
6375,1.0,300.24309,14801.416000000001,0.0,-0.0637500860628124,0.0,0.0,0.0,0.0,-0.969653352717335,-2.2036130750796774,-1.3259943029904488,0.026380404077543176,0.01131033331374299,-0.35174147369668063
6376,1.0,299.90326,14673.313,0.0,-0.06376011504028922,0.0,0.0,0.0,0.0,-0.9775374618779361,-2.169401597378268,-1.3133816697206788,0.023742298011182376,0.00970248363573558,-0.34186732107467765
6377,1.0,299.85917,14539.603000000001,0.0,-0.06377011102770858,0.0,0.0,0.0,0.0,-0.9222854405499862,-2.200702210192398,-1.2966885769731988,-0.0056750568576595046,-0.01052352839909139,-0.36805920794461566
6378,1.0,300.10061,14586.073999999999,0.0,-0.06378010701512782,0.0,0.0,0.0,0.0,-0.9445015974725501,-2.194687861573828,-1.2946129341433488,-0.006521622857909064,-0.012513161494202887,-0.37221433382219465
6379,1.0,299.86564,14761.466999999999,0.0,-0.06379010300254695,0.0,0.0,0.0,0.0,-0.9407469688294972,-2.212519543458678,-1.3338509429408387,-0.01357301299280209,0.01011793147681209,-0.37599336152765567
6380,1.0,299.88685,14762.913,0.0,-0.06380009898996641,0.0,0.0,0.0,0.0,-0.9681998961113901,-2.2149362462721878,-1.3044206884862988,-0.008034243542493102,0.0019290869433360584,-0.3724791973983347
6381,1.0,299.69587,14618.046999999999,0.0,-0.06381009497738577,0.0,0.0,0.0,0.0,-0.9394208878936231,-2.195329350212138,-1.3087708751406288,-0.011922814628190188,-0.007445254127639373,-0.3537919372615457
6382,1.0,299.51241,14690.858,0.0,-0.06382009096480512,0.0,0.0,0.0,0.0,-0.9577286250729562,-2.2102996138145876,-1.2976257319906888,-0.014515606123578786,0.006316454506110524,-0.35810672095738166
6383,1.0,300.56577999999996,14785.503,0.0,-0.06383008695222436,0.0,0.0,0.0,0.0,-0.9470509853866551,-2.222606144229148,-1.3247665478442787,-0.0030462410788155876,0.004598658478302256,-0.37190120914379166
6384,1.0,300.28805,14774.981000000002,0.0,-0.0638400829396435,0.0,0.0,0.0,0.0,-0.9718863228902122,-2.199866785484948,-1.3194722147467688,0.0030143731472704665,-0.0033412895780846066,-0.36779250025329363
6385,1.0,300.27479,14721.153999999999,0.0,-0.06385011191712053,0.0,0.0,0.0,0.0,-0.9345282071357531,-2.214551008584168,-1.325784154919709,-0.0033079855671727565,-0.003902820624503406,-0.3766885017587606
6386,1.0,300.07777999999996,14559.146,0.0,-0.06386010790453966,0.0,0.0,0.0,0.0,-0.9535487860254381,-2.182800512725638,-1.2892676345658087,0.011889037936106689,-0.001272271681363439,-0.3627252567681956
6387,1.0,300.32697,14602.192,0.0,-0.06387010389195891,0.0,0.0,0.0,0.0,-0.9477404311521981,-2.181245072497128,-1.3097163388089386,0.018039037438314382,0.014784027220819883,-0.36493033216581966
6388,1.0,300.33601,14876.535,0.0,-0.06388009987937826,0.0,0.0,0.0,0.0,-0.997636544174061,-2.2019082817864275,-1.3225503672255587,0.0035563605244354566,0.0012917948829652287,-0.3459295521830887
6389,1.0,300.16347,14859.92,0.0,-0.06389009586679772,0.0,0.0,0.0,0.0,-0.9634515933602691,-2.194841267638968,-1.3587516654733487,-0.0026515478421873973,-0.004073910335688647,-0.3488658091178747
6390,1.0,299.36553,14817.238000000001,0.0,-0.06390009185421708,0.0,0.0,0.0,0.0,-0.9736357397178661,-2.2076408455521874,-1.3227936485745688,-0.02299519628844918,0.0058578154609713745,-0.34985484254048466
6391,1.0,299.71587999999997,14916.202,0.0,-0.06391008784163632,0.0,0.0,0.0,0.0,-0.9585830178222781,-2.2136322947184977,-1.361937425112759,-0.00018679979934820484,0.00978702061145373,-0.3417072579563807
6392,1.0,299.23507,14778.601,0.0,-0.06392008382905545,0.0,0.0,0.0,0.0,-1.0003556210824132,-2.171906452950478,-1.3200635475051288,-0.004087698744374456,-0.013449268811089486,-0.3448169427782827
6393,1.0,300.02071,14728.781,0.0,-0.06393011280653249,0.0,0.0,0.0,0.0,-0.9591649982822151,-2.207942895406998,-1.3100737121192088,0.015084199523194586,-0.023662581572814978,-0.3484529198346257
6394,1.0,300.56318,14623.933,0.0,-0.06394010879395162,0.0,0.0,0.0,0.0,-0.9680520629218,-2.173800622687418,-1.3034576955912587,0.007424419881733192,-0.012028899887159989,-0.35917815187812363
6395,1.0,299.76195,14583.112,0.0,-0.06395010478137086,0.0,0.0,0.0,0.0,-0.9217822706828273,-2.2133234560880184,-1.2977962619825187,0.0037680126636238966,-0.00043559474877735466,-0.3689041572030057
6396,1.0,300.12733,14661.782,0.0,-0.06396010076879022,0.0,0.0,0.0,0.0,-0.9447129817084121,-2.202531835897968,-1.3095708360945788,-0.004721883166688585,-0.0009407792003151782,-0.38458762728584367
6397,1.0,300.1633,14762.382,0.0,-0.06397009675620957,0.0,0.0,0.0,0.0,-0.9351965165042101,-2.214547867508858,-1.3376512387658988,-0.0024329427808127578,-0.0046173667228486155,-0.36455822619909567
6398,1.0,299.84927999999996,14752.732,0.0,-0.06398009274362904,0.0,0.0,0.0,0.0,-0.9531231500559311,-2.2318052392370276,-1.2995337832539988,0.009331699048466991,0.018091012102193882,-0.3785790947228476
6399,1.0,300.74242999999996,14733.173,0.0,-0.06399008873104817,0.0,0.0,0.0,0.0,-0.958081094252742,-2.2048941271811078,-1.3155413109838188,0.012303062059467688,0.01029985749251679,-0.3587962477829326
6400,1.0,300.80527,14784.579,0.0,-0.06400008471846741,0.0,0.0,0.0,0.0,-0.9753696132889861,-2.218400649689098,-1.3003725516867788,-0.007714670033828653,0.00037642603958535763,-0.37086358024638566
6401,1.0,300.67227,14808.729,0.0,-0.06401011369594434,0.0,0.0,0.0,0.0,-0.9725703984302251,-2.1975934575605875,-1.3313199455160487,-0.012978675947895589,-0.014324950958262587,-0.35918212381851566
6402,1.0,300.91486000000003,14687.49,0.0,-0.06402010968336358,0.0,0.0,0.0,0.0,-0.9500830552508971,-2.196250698528068,-1.3182965406557385,-0.007542917555753003,0.0004078823686748556,-0.3689152928216046
6403,1.0,299.87214,14522.648000000001,0.0,-0.06403010567078293,0.0,0.0,0.0,0.0,-0.9123336425728201,-2.192224954555758,-1.3099636731583486,0.0017084516327360482,0.008512744012117423,-0.3637703837163416
6404,1.0,299.84328,14649.573,0.0,-0.0640401016582024,0.0,0.0,0.0,0.0,-0.968610495449413,-2.182566147977508,-1.3019277892652688,-0.01062090781320199,-0.0005065471209348085,-0.3566441754980397
6405,1.0,299.91209,14864.461000000001,0.0,-0.06405009764562153,0.0,0.0,0.0,0.0,-0.982923666362013,-2.206412482455958,-1.3290888701208587,-0.006100994573046284,0.001725967281914708,-0.35555495190554165
6406,1.0,299.73557,14846.823999999999,0.0,-0.064060093633041,0.0,0.0,0.0,0.0,-0.999983140213152,-2.2059133554566976,-1.3071673055323687,0.0011390738762178387,0.0027980003771911374,-0.36698837484143265
6407,1.0,300.444,14837.152,0.0,-0.06407008962046012,0.0,0.0,0.0,0.0,-0.9659219072365701,-2.2104383277532778,-1.3337636007822187,0.01092129695109809,0.011897136844155989,-0.3556447967919087
6408,1.0,300.69999,14823.093,0.0,-0.06408008560787937,0.0,0.0,0.0,0.0,-0.960701774443883,-2.2179556302451777,-1.3271927752087287,0.0014817035869327587,-0.008225783173821591,-0.36862851264580165
6409,1.0,300.12152000000003,14860.561000000002,0.0,-0.0640901145853563,0.0,0.0,0.0,0.0,-0.9678709748639281,-2.200148671662768,-1.3492200217826487,0.011415365805858889,-0.01046515810058069,-0.3377607400093897
6410,1.0,299.9033,14924.45,0.0,-0.06410011057277554,0.0,0.0,0.0,0.0,-0.989810149739156,-2.209185849304668,-1.3376642083671788,0.017043166604029585,0.01952606707307278,-0.3449626177451596
6411,1.0,299.38334,14762.567,0.0,-0.06411010656019489,0.0,0.0,0.0,0.0,-0.9643725769061632,-2.213843658689358,-1.309235450311479,0.012468984803092987,0.005340519164893204,-0.3438718236150067
6412,1.0,299.57058,14590.819,0.0,-0.06412010254761424,0.0,0.0,0.0,0.0,-0.9544564352000162,-2.186102289501498,-1.2946857868255386,-0.009808549338978451,-0.01092922563313059,-0.35986227808064164
6413,1.0,299.82388,14671.786,0.0,-0.06413009853503349,0.0,0.0,0.0,0.0,-0.9500235572050251,-2.215425544745478,-1.2944075483480788,-0.02081417646144928,-0.022473445440956377,-0.36671997502244363
6414,1.0,299.80764,14766.823999999999,0.0,-0.06414009452245284,0.0,0.0,0.0,0.0,-0.9546401475756471,-2.215796090307048,-1.318309611582029,-0.0009669810879636032,0.012297080844127388,-0.3895330781089216
6415,1.0,300.06145,14666.783000000001,0.0,-0.06415009050987208,0.0,0.0,0.0,0.0,-0.928667183522315,-2.218496908448598,-1.3111717712525788,0.0025370949612417777,0.007233201450686404,-0.37837607993281164
6416,1.0,300.70272,14690.041000000001,0.0,-0.06416008649729132,0.0,0.0,0.0,0.0,-0.9366600954786541,-2.2341350051919577,-1.2946106036681189,-0.005889876112685514,0.0006338904075326124,-0.3790156129984287
6417,1.0,300.60817000000003,14775.862,0.0,-0.06417011547476825,0.0,0.0,0.0,0.0,-0.9529281703391882,-2.2041079464285183,-1.3344568665006387,-0.0012995539469309889,-0.000947396635393268,-0.3666490475154437
6418,1.0,299.71959,14930.848999999998,0.0,-0.0641801114621875,0.0,0.0,0.0,0.0,-0.995046545195948,-2.239594194080738,-1.3039645232912789,0.009181298283123591,0.020767864852378682,-0.37199293867534466
6419,1.0,299.54076000000003,14893.105,0.0,-0.06419010744960685,0.0,0.0,0.0,0.0,-0.958222057606654,-2.216608514237228,-1.3523016193117787,0.02044414360442988,0.0020374272917284184,-0.36344700494692667
6420,1.0,299.6327,14790.007,0.0,-0.0642001034370262,0.0,0.0,0.0,0.0,-0.9617922544665052,-2.208436348205698,-1.3255640769979886,-0.0022707171841523377,-0.02129730728138058,-0.35036791186112065
6421,1.0,300.54194,14752.726999999999,0.0,-0.06421009942444544,0.0,0.0,0.0,0.0,-0.9384731950750932,-2.2128849214447377,-1.3331025564169787,0.004724007242873215,-0.005995705222030035,-0.34187133354507365
6422,1.0,300.36104,14852.89,0.0,-0.0642200954118648,0.0,0.0,0.0,0.0,-0.9917869702867531,-2.1921324448216275,-1.3309882074333088,0.002967851795429167,0.015902154785670485,-0.33772723182858266
6423,1.0,300.01652,14973.358,0.0,-0.06423009139928404,0.0,0.0,0.0,0.0,-0.9958352185437841,-2.227309853843368,-1.3283820268510989,-6.600407511484504e-05,0.00910801476699107,-0.35252906286690966
6424,1.0,299.54841,14853.694,0.0,-0.06424008738670339,0.0,0.0,0.0,0.0,-0.9956358007916031,-2.208669699703728,-1.3108466192954886,-0.011641031801880388,-0.015334438860641286,-0.35204284467392366
6425,1.0,300.03184,14773.124,0.0,-0.06425008337412275,0.0,0.0,0.0,0.0,-0.9576616087113421,-2.2123565115175876,-1.3206428225872986,-0.015249747364282884,-0.007829348666896553,-0.37559029063787563
6426,1.0,299.7265,14856.062,0.0,-0.06426011235159956,0.0,0.0,0.0,0.0,-0.9673349756935292,-2.225780656792448,-1.3227561583208687,-0.003075578823535997,0.0020251351494652782,-0.37954136821031664
6427,1.0,299.89257000000003,14957.085,0.0,-0.0642701083390188,0.0,0.0,0.0,0.0,-0.975735153395062,-2.2240329016949576,-1.3468123368950289,0.002820111216898307,-0.0041003432950223765,-0.36812048931066366
6428,1.0,299.82542,14801.503999999999,0.0,-0.06428010432643816,0.0,0.0,0.0,0.0,-0.959489552421746,-2.2174269163429976,-1.3223712246078787,-0.0016998047590326686,-0.008300368311032572,-0.35562269780722766
6429,1.0,300.31311,14633.233,0.0,-0.0642901003138574,0.0,0.0,0.0,0.0,-0.9389650165411322,-2.209765327036858,-1.299407228316509,0.012340276709140488,-0.005545521951625405,-0.3511447200502857
6430,1.0,300.32788999999997,14667.601999999999,0.0,-0.06430009630127675,0.0,0.0,0.0,0.0,-0.949159639904763,-2.200910635737968,-1.308514522865329,0.01095978018989609,0.012715001927372988,-0.36051736453529365
6431,1.0,300.16773,14822.53,0.0,-0.06431009228869589,0.0,0.0,0.0,0.0,-0.9487973219340052,-2.2293343275431683,-1.327547210093709,-0.002102204066646388,-0.007217471452158973,-0.3662250428785977
6432,1.0,299.79726,14936.938,0.0,-0.06432008827611535,0.0,0.0,0.0,0.0,-0.9637812644128051,-2.233300796384628,-1.3433739740056887,-0.007840282952700683,-0.007883196526235923,-0.37846551951913865
6433,1.0,299.97787,14880.354,0.0,-0.0643300842635347,0.0,0.0,0.0,0.0,-0.952148677037258,-2.2378854491120976,-1.3332219172787587,0.0068256295013121825,0.002903149595718557,-0.3754253943166016
6434,1.0,299.98537999999996,14672.293,0.0,-0.06434011324101152,0.0,0.0,0.0,0.0,-0.942348633527569,-2.228520991687898,-1.2891409783033088,-0.014257724853877884,0.015741502969065384,-0.37719577528882464
6435,1.0,299.56192000000004,14722.753,0.0,-0.06435010922843065,0.0,0.0,0.0,0.0,-0.9605040792168721,-2.202141633284458,-1.3127035014287487,-0.01104412211496999,-0.0076883376902298515,-0.3720290103789046
6436,1.0,299.46542999999997,14903.176000000001,0.0,-0.06436010521585012,0.0,0.0,0.0,0.0,-0.9833710466786661,-2.2263681392004275,-1.3204540540936687,-0.039048214894758765,-0.0030739947083296567,-0.3590797551609127
6437,1.0,299.67097,14840.145,0.0,-0.06437010120326925,0.0,0.0,0.0,0.0,-0.9528605966900191,-2.2233121768988275,-1.334860849315509,0.0012603161407835188,0.0009113499287132351,-0.37562095158590164
6438,1.0,300.0241,14785.492,0.0,-0.06438009719068871,0.0,0.0,0.0,0.0,-0.9497911682945901,-2.2129278832489776,-1.3317013328536886,-0.00015936297261040088,0.009219732784591782,-0.36446341638723867
6439,1.0,299.95909,14879.646,0.0,-0.06439009317810807,0.0,0.0,0.0,0.0,-0.976883621720907,-2.2183681243608877,-1.3277890728925787,0.012787396620517788,-0.01141385302345959,-0.35592448421701167
6440,1.0,299.28476,15039.938999999998,0.0,-0.06440008916552731,0.0,0.0,0.0,0.0,-1.004113542788291,-2.2226504232585182,-1.3450020642663687,0.007165045284034914,-0.011272888656297489,-0.3284082794663737
6441,1.0,299.56725,14998.63,0.0,-0.06441008515294666,0.0,0.0,0.0,0.0,-0.9946069973025681,-2.220922933163028,-1.3436790636107987,0.01030311205183799,-0.0012085383513984486,-0.33953401887689866
6442,1.0,300.06444,14868.38,0.0,-0.06442011413042348,0.0,0.0,0.0,0.0,-0.9770669591940011,-2.2200869005055184,-1.3224624171168788,0.0048630532236209854,0.008338375626258603,-0.34258737712574167
6443,1.0,300.43475,14804.732,0.0,-0.06443011011784261,0.0,0.0,0.0,0.0,-0.9443820542257522,-2.2147807123818377,-1.3411060163068589,-0.024603290058405676,-0.0011677532110232688,-0.36550231184726967
6444,1.0,300.5057,14773.44,0.0,-0.06444010610526207,0.0,0.0,0.0,0.0,-0.959433539956218,-2.222042270548498,-1.3092810465659788,-0.007054618349711623,-0.006159184411714175,-0.37907109857390464
6445,1.0,299.70382,14848.573999999999,0.0,-0.0644501020926812,0.0,0.0,0.0,0.0,-0.9704821406366301,-2.2275146316885777,-1.3155990662395187,-0.006039839863260785,0.018371065310582982,-0.39107131335073364
6446,1.0,298.84019,14854.163999999999,0.0,-0.06446009808010056,0.0,0.0,0.0,0.0,-0.9765672141121801,-2.2307006953030184,-1.3080271495672287,0.008641343080359161,0.020701926588871083,-0.3857384564844216
6447,1.0,299.03672,14602.642,0.0,-0.06447009406752002,0.0,0.0,0.0,0.0,-0.9372587540352372,-2.215212458249448,-1.2863673074795687,-0.007168352633686323,-0.015225208473361085,-0.37869498013678465
6448,1.0,299.59064,14706.472,0.0,-0.06448009005493915,0.0,0.0,0.0,0.0,-0.9347084035335372,-2.2252539693904683,-1.3104377728801386,-0.005365327276366574,-0.018035856846250482,-0.37443201405106263
6449,1.0,299.56897999999995,14990.308,0.0,-0.06449008604235862,0.0,0.0,0.0,0.0,-0.953683325373716,-2.244582930948088,-1.3584130372899288,0.0031392732446971472,-0.004581752400383755,-0.3785647369689306
6450,1.0,299.68356,14963.024,0.0,-0.06450011501983532,0.0,0.0,0.0,0.0,-0.967926683354426,-2.240694279714308,-1.3397646758244788,0.017414722375949286,-0.004787547953994196,-0.37147928166965066
6451,1.0,300.0411,14828.83,0.0,-0.06451011100725457,0.0,0.0,0.0,0.0,-0.9584932337309171,-2.231648286796538,-1.3174526046474488,-0.0026735252368563977,-0.014256450185252087,-0.36525156284502264
6452,1.0,299.86534,14816.461000000001,0.0,-0.06452010699467392,0.0,0.0,0.0,0.0,-0.966683445746728,-2.2215655363764477,-1.3155850833881386,0.0015972501700363185,-0.01204012163201749,-0.3399964054275327
6453,1.0,299.906,14869.658000000001,0.0,-0.06453010298209316,0.0,0.0,0.0,0.0,-0.9796779223166832,-2.2195971967321877,-1.3207296581208687,-0.003913472416179656,0.013612876278236288,-0.35737035157970765
6454,1.0,299.69787,15045.561000000002,0.0,-0.06454009896951252,0.0,0.0,0.0,0.0,-0.9730145464790589,-2.2416227207809376,-1.3588376904068387,0.006963808241299363,0.02887406019639787,-0.3561024210670727
6455,1.0,299.58263999999997,15067.202,0.0,-0.06455009495693198,0.0,0.0,0.0,0.0,-0.9862332654286451,-2.2320296741341776,-1.3617901998732287,-0.002661927474886787,0.002207802965568188,-0.36710201084014765
6456,1.0,300.00142999999997,14928.563,0.0,-0.06456009094435111,0.0,0.0,0.0,0.0,-0.982747289917106,-2.2072531760639276,-1.347909990728359,0.00986682702643001,0.0067811540027477935,-0.35237762250696364
6457,1.0,300.99342,14884.537,0.0,-0.06457008693177047,0.0,0.0,0.0,0.0,-0.9876031592988431,-2.225732122112658,-1.3111923402296088,0.005294532302479655,0.0051377692384333455,-0.37057188580759765
6458,1.0,300.59213,14993.944,0.0,-0.06458011590924728,0.0,0.0,0.0,0.0,-1.005704801407836,-2.2206131826074578,-1.3314666641305286,0.011374504469076188,-0.0016356907510051081,-0.35821344659041465
6459,1.0,300.45701,15110.428999999998,0.0,-0.06459011189666652,0.0,0.0,0.0,0.0,-1.009870333363942,-2.237737919897538,-1.3455847843988789,-0.004454444922044485,-0.018592045024891982,-0.35626565565818263
6460,1.0,300.86542000000003,14898.937,0.0,-0.06460010788408588,0.0,0.0,0.0,0.0,-0.9582369625156251,-2.2318559017420276,-1.3388118154304387,-0.0014804656992855885,-0.02806767928981427,-0.35675536956401366
6461,1.0,300.27282,14760.098,0.0,-0.06461010387150512,0.0,0.0,0.0,0.0,-0.9466112551082572,-2.2193530034580875,-1.3207369535215887,0.004713430837004405,0.005417179539633995,-0.36696321584144964
6462,1.0,300.0332,14879.251,0.0,-0.0646200998589247,0.0,0.0,0.0,0.0,-0.953767009699475,-2.228800040765438,-1.3403538807576287,0.01225187165116559,-0.0006588585517267764,-0.36945253828962665
6463,1.0,299.63572,14894.053999999998,0.0,-0.06463009584634383,0.0,0.0,0.0,0.0,-0.9665765073311741,-2.238593609606988,-1.322250445195959,0.0015644613968003186,0.008719787281901002,-0.3816706221029576
6464,1.0,299.95993,14799.356000000002,0.0,-0.06464009183376307,0.0,0.0,0.0,0.0,-0.952391198448693,-2.232068988238058,-1.3141746392489386,-0.013193855818632189,-0.013165402742574089,-0.38935545536639166
6465,1.0,300.17512999999997,14791.671999999999,0.0,-0.06465008782118242,0.0,0.0,0.0,0.0,-0.9604582499148492,-2.218330938082218,-1.3175098532780987,0.0013356192670153587,0.01097353708650379,-0.3866362264705246
6466,1.0,299.95896,14772.437,0.0,-0.06466008380860166,0.0,0.0,0.0,0.0,-0.9314918917535921,-2.220915941737338,-1.3380441771546787,-0.011882697016980888,0.014762269701422586,-0.38246753317410664
6467,1.0,299.45732999999996,14854.128,0.0,-0.06467011278607848,0.0,0.0,0.0,0.0,-0.9629266892784651,-2.2282351538346874,-1.3241222221056888,0.003604541883915587,0.006998843086032033,-0.3707300034857026
6468,1.0,299.82392999999996,15099.027,0.0,-0.06468010877349784,0.0,0.0,0.0,0.0,-0.9855519256639019,-2.238547506727438,-1.3656276819769588,-0.009476028216561171,0.0019710374226512483,-0.36190635816987665
6469,1.0,299.6401,15109.48,0.0,-0.06469010476091719,0.0,0.0,0.0,0.0,-1.00599655664163,-2.253631558316118,-1.3332766327841588,-0.009467274748947272,0.0037343858312301865,-0.34727293943067067
6470,1.0,300.23342,14911.64,0.0,-0.06470010074833654,0.0,0.0,0.0,0.0,-0.976504706713511,-2.2208631514071278,-1.3353984798185687,0.004163354481641096,-0.007179961845382062,-0.3460862411785527
6471,1.0,300.40963999999997,15009.803999999998,0.0,-0.06471009673575578,0.0,0.0,0.0,0.0,-0.985334745637468,-2.2317996663614776,-1.345471097737659,-0.003266152624869167,-0.007137386900030243,-0.33601315716441665
6472,1.0,300.48663999999997,15151.611,0.0,-0.06472009272317503,0.0,0.0,0.0,0.0,-0.978609065051195,-2.2531861335721577,-1.3739162704449785,0.0034639535338655968,-9.247962742977862e-05,-0.3491788426037687
6473,1.0,300.46188,15081.343,0.0,-0.06473008871059438,0.0,0.0,0.0,0.0,-0.9853919740031161,-2.237631224662008,-1.3613283604776487,-0.0027551060554077975,0.002735517803149588,-0.36516914508188864
6474,1.0,299.99281,14937.445,0.0,-0.06474008469801362,0.0,0.0,0.0,0.0,-0.9663167302705361,-2.2285601031417577,-1.3457334281885487,0.01178172563126579,0.014947522217205588,-0.3690930878166516
6475,1.0,299.68237999999997,14847.582,0.0,-0.06475011367549033,0.0,0.0,0.0,0.0,-0.9808063181580471,-2.2161871035206375,-1.3163008432587788,0.003919493452248886,0.007230430211662903,-0.3654704147341217
6476,1.0,299.81397000000004,14878.915,0.0,-0.06476010966290979,0.0,0.0,0.0,0.0,-0.9671420022119841,-2.225725941287048,-1.3299506393309088,0.008995897022225913,-0.01027556380811919,-0.3742725487503246
6477,1.0,299.91001,14990.749,0.0,-0.06477010565032915,0.0,0.0,0.0,0.0,-0.9803163104096871,-2.250664762023318,-1.325832284299459,0.0015441011492909186,0.0015121209496347186,-0.37289697054706566
6478,1.0,299.93382,15044.192,0.0,-0.0647801016377485,0.0,0.0,0.0,0.0,-0.958111451225738,-2.2455008342136775,-1.3694464189538385,0.01059529994342469,-0.001001113674012227,-0.35142325237027466
6479,1.0,299.5499,14891.528,0.0,-0.06479009762516774,0.0,0.0,0.0,0.0,-0.9563385573932671,-2.241136056757908,-1.3291781374546685,-0.010185030924934292,-0.0025875378949451076,-0.38144905470359064
6480,1.0,299.7827,14829.883,0.0,-0.06480009361258687,0.0,0.0,0.0,0.0,-0.9202521009118112,-2.250207178278158,-1.3374549722215288,0.00041819815648544455,-0.015359198640084884,-0.38124207810566363
6481,1.0,300.41185,15024.065,0.0,-0.06481008960000634,0.0,0.0,0.0,0.0,-0.985873723763161,-2.2526549878697377,-1.328412019054059,-0.02144829471853188,-0.0009724159385849809,-0.3781879193892416
6482,1.0,300.2122,14991.138,0.0,-0.06482008558742569,0.0,0.0,0.0,0.0,-0.959351922660663,-2.2548937639656876,-1.3426859771877886,0.0013007382336478687,-0.01004394496776019,-0.38008604080157166
6483,1.0,299.7936,14790.989,0.0,-0.06483011456490229,0.0,0.0,0.0,0.0,-0.9628662185124971,-2.230678302475808,-1.3025468850763686,-0.003720933416277536,-0.017827856865722483,-0.37466234606379467
6484,1.0,300.07698999999997,14927.669,0.0,-0.06484011055232164,0.0,0.0,0.0,0.0,-0.9456188272978121,-2.2531382068424275,-1.3388816283623288,0.016356589349519682,-0.003457493456528036,-0.3864972288218066
6485,1.0,299.78309,15051.677,0.0,-0.0648501065397411,0.0,0.0,0.0,0.0,-0.9919545111907881,-2.246906110777368,-1.3364733355246488,0.01091077130905929,0.0065899434750517835,-0.37879785541943767
6486,1.0,300.49387,15097.138,0.0,-0.06486010252716046,0.0,0.0,0.0,0.0,-0.9819473694931601,-2.257521830750058,-1.3496837863534186,0.013224566415913087,0.01314842979014899,-0.37643799593653765
6487,1.0,300.54989,15150.798999999999,0.0,-0.0648700985145797,0.0,0.0,0.0,0.0,-1.028871275466689,-2.238650655587618,-1.3379426494946587,-0.009912228432935781,0.011043400680898789,-0.34399079944174865
6488,1.0,300.21623,15057.473999999998,0.0,-0.06488009450199883,0.0,0.0,0.0,0.0,-0.9914683639253089,-2.2249718805626277,-1.3606559677112886,-0.014595016560415985,-0.0006620211687339023,-0.34617570102988166
6489,1.0,300.11076,14965.806,0.0,-0.0648900904894183,0.0,0.0,0.0,0.0,-0.9916640427846211,-2.2254309841829376,-1.3321361184715987,-0.017146287093206786,-0.0035199782597198064,-0.34593339240096765
6490,1.0,300.1357,15085.85,0.0,-0.06490008647683765,0.0,0.0,0.0,0.0,-0.9740424583080061,-2.2369800088227376,-1.3746993101222587,0.002974409651401377,0.0026011887042673375,-0.3498742868099037
6491,1.0,299.98712,15224.517,0.0,-0.06491011545431424,0.0,0.0,0.0,0.0,-1.023589810645449,-2.238283859051418,-1.3659993421136387,0.016443979130894383,0.0018407874660215779,-0.3531788094935347
6492,1.0,299.76999,14953.848,0.0,-0.06492011144173382,0.0,0.0,0.0,0.0,-0.964790694559928,-2.238017272950108,-1.342788518097909,0.0055750898054435245,-0.00045978555789230163,-0.3808862348030447
6493,1.0,299.40731,14764.673999999999,0.0,-0.06493010742915306,0.0,0.0,0.0,0.0,-0.971989694665414,-2.225885629502808,-1.2902167459344789,0.02135648919322138,0.0010259377137771689,-0.3904575269701576
6494,1.0,299.89064,14979.901000000002,0.0,-0.06494010341657241,0.0,0.0,0.0,0.0,-0.9593126085567831,-2.251413452522208,-1.3427898353230385,-0.0006479778871179385,0.008646559595848992,-0.37473230085069864
6495,1.0,300.53719,15102.915,0.0,-0.06495009940399155,0.0,0.0,0.0,0.0,-0.9971853337720301,-2.254375182564508,-1.3393484326833986,-0.0055528307272467246,-0.001860569046398868,-0.37767492099611266
6496,1.0,299.92347,14907.281,0.0,-0.06496009539141079,0.0,0.0,0.0,0.0,-0.9495906967623051,-2.243244022265948,-1.3386063283101588,-0.025713013726926873,-0.004424566709720736,-0.38739525212043463
6497,1.0,300.19097999999997,14901.536,0.0,-0.06497009137883014,0.0,0.0,0.0,0.0,-0.9589317075791911,-2.242478005190348,-1.3282851601415386,-0.014347058048944386,0.0014034601102357288,-0.37685468490766166
6498,1.0,301.0098,14922.267,0.0,-0.0649800873662496,0.0,0.0,0.0,0.0,-0.949420328890491,-2.244178948133218,-1.3423973022342988,-0.013179266030442288,0.00022373659557858275,-0.3721334663317137
6499,1.0,300.6848,15005.536,0.0,-0.06499011634372631,0.0,0.0,0.0,0.0,-0.985543556218076,-2.242453383212918,-1.3333112859375786,0.00033943383883951173,0.006924868128031274,-0.3547735840909267
6500,1.0,300.72542000000004,15242.443000000001,0.0,-0.06500011233114578,0.0,0.0,0.0,0.0,-0.991326275863786,-2.262730037589068,-1.3792656230229186,0.007817993882300924,-0.0036586589638065267,-0.3537709528519747
6501,1.0,300.11553,15150.361,0.0,-0.06501010831856491,0.0,0.0,0.0,0.0,-0.984960076147991,-2.2598751041073077,-1.3604963808205386,0.02066036408301918,-0.01087312298834369,-0.34234473412429467
6502,1.0,299.46668999999997,14948.003,0.0,-0.06502010430598437,0.0,0.0,0.0,0.0,-0.9386637570214001,-2.260349913104168,-1.3448058990470089,0.007276193449779383,-0.0055195094910831756,-0.36730298899748265
6503,1.0,300.31138,15129.604,0.0,-0.0650301002934035,0.0,0.0,0.0,0.0,-0.9925065298452681,-2.257677668615438,-1.348837621194909,0.013704229894002185,-0.007469940041150682,-0.36091006987655067
6504,1.0,300.98295,15304.35,0.0,-0.06504009628082275,0.0,0.0,0.0,0.0,-1.006082095215072,-2.2724450795478677,-1.3736132073400686,-0.0068938296430180145,0.0025670808820511576,-0.36391842968845267
6505,1.0,299.92717999999996,15000.778999999999,0.0,-0.06505009226824232,0.0,0.0,0.0,0.0,-0.9956967579176189,-2.242109891429018,-1.3220554958767186,-0.007363107611557143,0.011762749483392988,-0.36700685652325665
6506,1.0,300.13037,14874.002,0.0,-0.06506008825566145,0.0,0.0,0.0,0.0,-0.9470110734652161,-2.2317532595068976,-1.3425608408004388,-0.01199682849499479,0.008512080637276952,-0.34764906800029166
6507,1.0,299.94023,15007.4,0.0,-0.06507011723313827,0.0,0.0,0.0,0.0,-0.9847869117059012,-2.239693695240558,-1.3373940758905187,0.002695649147489857,0.015097050574212885,-0.35429959582664766
6508,1.0,299.64515,15199.562,0.0,-0.06508011322055762,0.0,0.0,0.0,0.0,-0.9887893509259111,-2.2536309503660577,-1.3778668312598685,0.017599919162976783,0.008741932065486523,-0.36529384577169566
6509,1.0,299.7342,15252.598,0.0,-0.06509010920797687,0.0,0.0,0.0,0.0,-1.019114082303729,-2.263723833287148,-1.3535710190370587,0.016002515181575284,-0.015025356036887184,-0.37788733874707664
6510,1.0,299.70279,15003.857,0.0,-0.06510010519539622,0.0,0.0,0.0,0.0,-0.962747019770733,-2.249480475306438,-1.3485703258185289,0.0008752387995918442,-0.007544017540061562,-0.36867430141782065
6511,1.0,299.76564,14843.353000000001,0.0,-0.06511010118281546,0.0,0.0,0.0,0.0,-0.9464516276875031,-2.2487198284563683,-1.3168371565367087,-0.004127119442164976,-0.030698967196252175,-0.3784245031550907
6512,1.0,300.47227999999996,15067.937,0.0,-0.06512009717023481,0.0,0.0,0.0,0.0,-0.9507379795855332,-2.277105928682858,-1.352432632549709,0.004823297342697386,0.002026832140732758,-0.37192689503382664
6513,1.0,300.11982,15237.931,0.0,-0.06513009315765428,0.0,0.0,0.0,0.0,-1.008196403668738,-2.2732705744043376,-1.3504835446573489,-0.001981562760715018,-0.0008771785149207792,-0.37620851505388964
6514,1.0,299.46645,14976.323,0.0,-0.06514008914507341,0.0,0.0,0.0,0.0,-0.957312787231916,-2.256006008600458,-1.3391093056597987,0.009170852079892631,0.001972090493480178,-0.37376134380987264
6515,1.0,299.93605,14750.118999999999,0.0,-0.06515008513249276,0.0,0.0,0.0,0.0,-0.9527389661480151,-2.254928518444118,-1.2760004417314386,0.00023739498401156078,0.0031006279872081567,-0.39240363590722366
6516,1.0,300.0811,14967.94,0.0,-0.06516011410996958,0.0,0.0,0.0,0.0,-0.9670200676949501,-2.254774808403948,-1.3280850432467886,0.014480985394161986,0.018148615370378884,-0.38909467518815466
6517,1.0,300.62511,15310.905,0.0,-0.06517011009738882,0.0,0.0,0.0,0.0,-1.0288407766386791,-2.2675152125113276,-1.3577767162271286,-0.001141246385757249,-0.0020094355484408482,-0.3792458740836537
6518,1.0,299.83769,15173.589,0.0,-0.06518010608480818,0.0,0.0,0.0,0.0,-0.9779487096960231,-2.2557138885966275,-1.3787297150450288,-0.010643489104930591,-0.0024769379988297474,-0.35392238307941964
6519,1.0,299.7147,15014.466999999999,0.0,-0.06519010207222742,0.0,0.0,0.0,0.0,-0.980360984606596,-2.243977311363318,-1.3396848317165988,0.004719834273661376,-0.008302214250064752,-0.35358380555850466
6520,1.0,299.9387,15161.645,0.0,-0.06520009805964677,0.0,0.0,0.0,0.0,-0.982768943071743,-2.2560838262081377,-1.3699085623244487,0.002879195451429467,0.013134598926283988,-0.3570249447531187
6521,1.0,300.29169,15265.965,0.0,-0.06521009404706613,0.0,0.0,0.0,0.0,-1.026002663108579,-2.253512298779348,-1.3609571056410088,0.003942617339406036,-0.0074026338900080825,-0.37101955996677966
6522,1.0,299.12209,15312.235,0.0,-0.06522009003448537,0.0,0.0,0.0,0.0,-1.005896619784267,-2.265376545525258,-1.3832641105675385,-6.0961534667185046e-05,-0.007407258262139473,-0.3677519601167926
6523,1.0,299.4442,15135.729,0.0,-0.06523008602190472,0.0,0.0,0.0,0.0,-1.000728172879181,-2.252696733773858,-1.3474585878088088,-0.005320150102107934,-0.0022139707202518976,-0.3598848431603687
6524,1.0,299.5668,14861.562,0.0,-0.06524011499938154,0.0,0.0,0.0,0.0,-0.9422794893407451,-2.2404624480914275,-1.3348016755096686,0.01017027597697809,0.007060496112216713,-0.37026473930478465
6525,1.0,299.99073,14951.801000000001,0.0,-0.06525011098680078,0.0,0.0,0.0,0.0,-0.9727118785416882,-2.241625557881218,-1.330636812298629,0.004190265087071965,0.009186323496994542,-0.36591901095089463
6526,1.0,300.16882000000004,15209.906,0.0,-0.06526010697422013,0.0,0.0,0.0,0.0,-0.9949818086470591,-2.261821050924358,-1.3666288744007686,-0.0052170909145617846,0.014080371635874486,-0.36473782477932065
6527,1.0,299.93824,15217.11,0.0,-0.06527010296163938,0.0,0.0,0.0,0.0,-0.999561557244045,-2.2769187813893876,-1.3491411909248687,-0.011841720169686789,0.004514491338870606,-0.37749282982064164
6528,1.0,299.3949,14975.212,0.0,-0.06528009894905873,0.0,0.0,0.0,0.0,-0.958145800404128,-2.263403342280518,-1.3305413641392088,-0.026156388665934574,0.016502818564201382,-0.3932973528929266
6529,1.0,299.59521,15115.893999999998,0.0,-0.06529009493647808,0.0,0.0,0.0,0.0,-0.9895694927079051,-2.2627478707908275,-1.3425369280980788,0.0025032848319049778,-0.007741625120938913,-0.37268295186094363
6530,1.0,300.62478,15232.979,0.0,-0.06530009092389732,0.0,0.0,0.0,0.0,-0.9880266573106391,-2.263473053887398,-1.3789456386413386,-0.002140455676471528,-0.01037325023701009,-0.36581829389095466
6531,1.0,300.44826,15097.408000000001,0.0,-0.06531008691131668,0.0,0.0,0.0,0.0,-0.98126768132608,-2.253656788243608,-1.3543105902850485,0.021706849799549278,-0.00043821588493104055,-0.3610538196682377
6532,1.0,300.27971,15060.118999999999,0.0,-0.0653201158887935,0.0,0.0,0.0,0.0,-0.964994459155038,-2.265096989822668,-1.3478088683683787,0.01085193592875269,-0.006097788548404874,-0.3880848600059936
6533,1.0,299.84528,15100.07,0.0,-0.06533011187621263,0.0,0.0,0.0,0.0,-0.9946000869368861,-2.249836531391578,-1.3456075825261289,0.019090661346101583,-0.0035991200839554966,-0.3725587273986836
6534,1.0,299.64522,15137.521999999999,0.0,-0.06534010786363209,0.0,0.0,0.0,0.0,-0.9704750884159342,-2.274829358358178,-1.3561241053140287,-0.008234034474685932,-0.011686205531088689,-0.38512097174098064
6535,1.0,299.45531,15231.469,0.0,-0.06535010385105144,0.0,0.0,0.0,0.0,-1.0004568042373991,-2.2657758673896677,-1.3637534732669885,0.0045223694597231155,-0.0046777829759612356,-0.3534149980918446
6536,1.0,299.33569,15241.208999999999,0.0,-0.06536009983847069,0.0,0.0,0.0,0.0,-0.98277843722518,-2.266961775306708,-1.3832068619368885,-0.012256113116084186,0.006581063857800433,-0.36195134647431665
6537,1.0,299.10101000000003,15141.163,0.0,-0.06537009582589004,0.0,0.0,0.0,0.0,-0.99839626896654,-2.257414527564468,-1.3467244881113587,-0.00974358794989226,0.0012297917788709988,-0.34024120665169266
6538,1.0,299.78566,15159.433,0.0,-0.06538009181330928,0.0,0.0,0.0,0.0,-0.9939021197380021,-2.251867692542038,-1.3623193190754488,0.0018104495421274584,0.0023018438219242978,-0.35133017521608867
6539,1.0,300.35898,15326.576000000001,0.0,-0.06539008780072864,0.0,0.0,0.0,0.0,-1.028136466494169,-2.263896085804148,-1.3668640497489788,-0.01304914647910049,0.012330794714704689,-0.35457644615147066
6540,1.0,300.18571000000003,15265.726999999999,0.0,-0.06540011677820545,0.0,0.0,0.0,0.0,-0.9792406745010301,-2.277485593495328,-1.3836736662579587,0.015155155401197384,0.0020421089124904577,-0.3737880530825086
6541,1.0,299.87415,15130.524,0.0,-0.06541011276562458,0.0,0.0,0.0,0.0,-0.99363571602171,-2.249875440195418,-1.3557904420560987,0.011619732271528288,-0.016832660856004284,-0.36745325398731266
6542,1.0,300.00427,15180.169,0.0,-0.06542010875304405,0.0,0.0,0.0,0.0,-0.976735758133814,-2.276521080725138,-1.361135437658609,0.01946746271378898,-0.004660308667386656,-0.38577132631766564
6543,1.0,300.28895,15220.133,0.0,-0.0654301047404634,0.0,0.0,0.0,0.0,-1.018337426102079,-2.255381846538858,-1.3528211126380487,0.01273578976642459,-0.017015225219271984,-0.3795757680512116
6544,1.0,300.08831000000004,15153.861,0.0,-0.06544010072788253,0.0,0.0,0.0,0.0,-0.9777029965467732,-2.280163816159648,-1.3485284785893987,0.006125347836549764,0.011847418688249189,-0.3990301497062096
6545,1.0,299.79637,15141.415,0.0,-0.065450096715302,0.0,0.0,0.0,0.0,-0.9956875576067111,-2.2757535437743877,-1.3311708964263385,-0.0077739382745779725,0.008680868852185051,-0.38937981389879567
6546,1.0,299.4567,15162.248,0.0,-0.06546009270272113,0.0,0.0,0.0,0.0,-0.9602397020007801,-2.270824183362898,-1.3778808141112486,-0.0027883933476929973,-0.0018755845009557782,-0.37485614027792064
6547,1.0,299.72868,15104.47,0.0,-0.0654700886901406,0.0,0.0,0.0,0.0,-0.978257984024046,-2.2722323983518775,-1.3408914099356788,0.002214227376502228,0.005461868327344434,-0.36792684708405266
6548,1.0,299.55082000000004,15164.367,0.0,-0.0654801176676173,0.0,0.0,0.0,0.0,-0.961878380725005,-2.280018009470258,-1.3676924830307386,0.013413458526055286,0.004678091713266706,-0.3686472679051527
6549,1.0,299.25745,15235.718,0.0,-0.06549011365503654,0.0,0.0,0.0,0.0,-1.023496895611279,-2.261191923937268,-1.3465890165729886,0.009046781023697771,-0.008441129014924572,-0.35807109508386564
6550,1.0,299.80951,15200.691,0.0,-0.0655001096424559,0.0,0.0,0.0,0.0,-0.986073871055414,-2.279169007211468,-1.3553876751413487,-0.0013179334931449089,-0.0017856836831832586,-0.37540848317243264
6551,1.0,300.4828,15128.858,0.0,-0.06551010562987536,0.0,0.0,0.0,0.0,-1.0023776224519692,-2.251406258446498,-1.3450112848422788,-0.003536954150570197,0.01312258279334809,-0.3701993745408336
6552,1.0,300.31721,15249.979,0.0,-0.06552010161729449,0.0,0.0,0.0,0.0,-0.9763420192774551,-2.2788453751295275,-1.3804252877623686,-0.0008553859674675222,0.018379324312148084,-0.38983416537613663
6553,1.0,300.08107,15328.003999999999,0.0,-0.06553009760471395,0.0,0.0,0.0,0.0,-1.009599542274717,-2.272349124763398,-1.3773818897620087,-0.012731814786282289,-0.002963525926777237,-0.36288431676889366
6554,1.0,300.11605,15167.073999999999,0.0,-0.06554009359213309,0.0,0.0,0.0,0.0,-0.9736245129067581,-2.2616342076059177,-1.3751532461670588,0.0014409395221596586,-0.016824016819401183,-0.3829374076429796
6555,1.0,299.91759,15180.523000000001,0.0,-0.06555008957955244,0.0,0.0,0.0,0.0,-1.0055539993954532,-2.263064714097098,-1.3458812613781386,0.0032429580128550363,-0.008374964796644672,-0.36020439184440567
6556,1.0,300.12161000000003,15203.383,0.0,-0.0655600855669719,0.0,0.0,0.0,0.0,-0.9883344016310109,-2.2652375276115375,-1.3678769958739487,0.019276125631155484,-0.0036251613208005667,-0.36828643941204164
6557,1.0,299.81021,15279.768,0.0,-0.0655701145444485,0.0,0.0,0.0,0.0,-1.0064871622075489,-2.283510277264918,-1.3546704967205685,-0.009690876551865051,0.0013758719444629886,-0.3517489616149197
6558,1.0,299.58114,15397.341,0.0,-0.06558011053186807,0.0,0.0,0.0,0.0,-0.9809314849429001,-2.3130621217314578,-1.3864135958533685,-0.009499412711644041,0.016121612598329286,-0.3764761650678046
6559,1.0,299.11111,15309.502,0.0,-0.0655901065192872,0.0,0.0,0.0,0.0,-1.003708718975838,-2.277314252903418,-1.3726832463982888,-0.011920289608940988,0.016736347380998884,-0.3480325932956427
6560,1.0,299.21586,15147.476,0.0,-0.06560010250670645,0.0,0.0,0.0,0.0,-0.9570449244354801,-2.292038803356618,-1.3553708551896886,0.0051355206338114245,0.011564972183123889,-0.39090372178419364
6561,1.0,298.76681,15193.626,0.0,-0.0656100984941258,0.0,0.0,0.0,0.0,-0.9997494644750899,-2.2702896939351476,-1.3484435682310185,0.0034412934112792166,-0.00949362614164795,-0.37485057753487167
6562,1.0,299.11928,15329.163,0.0,-0.06562009448154504,0.0,0.0,0.0,0.0,-0.9948076208223681,-2.279942623662818,-1.3849326295072089,-0.015572178744854386,-0.009774981275090541,-0.4082311800217806
6563,1.0,299.94637,15229.562,0.0,-0.0656300904689644,0.0,0.0,0.0,0.0,-1.0022555156824182,-2.279362132680528,-1.3477889073414089,-0.008616959622002702,0.0004727259167744155,-0.39262874968194067
6564,1.0,299.90532,15013.374,0.0,-0.06564008645638375,0.0,0.0,0.0,0.0,-0.9526327066100281,-2.2510574977620776,-1.3600006988716187,-0.008216510415531442,0.006904618831407823,-0.4034990284772536
6565,1.0,299.81835,15084.06,0.0,-0.06565011543386057,0.0,0.0,0.0,0.0,-0.972729995453476,-2.2563931714636682,-1.3560544950321587,-0.003731954942915277,-0.006517019865354785,-0.36611918864065063
6566,1.0,300.68797,15213.17,0.0,-0.06566011142128003,0.0,0.0,0.0,0.0,-0.970976880262957,-2.271150044595058,-1.3822968620220788,0.004017941439914946,-0.00977474741696746,-0.3761626958843676
6567,1.0,300.71849,15351.883999999998,0.0,-0.06567010740869916,0.0,0.0,0.0,0.0,-1.013686101518029,-2.284635491500968,-1.3682677051125087,0.01294318179689259,0.0005632967968380655,-0.35442016245604663
6568,1.0,300.24796000000003,15411.938,0.0,-0.0656801033961184,0.0,0.0,0.0,0.0,-1.013754698549799,-2.2895913990650776,-1.3814983196182686,0.012392282783773089,0.003081760054446037,-0.3670071402332847
6569,1.0,300.03754,15383.611,0.0,-0.06569009938353776,0.0,0.0,0.0,0.0,-1.029592000262819,-2.271552102234738,-1.3750895127357685,0.004531327299882186,-0.007951570339008894,-0.3392086034747827
6570,1.0,300.01414,15253.802,0.0,-0.065700095370957,0.0,0.0,0.0,0.0,-0.9830067123402091,-2.293772879577758,-1.3599954299710988,-0.005580165985794505,-0.0016492702275202984,-0.3753756032066876
6571,1.0,299.4605,15431.76,0.0,-0.06571009135837658,0.0,0.0,0.0,0.0,-1.0193773246797089,-2.2932984758809374,-1.3781937057421287,0.0013455172006172087,0.011351890753344389,-0.3589103701416957
6572,1.0,299.85456,15507.681,0.0,-0.06572008734579571,0.0,0.0,0.0,0.0,-1.007842992166359,-2.293495350375368,-1.4126094546636987,0.006580211005191263,0.013338361494893789,-0.37554052992546466
6573,1.0,300.25698,15223.979,0.0,-0.06573011632327252,0.0,0.0,0.0,0.0,-1.006289912810582,-2.281766676492838,-1.3396529143384486,-0.0008284975116838383,-0.0019380287741435482,-0.37095845085324863
6574,1.0,300.38725,15119.03,0.0,-0.06574011231069188,0.0,0.0,0.0,0.0,-0.958271625801546,-2.2679162569009077,-1.3696196847209385,0.00901105797949718,-0.02062495403177448,-0.40295939173899564
6575,1.0,300.35143,15306.427,0.0,-0.06575010829811112,0.0,0.0,0.0,0.0,-1.007724766144691,-2.284625257674958,-1.3604215016381487,0.006935623372542734,-0.007767918150433832,-0.37577045663815667
6576,1.0,300.12687999999997,15251.325,0.0,-0.06576010428553036,0.0,0.0,0.0,0.0,-0.9682937737331551,-2.289241523805548,-1.3784867376710486,0.004233061326245626,0.008365267587887632,-0.37927245163377665
6577,1.0,299.7541,15154.973,0.0,-0.06577010027294972,0.0,0.0,0.0,0.0,-0.984354578153233,-2.2716588987952777,-1.3507199359056787,0.008401378909526542,0.015087667878286883,-0.3670105852836247
6578,1.0,299.49877999999995,15231.097,0.0,-0.06578009626036907,0.0,0.0,0.0,0.0,-0.968912808749249,-2.3035935021969776,-1.3573668565616788,0.01096902609705859,0.01709926114281568,-0.3836757832558516
6579,1.0,299.07352000000003,15208.285,0.0,-0.06579009224778842,0.0,0.0,0.0,0.0,-1.0028622701073002,-2.281171189409068,-1.338905439739679,0.006037308055235915,0.009761118189872362,-0.38354224702517264
6580,1.0,299.3868,15372.3,0.0,-0.06580008823520767,0.0,0.0,0.0,0.0,-0.9890345675826121,-2.305640672699018,-1.3781202451098788,0.00930511633076848,-0.006284604914392213,-0.37967116554812663
6581,1.0,300.06064,15493.348999999998,0.0,-0.06581011721268448,0.0,0.0,0.0,0.0,-1.035031126799619,-2.2970164957978776,-1.3775435031529588,-0.015885109892488286,-0.027465070071091374,-0.3777673496702346
6582,1.0,299.8596,15271.864,0.0,-0.06582011320010384,0.0,0.0,0.0,0.0,-0.9878094063566981,-2.273080893985618,-1.3813750070810988,-0.0035335764813618463,-0.015515188492979884,-0.3766647815739197
6583,1.0,300.17368999999997,15077.228000000001,0.0,-0.06583010918752308,0.0,0.0,0.0,0.0,-0.961830920090321,-2.2748628969364875,-1.3464069355300188,-0.005508829733704165,0.0030082852366946373,-0.38800798472090664
6584,1.0,299.99674,15306.482,0.0,-0.06584010517494221,0.0,0.0,0.0,0.0,-0.995067732255539,-2.284732763510568,-1.3729877280533387,0.006558289339277764,0.012527237564592088,-0.3618506192818757
6585,1.0,299.92362,15519.758,0.0,-0.06585010116236167,0.0,0.0,0.0,0.0,-1.042063487793659,-2.289396044445798,-1.3861594727282887,-0.011792454936574688,-0.0005656599797812935,-0.3722715216578386
6586,1.0,299.94753,15381.173,0.0,-0.06586009714978103,0.0,0.0,0.0,0.0,-1.002875189046075,-2.2957245005953677,-1.3768928952637487,0.006742055417164063,-0.015428013520626387,-0.3645205839578807
6587,1.0,300.23084,15231.565,0.0,-0.06587009313720038,0.0,0.0,0.0,0.0,-0.9922192734419181,-2.2823325766736877,-1.3554636688988488,0.0036386305557048765,-0.016150950241724686,-0.36510583721564066
6588,1.0,300.05129,15419.403999999999,0.0,-0.06588008912461962,0.0,0.0,0.0,0.0,-0.9917606156516521,-2.299918342759268,-1.3954346628186787,0.009239052829548521,-0.0032815457177383465,-0.3609992764153547
6589,1.0,300.74815,15649.665,0.0,-0.06589011810209644,0.0,0.0,0.0,0.0,-1.043340892194729,-2.3238884963999378,-1.3898781005952885,-0.00038960740000375667,-0.0029728095268434576,-0.36413489030731566
6590,1.0,300.44959,15490.886,0.0,-0.0659001140895158,0.0,0.0,0.0,0.0,-1.0209905201639191,-2.3005527386468776,-1.3872990751157588,-0.015913025945993385,0.00874386950100273,-0.37504441227900165
6591,1.0,300.12446,15294.173999999999,0.0,-0.06591011007693504,0.0,0.0,0.0,0.0,-0.9947026075820041,-2.3006289350543976,-1.353715407176309,-0.02449257221997868,0.027821001526469075,-0.3673928338838497
6592,1.0,299.80295,15109.732,0.0,-0.06592010606435417,0.0,0.0,0.0,0.0,-0.9561770149298241,-2.277802943426648,-1.3590013302979886,-0.016270339474507484,0.007183236264405223,-0.3782960027774086
6593,1.0,299.89923,15200.311000000002,0.0,-0.06593010205177352,0.0,0.0,0.0,0.0,-0.9684804751965811,-2.3012591766165977,-1.350775158036129,-0.00987006517109959,-0.011178053513187989,-0.3796965170656286
6594,1.0,299.88877,15430.872,0.0,-0.06594009803919298,0.0,0.0,0.0,0.0,-0.9896726719655881,-2.3121032831618273,-1.3888239151912487,-0.004946539256335415,-0.016183314463168785,-0.3945234564414336
6595,1.0,299.74869,15279.925,0.0,-0.06595009402661234,0.0,0.0,0.0,0.0,-1.003193694082509,-2.280060160674418,-1.3614619068408287,0.013168821448411487,-0.008661613857884732,-0.37459868356001164
6596,1.0,299.23736,15080.643999999998,0.0,-0.06596009001403158,0.0,0.0,0.0,0.0,-0.9642073867423601,-2.285198149281498,-1.3347336864279589,0.008402351528297533,0.0037013062552154865,-0.38612358271493064
6597,1.0,300.01477,15331.221000000001,0.0,-0.06597008600145071,0.0,0.0,0.0,0.0,-1.006506363296944,-2.285996286385268,-1.3678056630669089,0.00955231135828973,0.002441947635776468,-0.37418948250712664
6598,1.0,300.77493,15594.667,0.0,-0.06598011497892775,0.0,0.0,0.0,0.0,-1.023627604874179,-2.3070953958675875,-1.4096663684232384,-0.005791784181104594,0.005439514003638235,-0.36977074948353167
6599,1.0,300.68732,15415.556999999999,0.0,-0.06599011096634688,0.0,0.0,0.0,0.0,-0.99785438281306,-2.3093798695430476,-1.3787101593180986,-0.006983756906618144,0.01014440364892469,-0.3738947685830406
6600,1.0,300.52966000000004,15232.032,0.0,-0.06600010695376635,0.0,0.0,0.0,0.0,-0.9775677985859301,-2.2829931144138778,-1.369596582618659,-0.0016827264285971687,-0.01056510610369479,-0.3674285002873697
6601,1.0,300.24291,15369.771,0.0,-0.0660101029411857,0.0,0.0,0.0,0.0,-1.019187745585999,-2.299722886814978,-1.3531160697421587,0.0034902914503399467,-0.014269234361763786,-0.37600813471411365
6602,1.0,299.9862,15439.811000000002,0.0,-0.06602009892860494,0.0,0.0,0.0,0.0,-1.016042617275599,-2.295323760180818,-1.3819507357879186,-0.004088038791108016,-0.00922483348559518,-0.36219920771377867
6603,1.0,300.00652,15466.048999999999,0.0,-0.0660300949160243,0.0,0.0,0.0,0.0,-1.026454370003159,-2.3056853570284277,-1.3691530830498886,0.007529085172012853,0.005476320009545704,-0.37028105263139466
6604,1.0,300.27209,15303.551000000001,0.0,-0.06604009090344343,0.0,0.0,0.0,0.0,-0.9828237902996562,-2.278662888786518,-1.3904106648478487,-0.0099847155344897,0.01201201407424349,-0.3556394974938857
6605,1.0,299.42967999999996,15182.089,0.0,-0.06605008689086267,0.0,0.0,0.0,0.0,-0.9713671639364752,-2.286422864677368,-1.3571858900938187,0.013601591711872588,0.0007000061012652233,-0.3788979442643156
6606,1.0,299.15672,15356.671999999999,0.0,-0.0660601158683396,0.0,0.0,0.0,0.0,-1.0000825907104671,-2.2972490366958276,-1.3707130829038487,0.021608144041057778,-0.0060688224638211444,-0.36824270753772564
6607,1.0,299.88911,15679.455,0.0,-0.06607011185575884,0.0,0.0,0.0,0.0,-1.064605870718419,-2.321845986848358,-1.379710845116859,0.030720167428094473,0.005169167123257075,-0.3864848671705866
6608,1.0,300.19649,15503.725,0.0,-0.06608010784317819,0.0,0.0,0.0,0.0,-1.023756591611909,-2.308666642797658,-1.3803219362521686,0.007320595589036533,-0.01188411252737059,-0.3678901674304326
6609,1.0,300.48065,15151.963,0.0,-0.06609010383059766,0.0,0.0,0.0,0.0,-0.968424523526059,-2.3027983035184976,-1.3345954791143186,-0.007335133296171294,-0.004127857290887796,-0.4024913816503066
6610,1.0,300.38472,15262.738000000001,0.0,-0.06610009981801679,0.0,0.0,0.0,0.0,-0.9591592024916431,-2.295931507590798,-1.3844005718796986,-0.01105126856792529,0.006168023498961525,-0.3613864392785646
6611,1.0,300.00093,15423.283000000001,0.0,-0.06611009580543625,0.0,0.0,0.0,0.0,-0.9901305900832811,-2.3096431119190277,-1.3885192308861787,-0.007385095544027182,0.013311040219197386,-0.3933768018332676
6612,1.0,299.67374,15362.097,0.0,-0.06612009179285538,0.0,0.0,0.0,0.0,-0.980735086676017,-2.303164694754658,-1.3857939934172188,-0.008287481998910794,0.01041036052192259,-0.36364470017393763
6613,1.0,299.87179,15207.396999999999,0.0,-0.06613008778027474,0.0,0.0,0.0,0.0,-0.992860974862749,-2.291507049704138,-1.3383009347300188,-0.0003304740836377527,-0.007678555976414473,-0.39387193662713366
6614,1.0,299.53022999999996,15248.48,0.0,-0.06614011675775155,0.0,0.0,0.0,0.0,-0.9866529333550631,-2.2958832768860375,-1.3526209957432986,0.0064294270286600445,-0.004295460104503906,-0.3666753109580357
6615,1.0,299.37473,15285.435,0.0,-0.0661501127451708,0.0,0.0,0.0,0.0,-1.000325953119485,-2.290640416893608,-1.3554241521449488,0.018340349647051585,-0.0005442072561465744,-0.4002934091358836
6616,1.0,299.54717999999997,15538.222,0.0,-0.06616010873259015,0.0,0.0,0.0,0.0,-1.007037944696907,-2.310410446219758,-1.4057831887399987,0.010202435521901991,0.0024009404923043777,-0.35382986321278864
6617,1.0,298.86187,15578.71,0.0,-0.0661701047200095,0.0,0.0,0.0,0.0,-1.024285001539059,-2.3204362519842276,-1.3908175860880088,-0.008454710416614952,0.0025813867575630377,-0.3885401842034306
6618,1.0,298.73248,15349.708,0.0,-0.06618010070742875,0.0,0.0,0.0,0.0,-1.007880928250103,-2.283285639717748,-1.3747614223533886,-0.009797404499803541,0.0015282029512468888,-0.3476288029982917
6619,1.0,299.47535,15429.087,0.0,-0.0661900966948481,0.0,0.0,0.0,0.0,-1.031958040571329,-2.304507048487138,-1.3535919933141287,-0.010866785108968189,-0.0058353836236325245,-0.3818702627701606
6620,1.0,300.47989,15581.826000000001,0.0,-0.06620009268226734,0.0,0.0,0.0,0.0,-1.0393597312268188,-2.2916342125916875,-1.4054919806612587,-0.013813751084061087,-0.005742823530972555,-0.34359356487254467
6621,1.0,300.19929,15479.428,0.0,-0.0662100886696867,0.0,0.0,0.0,0.0,-1.002608765064781,-2.3163454573554976,-1.386405388527559,-0.005693187144348824,-0.0052753333409098655,-0.38786544069683865
6622,1.0,300.38991,15348.751,0.0,-0.06622011764716351,0.0,0.0,0.0,0.0,-0.9565934911184272,-2.306719682730508,-1.4023239528985987,-0.003032909443274857,0.011305922636057689,-0.3630766316378737
6623,1.0,299.57785,15399.468,0.0,-0.06623011363458287,0.0,0.0,0.0,0.0,-0.9918500045754741,-2.307996479181518,-1.3812073141895487,0.0045512814367515055,0.014909078495161487,-0.38325497035682066
6624,1.0,299.9339,15466.953000000001,0.0,-0.06624010962200211,0.0,0.0,0.0,0.0,-0.996150886479938,-2.319493524091188,-1.3859232841299787,0.01023495274411119,0.008387580976289792,-0.36321307589633967
6625,1.0,299.64092999999997,15401.21,0.0,-0.06625010560942146,0.0,0.0,0.0,0.0,-1.013348689234729,-2.309897133719098,-1.3583375501574786,0.004381749800245036,-0.01041094212747999,-0.38200714272616965
6626,1.0,299.71249,15470.825,0.0,-0.0662601015968407,0.0,0.0,0.0,0.0,-0.9957498116928549,-2.323239813685918,-1.3837548275909686,-0.003373467361510307,-0.011843041447817188,-0.38534638949072764
6627,1.0,299.70794,15433.844,0.0,-0.06627009758426006,0.0,0.0,0.0,0.0,-0.990803793449721,-2.3161978268159276,-1.3845014915896587,0.0013929355827720386,-0.008157284022011251,-0.39092579037137165
6628,1.0,300.42958,15446.091,0.0,-0.0662800935716793,0.0,0.0,0.0,0.0,-0.9767989241450481,-2.3092819895833876,-1.4091450512467885,-0.004142577484365566,0.005591077473471385,-0.3765729304523546
6629,1.0,300.38445,15539.206,0.0,-0.06629008955909865,0.0,0.0,0.0,0.0,-1.011957760292455,-2.3191487150821577,-1.3924242967715788,-0.005393685005590265,0.0013640593734721787,-0.3783482459525646
6630,1.0,300.68174,15579.573,0.0,-0.06630011853657547,0.0,0.0,0.0,0.0,-1.031616777937649,-2.3089344447990876,-1.3952500486504587,-0.015851012000123083,0.01037772373620159,-0.36959484926617164
6631,1.0,300.67316,15393.726,0.0,-0.06631011452399482,0.0,0.0,0.0,0.0,-1.021338976873309,-2.298655731809658,-1.359313613978809,0.006871215724636194,0.01124921508096109,-0.37691672621128464
6632,1.0,301.01735,15337.185,0.0,-0.06632011051141407,0.0,0.0,0.0,0.0,-0.9957768756030261,-2.2944469948692876,-1.3718974709457386,0.009820944630101771,-0.0034277854702210874,-0.38265542014014964
6633,1.0,300.65785,15505.818000000001,0.0,-0.06633010649883342,0.0,0.0,0.0,0.0,-0.992955470567075,-2.309511794706068,-1.4109141859213885,0.012420567660314588,-0.02110708274735688,-0.3856250332682276
6634,1.0,300.39493,15576.393,0.0,-0.06634010248625266,0.0,0.0,0.0,0.0,-1.008677910248759,-2.3240258931134976,-1.4021306247795187,0.003479651716339887,-0.006568712541731453,-0.37880065198971363
6635,1.0,300.05084,15484.983999999999,0.0,-0.06635009847367201,0.0,0.0,0.0,0.0,-1.007251213577955,-2.3117022387722477,-1.3880950843943185,0.011979823118566489,0.006296577274923794,-0.3713624539331207
6636,1.0,300.40917,15427.441,0.0,-0.06636009446109137,0.0,0.0,0.0,0.0,-1.032962272745439,-2.2940329808784274,-1.3625613845243387,0.0020986182758674977,0.021065461472999182,-0.3611248485002477
6637,1.0,300.15713,15495.065,0.0,-0.06637009044851061,0.0,0.0,0.0,0.0,-1.016872266457479,-2.3176499155342376,-1.3755906662352289,0.0010541213666336788,0.008466169869945911,-0.37307049975919165
6638,1.0,300.17096000000004,15538.251,0.0,-0.06638008643592996,0.0,0.0,0.0,0.0,-1.020112133652229,-2.310419058845608,-1.3927092226996987,0.005422670645900926,0.0023172082398156477,-0.3814121825324516
6639,1.0,300.01678,15677.061000000002,0.0,-0.06639011541340678,0.0,0.0,0.0,0.0,-0.9928454012087121,-2.3521300058371577,-1.4204596098134485,0.013563349626598387,0.001944907830397458,-0.4042708008134216
6640,1.0,300.42578,15423.708999999999,0.0,-0.06640011140082602,0.0,0.0,0.0,0.0,-0.993616606124824,-2.3062375783329276,-1.3885682721910186,0.006534836247163124,-0.01153378637154609,-0.3981576299125986
6641,1.0,300.057,15235.242,0.0,-0.06641010738824538,0.0,0.0,0.0,0.0,-0.9727549518034392,-2.300665006757958,-1.3577131854458588,0.0070183084310531125,-0.02019010153935788,-0.3967139917001226
6642,1.0,300.01608,15417.657,0.0,-0.06642010337566451,0.0,0.0,0.0,0.0,-1.010119815803564,-2.3236467349260774,-1.3528162490375686,-0.005311087897188565,0.006461836846358644,-0.3941306396426656
6643,1.0,300.00366,15491.828000000001,0.0,-0.06643009936308397,0.0,0.0,0.0,0.0,-1.025545585988469,-2.306494133258248,-1.3770891618081187,0.0024706059963048276,0.02059607741717458,-0.3811349573050916
6644,1.0,300.34855,15488.166000000001,0.0,-0.06644009535050333,0.0,0.0,0.0,0.0,-0.9844338649735581,-2.342245244486608,-1.3813367062273187,-0.0073220833441583625,0.014522506356759788,-0.39730505088095563
6645,1.0,300.06264,15435.876,0.0,-0.06645009133792257,0.0,0.0,0.0,0.0,-0.9937908648770222,-2.298765365470478,-1.3995647715512887,-0.003107659638927127,0.00012199551469001988,-0.3683426342625877
6646,1.0,300.69967,15624.722,0.0,-0.06646008732534192,0.0,0.0,0.0,0.0,-1.0043179558634652,-2.3235360880151577,-1.4216713556080385,0.005750974722727014,-0.008185112024082663,-0.3748799820527736
6647,1.0,300.49993,15684.673,0.0,-0.06647011630281874,0.0,0.0,0.0,0.0,-1.034225795620139,-2.327161598197968,-1.4063616532220886,0.0007472905621543363,0.0023952620360939577,-0.3581969610112877
6648,1.0,300.00857,15626.636999999999,0.0,-0.06648011229023787,0.0,0.0,0.0,0.0,-1.0363170425015291,-2.3173402663036775,-1.3964501420688986,-0.006788710011393514,-0.010833777473710591,-0.38042594568011767
6649,1.0,299.77813,15525.521999999999,0.0,-0.06649010827765733,0.0,0.0,0.0,0.0,-1.042216792533789,-2.3065563468143875,-1.3705979776924886,-0.030458905956059972,-0.015383905730523287,-0.3678301323620077
6650,1.0,299.89302999999995,15402.015,0.0,-0.06650010426507647,0.0,0.0,0.0,0.0,-0.9956574843437431,-2.308119386418648,-1.3780511414530587,-0.00973619010958715,0.005493943873835045,-0.3914488908679976
6651,1.0,299.90464,15491.771999999999,0.0,-0.06651010025249593,0.0,0.0,0.0,0.0,-0.9974396899446331,-2.319793040820748,-1.3918789655677588,-0.004269278025894936,0.007774425343901044,-0.38359514881289364
6652,1.0,300.15559,15599.471000000001,0.0,-0.06652009623991528,0.0,0.0,0.0,0.0,-1.004643888023132,-2.326294256112368,-1.4109115514711288,0.006639183174261363,0.0013726138387664389,-0.3743473772702096
6653,1.0,299.65648999999996,15490.89,0.0,-0.06653009222733441,0.0,0.0,0.0,0.0,-1.0179244253613189,-2.302850587223658,-1.3880686385667087,0.002043640440016608,-0.025253581813584475,-0.36921454610613863
6654,1.0,299.96245,15418.398000000001,0.0,-0.06654008821475388,0.0,0.0,0.0,0.0,-1.00279803005096,-2.3133238442322877,-1.3706862317761987,0.007244797895430884,0.0026115251725124674,-0.37680274570753564
6655,1.0,299.89848,15596.886,0.0,-0.06655011719223058,0.0,0.0,0.0,0.0,-1.019527589669539,-2.3295696883856274,-1.391966611701409,-0.004267202484390096,0.019159331331878783,-0.38338934758508264
6656,1.0,300.62432,15689.248,0.0,-0.06656011317964983,0.0,0.0,0.0,0.0,-0.99764889569278,-2.3484958830284977,-1.4229949642136686,-0.01166052876030459,0.006380630626369213,-0.37377156750338164
6657,1.0,300.62377000000004,15507.874,0.0,-0.06657010916706918,0.0,0.0,0.0,0.0,-0.9837395758725371,-2.332372642137258,-1.3978944287614385,-0.019779618725096378,-0.0067208436342706245,-0.38422235062479365
6658,1.0,300.44901,15456.638,0.0,-0.06658010515448842,0.0,0.0,0.0,0.0,-0.9856068944818271,-2.311214865474148,-1.4016103208531685,-0.0073825986931307635,-0.00024655451160303577,-0.37306994247163666
6659,1.0,300.00347999999997,15427.214,0.0,-0.066590101141908,0.0,0.0,0.0,0.0,-1.001691398821744,-2.3141910849928773,-1.3736053039892886,0.014049155426793686,0.00029167232967081775,-0.36693243330341163
6660,1.0,299.54978,15443.194,0.0,-0.06660009712932724,0.0,0.0,0.0,0.0,-1.0074430319543861,-2.320156898931658,-1.3667456008122887,-0.004200217736179216,-0.015466810866955383,-0.4020973388189176
6661,1.0,299.21751,15622.732,0.0,-0.06661009311674637,0.0,0.0,0.0,0.0,-1.0320229899027389,-2.3218755737512775,-1.3950219660529486,0.0019634849603808783,-0.012049098014653387,-0.38050659025557665
6662,1.0,299.71406,15704.591999999999,0.0,-0.06662008910416573,0.0,0.0,0.0,0.0,-1.039373916728219,-2.3333937955880377,-1.4010360106964885,-0.0018615398413196781,0.0025324777831860976,-0.3939232577446986
6663,1.0,299.5909,15454.751,0.0,-0.06663011808164254,0.0,0.0,0.0,0.0,-0.9991165580651271,-2.3037038451328677,-1.3950379754045288,0.007986565869637682,0.026691987602544077,-0.36260446722377465
6664,1.0,299.85196,15455.867,0.0,-0.06664011406906178,0.0,0.0,0.0,0.0,-0.9998145455290132,-2.3179752701413476,-1.3804077585356385,0.00022222152323405682,-0.0030095417681436473,-0.38439930462225763
6665,1.0,300.00635,15681.145,0.0,-0.06665011005648114,0.0,0.0,0.0,0.0,-1.0287941671340792,-2.3264101719238077,-1.4114721827514587,0.0033187551998356372,-0.0022266886302070577,-0.34541445636225265
6666,1.0,299.62714,15652.829,0.0,-0.06666010604390049,0.0,0.0,0.0,0.0,-1.0339117894141492,-2.3327003272195976,-1.3914570482261186,0.012638211755294388,0.010809355106550289,-0.38503637549013164
6667,1.0,300.39284,15563.113000000001,0.0,-0.06667010203131996,0.0,0.0,0.0,0.0,-1.006823338325727,-2.3389534988867378,-1.3850208835909186,0.019287408171018983,0.013615156090961287,-0.3781191197074516
6668,1.0,300.52468999999996,15537.944,0.0,-0.06668009801873909,0.0,0.0,0.0,0.0,-1.0077258503222981,-2.331242868275758,-1.3841781634827486,0.014776525117079487,0.009358058749818491,-0.3968780976863186
6669,1.0,300.41377,15581.286,0.0,-0.06669009400615833,0.0,0.0,0.0,0.0,-0.997916464646687,-2.337368775730338,-1.4010368212965685,0.007682156965944862,-0.002423726967178228,-0.37426845521992064
6670,1.0,300.2211,15570.506000000001,0.0,-0.06670008999357768,0.0,0.0,0.0,0.0,-1.017874370806379,-2.335390202260068,-1.3797804553987287,0.016940136294111282,0.011020552904393889,-0.38695059744655064
6671,1.0,299.84745,15599.687,0.0,-0.0667101189710545,0.0,0.0,0.0,0.0,-1.017896155683529,-2.337296227023178,-1.3867229411088986,0.0071417943353152226,0.004820516883097975,-0.36491148571395965
6672,1.0,299.34913,15518.411,0.0,-0.06672011495847374,0.0,0.0,0.0,0.0,-1.014076000156509,-2.3353615272822377,-1.3677719218385787,0.002753852665034097,-0.011314846329688388,-0.3932324136940176
6673,1.0,299.59832,15461.461000000001,0.0,-0.0667301109458931,0.0,0.0,0.0,0.0,-0.978679729113169,-2.3353033667264977,-1.3859149754791589,-0.008731610998642912,-0.016361890674042884,-0.3856845009165967
6674,1.0,299.79065,15568.728000000001,0.0,-0.06674010693331245,0.0,0.0,0.0,0.0,-1.015147613462269,-2.329719446750408,-1.3876373993241489,0.00912461241157913,0.006584400389054724,-0.3877059247335956
6675,1.0,300.11015,15716.982,0.0,-0.06675010292073191,0.0,0.0,0.0,0.0,-1.023395874576309,-2.3292757445316177,-1.4248985571765385,-0.0021695224781151977,0.015207320556095683,-0.3720324452967436
6676,1.0,299.75638,15476.778999999999,0.0,-0.06676009890815104,0.0,0.0,0.0,0.0,-1.001960903083342,-2.321710312659968,-1.3808830741575486,-0.008300704000790702,0.011356112966511091,-0.3884697531889796
6677,1.0,299.41122,15364.813,0.0,-0.06677009489557029,0.0,0.0,0.0,0.0,-0.985201057419274,-2.320434428134048,-1.3648840577285688,-0.015247966070607086,0.008516658095928711,-0.35854012855515566
6678,1.0,299.95659,15664.483,0.0,-0.06678009088298964,0.0,0.0,0.0,0.0,-1.027891259969969,-2.336407910660508,-1.3973125192290088,0.0007704473698072351,0.01272816505942209,-0.3809329152351516
6679,1.0,299.7818,15782.393,0.0,-0.06679011986046646,0.0,0.0,0.0,0.0,-1.043531889838579,-2.340990232912748,-1.4129312628954587,0.0036204237686330064,-0.004843058759397685,-0.37574519631316367
6680,1.0,298.89187000000004,15584.329,0.0,-0.06680011584788559,0.0,0.0,0.0,0.0,-1.012590301932382,-2.339343904150268,-1.3853125982947088,0.0018642165441088484,-0.03185467316756147,-0.3808109097906106
6681,1.0,299.03285,15604.827,0.0,-0.06681011183530505,0.0,0.0,0.0,0.0,-1.0103551330067881,-2.3280330946089776,-1.4050895177215386,0.003705331188587716,-0.01912767131925418,-0.36045410733155064
6682,1.0,298.87899,15636.003,0.0,-0.0668201078227244,0.0,0.0,0.0,0.0,-1.017308571950539,-2.3361345357835277,-1.3995114745960289,0.012195455912097789,0.003698160214979997,-0.37063791931661466
6683,1.0,299.63355,15665.915,0.0,-0.06683010381014376,0.0,0.0,0.0,0.0,-1.038668694658619,-2.3246788314779376,-1.3986995572908987,-0.003463376893233687,0.01122950230026559,-0.36775179799677665
6684,1.0,300.3231,15680.715,0.0,-0.066840099797563,0.0,0.0,0.0,0.0,-1.023203559707329,-2.331724263398268,-1.4116177867908286,-0.01109529935102079,0.0047124679454343755,-0.38055517559787166
6685,1.0,299.77966000000004,15429.198,0.0,-0.06685009578498224,0.0,0.0,0.0,0.0,-0.9805591357961521,-2.3211907180086877,-1.3883411015185987,0.002173783600085738,0.011306695745883989,-0.38779562776494864
6686,1.0,299.83725,15408.694,0.0,-0.0668600917724016,0.0,0.0,0.0,0.0,-0.9797884679025931,-2.3211040851251377,-1.3829657084130886,0.013575580568555486,0.01253422392403159,-0.39340830377887664
6687,1.0,300.22131,15741.513,0.0,-0.06687008775982095,0.0,0.0,0.0,0.0,-1.032115296986849,-2.3299541154735683,-1.4229574739599686,0.01050865186112319,0.010193034587474191,-0.39414760144933964
6688,1.0,300.10067000000004,15728.559,0.0,-0.06688011673729755,0.0,0.0,0.0,0.0,-1.030198531772679,-2.3532945341770874,-1.3975962292570088,0.0001227937125887959,-0.006710159317266164,-0.3865163387186926
6689,1.0,300.20808999999997,15444.86,0.0,-0.06689011272471712,0.0,0.0,0.0,0.0,-0.9969451529683261,-2.3386110203529378,-1.3592955781270288,-0.012265883886798489,0.0001887332831890248,-0.3860125507689726
6690,1.0,299.9508,15565.478000000001,0.0,-0.06690010871213636,0.0,0.0,0.0,0.0,-1.006028322032265,-2.3491918845221873,-1.3762965975798986,0.0014167744191997487,0.008916487598638811,-0.38020670875598067
6691,1.0,300.10109,15763.203000000001,0.0,-0.06691010469955572,0.0,0.0,0.0,0.0,-1.030570495884389,-2.3513350098086976,-1.4097147004530088,-0.006198998959818564,-0.0005960812232311365,-0.3870527330566306
6692,1.0,300.32257999999996,15719.128,0.0,-0.06692010068697496,0.0,0.0,0.0,0.0,-1.020192585710169,-2.3490605673092277,-1.4089691510294289,-0.0101278107666121,-0.01796277516953788,-0.37056040568396464
6693,1.0,300.82759,15553.954,0.0,-0.06693009667439409,0.0,0.0,0.0,0.0,-0.9935917612323721,-2.333249711423818,-1.4011721915099287,-0.018061850764315882,-0.007614811500698383,-0.38502213932622664
6694,1.0,300.25821,15582.034,0.0,-0.06694009266181355,0.0,0.0,0.0,0.0,-1.019674612259049,-2.328688566098668,-1.3881858716032789,0.004523110854821285,0.007234706633709952,-0.37391434457497263
6695,1.0,300.17534,15624.396999999999,0.0,-0.06695008864923291,0.0,0.0,0.0,0.0,-1.027060800188009,-2.327957506151518,-1.3944082404673788,-0.0009274927759939101,0.01164428534795149,-0.38871532448321566
6696,1.0,299.49944,15660.95,0.0,-0.06696011762670973,0.0,0.0,0.0,0.0,-1.039540191069629,-2.3335951283829077,-1.3874026292759787,4.6476267278100457e-05,-0.0036787011521095363,-0.37753631851493363
6697,1.0,300.00458,15742.33,0.0,-0.06697011361412908,0.0,0.0,0.0,0.0,-1.0257332399069892,-2.338955221411908,-1.4205867727009986,0.007850435516052662,-0.0025345984143203878,-0.37475581838551963
6698,1.0,299.97943,15656.47,0.0,-0.06698010960154832,0.0,0.0,0.0,0.0,-1.015399608762139,-2.344218143756318,-1.3995582867506486,0.023533582676083777,0.009171934534974462,-0.37331668913598864
6699,1.0,299.78507,15739.368,0.0,-0.06699010558896767,0.0,0.0,0.0,0.0,-1.012606230223954,-2.3648155931141273,-1.4069530873054588,0.008220381638863503,-0.001100822874342759,-0.37776013532952263
6700,1.0,299.88917000000004,15977.433,0.0,-0.0670001015763868,0.0,0.0,0.0,0.0,-1.074139743559339,-2.3702729581527273,-1.4123280751109288,0.0036690197500540566,-0.008089960848266972,-0.3782816956859967
6701,1.0,299.9269,15828.333999999999,0.0,-0.06701009756380605,0.0,0.0,0.0,0.0,-1.048952169923519,-2.351919249816358,-1.4105467814351287,-0.013712414928309989,-0.0007036673386465593,-0.35966491722616367
6702,1.0,299.6879,15462.036,0.0,-0.06702009355122562,0.0,0.0,0.0,0.0,-0.9894563025392341,-2.3396425089547375,-1.3709740961296089,0.0007058642776458803,0.006123966472688434,-0.3835159227875746
6703,1.0,300.27833,15523.43,0.0,-0.06703008953864487,0.0,0.0,0.0,0.0,-0.9826034691979122,-2.331221083398608,-1.4049105777538788,-0.014293872551195385,0.006807630025210775,-0.36524033603391465
6704,1.0,300.8605,15677.268,0.0,-0.06704011851612157,0.0,0.0,0.0,0.0,-1.0072634536391631,-2.3371624780099776,-1.4210721194988987,-0.004757698619298295,-0.001129272910650559,-0.3940906770587216
6705,1.0,300.99282999999997,15612.514,0.0,-0.06705011450354104,0.0,0.0,0.0,0.0,-0.994428452502447,-2.3416051743984374,-1.4097807643595288,0.011122326784188188,-0.01268436428409929,-0.37903066989491463
6706,1.0,300.72061,15657.893999999998,0.0,-0.06706011049096017,0.0,0.0,0.0,0.0,-1.030722686049409,-2.3435094766363775,-1.3853767370260386,0.015441142202172086,-0.009832759430242801,-0.4014268813602486
6707,1.0,300.35425,15786.161,0.0,-0.06707010647837963,0.0,0.0,0.0,0.0,-1.0346182273838689,-2.366323207937918,-1.3976571255880186,-0.0037967335416834265,-0.009148270484189001,-0.3970093439717716
6708,1.0,299.93045,15785.416000000001,0.0,-0.06708010246579876,0.0,0.0,0.0,0.0,-1.0455713596398588,-2.357631447255108,-1.3951692926174886,-0.013275990884988287,-0.006573897342493154,-0.3852320442169426
6709,1.0,299.82217,15867.373,0.0,-0.06709009845321823,0.0,0.0,0.0,0.0,-1.027247440856429,-2.3628712674972374,-1.4331664753425186,-0.017227279213450086,0.012766725305227686,-0.3768791447650756
6710,1.0,299.77744,15815.885,0.0,-0.06710009444063758,0.0,0.0,0.0,0.0,-1.015803084951959,-2.364345343742718,-1.4274855873318588,-0.007187216310798023,0.0030625591677010573,-0.3598569686501177
6711,1.0,299.80357000000004,15628.981000000002,0.0,-0.06711009042805671,0.0,0.0,0.0,0.0,-0.9874827649219611,-2.3496533186177273,-1.4136838037447286,-0.004726953571513996,-0.00941236621940322,-0.37693915956849866
6712,1.0,299.64567,15576.117,0.0,-0.06712011940553353,0.0,0.0,0.0,0.0,-1.030489638526409,-2.3245687925170775,-1.3796922013150188,-0.004376659333067646,-0.01832181324972218,-0.37498311064795165
6713,1.0,299.7199,15723.947,0.0,-0.067130115392953,0.0,0.0,0.0,0.0,-1.0325046890002791,-2.337943085887018,-1.4092395874811185,0.006068507039065014,-0.013603275733538788,-0.3811298099945836
6714,1.0,300.64097000000004,15684.836000000001,0.0,-0.06714011138037213,0.0,0.0,0.0,0.0,-1.0495729882597888,-2.320157709531738,-1.3980679985035687,0.005104482047473155,-0.00032062426928315175,-0.36700321895539767
6715,1.0,300.1855,15667.5,0.0,-0.06715010736779148,0.0,0.0,0.0,0.0,-0.995310517112,-2.361044377566938,-1.4061739993035687,0.005419298752218145,0.025234169968168678,-0.3921475572094506
6716,1.0,300.52577,15804.357,0.0,-0.06716010335521072,0.0,0.0,0.0,0.0,-1.0282834890836792,-2.3521646589905774,-1.4236817451314487,-0.002147850375701328,0.023845819747399178,-0.3731609829931216
6717,1.0,300.52092999999996,15879.775,0.0,-0.06717009934263007,0.0,0.0,0.0,0.0,-1.0391281022539591,-2.360260324639558,-1.4276665537997186,0.005904986407451785,0.026007077144448675,-0.37631299127170065
6718,1.0,300.09381,15858.992,0.0,-0.06718009533004954,0.0,0.0,0.0,0.0,-1.043490751884519,-2.360147955203468,-1.4170990645317885,-0.0002762830871520177,0.0011542827602188388,-0.37610396790857165
6719,1.0,299.53272999999996,15812.386,0.0,-0.06719009131746867,0.0,0.0,0.0,0.0,-1.037629201381029,-2.3539897250706976,-1.4149515822698486,0.017878007679421985,-0.014911494083399885,-0.39667862927163267
6720,1.0,300.12476000000004,15718.303999999998,0.0,-0.06720012029494549,0.0,0.0,0.0,0.0,-1.017353965555019,-2.3535455162268577,-1.4070724481672385,0.007930997916928553,-0.01096200123411529,-0.37285545769046863
6721,1.0,299.76585,15464.586000000001,0.0,-0.06721011628236484,0.0,0.0,0.0,0.0,-0.982800515944859,-2.319881294904458,-1.3981662837632687,0.006922417076039374,-0.001054229885719389,-0.38331299919004763
6722,1.0,299.8236,15704.768,0.0,-0.06722011226978408,0.0,0.0,0.0,0.0,-0.9996119765690211,-2.3544086026620374,-1.4198367649769787,-0.017408070389042785,-0.0008717894530714201,-0.36957129120134663
6723,1.0,300.24219,15686.21,0.0,-0.06723010825720344,0.0,0.0,0.0,0.0,-1.0120196496085632,-2.3601545413291176,-1.3960419036036087,-0.009331851542607041,0.004511789507478956,-0.4056124858008356
6724,1.0,300.30258,15595.628999999999,0.0,-0.06724010424462268,0.0,0.0,0.0,0.0,-1.0067609322520679,-2.3492832796812078,-1.3846377737281088,-0.010066847054470451,0.006089770599038563,-0.38717154676335663
6725,1.0,300.16799,15757.827,0.0,-0.06725010023204203,0.0,0.0,0.0,0.0,-1.025131673322619,-2.363516302510898,-1.4013380605512986,-0.0024572270419844274,0.0012934672522552787,-0.4137172099057096
6726,1.0,300.30017000000004,16016.22,0.0,-0.06726009621946138,0.0,0.0,0.0,0.0,-1.065149682047089,-2.363855842619408,-1.4395256329701185,0.001842630973253518,-0.01016388034234689,-0.36985980403482066
6727,1.0,300.41267,15980.451000000001,0.0,-0.06727009220688063,0.0,0.0,0.0,0.0,-1.037863059504109,-2.3823661994212375,-1.4374287118881686,0.010283310105133689,-0.005352176911268735,-0.4040012256243166
6728,1.0,300.63355,15811.671,0.0,-0.06728008819429998,0.0,0.0,0.0,0.0,-1.0249380412285092,-2.364916208849058,-1.4164988151725486,0.02206834602447618,-0.00014756089889062687,-0.36394387239846365
6729,1.0,300.56395,15683.711000000001,0.0,-0.0672901171717768,0.0,0.0,0.0,0.0,-1.0255080957347689,-2.3407854550675378,-1.4011629709340188,0.016427737745041485,-0.005336086601005745,-0.3870526013341176
6730,1.0,300.14441,15755.077,0.0,-0.06730011315919604,0.0,0.0,0.0,0.0,-1.0361054758806492,-2.3419607238585276,-1.4110838039881286,0.00976648486902701,-0.013631712597595288,-0.35085308640650364
6731,1.0,299.3496,15798.589,0.0,-0.0673101091466154,0.0,0.0,0.0,0.0,-1.0281265366431889,-2.364233886231718,-1.4100160410327487,0.0031268339785194867,-0.008102699023224132,-0.4117296489070526
6732,1.0,299.57507999999996,15783.466,0.0,-0.06732010513403475,0.0,0.0,0.0,0.0,-1.020171104808049,-2.354994159894827,-1.4226142861510986,0.0061821059528263545,-0.004078692470860606,-0.3696294618895876
6733,1.0,300.04565,15739.642,0.0,-0.06733010112145399,0.0,0.0,0.0,0.0,-1.007003676578525,-2.368397229567608,-1.4090573037881287,-0.005012525547897755,0.005569575293099285,-0.40070230621373865
6734,1.0,300.00829,15682.745,0.0,-0.06734009710887334,0.0,0.0,0.0,0.0,-1.020468088412359,-2.3478741527671376,-1.3988205393528386,-0.009221525426668702,0.004609561556003306,-0.38213176235596863
6735,1.0,300.09117000000003,15827.5,0.0,-0.06735009309629258,0.0,0.0,0.0,0.0,-1.036007899896019,-2.366612085541427,-1.4085448018875486,-0.017897710327616483,0.012532958374656688,-0.40127997022824957
6736,1.0,300.29438,15922.595,0.0,-0.06736008908371194,0.0,0.0,0.0,0.0,-1.043409995851549,-2.3738698946827177,-1.4227915035935885,-0.0040387910872226465,0.004864755281138965,-0.3747502759074726
6737,1.0,300.07761,15743.646,0.0,-0.06737011806118876,0.0,0.0,0.0,0.0,-1.009851679429601,-2.358600620975758,-1.4172228836940088,-0.0005865958749375053,0.0002031783488671418,-0.38368779026953664
6738,1.0,300.35347,15844.846000000001,0.0,-0.067380114048608,0.0,0.0,0.0,0.0,-1.024812094241079,-2.3670137378810683,-1.4246117060732286,-0.010003918447734881,-0.009124395677382742,-0.38181958000015864
6739,1.0,300.07398,15872.9,0.0,-0.06739011003602735,0.0,0.0,0.0,0.0,-1.031189085070439,-2.353043754777338,-1.4407323125142086,-0.004154904279782126,-0.01979256198187378,-0.38103757383798065
6740,1.0,299.84504,15762.595,0.0,-0.0674001060234467,0.0,0.0,0.0,0.0,-1.0269403247511188,-2.361949311231248,-1.4025457533454886,-0.008907042891806691,-0.008717516993726943,-0.38881283967283964
6741,1.0,300.8657,15807.292,0.0,-0.06741010201086595,0.0,0.0,0.0,0.0,-1.029196224773759,-2.3732054052671376,-1.4026204298778586,-0.007005321807171432,0.0038204600086750463,-0.37606411678213864
6742,1.0,300.99045,15866.13,0.0,-0.0674200979982853,0.0,0.0,0.0,0.0,-1.046257329957559,-2.362979279957898,-1.4136705301684185,-0.01078405222505309,0.0037899901596179066,-0.39176003970870565
6743,1.0,300.61595,15853.178,0.0,-0.06743009398570454,0.0,0.0,0.0,0.0,-1.009845133833955,-2.3928912335099777,-1.4162340529214186,-0.004767402008880946,0.018327283787012084,-0.39209897186715564
6744,1.0,300.47461,15794.616000000002,0.0,-0.0674400899731239,0.0,0.0,0.0,0.0,-1.019163427583599,-2.3614041826774477,-1.4206013635024386,-0.005229230157384836,0.0025601119505133775,-0.38693808380781564
6745,1.0,299.64673999999997,15898.561000000002,0.0,-0.06745011895060071,0.0,0.0,0.0,0.0,-1.015462328943329,-2.3809881792852376,-1.4363150487032588,0.015909551511400485,-0.002792814056554287,-0.37048317576134265
6746,1.0,300.06394,15876.205,0.0,-0.06746011493801984,0.0,0.0,0.0,0.0,-1.0485009696539889,-2.3582808392441974,-1.4191879809379486,-0.00954939066487648,-0.005365746153957915,-0.36553893070588367
6747,1.0,300.71332,15851.775,0.0,-0.06747011092543931,0.0,0.0,0.0,0.0,-1.039757330566059,-2.3582455781407177,-1.4205409737964787,0.0018026248195552182,0.007651784692872352,-0.3799946051125477
6748,1.0,299.96216,15816.469,0.0,-0.06748010691285866,0.0,0.0,0.0,0.0,-1.0380397703215491,-2.3484612298750775,-1.4213105372474286,-0.020680116380468582,0.011749322906317887,-0.35906053380651565
6749,1.0,299.9906,15959.555,0.0,-0.06749010290027779,0.0,0.0,0.0,0.0,-1.0276983371509292,-2.3647427404319377,-1.4588651323287787,-2.9459430991169474e-05,0.02039099053068408,-0.37474366951682064
6750,1.0,299.55117,15916.113000000001,0.0,-0.06750009888769726,0.0,0.0,0.0,0.0,-1.040891866703029,-2.3746892087135776,-1.4225199525667884,-0.0029919041236529473,1.7763315874102783e-05,-0.39062643576182765
6751,1.0,299.48882000000003,15794.365,0.0,-0.06751009487511639,0.0,0.0,0.0,0.0,-1.035604221056179,-2.359556723770118,-1.4059315285546388,0.00976233885226783,-0.015863970455651986,-0.3972344374814866
6752,1.0,299.93705,15762.03,0.0,-0.06752009086253585,0.0,0.0,0.0,0.0,-1.041347322622979,-2.3524063191394275,-1.3975096976984687,0.0005944420480143624,-0.028087116466482574,-0.38519305435309464
6753,1.0,300.14914,15691.478000000001,0.0,-0.06753011984001256,0.0,0.0,0.0,0.0,-1.009912119798066,-2.3727195518441877,-1.3871858950795886,0.005541093238088325,-0.02157936165871718,-0.39751169310634965
6754,1.0,300.15851000000004,15835.443000000001,0.0,-0.06754011582743202,0.0,0.0,0.0,0.0,-1.0167507777704892,-2.385043611485478,-1.4117849730573286,0.005792526285477834,0.0013221685745878787,-0.38906346708507467
6755,1.0,300.77427,16013.681999999999,0.0,-0.06755011181485138,0.0,0.0,0.0,0.0,-1.039876792752849,-2.3874403532720176,-1.4404424216605987,-0.007152802487051643,0.015620518880625186,-0.39328802085950565
6756,1.0,300.55057999999997,15897.778,0.0,-0.06756010780227062,0.0,0.0,0.0,0.0,-1.013093654184559,-2.385718233402058,-1.4337156568967184,-0.015212555006112287,0.013575628191310187,-0.37821851954226166
6757,1.0,300.64265,15797.71,0.0,-0.06757010378968975,0.0,0.0,0.0,0.0,-1.028668524121679,-2.374752942144868,-1.3986880062397586,-0.006179281923472645,0.003036378001017177,-0.37942766128409466
6758,1.0,300.32217,15993.663999999999,0.0,-0.06758009977710921,0.0,0.0,0.0,0.0,-1.046297555986529,-2.3882350453254477,-1.4271419942229486,0.0036184420540874263,-0.004570807272803556,-0.37418665553934766
6759,1.0,299.78328999999997,15991.773000000001,0.0,-0.06759009576452835,0.0,0.0,0.0,0.0,-1.058404070831349,-2.3832271580312074,-1.4194685498906385,0.014259553770308386,-0.007339088720586663,-0.3934414370571466
6760,1.0,300.25827000000004,15828.246000000001,0.0,-0.0676000917519477,0.0,0.0,0.0,0.0,-1.020906521730629,-2.3698429348102876,-1.4206420961564588,0.007538794945071132,-0.021505101572138276,-0.37225904854910763
6761,1.0,299.688,15695.115,0.0,-0.06761012072942452,0.0,0.0,0.0,0.0,-1.008494187740627,-2.3621451724755773,-1.4002837738222487,0.002203336964427428,-0.0005741168386934204,-0.3963983440289706
6762,1.0,299.68438,15796.899,0.0,-0.06762011671684398,0.0,0.0,0.0,0.0,-1.015032913550949,-2.3688528881375777,-1.4179769444184287,0.002794801647950447,0.0005596843170515415,-0.3864972490868086
6763,1.0,300.00597,15962.421,0.0,-0.06763011270426333,0.0,0.0,0.0,0.0,-1.053185630166329,-2.3938888795584377,-1.4051029939478688,0.0030413775796605965,0.014011358158313387,-0.4041026924893306
6764,1.0,299.89342,16062.361,0.0,-0.06764010869168247,0.0,0.0,0.0,0.0,-1.0677560652793188,-2.385603229515708,-1.4291972707257885,-0.007658705191055353,-0.003983978411138057,-0.36855002629305567
6765,1.0,299.50542,15988.042,0.0,-0.06765010467910171,0.0,0.0,0.0,0.0,-1.049638038916209,-2.383817376214458,-1.4265102327855985,-0.007494200085644963,0.002467300369178588,-0.38408885492411865
6766,1.0,299.95945,15806.677,0.0,-0.06766010066652106,0.0,0.0,0.0,0.0,-1.009378410572893,-2.384294617011558,-1.4111620268958485,0.0009281385912101471,0.02087880357932748,-0.3753191449111157
6767,1.0,300.57895,15800.675,0.0,-0.06767009665394053,0.0,0.0,0.0,0.0,-1.0010260684085812,-2.3673285546871377,-1.4346559529895186,-0.0036444321218024466,0.011790210587603189,-0.3892743750933897
6768,1.0,300.8212,15977.544,0.0,-0.06768009264135988,0.0,0.0,0.0,0.0,-1.0299852426266292,-2.3881621926432577,-1.4386268801314186,0.006310342378857305,0.006707000104779374,-0.37462071161718563
6769,1.0,300.52546,15798.068000000001,0.0,-0.06769008862877912,0.0,0.0,0.0,0.0,-1.0253821487473391,-2.3689688039490178,-1.4078671402206686,-0.015822879111096585,-0.00945124574031533,-0.3907904910855186
6770,1.0,299.58963,15709.213,0.0,-0.06770011760625583,0.0,0.0,0.0,0.0,-1.0177430535934189,-2.372755116922698,-1.3847101197852487,0.0015787250197830285,-0.010665927528395092,-0.3924472461915276
6771,1.0,299.578,15931.476,0.0,-0.06771011359367529,0.0,0.0,0.0,0.0,-1.033177791041709,-2.3914981159474875,-1.4180948867300687,-0.009114849138915571,-0.007592481798969613,-0.3903644498159716
6772,1.0,299.47718,16042.341999999999,0.0,-0.06772010958109442,0.0,0.0,0.0,0.0,-1.050342855685769,-2.383982535980758,-1.4421461003787386,0.00970834802333935,0.001949786123003908,-0.3862753777124116
6773,1.0,300.05253,16048.508999999998,0.0,-0.06773010556851367,0.0,0.0,0.0,0.0,-1.0366693495612989,-2.4006010535208775,-1.4410757029730985,0.0014344372936179386,0.011160979235752887,-0.37862578528745566
6774,1.0,299.81034,15990.668,0.0,-0.06774010155593302,0.0,0.0,0.0,0.0,-1.0436434486745891,-2.386971522450748,-1.4301488138946985,0.002121926067917798,0.021416298306874082,-0.40630295494897956
6775,1.0,299.65013,15889.066,0.0,-0.06775009754335237,0.0,0.0,0.0,0.0,-1.041426761430819,-2.372217283769618,-1.4162352688215385,0.0058464278470725045,0.01953574158502758,-0.3775196201532856
6776,1.0,299.78082,15890.605,0.0,-0.06776009353077184,0.0,0.0,0.0,0.0,-1.0520472436789792,-2.3788032067695974,-1.3994966811445686,-0.0038823151782546765,-0.001077379205454049,-0.3844522064099786
6777,1.0,299.46895,16022.933,0.0,-0.06777008951819097,0.0,0.0,0.0,0.0,-1.063554421089649,-2.3627114779564677,-1.4443057416418785,0.015286978225957286,0.014928444744322785,-0.35769717539946266
6778,1.0,299.7275,15896.966999999999,0.0,-0.06778011849566778,0.0,0.0,0.0,0.0,-1.036487065868309,-2.3643628729694477,-1.4314309805712386,-0.0041831845966981765,-0.005153610187846725,-0.3908072299771706
6779,1.0,300.13293999999996,15747.646999999999,0.0,-0.06779011448308714,0.0,0.0,0.0,0.0,-0.996015181894045,-2.3666109709663177,-1.4242652758640386,-0.008199450323597743,-0.011275180628023688,-0.38069700021436864
6780,1.0,300.3302,15932.903999999999,0.0,-0.06780011047050638,0.0,0.0,0.0,0.0,-1.0416533241531791,-2.3747140333410277,-1.4268375125678987,-0.01943929841400938,-0.02599077395033968,-0.3922873755907496
6781,1.0,300.20166,16302.526000000002,0.0,-0.06781010645792562,0.0,0.0,0.0,0.0,-1.0898030702301889,-2.417429516481718,-1.4483281418888587,-0.0017585145976518786,0.012739977529087886,-0.3770833551902296
6782,1.0,300.34417,16073.428,0.0,-0.06782010244534498,0.0,0.0,0.0,0.0,-1.064985332880869,-2.3947738521957773,-1.4261616747511987,0.01085432618573859,0.006204053456617405,-0.38944483415771264
6783,1.0,300.45829,15836.925,0.0,-0.06783009843276433,0.0,0.0,0.0,0.0,-1.025914915649919,-2.3817543990108576,-1.4063606399719886,0.014384125777352687,-0.006324518659681394,-0.37648403802108166
6784,1.0,300.5655,15845.114,0.0,-0.0678400944201838,0.0,0.0,0.0,0.0,-1.0208761242276292,-2.3781366908538177,-1.4175061884219686,0.01088847980685929,-0.007806496128116182,-0.38835950144559866
6785,1.0,299.92512999999997,15860.853000000001,0.0,-0.06785009040760293,0.0,0.0,0.0,0.0,-1.018007005244469,-2.371313464680418,-1.4319828979007088,0.010118940572586681,-0.008214293829612682,-0.3879026776380136
6786,1.0,300.00902,15945.419,0.0,-0.06786011938507974,0.0,0.0,0.0,0.0,-1.022843957246839,-2.400096353646068,-1.4240688066696487,0.008322158254433071,0.002011575937952088,-0.4069661676694336
6787,1.0,299.50025,15982.738000000001,0.0,-0.0678701153724991,0.0,0.0,0.0,0.0,-1.0409999804886991,-2.3908363623071773,-1.4265169202362586,-0.023007135414377478,-0.0006492568113941584,-0.40216407147050365
6788,1.0,299.62282999999996,15881.438999999998,0.0,-0.06788011135991834,0.0,0.0,0.0,0.0,-1.0303128263839592,-2.3823216164168373,-1.4149263523423588,-0.012084851557681988,-0.0015352491937672985,-0.3949694080754456
6789,1.0,300.38318,15891.923,0.0,-0.06789010734733747,0.0,0.0,0.0,0.0,-1.041821118369739,-2.3814146562523275,-1.4075120973856288,0.004718686869248136,0.013714228645988985,-0.3940344822081756
6790,1.0,300.32636,16083.274,0.0,-0.06790010333475704,0.0,0.0,0.0,0.0,-1.043035498614589,-2.3944632910401276,-1.4514148056684884,0.010572456219920189,0.0006639894171856535,-0.37933446253989667
6791,1.0,300.29172,16055.851999999999,0.0,-0.06791009932217629,0.0,0.0,0.0,0.0,-1.0459159659988688,-2.391394561787268,-1.4432675655894185,0.017706133104709285,-0.01079287054067339,-0.3755803709193966
6792,1.0,300.52377,15933.338,0.0,-0.06792009530959564,0.0,0.0,0.0,0.0,-1.0228123438437189,-2.395046720447708,-1.4254779335837187,0.007207054430530893,-0.006042004976074464,-0.3842034636429296
6793,1.0,300.29379,16007.163999999999,0.0,-0.06793009129701488,0.0,0.0,0.0,0.0,-1.053397703412259,-2.3864038997447277,-1.4259766552829387,0.005762880107426985,0.01940886848700618,-0.3968617944922096
6794,1.0,300.60416000000004,16111.042,0.0,-0.0679401202744917,0.0,0.0,0.0,0.0,-1.075471559490779,-2.395625488904827,-1.4262573255606386,0.013234757685418886,0.008392129455988691,-0.38111241249036665
6795,1.0,299.94242,16002.847,0.0,-0.06795011626191105,0.0,0.0,0.0,0.0,-1.052813362079589,-2.3922646396481375,-1.4193877938576687,-0.005982514934878254,0.00899964037339535,-0.38479614402392265
6796,1.0,299.18768,15954.165,0.0,-0.0679601122493303,0.0,0.0,0.0,0.0,-1.014917301714539,-2.3962912955455375,-1.4384592885648788,0.005284326746147445,-0.007651428231487174,-0.37018014305393565
6797,1.0,299.60222000000005,15941.875,0.0,-0.06797010823674965,0.0,0.0,0.0,0.0,-1.007455879965654,-2.3972345300636273,-1.4412415720144687,-0.0027674446045255173,0.006966051678345774,-0.39383609797109664
6798,1.0,299.90779,15943.438999999998,0.0,-0.067980104224169,0.0,0.0,0.0,0.0,-1.0176988758890588,-2.393504857770538,-1.4352038173185886,-0.008495074956873622,0.00014240554317683287,-0.3835646905148876
6799,1.0,299.77341,16012.347,0.0,-0.06799010021158824,0.0,0.0,0.0,0.0,-1.048849730338409,-2.3985250053909875,-1.4199789239660088,-0.026543084420848476,-0.0050553699164511655,-0.4054309417804186
6800,1.0,299.9905,16077.597,0.0,-0.0680000961990076,0.0,0.0,0.0,0.0,-1.0666849585986091,-2.3948293783012575,-1.4256735921780286,-0.01197731025831849,0.0038489667869884463,-0.3815925511827526
6801,1.0,300.22305,15959.284,0.0,-0.06801009218642684,0.0,0.0,0.0,0.0,-1.0398259275978292,-2.3916859725160275,-1.4197120338896685,-0.00991306010861786,0.016892870203446483,-0.4020904385857366
6802,1.0,300.75846,15978.188999999998,0.0,-0.06802012116390355,0.0,0.0,0.0,0.0,-1.024372748997719,-2.4029100478487577,-1.4296875824491786,0.005150874513901735,0.004002437598809836,-0.39262940829450566
6803,1.0,300.49247,16141.753,0.0,-0.06803011715132301,0.0,0.0,0.0,0.0,-1.0479924194287988,-2.3957476868668874,-1.4629496448068884,0.0014660348900363785,-0.0045859913321771055,-0.3883570088503526
6804,1.0,300.17001,16136.764,0.0,-0.06804011313874214,0.0,0.0,0.0,0.0,-1.048552341434059,-2.4146056897780275,-1.4420152897908287,0.011816291645177187,0.0026156712905966574,-0.38914136575276265
6805,1.0,299.92041,15948.798,0.0,-0.0680501091261616,0.0,0.0,0.0,0.0,-1.040768756815879,-2.386635832692618,-1.4206318623304486,0.008967352044383741,0.012326190506250289,-0.39252021033122864
6806,1.0,300.01397000000003,15924.118,0.0,-0.06806010511358096,0.0,0.0,0.0,0.0,-1.046392396195889,-2.3794804631364377,-1.4146613874412088,0.003337024605763687,0.0003222776603988287,-0.3860002701777606
6807,1.0,300.05401,15942.331,0.0,-0.0680701011010002,0.0,0.0,0.0,0.0,-1.044877080671339,-2.366746645154708,-1.4344468181688788,-0.0008538385015172993,-0.015906613086110487,-0.37326237893062864
6808,1.0,299.58765,15938.896999999999,0.0,-0.06808009708841956,0.0,0.0,0.0,0.0,-1.030106326013579,-2.374395062209548,-1.4405253055187788,-0.008416361028155163,-0.0053198335627766945,-0.39906723465986965
6809,1.0,299.74107000000004,16051.176000000001,0.0,-0.06809009307583869,0.0,0.0,0.0,0.0,-1.0297384149022688,-2.3915457387021872,-1.4578725525308187,0.003237709883962087,0.003973758162679397,-0.37222020054027366
6810,1.0,300.01179,16100.241000000002,0.0,-0.0681001220533155,0.0,0.0,0.0,0.0,-1.049051265783299,-2.3902300334473376,-1.4547901444016087,-0.00042013847976443957,-0.002941624627190747,-0.4025517713562666
6811,1.0,300.28292000000005,16175.863000000001,0.0,-0.06811011804073497,0.0,0.0,0.0,0.0,-1.0780921282244091,-2.3983820358018777,-1.4405844793246185,-0.0031713175830846768,-0.016936158274218686,-0.36623640141221864
6812,1.0,300.53347,16175.382,0.0,-0.0681201140281541,0.0,0.0,0.0,0.0,-1.079117638650619,-2.4020601336648775,-1.4357343550709485,0.0006199247206093064,-0.003437984947052697,-0.4144053181811206
6813,1.0,300.85525,16182.562,0.0,-0.06813011001557345,0.0,0.0,0.0,0.0,-1.053958030717559,-2.4103095093540277,-1.4548273306802786,0.014043171171703088,0.02092244527438458,-0.36506209520882366
6814,1.0,300.83973,16021.507,0.0,-0.06814010600299292,0.0,0.0,0.0,0.0,-1.031050877756799,-2.3996096896230377,-1.4394774022653587,0.016631271319128685,-0.0017664732718873383,-0.41781385098751656
6815,1.0,300.28695,16030.171999999999,0.0,-0.06815010199041205,0.0,0.0,0.0,0.0,-1.014622547260449,-2.403421840474268,-1.4547277281954487,-0.006670712072323025,-0.007457570689229923,-0.3678198174759897
6816,1.0,299.98203,16044.868999999999,0.0,-0.06816009797783151,0.0,0.0,0.0,0.0,-1.047882481792949,-2.393751178869848,-1.4356059762832787,-0.008731707966677481,-0.013794514530912589,-0.40201864981615165
6817,1.0,299.53382,15997.653,0.0,-0.06817009396525064,0.0,0.0,0.0,0.0,-1.033076263381689,-2.397502838690108,-1.4323080498577987,0.0001385489917062209,-0.0008734904264117932,-0.38338806075745563
6818,1.0,299.59055,15859.448,0.0,-0.06818008995267011,0.0,0.0,0.0,0.0,-1.016636888459249,-2.3926138056325974,-1.4116255888165987,-0.0002930958143388047,0.00030102179099353765,-0.4133507274770406
6819,1.0,300.15878,16147.03,0.0,-0.06819011893014681,0.0,0.0,0.0,0.0,-1.0416042828483392,-2.400702479855888,-1.4659871659566686,0.01189987869892659,0.00911988651178772,-0.3777009919211856
6820,1.0,300.07736,16198.403999999999,0.0,-0.06820011491756628,0.0,0.0,0.0,0.0,-1.063448131154159,-2.4185090331382577,-1.4419532788847087,0.0028007787089653377,0.007278811384062753,-0.4110408414890726
6821,1.0,300.00437,16017.972,0.0,-0.06821011090498541,0.0,0.0,0.0,0.0,-1.0290595373352691,-2.4039260337240274,-1.4360778468548487,0.007602054681939382,0.025636325893108377,-0.3985500110138236
6822,1.0,300.26662000000005,16044.447,0.0,-0.06822010689240487,0.0,0.0,0.0,0.0,-1.047072489663009,-2.4038713182186275,-1.4261673489517588,0.0014016145765035886,0.0017603051119035882,-0.3954531944681916
6823,1.0,300.10573,16110.317,0.0,-0.068230102879824,0.0,0.0,0.0,0.0,-1.0667111004511889,-2.395934631510338,-1.4344883614229786,0.0005657332073660204,-0.003727869518512077,-0.37519654164901567
6824,1.0,299.69526,16062.802,0.0,-0.06824009886724336,0.0,0.0,0.0,0.0,-1.045786472636089,-2.406665963319438,-1.4302381825535184,-0.007375367329817083,-0.01088208923847859,-0.38901519585031064
6825,1.0,300.05155,15958.296,0.0,-0.0682500948546626,0.0,0.0,0.0,0.0,-1.025459155754939,-2.3891728082929977,-1.4362916426259487,0.0025930865538177175,0.006363384197742124,-0.38365968271176265
6826,1.0,299.53582,16004.811000000002,0.0,-0.06826009084208196,0.0,0.0,0.0,0.0,-1.016066226002929,-2.4076823544947477,-1.4413143233716488,0.002181234433371078,0.006404750335724644,-0.39436074874037563
6827,1.0,299.31538,16115.572,0.0,-0.06827011981955877,0.0,0.0,0.0,0.0,-1.050457251622059,-2.3992126982338577,-1.4490613296612185,-0.003072126680445297,-0.006559172285414904,-0.3925077574874996
6828,1.0,299.5928,16227.281,0.0,-0.06828011580697813,0.0,0.0,0.0,0.0,-1.079121792976029,-2.4073832430652273,-1.4461831927521684,0.006162417895433294,0.0006586435299230554,-0.3943733434391186
6829,1.0,300.33234,16146.555,0.0,-0.06829011179439737,0.0,0.0,0.0,0.0,-1.0630770789675388,-2.415848238375658,-1.4292242231784487,-0.0027697597796790077,0.0029820792453833073,-0.3832587903096976
6830,1.0,300.14168,16009.874,0.0,-0.06830010778181672,0.0,0.0,0.0,0.0,-1.013096460887336,-2.4092681922262575,-1.4442371446101088,-0.004755418299948245,0.00816073231475157,-0.39298187747429164
6831,1.0,300.20401,16074.011,0.0,-0.06831010376923596,0.0,0.0,0.0,0.0,-1.022253739063589,-2.4156409274051978,-1.4482033094765385,-0.01942077316243108,0.005910370109208115,-0.39244435842874265
6832,1.0,299.53497000000004,16310.853000000001,0.0,-0.06832009975665532,0.0,0.0,0.0,0.0,-1.0589602438112389,-2.4322800139223477,-1.4668516709419885,-0.007130095957610683,0.0014903543109865184,-0.38365243797354764
6833,1.0,300.62293999999997,16230.273000000001,0.0,-0.06833009574407478,0.0,0.0,0.0,0.0,-1.0795759316708489,-2.412444022014687,-1.4415776670726386,-0.008022546076713653,0.013849470176586286,-0.40339084376407663
6834,1.0,300.51991,15892.698999999999,0.0,-0.06834009173149391,0.0,0.0,0.0,0.0,-1.038691999410919,-2.4066816686959873,-1.3856100885240685,0.005703620985928564,-0.012405060880784188,-0.39256913004605665
6835,1.0,299.52241000000004,15968.006000000001,0.0,-0.06835012070897073,0.0,0.0,0.0,0.0,-1.035281196924299,-2.396567608847808,-1.4220261957930587,0.01269763076765859,-0.014872588319310185,-0.4039127080955806
6836,1.0,299.81155,16343.184,0.0,-0.06836011669639008,0.0,0.0,0.0,0.0,-1.0491230038903792,-2.434518891343308,-1.4842779514618287,0.03419715743774667,-0.004549182387844346,-0.37507647151216567
6837,1.0,299.33231,16174.028999999999,0.0,-0.06837011268380933,0.0,0.0,0.0,0.0,-1.028584221713359,-2.420994231658528,-1.4669224971239787,0.024068452072621278,-0.0017494690100341482,-0.4015540341152976
6838,1.0,299.07746000000003,15910.423999999999,0.0,-0.06838010867122868,0.0,0.0,0.0,0.0,-0.9954252372883221,-2.3960479128715177,-1.4448983916253686,0.01013316974506599,0.002089522937669858,-0.38004560199008064
6839,1.0,299.80456000000004,15913.854,0.0,-0.06839010465864792,0.0,0.0,0.0,0.0,-1.032424743567389,-2.3964002199312877,-1.4085893848919486,-0.01871679840370418,-0.01026052616338509,-0.4034473729871556
6840,1.0,299.65882999999997,16045.116000000002,0.0,-0.06840010064606727,0.0,0.0,0.0,0.0,-1.0702733838277592,-2.3880541801825976,-1.4189872560931385,-0.0015829162274966686,-0.004558155528079926,-0.38589793191766064
6841,1.0,299.89242,16269.854,0.0,-0.06841009663348663,0.0,0.0,0.0,0.0,-1.083715564954399,-2.4075577247324476,-1.4543559667337587,-0.013251404371311788,0.004239249244606326,-0.39236307550572064
6842,1.0,299.98665,16255.873,0.0,-0.06842009262090587,0.0,0.0,0.0,0.0,-1.052137017637839,-2.4167887371184773,-1.4724537280948684,0.00904637653425785,0.0012514321665567387,-0.37776388435489267
6843,1.0,299.40983,16017.673999999999,0.0,-0.0684301215983828,0.0,0.0,0.0,0.0,-1.013318899681789,-2.391037289802008,-1.4646168465214287,-0.002998054349109927,-0.01027118352793689,-0.36754072786844566
6844,1.0,299.81734,16166.573,0.0,-0.06844011758580204,0.0,0.0,0.0,0.0,-1.033987580521629,-2.4252882842573182,-1.4549587492182487,0.0009476805379387871,0.013183321057342488,-0.3959168982439556
6845,1.0,300.61525,16488.807,0.0,-0.06845011357322128,0.0,0.0,0.0,0.0,-1.121596933192999,-2.4278611289112377,-1.4627275403849684,0.012371451374967188,0.011676224004353591,-0.37089687564467166
6846,1.0,300.14596,16214.817,0.0,-0.06846010956064064,0.0,0.0,0.0,0.0,-1.0988098503690888,-2.3981582088547877,-1.4319313234706186,0.0005605490550843845,-0.0009618882295159772,-0.4152389899658976
6847,1.0,300.04579,15955.042,0.0,-0.06847010554805977,0.0,0.0,0.0,0.0,-1.028520792257099,-2.410369088459908,-1.4110444898842487,-0.008649139837228642,0.003435644643296727,-0.38056938136427365
6848,1.0,299.8914,16002.309,0.0,-0.06848010153547923,0.0,0.0,0.0,0.0,-1.0165219858979089,-2.3994742180846678,-1.4483060530366787,-0.009115512919056082,-0.005422930949851614,-0.4157654443203546
6849,1.0,300.48851,16214.595,0.0,-0.06849009752289859,0.0,0.0,0.0,0.0,-1.0318373624844188,-2.425367824390168,-1.4716269160132684,0.01004276858439409,0.008533957922836071,-0.3817352471943356
6850,1.0,299.69905,16102.476,0.0,-0.06850009351031783,0.0,0.0,0.0,0.0,-1.031094042211059,-2.4262892740311077,-1.4373673089321088,-0.009028699879638303,-0.007909943491775644,-0.41525700555267564
6851,1.0,299.33639,16103.768,0.0,-0.06851012248779476,0.0,0.0,0.0,0.0,-1.057628731854829,-2.411426212289238,-1.4260885180939789,0.007411674107400283,-0.0049794942025878156,-0.38722848128647563
6852,1.0,299.29171,16164.356000000002,0.0,-0.068520118475214,0.0,0.0,0.0,0.0,-1.0689204922942388,-2.4370438092674975,-1.4075961971439286,-0.014094321050001187,0.006551278053885804,-0.4128381749139556
6853,1.0,299.5149,16167.091999999999,0.0,-0.06853011446263313,0.0,0.0,0.0,0.0,-1.0466699253982792,-2.4167532733649777,-1.4509689756244886,0.013309738192818887,0.01840408409159168,-0.39701308286464065
6854,1.0,299.54284,16252.333,0.0,-0.0685401104500526,0.0,0.0,0.0,0.0,-1.0518064954552189,-2.424064278136518,-1.4644325363282384,-0.003045652380507487,-0.0007623117517068122,-0.3879089395236316
6855,1.0,300.14942,16184.418,0.0,-0.06855010643747173,0.0,0.0,0.0,0.0,-1.024843201019149,-2.4165390722938374,-1.4782765724445386,0.00017388757842136783,-0.012198918187689489,-0.3838899539294886
6856,1.0,300.09369,16011.573,0.0,-0.0685601024248913,0.0,0.0,0.0,0.0,-1.035205811116859,-2.4004682164327678,-1.4314443554725587,0.0015523171890517785,-0.0004990508231174815,-0.3801008545180336
6857,1.0,300.25862,16134.128,0.0,-0.06857009841231054,0.0,0.0,0.0,0.0,-1.070186244319159,-2.4155389944451375,-1.4186467027345289,-0.002350350232036508,0.013398675207096289,-0.3984988520162746
6858,1.0,300.03744,16288.167,0.0,-0.06858009439972967,0.0,0.0,0.0,0.0,-1.0956851897107092,-2.4192083783572778,-1.4363024844020185,-0.003015676997499147,-0.0012108888889804288,-0.3875486987155786
6859,1.0,300.01514,16204.813999999998,0.0,-0.06859009038714914,0.0,0.0,0.0,0.0,-1.054885559859099,-2.4238714566424875,-1.4471018052928288,-0.005368045218434814,-0.001071995503697719,-0.39341391718443064
6860,1.0,300.58488,16218.368999999999,0.0,-0.06860011936462596,0.0,0.0,0.0,0.0,-1.038130456205499,-2.435353302800658,-1.4564954443199087,-0.01838675852813178,0.0013705088116836887,-0.39137054637026564
6861,1.0,299.78071,16308.889,0.0,-0.06861011535204509,0.0,0.0,0.0,0.0,-1.050788888379789,-2.426721830498798,-1.4799842028380685,-0.0003549293104987957,-0.007260668735722212,-0.3795021858289496
6862,1.0,299.73443,16256.558,0.0,-0.06862011133946444,0.0,0.0,0.0,0.0,-1.065711326577519,-2.421931386676018,-1.4539449924931986,-0.012383383408144788,-0.012457398288199488,-0.38065304542503064
6863,1.0,299.76242,16126.151000000002,0.0,-0.0686301073268839,0.0,0.0,0.0,0.0,-1.0702377174242388,-2.4096032740343274,-1.4221061412259486,0.01034125078560199,-0.007857722506796833,-0.3950991142207466
6864,1.0,299.43377999999996,16257.231000000002,0.0,-0.06864010331430326,0.0,0.0,0.0,0.0,-1.060542231192369,-2.4322240825168273,-1.4490258659077184,0.004711981382736355,0.01023477137234329,-0.4016757761148126
6865,1.0,299.78861,16258.704,0.0,-0.0686500993017225,0.0,0.0,0.0,0.0,-1.045082669116629,-2.4435355000081778,-1.4536219683613185,-8.745135557002682e-06,0.024504566061412377,-0.4154521777869376
6866,1.0,299.94055,16089.839,0.0,-0.06866009528914163,0.0,0.0,0.0,0.0,-1.00804423376872,-2.4257764681554974,-1.4570886009284485,-0.0001020333326149059,-0.0012787724913550188,-0.4058599924027626
6867,1.0,299.98965,16106.99,0.0,-0.0686700912765611,0.0,0.0,0.0,0.0,-1.0295031382290492,-2.427723022922608,-1.4388967086330486,0.0004427047449940566,0.0008276389950066091,-0.4058152067483426
6868,1.0,300.50538,16237.681,0.0,-0.0686801202540378,0.0,0.0,0.0,0.0,-1.050548950756109,-2.4393659758466772,-1.4459346425026385,0.01159009673260349,-0.000988720794424145,-0.38911863855301965
6869,1.0,300.14911,16124.247,0.0,-0.06869011624145704,0.0,0.0,0.0,0.0,-1.061698450881479,-2.4279089543159578,-1.4117611616799786,-0.008707599808373191,-0.01086740521802939,-0.4013854495636596
6870,1.0,299.50092,16155.479,0.0,-0.0687001122288764,0.0,0.0,0.0,0.0,-1.036342677729059,-2.4440923822631375,-1.4304271536971684,-0.008546156744765002,0.003814187179955966,-0.3989847358367276
6871,1.0,299.75886,16248.93,0.0,-0.06871010821629586,0.0,0.0,0.0,0.0,-1.049448257172479,-2.4190789863195077,-1.4707417407259087,-0.01122820432688749,-0.016251882110685883,-0.38959819969284865
6872,1.0,299.89229,16317.309,0.0,-0.06872010420371522,0.0,0.0,0.0,0.0,-1.049147727192819,-2.4375626946437077,-1.4733440709577386,0.020122653533201282,0.0001034411727013489,-0.38070770013542465
6873,1.0,299.77496,16284.5,0.0,-0.06873010019113435,0.0,0.0,0.0,0.0,-1.053663884213529,-2.4313571457312677,-1.4650605487402184,0.007058211435891234,0.007535327704553942,-0.3921507996097706
6874,1.0,299.38984,16282.603000000001,0.0,-0.06874009617855359,0.0,0.0,0.0,0.0,-1.0877044266230689,-2.4113941935860774,-1.4504062165189486,0.007776926551772893,-0.014000039141446288,-0.3674145073034886
6875,1.0,299.84462,16276.178999999998,0.0,-0.06875009216597294,0.0,0.0,0.0,0.0,-1.073091029705839,-2.426113981763808,-1.4483469883407187,-0.004178744838735007,-0.009013955773458171,-0.3891061755767896
6876,1.0,300.70017,16345.622,0.0,-0.06876012114344976,0.0,0.0,0.0,0.0,-1.0747303670426291,-2.4299500453173977,-1.4639804241336185,-0.004137028521517926,0.009202365576552771,-0.39879425495042864
6877,1.0,300.79699,16441.968999999997,0.0,-0.068770117130869,0.0,0.0,0.0,0.0,-1.074201146515399,-2.431231401393858,-1.4925153707997985,0.0062070313986613045,0.025323983443782578,-0.4014683840843446
6878,1.0,300.52042,16280.46,0.0,-0.06878011311828836,0.0,0.0,0.0,0.0,-1.058785762144019,-2.4271584399668877,-1.4629090134778786,-0.01075214700590429,0.0005047136651438605,-0.3889770267190436
6879,1.0,300.09853,16061.094,0.0,-0.06879010910570771,0.0,0.0,0.0,0.0,-1.022558322043649,-2.413253203544548,-1.4463599035696086,-0.0006732709806191722,0.004070172658719767,-0.3836919243299446
6880,1.0,299.49661000000003,16172.936000000002,0.0,-0.06880010509312717,0.0,0.0,0.0,0.0,-1.078121411152299,-2.413080849702538,-1.4249665462582488,0.001968020166503468,-0.004622107821391525,-0.38513645420250864
6881,1.0,299.71317,16379.406,0.0,-0.0688101010805463,0.0,0.0,0.0,0.0,-1.0685536957580388,-2.4429856091789075,-1.4673912266202385,0.012999324971683488,0.008269970808032571,-0.3848919974833826
6882,1.0,300.10125,16218.638,0.0,-0.06882009706796555,0.0,0.0,0.0,0.0,-1.041134641426989,-2.435873100101958,-1.4530532310801885,-0.005873965350340245,-0.008631587407071352,-0.4135187243436206
6883,1.0,300.02098,16126.353000000001,0.0,-0.0688300930553849,0.0,0.0,0.0,0.0,-1.011393927141809,-2.4323767793068973,-1.4582379305168787,-0.007791233136559842,-0.0067827523034555345,-0.4010699640125236
6884,1.0,300.1598,16259.133,0.0,-0.06884012203286172,0.0,0.0,0.0,0.0,-1.050325630434069,-2.4259298742206377,-1.4661150381192884,-0.0007253087699799022,-0.0010148973406875691,-0.4203845272862226
6885,1.0,300.05453,16275.214,0.0,-0.06885011802028085,0.0,0.0,0.0,0.0,-1.052904250613559,-2.4374457655821677,-1.4569085463856788,0.008129591896778253,-0.0004796709761398395,-0.40493663785163464
6886,1.0,300.11667,16187.538,0.0,-0.06886011400770042,0.0,0.0,0.0,0.0,-1.0789746690615092,-2.4290935450078677,-1.4125392364317686,0.00921471506877157,-0.011736862969838188,-0.4244894668863486
6887,1.0,300.19432,16254.143999999998,0.0,-0.06887010999511967,0.0,0.0,0.0,0.0,-1.055894250333649,-2.4300852128807375,-1.4548745481349385,-0.0007387036323268722,-0.0054402349310843845,-0.3870943877682416
6888,1.0,300.19075,16264.357,0.0,-0.06888010598253902,0.0,0.0,0.0,0.0,-1.0507309304740688,-2.4284838724226976,-1.4647435027839286,0.00044486303863456363,0.012774233488468687,-0.39379514240205465
6889,1.0,299.7116,16338.497,0.0,-0.06889010196995826,0.0,0.0,0.0,0.0,-1.046794251185549,-2.437399561377608,-1.4823013031667485,0.007992947217442472,0.024992127824030975,-0.37334302350608767
6890,1.0,300.16455,16522.107,0.0,-0.0689000979573775,0.0,0.0,0.0,0.0,-1.0831412547977188,-2.446171875443368,-1.4929949420721285,-0.01133333003801259,0.006238409930408124,-0.3610994361877397
6891,1.0,300.17197999999996,16406.049,0.0,-0.06891009394479686,0.0,0.0,0.0,0.0,-1.076090857951899,-2.4421770355991077,-1.4687615460554786,-0.006748868004211414,-0.015076108721146087,-0.37090739318070964
6892,1.0,300.02472,16221.979,0.0,-0.06892012292227367,0.0,0.0,0.0,0.0,-1.092651113611269,-2.4157134761123578,-1.4227119634607386,-0.012030269801295188,-0.013721028567410087,-0.37745435671434463
6893,1.0,300.24156,16381.396999999999,0.0,-0.06893011890969303,0.0,0.0,0.0,0.0,-1.073347888606189,-2.440181034227118,-1.4660068230086087,0.015196214321749587,0.005597636646668724,-0.3982505753442716
6894,1.0,300.39707999999996,16374.708,0.0,-0.06894011489711238,0.0,0.0,0.0,0.0,-1.0713007181041492,-2.4351658515321577,-1.4710359885549487,-0.006199520074344994,-0.01038617930828609,-0.39442127016884865
6895,1.0,300.18162,16185.829,0.0,-0.06895011088453162,0.0,0.0,0.0,0.0,-1.0195332638700991,-2.440626661621098,-1.4599280316836787,0.004026405523300285,-0.015769078570536884,-0.4295257758458936
6896,1.0,300.22198,16272.187,0.0,-0.06896010687195098,0.0,0.0,0.0,0.0,-1.040012162966209,-2.447340051483658,-1.4589864183657486,0.0014538327243821187,-0.01087387583316799,-0.40212788830943264
6897,1.0,300.09648,16307.331,0.0,-0.06897010285937022,0.0,0.0,0.0,0.0,-1.0874243642954289,-2.4340086185929475,-1.4355884470565488,0.015989862727576586,0.005541821055635155,-0.4275198243579216
6898,1.0,300.15596,16257.546,0.0,-0.06898009884678935,0.0,0.0,0.0,0.0,-1.071629619086609,-2.445173520119838,-1.4250849951949385,0.01068922620119449,0.003508258907738197,-0.4059820586423096
6899,1.0,300.2854,16251.196000000002,0.0,-0.06899009483420893,0.0,0.0,0.0,0.0,-1.0459080626480892,-2.4465399892046977,-1.4475098411080987,-0.0051219037683675455,-0.008844285017712972,-0.4129326908832836
6900,1.0,299.89411,16324.358,0.0,-0.06900009082162817,0.0,0.0,0.0,0.0,-1.039412217581999,-2.4437903324083274,-1.4789945614653988,0.002033336699749708,-0.0003954994290702546,-0.38053685603606363
6901,1.0,299.87576,16236.692,0.0,-0.06901011979910499,0.0,0.0,0.0,0.0,-1.014160201239819,-2.440566778540188,-1.4808218566957385,-0.0012748028814382488,0.01125100448063769,-0.3923397099584146
6902,1.0,299.89198,16286.635,0.0,-0.06902011578652434,0.0,0.0,0.0,0.0,-1.0293863104925192,-2.4449031849931577,-1.4764408672383686,0.007079744013766333,0.006637395902409973,-0.38057802438762667
6903,1.0,299.74055,16466.725,0.0,-0.06903011177394358,0.0,0.0,0.0,0.0,-1.1028840276961789,-2.445508399277888,-1.4570806975776687,-0.015983619080460382,-0.019154662275417983,-0.3928539445166656
6904,1.0,299.90696,16439.901,0.0,-0.06904010776136293,0.0,0.0,0.0,0.0,-1.109136996713299,-2.4400617746903475,-1.4481205269433686,0.006238745214866214,0.0029818277567084874,-0.40322830831553563
6905,1.0,299.9555,16291.893999999998,0.0,-0.06905010374878218,0.0,0.0,0.0,0.0,-1.0620478195159588,-2.4379342534553774,-1.4523469957604884,0.0008773647705541612,0.01082815292240549,-0.4202950370373906
6906,1.0,300.2121,16388.631,0.0,-0.06906009973620153,0.0,0.0,0.0,0.0,-1.0687774213801189,-2.438638766249908,-1.4743185135789088,-0.004015248930424216,0.0024360822349225974,-0.3870174314231466
6907,1.0,299.42411,16402.727,0.0,-0.06907009572362088,0.0,0.0,0.0,0.0,-1.049345918912379,-2.441776295184558,-1.4948972178098685,-0.013705084063836486,-0.015024172560770386,-0.3874541624812486
6908,1.0,300.16652,16292.322,0.0,-0.06908009171104013,0.0,0.0,0.0,0.0,-1.054218435993259,-2.4310454700005075,-1.4671950614008786,-0.006312785426173415,0.005946859778434364,-0.36840584080382566
6909,1.0,300.14727999999997,16319.495,0.0,-0.06909012068851694,0.0,0.0,0.0,0.0,-1.089800233129909,-2.4263957666166176,-1.4445229824633186,0.00975504699792318,0.0009128453034758172,-0.3839449734099186
6910,1.0,300.2785,16422.284,0.0,-0.0691001166759363,0.0,0.0,0.0,0.0,-1.1018697643460789,-2.4395212057619977,-1.4505733014604385,0.005779016925869564,0.0017519715351311284,-0.3864984244569246
6911,1.0,300.56394,16342.476,0.0,-0.06911011266335543,0.0,0.0,0.0,0.0,-1.0483707670161388,-2.4467840811537878,-1.4725498855293588,-0.0004467568739989706,0.0014487798487834386,-0.4183583006637496
6912,1.0,300.24092,16372.392,0.0,-0.06912010865077489,0.0,0.0,0.0,0.0,-1.043146550825549,-2.448645624237508,-1.4850060729836885,0.01173885400628469,0.002186042406420588,-0.3909779626190206
6913,1.0,299.6736,16480.193,0.0,-0.06913010463819402,0.0,0.0,0.0,0.0,-1.0183861634318891,-2.4643983195671773,-1.5267826785817185,0.006680329031672144,0.0038185913728406265,-0.4200675725224416
6914,1.0,299.97396000000003,16275.03,0.0,-0.06914010062561349,0.0,0.0,0.0,0.0,-1.0402435892890491,-2.4501543536364077,-1.4568047895754386,-0.01015045984477239,-0.0015154400529872887,-0.4010106584841706
6915,1.0,299.5293,16137.37,0.0,-0.06915009661303284,0.0,0.0,0.0,0.0,-1.040369434951469,-2.4398832400227275,-1.4251048548968988,-0.017587529140753982,-0.025278784383321772,-0.42217532524796053
6916,1.0,299.7687,16361.746000000001,0.0,-0.06916009260045208,0.0,0.0,0.0,0.0,-1.086647201468729,-2.4531864032356476,-1.4337285251729885,-0.017007506280010184,0.001105581198137369,-0.40737568282984965
6917,1.0,299.75133999999997,16425.689,0.0,-0.06917012157792879,0.0,0.0,0.0,0.0,-1.074447872914749,-2.4595097931347176,-1.4590417418212087,-0.006356098017598034,0.014585686553495186,-0.4016541634901796
6918,1.0,300.44057000000004,16316.838,0.0,-0.06918011756534825,0.0,0.0,0.0,0.0,-1.048070541011509,-2.450260846221918,-1.4615800346467185,0.012368353869411488,0.006452031523815933,-0.39087125725098965
6919,1.0,301.23515,16451.346999999998,0.0,-0.06919011355276738,0.0,0.0,0.0,0.0,-1.040366699176199,-2.446720550372518,-1.5137114483166885,-0.0040964177614849565,-0.004854270777054225,-0.37492385578210363
6920,1.0,300.63231,16485.48,0.0,-0.06920010954018685,0.0,0.0,0.0,0.0,-1.084815042637909,-2.4471822884430874,-1.4791769464833986,0.015637139222015484,-0.003649045550832756,-0.37949319830056266
6921,1.0,299.82861,16495.251,0.0,-0.06921010552760598,0.0,0.0,0.0,0.0,-1.092750006821029,-2.4594399802028275,-1.4619545318836786,0.017588090481309382,0.003023578321778947,-0.39041302502576564
6922,1.0,300.03528,16618.125,0.0,-0.06922010151502533,0.0,0.0,0.0,0.0,-1.1087279476479288,-2.466103518160468,-1.4766633769603288,0.004975154959034565,0.004685844191106816,-0.4147870905537986
6923,1.0,299.7153,16478.314,0.0,-0.0692300975024448,0.0,0.0,0.0,0.0,-1.085559984111429,-2.4545884373990177,-1.4688475709889686,-0.003767788634026786,-0.005786650650797954,-0.40955216430965163
6924,1.0,299.96006,16190.276000000002,0.0,-0.06924009348986393,0.0,0.0,0.0,0.0,-1.023636622800069,-2.431353092730868,-1.4664499172773384,-0.018801277117541582,0.0101092135742767,-0.4007286405838376
6925,1.0,299.89094,16289.525,0.0,-0.06925012246734075,0.0,0.0,0.0,0.0,-1.033640238387349,-2.4444075030442374,-1.4735611091291587,-0.008340169788210674,0.019243864761221585,-0.39502028336296663
6926,1.0,299.38137,16418.689,0.0,-0.0692601184547601,0.0,0.0,0.0,0.0,-1.083972018554709,-2.4407909094623075,-1.4661086546436588,-0.007132152855313683,-0.0077346637887768825,-0.37722631464683865
6927,1.0,299.01335,16318.068000000001,0.0,-0.06927011444217934,0.0,0.0,0.0,0.0,-1.067588473712779,-2.442725811853268,-1.4499710256009986,0.005253111651641756,-0.01637516222385268,-0.3810350913752356
6928,1.0,299.46094,16352.045,0.0,-0.0692801104295987,0.0,0.0,0.0,0.0,-1.0657756679588688,-2.4600646488894773,-1.4447730525879985,0.005367600097665885,-0.011053979011942789,-0.3901765223199246
6929,1.0,300.0917,16529.711,0.0,-0.06929010641701816,0.0,0.0,0.0,0.0,-1.0829541075042488,-2.4636143679648077,-1.4780510229722787,0.025876395239301374,0.0039188555099859265,-0.40467214917803157
6930,1.0,299.96668999999997,16465.661,0.0,-0.06930010240443729,0.0,0.0,0.0,0.0,-1.049023705380579,-2.4706743906865776,-1.4854515990526587,0.00934493331067311,-0.0038279702184162464,-0.41420224259607863
6931,1.0,300.42832999999996,16368.466,0.0,-0.06931009839185676,0.0,0.0,0.0,0.0,-1.0397949221447689,-2.4632224428261273,-1.4725875784330786,0.005837264519793155,-0.003789228398192726,-0.4201244158530516
6932,1.0,300.7886,16356.188,0.0,-0.06932009437927589,0.0,0.0,0.0,0.0,-1.0737634224721988,-2.444695772697688,-1.4534134414907385,0.004249079493101496,0.0026774512770188674,-0.4008135306772156
6933,1.0,300.11896,16304.656,0.0,-0.0693301233567527,0.0,0.0,0.0,0.0,-1.062701365830459,-2.452247221717958,-1.4412597091912587,0.0016096678539868486,-0.0017851677362323384,-0.4128573152083446
6934,1.0,299.53417,16260.864,0.0,-0.06934011934417206,0.0,0.0,0.0,0.0,-1.0484200109709991,-2.4514447276387576,-1.4430319849411686,-0.0022250037979407783,-0.001950165686491368,-0.4069905768643426
6935,1.0,299.6443,16414.407,0.0,-0.0693501153315913,0.0,0.0,0.0,0.0,-1.074773328846869,-2.452881110980518,-1.4619153191048089,-0.003584022454815476,-0.01108090613335029,-0.39791167358332463
6936,1.0,299.38545,16564.367,0.0,-0.06936011131901065,0.0,0.0,0.0,0.0,-1.0664887933792488,-2.4625761919123477,-1.5060889704644087,0.009416018783363702,0.01024204448156109,-0.3847760715394416
6937,1.0,299.70089,16404.516,0.0,-0.06937010730643,0.0,0.0,0.0,0.0,-1.063683002527339,-2.4515717892012976,-1.4713085528318486,-0.006406788994925843,0.008827372961618882,-0.3809396128183126
6938,1.0,299.77292,16515.868000000002,0.0,-0.06938010329384925,0.0,0.0,0.0,0.0,-1.084648362996459,-2.464338841786308,-1.4714242659932686,-0.006942629996984233,0.0009038057649611841,-0.37638825548912863
6939,1.0,299.80093,16621.054,0.0,-0.0693900992812686,0.0,0.0,0.0,0.0,-1.1040419699104589,-2.4582692710372878,-1.4900742486588787,-0.0069522972135383125,-0.003112499124054747,-0.37676281352109464
6940,1.0,299.77236,16526.188000000002,0.0,-0.06940009526868784,0.0,0.0,0.0,0.0,-1.077100257701519,-2.467322762005798,-1.4791255747033287,0.00998733924429864,0.020224365604739482,-0.39387568565250364
6941,1.0,300.47336,16469.099,0.0,-0.0694100912561072,0.0,0.0,0.0,0.0,-1.0668837582682291,-2.4647517412020576,-1.4745594644526885,0.0037942255450359058,0.007400733336795513,-0.4023809373894066
6942,1.0,300.36939,16412.692,0.0,-0.06942012023358402,0.0,0.0,0.0,0.0,-1.0419199102544892,-2.4542676424173577,-1.4928609904089087,-0.00957301489493301,-0.002715926713791097,-0.4079392018729646
6943,1.0,300.06264,16322.249,0.0,-0.06943011622100326,0.0,0.0,0.0,0.0,-1.051670821266829,-2.451217151666298,-1.4586681565093385,-0.008935774206342253,-0.018537823985540783,-0.40535248582517563
6944,1.0,299.80516,16438.441000000003,0.0,-0.06944011220842283,0.0,0.0,0.0,0.0,-1.082414045200949,-2.4594151555753774,-1.4550464966769088,0.013064487085614489,-0.013926519740690486,-0.39973075135535363
6945,1.0,299.37346,16598.959,0.0,-0.06945010819584196,0.0,0.0,0.0,0.0,-1.0859613324760389,-2.474036253193368,-1.4856714743243586,0.01207548000750709,-0.01053260002723669,-0.39815645454248266
6946,1.0,299.79128,16409.682,0.0,-0.0694601041832612,0.0,0.0,0.0,0.0,-1.061366206173689,-2.4641211956648275,-1.4626462777269487,-0.004804718692838816,-0.022271854267310875,-0.3944239552816136
6947,1.0,300.65693,16253.562,0.0,-0.06947010017068056,0.0,0.0,0.0,0.0,-1.026624899994989,-2.4536028490267476,-1.4604492475351185,-0.01116696450409359,-0.012560697109394288,-0.3966627617750666
6948,1.0,300.02712,16457.041,0.0,-0.0694800961580998,0.0,0.0,0.0,0.0,-1.052483954472079,-2.4679675943694375,-1.4820779828447088,-0.012329750053851589,0.027442089558823372,-0.39483020777670763
6949,1.0,300.18937,16651.997,0.0,-0.06949009214551916,0.0,0.0,0.0,0.0,-1.097376304127609,-2.4754408204819875,-1.4889740617002987,-0.006504514332620583,0.02357500839317218,-0.3966519807940026
6950,1.0,299.84562999999997,16581.79,0.0,-0.06950012112299597,0.0,0.0,0.0,0.0,-1.0911631558394188,-2.4764359334051975,-1.4728509221340684,-0.011818836929428388,0.005858566481945495,-0.4109867947287386
6951,1.0,299.66505,16462.583,0.0,-0.06951011711041533,0.0,0.0,0.0,0.0,-1.0659638285024389,-2.4706103532802577,-1.4676398781947786,-0.015944443791844086,0.005056773571814695,-0.39918612942660364
6952,1.0,299.55571000000003,16501.894,0.0,-0.06952011309783468,0.0,0.0,0.0,0.0,-1.078423967632159,-2.4589136981008877,-1.4788258553237486,0.016327889040437183,0.005241750382245484,-0.4023121275751156
6953,1.0,299.77456,16565.064,0.0,-0.06953010908525392,0.0,0.0,0.0,0.0,-1.0802552145378888,-2.465203752071668,-1.4899067584173487,0.013862196597842288,-0.003651434895893566,-0.3927328509972146
6954,1.0,299.53783,16517.581000000002,0.0,-0.06954010507267316,0.0,0.0,0.0,0.0,-1.0738418480299388,-2.4620471740351375,-1.4850432592623586,0.004566653352693595,-0.02110729249012758,-0.4024672460329246
6955,1.0,301.02123,16448.623,0.0,-0.06955010106009252,0.0,0.0,0.0,0.0,-1.092820225052959,-2.4395551496403476,-1.4675952951903786,0.008045299519634242,-0.024597275405812077,-0.36384078433328965
6956,1.0,300.32925,16331.969,0.0,-0.06956009704751165,0.0,0.0,0.0,0.0,-1.0713457064085887,-2.459574641141118,-1.4335904191843587,0.011372185139597289,0.007281365787564853,-0.4102035929314426
6957,1.0,300.12948,16535.191000000003,0.0,-0.06957009303493122,0.0,0.0,0.0,0.0,-1.0847864689850888,-2.4816659251213578,-1.4598326848492686,0.0026793049167518077,0.014285475747616686,-0.38217836172806763
6958,1.0,299.62588999999997,16794.444,0.0,-0.06958012201240793,0.0,0.0,0.0,0.0,-1.110772686349729,-2.4890346851485976,-1.5052842472349885,-0.005428927971893475,-0.007136066027199884,-0.40894016124925164
6959,1.0,299.70133,16603.332,0.0,-0.06959011799982728,0.0,0.0,0.0,0.0,-1.059076970222759,-2.4984543647032478,-1.4894669065489383,-0.013467475902136386,0.017109102841036984,-0.3946654634429486
6960,1.0,299.32833,16310.661,0.0,-0.06960011398724664,0.0,0.0,0.0,0.0,-1.024895890024349,-2.458971453356588,-1.4741662220888787,-0.01380547485724429,0.01996369891051368,-0.4202350424989696
6961,1.0,299.64637,16484.781000000003,0.0,-0.06961010997466588,0.0,0.0,0.0,0.0,-1.067109307740489,-2.4851831188684774,-1.4586692710844487,-0.0005843264074960264,0.0027962105722144975,-0.4063522191688416
6962,1.0,299.63253,16567.663,0.0,-0.06962010596208501,0.0,0.0,0.0,0.0,-1.0941378554829988,-2.476534927939968,-1.4654832766819386,-0.00035833158141957366,-0.010858138032614791,-0.4154606586902746
6963,1.0,299.82246000000004,16476.917,0.0,-0.06963010194950447,0.0,0.0,0.0,0.0,-1.071149135889189,-2.4754412257820273,-1.4619808763862787,0.013487193749082386,-0.004589144262513276,-0.4130122411486346
6964,1.0,300.47505,16344.121000000001,0.0,-0.06964009793692383,0.0,0.0,0.0,0.0,-1.050545607030779,-2.4620333938337775,-1.4556258730840885,0.01089377403863179,-0.007247582408030693,-0.3860902163891376
6965,1.0,300.31931000000003,16388.142,0.0,-0.06965009392434318,0.0,0.0,0.0,0.0,-1.041522412240259,-2.454316886372218,-1.4857467588067883,0.0024766310853744575,-0.005423107052718995,-0.3913220420879786
6966,1.0,299.74956000000003,16563.265,0.0,-0.06966012290181978,0.0,0.0,0.0,0.0,-1.0744975221696489,-2.4728052556468776,-1.4875160961314087,0.0019001311939033482,-0.018246000863990083,-0.3884901093834886
6967,1.0,299.9979,16745.17,0.0,-0.06967011888923924,0.0,0.0,0.0,0.0,-1.108960691195899,-2.4868276237807776,-1.4943252381284184,0.0027850254056856075,-0.004254221737358996,-0.4046613479319656
6968,1.0,300.06611000000004,16777.417,0.0,-0.0696801148766586,0.0,0.0,0.0,0.0,-1.121366925420299,-2.485891684663408,-1.4926573271388086,-3.8033777265641566e-05,0.02211203635553808,-0.3967626378374236
6969,1.0,299.43327999999997,16517.888,0.0,-0.06969011086407784,0.0,0.0,0.0,0.0,-1.0751484340338888,-2.4842622771775975,-1.4616148904501587,-0.007920455150963063,0.019712771576249084,-0.4136336066399586
6970,1.0,299.40342999999996,16450.186999999998,0.0,-0.06970010685149697,0.0,0.0,0.0,0.0,-1.070920040041579,-2.4588591852455077,-1.4706667602185086,-0.007818611559561883,-0.005862640659272584,-0.39287602323634463
6971,1.0,299.32178999999996,16534.031000000003,0.0,-0.06971010283891632,0.0,0.0,0.0,0.0,-1.063883930022169,-2.458038452664508,-1.5040102878842587,0.0037469159859418164,0.007218903073225264,-0.38803567684613965
6972,1.0,299.74796000000003,16496.787,0.0,-0.06972009882633579,0.0,0.0,0.0,0.0,-1.052592777532819,-2.4642310319756677,-1.4977875137201184,0.02074666563378648,0.00895937097732107,-0.39395939024326465
6973,1.0,300.34082,16458.301,0.0,-0.06973009481375514,0.0,0.0,0.0,0.0,-1.063971373505799,-2.4546199494771277,-1.4843214198911185,0.007771592701921482,-0.008473087733678651,-0.3889296268793656
6974,1.0,300.20758,16696.243000000002,0.0,-0.06974012379123196,0.0,0.0,0.0,0.0,-1.097629920627639,-2.4816309679929076,-1.4959801795167484,0.00042200944607408955,-0.02381177454403918,-0.4055718038093206
6975,1.0,299.97351000000003,16683.306,0.0,-0.06975011977865109,0.0,0.0,0.0,0.0,-1.099745181536399,-2.4887189564174377,-1.4828443038953385,-0.007166840763212113,-0.004078726921364006,-0.3972926385672306
6976,1.0,300.0967,16598.346999999998,0.0,-0.06976011576607055,0.0,0.0,0.0,0.0,-1.0701505779156388,-2.484028925679568,-1.4913033210301785,0.006544367282903764,0.00914713959575239,-0.4026032647263486
6977,1.0,300.33412000000004,16659.933999999997,0.0,-0.06977011175348968,0.0,0.0,0.0,0.0,-1.0697034306465092,-2.5031046760371978,-1.4913957294392985,-0.021359286776747477,-0.0025338975492262177,-0.41717593912205964
6978,1.0,300.48191,16529.153000000002,0.0,-0.06978010774090893,0.0,0.0,0.0,0.0,-1.0617310775346989,-2.4700100025960077,-1.4927086989188787,-0.011896586649351688,-0.02487192191166758,-0.4057975964616046
6979,1.0,299.64294,16335.322,0.0,-0.06979010372832828,0.0,0.0,0.0,0.0,-1.036959037764889,-2.4827064316490475,-1.4458645255957185,-0.011764648314080388,-0.008905322393136891,-0.43198427522602856
6980,1.0,299.64955,16426.401,0.0,-0.06980009971574763,0.0,0.0,0.0,0.0,-1.0648204770895988,-2.4775033923855476,-1.4508919686168884,0.013785388187261886,0.012167436507082489,-0.4073312518129646
6981,1.0,299.60579,16554.622,0.0,-0.0698100957031671,0.0,0.0,0.0,0.0,-1.0881555255675888,-2.4714760741656976,-1.4725602206803787,0.006062538286700944,0.007744028043551062,-0.4162783109909706
6982,1.0,300.0266,16469.881999999998,0.0,-0.06982012468064391,0.0,0.0,0.0,0.0,-1.061589830470759,-2.4736328783285577,-1.4712100649221285,1.5166546358821587e-05,-0.0007480226252190853,-0.3910690842005136
6983,1.0,299.88745,16558.835,0.0,-0.06983012066806304,0.0,0.0,0.0,0.0,-1.061014101763939,-2.466455115945168,-1.5060031481809384,4.015636498587466e-05,0.00923969543276194,-0.40316819218710265
6984,1.0,299.78121,16791.511000000002,0.0,-0.0698401166554824,0.0,0.0,0.0,0.0,-1.102943404152039,-2.475091046547468,-1.5261656092708187,0.008203709824368122,0.0008782659045305961,-0.3689004588401406
6985,1.0,300.05138999999997,16778.096,0.0,-0.06985011264290164,0.0,0.0,0.0,0.0,-1.0935762109525689,-2.491877358304148,-1.5146687670111685,0.0007094316880679563,-0.005362126520625684,-0.4010377730568466
6986,1.0,300.20407,16708.395,0.0,-0.06986010863032088,0.0,0.0,0.0,0.0,-1.110171221090369,-2.4723070405727077,-1.4964565083887587,-0.01190957550238359,-0.005099096015241595,-0.3982116969379346
6987,1.0,300.70987,16691.208,0.0,-0.06987010461774046,0.0,0.0,0.0,0.0,-1.118120066799859,-2.4744284823070775,-1.4811618021042885,-0.008565672043016012,0.007310710422385943,-0.4058078910826206
6988,1.0,300.783,16526.397,0.0,-0.06988010060515959,0.0,0.0,0.0,0.0,-1.077265316142809,-2.4703214756767475,-1.4760252320473486,0.0028979513187305274,0.018810553422207082,-0.4017354058831976
6989,1.0,299.94751,16521.118000000002,0.0,-0.06989009659257905,0.0,0.0,0.0,0.0,-1.0675926280381889,-2.4729869313898076,-1.4814277802555385,0.004198440900803856,0.0028746022874011567,-0.39287938722667665
6990,1.0,299.94861000000003,16734.993000000002,0.0,-0.06990009257999819,0.0,0.0,0.0,0.0,-1.0813294622939091,-2.4970298363876577,-1.5086608018682286,0.006078032400605094,-0.021552839837349683,-0.40001520105592664
6991,1.0,300.08735,16659.938000000002,0.0,-0.069910121557475,0.0,0.0,0.0,0.0,-1.076108893803679,-2.4834936256517377,-1.5046025325677086,-0.003938896077088777,-0.01135668747931779,-0.39175279497049065
6992,1.0,299.46939,16494.543,0.0,-0.06992011754489436,0.0,0.0,0.0,0.0,-1.054457056391809,-2.4939165241303978,-1.4655557240640886,0.00934427844713348,0.0013593740036847686,-0.4110212958946436
6993,1.0,299.89519,16653.726000000002,0.0,-0.0699301135323136,0.0,0.0,0.0,0.0,-1.0961529059568689,-2.4867937812274374,-1.4793701732774684,0.002875121071452357,0.00031029022270576075,-0.4056294273425076
6994,1.0,299.95862,16738.363999999998,0.0,-0.06994010951973295,0.0,0.0,0.0,0.0,-1.087365798439649,-2.494732291785908,-1.5059465075003486,0.009365065576910012,0.0048466402945261545,-0.40467778284858763
6995,1.0,299.30253999999996,16588.125,0.0,-0.0699501055071523,0.0,0.0,0.0,0.0,-1.0710690891312888,-2.486921146765008,-1.4843853559724287,0.004880206331913866,0.01179615228618959,-0.40460364333877064
6996,1.0,300.29283,16597.796000000002,0.0,-0.06996010149457155,0.0,0.0,0.0,0.0,-1.0779518944105688,-2.473235684289358,-1.4941278570089385,0.0042604783540764754,0.006468366027353024,-0.4197825756668146
6997,1.0,299.73852999999997,16665.316000000003,0.0,-0.0699700974819909,0.0,0.0,0.0,0.0,-1.0695113184275489,-2.4980709508654075,-1.4982576617665186,0.007652496197092571,-0.003922668572762246,-0.4113440667139986
6998,1.0,300.1763,16556.405,0.0,-0.06998009346941014,0.0,0.0,0.0,0.0,-1.083472080955369,-2.4802584194074475,-1.4690030035543087,-0.005902365230768094,-0.012453159863031188,-0.41706569751117956
6999,1.0,300.38403999999997,16655.276,0.0,-0.06999012244688696,0.0,0.0,0.0,0.0,-1.0726330406606388,-2.483823235909268,-1.5063317451883684,0.007448343020569223,0.004071177397518926,-0.4106623723117206
7000,1.0,300.30273,16694.336,0.0,-0.07000011843430631,0.0,0.0,0.0,0.0,-1.0932653458218888,-2.482796104282898,-1.4985998363252884,-0.013329002103720088,0.01004602780466575,-0.39132823304608966
7001,1.0,300.92136,16652.943,0.0,-0.07001011442172556,0.0,0.0,0.0,0.0,-1.080713507558119,-2.4779171024013777,-1.5034482380537886,-0.01013644862238959,0.006889305379996504,-0.39326678313740965
7002,1.0,299.98325,16672.711,0.0,-0.07002011040914491,0.0,0.0,0.0,0.0,-1.087968378274119,-2.4850922303345078,-1.4950270151476786,-0.012897176189352186,-0.005650731357208764,-0.37638657349396265
7003,1.0,298.97438,16806.414,0.0,-0.07003010639656426,0.0,0.0,0.0,0.0,-1.100999990460239,-2.4980688230401977,-1.5096613863419786,0.008780911695508513,0.0019090784962613782,-0.39739068064690664
7004,1.0,299.76338,16790.348,0.0,-0.0700401023839835,0.0,0.0,0.0,0.0,-1.116503122290279,-2.4868979433377176,-1.5004453700574285,0.01128945630868259,-0.0038526849082303966,-0.38616432550145163
7005,1.0,300.0166,16598.504,0.0,-0.07005009837140286,0.0,0.0,0.0,0.0,-1.074377452032799,-2.4843842724896374,-1.4867688241826587,0.016714807710373085,-0.0057570685101534244,-0.4167776406402506
7006,1.0,299.74846,16651.552,0.0,-0.0700600943588221,0.0,0.0,0.0,0.0,-1.0837362352564388,-2.4782690041611075,-1.4996506780039984,0.011412395969815789,-0.007638480212434302,-0.4082549711341286
7007,1.0,300.1251,16699.28,0.0,-0.07007012333629892,0.0,0.0,0.0,0.0,-1.0877198280245888,-2.494260218564318,-1.4941840923894885,0.003105818664820437,-0.0025545374537632175,-0.41714683857918766
7008,1.0,299.82184,16592.824,0.0,-0.07008011932371827,0.0,0.0,0.0,0.0,-1.064370391395179,-2.4935974516739075,-1.4858362287906186,-0.003276838360423767,0.013258917620803288,-0.4182274495458356
7009,1.0,300.03394,16547.259,0.0,-0.0700901153111374,0.0,0.0,0.0,0.0,-1.077010483742659,-2.4865270938011177,-1.4664159733989885,-0.012863912201819287,0.0020089781673457083,-0.4218056916114806
7010,1.0,300.22369,16636.087,0.0,-0.07010011129855687,0.0,0.0,0.0,0.0,-1.0811347156246889,-2.4901979975884077,-1.4856223316945087,-0.010801533829028388,-0.004783100697980285,-0.4057973532815806
7011,1.0,300.23266,16637.928,0.0,-0.07011010728597622,0.0,0.0,0.0,0.0,-1.062877671347859,-2.495288464765798,-1.4993487294741985,0.004836364418637005,0.0035139585408757073,-0.4038778826896436
7012,1.0,299.99753,16765.96,0.0,-0.07012010327339546,0.0,0.0,0.0,0.0,-1.079761356439149,-2.5030269597545276,-1.5136448777851184,-0.001048957438824039,-0.0022697950252363276,-0.40221361940039363
7013,1.0,299.73059,16848.318,0.0,-0.07013009926081482,0.0,0.0,0.0,0.0,-1.103871338593619,-2.5050958138087074,-1.5125008170972087,-0.002018849655119948,0.00016260245477011284,-0.3857726638077976
7014,1.0,299.77203,16683.751,0.0,-0.07014009524823406,0.0,0.0,0.0,0.0,-1.0866619949201888,-2.4997704752581376,-1.4850112405591986,-0.01220198630899229,-0.00044097511694085557,-0.4021322554173636
7015,1.0,299.59442,16658.75,0.0,-0.07015012422571076,0.0,0.0,0.0,0.0,-1.094199258439059,-2.5024949021270175,-1.4671498704464185,0.014085711463901487,0.005767445204427525,-0.39840362677187663
7016,1.0,299.44714,16789.409,0.0,-0.07016012021313023,0.0,0.0,0.0,0.0,-1.1043688443927189,-2.5033534289367476,-1.4958388311277986,-0.00023576845415603477,-0.0037414073504481566,-0.40187960150492863
7017,1.0,299.74329,16853.903000000002,0.0,-0.07017011620054958,0.0,0.0,0.0,0.0,-1.1033716036442989,-2.5041445746148274,-1.5156493904579487,0.0027866208692930673,-0.008633512886236382,-0.40862614491076066
7018,1.0,299.93924,16647.626,0.0,-0.07018011218796882,0.0,0.0,0.0,0.0,-1.072756150547789,-2.491810281147527,-1.4958960797584484,0.00019272435374291283,-0.00983303543957004,-0.40945405130246865
7019,1.0,300.10434,16608.511000000002,0.0,-0.07019010817538818,0.0,0.0,0.0,0.0,-1.089594746009629,-2.4691238140585474,-1.4898539680871385,0.003710074212305817,0.007162632836871823,-0.39678844531747065
7020,1.0,300.19574,16767.961,0.0,-0.07020010416280731,0.0,0.0,0.0,0.0,-1.0940216356965289,-2.4992510832568775,-1.5037686277354088,0.006332558697899884,0.009802188357500671,-0.40609328310578663
7021,1.0,300.67058,16786.56,0.0,-0.07021010015022677,0.0,0.0,0.0,0.0,-1.1115603869774688,-2.4964160094770773,-1.4947186831422485,-0.004287762139519176,0.0009092447901729742,-0.3916188635722726
7022,1.0,300.33007000000003,16760.686,0.0,-0.0702200961376459,0.0,0.0,0.0,0.0,-1.0916720100396389,-2.4979535151788177,-1.5052046057771284,0.0040079438025032565,0.005522113037215125,-0.40097642076329165
7023,1.0,300.05189,16774.701,0.0,-0.07023012511512272,0.0,0.0,0.0,0.0,-1.0795446222427592,-2.500229274903418,-1.5193163425698486,-0.0026457161825618573,-0.003629629145791507,-0.3870369972825776
7024,1.0,299.66208,16678.523,0.0,-0.07024012110254207,0.0,0.0,0.0,0.0,-1.051448919494929,-2.518137355845808,-1.5002683552649587,-0.003175099032457877,0.003618735491316387,-0.4212752957141346
7025,1.0,299.36659,16767.361,0.0,-0.07025011708996154,0.0,0.0,0.0,0.0,-1.070542401729309,-2.524727129196168,-1.5015894307453386,-0.0010861802958226489,-0.014439167549284886,-0.4066112565569066
7026,1.0,299.53,16778.221999999998,0.0,-0.07026011307738067,0.0,0.0,0.0,0.0,-1.101815555465729,-2.5086912304635476,-1.4896535472173587,-0.002188048844268608,0.004096410466084236,-0.4255897754349406
7027,1.0,299.59516,16515.249,0.0,-0.07027010906480013,0.0,0.0,0.0,0.0,-1.0793371086222792,-2.4886748800380873,-1.4522114228971088,0.01019075781449949,0.006253450716217534,-0.3932453022352897
7028,1.0,299.44948999999997,16436.133,0.0,-0.07028010505221927,0.0,0.0,0.0,0.0,-1.059543875868839,-2.4745282874419274,-1.462101757123209,0.0031123754062175367,0.002446821672732498,-0.4233617195250486
7029,1.0,298.97371,16736.736,0.0,-0.07029010103963862,0.0,0.0,0.0,0.0,-1.0820641699414189,-2.4890517077502774,-1.5164340513353884,0.012424044121407688,-0.008336599398833303,-0.3893876361895676
7030,1.0,299.49618,16912.182,0.0,-0.07030009702705808,0.0,0.0,0.0,0.0,-1.100372383348299,-2.5083684089816876,-1.5321402384854683,0.008131047025246863,-0.01874235054472598,-0.42344907181616964
7031,1.0,299.66481,16803.386000000002,0.0,-0.07031009301447722,0.0,0.0,0.0,0.0,-1.0864354321978291,-2.5027496332021575,-1.5186246980515885,0.015025515117152886,-0.007259258392908023,-0.3944590745300796
7032,1.0,299.78785,16754.261000000002,0.0,-0.07032012199195403,0.0,0.0,0.0,0.0,-1.0991290241505889,-2.507963919541768,-1.4857838437604487,-0.012033096769074188,0.00961169845327578,-0.4054143244787786
7033,1.0,299.93964,16842.032,0.0,-0.07033011797937339,0.0,0.0,0.0,0.0,-1.1199406745795388,-2.5043736704624373,-1.4952430400689984,-0.00978912665178658,0.01017454277314919,-0.3946234439613016
7034,1.0,299.98644,16917.209,0.0,-0.07034011396679263,0.0,0.0,0.0,0.0,-1.1048977609449189,-2.5279761156418177,-1.5095352367045287,-0.027051685308543474,0.02305507936935918,-0.3987284443564336
7035,1.0,300.17953,16893.139,0.0,-0.07035010995421198,0.0,0.0,0.0,0.0,-1.103026186685209,-2.5106956418113677,-1.5213705044975785,-0.01005990203563503,0.005539343152515605,-0.39166093371642463
7036,1.0,300.51111000000003,16703.028000000002,0.0,-0.07036010594163122,0.0,0.0,0.0,0.0,-1.082254154335169,-2.4983520264431474,-1.4966970539624986,0.01092342376305799,-0.013374181912428987,-0.3982524498569566
7037,1.0,300.31347999999997,16522.016,0.0,-0.07037010192905058,0.0,0.0,0.0,0.0,-1.054115591108109,-2.4881940928656374,-1.4799706252867286,0.01127222801723229,-0.02113758562836728,-0.4134809402473916
7038,1.0,299.84263,16745.447,0.0,-0.07038009791647004,0.0,0.0,0.0,0.0,-1.104299639410889,-2.5088934751835077,-1.4770045382689985,0.027601413004547375,-0.015694122381139288,-0.4096114597055036
7039,1.0,299.93823,16946.671000000002,0.0,-0.07039009390388917,0.0,0.0,0.0,0.0,-1.133271195545159,-2.4998032032363677,-1.5182904268435986,0.003720419191851786,0.005088844356029835,-0.40075220878116363
7040,1.0,299.58232000000004,16698.695,0.0,-0.07040012288136621,0.0,0.0,0.0,0.0,-1.075949610887959,-2.5142683616639676,-1.4857683410339186,0.0006687349740290033,0.013759326381439787,-0.42369041785748857
7041,1.0,299.74746,16527.468,0.0,-0.07041011886878534,0.0,0.0,0.0,0.0,-1.047871032066819,-2.489868286005868,-1.4861983643763585,0.0010037167743141332,-0.006180996139991823,-0.4124877828968746
7042,1.0,299.38702,16841.991,0.0,-0.07042011485620459,0.0,0.0,0.0,0.0,-1.0703537345606888,-2.5365613837391177,-1.5126297025099287,-0.0039199799136218965,-0.008035055662448252,-0.43407257354962764
7043,1.0,299.06254,16926.374,0.0,-0.07043011084362394,0.0,0.0,0.0,0.0,-1.109293645178759,-2.526996910745177,-1.5089043871922685,0.015147784006719884,-0.017177317877519284,-0.4030280799632746
7044,1.0,299.45068,16743.121,0.0,-0.07044010683104318,0.0,0.0,0.0,0.0,-1.101529008337449,-2.507439663940027,-1.4805219346661385,-0.008674926748298612,-0.01023942928305299,-0.4113020067023476
7045,1.0,299.43012000000004,16725.97,0.0,-0.07045010281846253,0.0,0.0,0.0,0.0,-1.093897512559279,-2.5081901782890976,-1.4821897443307384,-0.0037607824148853265,0.007930029655132993,-0.3907071613972946
7046,1.0,299.82963,16729.013,0.0,-0.07046009880588189,0.0,0.0,0.0,0.0,-1.0715369067024592,-2.5070958681810978,-1.5065693523368184,-0.009197200128867981,0.019529569878668482,-0.4050726261475556
7047,1.0,300.20016,16873.385,0.0,-0.07047009479330113,0.0,0.0,0.0,0.0,-1.0947493519183489,-2.5143064598677274,-1.5200320011154786,-0.00024526723814599177,0.032852098327499676,-0.3939586505706916
7048,1.0,299.99676,17013.484,0.0,-0.07048012377077806,0.0,0.0,0.0,0.0,-1.095540092296389,-2.517741276381718,-1.5583929406264088,0.003663283031962887,-4.110644096863986e-05,-0.4039977603089746
7049,1.0,299.97609,16798.436,0.0,-0.0704901197581973,0.0,0.0,0.0,0.0,-1.1060101069046988,-2.4991541152223076,-1.5011408649260685,0.0072610600529108334,-0.023089415375497878,-0.39572758259527163
7050,1.0,300.12562,16599.432,0.0,-0.07050011574561654,0.0,0.0,0.0,0.0,-1.079343086797869,-2.4972457599839677,-1.4692239934011184,-0.003053825863764147,-0.014110055810804089,-0.40149027028650464
7051,1.0,300.06748,16863.528000000002,0.0,-0.0705101117330359,0.0,0.0,0.0,0.0,-1.105575929236849,-2.5125987281491873,-1.5079166709947884,0.0036590959785746564,-0.014133756743893186,-0.3979427702288936
7052,1.0,300.35263,17148.593999999997,0.0,-0.07052010772045514,0.0,0.0,0.0,0.0,-1.141484904830789,-2.5249133645645476,-1.5463462075374885,0.008829550233433762,0.026495595415161676,-0.40502837751568865
7053,1.0,300.20911,16932.762,0.0,-0.07053010370787471,0.0,0.0,0.0,0.0,-1.0967720017679687,-2.532568671720068,-1.5177962647698287,-0.007030714259977473,0.014649170725260587,-0.4179435267353146
7054,1.0,299.63653,16705.908,0.0,-0.07054009969529385,0.0,0.0,0.0,0.0,-1.070698543569719,-2.510250115742398,-1.4972303274901286,0.01109768352850609,0.010863203269864688,-0.41759582996349964
7055,1.0,299.56664,16791.976000000002,0.0,-0.07055009568271309,0.0,0.0,0.0,0.0,-1.0924258681140389,-2.5138704583496976,-1.4980449805705285,-0.015553471108258086,-0.016404369157985182,-0.4090494808025406
7056,1.0,299.52614,16863.725,0.0,-0.07056012466019002,0.0,0.0,0.0,0.0,-1.115924556483179,-2.5118230851976375,-1.4984038737559484,0.012456945365404789,-0.02002953280926098,-0.3975437523395136
7057,1.0,299.8048,16846.433,0.0,-0.07057012064760926,0.0,0.0,0.0,0.0,-1.0949628437144188,-2.5096605055092076,-1.5162716273443586,-0.004698588850864616,-0.01044388187498089,-0.3984946368958586
7058,1.0,299.37671,16689.613999999998,0.0,-0.07058011663502839,0.0,0.0,0.0,0.0,-1.077433515659409,-2.507537543899687,-1.4882547554543086,0.003218822902098087,0.021688509972739276,-0.40867990796106657
7059,1.0,299.90567999999996,16576.404,0.0,-0.07059011262244785,0.0,0.0,0.0,0.0,-1.0379999495926189,-2.5037383626497376,-1.4970745909497587,-0.018451907469811485,0.02097216748329178,-0.4074155542212846
7060,1.0,300.82909,16806.477,0.0,-0.07060010860986721,0.0,0.0,0.0,0.0,-1.080160880953579,-2.522063092033248,-1.5065254786074886,-0.004315013196983647,0.017878359277206685,-0.42137466515144156
7061,1.0,300.28334,17135.402,0.0,-0.07061010459728656,0.0,0.0,0.0,0.0,-1.1449490042726689,-2.538480378103508,-1.5253050559608885,0.008312900289594381,-0.002052165723707988,-0.4116684688660146
7062,1.0,300.30228,17009.945,0.0,-0.0706201005847058,0.0,0.0,0.0,0.0,-1.1419873755553789,-2.5229586024716273,-1.5056524623213285,0.016964964974561684,-0.017806264506091483,-0.4108143800917226
7063,1.0,300.24544,16721.453999999998,0.0,-0.07063009657212505,0.0,0.0,0.0,0.0,-1.0712408350232387,-2.5222344326251576,-1.4894291123202086,-0.005012473061542576,-0.025401704792703077,-0.41674413245944364
7064,1.0,299.76397000000003,16841.904,0.0,-0.07064012554960197,0.0,0.0,0.0,0.0,-1.102330489166549,-2.5141571068029873,-1.5030305763625684,0.0014739063234382288,-0.01904558792865318,-0.4065927444775796
7065,1.0,299.12504,17161.735,0.0,-0.07065012153702122,0.0,0.0,0.0,0.0,-1.116206138685969,-2.5413722952139177,-1.5591605789021683,-0.01989241372622838,0.004237199844954066,-0.4027025632361486
7066,1.0,299.75512000000003,16972.098,0.0,-0.07066011752444035,0.0,0.0,0.0,0.0,-1.121709707929129,-2.526140106460618,-1.5112441843231885,-0.003189657105919647,0.017865570034444483,-0.40016166635788164
7067,1.0,299.49172999999996,16622.672,0.0,-0.07067011351185981,0.0,0.0,0.0,0.0,-1.072471427269689,-2.4968932502741774,-1.4835125423362885,-0.018385902331797283,0.005132565287244755,-0.4075605199130916
7068,1.0,300.16362999999996,16757.933,0.0,-0.07068010949927916,0.0,0.0,0.0,0.0,-1.0924684246182388,-2.5128512300741077,-1.4886735317206383,0.001920476242661248,0.003442582265406417,-0.3892223953632596
7069,1.0,299.70272,17012.936,0.0,-0.07069010548669852,0.0,0.0,0.0,0.0,-1.0959296869598387,-2.5417465898008573,-1.5338314542273788,-0.009653653998841471,-0.007958187166136924,-0.40921078008595957
7070,1.0,300.10073,17141.86,0.0,-0.07070010147411776,0.0,0.0,0.0,0.0,-1.129081507706669,-2.5408613131884876,-1.5407545868606385,0.007181440582578004,-0.00019409031620272284,-0.3984122697952296
7071,1.0,300.2697,16975.129,0.0,-0.07071009746153689,0.0,0.0,0.0,0.0,-1.080105658823129,-2.5398229344860077,-1.5400868550447384,0.007845508688766423,-0.0030505792077937265,-0.4210500704819066
7072,1.0,300.15368,16644.758,0.0,-0.07072009344895636,0.0,0.0,0.0,0.0,-1.061967063482989,-2.512361830275808,-1.4852620199589486,0.004889457102676845,0.002390764928175128,-0.4087945774748836
7073,1.0,300.19574,16732.686999999998,0.0,-0.07073012242643306,0.0,0.0,0.0,0.0,-1.093356538330889,-2.5090159771205975,-1.4839464160291085,0.0056152545327824745,0.017762913613813082,-0.4299498108802426
7074,1.0,299.68677,17138.811999999998,0.0,-0.0707401184138523,0.0,0.0,0.0,0.0,-1.141756861157629,-2.5300974560511773,-1.5379166759805585,0.0030179960230030172,-0.004392068637938426,-0.39581451945385165
7075,1.0,299.7728,17016.019,0.0,-0.07075011440127166,0.0,0.0,0.0,0.0,-1.1250766366864189,-2.5198762956674274,-1.5274918523267085,0.013289468124568386,-0.016038302161857185,-0.4089569204059056
7076,1.0,299.8506,16693.041,0.0,-0.07076011038869112,0.0,0.0,0.0,0.0,-1.061270251389219,-2.5112545505665276,-1.5017429381354885,0.005355161540763295,-0.015656975619223187,-0.4103879537871376
7077,1.0,299.5795,16788.389,0.0,-0.07077010637611048,0.0,0.0,0.0,0.0,-1.0571956687620891,-2.5251533021882273,-1.5209020789763485,0.000949975113717744,-0.005430072032581385,-0.4265803996602076
7078,1.0,299.00399,17036.754,0.0,-0.0707801023635296,0.0,0.0,0.0,0.0,-1.1114317042147688,-2.532967385634418,-1.5343489210534484,-0.011451726285697388,0.016111327096564185,-0.40778419487266665
7079,1.0,299.22976,16988.602,0.0,-0.07079009835094885,0.0,0.0,0.0,0.0,-1.108299342855629,-2.537610097592618,-1.5182015648098286,-0.0043680382972418165,0.023067842267618776,-0.4099660161804956
7080,1.0,299.76984,16812.775,0.0,-0.0708000943383682,0.0,0.0,0.0,0.0,-1.086318908436329,-2.5193939886198273,-1.5049507866270786,0.00038574640036520563,0.014120624009347087,-0.4020235235491326
7081,1.0,299.75661,16773.618000000002,0.0,-0.07081012331584502,0.0,0.0,0.0,0.0,-1.083660849448999,-2.522256318827318,-1.4928439678072285,-0.014714382488446486,5.527539903425715e-06,-0.40456323492478263
7082,1.0,300.14448,16901.855,0.0,-0.07082011930326437,0.0,0.0,0.0,0.0,-1.090877317986209,-2.5253198805046675,-1.5215445808647585,0.01045391507747109,-0.017722626789837083,-0.40271665754503966
7083,1.0,300.57625,17090.735,0.0,-0.07083011529068384,0.0,0.0,0.0,0.0,-1.105256350155309,-2.5339952265358576,-1.5559050063308684,0.0037980911954924165,-0.014294833112290186,-0.41857262332490164
7084,1.0,300.17399,17178.083,0.0,-0.07084011127810297,0.0,0.0,0.0,0.0,-1.147072979132289,-2.5334103785781372,-1.5412249375570586,0.02752655408715937,0.003063394288433477,-0.3906942221935176
7085,1.0,300.40862999999996,16969.796000000002,0.0,-0.07085010726552243,0.0,0.0,0.0,0.0,-1.115803574421239,-2.5255308391754876,-1.5170599359221586,0.011652522058014387,0.01952704384616918,-0.4233665425955246
7086,1.0,300.46856,16879.933,0.0,-0.07086010325294156,0.0,0.0,0.0,0.0,-1.113072257451679,-2.5228933491651877,-1.4951123308060987,-4.055414671013266e-05,0.016582193537285086,-0.3972877749667506
7087,1.0,299.20724,17040.534,0.0,-0.0708700992403608,0.0,0.0,0.0,0.0,-1.1142772144705988,-2.5332182663591776,-1.5324014543612485,-0.013291593923278187,-0.001007141721772149,-0.4149975020695646
7088,1.0,299.27825,16988.17,0.0,-0.07088009522778016,0.0,0.0,0.0,0.0,-1.096779094518669,-2.5351765748274473,-1.5320237147239684,0.001747634622053108,-0.014576189360307884,-0.40051427739268164
7089,1.0,300.57745,16715.952,0.0,-0.07089012420525698,0.0,0.0,0.0,0.0,-1.034881165784819,-2.538269824732727,-1.5080811214860184,-0.0007694345756697802,-0.022596459069346875,-0.4337990669501346
7090,1.0,300.15552,16711.178,0.0,-0.07090012019267633,0.0,0.0,0.0,0.0,-1.093160271786519,-2.5035852605596274,-1.4830354028641985,0.006613998133750794,-0.0051874717902886044,-0.3928997434211856
7091,1.0,300.17186,16950.247,0.0,-0.0709101161800958,0.0,0.0,0.0,0.0,-1.0885125949028291,-2.5388703780669974,-1.5250688673625785,-0.023544737546434682,0.007093498275923774,-0.41904327799635155
7092,1.0,300.42888999999997,17081.026,0.0,-0.07092011216751493,0.0,0.0,0.0,0.0,-1.122747174706519,-2.5531272122740374,-1.5163310038002185,-0.001126331040310219,0.01003597879547399,-0.4058457866363606
7093,1.0,300.4581,17156.963,0.0,-0.07093010815493428,0.0,0.0,0.0,0.0,-1.1078444948857389,-2.5635572035033976,-1.5438865429197384,-0.018938606956594984,0.013302969682150886,-0.42970070334315763
7094,1.0,300.07739,17160.322,0.0,-0.07094010414235352,0.0,0.0,0.0,0.0,-1.1166343381782289,-2.5560834707657976,-1.5435914844906184,0.01249394216630609,-0.009217718646043002,-0.41506102271833367
7095,1.0,300.53922,16929.802,0.0,-0.07095010012977288,0.0,0.0,0.0,0.0,-1.088927926118819,-2.5291065987783874,-1.5282026472718586,-0.015056265231187686,-0.01166537614878299,-0.41707777545237157
7096,1.0,300.17395,16927.688000000002,0.0,-0.07096009611719234,0.0,0.0,0.0,0.0,-1.114368710954629,-2.5306249540532377,-1.5006008026227686,-0.003426918432110517,-0.0012898613991244089,-0.41240426069113156
7097,1.0,300.38719,17099.583,0.0,-0.07097012509466893,0.0,0.0,0.0,0.0,-1.124765670230729,-2.5357134960554375,-1.5373672917763384,-0.002983559198479367,-0.004893702215295805,-0.4136933073358506
7098,1.0,300.4362,16937.834,0.0,-0.07098012108208829,0.0,0.0,0.0,0.0,-1.114558796673389,-2.5254217121397176,-1.5086979881468987,0.0001048210774825349,0.01008087408355481,-0.40764403198633364
7099,1.0,300.49228,16763.112,0.0,-0.07099011706950764,0.0,0.0,0.0,0.0,-1.0786183090013388,-2.521710278348427,-1.4952387844185786,-0.0005851744674322235,0.020997888837080283,-0.40132445190763966
7100,1.0,300.02582,17045.183,0.0,-0.07100011305692688,0.0,0.0,0.0,0.0,-1.1010869273188189,-2.5366884453016576,-1.5435348438100287,-0.001082535837862969,-0.006454054984265634,-0.3987023734313606
7101,1.0,300.25246,17253.032,0.0,-0.07101010904434624,0.0,0.0,0.0,0.0,-1.127899652790029,-2.5690019029157476,-1.5475893640851786,0.008692806154263173,-0.005656792112681915,-0.4020798399896906
7102,1.0,300.48774,17159.578999999998,0.0,-0.07102010503176548,0.0,0.0,0.0,0.0,-1.123621204242779,-2.5564218962991974,-1.5360406434204086,0.0031356951546190172,-0.02124718787843418,-0.3965564009120697
7103,1.0,300.41218,17167.495,0.0,-0.07103010101918483,0.0,0.0,0.0,0.0,-1.1316093640561489,-2.550481008312877,-1.5363994352808186,0.004612844891627345,-0.006141649409458604,-0.3995958269720376
7104,1.0,299.69577999999996,17027.941000000003,0.0,-0.07104009700660419,0.0,0.0,0.0,0.0,-1.115620682778189,-2.541757938201977,-1.5186903566580685,-0.015332679858467684,0.01049287657031629,-0.3979302160601546
7105,1.0,299.72848,16814.238999999998,0.0,-0.071050125984081,0.0,0.0,0.0,0.0,-1.079343390772899,-2.5262421407456874,-1.5055234755835987,0.006637345442554994,0.017281219582523585,-0.42393046693867953
7106,1.0,299.48634,16954.207,0.0,-0.07106012197150025,0.0,0.0,0.0,0.0,-1.0894857202988688,-2.535320658991668,-1.5288494048106884,0.01057103868303029,0.014617537057138589,-0.4255473202557506
7107,1.0,299.86728999999997,16978.116,0.0,-0.0710701179589196,0.0,0.0,0.0,0.0,-1.1064264513707889,-2.5327460918125775,-1.5217506759350985,0.02034807229619838,9.99802528382827e-05,-0.42639171222658556
7108,1.0,300.66472000000005,16785.211,0.0,-0.07108011394633884,0.0,0.0,0.0,0.0,-1.080443375081459,-2.525771182099208,-1.4960705614256684,0.011630043104545887,-0.006076529548056774,-0.4215362177473856
7109,1.0,300.60507,16880.998,0.0,-0.0710901099337582,0.0,0.0,0.0,0.0,-1.0866890486978589,-2.5455629963025075,-1.4991499298045787,0.0005801696604182875,-0.009698712724163422,-0.42957271972302663
7110,1.0,299.33517,17135.703,0.0,-0.07110010592117744,0.0,0.0,0.0,0.0,-1.117557712994359,-2.5513355834472176,-1.5399324357294986,-0.0060040393054275444,-0.0011663600934607788,-0.4061440266707946
7111,1.0,299.94406000000004,17116.724,0.0,-0.07111010190859679,0.0,0.0,0.0,0.0,-1.0964511054612989,-2.5634395651667874,-1.5431661220986386,-0.01054039394700589,0.005661071878454296,-0.4024724440059376
7112,1.0,299.43217000000004,16970.827,0.0,-0.07112009789601614,0.0,0.0,0.0,0.0,-1.081654310275969,-2.5557102907539675,-1.5213430454198684,-0.01736056010510388,-0.002078988986980238,-0.41461158550397764
7113,1.0,299.38773,17079.134,0.0,-0.07113009388343539,0.0,0.0,0.0,0.0,-1.1272826848041388,-2.543210330895318,-1.5211372543245585,-0.006345061900158854,-0.007150835667282533,-0.3998756663846556
7114,1.0,299.05881,17114.975,0.0,-0.0711401228609122,0.0,0.0,0.0,0.0,-1.125234501051999,-2.5462245472927973,-1.5310660920544588,-0.011536327602796888,-0.025068974738115177,-0.39923457291388464
7115,1.0,299.26337,16998.725,0.0,-0.07115011884833156,0.0,0.0,0.0,0.0,-1.114849498127079,-2.533080363020568,-1.5192579793640886,0.019152447310699382,7.108463371950713e-05,-0.3887331272874726
7116,1.0,299.62725,17112.974,0.0,-0.07116011483575069,0.0,0.0,0.0,0.0,-1.1222441973568789,-2.5342033481063977,-1.5454694422259587,0.006732985106243894,0.005468402979889354,-0.4032846146235926
7117,1.0,300.0242,17015.702,0.0,-0.07117011082317015,0.0,0.0,0.0,0.0,-1.091034067776679,-2.5297997631717974,-1.5515147962975884,0.009499000217528331,0.02076722346506538,-0.40202169969895263
7118,1.0,299.39482000000004,16807.651,0.0,-0.0711801068105895,0.0,0.0,0.0,0.0,-1.0865726262613689,-2.5167368415575875,-1.5057966478105587,-0.01063261389160729,0.01879190658061678,-0.4182863497741486
7119,1.0,299.99114,17112.076,0.0,-0.07119010279800875,0.0,0.0,0.0,0.0,-1.139275715637759,-2.5457981716507176,-1.5165698268487884,-0.014541528100887087,0.010667224488523091,-0.4086729469328796
7120,1.0,299.99369,17250.471,0.0,-0.0712000987854281,0.0,0.0,0.0,0.0,-1.150216182267499,-2.5603170323336175,-1.5331791238129984,-0.0037998402678150363,-0.014233905370527086,-0.42557189157067565
7121,1.0,300.45366,17021.273999999998,0.0,-0.07121009477284734,0.0,0.0,0.0,0.0,-1.102550465763259,-2.5578537200155074,-1.5136380890094485,-0.018697063331506482,-0.029522946573687973,-0.4133579316852516
7122,1.0,300.78424,17045.452,0.0,-0.07122012375032405,0.0,0.0,0.0,0.0,-1.090817434905299,-2.5770350510335573,-1.5135393984497088,-0.005416889851430406,-0.016429752086240285,-0.42728189296943964
7123,1.0,299.95844,17116.654,0.0,-0.07123011973774351,0.0,0.0,0.0,0.0,-1.0860998437647091,-2.5707308115613774,-1.5462049604735484,-0.013961575154400186,-0.017494832968605583,-0.4030849131613836
7124,1.0,300.3372,17070.773,0.0,-0.07124011572516264,0.0,0.0,0.0,0.0,-1.0964915341402888,-2.574435253926977,-1.5181618454059085,0.011616728998231888,0.02349890824441168,-0.41968365205955166
7125,1.0,300.38655,17097.166,0.0,-0.07125011171258211,0.0,0.0,0.0,0.0,-1.1218440648923889,-2.5563817715952375,-1.5188856099523385,0.004363140550233446,0.008447039606732902,-0.4177513435888476
7126,1.0,299.55757,17088.793,0.0,-0.07126010770000146,0.0,0.0,0.0,0.0,-1.1152349384651188,-2.556694156601068,-1.5226373710976087,0.020331781261090583,0.005935065344620344,-0.4209416831187096
7127,1.0,299.49886000000004,16879.31,0.0,-0.0712701036874206,0.0,0.0,0.0,0.0,-1.0833961885228791,-2.533177939005198,-1.5143146361012185,-0.00880183206767319,-0.016987071051993385,-0.40297858269588965
7128,1.0,299.2196,16914.868000000002,0.0,-0.07128009967484006,0.0,0.0,0.0,0.0,-1.067935613197039,-2.5405146803292777,-1.5332473155447286,0.01045876753219999,-0.00931653089712001,-0.42972777738582957
7129,1.0,299.37071000000003,17188.288,0.0,-0.07129009566225919,0.0,0.0,0.0,0.0,-1.1219370812515688,-2.5477250693658875,-1.5551482098311786,0.004396842261809545,-0.006832103460176113,-0.40087241064052664
7130,1.0,299.69586,17202.3,0.0,-0.071300124639736,0.0,0.0,0.0,0.0,-1.1450190198545789,-2.5467063477153475,-1.5373441896740587,-0.003672476554095216,-0.0033015027930329574,-0.4088036460632786
7131,1.0,300.3055,17072.75,0.0,-0.07131012062715536,0.0,0.0,0.0,0.0,-1.145341740011429,-2.543486340222558,-1.5008616131985086,0.007493950319495312,0.00898209817706407,-0.40742958773516963
7132,1.0,300.39802000000003,17244.148,0.0,-0.0713201166145746,0.0,0.0,0.0,0.0,-1.137566261394049,-2.5652161978921275,-1.5390078450132485,-0.01094312539800239,0.016266128407091886,-0.40650959717437357
7133,1.0,300.47474,17356.554,0.0,-0.07133011260199396,0.0,0.0,0.0,0.0,-1.140353408444119,-2.571303601842908,-1.5643021138845985,0.0056496949036814745,0.0027755345959739374,-0.39190096253261364
7134,1.0,299.8228,17095.117,0.0,-0.07134010858941342,0.0,0.0,0.0,0.0,-1.085680256898299,-2.5651441558100174,-1.5456643915451986,-0.008193636091873922,-0.015299932628485786,-0.4096100107578606
7135,1.0,299.93868,17033.365,0.0,-0.07135010457683255,0.0,0.0,0.0,0.0,-1.096403077406559,-2.5550518808389873,-1.5262627799554087,-0.0033101108592575065,-0.009937360277816101,-0.39387750950268363
7136,1.0,299.6692,17019.817,0.0,-0.07136010056425202,0.0,0.0,0.0,0.0,-1.110039194602339,-2.5460740796529473,-1.5174861089142184,-0.0064849778574424845,0.00957890542438936,-0.40704137109185556
7137,1.0,299.90887000000004,16975.525,0.0,-0.07137009655167115,0.0,0.0,0.0,0.0,-1.113868672030279,-2.5515262771160376,-1.4947407719944288,0.015050601163128686,0.0038357892667879264,-0.4032611781487796
7138,1.0,299.77342999999996,17073.486,0.0,-0.07138012552914796,0.0,0.0,0.0,0.0,-1.106167971270279,-2.550912146230427,-1.5328332002288585,0.00985013079260722,0.006626731343782463,-0.4342329811729586
7139,1.0,300.14968999999996,17196.93,0.0,-0.07139012151656732,0.0,0.0,0.0,0.0,-1.116937806583179,-2.558653174344408,-1.5518464330553186,0.025841738032880975,0.002657111497161487,-0.4067897709595246
7140,1.0,300.30342,17064.596999999998,0.0,-0.07140011750398656,0.0,0.0,0.0,0.0,-1.073482752194499,-2.5698877874781774,-1.5438407440152184,0.010967666315424389,0.007899440242564053,-0.4319176033694486
7141,1.0,300.34657999999996,17072.066000000003,0.0,-0.07141011349140614,0.0,0.0,0.0,0.0,-1.107231073275199,-2.5513756068261677,-1.5308751957356186,0.0037799619220531965,-0.013227143110917388,-0.4168972345495536
7142,1.0,300.29316,17264.638,0.0,-0.07142010947882527,0.0,0.0,0.0,0.0,-1.144286744007309,-2.5716480055518973,-1.5320841044299285,-0.022890769719893077,-0.003345064947957207,-0.4194740714088676
7143,1.0,300.20225,17142.499,0.0,-0.07143010546624451,0.0,0.0,0.0,0.0,-1.132451172239229,-2.5602723480042076,-1.5181681275565286,-0.01055467976016579,-0.002359372312251918,-0.4090311409757306
7144,1.0,300.03787,16993.014,0.0,-0.07144010145366386,0.0,0.0,0.0,0.0,-1.091345338207399,-2.5643919189357773,-1.5097145819722286,-0.03229483407725196,0.005635895450569575,-0.42476152453819865
7145,1.0,300.02627,17107.613,0.0,-0.0714500974410831,0.0,0.0,0.0,0.0,-1.091819843229229,-2.5607072349471274,-1.5477601980520386,-0.02185180333235508,-0.016130773392483384,-0.3947916232128996
7146,1.0,299.57718,17226.763,0.0,-0.07146012641855992,0.0,0.0,0.0,0.0,-1.101939475952959,-2.565425332712768,-1.5691409910621585,-0.005040262053485136,-0.012293578038531688,-0.39012967976780166
7147,1.0,299.6961,17151.933,0.0,-0.07147012240597928,0.0,0.0,0.0,0.0,-1.1131354842579189,-2.566836587452048,-1.5337872765230185,0.028073170092106175,-0.0029638491535591374,-0.39411698103131765
7148,1.0,300.42217,17254.006999999998,0.0,-0.07148011839339863,0.0,0.0,0.0,0.0,-1.1542028147859489,-2.555347547218168,-1.5352370347660986,0.02224426448033798,0.008795542925627502,-0.3973366946815786
7149,1.0,300.61492000000004,17352.867,0.0,-0.07149011438081809,0.0,0.0,0.0,0.0,-1.148218154395309,-2.5815079422749974,-1.5451121702406985,-0.005954582872021574,-0.0036974541823103168,-0.4160724185706506
7150,1.0,301.13701000000003,17246.577,0.0,-0.07150011036823722,0.0,0.0,0.0,0.0,-1.1275910168095689,-2.5726524403760274,-1.5422852024616986,-0.013328614028931788,0.016318630974273482,-0.4213545318719546
7151,1.0,301.19079,17209.227,0.0,-0.07151010635565647,0.0,0.0,0.0,0.0,-1.109115414486169,-2.5652371721691973,-1.5568225042964186,-0.008547872379834322,0.012834836990199789,-0.41706309345842263
7152,1.0,300.03125,17145.131,0.0,-0.07152010234307582,0.0,0.0,0.0,0.0,-1.100800785490579,-2.5618143120063874,-1.5490766125819586,0.00863137057154995,0.0022196935568166982,-0.4119316301819866
7153,1.0,299.92122,17053.646,0.0,-0.07153009833049506,0.0,0.0,0.0,0.0,-1.1086743467176388,-2.5551657701502273,-1.5200426402415286,-0.00952542365231112,-0.01905404350073768,-0.4211446877762446
7154,1.0,299.99332000000004,17057.168,0.0,-0.07154012730797188,0.0,0.0,0.0,0.0,-1.1157285939138388,-2.5557472743826177,-1.5134772862185786,0.0038622187810713163,-0.008621022349603663,-0.4138993821411886
7155,1.0,299.9813,17137.038,0.0,-0.07155012329539123,0.0,0.0,0.0,0.0,-1.124884423142449,-2.5710837265712074,-1.5132634904474784,0.0014508675492894787,-0.006754007816668674,-0.4150337358931406
7156,1.0,300.10354,17066.884,0.0,-0.07156011928281059,0.0,0.0,0.0,0.0,-1.0962969901210888,-2.5659379359383574,-1.5256716498470686,0.0031207326930423373,0.018261002031720583,-0.4208329816479816
7157,1.0,299.54927000000004,17040.292,0.0,-0.07157011527022994,0.0,0.0,0.0,0.0,-1.0792410525127991,-2.5760012319565275,-1.5245808861144186,-0.009214615364961732,0.0013580440116035086,-0.4162334645415446
7158,1.0,299.78745,17216.947,0.0,-0.07158011125764918,0.0,0.0,0.0,0.0,-1.0937746053221489,-2.581659017864908,-1.5580884589713586,-0.009285792739436392,0.014080961347432686,-0.4084836211516946
7159,1.0,300.3025,17280.138,0.0,-0.07159010724506842,0.0,0.0,0.0,0.0,-1.1435899319135387,-2.5671867666866075,-1.5419537683539886,-0.0026192894040537374,0.0027690641834853575,-0.4180376374046026
7160,1.0,300.84803999999997,17226.718999999997,0.0,-0.07160010323248778,0.0,0.0,0.0,0.0,-1.125940229746649,-2.5759480363262774,-1.5346042600786485,0.006543871904929874,0.0014957518942692186,-0.4259756413380226
7161,1.0,300.76415,17306.749,0.0,-0.07161009921990713,0.0,0.0,0.0,0.0,-1.152526696470529,-2.5670265718457976,-1.5412663794861485,0.005744566219819545,-0.016569337420016286,-0.42210392151341364
7162,1.0,300.35312999999996,17375.734,0.0,-0.0716200952073266,0.0,0.0,0.0,0.0,-1.1438060581598688,-2.570692004082548,-1.5672911003545884,0.005650839369669425,0.001150019611748099,-0.4040403776081806
7163,1.0,300.4573,17196.625,0.0,-0.07163012418480319,0.0,0.0,0.0,0.0,-1.1181279701506388,-2.5572391838298576,-1.5519773449682384,0.007550165536368322,-0.0026220224435484674,-0.41274119674688464
7164,1.0,300.87205,17234.964,0.0,-0.07164012017222254,0.0,0.0,0.0,0.0,-1.1189152654783387,-2.5637268215701376,-1.5563567132254486,0.0028410619865659875,-0.0025653584582061677,-0.39001484813396864
7165,1.0,299.50935,17317.477,0.0,-0.0716501161596419,0.0,0.0,0.0,0.0,-1.149227858119959,-2.5796451832911576,-1.5352075491881885,-0.013311267187219788,-0.01043152123701099,-0.4035892786636606
7166,1.0,299.91182000000003,17255.863999999998,0.0,-0.07166011214706114,0.0,0.0,0.0,0.0,-1.126547571856589,-2.577635401717808,-1.5411687021765088,-0.007532561531780942,-0.0059489606511917035,-0.3992745557628306
7167,1.0,299.94827999999995,17266.525,0.0,-0.07167010813448027,0.0,0.0,0.0,0.0,-1.115431914284559,-2.5932780580866175,-1.5398823811745586,-0.017417815828504584,-0.005259603950332495,-0.41990321322372054
7168,1.0,299.70709,17247.389,0.0,-0.07168010412189973,0.0,0.0,0.0,0.0,-1.1121455389102188,-2.5782150821000176,-1.5524150690114384,0.0005840581697970535,-0.0009125808148022142,-0.4071908356141066
7169,1.0,299.7211,17163.494,0.0,-0.07169010010931909,0.0,0.0,0.0,0.0,-1.095350411877669,-2.580152416291218,-1.5417708767109384,0.01922347918245968,0.002312771825577808,-0.4338079531535116
7170,1.0,299.90107,17165.147,0.0,-0.07170009609673844,0.0,0.0,0.0,0.0,-1.1084289375434189,-2.575848433841448,-1.5334986015695287,0.03191326942084447,0.020850098203994482,-0.4177265290938986
7171,1.0,299.59873,17322.836,0.0,-0.07171012507421526,0.0,0.0,0.0,0.0,-1.149560102827749,-2.5817587216747473,-1.5343906669575684,0.02552212551408768,0.0010256614004748989,-0.43814992234953054
7172,1.0,300.29397,17250.56,0.0,-0.0717201210616345,0.0,0.0,0.0,0.0,-1.132146487934159,-2.5731306944232273,-1.5384624124844184,0.008655885752419414,-0.015124476214669587,-0.4314662105823996
7173,1.0,300.61645,17035.786,0.0,-0.07173011704905385,0.0,0.0,0.0,0.0,-1.0864755569017888,-2.5631185675351076,-1.5288595373116884,0.0005796018249297465,-0.016186527479235883,-0.4304075466129176
7174,1.0,300.17174,17134.735,0.0,-0.0717401130364731,0.0,0.0,0.0,0.0,-1.091410388863819,-2.561913103891137,-1.5552080929120884,-0.011750060552390688,-0.0031792110040136973,-0.41890655002785754
7175,1.0,300.68282999999997,17249.986,0.0,-0.07175010902389223,0.0,0.0,0.0,0.0,-1.0986992034581688,-2.5702539760643175,-1.5746117310020786,-0.013311838660276187,0.004432497114278405,-0.41119240343903063
7176,1.0,300.50692999999995,17163.749,0.0,-0.07176010501131158,0.0,0.0,0.0,0.0,-1.103167535074159,-2.5759320269746975,-1.5382515551386087,-0.04019345905878556,0.006015892710397384,-0.4077531286246006
7177,1.0,300.00237999999996,17256.45,0.0,-0.07177010099873105,0.0,0.0,0.0,0.0,-1.139628833297609,-2.5704678731604274,-1.5354331999854585,-0.02017884737049718,0.01106972694499699,-0.4107560979459706
7178,1.0,300.15951,17446.269,0.0,-0.0717800969861504,0.0,0.0,0.0,0.0,-1.146314358782419,-2.6040795068026372,-1.5528363784030186,-0.00022440727595227376,0.016280804321540287,-0.40856791342751364
7179,1.0,299.18272,17280.865,0.0,-0.07179012596362722,0.0,0.0,0.0,0.0,-1.114627596355179,-2.5932196948808577,-1.5451042668899186,-0.003156365051358977,0.00036198018357216265,-0.4142626930970446
7180,1.0,299.06493,17324.652,0.0,-0.07180012195104635,0.0,0.0,0.0,0.0,-1.116868196301309,-2.5855709738509876,-1.5638225426122685,0.01044629847646939,-0.014833880138989985,-0.3920423311865656
7181,1.0,299.76899,17427.225,0.0,-0.07181011793846581,0.0,0.0,0.0,0.0,-1.1357003613348988,-2.5791401794413176,-1.5826006000905184,0.006502800926701484,-0.01841132984305678,-0.39209872868713164
7182,1.0,299.80975,17195.904,0.0,-0.07182011392588494,0.0,0.0,0.0,0.0,-1.136164733855729,-2.5593328625114875,-1.5316278379098984,0.012550361958374289,0.004361459264342516,-0.3997794380226586
7183,1.0,299.35798,17267.224,0.0,-0.07183010991330419,0.0,0.0,0.0,0.0,-1.137793736041499,-2.5736167504961975,-1.5373945482040285,-0.0035922987829572865,-0.0015737562439426486,-0.42620185955534856
7184,1.0,299.73657000000003,17443.789,0.0,-0.07184010590072376,0.0,0.0,0.0,0.0,-1.145026112605279,-2.5876083158270577,-1.5698418561563285,-0.005203418421687415,-0.004958313323822425,-0.4286961975915206
7185,1.0,299.29458999999997,17231.948,0.0,-0.071850101888143,0.0,0.0,0.0,0.0,-1.1114594672675089,-2.5807707015022374,-1.5458516401636786,-0.01775623933540438,0.01733002074708988,-0.42825534260551157
7186,1.0,300.39017,17125.68,0.0,-0.07186009787556236,0.0,0.0,0.0,0.0,-1.084010015433459,-2.5805946999598675,-1.5411743763770687,0.0011320266204473289,0.0005968007523921485,-0.4227620274533636
7187,1.0,300.18951,17209.731,0.0,-0.07187012685303917,0.0,0.0,0.0,0.0,-1.097089858324339,-2.5918613317967973,-1.5423772055707787,-0.01055586931578319,0.0007412715323203042,-0.42019012512203663
7188,1.0,299.80107999999996,17198.328,0.0,-0.0718801228404583,0.0,0.0,0.0,0.0,-1.111368781383559,-2.5862647461944577,-1.5302287421718184,-0.01128530198327259,-0.012342940543653388,-0.4187155929140116
7189,1.0,299.99132000000003,17269.998,0.0,-0.07189011882787777,0.0,0.0,0.0,0.0,-1.130652248011689,-2.5920986349702178,-1.5268973784930384,-0.004521933762180116,0.010277839567843792,-0.42919506114575456
7190,1.0,300.96621,17336.103,0.0,-0.0719001148152969,0.0,0.0,0.0,0.0,-1.1276580939661889,-2.589903529953577,-1.5521808055883186,0.011181610021038988,0.012291800797856288,-0.4291194726882946
7191,1.0,300.03574,17167.213,0.0,-0.07191011080271625,0.0,0.0,0.0,0.0,-1.1123200205774388,-2.5777618553302872,-1.5283221094586485,0.005825453164702464,-0.002182472624993278,-0.4298833315411816
7192,1.0,299.61096000000003,17175.327,0.0,-0.07192010679013572,0.0,0.0,0.0,0.0,-1.099451035032369,-2.576317771287768,-1.5451019364146885,0.015969821653848686,-0.005400308520168954,-0.41902318524686855
7193,1.0,298.9361,17417.582,0.0,-0.07193010277755485,0.0,0.0,0.0,0.0,-1.1568918792263387,-2.5672582008186575,-1.5703600322574685,0.015668773903387587,0.008451402459013482,-0.4106583193113206
7194,1.0,299.28504,17552.698,0.0,-0.07194009876497431,0.0,0.0,0.0,0.0,-1.170748580968889,-2.5886481130796772,-1.5761851057573586,0.018064426446070085,0.015065690483617887,-0.4006999048110016
7195,1.0,299.78862000000004,17260.603,0.0,-0.07195012774245102,0.0,0.0,0.0,0.0,-1.129124469510909,-2.574573258590598,-1.5430946879665886,-0.01169563483651929,-0.003291893129084557,-0.4250231659790206
7196,1.0,300.11535,17263.982,0.0,-0.07196012372987026,0.0,0.0,0.0,0.0,-1.113018352546359,-2.5842779653983774,-1.5505230270997086,-0.008868469372424782,-0.006073530530410795,-0.42000142755591363
7197,1.0,299.64058,17524.032,0.0,-0.07197011971728962,0.0,0.0,0.0,0.0,-1.1520447947229688,-2.6016981664176178,-1.5731251917803686,-0.02196244517702458,-0.01069064576458459,-0.40825005687114363
7198,1.0,299.96047000000004,17521.201,0.0,-0.07198011570470886,0.0,0.0,0.0,0.0,-1.1322357552679687,-2.599666599967118,-1.5941051430509285,-0.002953733371185787,-0.007406390920053873,-0.3952664423422606
7199,1.0,300.27246,17274.848,0.0,-0.07199011169212821,0.0,0.0,0.0,0.0,-1.115763652367299,-2.5911031167469676,-1.5442557712561786,-0.013078212571469088,-0.015926269124800385,-0.4102327238718176
7200,1.0,300.42512,17230.261000000002,0.0,-0.07200010767954768,0.0,0.0,0.0,0.0,-1.120615397821129,-2.5782624008796873,-1.5386912043569987,0.004178979811433197,-0.008524651018017552,-0.4072363812061016
7201,1.0,300.16432000000003,17275.944,0.0,-0.07201010366696681,0.0,0.0,0.0,0.0,-1.1226592245978388,-2.584493179719618,-1.5443031913608587,0.005467308264481314,0.017775749466079883,-0.4322834778480576
7202,1.0,300.29922999999997,17353.397,0.0,-0.07202009965438616,0.0,0.0,0.0,0.0,-1.128914625415199,-2.5935733191657575,-1.5525114290959485,0.028588098726675677,0.024629580858750378,-0.4346169320333516
7203,1.0,300.29275,17381.814,0.0,-0.0720300956418054,0.0,0.0,0.0,0.0,-1.134074601549449,-2.5964564210002976,-1.5531065108796787,0.02007383007713278,0.013761364027390886,-0.43480483926439656
7204,1.0,299.83824,17170.703999999998,0.0,-0.07204012461928222,0.0,0.0,0.0,0.0,-1.098227434211609,-2.570652082028608,-1.5505856459558884,0.02272133809117148,-0.011264822172251387,-0.4241324178161106
7205,1.0,299.89421,17138.877,0.0,-0.07205012060670157,0.0,0.0,0.0,0.0,-1.1050433649842888,-2.5751524323477577,-1.5295950555592785,-0.0033874115067364864,-0.008274073862987513,-0.42430721359086154
7206,1.0,299.32944,17401.109,0.0,-0.07206011659412082,0.0,0.0,0.0,0.0,-1.144235068252209,-2.5864408490618374,-1.5588266116692084,-0.0039743697604397565,-0.018770197697224284,-0.4236406470125766
7207,1.0,299.12117,17519.466,0.0,-0.07207011258154017,0.0,0.0,0.0,0.0,-1.1535190736184688,-2.6077983373196574,-1.5641628933208587,-0.015604900643583787,-0.006995436437870823,-0.4299026744855906
7208,1.0,298.87687999999997,17303.412,0.0,-0.07208010856895952,0.0,0.0,0.0,0.0,-1.116687533808479,-2.5976501309431077,-1.5454676183757787,-0.013947358242247087,0.0024779963385591977,-0.43118162915931363
7209,1.0,299.3717,17256.447,0.0,-0.07209010455637876,0.0,0.0,0.0,0.0,-1.102481970056499,-2.5916850262793973,-1.5513619981825086,-0.006006054862526464,0.017456750976847183,-0.41405636497918163
7210,1.0,299.58328,17449.455,0.0,-0.07210010054379812,0.0,0.0,0.0,0.0,-1.127486044099209,-2.5991117442123577,-1.5776008187970785,-0.004098258026316576,0.014932216061194985,-0.4086770303307826
7211,1.0,299.94425,17450.759,0.0,-0.07211009653121736,0.0,0.0,0.0,0.0,-1.149384101285379,-2.5977740514303376,-1.5574369391570586,-0.005901924365649585,-0.0029170870534940773,-0.39659621150849866
7212,1.0,299.56361,17285.315,0.0,-0.07212012550869418,0.0,0.0,0.0,0.0,-1.120533628538059,-2.5874651435879272,-1.5463052722334485,-0.0007210755934471203,-0.02084772618551038,-0.4098047371620786
7213,1.0,299.67731000000003,17268.137,0.0,-0.07213012149611353,0.0,0.0,0.0,0.0,-1.116477284412729,-2.5866769363351376,-1.5459282418712386,0.005426802071858665,-0.0019032400478601681,-0.40230114394403166
7214,1.0,299.73877999999996,17318.68,0.0,-0.07214011748353288,0.0,0.0,0.0,0.0,-1.116071477747679,-2.5839165390877077,-1.5644582557250086,0.001942419794776908,-0.004533354205382225,-0.4244940670418026
7215,1.0,299.63816,17453.903000000002,0.0,-0.07215011347095213,0.0,0.0,0.0,0.0,-1.124819879111079,-2.6128391552421477,-1.5678915523638486,0.012903142205940988,-0.007685123458262633,-0.4252895899603146
7216,1.0,300.34234,17591.037,0.0,-0.07216010945837148,0.0,0.0,0.0,0.0,-1.1469863462487389,-2.6029500369161678,-1.5972995153161884,0.008718389908688092,0.0031756489232871474,-0.4234430632430766
7217,1.0,300.03738,17463.105,0.0,-0.07217010544579072,0.0,0.0,0.0,0.0,-1.161805534261279,-2.5972680343303978,-1.5492741963514587,0.011029408710267889,0.014284394609759986,-0.4132230073019356
7218,1.0,300.00855,17356.607,0.0,-0.07218010143321008,0.0,0.0,0.0,0.0,-1.1268880238901888,-2.6085642530702478,-1.5405230592127883,-0.0003595748798222777,-0.009815120569851982,-0.4407840281044966
7219,1.0,300.2536,17443.542,0.0,-0.07219009742062932,0.0,0.0,0.0,0.0,-1.148522737375369,-2.6048797717316177,-1.5489988962992884,-0.015031791188272284,-0.0066831658279771135,-0.4151988551294366
7220,1.0,299.40321,17406.341,0.0,-0.07220012639810602,0.0,0.0,0.0,0.0,-1.1200119060615688,-2.617306270958018,-1.5537748506456384,-0.013792145552178788,-0.013547041366238884,-0.41869267319674963
7221,1.0,299.5493,17295.384,0.0,-0.07221012238552549,0.0,0.0,0.0,0.0,-1.1018423052683688,-2.6041518528597773,-1.5513706108083587,0.004639996042631956,0.014365660307530287,-0.4083119765847546
7222,1.0,300.44405,17258.227,0.0,-0.07222011837294484,0.0,0.0,0.0,0.0,-1.106851104487699,-2.6065492025963772,-1.5326698643127386,0.010734701878932591,0.016717401630629083,-0.4210579637001856
7223,1.0,299.46841,17377.278000000002,0.0,-0.07223011436036408,0.0,0.0,0.0,0.0,-1.137934780455419,-2.6102862716151978,-1.5340374479727086,0.005752935564320535,0.010752134846903091,-0.4119264018114706
7224,1.0,298.93694,17441.856,0.0,-0.07224011034778344,0.0,0.0,0.0,0.0,-1.1404427771029388,-2.5976380732669178,-1.5638076478357985,0.025845673496269372,0.0004819248091322755,-0.4233002355089806
7225,1.0,299.03695,17491.136000000002,0.0,-0.07225010633520257,0.0,0.0,0.0,0.0,-1.1417542267073688,-2.613947144226498,-1.5611671180751985,0.017514308648777684,0.0030989610894686472,-0.4196400316427466
7226,1.0,298.99048,17447.845,0.0,-0.07226010232262203,0.0,0.0,0.0,0.0,-1.123665584597159,-2.5977680732547475,-1.5822755494584384,0.02096296311938338,-0.012560009112576386,-0.42032490765033864
7227,1.0,299.92933999999997,17465.586,0.0,-0.07227009831004139,0.0,0.0,0.0,0.0,-1.139950641529369,-2.5968842151925178,-1.5722672729206986,-0.009718576175148793,-0.02208585498620418,-0.42236017246370355
7228,1.0,299.67085,17406.968999999997,0.0,-0.07228012728751798,0.0,0.0,0.0,0.0,-1.1404735799059789,-2.6041079791304473,-1.5467021622976185,-0.01983685519674518,-0.013745307053056186,-0.41920613768492465
7229,1.0,299.28977000000003,17435.729,0.0,-0.07229012327493733,0.0,0.0,0.0,0.0,-1.1663356741333688,-2.5841595164616873,-1.5495309539267985,-0.025647792844490074,-0.007537584009876623,-0.39701224186705764
7230,1.0,299.88921,17527.796000000002,0.0,-0.0723001192623568,0.0,0.0,0.0,0.0,-1.150868816656909,-2.616542381707627,-1.5606012178943485,-0.023339723613951376,0.0008943426068447432,-0.41339877579678264
7231,1.0,300.06097,17228.922,0.0,-0.07231011524977593,0.0,0.0,0.0,0.0,-1.110279638851069,-2.5932250651063873,-1.5336574791852087,-0.016157427949613983,0.0026828042772971674,-0.41160483675973464
7232,1.0,300.2618,17314.658,0.0,-0.0723201112371954,0.0,0.0,0.0,0.0,-1.0891198356877592,-2.597102469264058,-1.5770012787129086,0.016095958119047384,0.0038145695805437067,-0.4067566072837516
7233,1.0,300.20493,17593.014,0.0,-0.07233010722461453,0.0,0.0,0.0,0.0,-1.1368619512495388,-2.6230448128993675,-1.5879302956165184,0.04026093036969446,0.013295019721866289,-0.4034085756408266
7234,1.0,299.52817999999996,17565.095,0.0,-0.07234010321203399,0.0,0.0,0.0,0.0,-1.137869020523929,-2.621520479448927,-1.5799605769549685,0.026262280394135272,-0.0015293883525388785,-0.4270097947875856
7235,1.0,299.58126,17433.38,0.0,-0.07235009919945334,0.0,0.0,0.0,0.0,-1.146055878681909,-2.6096888593562375,-1.5435674704632487,0.006650902526242973,-0.01259050996708659,-0.4225055434555506
7236,1.0,299.7208,17351.177,0.0,-0.07236012817693016,0.0,0.0,0.0,0.0,-1.127486753374279,-2.6064358199101876,-1.5404020771508484,-0.014193627665801985,0.005279564977302495,-0.4334898432846166
7237,1.0,298.87203,17324.304,0.0,-0.07237012416434951,0.0,0.0,0.0,0.0,-1.1238447272148389,-2.5910564059173575,-1.5512547963219285,-0.009756111721128261,0.0008614105397796012,-0.42722586023890957
7238,1.0,298.95448,17457.986,0.0,-0.07238012015176876,0.0,0.0,0.0,0.0,-1.1236561613712288,-2.6017006995428678,-1.5814347545254586,-0.009398188013403941,-0.008009169047568442,-0.4351567106266236
7239,1.0,298.97919,17484.388,0.0,-0.07239011613918789,0.0,0.0,0.0,0.0,-1.1412209531797388,-2.5972151426751773,-1.5763813723017286,-0.007537632240581384,-0.008490254622172892,-0.4214671748855716
7240,1.0,299.32232999999997,17308.067,0.0,-0.07240011212660724,0.0,0.0,0.0,0.0,-1.127435178944189,-2.5883146524717677,-1.5454701515010287,-0.003575614809460707,0.008114924594955702,-0.4160890054747876
7241,1.0,299.79934,17352.076,0.0,-0.07241010811402648,0.0,0.0,0.0,0.0,-1.1455612099830887,-2.6017579481735176,-1.5272788671556885,0.0006537760588276734,0.015361765202588187,-0.4195952966508316
7242,1.0,299.79316,17573.216,0.0,-0.07242010410144584,0.0,0.0,0.0,0.0,-1.1607954252365889,-2.6117909480136974,-1.5692324875461885,-0.009077923062871252,0.014520443379556186,-0.4288705576687286
7243,1.0,299.67287999999996,17622.856,0.0,-0.0724301000888653,0.0,0.0,0.0,0.0,-1.154862237951029,-2.624982653715618,-1.5770632896190284,-0.004881509776842505,-0.0013776452334629985,-0.43081430573306156
7244,1.0,299.92819,17384.301,0.0,-0.07244009607628443,0.0,0.0,0.0,0.0,-1.095732305840359,-2.6078869967034075,-1.5807739128102385,-0.0029844466029169472,0.0028761941033082572,-0.41415441719135865
7245,1.0,300.28059,17379.29,0.0,-0.07245012505376147,0.0,0.0,0.0,0.0,-1.128589169483079,-2.5873819557547177,-1.5668989725658884,0.025652006951655978,-0.0024712494101183273,-0.4115327946776246
7246,1.0,300.43023999999997,17518.078999999998,0.0,-0.0724601210411806,0.0,0.0,0.0,0.0,-1.149450773141959,-2.5989902555253677,-1.5766175609000384,-0.0049054899616591645,-0.020760769061928377,-0.4186554767855786
7247,1.0,300.18344,17499.891,0.0,-0.07247011702859985,0.0,0.0,0.0,0.0,-1.1603575998683788,-2.6072751962930276,-1.5518969942353087,0.011550546541450189,-0.01981759432559428,-0.4235057428942626
7248,1.0,299.6797,17484.057,0.0,-0.0724801130160192,0.0,0.0,0.0,0.0,-1.1513400792784187,-2.6092127331342474,-1.5541638373590285,-0.014784327142849487,0.008709784578238811,-0.4361220643943966
7249,1.0,299.75009,17516.265,0.0,-0.07249010900343844,0.0,0.0,0.0,0.0,-1.149843103580679,-2.6098029513174974,-1.5648612252897787,0.02296065357929008,0.02364571298515018,-0.42556193132219255
7250,1.0,299.60643999999996,17433.846,0.0,-0.07250010499085802,0.0,0.0,0.0,0.0,-1.1106035749080387,-2.617562217933277,-1.5712879666990485,-0.016038509878127685,0.003705836395087577,-0.43675214383658056
7251,1.0,299.52726,17508.973,0.0,-0.07251010097827715,0.0,0.0,0.0,0.0,-1.1245499492844389,-2.6302963398900374,-1.5674444050947185,-0.005492255292543395,-0.013490735058181888,-0.4158885846050076
7252,1.0,299.47648,17605.603,0.0,-0.07252009696569639,0.0,0.0,0.0,0.0,-1.1364095350798888,-2.6321323490712376,-1.5831218159419587,-0.01914851286056108,-0.0026353088881347375,-0.41664842085499754
7253,1.0,299.28042999999997,17478.077,0.0,-0.07253012594317332,0.0,0.0,0.0,0.0,-1.1289067220644189,-2.6233244699269673,-1.5606675857758985,0.004907971917779115,0.012798539331867488,-0.4126305802334676
7254,1.0,300.11714,17451.956000000002,0.0,-0.07254012193059256,0.0,0.0,0.0,0.0,-1.1316907280391788,-2.6230815938779974,-1.5501865267414985,-0.0028847800806806275,0.007842212180891083,-0.43487026482335356
7255,1.0,300.20702,17625.41,0.0,-0.0725501179180118,0.0,0.0,0.0,0.0,-1.1373997844026187,-2.6349838375026575,-1.5853007089569986,0.017131652722012482,-0.008086920591341923,-0.4153445199638126
7256,1.0,300.29893,17555.817,0.0,-0.07256011390543116,0.0,0.0,0.0,0.0,-1.1261145087638489,-2.632461047403677,-1.5779544430819785,0.02336748464019118,0.007469871241468893,-0.4175885345627796
7257,1.0,300.24102999999997,17457.143,0.0,-0.07257010989285051,0.0,0.0,0.0,0.0,-1.122441477151349,-2.6075550559706473,-1.5765391353422984,0.02003321192037408,-0.00912058920073207,-0.3964809644421246
7258,1.0,299.66512,17522.088,0.0,-0.07258010588026997,0.0,0.0,0.0,0.0,-1.144479970801379,-2.6106643152275075,-1.5711328381087384,0.007011255197107013,-0.017891377514491484,-0.4147101950037096
7259,1.0,300.10202999999996,17573.072,0.0,-0.0725901018676891,0.0,0.0,0.0,0.0,-1.1581133522218887,-2.6159438548735574,-1.5677178812967085,-0.03213966191718767,-0.013115034080103088,-0.4126709481174516
7260,1.0,300.09648,17509.846,0.0,-0.07260009785510835,0.0,0.0,0.0,0.0,-1.151286377023119,-2.6083693037510076,-1.5629002823712486,-0.028418342857922076,0.0007461997477591813,-0.42964404239756554
7261,1.0,299.99887,17655.74,0.0,-0.07261012683258528,0.0,0.0,0.0,0.0,-1.1565269065403188,-2.6309129025758873,-1.5794643883809985,-0.02191068734866648,0.01090172501216649,-0.4280472716974766
7262,1.0,299.44969,17723.21,0.0,-0.07262012282000452,0.0,0.0,0.0,0.0,-1.154150429755779,-2.6338251860133077,-1.5994375743521985,-0.016453572582841185,0.017931756544226584,-0.4235429190404316
7263,1.0,298.98803,17507.395,0.0,-0.07263011880742365,0.0,0.0,0.0,0.0,-1.1312545238711291,-2.6158875181679972,-1.5746689796327287,0.01184928914793379,0.004799064554630795,-0.4086321433513526
7264,1.0,299.79806,17517.4,0.0,-0.07264011479484311,0.0,0.0,0.0,0.0,-1.121758141283909,-2.632372489344937,-1.5707214585681384,0.024940902965225477,0.0077318889020530236,-0.4101609249697316
7265,1.0,300.45488,17627.539,0.0,-0.07265011078226247,0.0,0.0,0.0,0.0,-1.147806470879679,-2.6229055923356275,-1.5876196331358585,0.025643950600110873,0.010692729006790188,-0.3900786322277636
7266,1.0,299.84847,17543.174,0.0,-0.07266010676968182,0.0,0.0,0.0,0.0,-1.1409411948271289,-2.6258562779518373,-1.5658893701662484,0.012959901436792688,-0.0025487894885959377,-0.4322020936000256
7267,1.0,300.45082,17465.33,0.0,-0.07267010275710106,0.0,0.0,0.0,0.0,-1.123181656349399,-2.6138260608395476,-1.5720163921959385,-0.006819960164352663,-0.015231335596715787,-0.4319858862936876
7268,1.0,300.46586,17492.586,0.0,-0.0726800987445203,0.0,0.0,0.0,0.0,-1.1305225519988888,-2.6129596306790375,-1.5738270701246384,-0.005725381747726184,-0.006232920445341354,-0.4319695830995786
7269,1.0,300.20512,17559.363,0.0,-0.07269012772199723,0.0,0.0,0.0,0.0,-1.130062637778499,-2.6266453971297175,-1.5808997584726587,-0.015454319519722587,-0.0056496460650266546,-0.4193934470984106
7270,1.0,300.11262,17663.74,0.0,-0.07270012370941648,0.0,0.0,0.0,0.0,-1.150716018541829,-2.6311356149478677,-1.5874842629224986,-0.007605501556129562,0.0057334577563232245,-0.4388940836204736
7271,1.0,299.60719,17650.789,0.0,-0.0727101196968356,0.0,0.0,0.0,0.0,-1.1640310367809188,-2.6202516876737074,-1.5811162900190285,-0.014178500855059088,-0.010121930369656749,-0.43450755168505656
7272,1.0,299.67316,17543.96,0.0,-0.07272011568425518,0.0,0.0,0.0,0.0,-1.1484232362155489,-2.6255514923217573,-1.5589509374564787,0.005985421240140084,0.007614309333948821,-0.4242459423573146
7273,1.0,300.60138,17557.106,0.0,-0.07273011167167442,0.0,0.0,0.0,0.0,-1.1417361908555888,-2.6190507836551875,-1.5761347472273886,0.003993809368908296,0.01129007135149329,-0.4352091057892946
7274,1.0,299.66621000000004,17731.711,0.0,-0.07274010765909378,0.0,0.0,0.0,0.0,-1.164304715632929,-2.644520547443858,-1.5811721200995386,-0.010706455505894889,0.01112808305800629,-0.4252784239442126
7275,1.0,299.45824,17639.307,0.0,-0.07275010364651302,0.0,0.0,0.0,0.0,-1.150798598424979,-2.627751866238918,-1.5833584098403086,-0.00088857971650349,-0.010637763228615489,-0.41694696486446164
7276,1.0,300.00621,17463.846999999998,0.0,-0.07276009963393215,0.0,0.0,0.0,0.0,-1.119832054168819,-2.6183170892577774,-1.5704242723138087,-0.004880102068478575,-0.01132652910334139,-0.39834027837562463
7277,1.0,300.22001,17570.995,0.0,-0.07277012861140919,0.0,0.0,0.0,0.0,-1.140535793462119,-2.6267329419383576,-1.5738749968543684,0.015620244289848087,0.0049832282318563355,-0.4137234616588266
7278,1.0,299.73147,17794.455,0.0,-0.07278012459882832,0.0,0.0,0.0,0.0,-1.1684846762704588,-2.6324602368035976,-1.6081251807095984,-0.0004216929270078516,-0.017697871063393884,-0.4138644250127386
7279,1.0,300.30276000000003,17792.088,0.0,-0.07279012058624779,0.0,0.0,0.0,0.0,-1.167191566492839,-2.6450647640725675,-1.5960942543222383,0.022274860580357582,-0.015492419749982785,-0.43744273457473654
7280,1.0,299.99502,17599.881,0.0,-0.07280011657366714,0.0,0.0,0.0,0.0,-1.154607506875889,-2.6222123266172077,-1.5731046228033383,0.015498548899837684,0.0011897825854223988,-0.43690408068907555
7281,1.0,300.44455,17567.575,0.0,-0.07281011256108638,0.0,0.0,0.0,0.0,-1.143248669279859,-2.6227653585217876,-1.5740901098505984,0.03145921482578277,0.02261341378327018,-0.4331354489296406
7282,1.0,300.20051,17519.295,0.0,-0.07282010854850574,0.0,0.0,0.0,0.0,-1.142924530572869,-2.6252386006908774,-1.5572651932651085,-0.012999572204707885,0.014702745311047987,-0.4341899383087106
7283,1.0,299.96727999999996,17429.886000000002,0.0,-0.07283010453592498,0.0,0.0,0.0,0.0,-1.1243532774400289,-2.614571204963087,-1.5593257386684685,-0.017105822950463284,-0.0030278391397744573,-0.4377764383626706
7284,1.0,299.60978,17497.568,0.0,-0.07284010052334411,0.0,0.0,0.0,0.0,-1.126015514229079,-2.6224493258155976,-1.5703589176823587,-0.017304009603772784,0.003942172117312096,-0.41823872701944864
7285,1.0,299.12455,17532.373,0.0,-0.07285009651076368,0.0,0.0,0.0,0.0,-1.125992614776819,-2.6370520836067777,-1.5663588089375784,0.0027897766367295175,0.01176602025471579,-0.43861209611764357
7286,1.0,299.23485,17598.492,0.0,-0.07286012548824028,0.0,0.0,0.0,0.0,-1.141842176816049,-2.639517827725127,-1.5681420277885685,0.003997068285204926,-0.0014423360847724885,-0.42797905970074457
7287,1.0,299.7623,17736.788,0.0,-0.07287012147565974,0.0,0.0,0.0,0.0,-1.141463322603659,-2.659974333994027,-1.5901030078059484,0.013899169080741186,-0.011838159608835387,-0.42529463594581257
7288,1.0,300.26596,17748.168999999998,0.0,-0.0728801174630791,0.0,0.0,0.0,0.0,-1.161551917761249,-2.6372328474246176,-1.5962153377091886,0.022546414646907875,0.002166505728592468,-0.38802095432218664
7289,1.0,300.05135,17672.619,0.0,-0.07289011345049823,0.0,0.0,0.0,0.0,-1.133514375569159,-2.649128504923627,-1.5893919088857684,0.021987287029726278,0.01239341762388509,-0.42095992162050955
7290,1.0,299.9424,17677.634,0.0,-0.07290010943791769,0.0,0.0,0.0,0.0,-1.1473182869814988,-2.6339142506970976,-1.5923269904504385,-0.0007508447496626072,-0.014850346466365086,-0.42269794951703965
7291,1.0,299.91194,17675.738,0.0,-0.07291010542533705,0.0,0.0,0.0,0.0,-1.159415581250409,-2.6224025136609774,-1.5911647925857384,-0.013293497820216089,-0.015511773840142884,-0.44826073979739056
7292,1.0,299.82853,17622.755,0.0,-0.07292010141275629,0.0,0.0,0.0,0.0,-1.1644267109449689,-2.6196079698851773,-1.5728430016275186,-0.015243951573710885,-0.0022375942410333576,-0.41649323146968165
7293,1.0,299.86527,17570.918999999998,0.0,-0.07293009740017564,0.0,0.0,0.0,0.0,-1.1470231272273688,-2.6201383049875178,-1.5739591979376786,-0.014627050462327488,0.015186751579065684,-0.4400968216216745
7294,1.0,299.26432,17658.535,0.0,-0.07294012637765224,0.0,0.0,0.0,0.0,-1.166505798825159,-2.626976425937387,-1.5742715829435086,-0.007664007832803682,0.010709442567189689,-0.39849444437833964
7295,1.0,298.78527,17715.158,0.0,-0.07295012236507159,0.0,0.0,0.0,0.0,-1.139927742077109,-2.6501816770775677,-1.5948562653500586,-0.016841273481854283,0.007782790331426602,-0.41885395221516664
7296,1.0,299.29075,17783.499,0.0,-0.07296011835249105,0.0,0.0,0.0,0.0,-1.159587225817349,-2.6326475867470873,-1.6135049307905382,0.008212015334112812,0.017614507937916586,-0.39024635551681663
7297,1.0,299.85716,17858.535,0.0,-0.07297011433991019,0.0,0.0,0.0,0.0,-1.1604018788977488,-2.6672221119593273,-1.6009248228489785,0.007686099724733982,0.005238993227398375,-0.4176769912965096
7298,1.0,299.55662,17734.214,0.0,-0.07298011032732965,0.0,0.0,0.0,0.0,-1.153811801572359,-2.655071723385177,-1.5818747077188786,0.02014373622803198,-0.017857446808392782,-0.4279817650785116
7299,1.0,300.2932,17670.148999999998,0.0,-0.07299010631474878,0.0,0.0,0.0,0.0,-1.1483780452610888,-2.6566132820873176,-1.5662927450310586,-0.00967602645972446,-0.016940359209133286,-0.43711895050528154
7300,1.0,299.63411,17621.726000000002,0.0,-0.07300010230216814,0.0,0.0,0.0,0.0,-1.157019650063949,-2.6181833402445776,-1.5813618005182586,0.006145394483153214,0.0018553258824314082,-0.4066914856998246
7301,1.0,299.80091,17574.331000000002,0.0,-0.0730100982895876,0.0,0.0,0.0,0.0,-1.135343089349639,-2.6341038297908077,-1.5727107724894684,-0.005234070351787525,0.007316391817021653,-0.43597185006707156
7302,1.0,300.14685,17479.783,0.0,-0.0730201272670643,0.0,0.0,0.0,0.0,-1.1146122962786689,-2.6334633544025974,-1.5653421137872383,-0.005500902571546814,0.004909658877870605,-0.4451817868510216
7303,1.0,300.54758,17556.293999999998,0.0,-0.07303012325448355,0.0,0.0,0.0,0.0,-1.137479121885449,-2.6295016478366073,-1.5696942256167585,0.001045125326945839,-0.006855372343422574,-0.44076787689790253
7304,1.0,300.35459,17714.075,0.0,-0.0730401192419029,0.0,0.0,0.0,0.0,-1.1604937806818187,-2.6356141803898674,-1.5885285184755584,-0.006756014963791764,-0.0025488398471259074,-0.42148522086985263
7305,1.0,299.50364,17820.918,0.0,-0.07305011522932214,0.0,0.0,0.0,0.0,-1.179217629279719,-2.6562778963042177,-1.5816185580935986,-0.01900087826799068,0.011790061639838489,-0.42590151196070664
7306,1.0,298.91624,17896.101000000002,0.0,-0.0730601112167415,0.0,0.0,0.0,0.0,-1.1843292733841988,-2.646036470918468,-1.6096021953803685,-0.025902887676415975,-0.008746677014379811,-0.4220290018010196
7307,1.0,299.18545,17828.545,0.0,-0.07307010720416074,0.0,0.0,0.0,0.0,-1.1464729324230687,-2.6650314652431275,-1.6079281035651485,-0.016690080354932683,0.009636598466533221,-0.4155030632069596
7308,1.0,299.69422000000003,17651.121,0.0,-0.07308010319158009,0.0,0.0,0.0,0.0,-1.1493683959088288,-2.6324820216807474,-1.5836497192440586,-0.00026374527226963177,0.013152560810806686,-0.39562325836497564
7309,1.0,300.00516,17696.681,0.0,-0.07309009917899945,0.0,0.0,0.0,0.0,-1.141714304653429,-2.6383383032837178,-1.5992965299382786,0.013160759017365789,-0.007901771325744112,-0.41074501298987665
7310,1.0,300.27117000000004,17729.101000000002,0.0,-0.07310012815647626,0.0,0.0,0.0,0.0,-1.1613479505161188,-2.6460000952398772,-1.5818558612670184,0.017998030193517284,-0.017209102519906185,-0.41706283001339667
7311,1.0,299.95833999999996,17541.587,0.0,-0.0731101241438955,0.0,0.0,0.0,0.0,-1.152301754948329,-2.6234477824641376,-1.5564548971601384,0.024085476700801477,-0.004750406157003586,-0.4194043496694866
7312,1.0,300.04278,17628.718999999997,0.0,-0.07312012013131486,0.0,0.0,0.0,0.0,-1.1566806165804888,-2.6353870097174474,-1.5666228619136384,0.021987032703951182,0.007942268196465842,-0.4094051011901376
7313,1.0,299.81288,17881.264,0.0,-0.0731301161187341,0.0,0.0,0.0,0.0,-1.1779406301786888,-2.646269011816418,-1.6112479161927884,-0.013052804311961486,0.016695921741759184,-0.4375107033914446
7314,1.0,299.57211,17902.655,0.0,-0.07314011210615345,0.0,0.0,0.0,0.0,-1.178413108700319,-2.6570208112775378,-1.6065262720517985,-0.024878477639814576,0.0039572884915789665,-0.4274126731598466
7315,1.0,300.42419,17721.135,0.0,-0.07315010809357281,0.0,0.0,0.0,0.0,-1.132307189400019,-2.6634527202623177,-1.5910225322716984,-0.02784559918589668,0.0018325853077870882,-0.4368384930101026
7316,1.0,300.34861,17608.599,0.0,-0.07316010408099205,0.0,0.0,0.0,0.0,-1.133551865822859,-2.6318460045929775,-1.5871763362171085,-0.007332393366575883,-0.0005651577522367274,-0.41597091117563256
7317,1.0,300.89729,17747.477,0.0,-0.0731701000684114,0.0,0.0,0.0,0.0,-1.1530668600988387,-2.6584121049898477,-1.5833108884106184,-0.0039027314584946064,-0.0007736802050462913,-0.42992923177071163
7318,1.0,301.00543,17712.039,0.0,-0.07318012904588822,0.0,0.0,0.0,0.0,-1.144614429089649,-2.6579465165688974,-1.5814567420526287,0.007461765949943963,-0.019148920187101282,-0.44110608964878156
7319,1.0,300.16407999999996,17596.35,0.0,-0.07319012503330746,0.0,0.0,0.0,0.0,-1.1284367766680388,-2.646881420176858,-1.5735327209705885,0.023226441239521278,0.012180425360114388,-0.42659131236378456
7320,1.0,299.77569,17589.422,0.0,-0.07320012102072682,0.0,0.0,0.0,0.0,-1.134082302250209,-2.6566569531666273,-1.5560057233908084,0.023398567100258776,-0.002303122746200518,-0.4339448229770196
7321,1.0,299.97168,17653.37,0.0,-0.07321011700814606,0.0,0.0,0.0,0.0,-1.1407607349843187,-2.6478197910944674,-1.5776031492723086,0.018606597322828183,-0.002935958127331507,-0.43345054944573863
7322,1.0,299.88613,17900.173,0.0,-0.07322011299556541,0.0,0.0,0.0,0.0,-1.1741205759766788,-2.671278658734677,-1.5958063899688284,-0.022673274572677978,-0.021858945732309978,-0.4384170049433896
7323,1.0,299.83047,17974.447,0.0,-0.07323010898298454,0.0,0.0,0.0,0.0,-1.192181455034149,-2.6558525339122374,-1.6157490771120184,-0.005346328127716505,-0.004402261123344345,-0.4148978894522336
7324,1.0,300.16837999999996,17764.243000000002,0.0,-0.07324010497040401,0.0,0.0,0.0,0.0,-1.149330196380059,-2.6372140009727576,-1.6133421014994684,-0.012766878305992787,0.0023315479578808677,-0.4094249406270956
7325,1.0,300.34712,17720.457,0.0,-0.07325010095782336,0.0,0.0,0.0,0.0,-1.161399930246249,-2.6417861907239977,-1.5833904285434686,-0.004706346192305206,0.008410161862718351,-0.4212795817620576
7326,1.0,300.80508,17879.843,0.0,-0.07326012993530018,0.0,0.0,0.0,0.0,-1.1766265461239989,-2.6462692144664377,-1.6121301530548586,-0.004125487704203936,-0.006460587407660334,-0.4241383757266986
7327,1.0,300.10926,17774.339,0.0,-0.07327012592271931,0.0,0.0,0.0,0.0,-1.160439369151449,-2.6490749039933372,-1.5934410589353885,0.0019360679325500284,0.02625711281862527,-0.4222695473747596
7328,1.0,299.65247,17638.074,0.0,-0.07328012191013877,0.0,0.0,0.0,0.0,-1.1435223481318688,-2.6557399618261273,-1.5622717633342185,0.011157471363906688,0.013179357222951289,-0.4164418191596076
7329,1.0,299.51473,17762.157,0.0,-0.0732901178975579,0.0,0.0,0.0,0.0,-1.161187249050259,-2.6492229398329474,-1.5888419167314884,0.0030486042820238174,-0.004023110231325067,-0.4243286438304766
7330,1.0,300.6988,17911.52,0.0,-0.07330011388497737,0.0,0.0,0.0,0.0,-1.160661473573369,-2.6824501463872177,-1.6015431080599984,-0.0005746610553221304,-0.019731304933828183,-0.4292278093889866
7331,1.0,300.44641,17792.375,0.0,-0.07331010987239672,0.0,0.0,0.0,0.0,-1.157833897844309,-2.6555583874082074,-1.5950455404687385,-0.002122691071743298,-0.006152728083401984,-0.4288055880723166
7332,1.0,299.93161000000003,17837.161,0.0,-0.07332010585981596,0.0,0.0,0.0,0.0,-1.153243266941249,-2.668115798547527,-1.6006923832760385,0.011945002778879988,-0.003677871401602647,-0.4316660437671216
7333,1.0,300.41516,17837.236,0.0,-0.07333010184723532,0.0,0.0,0.0,0.0,-1.156911840253309,-2.6683100385916974,-1.5968523680470585,-0.006001965385122864,0.0016109302622864387,-0.4415588705884676
7334,1.0,300.86126,17719.206000000002,0.0,-0.07334009783465445,0.0,0.0,0.0,0.0,-1.160464801728959,-2.6428121064502474,-1.5829192672469685,0.007828815697343951,-0.005073251146265906,-0.4403349556601766
7335,1.0,300.11764,17770.548,0.0,-0.07335012681213127,0.0,0.0,0.0,0.0,-1.1440262374065988,-2.6510303753613274,-1.6067462486485085,-0.004481662238280626,0.019584483981088082,-0.42570881205668853
7336,1.0,300.55832999999996,17753.013,0.0,-0.07336012279955073,0.0,0.0,0.0,0.0,-1.138350111671409,-2.6505727916161677,-1.6075497559778085,0.006640050820321994,0.0015839056662193187,-0.4401897569208466
7337,1.0,300.04958999999997,17640.093,0.0,-0.07337011878696986,0.0,0.0,0.0,0.0,-1.1339651705386489,-2.6430694719756476,-1.5851133590135085,-0.01801720797815998,-0.006982772534145993,-0.4282141539889466
7338,1.0,300.65233,17777.199,0.0,-0.07338011477438944,0.0,0.0,0.0,0.0,-1.151699175113859,-2.6709028442725873,-1.5812226812795287,0.002201973940392908,-0.01065292955611229,-0.4623680588196745
7339,1.0,300.18166,17952.88,0.0,-0.07339011076180868,0.0,0.0,0.0,0.0,-1.1931492102046588,-2.6596655966885576,-1.6044123283681684,-0.008938495897435861,0.0016481612252858486,-0.4090872851637716
7340,1.0,300.00825,17948.673,0.0,-0.07340010674922781,0.0,0.0,0.0,0.0,-1.1960018132111887,-2.6631756976849776,-1.5967708014140087,-0.0008164772852175342,0.0029661549054866973,-0.4068291154609076
7341,1.0,300.24109,17944.791,0.0,-0.07341010273664728,0.0,0.0,0.0,0.0,-1.166328277407639,-2.671204691477377,-1.6172354136837086,-0.002971576908096807,-0.006911055806643104,-0.4021412733432536
7342,1.0,299.96526,17941.702,0.0,-0.07342009872406641,0.0,0.0,0.0,0.0,-1.1643631801636989,-2.6515104532587075,-1.6379556689536383,0.002439432647703258,-0.0030833719327051172,-0.4016779850000306
7343,1.0,299.82613,17986.608,0.0,-0.07343012770154322,0.0,0.0,0.0,0.0,-1.174005470765319,-2.6645770225732774,-1.6288972130596384,0.021547208193293876,0.012895114225398688,-0.4005766429363366
7344,1.0,299.99125,17956.005,0.0,-0.07344012368896258,0.0,0.0,0.0,0.0,-1.1852598422760388,-2.6640738425736177,-1.6088433723804785,0.02112024283965568,-0.0007477403438737263,-0.4273622437023696
7345,1.0,299.76242,17943.603,0.0,-0.07345011967638204,0.0,0.0,0.0,0.0,-1.1907217669400887,-2.6601065631320773,-1.6035788288359085,-0.006627570314865264,-0.0005689223411282635,-0.4290824079996366
7346,1.0,300.25984,17833.426,0.0,-0.0734601156638014,0.0,0.0,0.0,0.0,-1.172278284644859,-2.6747212772744375,-1.5739167427584884,-0.012459080283365488,-0.004843366686103075,-0.44368421333572255
7347,1.0,300.87012999999996,17656.589,0.0,-0.07347011165122064,0.0,0.0,0.0,0.0,-1.119707728381549,-2.6354917797777873,-1.6119626628133286,3.080514972723157e-05,0.015648186687855788,-0.4226469729045086
7348,1.0,299.76084,17658.283,0.0,-0.07348010763863977,0.0,0.0,0.0,0.0,-1.112695835039529,-2.654789229257297,-1.6001921417016685,-0.01951363044134538,0.0097072785378588,-0.4377451086695786
7349,1.0,300.1683,17820.22,0.0,-0.07349010362605912,0.0,0.0,0.0,0.0,-1.146990095274109,-2.658142884438277,-1.6117689293942086,-0.011282075794954188,-0.008570918246733773,-0.43101306487267754
7350,1.0,300.12345,17835.94,0.0,-0.07350009961347836,0.0,0.0,0.0,0.0,-1.158180328053499,-2.6764595078209874,-1.5870404593786986,-0.005709110977620385,-0.004966263790732076,-0.45894251354409954
7351,1.0,299.73995,17721.742,0.0,-0.07351012859095518,0.0,0.0,0.0,0.0,-1.1680523224527888,-2.6615032270699177,-1.5574115065795484,0.006949473690809654,0.0061894760300787235,-0.4271720870561026
7352,1.0,300.12425,17823.485,0.0,-0.07352012457837453,0.0,0.0,0.0,0.0,-1.161186337125169,-2.6644994076156174,-1.5922088454887786,0.007373596371292303,-0.013206815287411187,-0.4252890833352646
7353,1.0,299.54008999999996,17979.596999999998,0.0,-0.07353012056579389,0.0,0.0,0.0,0.0,-1.1423943981205489,-2.6861057500979975,-1.6368482879193484,-0.005053500166041635,-0.01814390781041428,-0.4126632778141946
7354,1.0,299.60039,17910.881,0.0,-0.07354011655321335,0.0,0.0,0.0,0.0,-1.139474413982369,-2.677149227164058,-1.6278370494800085,0.0015818333671147984,-0.004714276698187885,-0.4330643289051216
7355,1.0,299.74702,17942.128,0.0,-0.07355011254063248,0.0,0.0,0.0,0.0,-1.1750747535958488,-2.669202103979737,-1.6096820394882485,0.009244538261614891,0.006794503268840264,-0.4105598516666026
7356,1.0,300.26791000000003,17796.451,0.0,-0.07356010852805173,0.0,0.0,0.0,0.0,-1.1737016983853388,-2.6558818168401275,-1.5800933127180683,-0.012998020918804788,-0.008263975812490913,-0.4391648848421996
7357,1.0,300.37102999999996,17826.923,0.0,-0.07357010451547108,0.0,0.0,0.0,0.0,-1.2000500513357188,-2.6625073579190177,-1.5563821458029585,-0.0023357546683210376,-0.01060231974011749,-0.43834928943920654
7358,1.0,300.53002999999995,17915.427,0.0,-0.07358010050289043,0.0,0.0,0.0,0.0,-1.1825544645090387,-2.6617986907990776,-1.6014894058046985,-0.015934107627573985,-0.0066678835846688735,-0.4420926406086466
7359,1.0,300.0163,17907.924,0.0,-0.07359012948036714,0.0,0.0,0.0,0.0,-1.160527319260129,-2.6609557680408873,-1.6220785465116885,0.02085202945868508,0.02007517060701508,-0.41588606161225866
7360,1.0,300.63055,17756.332,0.0,-0.07360012546778649,0.0,0.0,0.0,0.0,-1.126506231252509,-2.6607001250406577,-1.6102752974217984,-0.004731566797894285,0.003269725648696797,-0.41533354646522963
7361,1.0,299.42971,17806.473,0.0,-0.07361012145520585,0.0,0.0,0.0,0.0,-1.1395708753918887,-2.6662053154839773,-1.6069469734933186,0.005309571568413915,-0.01105653037569459,-0.4177132757825906
7362,1.0,299.29398,18107.634,0.0,-0.0736201174426252,0.0,0.0,0.0,0.0,-1.204614540386199,-2.6960311427775574,-1.6036228038902485,-0.008801522925067681,-0.014198455802528487,-0.4382583502427315
7363,1.0,299.77729,18046.493000000002,0.0,-0.07363011343004444,0.0,0.0,0.0,0.0,-1.211812162471549,-2.670279492811068,-1.6035915957871683,0.01045549777412729,0.0016846291096349485,-0.4244181644768116
7364,1.0,299.74085,17758.139,0.0,-0.07364010941746368,0.0,0.0,0.0,0.0,-1.1340210006191591,-2.682768408243627,-1.5812414264063785,0.0016466684039135185,0.0004002952228535626,-0.4486581668841136
7365,1.0,300.26264,17740.087,0.0,-0.07365010540488304,0.0,0.0,0.0,0.0,-1.127098982561009,-2.660493523345268,-1.6049508707963185,0.003999097217205165,-0.01118675023879629,-0.43005025436265554
7366,1.0,300.20083999999997,17878.678,0.0,-0.07366010139230239,0.0,0.0,0.0,0.0,-1.147986728072469,-2.6810475042737876,-1.6056374490640786,0.016663870614595983,0.01793302412010168,-0.44976303505815557
7367,1.0,300.29467999999997,17839.933,0.0,-0.07367013036977899,0.0,0.0,0.0,0.0,-1.152782339470759,-2.6744607706737273,-1.5956509574034883,0.007878269090999623,0.016732496017368783,-0.44791823086608756
7368,1.0,300.18088,17808.896,0.0,-0.07368012635719856,0.0,0.0,0.0,0.0,-1.1748816281267886,-2.6544350983473475,-1.5841430707177484,-0.0012599364759710487,0.005269762795835095,-0.4504395314874206
7369,1.0,300.46198,17855.828999999998,0.0,-0.0736901223446178,0.0,0.0,0.0,0.0,-1.169271464973109,-2.6758994844907176,-1.5825551051610285,-0.012358244673163788,-0.03010523607490547,-0.45005029146150555
7370,1.0,300.41471,18010.003,0.0,-0.07370011833203716,0.0,0.0,0.0,0.0,-1.1687836863749688,-2.6816375198070177,-1.6241699960430984,-0.003500424660615017,-0.0006301583034392823,-0.43705069797854557
7371,1.0,300.77347000000003,18261.381,0.0,-0.0737101143194564,0.0,0.0,0.0,0.0,-1.199042880736319,-2.687529062513468,-1.6644319953916484,-0.00951366762067589,0.014420045493397685,-0.3974795021506726
7372,1.0,300.14128,18123.616,0.0,-0.07372011030687553,0.0,0.0,0.0,0.0,-1.183289476131579,-2.6867974959412675,-1.6390397452356285,-0.012366407415969387,0.012117664648920388,-0.39750879521106364
7373,1.0,300.81302,17935.06,0.0,-0.073730106294295,0.0,0.0,0.0,0.0,-1.1717891888215888,-2.6686214103474275,-1.6113997010577685,-0.012248524886085289,0.0005408031411106145,-0.4108787924005796
7374,1.0,300.5142,17921.501,0.0,-0.07374010228171435,0.0,0.0,0.0,0.0,-1.1981613531493187,-2.6586155656099275,-1.5909119866857884,0.009610643558596671,0.017921607831224984,-0.41358508209266964
7375,1.0,300.03578999999996,18077.043999999998,0.0,-0.0737500982691337,0.0,0.0,0.0,0.0,-1.200137697469369,-2.677365252085377,-1.6174669413315585,0.023972166968618678,0.01884148693450998,-0.42426714968190765
7376,1.0,299.80622999999997,17925.397,0.0,-0.07376012724661052,0.0,0.0,0.0,0.0,-1.166151870565229,-2.6611950977145074,-1.6215262238821786,0.0024048204295872974,0.00984056844743849,-0.4235585129594706
7377,1.0,299.53399,17840.936,0.0,-0.07377012323402976,0.0,0.0,0.0,0.0,-1.1471416774890688,-2.6583063216794076,-1.6177508540095784,-0.010336559437638991,-0.02294600198284408,-0.4280233589951166
7378,1.0,299.36784,17985.606,0.0,-0.07378011922144911,0.0,0.0,0.0,0.0,-1.168820771328629,-2.6714296329995775,-1.6269249217399884,-0.004018178033813296,-0.00035330359124334965,-0.4263581432507726
7379,1.0,299.83849,18002.591,0.0,-0.07379011520886836,0.0,0.0,0.0,0.0,-1.1872244328949288,-2.6711734833742975,-1.6139401217084883,-0.001217911016148459,0.0037048033866106268,-0.4343232921543716
7380,1.0,300.13945,17967.28,0.0,-0.07380011119628749,0.0,0.0,0.0,0.0,-1.186101954434149,-2.688301260414677,-1.5872013634945785,-0.004440994330942016,-0.005884194718049805,-0.43922949980107656
7381,1.0,300.30908,17968.698,0.0,-0.07381010718370706,0.0,0.0,0.0,0.0,-1.1656837490190288,-2.6810622977252474,-1.6152895681916684,-0.005244689719460575,-0.04191101525029516,-0.4374086184438696
7382,1.0,300.28598,17850.137,0.0,-0.0738201031711263,0.0,0.0,0.0,0.0,-1.1225338855604687,-2.7037525138395972,-1.5997094293540286,0.012208044531340188,-0.005376769909745875,-0.43523436611428756
7383,1.0,300.59347,17826.527,0.0,-0.07383009915854566,0.0,0.0,0.0,0.0,-1.128180120417709,-2.6930113535045272,-1.5976276056985685,0.03073731060653637,0.007764805344801622,-0.4178372874623296
7384,1.0,299.78021,18023.628,0.0,-0.07384012813602248,0.0,0.0,0.0,0.0,-1.1460754344088386,-2.7071945244292976,-1.6254631058207185,-0.006652973609447374,0.002217576877357798,-0.43124983102354464
7385,1.0,299.90369,18043.136000000002,0.0,-0.07385012412344172,0.0,0.0,0.0,0.0,-1.1740981831494688,-2.7095152724583373,-1.6010493512862685,-0.002765984409806407,-0.022074262391810078,-0.4317056517135306
7386,1.0,300.76212000000004,17940.988999999998,0.0,-0.07386012011086107,0.0,0.0,0.0,0.0,-1.1718145200740888,-2.685561938769327,-1.5962364133112685,-0.01025491579758139,0.0026875489222154274,-0.4420372867556836
7387,1.0,300.5614,17953.703999999998,0.0,-0.0738701160982802,0.0,0.0,0.0,0.0,-1.166736211897899,-2.683282733994387,-1.6074586647938185,0.015309609166940784,0.016663324472792087,-0.4335178292523786
7388,1.0,299.9759,18021.951,0.0,-0.07388011208569967,0.0,0.0,0.0,0.0,-1.172956858236829,-2.6791539424869075,-1.6261123964847983,0.0023311289789645175,-0.0030497056848825172,-0.42387168830037864
7389,1.0,300.12928,18083.674,0.0,-0.07389010807311902,0.0,0.0,0.0,0.0,-1.1846920169199988,-2.6781625785890677,-1.6341306498261383,0.005960948717099834,-0.015669769928235884,-0.4146069549510206
7390,1.0,299.4922,18129.646,0.0,-0.07390010406053826,0.0,0.0,0.0,0.0,-1.2022808227558788,-2.6922312522525376,-1.6164477130559685,-0.0013498792422977086,-0.004294955809929136,-0.4149783313776726
7391,1.0,299.9142,18065.589,0.0,-0.07391010004795762,0.0,0.0,0.0,0.0,-1.203255062727029,-2.6954057648158374,-1.5928273333498184,0.019265256497332784,0.0005067442082117595,-0.4276879630795156
7392,1.0,300.25543999999996,17902.637,0.0,-0.07392012902543443,0.0,0.0,0.0,0.0,-1.1845538096063588,-2.680693778663877,-1.5767071322088786,-0.009989103920672801,-0.006545834671698583,-0.43513518919449956
7393,1.0,299.98757,18043.985,0.0,-0.07393012501285356,0.0,0.0,0.0,0.0,-1.159101575044419,-2.7193714601560677,-1.6064479478190683,-0.015023842241237787,-0.023355631640521377,-0.4524061283415085
7394,1.0,300.1639,18119.483,0.0,-0.07394012100027303,0.0,0.0,0.0,0.0,-1.178797637113269,-2.6968469104330675,-1.6322256383131284,-0.02083813577331388,0.016574218245747986,-0.41703107475526263
7395,1.0,300.33371,17831.266,0.0,-0.07395011698769216,0.0,0.0,0.0,0.0,-1.1381136190980687,-2.6790010430468176,-1.6031449551430883,0.01003386971539084,0.029812362213001074,-0.43839452092367065
7396,1.0,300.83074,17724.917,0.0,-0.07396011297511151,0.0,0.0,0.0,0.0,-1.128685630892599,-2.6736599991196974,-1.5855865468102086,-0.001943225531256428,0.01964983759928798,-0.4295473580730235
7397,1.0,301.18549,17972.814,0.0,-0.07397010896253098,0.0,0.0,0.0,0.0,-1.1850311517284688,-2.6743247925103075,-1.6039306292706286,0.0025645786609292073,-0.0009274286575275823,-0.4298314835335646
7398,1.0,300.06581,18232.005,0.0,-0.07398010494995011,0.0,0.0,0.0,0.0,-1.2015230130060888,-2.7162756771255374,-1.6242754753785085,0.0062947679142202236,0.006166414761777754,-0.4348565352844985
7399,1.0,300.1138,18186.015,0.0,-0.07399010093736957,0.0,0.0,0.0,0.0,-1.179238704881799,-2.7111934172739574,-1.6376622317246785,0.025907864760907177,0.01005972248771731,-0.4348121144001145
7400,1.0,300.05112,18057.668999999998,0.0,-0.07400012991484628,0.0,0.0,0.0,0.0,-1.164674855894459,-2.698863683432107,-1.6255418353534883,-0.003153744077325307,-0.011575950747957387,-0.4308580173423756
7401,1.0,299.80446,17964.856,0.0,-0.07401012590226552,0.0,0.0,0.0,0.0,-1.1474907421485188,-2.702248648041177,-1.6111283526809883,-0.015950845505975884,-0.035671940931796466,-0.4346133248629956
7402,1.0,300.22044,18071.941000000003,0.0,-0.07402012188968488,0.0,0.0,0.0,0.0,-1.1842702009033688,-2.6930265522560273,-1.6161219531488185,-0.02095728182607268,-0.001986793056406208,-0.42494012000082465
7403,1.0,300.27409,18179.527,0.0,-0.07403011787710412,0.0,0.0,0.0,0.0,-1.2112227548883787,-2.7083943138727076,-1.6065051964497183,-0.012711348147512387,0.004487869813693267,-0.4443567074270926
7404,1.0,299.41112000000004,17930.394,0.0,-0.07404011386452347,0.0,0.0,0.0,0.0,-1.166894582888529,-2.6823102165484074,-1.6011871532998685,0.008623550915228212,-0.0008509845711531383,-0.4410631278445416
7405,1.0,300.33865,17674.5,0.0,-0.07405010985194294,0.0,0.0,0.0,0.0,-1.127708959121209,-2.6545095722296974,-1.5903880350590787,-0.001941256786312128,-0.0035852200151086666,-0.42725776748455857
7406,1.0,300.98013,18024.686,0.0,-0.07406010583936207,0.0,0.0,0.0,0.0,-1.163964567574359,-2.6830554619969575,-1.6320345393442683,0.03240571403569497,0.015173439499251887,-0.4041165942807026
7407,1.0,300.76529,18417.464,0.0,-0.07407010182678142,0.0,0.0,0.0,0.0,-1.214066745269059,-2.7025342832443675,-1.6818482447354983,0.0045549662220651654,0.011366175553254188,-0.4121148865950726
7408,1.0,300.19661,18208.898999999998,0.0,-0.07408013080425824,0.0,0.0,0.0,0.0,-1.208652139384679,-2.694463036922797,-1.6319354434844884,0.002290433308573168,-0.004314876002920106,-0.4116272498519466
7409,1.0,299.35652000000005,17973.876,0.0,-0.07409012679167748,0.0,0.0,0.0,0.0,-1.1860922272331889,-2.692663910045237,-1.5848532577128385,-0.020481817256397982,-0.022610425708725276,-0.4359916185765226
7410,1.0,299.99946,18094.896,0.0,-0.07410012277909683,0.0,0.0,0.0,0.0,-1.187575524054579,-2.681024300846498,-1.6317967295457985,0.003039848179959657,0.0035412923808733465,-0.4217774725961956
7411,1.0,300.64529,18182.626,0.0,-0.07411011876651619,0.0,0.0,0.0,0.0,-1.186456693294159,-2.7129587015981773,-1.6276489902614486,-0.003093962220100297,0.006980645620861083,-0.44801358783299855
7412,1.0,300.58907999999997,17993.865,0.0,-0.07412011475393543,0.0,0.0,0.0,0.0,-1.1568052463427887,-2.6877664670118975,-1.6251139398362584,-0.006795056503394864,-0.018649818519093784,-0.43346957828261656
7413,1.0,300.14948,17786.685,0.0,-0.07413011074135478,0.0,0.0,0.0,0.0,-1.121924010325279,-2.674578105035308,-1.6102059911149587,-0.016846550488375085,-0.018444691102599282,-0.4320187561269316
7414,1.0,299.95327000000003,17894.217,0.0,-0.07414010672877402,0.0,0.0,0.0,0.0,-1.164707685197699,-2.690064416913687,-1.5846229459651084,0.004063841365469916,-0.004333678479725766,-0.4235952939381006
7415,1.0,299.91612000000003,18158.802,0.0,-0.07415010271619338,0.0,0.0,0.0,0.0,-1.189052640050359,-2.713507984477387,-1.6172619608363283,0.00025313810412778574,0.01607281042051288,-0.4468144266046506
7416,1.0,300.13813,18349.446,0.0,-0.07416009870361262,0.0,0.0,0.0,0.0,-1.198176653225829,-2.7397901721962374,-1.6398066742363184,-0.008597181588000762,-0.0004185579615959546,-0.4509097504613276
7417,1.0,299.71238,18161.174,0.0,-0.07417012768108944,0.0,0.0,0.0,0.0,-1.1684189163389689,-2.7160132453496373,-1.6361110471465885,0.0035843209582949362,0.007886855777647061,-0.43601152894098755
7418,1.0,299.17426,17903.835,0.0,-0.07418012366850879,0.0,0.0,0.0,0.0,-1.1394551622304687,-2.6835241914932175,-1.6193394275163584,0.013568412837348089,0.02020175594200808,-0.4074929259989206
7419,1.0,299.41127,18030.534,0.0,-0.07419011965592814,0.0,0.0,0.0,0.0,-1.1648885503405488,-2.7136455838409677,-1.6022978780594883,0.010295786253614991,0.013845326996927388,-0.4363803013148826
7420,1.0,299.23773,18206.979,0.0,-0.07420011564334739,0.0,0.0,0.0,0.0,-1.217160907099429,-2.6909471604008077,-1.6263589202341284,-0.002341648946802758,-0.01815899105140288,-0.41198569720732264
7421,1.0,299.21993,17991.738999999998,0.0,-0.07421011163076674,0.0,0.0,0.0,0.0,-1.1818739657418789,-2.6944848217999473,-1.5926805134103286,-0.00999321183922822,-0.017862770424418185,-0.4509863217713846
7422,1.0,299.89562,17884.012,0.0,-0.07422010761818598,0.0,0.0,0.0,0.0,-1.157670257953159,-2.680539359348637,-1.5980833655935485,0.016548008505411285,0.007685140075564273,-0.4316769970007026
7423,1.0,300.17576,18079.46,0.0,-0.07423010360560534,0.0,0.0,0.0,0.0,-1.1708917532080187,-2.6931136917646272,-1.6316987482611285,-0.004736604880041505,0.014461325302471687,-0.4511047605755735
7424,1.0,299.6295,18243.074,0.0,-0.07424009959302469,0.0,0.0,0.0,0.0,-1.1870551188032188,-2.7084356544767876,-1.6499479905121883,-0.0035334547900248365,-0.005074967591935305,-0.42427007797469657
7425,1.0,299.97418,18194.66,0.0,-0.07425012857050128,0.0,0.0,0.0,0.0,-1.1805391100601388,-2.7051858574310574,-1.6449973518485985,-0.01069045730006599,0.0008078474442483352,-0.43952727374046463
7426,1.0,300.51819,18115.872,0.0,-0.07426012455792086,0.0,0.0,0.0,0.0,-1.2117710245174889,-2.6906831074247473,-1.6043184000838984,0.0007126127664919043,0.017397598449259283,-0.4052260524776976
7427,1.0,300.11003999999997,18081.852,0.0,-0.0742701205453401,0.0,0.0,0.0,0.0,-1.184674589018279,-2.716807228127997,-1.5949495856842684,0.015722469065936884,0.021524067587510083,-0.45830437876362057
7428,1.0,299.8577,18083.453,0.0,-0.07428011653275934,0.0,0.0,0.0,0.0,-1.188071307328509,-2.6940878304107674,-1.6147590304393085,0.001194796248242209,0.007166831137336163,-0.4329813639869336
7429,1.0,300.25907,18196.736,0.0,-0.0742901125201787,0.0,0.0,0.0,0.0,-1.166034130903609,-2.7218149127722175,-1.6435044291512584,0.016019106138712685,0.015161496320323185,-0.44419415171354953
7430,1.0,300.76764,18119.531000000003,0.0,-0.07430010850759794,0.0,0.0,0.0,0.0,-1.173607871426079,-2.6973897085116376,-1.6368873993732087,0.009927849507077459,0.004920560537021516,-0.3977327538806666
7431,1.0,300.70029,17944.376,0.0,-0.07431010449501729,0.0,0.0,0.0,0.0,-1.141888077045579,-2.6992808384982774,-1.6134734187124284,0.004721060103632355,0.006382669994845484,-0.43366251123415755
7432,1.0,300.18481,18129.71,0.0,-0.07432010048243665,0.0,0.0,0.0,0.0,-1.1943354220967288,-2.7124006034430974,-1.6042430142764585,-0.02032786707595428,-0.04756174488497875,-0.4272240465212306
7433,1.0,299.88591,18374.543999999998,0.0,-0.07433012945991346,0.0,0.0,0.0,0.0,-1.2153417178698889,-2.7116075325898272,-1.6584532118515884,-0.022683163893653976,-0.025292920235466875,-0.4489134552468086
7434,1.0,299.87733,18274.332,0.0,-0.07434012544733282,0.0,0.0,0.0,0.0,-1.193783403442249,-2.7180803768786475,-1.6430769389340683,0.01066637234518899,0.003816323820441837,-0.4451042934833736
7435,1.0,299.87245,18011.674,0.0,-0.07435012143475206,0.0,0.0,0.0,0.0,-1.148686377266519,-2.6934573861985474,-1.6329552797101383,0.0024287376915727477,0.014251347457748484,-0.45491594883920855
7436,1.0,299.92261,18064.689,0.0,-0.07436011742217119,0.0,0.0,0.0,0.0,-1.162005347180999,-2.692602000464127,-1.6366071343955484,0.006632399667491884,-0.0003058511436201577,-0.43362678403563154
7437,1.0,299.52464,18046.477,0.0,-0.07437011340959065,0.0,0.0,0.0,0.0,-1.184419452643099,-2.689977277405087,-1.6112818600711385,-0.014359468336169185,-0.003222009371012567,-0.4336079071862686
7438,1.0,300.19507999999996,18097.557,0.0,-0.07438010939700979,0.0,0.0,0.0,0.0,-1.1936713379811887,-2.6927832709070176,-1.6147509244385085,0.018921695812425983,0.009320257327012782,-0.4121096480920556
7439,1.0,300.77204,18166.734,0.0,-0.07439010538442925,0.0,0.0,0.0,0.0,-1.1917067473622989,-2.7110763868874077,-1.6194502770772985,-0.012927602063354988,0.002834724613815537,-0.4405726236036326
7440,1.0,299.99717999999996,18192.34,0.0,-0.0744001013718486,0.0,0.0,0.0,0.0,-1.1865451500278887,-2.7093099879880773,-1.6341618579292183,0.006794576121522453,-0.015488068854053384,-0.43151482632219756
7441,1.0,300.01914,18224.096999999998,0.0,-0.07441013034932542,0.0,0.0,0.0,0.0,-1.174306811345059,-2.7143709695875575,-1.6509927526902985,-0.014972832191453487,-0.013933918492920685,-0.43226482391371657
7442,1.0,299.59562999999997,18279.619,0.0,-0.07442012633674477,0.0,0.0,0.0,0.0,-1.1805405286102788,-2.7154504862440976,-1.6605567190591881,0.018893758480668783,0.004880224874390696,-0.41300519906043964
7443,1.0,299.26097999999996,18200.318,0.0,-0.07443012232416402,0.0,0.0,0.0,0.0,-1.1911748923848091,-2.7049309237058976,-1.6363362926438183,-0.016178437690437482,0.014667500419569587,-0.4367830986271356
7444,1.0,299.5113,18011.936,0.0,-0.07444011831158315,0.0,0.0,0.0,0.0,-1.167595549307709,-2.698421501088468,-1.6091616342368884,-0.007798495707976602,-0.007287535366098744,-0.4380311187753056
7445,1.0,299.66947999999996,18020.191000000003,0.0,-0.0744501142990025,0.0,0.0,0.0,0.0,-1.167008573524779,-2.7012972061972773,-1.6093824214336785,-0.013510128665095886,0.0024606198086192673,-0.4567154708843076
7446,1.0,299.60114,18142.057,0.0,-0.07446011028642197,0.0,0.0,0.0,0.0,-1.201064719985859,-2.6903989920967075,-1.6232685074291284,0.008787388998097771,0.014527701290022486,-0.44507577049305863
7447,1.0,300.01443,18183.142,0.0,-0.07447010627384132,0.0,0.0,0.0,0.0,-1.170242665193959,-2.7229044606047474,-1.6340740091455486,0.006580381737833115,0.017759345960210983,-0.45443263867400957
7448,1.0,299.29322,18044.188000000002,0.0,-0.07448010226126056,0.0,0.0,0.0,0.0,-1.164125066390199,-2.7084716248553375,-1.6123858973800984,-0.002285534852289728,-0.007018652733437093,-0.4438402842486256
7449,1.0,299.94434,18172.428,0.0,-0.07449013123873727,0.0,0.0,0.0,0.0,-1.1910970747771288,-2.710578577113277,-1.6222885932574185,-0.006620578382550213,0.004942299817917015,-0.4267897269983666
7450,1.0,299.83036,18261.1,0.0,-0.07450012722615673,0.0,0.0,0.0,0.0,-1.1888808941584088,-2.7363759246592774,-1.6256615001902985,0.013294528295567789,0.012779193347708188,-0.42709081426558165
7451,1.0,299.61458,18290.435,0.0,-0.07451012321357586,0.0,0.0,0.0,0.0,-1.1963223042178188,-2.7180985140554372,-1.6454147095647884,0.015802207795806485,0.016894468098854185,-0.43386723841686264
7452,1.0,300.66866,18291.658,0.0,-0.0745201192009951,0.0,0.0,0.0,0.0,-1.1978322495168388,-2.7225723172219674,-1.6398027225609284,0.006678586038850124,-0.020692878265478082,-0.4385763385216146
7453,1.0,300.44149,18050.402,0.0,-0.07453011518841446,0.0,0.0,0.0,0.0,-1.1443746941159887,-2.6987203085429576,-1.6437762841530883,0.007921443981735653,-0.00838996414052499,-0.4270209912011906
7454,1.0,299.5896,18074.368000000002,0.0,-0.07454011117583392,0.0,0.0,0.0,0.0,-1.176946327855559,-2.692829069811537,-1.6243809547139185,-0.008827131098820011,0.011891459603845687,-0.4283372132135916
7455,1.0,299.46907000000004,18359.366,0.0,-0.07455010716325328,0.0,0.0,0.0,0.0,-1.210597275601649,-2.7226516547047974,-1.6475399003245286,-0.02199356715384608,0.012157969711398188,-0.4350502788361196
7456,1.0,299.40373999999997,18321.006999999998,0.0,-0.07456010315067241,0.0,0.0,0.0,0.0,-1.2127964336186887,-2.7351120978095476,-1.6212202223519785,-0.029003530254425574,-0.0045763850119540355,-0.4488086547889656
7457,1.0,299.51492,18101.081000000002,0.0,-0.07457009913809165,0.0,0.0,0.0,0.0,-1.1758612383234688,-2.708969535954477,-1.6174456630794587,-0.007361810144804093,0.004683005976251706,-0.43892192773322153
7458,1.0,300.30152000000004,18233.681,0.0,-0.07458012811556869,0.0,0.0,0.0,0.0,-1.1974569416797989,-2.7261468609247475,-1.6189799263808784,0.013496058674207287,0.01079051270769069,-0.4439467565691336
7459,1.0,299.57072999999997,18345.37,0.0,-0.07459012410298782,0.0,0.0,0.0,0.0,-1.168567458803629,-2.739324583775287,-1.6686423535321784,0.024087142483965877,0.0075267397006813725,-0.44033342565252553
7460,1.0,300.99172000000004,18311.335,0.0,-0.07460012009040706,0.0,0.0,0.0,0.0,-1.2037995833307689,-2.7322420669012977,-1.6301470570579883,0.010279070666715292,-0.006983012370444663,-0.43014455754946257
7461,1.0,300.52971,18229.768,0.0,-0.07461011607782642,0.0,0.0,0.0,0.0,-1.1782440985836389,-2.7276519426232873,-1.6354982334861086,0.0069875914502965835,-0.003825075058905516,-0.4217875746996926
7462,1.0,300.02355,18148.982,0.0,-0.07462011206524577,0.0,0.0,0.0,0.0,-1.173321324297799,-2.718397625484957,-1.6251183981366986,-0.00978901519427558,0.007175945929935723,-0.4228990695293886
7463,1.0,299.95373,18222.188000000002,0.0,-0.07463010805266523,0.0,0.0,0.0,0.0,-1.1624038584453291,-2.738873586155777,-1.6378128006895385,-0.00933168780139088,-0.011728351668998188,-0.4457412934237406
7464,1.0,299.76711,18242.037,0.0,-0.07464010404008437,0.0,0.0,0.0,0.0,-1.171114769555029,-2.7302884193834873,-1.6437203527475683,-0.020183677533723878,-0.02980973992174227,-0.4477741264368656
7465,1.0,299.45029,18256.845,0.0,-0.07465010002750361,0.0,0.0,0.0,0.0,-1.1704010361845887,-2.733706719920847,-1.6455172504749087,-0.00046744678242840554,-0.015692130331442684,-0.4444340589397266
7466,1.0,300.51302999999996,18127.604,0.0,-0.07466012900498054,0.0,0.0,0.0,0.0,-1.190073388201099,-2.715913744189818,-1.6043518373371983,-0.004086841028164806,-0.004411978698428396,-0.43965766889583363
7467,1.0,299.71693,18088.628,0.0,-0.07467012499239978,0.0,0.0,0.0,0.0,-1.1919336140596888,-2.7060713366934475,-1.6004862882056985,-0.0032679605670225967,-0.0074110059702843425,-0.4364549271847476
7468,1.0,299.75326,18305.648999999998,0.0,-0.07468012097981902,0.0,0.0,0.0,0.0,-1.205688078867149,-2.727641607472268,-1.6311304162800384,-0.010365341819979591,0.004035983168545526,-0.44307365922296554
7469,1.0,300.82987,18346.89,0.0,-0.0746901169672386,0.0,0.0,0.0,0.0,-1.2130303930667787,-2.7124840952513374,-1.6514818485135685,0.013342621198314187,0.017737398963044982,-0.41398127301427057
7470,1.0,300.70999,18234.595,0.0,-0.07470011295465773,0.0,0.0,0.0,0.0,-1.1607693847090188,-2.725486120534537,-1.6566060569192882,0.013804192082617687,0.025431457868639474,-0.43852934398197657
7471,1.0,300.25068999999996,18272.563000000002,0.0,-0.07471010894207708,0.0,0.0,0.0,0.0,-1.1727041536618887,-2.7226680693564176,-1.6590304604335586,-0.00930845640839812,-0.015000297348664086,-0.4388617305447806
7472,1.0,299.93506,18334.08,0.0,-0.07472010492949632,0.0,0.0,0.0,0.0,-1.205983745246329,-2.731368543990087,-1.6357502287859784,-0.002290108359266098,-0.014533989520143087,-0.43375143406293354
7473,1.0,300.22317999999996,18295.358,0.0,-0.07473010091691557,0.0,0.0,0.0,0.0,-1.2042658810267888,-2.7331490270658074,-1.6239169874931285,-0.0056885756404937045,-0.0012396473586186688,-0.4251293951195046
7474,1.0,300.19562,18274.411,0.0,-0.07474012989439249,0.0,0.0,0.0,0.0,-1.2012752733566388,-2.7344528772944874,-1.6192364813061986,0.013849752873364186,0.012750295454856187,-0.42462636710735957
7475,1.0,300.32866,18206.807,0.0,-0.07475012588181174,0.0,0.0,0.0,0.0,-1.1744662969107988,-2.7323799702399074,-1.6275686395285183,-0.006791763845869905,-0.017292066424844085,-0.43211232977366654
7476,1.0,300.61142,18164.504,0.0,-0.07476012186923109,0.0,0.0,0.0,0.0,-1.153517857718349,-2.7297667982320073,-1.6382709923847585,0.009301649495551331,0.0008229631801676422,-0.44479602227294956
7477,1.0,300.31652,18375.468,0.0,-0.07477011785665044,0.0,0.0,0.0,0.0,-1.190961805888779,-2.7375985122299373,-1.6571230171203084,0.006558644483437813,-0.0027468403663920373,-0.43805661214782154
7478,1.0,300.37059,18455.064,0.0,-0.07478011384406968,0.0,0.0,0.0,0.0,-1.2259635173431789,-2.7416605305558273,-1.6422544838278985,-0.004848055399615815,0.005601231252723484,-0.44480662086899553
7479,1.0,300.75369,18302.173,0.0,-0.07479010983148904,0.0,0.0,0.0,0.0,-1.2044884920737589,-2.7266303838724677,-1.6322846094689485,-0.023488675431651774,-0.016961626315482186,-0.45002600385660857
7480,1.0,300.11264,18157.453,0.0,-0.07480010581890828,0.0,0.0,0.0,0.0,-1.1838387590107888,-2.7212215535136575,-1.6143520078741382,-0.018159698299972684,0.00919404517203161,-0.4566545238907926
7481,1.0,299.60987,18304.172,0.0,-0.07481010180632741,0.0,0.0,0.0,0.0,-1.184976638873089,-2.7295871489892773,-1.6494473436377786,0.0036995329662154763,0.02049331865828308,-0.4370770526136466
7482,1.0,299.98663,18331.453999999998,0.0,-0.07482013078380445,0.0,0.0,0.0,0.0,-1.1780617135656388,-2.7353771640357074,-1.6588655033172786,0.016388875550706086,0.03050307859416947,-0.4499384590479686
7483,1.0,299.74252,18101.192,0.0,-0.07483012677122369,0.0,0.0,0.0,0.0,-1.157919618802769,-2.7225558012453375,-1.6218350625126585,0.014834286452280089,-0.0066847391014073845,-0.4275973379905716
7484,1.0,300.07059,18111.94,0.0,-0.07484012275864305,0.0,0.0,0.0,0.0,-1.1869225856901389,-2.7303415136887272,-1.5883133041543185,0.006264108182094344,-0.008890992098297601,-0.44731283419633955
7485,1.0,299.99967999999996,18293.148999999998,0.0,-0.0748501187460624,0.0,0.0,0.0,0.0,-1.2028010253572188,-2.7296218021426975,-1.6282376885695484,0.00907341004692585,-0.00958498289848916,-0.4046108272819796
7486,1.0,299.92777,18432.229,0.0,-0.07486011473348164,0.0,0.0,0.0,0.0,-1.2228493944858387,-2.7419296497823873,-1.6381582176486285,-0.008896460203787262,-0.0012394020507694589,-0.4366987252913086
7487,1.0,300.08437999999995,18490.9,0.0,-0.074870110720901,0.0,0.0,0.0,0.0,-1.1980197007853388,-2.7414040769555177,-1.6813481044861383,-0.015643669618909985,-0.022822335821389178,-0.40987382055389665
7488,1.0,300.23079,18384.099,0.0,-0.07488010670832024,0.0,0.0,0.0,0.0,-1.172396226956499,-2.7442699535383572,-1.6716408645531085,-0.015289471834453386,0.009371601040055012,-0.44341391873904656
7489,1.0,300.36035,18289.259,0.0,-0.07489010269573959,0.0,0.0,0.0,0.0,-1.189718750666099,-2.7297038754007974,-1.6400553258108586,0.0018408078323485884,0.006975048629958703,-0.4260422017370916
7490,1.0,300.34982,18388.248,0.0,-0.07490013167321641,0.0,0.0,0.0,0.0,-1.2245128471750089,-2.7391573975087873,-1.6258979927636383,0.012304551537114688,0.008507674316567081,-0.44972497738439954
7491,1.0,300.41049,18401.541,0.0,-0.07491012766063554,0.0,0.0,0.0,0.0,-1.2251693319147987,-2.7433452614970975,-1.6250942827843184,0.014562931995999487,-0.025142662338387578,-0.43831695662851555
7492,1.0,300.58047,18170.67,0.0,-0.074920123648055,0.0,0.0,0.0,0.0,-1.1863762412362189,-2.7302614669308274,-1.6067921488780383,0.012166047341195387,0.004997340576599115,-0.4568253173276486
7493,1.0,299.94669,18114.046000000002,0.0,-0.07493011963547436,0.0,0.0,0.0,0.0,-1.135400135330269,-2.7370966494554074,-1.6337207901606885,0.026511409209472377,0.0038829579841181162,-0.44744206411409354
7494,1.0,299.50337,18329.703,0.0,-0.07494011562289349,0.0,0.0,0.0,0.0,-1.160129314620849,-2.7503591813393173,-1.6612833207058983,0.001062203556056329,0.008332438791272682,-0.4450144891270106
7495,1.0,300.17129,18546.652,0.0,-0.07495011161031295,0.0,0.0,0.0,0.0,-1.2125619675455488,-2.7560411839250873,-1.6691158453039083,0.005738367864982814,-0.023435216356375778,-0.4271149397504626
7496,1.0,299.81359,18505.186,0.0,-0.07496010759773208,0.0,0.0,0.0,0.0,-1.2167358486824789,-2.7665832406155073,-1.6417953802075882,-0.021462127608897083,-0.003960674266788116,-0.4317075059612136
7497,1.0,299.96449,18435.011000000002,0.0,-0.07497010358515155,0.0,0.0,0.0,0.0,-1.2104811571401888,-2.7499822523021176,-1.6433194096829984,0.0006731830811729973,0.0082715679941652,-0.4225102652010166
7498,1.0,300.32592999999997,18391.619,0.0,-0.07498013256262825,0.0,0.0,0.0,0.0,-1.2058465511827887,-2.7358860182359273,-1.6488601652048285,-0.006052139300924644,0.006082712197516954,-0.4377746246449916
7499,1.0,300.15989,18320.205,0.0,-0.07499012855004772,0.0,0.0,0.0,0.0,-1.1585741783673689,-2.7406588315069675,-1.6696520572568285,0.004736089946340685,-0.004351633170172756,-0.45112354623242756
7500,1.0,300.05415,18249.256999999998,0.0,-0.07500012453746685,0.0,0.0,0.0,0.0,-1.162773998706859,-2.7272529247339072,-1.6572914192869286,-0.004983350429818395,0.01860632577180138,-0.45709015050628554
7501,1.0,299.3941,18190.975,0.0,-0.07501012052488631,0.0,0.0,0.0,0.0,-1.196189973754759,-2.7100365896347873,-1.6233755066396884,0.013503031861395488,0.008860437845507132,-0.43276940219851456
7502,1.0,298.9871,18097.264,0.0,-0.07502011651230545,0.0,0.0,0.0,0.0,-1.174835930547279,-2.7298012487354075,-1.5964790867102183,-0.012396645838703688,-0.0037864775254962367,-0.45504442895188857
7503,1.0,299.74509,18295.233,0.0,-0.07503011249972491,0.0,0.0,0.0,0.0,-1.2116184290524288,-2.728361622993327,-1.6213139479862284,-0.008496203717485022,-0.026407975626014272,-0.43381890638709264
7504,1.0,299.79659,18556.308999999997,0.0,-0.07504010848714404,0.0,0.0,0.0,0.0,-1.2110179770431688,-2.751228752575137,-1.6784078553459585,-0.0022030507212741778,0.003165462922681867,-0.44216688144347355
7505,1.0,299.6996,18555.6,0.0,-0.0750501044745634,0.0,0.0,0.0,0.0,-1.1918619772776187,-2.7575742313263873,-1.6910028580639882,0.013995370084985486,0.0012103124509985387,-0.42545002798114856
7506,1.0,300.08164,18465.457,0.0,-0.07506010046198286,0.0,0.0,0.0,0.0,-1.1843828743144886,-2.7580137792197674,-1.6706410906794384,0.0003707968374622986,0.0038431443479388164,-0.42919348047559863
7507,1.0,300.2845,18500.477,0.0,-0.07507012943945968,0.0,0.0,0.0,0.0,-1.2208098233595488,-2.749627614767118,-1.6532455116376286,-0.0038942759877351163,-0.01010125034041579,-0.40807627434649263
7508,1.0,300.23852,18494.915,0.0,-0.07508012542687881,0.0,0.0,0.0,0.0,-1.2173839234464388,-2.7454547468802875,-1.6591535703207085,0.006760420575226564,0.021309953655878684,-0.42096242434825665
7509,1.0,299.66348999999997,18321.003,0.0,-0.07509012141429816,0.0,0.0,0.0,0.0,-1.196326458543229,-2.7401503826067874,-1.6326506967300785,-0.008790167937822032,0.010714468287685689,-0.4324977802442076
7510,1.0,299.47956,18228.772,0.0,-0.0751001174017174,0.0,0.0,0.0,0.0,-1.169051589701409,-2.7345158001256973,-1.6375242270610586,-0.013850505718188487,-0.007744179929741053,-0.4449883067444265
7511,1.0,300.03641,18185.082,0.0,-0.07511011338913676,0.0,0.0,0.0,0.0,-1.1299625286686188,-2.7427091430843173,-1.6551390734245086,-0.018557678621250285,-0.011688282693793687,-0.47068217105771354
7512,1.0,300.09308,18181.242,0.0,-0.07512010937655622,0.0,0.0,0.0,0.0,-1.176187403530659,-2.737867530131487,-1.6125886487251084,0.011341560668574889,0.01873332653933538,-0.46305782882524954
7513,1.0,299.39027999999996,18388.998,0.0,-0.07513010536397535,0.0,0.0,0.0,0.0,-1.202029030106029,-2.7408105150469373,-1.6469567748919784,0.022970392939251277,-0.006231503921701555,-0.4506991058980386
7514,1.0,299.46796,18517.039,0.0,-0.07514010135139482,0.0,0.0,0.0,0.0,-1.222692036745309,-2.7633333422447675,-1.6426922078710986,0.010318967389402791,-0.016141268637019184,-0.4316467008227126
7515,1.0,299.45562,18412.357,0.0,-0.07515013032887152,0.0,0.0,0.0,0.0,-1.195723878708759,-2.755405774787377,-1.6457672192745785,0.004797802450306235,-0.01959689832131328,-0.43538074022373363
7516,1.0,299.41579,18586.858,0.0,-0.07516012631629077,0.0,0.0,0.0,0.0,-1.2092743762710887,-2.7521172715878275,-1.6885490702968184,0.01948912498767688,0.006000996718027265,-0.4221544218983976
7517,1.0,299.87797,18777.486,0.0,-0.07517012230371012,0.0,0.0,0.0,0.0,-1.2076884372145689,-2.786110191242668,-1.7140882417173384,-0.005426944129522685,-0.002918274683936287,-0.4258967091552326
7518,1.0,300.00345,18547.172,0.0,-0.07518011829112936,0.0,0.0,0.0,0.0,-1.2158129804913989,-2.7532121896458874,-1.6688520963028786,-0.015505710551544484,-0.015646873515726186,-0.43631770272370457
7519,1.0,300.39738,18325.523,0.0,-0.07519011427854871,0.0,0.0,0.0,0.0,-1.2034692637981688,-2.7412523934155475,-1.6257797464769685,-0.028804439782026875,-0.01053605318357749,-0.4376329013535045
7520,1.0,299.7583,18326.497,0.0,-0.07520011026596807,0.0,0.0,0.0,0.0,-1.205387954187529,-2.733066649832677,-1.6323430739997185,0.0009117781788680001,0.02325706064429318,-0.43284994544896355
7521,1.0,300.10636,18295.714,0.0,-0.07521010625338731,0.0,0.0,0.0,0.0,-1.200462342801409,-2.7328389725352076,-1.6281387953597883,0.009138703174094782,0.02819608340873677,-0.4360775725825056
7522,1.0,299.91652,18312.741,0.0,-0.07522010224080666,0.0,0.0,0.0,0.0,-1.161188667600399,-2.7567355642186175,-1.6486917630382085,0.01017958369239669,0.007834762664830873,-0.46379530264553254
7523,1.0,300.40758,18474.65,0.0,-0.07523013121828348,0.0,0.0,0.0,0.0,-1.1907294676408489,-2.759008385517927,-1.6660945361557284,0.02041306925036308,-0.00810489200041556,-0.45916694844124956
7524,1.0,300.04438,18494.789,0.0,-0.07524012720570272,0.0,0.0,0.0,0.0,-1.2216593322433889,-2.7447117305819573,-1.6555828769683085,0.006247635268593594,-0.005171884660025276,-0.4527484548877936
7525,1.0,299.74653,18480.05,0.0,-0.07525012319312208,0.0,0.0,0.0,0.0,-1.2137948902672289,-2.7631623056278873,-1.6405166585813884,0.0005787269746609054,-0.015074126803950486,-0.44753283105805153
7526,1.0,299.34817000000004,18629.083,0.0,-0.07526011918054132,0.0,0.0,0.0,0.0,-1.235696088528709,-2.756172095838007,-1.6709078794307686,-0.02291377657666368,-0.022844834026609577,-0.4349557324692886
7527,1.0,299.82876,18543.589,0.0,-0.07527011516796067,0.0,0.0,0.0,0.0,-1.1996998721011591,-2.762007099188877,-1.6750811526176383,-0.004509211799224556,0.003681107418447017,-0.43156432358958263
7528,1.0,299.38669,18208.235,0.0,-0.07528011115538003,0.0,0.0,0.0,0.0,-1.132264227595779,-2.7586748235850074,-1.6439098305162685,-0.0033318501401530067,0.015128880812854285,-0.4350652850701006
7529,1.0,299.81327000000005,18252.359,0.0,-0.07529010714279927,0.0,0.0,0.0,0.0,-1.164149688367629,-2.7469851598313273,-1.6371265263968084,0.00946899433569198,0.016765903886415884,-0.4488164162847316
7530,1.0,300.18355,18371.143,0.0,-0.07530010313021862,0.0,0.0,0.0,0.0,-1.1962653595621988,-2.7529000072900773,-1.6352032763819986,0.006128755193986045,-0.001396799510703379,-0.4528535897181696
7531,1.0,300.59007,18307.224,0.0,-0.07531013210769544,0.0,0.0,0.0,0.0,-1.192727900813079,-2.7518758140889976,-1.6203351483896284,0.02207484298411738,0.005949337580228905,-0.45699592837948655
7532,1.0,300.34132,18437.828999999998,0.0,-0.07532012809511468,0.0,0.0,0.0,0.0,-1.2196843051484687,-2.7403379352002974,-1.6446174843861086,0.0070637563457384735,0.017126756697529284,-0.4265580980255066
7533,1.0,300.83018,18659.512,0.0,-0.07533012408253403,0.0,0.0,0.0,0.0,-1.211977119587829,-2.774460652192947,-1.6855878468795682,-0.008178958049600312,0.01015327769330049,-0.4364455546213226
7534,1.0,300.24259,18596.471999999998,0.0,-0.07534012006995316,0.0,0.0,0.0,0.0,-1.192653933555779,-2.7589919708663073,-1.7012172296720682,-0.019444457883518583,-0.01141779963259909,-0.44006046620808653
7535,1.0,300.53109,18730.901,0.0,-0.07535011605737274,0.0,0.0,0.0,0.0,-1.221201241873179,-2.7784666377883074,-1.6940584150655484,-0.00902548848477136,-0.006263492733983604,-0.44883770466933254
7536,1.0,299.2648,18793.487,0.0,-0.07536011204479198,0.0,0.0,0.0,0.0,-1.2697355163631385,-2.7689512060992074,-1.6740639508422483,0.01037909263708669,-0.016578754566445683,-0.4311899074126306
7537,1.0,299.86362,18407.01,0.0,-0.07537010803221122,0.0,0.0,0.0,0.0,-1.2097102764641088,-2.7471482930974274,-1.6384126447487384,0.003878375357890846,-0.016142153204356486,-0.42871034256291657
7538,1.0,299.76686,18160.76,0.0,-0.07538010401963058,0.0,0.0,0.0,0.0,-1.182714760674859,-2.7402464387162673,-1.5974563664316683,-0.007777473200201842,-0.015238300677903186,-0.4275807916164386
7539,1.0,299.93543999999997,18283.314,0.0,-0.0753901329971074,0.0,0.0,0.0,0.0,-1.1564355113812987,-2.7369866104945477,-1.6642486984485585,0.006988756890561602,0.01010020324776245,-0.42641840123421965
7540,1.0,299.06113999999997,18404.848,0.0,-0.07540012898452653,0.0,0.0,0.0,0.0,-1.166270116851899,-2.7593833893799373,-1.6689605140635784,0.008198568188060681,0.016554313960783586,-0.44164186590415855
7541,1.0,299.91796,18446.034,0.0,-0.07541012497194599,0.0,0.0,0.0,0.0,-1.178749609058529,-2.7670731470388574,-1.6613108811086186,-0.006779902638874294,-0.004922160458929415,-0.4554519581421086
7542,1.0,300.39892000000003,18526.27,0.0,-0.07542012095936534,0.0,0.0,0.0,0.0,-1.2189866824546187,-2.7641743398277674,-1.6483623554306983,-0.0025799451053207575,-0.028622075029028873,-0.46086120393345953
7543,1.0,300.84884,18545.481,0.0,-0.0754301169467847,0.0,0.0,0.0,0.0,-1.2098839475312488,-2.771198493495997,-1.6562808036371883,-0.012468720344816888,0.0025495366592196774,-0.4530103395086396
7544,1.0,300.40713999999997,18524.316000000003,0.0,-0.07544011293420394,0.0,0.0,0.0,0.0,-1.220132566992709,-2.7557019477916076,-1.6550949970451585,0.018393581754305183,0.006660268706192344,-0.42443778099874757
7545,1.0,300.39952999999997,18642.061999999998,0.0,-0.07545010892162307,0.0,0.0,0.0,0.0,-1.1861858515424288,-2.7788439721255473,-1.7016914307188682,-0.00999888573581319,0.013269770542624387,-0.44525124514537656
7546,1.0,299.78092999999996,18541.668,0.0,-0.07546010490904254,0.0,0.0,0.0,0.0,-1.1919668486629686,-2.7607880579935675,-1.6834492812185087,-0.0035492398080326963,0.013277234142860988,-0.42104627079403156
7547,1.0,299.48992000000004,18286.498,0.0,-0.07547010089646167,0.0,0.0,0.0,0.0,-1.1763999834016388,-2.7532261724972678,-1.6290127235710383,-0.015673796584133287,0.0034430382279514167,-0.4533832256779406
7548,1.0,299.47159,18380.251,0.0,-0.07548012987393848,0.0,0.0,0.0,0.0,-1.219169574097669,-2.752382236488977,-1.6155856398708885,0.0095698595327966,-0.012779667548754987,-0.4311314935443656
7549,1.0,299.57918,18641.82,0.0,-0.07549012586135784,0.0,0.0,0.0,0.0,-1.2439953161227788,-2.7684944329541272,-1.6541579433526785,-0.015068885261183187,-0.02761771619865637,-0.44693962378700663
7550,1.0,300.14473,18615.777,0.0,-0.0755001218487773,0.0,0.0,0.0,0.0,-1.2392685044062788,-2.769988064926537,-1.6494750053655085,0.0017365802661121284,-0.025604318335699476,-0.4238638052146006
7551,1.0,300.06516,18475.375,0.0,-0.07551011783619666,0.0,0.0,0.0,0.0,-1.1683405921062389,-2.7571730856117975,-1.6905389921682084,-0.008096638267750983,0.021573595252398083,-0.45129051971640655
7552,1.0,299.51527000000004,18593.384,0.0,-0.0755201138236159,0.0,0.0,0.0,0.0,-1.2145673921434688,-2.7549692666442973,-1.6823879017387584,0.005500581573915135,0.025843229537028178,-0.4280612342838546
7553,1.0,300.2898,18721.088,0.0,-0.07553010981103503,0.0,0.0,0.0,0.0,-1.2324931036375988,-2.7735051573486476,-1.6847450254463883,-0.004832912174221295,0.025602096278230176,-0.4458523355021996
7554,1.0,300.58935,18699.091,0.0,-0.07554010579845438,0.0,0.0,0.0,0.0,-1.2426517464901787,-2.7863537765667075,-1.6550511233158285,-0.009105295710347721,-0.004446976458207406,-0.4483214436108816
7555,1.0,300.24962999999997,18583.822,0.0,-0.07555010178587385,0.0,0.0,0.0,0.0,-1.2326775151557987,-2.7697125622243477,-1.6466278739095184,-0.010181069117043291,0.007298052598161713,-0.44421580486818657
7556,1.0,300.39257000000003,18426.03,0.0,-0.07556013076335044,0.0,0.0,0.0,0.0,-1.1940567783192289,-2.7583453146524874,-1.6486510303841884,-0.002798468600062347,-0.014829964940603587,-0.4263637971863306
7557,1.0,300.28,18413.009,0.0,-0.0755701267507698,0.0,0.0,0.0,0.0,-1.1486384505367888,-2.778169552858987,-1.6702870610944984,0.00017375154959544282,-0.01761054207702518,-0.4596142983603996
7558,1.0,300.61542000000003,18584.835,0.0,-0.07558012273818915,0.0,0.0,0.0,0.0,-1.191484845590399,-2.781040394367318,-1.6768006380373384,0.003294939161535177,-0.01995214887262378,-0.4448301080063136
7559,1.0,300.04843999999997,18539.205,0.0,-0.07559011872560861,0.0,0.0,0.0,0.0,-1.2086565976851187,-2.782000144862037,-1.6447986535039885,0.02446211898822318,0.009585622461952282,-0.46088817665112153
7560,1.0,300.14935,18415.111,0.0,-0.07560011471302774,0.0,0.0,0.0,0.0,-1.2011109241904188,-2.772644502713707,-1.6239783904491885,0.016782689387572484,0.00978759542823546,-0.4498347123702296
7561,1.0,300.4648,18495.218999999997,0.0,-0.07561011070044699,0.0,0.0,0.0,0.0,-1.2237692229266188,-2.7752455157204077,-1.6230701130595484,0.0026519546621025475,-0.0017485118939896882,-0.4470433704647455
7562,1.0,300.46772999999996,18677.764,0.0,-0.07562010668786634,0.0,0.0,0.0,0.0,-1.2198031593851988,-2.7838734416469175,-1.6738971698757883,-0.005083125572465435,-0.01163793328307459,-0.4225048645779836
7563,1.0,299.66053999999997,18685.18,0.0,-0.0756301026752858,0.0,0.0,0.0,0.0,-1.186216958320499,-2.789013862054237,-1.7045972293556482,-0.01934313186026848,0.015226867163774785,-0.4380519815948646
7564,1.0,300.0006,18626.352,0.0,-0.07564013165276251,0.0,0.0,0.0,0.0,-1.2054813758467489,-2.7775272536205975,-1.6789373798482183,-0.02109750348091148,-0.0005524757923951154,-0.42230599398085655
7565,1.0,299.78123999999997,18627.855,0.0,-0.07565012764018197,0.0,0.0,0.0,0.0,-1.2078536983058787,-2.777028126621337,-1.6775210588584382,-0.007930241829703933,-0.003650524389353707,-0.4339598900060066
7566,1.0,300.08036,18579.574,0.0,-0.0756601236276011,0.0,0.0,0.0,0.0,-1.2368171484393489,-2.7631086033725873,-1.6478007109002684,-0.005103756763051575,-0.011656000545607689,-0.4411237809955276
7567,1.0,299.52895,18462.756999999998,0.0,-0.07567011961502057,0.0,0.0,0.0,0.0,-1.208548281249429,-2.7587497027673975,-1.6449192302658884,0.02128555965972118,0.0035487522320845773,-0.43565382125818464
7568,1.0,299.39226,18429.835,0.0,-0.0756801156024397,0.0,0.0,0.0,0.0,-1.193494931138779,-2.7497801089071676,-1.6589345056490883,0.004631035365372606,-0.0026533362286138974,-0.42492763675959266
7569,1.0,300.20274,18500.873,0.0,-0.07569011158985894,0.0,0.0,0.0,0.0,-1.1701713323869187,-2.7648506842695175,-1.6887812058947285,0.000916645842480901,0.004388525201013716,-0.4417423701815776
7570,1.0,300.33832,18549.385,0.0,-0.0757001075772783,0.0,0.0,0.0,0.0,-1.2092657636452389,-2.7757004650153076,-1.6535836331959985,-0.01964694375700238,-0.008814206587169462,-0.4525850277791646
7571,1.0,300.34225,18734.959,0.0,-0.07571010356469765,0.0,0.0,0.0,0.0,-1.2256242812096987,-2.793780595824677,-1.6755547457143787,-0.01068748746402289,-0.002328659485820798,-0.4440029311546776
7572,1.0,300.79753999999997,18795.543999999998,0.0,-0.07572013254217447,0.0,0.0,0.0,0.0,-1.2674046358330988,-2.7979381636349974,-1.6480331504732086,-0.018390911840291683,-0.004591987847593916,-0.4442358976176696
7573,1.0,300.29894,18624.982,0.0,-0.07573012852959382,0.0,0.0,0.0,0.0,-1.219959706525649,-2.789183074820937,-1.6523866808528684,-0.01068699198472399,-0.009819556274814751,-0.44220388533712557
7574,1.0,299.90185,18582.506999999998,0.0,-0.07574012451701306,0.0,0.0,0.0,0.0,-1.186535828126969,-2.7841677908009674,-1.6779145038722683,0.016249121004163383,0.0012732149158815288,-0.44512899652081156
7575,1.0,299.65654,18572.328,0.0,-0.07575012050443242,0.0,0.0,0.0,0.0,-1.170048425149789,-2.7806157412504073,-1.6948597945696384,0.027562891262245575,0.011739794302377489,-0.44600203307197356
7576,1.0,299.42497000000003,18366.666,0.0,-0.07576011649185166,0.0,0.0,0.0,0.0,-1.179585945691069,-2.7582708407701375,-1.6451508592387485,0.024532884375207176,0.015431622717482585,-0.46199890141074157
7577,1.0,299.64423999999997,18371.892,0.0,-0.0757701124792709,0.0,0.0,0.0,0.0,-1.175661526728759,-2.7643649321715773,-1.6445700642814285,0.0006508910115529415,-0.013587894597020787,-0.45934344647616854
7578,1.0,300.58207999999996,18567.713,0.0,-0.07578010846669048,0.0,0.0,0.0,0.0,-1.239383305642609,-2.763030481789877,-1.6417074300989085,-0.0015768217307951884,-0.0025946303416700778,-0.45046738573266953
7579,1.0,299.92105,18655.313000000002,0.0,-0.07579010445410961,0.0,0.0,0.0,0.0,-1.2137660126393788,-2.786048990936627,-1.6709343252583784,-0.015727876781720586,-0.004209784944948426,-0.4339302828380846
7580,1.0,300.21785,18787.601000000002,0.0,-0.07580013343158643,0.0,0.0,0.0,0.0,-1.2039037454410488,-2.8066700490217675,-1.7003878844652185,-0.0021800161014508376,-0.005877798678118564,-0.4266568595127536
7581,1.0,300.62719,18994.624,0.0,-0.07581012941900578,0.0,0.0,0.0,0.0,-1.2413348253352088,-2.8069848658278373,-1.7255716077506587,-0.022512186045279776,-0.005759127839656665,-0.4193146973006386
7582,1.0,300.6226,18856.887,0.0,-0.07582012540642502,0.0,0.0,0.0,0.0,-1.2450461578014889,-2.8027337750332872,-1.684242960021838,-0.0013196476083390787,0.013030375007747886,-0.4433596693286926
7583,1.0,299.97907999999995,18637.642,0.0,-0.07583012139384437,0.0,0.0,0.0,0.0,-1.232406774729079,-2.7832862632139674,-1.6496848494612184,0.01007974704546858,0.013464709729363386,-0.4397413126915886
7584,1.0,300.79435,18586.759,0.0,-0.07584011738126362,0.0,0.0,0.0,0.0,-1.240362307889229,-2.7715817046838174,-1.6379665107297086,0.011947186332845488,0.016970829666140483,-0.42921476886019966
7585,1.0,299.73747000000003,18458.278000000002,0.0,-0.07585011336868297,0.0,0.0,0.0,0.0,-1.1939033722540888,-2.7646692111766074,-1.6522831266926483,0.001069989471149739,-0.0006053252964109554,-0.4342970793742846
7586,1.0,299.0884,18365.903000000002,0.0,-0.07586010935610232,0.0,0.0,0.0,0.0,-1.1592578182098388,-2.756126803558537,-1.6673911923086984,-0.005043481554352876,0.01077028722244459,-0.4469333315038856
7587,1.0,299.83324,18618.245,0.0,-0.07587010534352157,0.0,0.0,0.0,0.0,-1.1950659754188289,-2.7738809718107373,-1.6905345338677682,-0.008418205751287221,-0.006871184820508144,-0.4460121047779676
7588,1.0,300.03317000000004,18779.111,0.0,-0.07588010133094092,0.0,0.0,0.0,0.0,-1.2112864883196688,-2.8091624416177474,-1.6879320009859184,0.0007662379539892983,-0.019296154545882183,-0.4595245547990426
7589,1.0,300.31876,18787.73,0.0,-0.07589013030841774,0.0,0.0,0.0,0.0,-1.2320819267470187,-2.8096988562206873,-1.6692200074141883,0.006304068536888124,-0.02202905421209838,-0.4552730181744486
7590,1.0,300.38869,18828.054,0.0,-0.07590012629583698,0.0,0.0,0.0,0.0,-1.2544773884072788,-2.8083033068579577,-1.6604774829013682,0.012280648967255689,0.0034209190795934266,-0.4396545582180266
7591,1.0,299.17151,18723.911,0.0,-0.07591012228325633,0.0,0.0,0.0,0.0,-1.2191064486164387,-2.7910175641269874,-1.6814773951988984,0.02009765867973448,0.01032391407639099,-0.4413668900920206
7592,1.0,299.59665,18588.438000000002,0.0,-0.07592011827067546,0.0,0.0,0.0,0.0,-1.1811706688474688,-2.7926697697400473,-1.6765803574655986,-0.007676187605630732,0.016576310607204485,-0.43113579985729056
7593,1.0,299.72531000000004,18506.926,0.0,-0.07593011425809493,0.0,0.0,0.0,0.0,-1.1744285026820689,-2.7874455535494573,-1.6637693298262484,-0.005179386662440665,-0.0037933060205701565,-0.4449280284959775
7594,1.0,299.32804,18552.482,0.0,-0.07594011024551428,0.0,0.0,0.0,0.0,-1.2079105416364888,-2.7868886712944976,-1.6446919582684585,-0.028748782967283976,0.0013376522520159987,-0.46086552037888556
7595,1.0,299.97065,18580.677,0.0,-0.07595010623293352,0.0,0.0,0.0,0.0,-1.2257387784709988,-2.7748072850521575,-1.6475158862971584,-0.013104642187077489,-0.009140910944737672,-0.46350008209639654
7596,1.0,300.42446,18637.011000000002,0.0,-0.07596010222035288,0.0,0.0,0.0,0.0,-1.2424697667722189,-2.7745783918545674,-1.6481379205335485,-0.0072217861750598035,-0.02076997038608648,-0.45245066068340356
7597,1.0,299.93065,18794.696,0.0,-0.0759701311978297,0.0,0.0,0.0,0.0,-1.2019357097718188,-2.7936146254582974,-1.7175680465357686,0.01078062642646499,-0.012721377297002187,-0.4368727104659796
7598,1.0,300.55232,18933.346999999998,0.0,-0.07598012718524882,0.0,0.0,0.0,0.0,-1.223321771682459,-2.8056444372705474,-1.7262986146974086,0.01866205452730138,0.011743255564719089,-0.43575014081269065
7599,1.0,299.92714,18901.248,0.0,-0.07599012317266829,0.0,0.0,0.0,0.0,-1.2205553962594389,-2.802200197530627,-1.7227518340473684,0.022893489283161476,0.0015949023682296083,-0.4299643003566726
7600,1.0,299.78974,18848.976000000002,0.0,-0.07600011916008764,0.0,0.0,0.0,0.0,-1.259195384847909,-2.7936373222605373,-1.6767852366358182,-0.0034167926185611763,-0.001016257324971789,-0.4432767449405086
7601,1.0,301.0078,18711.59,0.0,-0.07601011514750688,0.0,0.0,0.0,0.0,-1.253276484388759,-2.781942490931347,-1.6526371562775883,-0.007504509702762442,-0.01132948475388309,-0.4303430025815476
7602,1.0,300.15377,18559.297,0.0,-0.07602011113492624,0.0,0.0,0.0,0.0,-1.2356082397450388,-2.774389522035927,-1.6315652018979485,-0.007700883043692984,-0.005062170648472345,-0.44766093626819453
7603,1.0,299.61253,18701.474,0.0,-0.07603010712234537,0.0,0.0,0.0,0.0,-1.1976136914702689,-2.7910236436275873,-1.6961435824463382,-0.010785584259204289,0.0070635418406923035,-0.43570888126861856
7604,1.0,299.79751,18730.387,0.0,-0.07604010310976483,0.0,0.0,0.0,0.0,-1.1912832088204988,-2.7958931209581674,-1.7063937217829481,-0.01048844968062939,0.013166886140720487,-0.45586766426063563
7605,1.0,299.65546,18548.75,0.0,-0.07605013208724165,0.0,0.0,0.0,0.0,-1.1685979576316388,-2.7861036051170176,-1.6836551736388286,0.007419631160435582,-0.004443720581661076,-0.4489442580498486
7606,1.0,299.4281,18582.921000000002,0.0,-0.07606012807466078,0.0,0.0,0.0,0.0,-1.1938046816943488,-2.8057768690586173,-1.6491623163846485,0.022499009740979375,0.013001696990167589,-0.47923582575189355
7607,1.0,300.01287,18816.28,0.0,-0.07607012406208014,0.0,0.0,0.0,0.0,-1.2586191495160388,-2.7916741501917874,-1.6693859777805684,0.018443751819756583,-7.125349691492264e-05,-0.45120476836044354
7608,1.0,299.32698999999997,18752.685,0.0,-0.0760801200494996,0.0,0.0,0.0,0.0,-1.2392513804795886,-2.7948241421026676,-1.6662723615482786,-0.0012760349935598489,-0.0013249769998900489,-0.46321770955852853
7609,1.0,300.15801,18724.409,0.0,-0.07609011603691873,0.0,0.0,0.0,0.0,-1.185840738558369,-2.7991807122326273,-1.7067314380412784,-0.021907119695064377,-0.017424210449885683,-0.4295399714797946
7610,1.0,300.5076,18671.271,0.0,-0.0761001120243382,0.0,0.0,0.0,0.0,-1.1982989525128989,-2.7752414627200075,-1.7020597471302186,-0.013541839340225487,0.0038263929933105866,-0.4437639155885886
7611,1.0,300.5105,18645.686,0.0,-0.07611010801175733,0.0,0.0,0.0,0.0,-1.199417580623299,-2.7826038392716175,-1.6858016426506683,-0.024512606200955876,-0.011501214433831489,-0.43347092590524955
7612,1.0,300.28784,18737.433,0.0,-0.07612010399917679,0.0,0.0,0.0,0.0,-1.2386834537985387,-2.7935088421478573,-1.6635195636765985,-0.01896951513764538,-0.013479553843328386,-0.4533422903739005
7613,1.0,300.04955,18870.486,0.0,-0.0761301329766535,0.0,0.0,0.0,0.0,-1.2666165299053187,-2.8010916005962176,-1.6684483161380284,-0.008908169625917893,-0.02132275607089218,-0.44439638630100864
7614,1.0,299.90651,18786.316000000003,0.0,-0.07614012896407274,0.0,0.0,0.0,0.0,-1.2330047949380987,-2.813047749126197,-1.6645183243001684,0.013983467436060786,0.022194553417181878,-0.4586584691435666
7615,1.0,299.76478,18766.168,0.0,-0.07615012495149209,0.0,0.0,0.0,0.0,-1.207356395156799,-2.806002925155927,-1.6910871604723083,0.014291366783698087,0.014205238498697885,-0.43251219879313063
7616,1.0,300.0268,18923.806,0.0,-0.07616012093891156,0.0,0.0,0.0,0.0,-1.2307372425393088,-2.8120311553008674,-1.7095962000490086,-0.00036795667716699664,0.019159622134657484,-0.42626178316626256
7617,1.0,299.9109,18876.772,0.0,-0.07617011692633069,0.0,0.0,0.0,0.0,-1.217459106603859,-2.8087963543566175,-1.7118118740426784,-0.02084620732361048,0.005487681684242015,-0.43118328075697654
7618,1.0,299.92893,18697.984,0.0,-0.07618011291375004,0.0,0.0,0.0,0.0,-1.210635069830379,-2.796933323510827,-1.6761518539983087,-0.01200402257070479,-0.0013048824265568686,-0.44642831752154455
7619,1.0,299.92793,18847.711,0.0,-0.07619010890116928,0.0,0.0,0.0,0.0,-1.2373025965622588,-2.813515161397327,-1.6784156573717284,0.0014540292949015185,-0.018396141224057784,-0.45500373682787254
7620,1.0,300.9064,18914.845,0.0,-0.07620010488858864,0.0,0.0,0.0,0.0,-1.238771302582209,-2.8055361208348573,-1.7053332542282882,0.017052261536927182,-0.02140814265681918,-0.44456205269235854
7621,1.0,300.68946,18672.474,0.0,-0.07621013386606545,0.0,0.0,0.0,0.0,-1.1919850871647688,-2.806523735707327,-1.6774569201271083,0.018480546983887982,-0.01127660424441419,-0.4593932578510846
7622,1.0,300.58384,18612.168999999998,0.0,-0.0762201298534847,0.0,0.0,0.0,0.0,-1.1921660536326288,-2.8061044528159473,-1.6593641236914884,0.020056187366391583,0.0046210090529830855,-0.45316034105344355
7623,1.0,299.69802000000004,18653.958,0.0,-0.07623012584090427,0.0,0.0,0.0,0.0,-1.2007201136268488,-2.7920589825797677,-1.6775583464621184,0.010467276806539791,-0.01016956974165839,-0.45251132396689053
7624,1.0,299.71022999999997,18681.506,0.0,-0.0762401218283234,0.0,0.0,0.0,0.0,-1.222233135775019,-2.8066355985183677,-1.6498426125017882,-0.004667367980833356,-0.004521894549401246,-0.46132610334434154
7625,1.0,300.34644,18718.84,0.0,-0.07625011781574265,0.0,0.0,0.0,0.0,-1.2255761518299488,-2.7987962851446873,-1.6656875135905584,-0.015276404961163786,-0.0018421888922348882,-0.4679467504252486
7626,1.0,299.6241,18823.699,0.0,-0.076260113803162,0.0,0.0,0.0,0.0,-1.215301897140959,-2.815477826841027,-1.6911547442539785,-0.01849231081754898,0.004941682748606116,-0.44837195412836656
7627,1.0,299.68497,18764.736,0.0,-0.07627010979058124,0.0,0.0,0.0,0.0,-1.213187446832279,-2.792353534383837,-1.6984702073259585,-0.025204755317765677,0.004154549642247126,-0.43637792017714755
7628,1.0,299.81649,18807.181,0.0,-0.0762801057780006,0.0,0.0,0.0,0.0,-1.2291275934304489,-2.7916601673404076,-1.6961256479195683,-0.004530857658460836,-0.0010878993759423088,-0.43161714431729553
7629,1.0,300.08428,18851.992,0.0,-0.07629013475547741,0.0,0.0,0.0,0.0,-1.2298369698254588,-2.7922463325232574,-1.7084515314110382,0.017474333905832484,-0.0004648331341929586,-0.4362331571353606
7630,1.0,300.31109,18819.53,0.0,-0.07630013074289677,0.0,0.0,0.0,0.0,-1.246078862303409,-2.792252614673877,-1.6823359220086285,0.02902692923898487,0.013732070966999887,-0.43240783403283056
7631,1.0,300.84528,18831.166,0.0,-0.07631012673031612,0.0,0.0,0.0,0.0,-1.2187854509847589,-2.809993205374737,-1.6954255934254783,0.025001838812989376,-0.01074686391988289,-0.4502107193498386
7632,1.0,300.11011,18903.287,0.0,-0.07632012271773536,0.0,0.0,0.0,0.0,-1.2330894013214488,-2.8215291590882474,-1.6915086725139084,0.0035182949473286764,-0.012243468768086288,-0.44893824947675554
7633,1.0,300.8403,18927.453999999998,0.0,-0.0763301187051546,0.0,0.0,0.0,0.0,-1.2429593692205387,-2.8133426049052974,-1.6971714233477786,-0.006332269516321343,0.00916552451219184,-0.4433166669944486
7634,1.0,300.84541,18759.201,0.0,-0.07634011469257396,0.0,0.0,0.0,0.0,-1.2324028230536888,-2.809124242088977,-1.6608015202833484,-0.02237648348588698,0.013362796021055287,-0.4471561755983786
7635,1.0,300.04436,18725.7,0.0,-0.0763501106799932,0.0,0.0,0.0,0.0,-1.1989314232253188,-2.8118376245317678,-1.6813759688638883,-0.03325096220286447,0.008519683660727312,-0.4492653266090355
7636,1.0,299.90611,18858.553,0.0,-0.07636010666741277,0.0,0.0,0.0,0.0,-1.2326385050269488,-2.8018728164233178,-1.6980177911563086,-0.026278154983451974,-0.0025188109645122875,-0.44351984390450055
7637,1.0,299.92859,18828.191000000003,0.0,-0.0763701026548319,0.0,0.0,0.0,0.0,-1.190423770085679,-2.825586820438707,-1.7072893335463382,0.02020842414091618,0.01044234274807899,-0.4533931251314176
7638,1.0,300.17107999999996,18722.77,0.0,-0.07638013163230872,0.0,0.0,0.0,0.0,-1.1951004259222289,-2.800790969291547,-1.6953632785443284,0.029592354205537973,0.012655078316458988,-0.45473439468629057
7639,1.0,300.11526000000003,18695.764,0.0,-0.07639012761972808,0.0,0.0,0.0,0.0,-1.2012913840332289,-2.8047376797560575,-1.6770162576586185,0.01952818375253168,0.0037507905529992063,-0.44189653618429253
7640,1.0,300.15336,18709.946,0.0,-0.07640012360714732,0.0,0.0,0.0,0.0,-1.2153856929242288,-2.811777640125847,-1.6601930635982987,-0.010666185907170592,-0.018500911284397785,-0.47509917142363756
7641,1.0,300.40938,18896.564,0.0,-0.07641011959456645,0.0,0.0,0.0,0.0,-1.2370092606583087,-2.8255303824081373,-1.6815439657304683,-0.016695307712198588,-0.006542189808438865,-0.4515526779147796
7642,1.0,300.46207999999996,18996.635,0.0,-0.07642011558198591,0.0,0.0,0.0,0.0,-1.2536233198979887,-2.8330094853712673,-1.6878698887547883,-0.008267215274385623,0.0009082383389811451,-0.45676096581379755
7643,1.0,300.48816,18860.661,0.0,-0.07643011156940527,0.0,0.0,0.0,0.0,-1.2119095358061591,-2.8160719966996672,-1.7051885621140086,-0.017713601771196383,-0.006499361449237033,-0.4378636386662766
7644,1.0,300.63072999999997,18771.323,0.0,-0.07644010755682462,0.0,0.0,0.0,0.0,-1.2070257716491688,-2.811990219996827,-1.6869974804186882,0.003003634216085617,-0.0008124508927651602,-0.45097323058009253
7645,1.0,300.08929,18905.605,0.0,-0.07645010354424386,0.0,0.0,0.0,0.0,-1.2323951223529288,-2.8212568987863773,-1.6931798259038382,0.009391833212751772,0.013713656159682489,-0.4314850367692576
7646,1.0,299.55158,18984.104,0.0,-0.07646013252172068,0.0,0.0,0.0,0.0,-1.2659818300426788,-2.8016936738056373,-1.7030180790747984,0.027354999699478272,0.022521654867464276,-0.4335324605838226
7647,1.0,299.91106,18874.746,0.0,-0.07647012850914003,0.0,0.0,0.0,0.0,-1.232486314861929,-2.8244826818047373,-1.6804826875757284,0.001246578698577739,-0.008641635301688001,-0.44956593764870356
7648,1.0,299.91289,18745.259,0.0,-0.07648012449655928,0.0,0.0,0.0,0.0,-1.218179426099949,-2.8069433225737375,-1.6729679182090784,-0.005900476836556724,-0.022225006648937378,-0.4532832888205775
7649,1.0,299.69863,18798.506999999998,0.0,-0.07649012048397841,0.0,0.0,0.0,0.0,-1.1933891478283387,-2.8099629091967473,-1.7109246722551184,-0.012150750304435687,0.002098097667966118,-0.4507584823538986
7650,1.0,299.56709,18846.674,0.0,-0.07650011647139787,0.0,0.0,0.0,0.0,-1.214827594769149,-2.8254324011234675,-1.6886582986575982,-0.009062962627794772,-0.0057355526509049745,-0.4399385722210566
7651,1.0,299.79443,18932.521,0.0,-0.07651011245881723,0.0,0.0,0.0,0.0,-1.2354213964265988,-2.819857093773227,-1.6997351487507986,0.004536719918239396,-0.013552065060234687,-0.4417248105573445
7652,1.0,300.17232,18981.508,0.0,-0.07652010844623658,0.0,0.0,0.0,0.0,-1.2482328293659886,-2.8318538736322174,-1.6898177607470286,0.0008294649831443202,-0.01847114503621008,-0.44204675051161757
7653,1.0,301.00009,18885.654,0.0,-0.07653010443365582,0.0,0.0,0.0,0.0,-1.2386356283938187,-2.8364872636894973,-1.6656442478112885,0.01951302553103568,0.015040820259913386,-0.4725053524926475
7654,1.0,300.80334,18837.817,0.0,-0.07654013341113264,0.0,0.0,0.0,0.0,-1.2275026442450787,-2.8081082562137074,-1.6906150872507184,0.008916185852759032,0.005225552160846845,-0.4481143352904416
7655,1.0,300.28802,19031.406000000003,0.0,-0.07655012939855199,0.0,0.0,0.0,0.0,-1.218557469712259,-2.8472151504482572,-1.7192997922816786,-0.001980817819241498,0.005058567024491696,-0.4656629150973516
7656,1.0,300.50651,18950.21,0.0,-0.07656012538597112,0.0,0.0,0.0,0.0,-1.2246005946336689,-2.822546867488687,-1.7132430898089284,-0.0035470027544619166,-0.0013521292654697687,-0.4439162476086225
7657,1.0,300.13766,18649.451,0.0,-0.07657012137339037,0.0,0.0,0.0,0.0,-1.1946866145813888,-2.8098643199620175,-1.6644164926651184,-0.018409845431660285,0.01999527988963048,-0.4618301952690916
7658,1.0,299.19743,18761.692,0.0,-0.07658011736080972,0.0,0.0,0.0,0.0,-1.220165497620959,-2.8210198995879874,-1.6619005926668184,-0.011830210661800889,0.0006242813515342725,-0.4460470213764136
7659,1.0,299.58173999999997,18932.381999999998,0.0,-0.07659011334822918,0.0,0.0,0.0,0.0,-1.2517361415867387,-2.815203844013987,-1.6880314008207284,-0.03135490174123787,-0.014218376299494488,-0.46393408751172954
7660,1.0,299.65045,18959.311999999998,0.0,-0.07660010933564854,0.0,0.0,0.0,0.0,-1.2347916614894487,-2.8373091108456077,-1.6910566616442984,0.02157525596931198,-0.0031766557899115173,-0.4623189668523296
7661,1.0,299.97629,18910.073,0.0,-0.07661010532306778,0.0,0.0,0.0,0.0,-1.2142665581887788,-2.8192127680346375,-1.7147104786037484,0.030652133763380073,0.008955086449273222,-0.4545361827017285
7662,1.0,299.42557,18901.996,0.0,-0.07662013430054448,0.0,0.0,0.0,0.0,-1.2254170715642487,-2.8024131827016476,-1.7179046482189881,0.03122060253323357,0.012673756568802387,-0.41155030363935263
7663,1.0,299.92183,18924.192,0.0,-0.07663013028796395,0.0,0.0,0.0,0.0,-1.2323582400492887,-2.828871067987837,-1.6912524215636184,-0.005044220517650805,-0.004421105650029155,-0.4364370230554806
7664,1.0,300.33819,19140.795,0.0,-0.07664012627538308,0.0,0.0,0.0,0.0,-1.2799799814991888,-2.821948543304637,-1.7163951082200084,-0.01878085100877568,-0.01844291386192388,-0.4191902600558576
7665,1.0,300.80147,19123.168,0.0,-0.07665012226280232,0.0,0.0,0.0,0.0,-1.2781686956204288,-2.8270836948114373,-1.7077131760631683,-0.0043059819975173365,0.009457422715574952,-0.4491263492253196
7666,1.0,300.43708,18857.537,0.0,-0.0766601182502219,0.0,0.0,0.0,0.0,-1.2223800570395187,-2.826602806313977,-1.6832374106225982,-0.017240701737524785,-0.0069937158378760135,-0.45335274711493256
7667,1.0,300.25347999999997,18802.492,0.0,-0.07667011423764103,0.0,0.0,0.0,0.0,-1.1922018213611592,-2.8172797908188674,-1.7060066602447481,-0.006837269313160943,0.005351899483391355,-0.47150563941398355
7668,1.0,299.83428,18948.627,0.0,-0.0766801102250605,0.0,0.0,0.0,0.0,-1.2158884676238488,-2.837203428860177,-1.7068176656247882,-0.006391198419612175,0.001261706826545769,-0.4544743339156246
7669,1.0,300.32045,18870.577,0.0,-0.07669010621247963,0.0,0.0,0.0,0.0,-1.207121929083659,-2.8293535776854575,-1.6997087029231883,0.02136321717388538,0.02115328492541668,-0.4616282747891636
7670,1.0,300.06342,18720.348,0.0,-0.07670013518995644,0.0,0.0,0.0,0.0,-1.220245037753809,-2.805258490307457,-1.6650149181741785,0.003466863182852757,-0.008118595802718022,-0.4379314656279706
7671,1.0,300.01249,18926.796000000002,0.0,-0.0767101311773758,0.0,0.0,0.0,0.0,-1.238198512300679,-2.8436069668421573,-1.6714678014360282,-0.00899025423241901,-0.0025448297072051375,-0.46722840676685357
7672,1.0,299.879,19015.761000000002,0.0,-0.07672012716479504,0.0,0.0,0.0,0.0,-1.2428196420317488,-2.826061224135527,-1.7114355529555383,-0.0068483876051832334,-0.018828417021470083,-0.4552891693810426
7673,1.0,300.16539,19020.619,0.0,-0.07673012315221439,0.0,0.0,0.0,0.0,-1.2133643602997386,-2.858176692680077,-1.7102520768387384,-0.006473727133632124,0.005001979032906895,-0.46052977995825056
7674,1.0,299.70342999999997,19103.931,0.0,-0.07674011913963386,0.0,0.0,0.0,0.0,-1.235167577276549,-2.8431275982198474,-1.7288228233465286,0.008059994077884481,-0.0010614888094357888,-0.4446269716262655
7675,1.0,299.89005,18986.342,0.0,-0.07675011512705299,0.0,0.0,0.0,0.0,-1.2432759085517788,-2.8230506554384074,-1.7050473150500682,-0.002103109608260758,0.001989776571325658,-0.4386933790406656
7676,1.0,299.6873,18824.838,0.0,-0.07676011111447234,0.0,0.0,0.0,0.0,-1.2309997756402187,-2.8260215047316075,-1.6652595167483182,0.002510115860104148,0.002859402320001037,-0.45560115921933353
7677,1.0,299.81877000000003,18961.063000000002,0.0,-0.07677010710189158,0.0,0.0,0.0,0.0,-1.2483927202317688,-2.8198928615017573,-1.6954042138483683,-0.0008560618762117291,0.005118424976799215,-0.43606576821884063
7678,1.0,299.55087000000003,19037.019,0.0,-0.07678010308931082,0.0,0.0,0.0,0.0,-1.2394986135039887,-2.8332493216699373,-1.7140304864616385,0.016852844797996286,-0.012197155132515488,-0.47238716700098354
7679,1.0,299.71037,18868.642,0.0,-0.07679013206678775,0.0,0.0,0.0,0.0,-1.2064724357695589,-2.8288096650317773,-1.7003137145578984,0.002919953842002007,-0.004792050938763605,-0.46038433803889656
7680,1.0,299.2406,18838.321,0.0,-0.076800128054207,0.0,0.0,0.0,0.0,-1.219461795426509,-2.8019179060527675,-1.7049994896453484,-0.014997818938919487,-0.011633986673935089,-0.45578757697273153
7681,1.0,299.47848,19070.389,0.0,-0.07681012404162635,0.0,0.0,0.0,0.0,-1.262307987830099,-2.8378946680783974,-1.6967194124781684,-0.009392382191655951,0.009372523401621041,-0.4344636576907246
7682,1.0,299.46389,19033.172,0.0,-0.0768201200290457,0.0,0.0,0.0,0.0,-1.2648901543849387,-2.8225803047419875,-1.6981384692432184,-0.008195043394937812,-0.006670049609407644,-0.4388518412238046
7683,1.0,299.96596,18997.766,0.0,-0.07683011601646494,0.0,0.0,0.0,0.0,-1.2366608039489189,-2.8307045440437872,-1.7074812431152786,0.017137583274847785,-0.007759139351567431,-0.4474198942019056
7684,1.0,299.63061,19004.745,0.0,-0.0768401120038843,0.0,0.0,0.0,0.0,-1.2216809144705187,-2.8479957583252973,-1.7072911573965182,0.03399358434690557,-0.0054090380750804945,-0.46273162308805554
7685,1.0,299.9611,18888.699,0.0,-0.07685010799130354,0.0,0.0,0.0,0.0,-1.2050166993508888,-2.8204023236520372,-1.7162738221830385,0.02126159021535558,0.011559715441605091,-0.4614697416785176
7686,1.0,299.91837000000004,18840.031000000003,0.0,-0.0768601039787229,0.0,0.0,0.0,0.0,-1.209653027833459,-2.834695128237627,-1.6825509336798485,0.0076547098445860435,-0.002255252150526058,-0.4622529434758136
7687,1.0,300.41271,18964.459,0.0,-0.07687013295619971,0.0,0.0,0.0,0.0,-1.2385289331582887,-2.8323475290809372,-1.6938455312195382,-0.01095813061873329,0.009028191430738122,-0.46561421829754557
7688,1.0,300.27799,18808.166,0.0,-0.07688012894361895,0.0,0.0,0.0,0.0,-1.230594880900259,-2.8209685278079175,-1.6656495167118084,-0.003076650234191737,0.008356002631623251,-0.4475278863975636
7689,1.0,299.77597000000003,18690.069,0.0,-0.0768901249310383,0.0,0.0,0.0,0.0,-1.1731047927514289,-2.8416914175281076,-1.6665179733725184,-0.02152371294997508,0.008277915904716692,-0.4721487188549506
7690,1.0,299.53145,19044.81,0.0,-0.07690012091845766,0.0,0.0,0.0,0.0,-1.2170671814651788,-2.8467596945283073,-1.7253198151008085,-0.013736886944725187,-0.0054230248781358854,-0.46651737877418054
7691,1.0,299.41379,19302.004,0.0,-0.0769101169058769,0.0,0.0,0.0,0.0,-1.2519024159281489,-2.866851532086218,-1.7485731956207384,0.0021910389453137077,-0.005842548416414635,-0.45919578553909557
7692,1.0,299.7218,19177.092,0.0,-0.07692011289329626,0.0,0.0,0.0,0.0,-1.2585561253598188,-2.8607429512083473,-1.7100580394445883,0.02763361915897587,0.015525591531756585,-0.4338959843221996
7693,1.0,299.44473,19051.368000000002,0.0,-0.0769301088807155,0.0,0.0,0.0,0.0,-1.2592017683235388,-2.8202905621660075,-1.7116477275264785,0.024088075687307975,0.02136290509285458,-0.4208746667570956
7694,1.0,299.59597,19120.354,0.0,-0.07694010486813485,0.0,0.0,0.0,0.0,-1.2657898191487287,-2.8384476999829773,-1.7078726616289084,-0.015369709083372185,-0.011735379571691788,-0.4173142072307056
7695,1.0,300.16062,19062.162,0.0,-0.07695013384561167,0.0,0.0,0.0,0.0,-1.231847460673879,-2.833398776059687,-1.7291750290812884,-0.012856393886077289,-0.017091753972824784,-0.4368891757801046
7696,1.0,300.50895,19016.965,0.0,-0.07696012983303102,0.0,0.0,0.0,0.0,-1.2141750617047489,-2.8336938344888076,-1.7328135088653784,-0.005692207635477155,-0.02161157186614608,-0.4499010599867776
7697,1.0,300.1183,19084.958,0.0,-0.07697012582045026,0.0,0.0,0.0,0.0,-1.237119096969149,-2.8501854931164075,-1.7140461918381884,0.013864090362279187,-0.003659610405650426,-0.46516283564299754
7698,1.0,300.18483,18923.398,0.0,-0.07698012180786962,0.0,0.0,0.0,0.0,-1.2310024100904788,-2.820047584792027,-1.7011903785444182,-0.008020401735527023,-0.01098011307965279,-0.45984750800341556
7699,1.0,299.99934,18876.381999999998,0.0,-0.07699011779528886,0.0,0.0,0.0,0.0,-1.235140827473909,-2.8413708251964676,-1.6614372333960885,0.008662428409640122,-6.729169611667334e-05,-0.46705822128005753
7700,1.0,300.65797000000003,19077.797,0.0,-0.07700011378270821,0.0,0.0,0.0,0.0,-1.252266172714049,-2.846693225321747,-1.7002147200231286,0.006534870596341513,0.028281355497402474,-0.45350436985989656
7701,1.0,300.46605,19017.091,0.0,-0.07701010977012734,0.0,0.0,0.0,0.0,-1.2187471501309788,-2.8421863902019573,-1.7197871655797783,0.02115944852577498,0.02090473366263658,-0.4582956648127606
7702,1.0,300.64286,18900.473,0.0,-0.07702010575754681,0.0,0.0,0.0,0.0,-1.1850139264767687,-2.8568585556249873,-1.7033992637624182,-0.008165840513805712,-0.01148111965784829,-0.47243370557807657
7703,1.0,299.82138,18993.35,0.0,-0.07703013473502363,0.0,0.0,0.0,0.0,-1.229385465580899,-2.836585548949197,-1.7075330201953884,-0.024947165864093578,-0.013806027078548787,-0.45706294474110054
7704,1.0,299.54531000000003,19151.655,0.0,-0.07704013072244298,0.0,0.0,0.0,0.0,-1.2663095151250188,-2.8394045120524076,-1.7159107746722084,-0.014278962575973884,-0.015818299220644587,-0.45100640438836653
7705,1.0,299.806,19087.994,0.0,-0.07705012670986211,0.0,0.0,0.0,0.0,-1.2561068972180987,-2.8483823132384476,-1.6977844396582784,-0.01114915663358609,-0.007457674344715153,-0.4503212446707466
7706,1.0,300.06536,18918.355,0.0,-0.07706012269728157,0.0,0.0,0.0,0.0,-1.2334532594323588,-2.8208737889235675,-1.6963804803197182,-0.008821603008924431,-0.002138888178566828,-0.46160941820480256
7707,1.0,299.3019,18949.927,0.0,-0.0770701186847007,0.0,0.0,0.0,0.0,-1.1972201451314288,-2.8451961482989976,-1.7178883348923786,0.007780079583434072,0.0038269293065885165,-0.44914789092244556
7708,1.0,299.80462,19124.161,0.0,-0.07708011467212017,0.0,0.0,0.0,0.0,-1.226907157161309,-2.8558272696732074,-1.7305330881903183,-0.00024326684940106875,0.029194336394006672,-0.4775462717401475
7709,1.0,299.89912999999996,19159.24,0.0,-0.07709011065953952,0.0,0.0,0.0,0.0,-1.2537486589353588,-2.8440842076392574,-1.7260975858775682,0.022046593571329376,0.008231608551296513,-0.44861144592200264
7710,1.0,300.39087,19099.213,0.0,-0.07710010664695877,0.0,0.0,0.0,0.0,-1.2790492099573287,-2.8590388671901676,-1.6675956661788782,0.008594820411292732,-0.018070067209376782,-0.4609069420429736
7711,1.0,300.73456,19040.047,0.0,-0.07711013562443547,0.0,0.0,0.0,0.0,-1.2712475894873687,-2.8214393851293873,-1.6950117820846384,-0.01250542735618959,-0.013792867999500087,-0.4182890450194146
7712,1.0,300.10427000000004,19120.172,0.0,-0.07712013161185494,0.0,0.0,0.0,0.0,-1.2548960633485988,-2.8604148608259674,-1.696743933130588,-0.016471377413598384,-0.002288318756939478,-0.4493791145952656
7713,1.0,299.61161,19304.304,0.0,-0.07713012759927407,0.0,0.0,0.0,0.0,-1.235360398770579,-2.862359895717927,-1.7703060930406085,-0.014666223724443586,0.005540704656674974,-0.42562343560326255
7714,1.0,299.77227,19222.071,0.0,-0.07714012358669353,0.0,0.0,0.0,0.0,-1.2351653481263287,-2.849144175988637,-1.7587199834471483,0.005814405192237115,0.004945769084934405,-0.4650474467216096
7715,1.0,299.86936000000003,18940.548,0.0,-0.07715011957411266,0.0,0.0,0.0,0.0,-1.2135193875650387,-2.843192344901237,-1.7007418127251483,0.014021351844049686,0.006055617991167964,-0.4583596920865795
7716,1.0,300.09524,18915.441000000003,0.0,-0.07716011556153202,0.0,0.0,0.0,0.0,-1.2568050265369988,-2.8177600713662674,-1.6752566475349584,0.013614440736390686,0.028270891663619773,-0.4728138263530915
7717,1.0,300.00603,19067.418,0.0,-0.07717011154895148,0.0,0.0,0.0,0.0,-1.2534752840583787,-2.8459208247705177,-1.6966227484186285,-0.0006018106864515903,-0.005970188139461694,-0.4612581142626316
7718,1.0,299.55575,18993.97,0.0,-0.07718010753637061,0.0,0.0,0.0,0.0,-1.2263715531584487,-2.851538891274977,-1.6957822574606782,-0.009074151138048991,-0.0019671819046957377,-0.47829595522413554
7719,1.0,300.11786,19066.734,0.0,-0.07719010352379008,0.0,0.0,0.0,0.0,-1.194966879559049,-2.8571996156086477,-1.7436443418342984,-0.01057418178484049,-0.008190623294026582,-0.4516810364374476
7720,1.0,300.16868999999997,19122.497,0.0,-0.07720013250126678,0.0,0.0,0.0,0.0,-1.2199649754261688,-2.8766028483985973,-1.7161938767501483,-0.00024266120955129678,0.010547841335240891,-0.45877390872745955
7721,1.0,300.21652,19127.218,0.0,-0.07721012848868603,0.0,0.0,0.0,0.0,-1.2342157301326089,-2.8576986412828975,-1.7222822939510283,0.0041300521932544155,-0.004442395047880256,-0.45028114023178856
7722,1.0,299.96726,19259.461,0.0,-0.07722012447610538,0.0,0.0,0.0,0.0,-1.2891079463500488,-2.868830004231477,-1.6964572846772983,0.008559538941485721,-0.012777235748514987,-0.44133399999377454
7723,1.0,299.7337,19268.357,0.0,-0.07723012046352462,0.0,0.0,0.0,0.0,-1.2714635130836789,-2.8665186794283675,-1.7191172046136585,0.013089653178348188,-0.002769432803871737,-0.4386857290024106
7724,1.0,299.78005,19091.163,0.0,-0.07724011645094397,0.0,0.0,0.0,0.0,-1.2422158462971589,-2.8359168038831974,-1.7251042968045383,0.0006032769505387995,0.016407941877837787,-0.44166632576157255
7725,1.0,300.88407,19057.001,0.0,-0.07725011243836333,0.0,0.0,0.0,0.0,-1.212441897408699,-2.849665493165087,-1.7307450601112384,-0.004751058791392995,0.0064319376597578234,-0.45218426709961257
7726,1.0,300.46612999999996,19172.569,0.0,-0.07726010842578257,0.0,0.0,0.0,0.0,-1.2402082938740289,-2.8478982836656774,-1.7398756594123583,-0.032981761916296475,0.0053283653312687146,-0.44934742013213763
7727,1.0,300.46913,19233.252,0.0,-0.07727010441320192,0.0,0.0,0.0,0.0,-1.2672548774683188,-2.8517292809687675,-1.7274442965854782,0.0026777421811225778,-0.006189299217936275,-0.4643923805319595
7728,1.0,300.33628999999996,19183.929,0.0,-0.07728013339067874,0.0,0.0,0.0,0.0,-1.2735205121116888,-2.8622105426531874,-1.6957043385279882,0.013040605794007587,-0.005013484487792395,-0.4571278839400096
7729,1.0,300.37932,19180.741,0.0,-0.07729012937809798,0.0,0.0,0.0,0.0,-1.2677470130418886,-2.854043746847187,-1.7086755610081483,0.013041185373064788,-0.01962009769560288,-0.4601503684583056
7730,1.0,299.97957,19152.128,0.0,-0.07730012536551734,0.0,0.0,0.0,0.0,-1.2353419576187588,-2.8631004802160174,-1.7233262455290586,0.009668087239890922,-0.020389366290773783,-0.45616136493462156
7731,1.0,299.65432000000004,19052.723,0.0,-0.07731012135293658,0.0,0.0,0.0,0.0,-1.211274227993459,-2.864034798133227,-1.7162429180549883,0.007601434268903154,-6.095851822163734e-05,-0.4663938129244855
7732,1.0,299.5171,19146.002,0.0,-0.07732011734035615,0.0,0.0,0.0,0.0,-1.2369843347058487,-2.859791002739397,-1.7231312962098184,0.016002403724064286,0.023905614675550475,-0.45322145016697457
7733,1.0,299.58111,19077.133,0.0,-0.07733011332777529,0.0,0.0,0.0,0.0,-1.2394930406284388,-2.857477651436087,-1.7020013839244583,0.003219043689294877,0.0009893147211027609,-0.46478245142295654
7734,1.0,300.21849,18892.648999999998,0.0,-0.07734010931519453,0.0,0.0,0.0,0.0,-1.230488489639759,-2.8424351431015076,-1.6699698124881883,-0.028872117795956175,-0.005298804874176325,-0.4546147095844786
7735,1.0,299.85,19093.071,0.0,-0.07735010530261388,0.0,0.0,0.0,0.0,-1.2299613969377388,-2.865953387197577,-1.7079019445567984,-0.019740245852710583,-0.004708185139911695,-0.4736430702349315
7736,1.0,300.24165,19330.267,0.0,-0.0773601342800907,0.0,0.0,0.0,0.0,-1.2528715896487987,-2.883104671640277,-1.7399422299439284,-0.014622643837642588,0.008533661243206791,-0.46728333505477454
7737,1.0,300.13954,19209.638,0.0,-0.07737013026750994,0.0,0.0,0.0,0.0,-1.2262965726510489,-2.8641422026438272,-1.7488116133692684,-0.0005463364593767104,-0.0046034050483957055,-0.47831013059303457
7738,1.0,300.56137,19138.515,0.0,-0.0773801262549293,0.0,0.0,0.0,0.0,-1.2352135788310887,-2.8621839955005672,-1.7202330969487885,-0.002182429359214008,0.01115332311799729,-0.45732763606472354
7739,1.0,299.88432,19173.057,0.0,-0.07739012224234865,0.0,0.0,0.0,0.0,-1.2546070844200787,-2.857577253920917,-1.7159462384257083,0.013947088717720487,0.014604193566571687,-0.4596545041243676
7740,1.0,299.7455,19219.019,0.0,-0.077400118229768,0.0,0.0,0.0,0.0,-1.2743728580958087,-2.8563862797533774,-1.7113428405713882,0.01866811882914988,0.014589929031663885,-0.42962554045073964
7741,1.0,300.35309,19267.691000000003,0.0,-0.07741011421718724,0.0,0.0,0.0,0.0,-1.2742814629367887,-2.864764135555207,-1.7178514525887383,0.006593357621263734,-0.0029325540122955474,-0.4361209295542846
7742,1.0,299.86852999999996,19247.648,0.0,-0.07742011020460648,0.0,0.0,0.0,0.0,-1.2720765293941787,-2.8499634900194972,-1.7287643588157584,-0.007122292107990503,-0.014572187022412884,-0.42388131417632857
7743,1.0,299.33194,19109.248,0.0,-0.07743010619202584,0.0,0.0,0.0,0.0,-1.2335392843658488,-2.8477890553048972,-1.7274057930816784,-0.004152415636211516,-0.006790618366631853,-0.4380117960958986
7744,1.0,298.77025,19250.098,0.0,-0.07744013516950266,0.0,0.0,0.0,0.0,-1.2437829389018187,-2.868642552962977,-1.7391235238631286,-0.007364014369071634,0.015995512610134183,-0.45210699664698656
7745,1.0,299.13766,19481.224,0.0,-0.07745013115692179,0.0,0.0,0.0,0.0,-1.2774392568734387,-2.8884850296712767,-1.7558812619669883,0.013060710702491788,-0.012145666828683987,-0.4455715233694855
7746,1.0,299.19552999999996,19208.532,0.0,-0.07746012714434125,0.0,0.0,0.0,0.0,-1.2552313478066888,-2.8566058510500474,-1.7270766894491982,0.008830480194375542,0.005121235124626556,-0.4628904804387336
7747,1.0,299.5078,18906.308999999997,0.0,-0.0774701231317606,0.0,0.0,0.0,0.0,-1.2072538542466789,-2.8530982831788774,-1.6866936067136984,0.017819250319373085,0.01054567095352669,-0.45810170847861853
7748,1.0,299.70417000000003,19067.167,0.0,-0.07748011911917996,0.0,0.0,0.0,0.0,-1.2301942418107188,-2.856261649991077,-1.7094867690382083,0.010963398506003188,0.011081444169153389,-0.47330724875428853
7749,1.0,300.27741000000003,19334.88,0.0,-0.0774901151065992,0.0,0.0,0.0,0.0,-1.2482100312387387,-2.8879514521686174,-1.7411593459640482,-0.008747851573895732,0.0010780860487238089,-0.4625768795327836
7750,1.0,300.21328,19194.123,0.0,-0.07750011109401833,0.0,0.0,0.0,0.0,-1.253798004215229,-2.8728504793032674,-1.7078857325551984,-0.011014232250270092,-0.01093844114279009,-0.4675381066599186
7751,1.0,300.50948999999997,19119.945,0.0,-0.0775101070814378,0.0,0.0,0.0,0.0,-1.2391002035646688,-2.871872895606787,-1.7010129584519087,0.00012534073963016786,0.0003581932525159216,-0.46293619828324556
7752,1.0,300.56457,19109.082,0.0,-0.07752013605891461,0.0,0.0,0.0,0.0,-1.2400654256099288,-2.8742229265637174,-1.6943955233738182,-0.006127430673455323,0.006990928488175925,-0.46033579322660556
7753,1.0,300.54163,19204.878,0.0,-0.07753013204633374,0.0,0.0,0.0,0.0,-1.234997351259749,-2.8727640490697373,-1.730042168516868,0.005887460828422144,-0.026704709970799677,-0.4465215770607485
7754,1.0,300.28983,19360.249,0.0,-0.07754012803375332,0.0,0.0,0.0,0.0,-1.2576473413451288,-2.881622996019047,-1.745761933218288,-0.0008545566729231774,-0.003254743631393187,-0.4572244162770366
7755,1.0,299.71083,19200.802,0.0,-0.07755012402117256,0.0,0.0,0.0,0.0,-1.232886852626459,-2.8652150318497074,-1.7384624794978885,0.012634224616150887,0.018544982597497282,-0.46550664153442856
7756,1.0,299.38517,18896.573,0.0,-0.07756012000859192,0.0,0.0,0.0,0.0,-1.2114131445821688,-2.838504948613627,-1.6941683527013984,0.017089731525625183,-0.003227604538064767,-0.45875048238514754
7757,1.0,299.72525,19141.143,0.0,-0.07757011599601116,0.0,0.0,0.0,0.0,-1.2489020810570388,-2.861667643249607,-1.7078595907026182,-0.013458197570970687,-0.011596448797480388,-0.4482358442424336
7758,1.0,299.59267,19516.04,0.0,-0.07758011198343029,0.0,0.0,0.0,0.0,-1.2983751317646488,-2.875559606095637,-1.7584539039708884,-0.00899763697529763,-0.02014593903374938,-0.43885944059955456
7759,1.0,300.20481,19426.432,0.0,-0.07759010797084975,0.0,0.0,0.0,0.0,-1.2877241506884787,-2.8699366759906972,-1.7474895246387885,-0.008630239277813303,-0.0027261995499299474,-0.42385466569869856
7760,1.0,300.03269,19179.808,0.0,-0.0776001039582691,0.0,0.0,0.0,0.0,-1.2339762991339789,-2.8788897538742972,-1.7173165578609484,0.001113913964309749,-0.00040605833610983755,-0.4608465219395106
7761,1.0,299.50667000000004,19290.157,0.0,-0.07761013293574592,0.0,0.0,0.0,0.0,-1.2501826265334186,-2.871511063996077,-1.7420324635752185,0.0006096359967088885,-0.012077411262197687,-0.4403126641579766
7762,1.0,299.96918,19589.511000000002,0.0,-0.07762012892316528,0.0,0.0,0.0,0.0,-1.2969649916004788,-2.9091977868904673,-1.7485595167443881,-0.0002076889026147988,0.003496898752917036,-0.4720227009400136
7763,1.0,300.08668,19401.779,0.0,-0.07763012491058452,0.0,0.0,0.0,0.0,-1.2869274321348487,-2.894755831890157,-1.7159730895533583,0.018014529958145682,0.023751433474083976,-0.4601870987744306
7764,1.0,300.46047999999996,19028.277,0.0,-0.07764012089800387,0.0,0.0,0.0,0.0,-1.229315753974019,-2.8590749388937273,-1.6957304803805684,0.00030267532396422873,0.000908392109816321,-0.47138444456952255
7765,1.0,300.48631,18959.525,0.0,-0.077650116885423,0.0,0.0,0.0,0.0,-1.212420213856559,-2.8617592410586474,-1.6890428270705484,-0.02980347803612427,-0.008368375225944332,-0.4403109416328066
7766,1.0,299.9784,19176.933999999997,0.0,-0.07766011287284225,0.0,0.0,0.0,0.0,-1.2157169243819188,-2.8732441269671174,-1.7403480366089785,-0.015461248123906384,-0.025512711407408576,-0.46001956800289656
7767,1.0,299.79006,19525.791,0.0,-0.0776701088602616,0.0,0.0,0.0,0.0,-1.2695484703946789,-2.9019448413496574,-1.7638595932543881,-0.008111577323250352,0.02146274163845768,-0.4683688096219026
7768,1.0,300.26248,19436.677,0.0,-0.07768010484768106,0.0,0.0,0.0,0.0,-1.2760403637853788,-2.898383165923147,-1.7338410457917883,0.01013753178674649,0.01029135632417779,-0.4702885335263645
7769,1.0,299.57676000000004,19029.932,0.0,-0.07769013382515777,0.0,0.0,0.0,0.0,-1.2456226971083888,-2.8627057179770574,-1.6762957355125083,0.0092162970561527,-0.005259579125705045,-0.4697382171320525
7770,1.0,299.35465,19237.381,0.0,-0.07770012981257723,0.0,0.0,0.0,0.0,-1.2563339665655089,-2.895437039932387,-1.6959124600985283,-5.615322927164224e-05,0.004554435886962825,-0.4519392125629276
7771,1.0,299.79577,19611.211,0.0,-0.07771012579999637,0.0,0.0,0.0,0.0,-1.3163565720142787,-2.884969051824277,-1.7599926255727485,0.01221414733669249,0.016142357880876684,-0.4485188145978606
7772,1.0,299.96878,19386.234,0.0,-0.07772012178741583,0.0,0.0,0.0,0.0,-1.2561326337706387,-2.881046862012187,-1.7557517686042086,-0.002679749530895687,-7.386142839330542e-05,-0.4465379106523606
7773,1.0,300.2986,19014.484,0.0,-0.07773011777483496,0.0,0.0,0.0,0.0,-1.2127526612143689,-2.8607792255619273,-1.7063965588832284,-0.01895683431264388,-0.008521121969244263,-0.4605797635856836
7774,1.0,300.5578,19113.885,0.0,-0.07774011376225431,0.0,0.0,0.0,0.0,-1.2367248413552387,-2.8606052505197574,-1.7128138770665684,-0.009336353514126351,-0.007417329258858404,-0.46383031043648754
7775,1.0,299.82716,19409.407,0.0,-0.07775010974967378,0.0,0.0,0.0,0.0,-1.282482810571199,-2.8910302125974674,-1.7264621532635482,-0.0015543146089739084,0.015956348467268986,-0.45210987427727056
7776,1.0,299.78885,19487.346,0.0,-0.07776010573709291,0.0,0.0,0.0,0.0,-1.281818625130649,-2.8962260577852574,-1.7456220033794783,0.015374389285584088,-0.011523087463740188,-0.4529170191744296
7777,1.0,300.25176,19346.148,0.0,-0.07777013471456973,0.0,0.0,0.0,0.0,-1.2567118075277988,-2.872605678079107,-1.7514283317525183,0.012794944320512687,-0.014317418457019187,-0.41487363224483964
7778,1.0,299.6189,19199.644,0.0,-0.07778013070198908,0.0,0.0,0.0,0.0,-1.210047790072419,-2.884754749428127,-1.7414097200637584,0.018395526181247082,0.002357137791806388,-0.4506117637394185
7779,1.0,300.22808,19359.134,0.0,-0.07779012668940832,0.0,0.0,0.0,0.0,-1.247708675089259,-2.8904343202136573,-1.7465503431210985,0.01973568622726058,0.00958217751293729,-0.45333345483302856
7780,1.0,300.4771,19619.821,0.0,-0.07780012267682768,0.0,0.0,0.0,0.0,-1.2941212038698187,-2.906528075526987,-1.7632862963478086,-0.0036479683646514468,-0.007124626332245873,-0.4782173574138785
7781,1.0,299.95952,19489.23,0.0,-0.07781011866424692,0.0,0.0,0.0,0.0,-1.2985620764080987,-2.8866644218915973,-1.7390127756271985,-0.024478910568880373,-0.016185912436425184,-0.44449102386034856
7782,1.0,300.00055,18989.872,0.0,-0.07782011465166627,0.0,0.0,0.0,0.0,-1.2213441101372788,-2.853829444451037,-1.6972735589578585,-0.007778850612387783,-0.00842012829202696,-0.46114193500616557
7783,1.0,300.03197,19018.548,0.0,-0.07783011063908574,0.0,0.0,0.0,0.0,-1.2158185533669488,-2.860811750890137,-1.7045333945993486,-0.015738263608495683,0.01139606744445429,-0.4555828193925236
7784,1.0,299.70856000000003,19391.984,0.0,-0.07784010662650487,0.0,0.0,0.0,0.0,-1.2321610615798289,-2.889091459856127,-1.7734261940735383,0.0010625429948398289,-0.009192603013164281,-0.4702739832549286
7785,1.0,299.98907,19321.662,0.0,-0.07785013560398168,0.0,0.0,0.0,0.0,-1.242812853256079,-2.8819687169531676,-1.7485211145655986,0.0022714051809702377,-0.01118609871898199,-0.46803128588109155
7786,1.0,299.9339,19000.801,0.0,-0.07786013159140104,0.0,0.0,0.0,0.0,-1.212087259873699,-2.8771501047776074,-1.6865316893477185,0.016439462061948587,0.01015191183216569,-0.4761590512932396
7787,1.0,299.84054,19158.5,0.0,-0.07787012757882028,0.0,0.0,0.0,0.0,-1.2472097507400188,-2.877672840504197,-1.6988229196857685,0.022753989062393877,0.022067439165636683,-0.4621238452805726
7788,1.0,300.30268,19394.999,0.0,-0.07788012356623963,0.0,0.0,0.0,0.0,-1.286984782090509,-2.8856318187146868,-1.7229787007447586,-0.0010610599006684591,-0.005433200138290105,-0.4475908092287736
7789,1.0,300.40806000000003,19580.638,0.0,-0.07789011955365888,0.0,0.0,0.0,0.0,-1.2777136450005186,-2.9056011543355074,-1.7687102241331085,-0.011190816411447589,-0.01830291309560688,-0.4405194989008896
7790,1.0,300.82634,19664.232,0.0,-0.07790011554107823,0.0,0.0,0.0,0.0,-1.2879839480141189,-2.902156103995507,-1.7872954601173283,-0.004034476161671796,-0.015532357002674285,-0.44615206501428056
7791,1.0,300.1761,19435.214,0.0,-0.07791011152849758,0.0,0.0,0.0,0.0,-1.263132570761479,-2.902493820253837,-1.7421933676910983,0.005344276296264005,0.005029726278945336,-0.46611326423679755
7792,1.0,300.36501,19295.637,0.0,-0.07792010751591683,0.0,0.0,0.0,0.0,-1.2619049169403187,-2.8876679447906373,-1.7158189742131482,-0.009376177282806653,-0.009937755850655141,-0.48338788148166956
7793,1.0,300.42401,19470.677,0.0,-0.07793013649339364,0.0,0.0,0.0,0.0,-1.2955410712349489,-2.8970846859199972,-1.7259739693653684,-0.01939118929926138,0.002392360999732648,-0.4601245204482546
7794,1.0,300.05278,19415.011000000002,0.0,-0.077940132480813,0.0,0.0,0.0,0.0,-1.2875843221746788,-2.8862258872483175,-1.7278685444023485,0.003263997340581457,0.020229873632283082,-0.44914296652695956
7795,1.0,299.90766,19087.917,0.0,-0.07795012846823224,0.0,0.0,0.0,0.0,-1.2166337130723988,-2.8693440260072074,-1.7162725049579084,-0.002235252518727248,0.03613269817626966,-0.47032887101284554
7796,1.0,299.86464,19154.868000000002,0.0,-0.07796012445565159,0.0,0.0,0.0,0.0,-1.2147759190140488,-2.8820914215402773,-1.7257341330666982,0.0012219209534192089,-0.004076148807809566,-0.4689508610093465
7797,1.0,299.4982,19469.252,0.0,-0.07797012044307094,0.0,0.0,0.0,0.0,-1.2699270206320388,-2.8989743973564974,-1.7492650427890182,-0.005003053685962955,-0.026073081269212775,-0.47140555056910555
7798,1.0,299.72452999999996,19582.075,0.0,-0.07798011643049019,0.0,0.0,0.0,0.0,-1.2841614620118689,-2.908784076874637,-1.7595163980257484,0.009165766172340691,-0.006297420906957054,-0.4655852596096875
7799,1.0,300.04733,19499.325,0.0,-0.07799011241790954,0.0,0.0,0.0,0.0,-1.2879821241639386,-2.9140949259487767,-1.7252307504170186,0.012843385781293489,0.017282156838866084,-0.4729297016345276
7800,1.0,300.14306,19441.99,0.0,-0.07800010840532878,0.0,0.0,0.0,0.0,-1.2753929982964887,-2.889545699875957,-1.7449406940122383,0.008345625126749072,0.004294626604971647,-0.4428696514478316
7801,1.0,300.38712000000004,19306.496,0.0,-0.0780101373828056,0.0,0.0,0.0,0.0,-1.2400542798588288,-2.8784331833792374,-1.7502051362317983,-0.012931968158035887,0.008533149247931261,-0.45548366273773755
7802,1.0,300.41317999999995,19297.795,0.0,-0.07802013337022495,0.0,0.0,0.0,0.0,-1.228028318396959,-2.8872506883994573,-1.7507688072624286,-0.000977475025406774,0.015322312283444484,-0.45407780862149055
7803,1.0,300.35573,19470.896,0.0,-0.07803012935764408,0.0,0.0,0.0,0.0,-1.261426054943059,-2.891073681026757,-1.7661665610820683,0.006299797181091574,0.013244555813885886,-0.4821418675686976
7804,1.0,300.40675,19348.907,0.0,-0.07804012534506355,0.0,0.0,0.0,0.0,-1.2677325235654588,-2.8933135716978176,-1.7205382878789084,-0.005896525667791775,-0.02423504457456268,-0.4621888148769846
7805,1.0,300.01687000000004,19062.023,0.0,-0.0780501213324829,0.0,0.0,0.0,0.0,-1.238585877813909,-2.862078516165157,-1.6937147206316285,0.012047340025729887,-0.025033007399315476,-0.4696028975811976
7806,1.0,299.73863,19442.939,0.0,-0.07806011731990214,0.0,0.0,0.0,0.0,-1.2756433723961988,-2.892788302845977,-1.7417363918959983,0.013522540978820887,0.0032878596844114864,-0.44005199543725054
7807,1.0,299.60517999999996,19834.346999999998,0.0,-0.0780701133073215,0.0,0.0,0.0,0.0,-1.2966418661435886,-2.922487169902027,-1.8100172896347981,0.0033098274532045364,0.016927518290615985,-0.45378847505543557
7808,1.0,299.9102,19581.057,0.0,-0.07808010929474074,0.0,0.0,0.0,0.0,-1.272431977529259,-2.9058723000622675,-1.7738481114151783,-0.006413690241356943,-0.01028808757935519,-0.4493439649492965
7809,1.0,300.02772999999996,19294.154,0.0,-0.0780901052821601,0.0,0.0,0.0,0.0,-1.2430099304005289,-2.8873379292330674,-1.7345930800160085,0.003935105609789686,-0.004505967068429326,-0.4672333311623396
7810,1.0,300.1404,19357.133,0.0,-0.07810013425963691,0.0,0.0,0.0,0.0,-1.2724376517298188,-2.887225255821947,-1.724422176837218,0.011520795492013989,-0.0018999374604842282,-0.4467342683892396
7811,1.0,300.03123999999997,19379.724,0.0,-0.07811013024705604,0.0,0.0,0.0,0.0,-1.272324674343669,-2.8937674064176075,-1.7248600022054286,-0.002469714944166888,-0.014325157661282987,-0.4625068538183726
7812,1.0,299.43257,19436.863999999998,0.0,-0.0781201262344755,0.0,0.0,0.0,0.0,-1.2555754475406489,-2.905314201907187,-1.7474315667330684,-0.01944398266922168,-0.01897940952487188,-0.45195537390202256
7813,1.0,299.29561,19347.558999999997,0.0,-0.07813012222189486,0.0,0.0,0.0,0.0,-1.2437737183259088,-2.8948321296226873,-1.7425690808281782,-0.003177919718086257,-0.005224262394794555,-0.4671884036529056
7814,1.0,298.9362,19157.394,0.0,-0.07814011820931399,0.0,0.0,0.0,0.0,-1.2213445154373188,-2.8840442584580073,-1.7179807433014984,0.0034405711666079366,0.025777861733326874,-0.4738589634337385
7815,1.0,299.57669,19324.634,0.0,-0.07815011419673346,0.0,0.0,0.0,0.0,-1.234017538413049,-2.908864731582597,-1.7313238285683583,-0.0031511949427237267,0.015430768547648285,-0.4909159750871345
7816,1.0,299.72702999999996,19666.71,0.0,-0.07816011018415259,0.0,0.0,0.0,0.0,-1.3071660896322488,-2.912454474036877,-1.7585681985821684,-0.013109091368266589,-0.005365034447087675,-0.4704584353031325
7817,1.0,300.22127,19528.413,0.0,-0.07817010617157205,0.0,0.0,0.0,0.0,-1.2783613144644388,-2.9092636481469674,-1.7485249649159784,0.005827310857435805,-0.016401797529231384,-0.44877428534557356
7818,1.0,300.52916,19143.846,0.0,-0.07818013514904876,0.0,0.0,0.0,0.0,-1.2311183259019187,-2.8882695113750074,-1.6998635275384681,0.012108148203981189,0.017393983172902482,-0.44900752538609257
7819,1.0,300.44192999999996,19280.439,0.0,-0.078190131136468,0.0,0.0,0.0,0.0,-1.235346415919199,-2.889926985888587,-1.7354986216303785,0.008328554395689322,0.010067634147148131,-0.45810871003680953
7820,1.0,299.77243,19639.218999999997,0.0,-0.07820012712388758,0.0,0.0,0.0,0.0,-1.290134976651409,-2.9194872403309575,-1.7602099677191982,-0.02599962570321327,-0.006068204685235175,-0.4665494988023505
7821,1.0,299.90722,19649.997,0.0,-0.07821012311130682,0.0,0.0,0.0,0.0,-1.273911018700229,-2.9379472386028174,-1.7612500689468484,-0.0006323760241981544,-0.006820848278065313,-0.4779527268852616
7822,1.0,299.83491000000004,19422.01,0.0,-0.07822011909872595,0.0,0.0,0.0,0.0,-1.2785799738360186,-2.8970397989405674,-1.7281861983086984,0.005860516380437933,0.007913260467303004,-0.4726946884063335
7823,1.0,300.01586000000003,19327.665,0.0,-0.0782301150861453,0.0,0.0,0.0,0.0,-1.2566165620183989,-2.8980934777195575,-1.7204176097919985,0.005320878527604825,-0.006111430441126224,-0.45458472751401957
7824,1.0,300.40997999999996,19356.019,0.0,-0.07824011107356454,0.0,0.0,0.0,0.0,-1.2615948624097189,-2.8789291693031873,-1.7432224244926584,-0.025678372732508076,-0.02157883172891488,-0.4453322139608676
7825,1.0,299.909,19533.862,0.0,-0.0782501070609839,0.0,0.0,0.0,0.0,-1.2639450960166687,-2.909379766608427,-1.7644813235157484,-0.00975863572712736,0.01349288010864359,-0.4539134189252666
7826,1.0,300.5883,19656.019,0.0,-0.07826013603846071,0.0,0.0,0.0,0.0,-1.2815824365323387,-2.9151223615501767,-1.7782342684480583,0.0054928930321563344,0.03916362813414916,-0.44337743160294557
7827,1.0,300.84159,19486.038,0.0,-0.07827013202588007,0.0,0.0,0.0,0.0,-1.2555301552611788,-2.916982486083757,-1.7507562429611883,-0.0030547384981292167,0.01970050922353888,-0.47860855301248656
7828,1.0,301.16076,19544.134,0.0,-0.07828012801329953,0.0,0.0,0.0,0.0,-1.2933847736971387,-2.912958565961627,-1.7345852779902382,-0.013280755186958489,-0.00966858160461471,-0.4592035571673625
7829,1.0,300.65904,19747.923,0.0,-0.07829012400071866,0.0,0.0,0.0,0.0,-1.3017155133693186,-2.921145424119607,-1.7800147515237783,0.003245067396913217,-0.015053814179195785,-0.44665160744608157
7830,1.0,300.38667000000004,19635.865,0.0,-0.0783001199881379,0.0,0.0,0.0,0.0,-1.2809430757192386,-2.926227886621207,-1.7616417914355083,0.014237671621148787,0.012833495447067387,-0.43862473134639063
7831,1.0,300.14104,19317.336,0.0,-0.07831011597555726,0.0,0.0,0.0,0.0,-1.2246022158338288,-2.904758028927297,-1.7426274440339384,0.02449344361506468,-0.007390095629295653,-0.47337983799145256
7832,1.0,299.95777000000004,19422.171000000002,0.0,-0.0783201119629765,0.0,0.0,0.0,0.0,-1.2483107482986788,-2.9153617925488073,-1.7401824715426382,0.005075514037714235,-0.0007557256463218144,-0.47722949936138453
7833,1.0,300.36368999999996,19492.886000000002,0.0,-0.07833010795039608,0.0,0.0,0.0,0.0,-1.259565829084469,-2.9265126098993073,-1.7392722689778086,-0.006478225761426103,-0.008529791134449842,-0.4961408093602855
7834,1.0,300.07505,19435.769,0.0,-0.07834013692787267,0.0,0.0,0.0,0.0,-1.2707236378606588,-2.9092611150217174,-1.7280037119656884,-0.004549135271714696,0.007046557134566043,-0.4702160354817095
7835,1.0,299.61417,19420.027,0.0,-0.07835013291529203,0.0,0.0,0.0,0.0,-1.2608431321605287,-2.9038194553596672,-1.7385407024056085,-0.00977863394037603,-0.018296566096980483,-0.4733567460216736
7836,1.0,299.78598,19486.148,0.0,-0.07836012890271149,0.0,0.0,0.0,0.0,-1.2652898815493887,-2.905927522192717,-1.7520849178173183,-0.01850889164218538,-0.028004739233352574,-0.43826150145054255
7837,1.0,299.77549,19518.561999999998,0.0,-0.07837012489013062,0.0,0.0,0.0,0.0,-1.2512915274428589,-2.9129998052406973,-1.768864035498288,0.0033633067934825366,-0.013657372143127686,-0.46380552633904154
7838,1.0,299.37892,19702.381,0.0,-0.07838012087754986,0.0,0.0,0.0,0.0,-1.2693774337777988,-2.938291540986797,-1.781362982106838,0.00021294705255123775,0.02341685727781388,-0.4538743783989136
7839,1.0,300.0975,19787.109,0.0,-0.07839011686496922,0.0,0.0,0.0,0.0,-1.3018364954312587,-2.941938025446677,-1.7710126323353383,0.00914407299432474,0.005893197141213275,-0.4771909046650755
7840,1.0,300.05208999999996,19607.827,0.0,-0.07840011285238857,0.0,0.0,0.0,0.0,-1.3036447415597188,-2.9066312243871675,-1.7500138346129184,0.003573757319377387,0.012179752562047988,-0.44965572174006463
7841,1.0,300.62877000000003,19448.467,0.0,-0.07841010883980803,0.0,0.0,0.0,0.0,-1.2700185171160687,-2.914456656234477,-1.727372963778438,0.017341559639228683,0.01987865885612088,-0.4707308070625136
7842,1.0,300.7878,19397.825,0.0,-0.07842013781728463,0.0,0.0,0.0,0.0,-1.266926989735959,-2.880198873003497,-1.7493285735702881,0.013380434678796087,0.013409860474950188,-0.43301531799778464
7843,1.0,300.23701,19429.801,0.0,-0.07843013380470398,0.0,0.0,0.0,0.0,-1.2383750204680988,-2.916167731678347,-1.7516313870725584,0.003974905161792596,-0.007101316209720343,-0.4843197574661386
7844,1.0,299.23941,19548.834,0.0,-0.07844012979212334,0.0,0.0,0.0,0.0,-1.2642675121984885,-2.9190500229128076,-1.7590398665037184,-0.007243191387397333,-0.016991493888679883,-0.46501398920330755
7845,1.0,300.0211,19646.811999999998,0.0,-0.07845012577954258,0.0,0.0,0.0,0.0,-1.3026600651125386,-2.9136368355785676,-1.7558434677382584,-0.0015082890404065387,0.004525945827276076,-0.47628842306600755
7846,1.0,299.77714,19597.383,0.0,-0.07846012176696182,0.0,0.0,0.0,0.0,-1.2903577903483987,-2.9320057426664374,-1.7347516536566585,-0.006042221507620834,0.014366506371363786,-0.46362853181157354
7847,1.0,300.70734,19603.75,0.0,-0.07847011775438117,0.0,0.0,0.0,0.0,-1.2658935759589687,-2.9268901468865676,-1.7662666701919483,-0.0019772372973631282,-0.001130664001712849,-0.4518282312794746
7848,1.0,299.52702999999997,19756.738999999998,0.0,-0.07848011374180053,0.0,0.0,0.0,0.0,-1.2824329586662788,-2.936751198184777,-1.7863711733761083,-0.000913913157623706,0.006262875563347693,-0.4395343158286596
7849,1.0,300.06196,19673.337,0.0,-0.07849010972921988,0.0,0.0,0.0,0.0,-1.2528076535674888,-2.9389401223758074,-1.7884556314818283,0.017536821039499485,-0.0002159609041786818,-0.45894990013732856
7850,1.0,300.16892,19361.328,0.0,-0.07850010571663912,0.0,0.0,0.0,0.0,-1.223194102169859,-2.912118277653697,-1.7500477784912685,0.010635693158661188,0.015345016178435186,-0.4665544029328345
7851,1.0,300.4466,19383.744,0.0,-0.07851013469411594,0.0,0.0,0.0,0.0,-1.246195386064909,-2.9253774658122773,-1.7206014133601384,-0.007015125103213942,-0.00983941587544974,-0.47697611590887756
7852,1.0,299.67456,19592.831000000002,0.0,-0.0785201306815353,0.0,0.0,0.0,0.0,-1.2914864496347886,-2.9203088848370475,-1.7439359552130784,0.00014553046728023886,0.003625082895242827,-0.4759956140521095
7853,1.0,299.73395,19597.269,0.0,-0.07853012666895454,0.0,0.0,0.0,0.0,-1.2845521712504286,-2.924818253082087,-1.7477100078605483,0.000985073509496686,0.009584268050543611,-0.4634850150674096
7854,1.0,299.46392000000003,19483.319,0.0,-0.07854012265637367,0.0,0.0,0.0,0.0,-1.2546401163733387,-2.924442641270017,-1.7433598212062182,0.004791891858497905,0.008567276828524392,-0.4569753492699556
7855,1.0,300.98017000000004,19580.464,0.0,-0.07855011864379313,0.0,0.0,0.0,0.0,-1.255532181761379,-2.920805478711057,-1.7756345726664882,-0.008868236324901782,-0.024465164818023775,-0.4572303944526266
7856,1.0,300.83225,19666.735,0.0,-0.07856011463121249,0.0,0.0,0.0,0.0,-1.2707766308408888,-2.9394137154725475,-1.7680059139885984,-0.008485591543887682,-0.018321797037720584,-0.4682329631809955
7857,1.0,300.33423999999997,19721.976000000002,0.0,-0.07857011061863184,0.0,0.0,0.0,0.0,-1.3037970330497488,-2.9277265848441174,-1.7634647296904185,0.0033555528970922867,-0.0035256987658093767,-0.47499114883047655
7858,1.0,300.29898,19697.987,0.0,-0.07858010660605108,0.0,0.0,0.0,0.0,-1.3154222540970688,-2.9058991511899173,-1.7663747839776183,-0.00993480192263861,0.010211632793059689,-0.4580065946917316
7859,1.0,300.20443,19500.297,0.0,-0.0785901355835279,0.0,0.0,0.0,0.0,-1.2635188216995987,-2.927370528758977,-1.7367140151253282,-0.011621407173943589,-0.0002783697642754567,-0.4768594806898666
7860,1.0,300.06172999999995,19510.272,0.0,-0.07860013157094725,0.0,0.0,0.0,0.0,-1.2564556579025188,-2.9106659862853674,-1.7635138723202681,-0.0004528165858245175,0.004596911432479835,-0.4515538735498976
7861,1.0,299.87367,19747.02,0.0,-0.07861012755836638,0.0,0.0,0.0,0.0,-1.2657449321692988,-2.942053231983047,-1.7948028327582484,0.017368690423906284,0.01027675944323719,-0.47350908817420856
7862,1.0,299.34553999999997,19644.872,0.0,-0.07862012354578563,0.0,0.0,0.0,0.0,-1.2724859837595888,-2.938638477821037,-1.7604261952905382,0.012042137999716488,-0.014791270945784784,-0.46410835639642856
7863,1.0,299.62599,19501.873,0.0,-0.0786301195332052,0.0,0.0,0.0,0.0,-1.2603419786610688,-2.9277939659757672,-1.7399464855943485,0.0005518502624458805,-0.03573448176771876,-0.4726226665892255
7864,1.0,300.27192,19646.36,0.0,-0.07864011552062444,0.0,0.0,0.0,0.0,-1.2845505500502687,-2.944896310438637,-1.7425559085768785,-0.0027763889684582575,-0.004186043785830356,-0.46709876141655854
7865,1.0,300.2365,19713.918999999998,0.0,-0.0786501115080438,0.0,0.0,0.0,0.0,-1.2926327394729187,-2.9365319308631372,-1.7633743477814985,-0.004466745474283456,0.008639047055632561,-0.46269205567165056
7866,1.0,300.2475,19694.09,0.0,-0.07866010749546304,0.0,0.0,0.0,0.0,-1.2691583691061787,-2.945358251159227,-1.7719949783072881,-0.018709091623443582,0.007820675955315623,-0.4592354948105145
7867,1.0,300.59348,19642.262,0.0,-0.07867013647293974,0.0,0.0,0.0,0.0,-1.266343053703329,-2.9325123677164373,-1.7719015566480685,-0.023806322245251078,-0.014703960197917884,-0.47183977889946055
7868,1.0,300.147,19619.15,0.0,-0.07868013246035921,0.0,0.0,0.0,0.0,-1.2690795382483988,-2.9263428905075575,-1.7683093823935483,-0.006644671848728054,-0.01009605864955341,-0.46510212169700554
7869,1.0,301.05053,19604.398,0.0,-0.07869012844777834,0.0,0.0,0.0,0.0,-1.2892801988670488,-2.932337075449137,-1.7376300945407384,0.0068865267442472745,0.005073010195392125,-0.4721323953958395
7870,1.0,300.17576,19722.413,0.0,-0.0787001244351978,0.0,0.0,0.0,0.0,-1.2892860757176288,-2.932621292102187,-1.773213715527568,0.008945793729956101,0.006006597863255055,-0.4687684759913465
7871,1.0,299.89949,19753.357,0.0,-0.07871012042261716,0.0,0.0,0.0,0.0,-1.3024089817377589,-2.9243066631065973,-1.777811641831348,-0.01087281394706319,-0.0003091504683307757,-0.4569992214423116
7872,1.0,299.76372000000003,19634.231,0.0,-0.07872011641003629,0.0,0.0,0.0,0.0,-1.259022321730829,-2.9340310269663172,-1.7752627098797882,-0.001154383071978739,0.017703358825935482,-0.4602204752327246
7873,1.0,299.9089,19625.668,0.0,-0.07873011239745575,0.0,0.0,0.0,0.0,-1.2749610497788588,-2.9232561254029172,-1.7674957425632485,-0.0037886734411129567,0.028040444140376375,-0.4517916529508646
7874,1.0,299.91514,19772.242,0.0,-0.07874010838487489,0.0,0.0,0.0,0.0,-1.299345318735399,-2.936452289405277,-1.7744703483015882,-0.007562208520431873,-0.002681275586871297,-0.45677533370021556
7875,1.0,300.06509,19743.906000000003,0.0,-0.0787501373623517,0.0,0.0,0.0,0.0,-1.2981922401215988,-2.9379189689250267,-1.7655433109455583,-0.004692050043994285,-0.024532292637148775,-0.45315874011828555
7876,1.0,299.63846,19669.676,0.0,-0.07876013334977106,0.0,0.0,0.0,0.0,-1.2872656550182289,-2.925117871136657,-1.7667068260353884,0.017005756397087485,-0.015205346744900886,-0.45767086440359755
7877,1.0,300.04384,19749.642,0.0,-0.0787701293371903,0.0,0.0,0.0,0.0,-1.2787456402273687,-2.948091290653957,-1.776561189882938,0.007272631673027863,0.004558373883476475,-0.46480296973748153
7878,1.0,300.22442,19664.175,0.0,-0.07878012532460965,0.0,0.0,0.0,0.0,-1.277737861677909,-2.9392897949853176,-1.7603905288870185,0.014574875174928186,0.005463383845519005,-0.46950770273430253
7879,1.0,299.73172999999997,19632.027,0.0,-0.07879012131202912,0.0,0.0,0.0,0.0,-1.2611426488900885,-2.9404134893462177,-1.7660899593745085,-0.026145849851644472,0.016624621358722384,-0.4789431079305046
7880,1.0,299.48814,19683.293,0.0,-0.07880011729944825,0.0,0.0,0.0,0.0,-1.2932383590576886,-2.939917706072287,-1.7500734137187985,0.004791393542098725,0.021185558967601877,-0.4819845706231735
7881,1.0,299.40423,19588.152,0.0,-0.07881011328686771,0.0,0.0,0.0,0.0,-1.2734279010525487,-2.923618666288697,-1.7572625245033084,-0.012249402360671886,0.013078312883228988,-0.4717877181093226
7882,1.0,299.93099,19486.854,0.0,-0.07882010927428684,0.0,0.0,0.0,0.0,-1.246646485009429,-2.938074097515337,-1.7387965480558583,0.002912063562148297,-0.017933323028881183,-0.4884961919933205
7883,1.0,300.08762,19698.737,0.0,-0.07883013825176366,0.0,0.0,0.0,0.0,-1.2736891169283289,-2.945037658827587,-1.7691974961061983,-0.004221611296140596,-0.026719963437805076,-0.45249414937769555
7884,1.0,299.99834,19798.147,0.0,-0.07884013423918301,0.0,0.0,0.0,0.0,-1.2837574791969988,-2.941471626425647,-1.7929133239717683,0.015685802584568184,-0.017050067850460683,-0.47611739658162855
7885,1.0,300.21971,19704.057,0.0,-0.07885013022660226,0.0,0.0,0.0,0.0,-1.2767191400273687,-2.9443696230366574,-1.7684525546326784,0.022743544480363077,-0.002031664026484628,-0.4427260232461566
7886,1.0,299.68584,19625.479,0.0,-0.07886012621402161,0.0,0.0,0.0,0.0,-1.2788489917375687,-2.9340012374133773,-1.7528054399634283,0.01027578874964139,-0.011389370874543388,-0.4809022371313555
7887,1.0,300.3537,19699.936,0.0,-0.07887012220144096,0.0,0.0,0.0,0.0,-1.2853753356316686,-2.9292276135422575,-1.7736855860991383,-0.0005542053697858116,-0.019626819596766282,-0.4498686562485796
7888,1.0,300.10994,19780.668,0.0,-0.0788801181888602,0.0,0.0,0.0,0.0,-1.2932087721547687,-2.956210058405217,-1.7634102168350385,-0.007459188849639623,-0.013949571180465487,-0.48354595862977057
7889,1.0,300.04169,19746.935,0.0,-0.07889011417627956,0.0,0.0,0.0,0.0,-1.281890869862779,-2.9338747838008974,-1.7868094040443585,-0.007218651483225432,0.02261546966772308,-0.44760532910270656
7890,1.0,300.33428,19729.133,0.0,-0.0789001101636988,0.0,0.0,0.0,0.0,-1.271290044666559,-2.961245911402217,-1.7646280421302285,-0.007692369209727732,0.014742789968250087,-0.4759479102374016
7891,1.0,300.7534,19750.988999999998,0.0,-0.07891010615111815,0.0,0.0,0.0,0.0,-1.281423558916659,-2.945398375863187,-1.7769855390248184,-0.023264897120566577,0.016171989366801084,-0.4478995566667446
7892,1.0,300.32712999999995,19826.493000000002,0.0,-0.07892013512859497,0.0,0.0,0.0,0.0,-1.3121900876030788,-2.9526059277995174,-1.7619629917172084,-0.021290830586741378,0.015514812577192786,-0.4666563460253956
7893,1.0,300.8176,19980.183999999997,0.0,-0.07893013111601432,0.0,0.0,0.0,0.0,-1.3006167449608788,-2.967444671538987,-1.8054157156306585,0.00961047404185494,-0.0003611382335340686,-0.45400599958690363
7894,1.0,300.08096,19745.98,0.0,-0.07894012710343357,0.0,0.0,0.0,0.0,-1.2844248057128589,-2.9399047364710076,-1.7779553206955283,0.022465783243700178,-0.018195958468051283,-0.45433364413923955
7895,1.0,300.18342,19570.408,0.0,-0.07895012309085292,0.0,0.0,0.0,0.0,-1.2411009672121287,-2.941677012220917,-1.766137480804198,0.02003709368150718,-0.02147553290772008,-0.4632055100273246
7896,1.0,299.98308,19676.202,0.0,-0.07896011907827216,0.0,0.0,0.0,0.0,-1.275913910172899,-2.941735476751687,-1.7634249089614882,0.026479802899103073,-0.02336427263737418,-0.46038362876382655
7897,1.0,299.7619,19766.605,0.0,-0.07897011506569152,0.0,0.0,0.0,0.0,-1.2948293643647089,-2.937584596392027,-1.7761402857913982,-0.003400227499301327,0.013028784205090889,-0.47436419019860054
7898,1.0,300.13514,19670.073,0.0,-0.07898011105311076,0.0,0.0,0.0,0.0,-1.2750480879624488,-2.964779823775987,-1.7393832198637584,-0.0041026895769539365,0.013329458066265088,-0.4918711963539075
7899,1.0,300.2506,19682.158,0.0,-0.07899010704053011,0.0,0.0,0.0,0.0,-1.264639476310199,-2.9577531369825074,-1.7604918538970185,-0.005446487292151444,0.022689738873552877,-0.49188144031241854
7900,1.0,300.27792,19798.141,0.0,-0.07900013601800693,0.0,0.0,0.0,0.0,-1.2974123415196288,-2.9549977046605673,-1.7657305595640382,-0.0051874239648838855,0.021592074907721876,-0.46883472228288453
7901,1.0,300.3573,19838.721,0.0,-0.07901013200542628,0.0,0.0,0.0,0.0,-1.2871405186308786,-2.949229879791327,-1.7941054127144183,0.0036549798526934268,0.016886347912552783,-0.45896381206120157
7902,1.0,299.80682,19725.788,0.0,-0.07902012799284552,0.0,0.0,0.0,0.0,-1.2838756241586589,-2.9279239659635974,-1.7843475102763882,0.0025642543195721974,0.008558101139593821,-0.4633983517863565
7903,1.0,299.38755,19654.656000000003,0.0,-0.07903012398026488,0.0,0.0,0.0,0.0,-1.273248859759879,-2.9348626013233874,-1.7664131861564083,-0.01033231695947029,0.005325882463223675,-0.44575913675800155
7904,1.0,299.87384,19774.141,0.0,-0.07904011996768412,0.0,0.0,0.0,0.0,-1.2991753966936288,-2.942071571809857,-1.7695981351957384,0.002241705705964128,0.006151101310366434,-0.4679769452782286
7905,1.0,299.36798,19850.075,0.0,-0.07905011595510347,0.0,0.0,0.0,0.0,-1.3072212104376886,-2.944272655002087,-1.7824332781874683,-0.013356011298385687,0.0010571899945615289,-0.46082782747516554
7906,1.0,299.40421000000003,19872.023,0.0,-0.07906011194252283,0.0,0.0,0.0,0.0,-1.3087714830906887,-2.963682879217727,-1.7681443239522585,0.009408398129361601,-0.009837499819510641,-0.47196337514665854
7907,1.0,299.71333,19745.085,0.0,-0.07907010792994207,0.0,0.0,0.0,0.0,-1.2856613761348987,-2.936062694741827,-1.7802886330258085,0.01059516518116139,-0.015917550107689884,-0.4518193450760976
7908,1.0,299.9748,19676.328999999998,0.0,-0.079080136907419,0.0,0.0,0.0,0.0,-1.269110239726429,-2.953691827931687,-1.7583105290817382,0.029392590935072873,-0.006846045477577083,-0.46549334769311657
7909,1.0,299.47717,19847.173,0.0,-0.07909013289483824,0.0,0.0,0.0,0.0,-1.2902762237153487,-2.959383253743387,-1.7833854293064384,0.0013271692678064088,-0.01072825659504649,-0.46791872392748257
7910,1.0,299.62021,19943.357,0.0,-0.07910012888225737,0.0,0.0,0.0,0.0,-1.3103859958000288,-2.961905334567297,-1.7899912120083783,-0.007742136001639333,-0.0004430352266466725,-0.4774553933386786
7911,1.0,299.60131,19670.729,0.0,-0.07911012486967683,0.0,0.0,0.0,0.0,-1.2694057034555888,-2.957123300720347,-1.7528816363709485,-0.014963863914818385,0.011476375620880089,-0.48310986591923155
7912,1.0,299.91733999999997,19596.499,0.0,-0.07912012085709597,0.0,0.0,0.0,0.0,-1.260082991935509,-2.9350470128415873,-1.7617163666428683,-0.004064648621824586,0.016210301366332183,-0.4551198755543346
7913,1.0,300.0726,19742.468999999997,0.0,-0.07913011684451543,0.0,0.0,0.0,0.0,-1.2576246445428887,-2.949777237495347,-1.7938157245108282,-0.007965357430469572,0.00993134410534735,-0.46404739927041255
7914,1.0,300.19996000000003,19753.096999999998,0.0,-0.07914011283193478,0.0,0.0,0.0,0.0,-1.2844241977627988,-2.948541984298437,-1.7714821724316785,-0.008541217859802571,-0.03292238039418597,-0.4605249163577706
7915,1.0,299.83067,19776.183,0.0,-0.07915010881935403,0.0,0.0,0.0,0.0,-1.2595044261284087,-2.957728717655097,-1.7942326769269783,0.005282252319217715,-0.030710907335430575,-0.47085353191462553
7916,1.0,300.11587000000003,19797.494,0.0,-0.07916013779683095,0.0,0.0,0.0,0.0,-1.2943073379131886,-2.9680920370278767,-1.7555444576337482,0.017064970732931485,-0.007169182992143273,-0.4776952802998535
7917,1.0,299.47459,19829.835,0.0,-0.0791701337842502,0.0,0.0,0.0,0.0,-1.281668461465829,-2.9741357698993474,-1.7719704576548685,0.026464307265323773,0.008597865227843232,-0.4908094825016246
7918,1.0,299.5381,19850.339,0.0,-0.07918012977166933,0.0,0.0,0.0,0.0,-1.3012171969701387,-2.9591885070741673,-1.7736016889908583,-0.0024918887067052675,0.005666186055684025,-0.47594995700260356
7919,1.0,299.50365,19888.589,0.0,-0.07919012575908879,0.0,0.0,0.0,0.0,-1.2766416263947187,-2.969273283994457,-1.799719527543488,-0.0057317444517291346,0.003510043950439366,-0.45741821049116255
7920,1.0,299.40441,19762.406000000003,0.0,-0.07920012174650792,0.0,0.0,0.0,0.0,-1.2877916331451387,-2.944373372062027,-1.7751131541650285,-0.010748248019519489,0.006916676507597823,-0.4515067168902436
7921,1.0,299.95107,19784.587,0.0,-0.07921011773392728,0.0,0.0,0.0,0.0,-1.2844739483427088,-2.948491828418487,-1.7810547514264183,-0.008658175494995392,0.003055062130211157,-0.4587924512042896
7922,1.0,300.16681,19942.255,0.0,-0.07922011372134674,0.0,0.0,0.0,0.0,-1.3095283809153886,-2.9672266201174673,-1.7851925608597883,-0.015436933161256687,-0.008046844118086682,-0.46734856809621256
7923,1.0,300.03382,19893.599,0.0,-0.07923010970876587,0.0,0.0,0.0,0.0,-1.3138191911138588,-2.9401824683234175,-1.7931556933956883,-0.016212311654530586,0.001246925534086969,-0.4589568814305176
7924,1.0,300.03642,19803.701,0.0,-0.07924013868624291,0.0,0.0,0.0,0.0,-1.2750195143096288,-2.9795070086794473,-1.7653039812719382,-0.0028320349414250874,0.02070849751576958,-0.48089270244791454
7925,1.0,299.7682,19776.685,0.0,-0.07925013467366204,0.0,0.0,0.0,0.0,-1.2815570039548287,-2.9524660992857172,-1.7775952116099882,-0.004099499359014087,0.01978439417281768,-0.4591972142217366
7926,1.0,300.02551,19943.745,0.0,-0.07926013066108129,0.0,0.0,0.0,0.0,-1.3065239930438788,-2.983376104186297,-1.7725003874571683,-0.01925570661514028,-0.0022796654997604675,-0.4866560791492155
7927,1.0,300.24557999999996,19829.458,0.0,-0.07927012664850064,0.0,0.0,0.0,0.0,-1.2861991079629687,-2.969163650333637,-1.7722972308121183,-0.006604080644422015,-0.01310796564740549,-0.48034188956105356
7928,1.0,300.08464,19717.514,0.0,-0.0792801226359201,0.0,0.0,0.0,0.0,-1.2876955770356588,-2.9479393031389574,-1.7579970295007985,0.003191591197710527,-0.009480651676767472,-0.4833945891973315
7929,1.0,299.89017,19770.03,0.0,-0.07929011862333946,0.0,0.0,0.0,0.0,-1.2803689682125787,-2.965094843232077,-1.7641317522312483,0.015783728140482685,0.005630744695011234,-0.4747342494001226
7930,1.0,299.88043999999996,19793.933999999997,0.0,-0.0793001146107587,0.0,0.0,0.0,0.0,-1.2805933017847189,-2.9631921621942974,-1.773076116163988,0.0025938997883479774,-0.01254730498282259,-0.46992912358339356
7931,1.0,299.59417,19855.787,0.0,-0.07931011059817783,0.0,0.0,0.0,0.0,-1.2815355230527088,-2.9607913674073574,-1.7933363558885183,0.008700119185534913,0.01040033846518349,-0.4614116115202806
7932,1.0,299.76538999999997,19994.089,0.0,-0.07932010658559718,0.0,0.0,0.0,0.0,-1.3048859729322186,-2.9756051851943672,-1.7972125441460682,0.0029044308504700073,0.008981851248014702,-0.4485658294025006
7933,1.0,299.34997999999996,19964.078999999998,0.0,-0.079330135563074,0.0,0.0,0.0,0.0,-1.289017361791109,-2.9757204930557473,-1.8038434554504883,0.006289900868689884,-0.003243390670647737,-0.48456630148047053
7934,1.0,299.94099,19830.591,0.0,-0.07934013155049324,0.0,0.0,0.0,0.0,-1.2950995981663789,-2.9640039781744174,-1.7689009178019282,-0.005675390318267415,-0.007329253405840994,-0.4676298767214756
7935,1.0,299.96237,19894.124,0.0,-0.0793501275379126,0.0,0.0,0.0,0.0,-1.2952977898859386,-2.972039963392507,-1.7799792877702785,-0.007928677574199553,-0.005216269371380706,-0.4841275844521726
7936,1.0,300.14239,19861.251,0.0,-0.07936012352533195,0.0,0.0,0.0,0.0,-1.2897196454354187,-2.9586139942674676,-1.7889909315096584,-0.003114181423195777,0.000903443132882895,-0.45308954526895656
7937,1.0,300.4631,19853.779,0.0,-0.07937011951275141,0.0,0.0,0.0,0.0,-1.2929875796579386,-2.976963041653377,-1.7651024458270486,-7.574529438997853e-05,-0.0037443344273370358,-0.4736130071044645
7938,1.0,300.46644,19900.021,0.0,-0.07938011550017054,0.0,0.0,0.0,0.0,-1.3003443833339987,-2.957227665480647,-1.791537330335968,0.004527616676690976,-0.007660216656229523,-0.4548063557083925
7939,1.0,299.81635,19815.558999999997,0.0,-0.07939011148758979,0.0,0.0,0.0,0.0,-1.2916803857039287,-2.9538560757728973,-1.7778986800149381,0.00922839151332133,-0.011939123901799789,-0.46268930976387956
7940,1.0,299.8777,19895.461,0.0,-0.07940010747500914,0.0,0.0,0.0,0.0,-1.2827555774981187,-2.9739540941564173,-1.7910135813592782,0.015428440098918486,-0.0063792248431804735,-0.46545642485947253
7941,1.0,299.96401000000003,19999.185,0.0,-0.07941013645248596,0.0,0.0,0.0,0.0,-1.3003686000113888,-2.9576515079974772,-1.821232853666688,0.014263518617949687,-0.013170664550343388,-0.45445253890597354
7942,1.0,299.91361,20016.776,0.0,-0.0794201324399052,0.0,0.0,0.0,0.0,-1.2927593957354186,-2.984663235788327,-1.8071775549045381,0.008075500857414881,-0.007735999455058703,-0.4676925867701645
7943,1.0,299.50161,19814.626,0.0,-0.07943012842732455,0.0,0.0,0.0,0.0,-1.2869499262870687,-2.9511983207605974,-1.7850033870661184,0.0032320397364024867,0.003285663566144747,-0.4438303746626476
7944,1.0,299.91351000000003,19902.54,0.0,-0.0794401244147439,0.0,0.0,0.0,0.0,-1.2953111647872588,-2.972194788007787,-1.7823693421061584,-0.02032515359218648,0.011648745674891688,-0.46205323188110353
7945,1.0,299.7743,19937.731,0.0,-0.07945012040216337,0.0,0.0,0.0,0.0,-1.2911091152975487,-2.985604545131227,-1.7838588197531586,-0.009387347959859111,0.006449670549757924,-0.4773285749561625
7946,1.0,298.84252999999995,19854.438000000002,0.0,-0.0794601163895825,0.0,0.0,0.0,0.0,-1.2830106125482887,-2.972739409936537,-1.7795033641983085,-0.009090566802919092,0.006425022531800354,-0.47961617957443153
7947,1.0,298.83682999999996,19838.106,0.0,-0.07947011237700174,0.0,0.0,0.0,0.0,-1.2523825951505387,-2.999280077755897,-1.7786261935867382,0.006981874997207414,0.0067207995578912735,-0.4860803909723995
7948,1.0,299.18278,19915.206000000002,0.0,-0.0794801083644211,0.0,0.0,0.0,0.0,-1.2895233788910487,-2.973668965578277,-1.7905329968368484,0.006341129476520754,0.006610278188658665,-0.46167208772348756
7949,1.0,299.39835,19945.806,0.0,-0.07949013734189792,0.0,0.0,0.0,0.0,-1.3071728784079186,-2.973615567298007,-1.7822383288682284,0.012908216562441788,-0.002057750758259188,-0.4715351351243946
7950,1.0,299.96471,19866.346,0.0,-0.07950013332931705,0.0,0.0,0.0,0.0,-1.2963813595428788,-2.975626666096487,-1.7668651970260183,-0.002050717181365028,0.01338290194278959,-0.45547072353396056
7951,1.0,299.75247,19904.369,0.0,-0.07951012931673662,0.0,0.0,0.0,0.0,-1.288696668134459,-2.972679628180637,-1.7890547662659584,-0.0026837659529670775,0.01031662880817199,-0.4812351404517105
7952,1.0,300.10827,19923.25,0.0,-0.07952012530415586,0.0,0.0,0.0,0.0,-1.2872047586872188,-2.9620098006526074,-1.8069558557826582,-0.025182565140575677,0.015848134369839086,-0.45214816499854954
7953,1.0,300.34398,20020.923,0.0,-0.07953012129157522,0.0,0.0,0.0,0.0,-1.2824578846187387,-2.986532479572807,-1.8168702040361284,-0.015571598152547085,-0.002665126710752528,-0.48158535008377357
7954,1.0,300.57592,20066.735,0.0,-0.07954011727899446,0.0,0.0,0.0,0.0,-1.3113559801207588,-2.9700584514969472,-1.8183720433343484,-0.014284622591032487,0.0006490250709637874,-0.4596997356088316
7955,1.0,300.05203,19968.71,0.0,-0.0795501132664137,0.0,0.0,0.0,0.0,-1.3158191441612388,-2.9758591056694272,-1.7783109714806284,0.008532105802978283,-0.0064559678991294245,-0.46194923189083953
7956,1.0,300.88822999999996,19952.238999999998,0.0,-0.07956010925383306,0.0,0.0,0.0,0.0,-1.3221985667908387,-2.9719058090792676,-1.7708780727220585,0.0036723267957304365,0.005240612097083145,-0.47446829151387454
7957,1.0,299.68934,20013.168999999998,0.0,-0.07957013823130987,0.0,0.0,0.0,0.0,-1.3248055579731288,-2.9826822305178173,-1.7760158586791184,0.004378950088893726,0.00014804484740338887,-0.4771644183074615
7958,1.0,299.71181,20014.625,0.0,-0.07958013421872923,0.0,0.0,0.0,0.0,-1.3030062926717088,-2.989676695958117,-1.7912632461839182,-0.003411269189616057,0.0008118194859653452,-0.48349861958509854
7959,1.0,299.39771,19806.525,0.0,-0.07959013020614858,0.0,0.0,0.0,0.0,-1.2666420638078388,-2.962122575388737,-1.7919244931991785,0.012365129707593289,-0.002114116037472008,-0.46201661302248953
7960,1.0,299.97222,19838.627,0.0,-0.07960012619356782,0.0,0.0,0.0,0.0,-1.2771032631402788,-2.9643296367565575,-1.7890142362619583,0.007236163180728702,0.006066910562207454,-0.45529313118893355
7961,1.0,299.70597999999995,20021.191000000003,0.0,-0.07961012218098718,0.0,0.0,0.0,0.0,-1.3293148248931588,-2.9711017951249175,-1.7855256161676583,0.00947520859855528,-0.012752171994041387,-0.4615980900686845
7962,1.0,299.60031000000004,20037.775,0.0,-0.07962011816840642,0.0,0.0,0.0,0.0,-1.3185330332290788,-2.978715559026337,-1.7937345631778183,-0.007880994733768623,-0.018856116239453782,-0.46708473803517453
7963,1.0,299.45856000000003,19992.672,0.0,-0.07963011415582555,0.0,0.0,0.0,0.0,-1.2995070334513588,-3.006391978882787,-1.7713739573209981,0.0007353230449582343,0.0014100518087612787,-0.5031157798686615
7964,1.0,300.46289,20089.353,0.0,-0.07964011014324512,0.0,0.0,0.0,0.0,-1.284314766751999,-3.0001778173444973,-1.8221691980840982,-0.00013625749620756788,0.02102728423573138,-0.47652727651208054
7965,1.0,300.32186,20016.923,0.0,-0.07965013912072172,0.0,0.0,0.0,0.0,-1.2828130287787887,-3.0013154945567773,-1.8005163474221282,-0.002091752797164928,0.003103903520806427,-0.4945797455937205
7966,1.0,299.37694,19936.267,0.0,-0.07966013510814118,0.0,0.0,0.0,0.0,-1.2822910023272687,-2.9876780601358677,-1.7901582969498684,-0.003305808295357877,-0.013284821359609789,-0.4568664654142095
7967,1.0,299.98534,19928.444,0.0,-0.07967013109556054,0.0,0.0,0.0,0.0,-1.2921316872984687,-2.9726097139237373,-1.7930078602060984,0.004369142030575745,-0.011480100328247688,-0.46891405976571454
7968,1.0,300.15272000000004,19829.13,0.0,-0.07968012708297978,0.0,0.0,0.0,0.0,-1.2894850780372686,-2.9688341414011172,-1.7692412685105183,-0.0009527234938189881,-0.004266540021474715,-0.45294114465931057
7969,1.0,300.08898999999997,19920.997,0.0,-0.07969012307039913,0.0,0.0,0.0,0.0,-1.3006639624155385,-2.975596876543547,-1.7792247204208085,-0.0005593059289341974,-0.022335556287847776,-0.48865585994407856
7970,1.0,299.51937000000004,20082.421000000002,0.0,-0.07970011905781826,0.0,0.0,0.0,0.0,-1.3094398228566488,-2.9757654813601873,-1.8193493230557984,-0.0069895509746649735,0.006983985293190683,-0.4598936412804686
7971,1.0,299.0894,20042.893,0.0,-0.07971011504523773,0.0,0.0,0.0,0.0,-1.2911938230059088,-2.988210827038447,-1.813134249592418,0.007494483187722904,0.006205346769045045,-0.46483148259529555
7972,1.0,299.33122000000003,19949.87,0.0,-0.07972011103265708,0.0,0.0,0.0,0.0,-1.293273012211109,-2.971856058499357,-1.7991331597106182,0.0070504270406729725,0.005123373082337555,-0.4456033596876276
7973,1.0,299.60112999999996,20049.999,0.0,-0.07973014001013368,0.0,0.0,0.0,0.0,-1.3114153565766187,-2.988649564331747,-1.7946342279416083,-0.0007191673091362873,-0.011840646124580788,-0.4778146816916376
7974,1.0,299.28272999999996,20191.633,0.0,-0.07974013599755303,0.0,0.0,0.0,0.0,-1.3362355257261789,-2.998303304659497,-1.8032133152132985,-0.0012921931915795388,-0.01105173364972119,-0.47094093486825156
7975,1.0,299.4678,19967.516,0.0,-0.0797501319849725,0.0,0.0,0.0,0.0,-1.2947389824557887,-2.983570648205497,-1.7913168471142085,0.01056302995423989,0.003091296156437177,-0.49657122787026453
7976,1.0,299.77866,19799.27,0.0,-0.07976012797239163,0.0,0.0,0.0,0.0,-1.2533491344209289,-2.992071309919447,-1.7730630452376983,0.01042131375550359,0.02636750540377018,-0.48599503478397554
7977,1.0,300.40115,19918.742,0.0,-0.07977012395981109,0.0,0.0,0.0,0.0,-1.2863521087280687,-2.969734110139937,-1.7987139781442483,0.002044668888868108,0.012973301669365188,-0.4716140774396856
7978,1.0,300.03739,20078.654,0.0,-0.07978011994723022,0.0,0.0,0.0,0.0,-1.3166172812650088,-2.9771050993173973,-1.8096870714272084,0.00040703946618166764,0.00017238847489841786,-0.4478947335962686
7979,1.0,299.93611,19939.416,0.0,-0.07979011593464969,0.0,0.0,0.0,0.0,-1.288071188847729,-2.9834029553139474,-1.7896105339458086,-0.003004063428827977,0.0013417102173414886,-0.4673474535211026
7980,1.0,299.71411,20014.24,0.0,-0.07980011192206904,0.0,0.0,0.0,0.0,-1.2905950935218187,-2.985511832747077,-1.807722176833288,0.0043568654923641465,-0.009294405466611403,-0.46105415715000253
7981,1.0,299.94404,20238.98,0.0,-0.07981010790948817,0.0,0.0,0.0,0.0,-1.3057236267898886,-3.0280625614215073,-1.8183583644579981,-0.005181580146257145,-0.008614288998714132,-0.48828820214529356
7982,1.0,300.26935,20291.916,0.0,-0.07982013688696499,0.0,0.0,0.0,0.0,-1.3292880750905187,-3.0189621569733673,-1.8199856441185984,-0.008522174229473111,0.0019237677856110981,-0.48586266379091153
7983,1.0,300.30523,20145.933999999997,0.0,-0.07983013287438445,0.0,0.0,0.0,0.0,-1.3138912331959687,-2.997129961043697,-1.8128395964633381,-0.006676771206596014,0.012504396880837888,-0.47082214142652756
7984,1.0,300.41227000000003,19897.828999999998,0.0,-0.07984012886180358,0.0,0.0,0.0,0.0,-1.2871801367097888,-2.990502697439637,-1.7707604343854482,-0.005775478149895314,0.012523792514252088,-0.4758157013643536
7985,1.0,300.915,19901.221,0.0,-0.07985012484922294,0.0,0.0,0.0,0.0,-1.2783262560109787,-2.980937616495637,-1.7902102766799983,-0.01982758193182998,-0.00040218037466461257,-0.4703885818412385
7986,1.0,300.40844,20042.539,0.0,-0.07986012083664218,0.0,0.0,0.0,0.0,-1.3131154889194088,-2.9880970390522172,-1.7912189671545484,-0.009178177878115631,-0.0011399037280497388,-0.4842322126574985
7987,1.0,300.32072,20208.407,0.0,-0.07987011682406153,0.0,0.0,0.0,0.0,-1.3292390337856788,-3.0013571391358873,-1.812254951155638,-0.00944692412731382,-0.005516536817939795,-0.46898581813779655
7988,1.0,300.28763,20031.659,0.0,-0.079880112811481,0.0,0.0,0.0,0.0,-1.3099782639597888,-2.968404928658757,-1.8107409528562182,0.015185308710923287,-0.014048628536741686,-0.4798405536765755
7989,1.0,299.72548,20028.595,0.0,-0.07989010879890013,0.0,0.0,0.0,0.0,-1.3074523327854988,-2.998481535352087,-1.7822588978452585,0.001808280578963398,-0.00891042633654061,-0.45554557231884757
7990,1.0,299.88052000000005,20307.742,0.0,-0.07990013777637694,0.0,0.0,0.0,0.0,-1.3412339897944885,-3.0013527821604575,-1.8304597117273083,0.014118435389131087,-0.0007741163990818402,-0.4568752604250776
7991,1.0,300.16593,20299.999,0.0,-0.0799101337637963,0.0,0.0,0.0,0.0,-1.3358798749410787,-3.0071511058577074,-1.8276618242261784,-0.006359125304921805,-0.0026850385950926777,-0.44520767539107653
7992,1.0,300.07706,20038.321,0.0,-0.07992012975121554,0.0,0.0,0.0,0.0,-1.2763216420131387,-3.0256212366305673,-1.7892063484809184,0.004507350560115866,-0.011889812059183089,-0.48188548489589456
7993,1.0,300.34193,20015.192,0.0,-0.0799301257386349,0.0,0.0,0.0,0.0,-1.2955268857335487,-2.996516742083177,-1.7920750621640382,-0.009312171996514821,-0.009560401451063162,-0.48058421845496957
7994,1.0,299.82398,20129.155,0.0,-0.07994012172605436,0.0,0.0,0.0,0.0,-1.313314795214079,-3.009148221804807,-1.7962974779807583,-0.0016973414467145586,-0.013176803832699287,-0.4867226294157836
7995,1.0,300.21599,20064.328,0.0,-0.07995011771347349,0.0,0.0,0.0,0.0,-1.3135740859146685,-2.9905519413944974,-1.7949286784206682,-0.0035982764519222363,0.00840305360929182,-0.4790754789235685
7996,1.0,300.07032000000004,20003.335,0.0,-0.07996011370089284,0.0,0.0,0.0,0.0,-1.2979093406936788,-2.984913001937977,-1.7976919127683784,0.0021488617006261384,0.012119924196643386,-0.46922537072643855
7997,1.0,299.67127,20028.577,0.0,-0.07997010968831209,0.0,0.0,0.0,0.0,-1.2827321714208089,-3.001120545237537,-1.8043345777739583,0.005904604412164084,0.02031337152002368,-0.4786394267430335
7998,1.0,299.89813,20048.821,0.0,-0.0799801386657889,0.0,0.0,0.0,0.0,-1.2956075404415088,-2.9928998445262174,-1.805833579971898,0.0023019664251863977,-0.0005424360848392735,-0.46766647531508754
7999,1.0,300.22719,20153.432,0.0,-0.07999013465320826,0.0,0.0,0.0,0.0,-1.3112511087354088,-3.003545759351887,-1.8113433300406683,0.008148681629987262,0.007362477167344924,-0.4862056793472645
8000,1.0,300.04124,20261.252,0.0,-0.0800001306406275,0.0,0.0,0.0,0.0,-1.332932837025229,-3.0174721727013174,-1.8085098774610282,0.01273050566715309,-0.016362086231312186,-0.4806289939768886
8001,1.0,300.74757999999997,20116.002,0.0,-0.08001012662804685,0.0,0.0,0.0,0.0,-1.3001321074380487,-3.0005594073321573,-1.8140709993098685,0.017737761706580785,-0.012298689885286188,-0.4718814234785706
8002,1.0,299.4497,20007.862,0.0,-0.0800201226154662,0.0,0.0,0.0,0.0,-1.2905030904127388,-3.0067643482945368,-1.7846229116535683,0.004418435837340666,0.00015882192745450384,-0.4804780399769905
8003,1.0,299.91531000000003,20279.95,0.0,-0.08003011860288545,0.0,0.0,0.0,0.0,-1.3359616442241489,-3.000492735475577,-1.8281440299487683,0.005126761897297005,0.00946619381374059,-0.4647716907068946
8004,1.0,300.51056,20217.69,0.0,-0.0800401145903048,0.0,0.0,0.0,0.0,-1.3243787770310087,-2.9943204211664174,-1.8269735234332483,-0.008126121819160783,0.0025194287430982576,-0.4733798075939496
8005,1.0,300.34878,19968.945,0.0,-0.08005011057772404,0.0,0.0,0.0,0.0,-1.2926930278538686,-2.996948386625777,-1.7804191396386881,-0.0096858523512442,0.009644778738565552,-0.46883766070817456
8006,1.0,300.04724,20057.837,0.0,-0.08006013955520086,0.0,0.0,0.0,0.0,-1.2983108917083088,-2.988139190256377,-1.8106314205204084,0.006663092532896034,0.00033290714030787666,-0.47755364820087554
8007,1.0,299.6163,20180.238999999998,0.0,-0.08007013554262021,0.0,0.0,0.0,0.0,-1.3210390033763988,-3.002383358837167,-1.8108663932185984,0.0012356622459753688,0.0069206825945181925,-0.46698672635300154
8008,1.0,299.34247,20162.168999999998,0.0,-0.08008013153003934,0.0,0.0,0.0,0.0,-1.3043129800006688,-3.0238505820808173,-1.8006323645585782,0.009777126021577211,-0.0038252537962231562,-0.48109360967774256
8009,1.0,299.92154,20197.635,0.0,-0.08009012751745881,0.0,0.0,0.0,0.0,-1.3224060804113187,-3.0090480113699174,-1.8081224106227882,-0.007653404069182173,0.0036684168662445564,-0.4608937191291686
8010,1.0,299.50355,20218.998,0.0,-0.08010012350487816,0.0,0.0,0.0,0.0,-1.318345581960579,-3.035910082120997,-1.7918146568883382,0.0052128400264172545,8.672362617595552e-05,-0.48558516498602455
8011,1.0,299.83723,20119.735,0.0,-0.0801101194922974,0.0,0.0,0.0,0.0,-1.2992854356544887,-3.006570817525437,-1.8100407970371182,-0.013301039440710387,0.0049612820452904155,-0.47742031462021656
8012,1.0,300.23888999999997,20189.825,0.0,-0.08012011547971676,0.0,0.0,0.0,0.0,-1.3041017173548188,-3.020311907431577,-1.8127888326333281,-0.0036449762371061466,-0.008466472527750782,-0.4934796194301465
8013,1.0,300.16907000000003,20171.988,0.0,-0.080130111467136,0.0,0.0,0.0,0.0,-1.2845288664981287,-3.0236027411063575,-1.8236491511801582,-0.005680731564844555,-0.0035616698536344465,-0.4787966020985455
8014,1.0,300.12656,20013.732,0.0,-0.0801401404446127,0.0,0.0,0.0,0.0,-1.2880967227502487,-2.9944303588022674,-1.8011477035594383,-0.0011869817594959788,-0.006135095505161785,-0.4721061015557445
8015,1.0,300.01932,20080.886000000002,0.0,-0.08015013643203217,0.0,0.0,0.0,0.0,-1.3051818419614187,-3.011115345548947,-1.7877907367662083,-0.00971437615215928,0.01225533190025709,-0.4735429003300456
8016,1.0,299.51308,20149.013,0.0,-0.0801601324194513,0.0,0.0,0.0,0.0,-1.3269116996309887,-2.991752034812937,-1.8061331980264683,-0.01027420909273549,-0.0017153962462714283,-0.4787637727953056
8017,1.0,300.20667000000003,20178.111,0.0,-0.08017012840687088,0.0,0.0,0.0,0.0,-1.3121481390489387,-3.006719866615147,-1.8147737895792282,-0.006036025483259334,0.007320823468984024,-0.46090517898779954
8018,1.0,300.19237999999996,20188.877,0.0,-0.08018012439429012,0.0,0.0,0.0,0.0,-1.3005666904059388,-3.0248979787091868,-1.811449923951188,0.02193942210825238,0.005906700826620984,-0.4796540751281716
8019,1.0,299.93924,20305.652,0.0,-0.08019012038170925,0.0,0.0,0.0,0.0,-1.3279547392839288,-3.0108186659196674,-1.833637871990968,0.00959207818231441,-0.004414332681060716,-0.45708424325820257
8020,1.0,299.38815,20298.672,0.0,-0.08020011636912872,0.0,0.0,0.0,0.0,-1.3213028537024387,-3.034001118932597,-1.8149856601751382,-0.0009196577588006541,-0.017535110673330682,-0.48613849073313353
8021,1.0,299.83196,20242.733,0.0,-0.08021011235654785,0.0,0.0,0.0,0.0,-1.3435085336189687,-3.022721922794427,-1.7870550158685983,-0.009308561583758502,-0.015780300315394385,-0.4633722808612835
8022,1.0,300.17537000000004,20254.72,0.0,-0.08022010834396731,0.0,0.0,0.0,0.0,-1.3180552858069288,-3.016246342730337,-1.8226273897793184,-0.0032411216996988067,0.0020255184619781077,-0.48785718581775556
8023,1.0,300.08502000000004,20153.926,0.0,-0.08023013732144402,0.0,0.0,0.0,0.0,-1.3045529176243487,-3.013339834818487,-1.808397609349948,-0.021547937733365878,0.005429973747321684,-0.46557932196410157
8024,1.0,300.07063,20056.782,0.0,-0.08024013330886348,0.0,0.0,0.0,0.0,-1.2651417443847688,-3.010825556020347,-1.820793711073348,-0.004617735748535036,-0.003145979035183957,-0.49660950845904256
8025,1.0,299.96993,20189.492,0.0,-0.08025012929628283,0.0,0.0,0.0,0.0,-1.2968814997922387,-3.010600411848127,-1.8296196260693982,-0.013007164487707189,-0.0002462185077373748,-0.46385395969382154
8026,1.0,300.43703999999997,20276.06,0.0,-0.08026012528370208,0.0,0.0,0.0,0.0,-1.3120678896410187,-3.035424836648107,-1.8159233218176782,0.005643992129468655,0.003057401826017067,-0.4790755599835765
8027,1.0,300.42512999999997,20137.381999999998,0.0,-0.08027012127112121,0.0,0.0,0.0,0.0,-1.3165775618610887,-3.011379094549977,-1.7933048438104084,0.01454809396153509,0.01008010431745384,-0.47424027984387157
8028,1.0,300.11785,20127.811,0.0,-0.08028011725854067,0.0,0.0,0.0,0.0,-1.3010240715010788,-3.030468523783957,-1.7868593572742884,-0.009250574293785601,0.01019645734631199,-0.49232038025573854
8029,1.0,299.83596,20265.02,0.0,-0.0802901132459598,0.0,0.0,0.0,0.0,-1.3170190349296589,-3.020624596412437,-1.822416431108498,0.004429298689012745,0.004065563485339876,-0.4824501489116225
8030,1.0,299.83453,20262.379,0.0,-0.08030010923337938,0.0,0.0,0.0,0.0,-1.3111990276802687,-3.016058891461837,-1.8319991426042381,-0.0010993862883509789,-6.206617891295494e-05,-0.47554520411765755
8031,1.0,299.73738,20269.635,0.0,-0.08031013821085597,0.0,0.0,0.0,0.0,-1.3115993627947788,-3.032955242179377,-1.816908302239888,0.010065363453674031,0.001075640265632429,-0.4854828267259245
8032,1.0,299.83914,20236.897,0.0,-0.08032013419827544,0.0,0.0,0.0,0.0,-1.3235409205233188,-3.007733522015187,-1.8202369301433983,-0.0008149313290099603,-0.02437186373556568,-0.4611026918297926
8033,1.0,299.76726,20230.575,0.0,-0.08033013018569479,0.0,0.0,0.0,0.0,-1.3375917609850287,-3.014832149565767,-1.7971659346414683,-0.002899665940549747,-0.018176065328837983,-0.4675347528020876
8034,1.0,299.64331,20322.156000000003,0.0,-0.08034012617311392,0.0,0.0,0.0,0.0,-1.3366050580376487,-3.021554861329247,-1.8192681617227882,-0.003585357107847197,0.00011067894988816189,-0.46818546201630756
8035,1.0,299.70476,20421.24,0.0,-0.08035012216053317,0.0,0.0,0.0,0.0,-1.3349435305236688,-3.0226344793107973,-1.8499689304777183,0.007709191187887932,0.014077816219122286,-0.4698234213329615
8036,1.0,299.33106000000004,20348.698,0.0,-0.08036011814795252,0.0,0.0,0.0,0.0,-1.2896956314080488,-3.044993666617477,-1.8508068883104183,-0.004261221573024826,0.017253984433085682,-0.4825152299655456
8037,1.0,299.5271,20210.28,0.0,-0.08037011413537198,0.0,0.0,0.0,0.0,-1.3073155440219988,-3.0183058748835974,-1.8177991517278085,-0.012782426628777288,-0.0050003903580751055,-0.46308490286792153
8038,1.0,300.01251,20315.635,0.0,-0.08038011012279134,0.0,0.0,0.0,0.0,-1.3314251208764287,-3.025476341866267,-1.818544295851348,-0.007344069554103233,0.004263819951581266,-0.47144616163311354
8039,1.0,300.385,20340.664,0.0,-0.08039013910026793,0.0,0.0,0.0,0.0,-1.3519690706289589,-3.021321611156227,-1.809763166509718,0.002450694719914738,-0.008525837128584611,-0.4669481417891935
8040,1.0,300.46488999999997,20190.045,0.0,-0.08040013508768729,0.0,0.0,0.0,0.0,-1.304315918425959,-3.025056856324867,-1.8078967598255182,0.005840223007435134,-0.004321614217410116,-0.5051493525543594
8041,1.0,300.49617,20148.503,0.0,-0.08041013107510675,0.0,0.0,0.0,0.0,-1.2933764650463186,-3.019366950388317,-1.811898388445448,-0.0050498354430799555,-0.008248375206001251,-0.48321939825504157
8042,1.0,300.12063,20276.314,0.0,-0.08042012706252588,0.0,0.0,0.0,0.0,-1.2965590836104186,-3.026192709686967,-1.8407413631420284,0.005362186910331645,0.0003635034429774967,-0.49907101719197455
8043,1.0,299.90619,20263.519,0.0,-0.08043012304994512,0.0,0.0,0.0,0.0,-1.3224054724612588,-3.0224381114414176,-1.8147602120278883,0.0033607288825781164,0.006625511390662063,-0.4741858581810005
8044,1.0,300.14558999999997,20120.741,0.0,-0.08044011903736448,0.0,0.0,0.0,0.0,-1.2940290994357289,-3.0178252903611673,-1.8043482566503086,-0.008509974292969073,-0.01109187861868319,-0.4982593430668685
8045,1.0,300.04868999999997,20129.226000000002,0.0,-0.08045011502478383,0.0,0.0,0.0,0.0,-1.3138259798895289,-3.0187068179481673,-1.7862492793890783,-0.01005298244937712,-0.011140223820704488,-0.4700169723670636
8046,1.0,300.0171,20208.55,0.0,-0.0804601110122033,0.0,0.0,0.0,0.0,-1.3051524577085187,-3.0235429593504572,-1.8141992767725283,-0.02176960544449278,-0.004420556569799966,-0.4896883719284795
8047,1.0,299.73828,20314.398999999998,0.0,-0.08047013998968,0.0,0.0,0.0,0.0,-1.3133062839132386,-3.0425449451008073,-1.8192187151179084,-0.0048247987766955654,0.0006815831778145224,-0.4856888610012585
8048,1.0,299.77981,20382.725,0.0,-0.08048013597709924,0.0,0.0,0.0,0.0,-1.3136327530954588,-3.0361762629222673,-1.846030427339018,-0.005350883700166105,0.007294391522900394,-0.4717570774262985
8049,1.0,299.53452999999996,20330.465,0.0,-0.0804901319645186,0.0,0.0,0.0,0.0,-1.3313258223666289,-3.029105702399457,-1.8195223861728784,0.019237085104802484,0.00962723735283435,-0.4594820590898486
8050,1.0,299.909,20221.955,0.0,-0.08050012795193784,0.0,0.0,0.0,0.0,-1.3320157443597187,-3.011466234058577,-1.8034872980403382,0.009987975869336469,0.018323810365669282,-0.4490400405818015
8051,1.0,300.66393999999997,20382.43,0.0,-0.08051012393935708,0.0,0.0,0.0,0.0,-1.3527320479542588,-3.0200529207060174,-1.822964599412598,0.004208855693281716,0.014864442801756288,-0.4525220036229446
8052,1.0,300.35122,20429.747,0.0,-0.08052011992677643,0.0,0.0,0.0,0.0,-1.3389541770694886,-3.030223519909777,-1.840955260238138,-0.005728176899452046,-0.012668517052535288,-0.48064421299339055
8053,1.0,300.59595,20368.021,0.0,-0.08053011591419579,0.0,0.0,0.0,0.0,-1.3163561667142387,-3.0346603394476572,-1.8403533896787383,-0.00898511401466171,-0.018591817043619483,-0.4833021909207125
8054,1.0,300.15316,20324.038,0.0,-0.08054011190161514,0.0,0.0,0.0,0.0,-1.2933736279460386,-3.0389890451998673,-1.8456372863002184,-0.007321456446321492,0.001003387224851609,-0.48554468564452946
8055,1.0,299.99245,20373.628,0.0,-0.08055014087909196,0.0,0.0,0.0,0.0,-1.3268849498283486,-3.0425420066755176,-1.823647226004968,0.005302011405442784,-0.01031207424897249,-0.47780711271339055
8056,1.0,300.13226000000003,20315.24,0.0,-0.0805601368665112,0.0,0.0,0.0,0.0,-1.3287302809104686,-3.0342158266287873,-1.812379682242948,-0.0031677505374326374,-0.006139489362895424,-0.48082384197111855
8057,1.0,300.14928,20209.136000000002,0.0,-0.08057013285393055,0.0,0.0,0.0,0.0,-1.3162374138025188,-3.034379669169957,-1.7924557402266084,0.01096984378988929,0.0015940597494464486,-0.4856678563266855
8058,1.0,299.55683,20249.646,0.0,-0.0805801288413498,0.0,0.0,0.0,0.0,-1.2988822634396986,-3.0406218977360173,-1.815882690488668,0.01137319129694659,0.014021273823791987,-0.49381946351368655
8059,1.0,299.97687,20239.865,0.0,-0.08059012482876893,0.0,0.0,0.0,0.0,-1.3050202285704686,-3.034447050301607,-1.8129463930238783,0.014976505223065987,0.013511246279956186,-0.49883462594364447
8060,1.0,300.22129,20272.289,0.0,-0.0806001208161885,0.0,0.0,0.0,0.0,-1.2963855138682887,-3.0339062787232374,-1.8319776617021182,-0.01050163003793019,0.0007469208575903493,-0.48119366812511755
8061,1.0,299.86775,20404.139,0.0,-0.08061011680360775,0.0,0.0,0.0,0.0,-1.340105127858079,-3.0309220545287174,-1.8313215822623683,-0.005051408615185215,-0.0024754409218069977,-0.4593958112413366
8062,1.0,299.29534,20422.927,0.0,-0.0806201127910271,0.0,0.0,0.0,0.0,-1.3343831018933587,-3.0293508075986475,-1.8443260393458085,-0.006688490355927603,0.011058630843151888,-0.4566752752528406
8063,1.0,299.01045,20365.902,0.0,-0.08063010877844634,0.0,0.0,0.0,0.0,-1.3227604139712887,-3.039221282122787,-1.828744076657988,0.008942088173015393,0.0031554695409205967,-0.4776787237932196
8064,1.0,298.95198999999997,20510.414,0.0,-0.08064013775592316,0.0,0.0,0.0,0.0,-1.3306112783961088,-3.0438961141091574,-1.8601464197821582,-0.0017587910122791584,-0.018041739776331084,-0.47204889345509854
8065,1.0,299.06046000000003,20508.658,0.0,-0.08065013374334251,0.0,0.0,0.0,0.0,-1.3330922212659588,-3.045849052351897,-1.8551787585168882,0.016766481438972882,-0.03193587199082517,-0.48891681237483253
8066,1.0,299.4567,20302.314,0.0,-0.08066012973076175,0.0,0.0,0.0,0.0,-1.309504265563009,-3.043497096219777,-1.8183950441116183,0.010991276056004489,-0.0033146036102009065,-0.4640739464230325
8067,1.0,299.60171,20279.452,0.0,-0.08067012571818111,0.0,0.0,0.0,0.0,-1.340685922815399,-3.0235780178039176,-1.8001831907892483,0.0015940626878717383,-0.008113803940345101,-0.47644692577915054
8068,1.0,299.79188,20462.45,0.0,-0.08068012170560046,0.0,0.0,0.0,0.0,-1.3677833715647087,-3.032999014583697,-1.819291263825068,-0.017354194867975684,0.0012223885683403587,-0.45043015892399557
8069,1.0,299.46616,20397.78,0.0,-0.0806901176930197,0.0,0.0,0.0,0.0,-1.3505517363890789,-3.0335727167903173,-1.8162913342539984,-0.028158992375576175,0.006198443293463724,-0.4805667297582436
8070,1.0,299.83952,20373.636000000002,0.0,-0.08070011368043906,0.0,0.0,0.0,0.0,-1.3143884350200385,-3.047949925109237,-1.8307382541797983,-0.008542982434851722,0.02191016451161488,-0.47850455302222256
8071,1.0,299.85147,20464.451,0.0,-0.0807101096678583,0.0,0.0,0.0,0.0,-1.3166514277933787,-3.0558449672384174,-1.8481858129517381,0.006107909599678744,0.001929522944854088,-0.5031611430756385
8072,1.0,300.02967,20361.953999999998,0.0,-0.080720138645335,0.0,0.0,0.0,0.0,-1.3125832286418788,-3.033710417478907,-1.8432317292378084,-0.0035566918572181565,-0.013787147189435486,-0.47494809583372755
8073,1.0,300.25119,20185.95,0.0,-0.08073013463275447,0.0,0.0,0.0,0.0,-1.310044834491359,-3.0141382758972872,-1.8118414437898283,0.007041720790513734,-0.011378729721993188,-0.48188830173117253
8074,1.0,300.61827,20274.273999999998,0.0,-0.0807401306201736,0.0,0.0,0.0,0.0,-1.3135791521651687,-3.0259368640367175,-1.8233570311763285,-0.0013253745992292886,0.014348060153293287,-0.4756758525855515
8075,1.0,300.15601000000004,20313.622,0.0,-0.08075012660759306,0.0,0.0,0.0,0.0,-1.3114244758275189,-3.033556403463707,-1.8298529775674284,-0.00041143621167809264,0.00896923912136998,-0.49628234013425354
8076,1.0,299.85745,20367.442,0.0,-0.08076012259501242,0.0,0.0,0.0,0.0,-1.3025613745527989,-3.051980634007037,-1.8366517844134183,-0.013562028348467987,-0.003170685416347287,-0.5015213092462996
8077,1.0,299.82847000000004,20440.792,0.0,-0.08077011858243166,0.0,0.0,0.0,0.0,-1.3228994318850087,-3.0564042812936174,-1.8341865469201182,-0.00872241129568497,0.004771394720899996,-0.4925722944956005
8078,1.0,299.11003999999997,20403.677,0.0,-0.08078011456985101,0.0,0.0,0.0,0.0,-1.3440504197724488,-3.040774189226047,-1.8173837191868083,-0.0013739768628009586,-0.003507828276445697,-0.4775077074413416
8079,1.0,299.48634,20331.596,0.0,-0.08079011055727015,0.0,0.0,0.0,0.0,-1.3451031866263488,-3.0429531835660972,-1.7922409312054084,0.004796864889988706,-0.014622585069136787,-0.4685306864578786
8080,1.0,299.33175,20425.023,0.0,-0.08080013953474696,0.0,0.0,0.0,0.0,-1.3659448292582588,-3.034311376113217,-1.8084406724791982,0.005450619022084215,-0.0008478212043409382,-0.4620677720200385
8081,1.0,299.96185,20533.977,0.0,-0.08081013552216643,0.0,0.0,0.0,0.0,-1.3409295081394386,-3.051911125050177,-1.8489757427296984,0.017180728477355883,0.017578946912406985,-0.4714993775283655
8082,1.0,300.30276000000003,20423.665,0.0,-0.08082013150958578,0.0,0.0,0.0,0.0,-1.3237345526174287,-3.0392009157957767,-1.8453486113467281,0.011920712134232687,0.03125618787674557,-0.4720171888594696
8083,1.0,300.49057,20418.324,0.0,-0.08083012749700491,0.0,0.0,0.0,0.0,-1.2901069096236388,-3.060423033840237,-1.856130605660828,-0.01150270999097909,0.01039691570634569,-0.49127300389237055
8084,1.0,300.08426000000003,20499.504,0.0,-0.08084012348442438,0.0,0.0,0.0,0.0,-1.3453493050756387,-3.0500339779149175,-1.8359539590695484,-0.014541677048651787,-0.012029048834924687,-0.4712432177705846
8085,1.0,300.28545,20568.738,0.0,-0.0808501194718435,0.0,0.0,0.0,0.0,-1.3518038095376486,-3.0546722315726766,-1.8459068108268184,-0.014867300167038288,-0.0047228178899058355,-0.46791429602454554
8086,1.0,300.01752999999997,20446.216,0.0,-0.08086011545926297,0.0,0.0,0.0,0.0,-1.3454386737344588,-3.051964523330447,-1.8177358235965586,0.006035081235491144,-0.002016313591444658,-0.4738501481578686
8087,1.0,299.72977000000003,20293.138,0.0,-0.0808701114466821,0.0,0.0,0.0,0.0,-1.2926744853770387,-3.053268373559127,-1.8226642720829584,0.0035077332335863164,-0.016911076281243283,-0.4824493180465405
8088,1.0,299.92485,20273.746,0.0,-0.08088014042415892,0.0,0.0,0.0,0.0,-1.2963425520640488,-3.051495793834187,-1.8148743039891484,0.013355592826094387,-0.007414357193665083,-0.4851791050084496
8089,1.0,299.71612000000005,20390.748,0.0,-0.08089013641157827,0.0,0.0,0.0,0.0,-1.3040832762029986,-3.064209853438967,-1.829985105380468,0.025157150801567475,0.006252162571365404,-0.49047156359327454
8090,1.0,299.58614,20494.283,0.0,-0.08090013239899774,0.0,0.0,0.0,0.0,-1.3439089700584885,-3.050048872691387,-1.8357924470036084,0.02312382737539408,0.0023364646526661077,-0.4784313862325016
8091,1.0,299.63639,20391.308,0.0,-0.08091012838641687,0.0,0.0,0.0,0.0,-1.3386840445928287,-3.056872808139857,-1.8028916083065483,0.0002158747475226788,-0.013093559257483687,-0.47257428389695055
8092,1.0,299.42712,20404.552,0.0,-0.08092012437383622,0.0,0.0,0.0,0.0,-1.3258726116534387,-3.057880282714287,-1.818721310643818,-0.012501317613783989,-0.007927899904747803,-0.4944269778761436
8093,1.0,300.36834,20563.183,0.0,-0.08093012036125546,0.0,0.0,0.0,0.0,-1.3405666632786288,-3.063303602549527,-1.8468238021673182,-0.012068023500021188,0.01955446442037538,-0.47648478080288653
8094,1.0,300.58655,20640.782,0.0,-0.08094011634867482,0.0,0.0,0.0,0.0,-1.3425829296526186,-3.061427063364327,-1.8702723346565084,-0.003443394588011587,0.00824957529941969,-0.48519961319047356
8095,1.0,300.07545,20526.811999999998,0.0,-0.08095011233609406,0.0,0.0,0.0,0.0,-1.3226769221630488,-3.0554799945523974,-1.8614813767889082,-0.01126296488481809,0.005661001862872385,-0.48105124569106156
8096,1.0,299.70585,20389.953999999998,0.0,-0.08096014131357088,0.0,0.0,0.0,0.0,-1.3376411062648987,-3.036968219200427,-1.8234277560333085,0.01059580150222419,0.000990994730298565,-0.46237111883497656
8097,1.0,300.09631,20375.124,0.0,-0.08097013730099023,0.0,0.0,0.0,0.0,-1.3512049787285487,-3.023655936736607,-1.8186679123635483,0.01054535279299529,0.0028976117786220176,-0.46592045287526856
8098,1.0,300.43905,20479.664,0.0,-0.08098013328840958,0.0,0.0,0.0,0.0,-1.3580749157315588,-3.036810152184827,-1.830421512198538,0.015248747286434184,-0.009705407571549151,-0.4447411243825316
8099,1.0,300.55965,20610.182,0.0,-0.08099012927582883,0.0,0.0,0.0,0.0,-1.3529900214297186,-3.0641328464313675,-1.8478579252193785,-0.0013093043513182788,-0.019127747313011683,-0.4828720763857635
8100,1.0,299.58799,20609.554,0.0,-0.08100012526324818,0.0,0.0,0.0,0.0,-1.3365636161085588,-3.063208357040127,-1.8650178222879283,-0.012303081311219589,-0.007465140883377044,-0.46319981556176254
8101,1.0,299.30753,20588.355,0.0,-0.08101012125066742,0.0,0.0,0.0,0.0,-1.3328837957203885,-3.070809353990287,-1.854652577739958,-0.016205646495372785,0.01110639241311559,-0.4878776433372745
8102,1.0,300.1991,20584.865,0.0,-0.08102011723808678,0.0,0.0,0.0,0.0,-1.3478447374219187,-3.075632829766327,-1.8338072874076883,-0.002858962366807617,0.006969023743539093,-0.4711969933010225
8103,1.0,299.96418,20537.636000000002,0.0,-0.08103011322550613,0.0,0.0,0.0,0.0,-1.3384107710408588,-3.067030133767307,-1.8374876144209082,0.0026801757038877475,0.012338270473942488,-0.4926011923884525
8104,1.0,299.82042,20533.997,0.0,-0.08104010921292537,0.0,0.0,0.0,0.0,-1.3156105159656488,-3.076170460269387,-1.8500414791848783,0.011812272082030489,0.005032142272483775,-0.49126431020651257
8105,1.0,299.68721,20451.948,0.0,-0.08105013819040241,0.0,0.0,0.0,0.0,-1.3028682880080886,-3.072730476179887,-1.8412827426704585,0.0074176220881373035,0.017839192094591182,-0.5038229068484495
8106,1.0,299.70905,20375.052,0.0,-0.08106013417782154,0.0,0.0,0.0,0.0,-1.2934802218565589,-3.054865863666787,-1.8451608561031982,-0.01190666139509599,0.0006807975948794914,-0.4982199783004835
8107,1.0,300.52799,20471.549,0.0,-0.08107013016524078,0.0,0.0,0.0,0.0,-1.3270027908149786,-3.0600733612307267,-1.8357635693757584,-0.015106272163372986,-0.006034148842749124,-0.4800478241170315
8108,1.0,300.82944,20516.805,0.0,-0.08108012615266014,0.0,0.0,0.0,0.0,-1.3502302321323487,-3.0491921697318367,-1.8371740135149581,-0.012572283624287788,-0.004751414644828115,-0.48556839569686955
8109,1.0,299.90721,20429.034,0.0,-0.08109012214007938,0.0,0.0,0.0,0.0,-1.3363139512839186,-3.045515490418977,-1.828086781318118,-0.009864438694619301,0.007279587634964363,-0.46074116419411254
8110,1.0,299.85806,20509.463,0.0,-0.08110011812749873,0.0,0.0,0.0,0.0,-1.3470772004711686,-3.063410601760087,-1.8238767271526182,0.006332061496075813,-0.014907667037772186,-0.48253257680725753
8111,1.0,300.06941,20585.259,0.0,-0.08111011411491809,0.0,0.0,0.0,0.0,-1.340340505856309,-3.058159027816797,-1.8589051884096583,0.013251200708041687,-0.00028654359203715075,-0.4731625971700125
8112,1.0,299.82191,20670.796000000002,0.0,-0.08112011010233733,0.0,0.0,0.0,0.0,-1.3435626411743087,-3.083158136934017,-1.8566849547905382,0.029528199262206373,0.013746253428649588,-0.4971157383415036
8113,1.0,300.36599,20685.949,0.0,-0.08113013907981426,0.0,0.0,0.0,0.0,-1.3497470131596587,-3.058968310671667,-1.8792967453471483,0.010538130346282489,0.022702384234800876,-0.48015038529215354
8114,1.0,299.34071,20506.928,0.0,-0.0811401350672335,0.0,0.0,0.0,0.0,-1.3599366614652988,-3.039734087998397,-1.8339234058691483,-0.012169477192783888,0.011965727796425386,-0.47616269899359953
8115,1.0,299.22772000000003,20399.322,0.0,-0.08115013105465274,0.0,0.0,0.0,0.0,-1.3261765866834387,-3.033810121288747,-1.8408977076324582,-0.020280384149768082,0.002757710614789847,-0.4759948946445386
8116,1.0,299.09657999999996,20501.949,0.0,-0.0811601270420721,0.0,0.0,0.0,0.0,-1.3549330298214788,-3.036206964400297,-1.8409404667866784,-0.005446084322586675,-0.01137882395425249,-0.4658487350331905
8117,1.0,299.22287,20562.891,0.0,-0.08117012302949123,0.0,0.0,0.0,0.0,-1.3213584811329286,-3.071324895641167,-1.8579220318376282,-0.005862590604717645,-0.008640978614298193,-0.4893214740672695
8118,1.0,299.64849,20457.976000000002,0.0,-0.0811801190169108,0.0,0.0,0.0,0.0,-1.3217298372945787,-3.064299222097787,-1.8326849102719183,-0.004482886953676496,-0.027998598937746574,-0.48656721711544554
8119,1.0,299.95526,20486.471999999998,0.0,-0.08119011500433004,0.0,0.0,0.0,0.0,-1.3218099853774887,-3.074075059062587,-1.8314908963540781,0.005941978648727635,-0.012993023569311589,-0.48776323726848353
8120,1.0,299.62304,20580.588,0.0,-0.08120011099174929,0.0,0.0,0.0,0.0,-1.3502677223860486,-3.090896733247757,-1.8148201964338084,0.021148534808947878,0.000863813563716761,-0.48977938205246146
8121,1.0,300.22574,20660.884,0.0,-0.08121013996922621,0.0,0.0,0.0,0.0,-1.3294314499796687,-3.092243950580717,-1.8587173318411183,0.02110115118127148,0.02238781668825548,-0.4791309138365396
8122,1.0,300.81716,20625.091,0.0,-0.08122013595664546,0.0,0.0,0.0,0.0,-1.3214107648380886,-3.1028384936263174,-1.845263397013318,0.018389303812382983,-0.002757596016203537,-0.4854200052197245
8123,1.0,300.38919,20521.671000000002,0.0,-0.08123013194406459,0.0,0.0,0.0,0.0,-1.2996988416952886,-3.069144280100957,-1.8692324360788781,-0.01101319670866789,-0.004087544831684266,-0.47998756613358456
8124,1.0,300.28927999999996,20452.186999999998,0.0,-0.08124012793148405,0.0,0.0,0.0,0.0,-1.3082190591361689,-3.059000025399797,-1.8497350723546382,-0.002068942713563748,-0.0035701410297704866,-0.5045853876812005
8125,1.0,299.08308999999997,20459.693,0.0,-0.0812501239189034,0.0,0.0,0.0,0.0,-1.3337949102103088,-3.0587493473250573,-1.8266915359304183,0.0002442261844632478,0.0034970545907824164,-0.4815517000479525
8126,1.0,299.24061,20606.467,0.0,-0.08126011990632276,0.0,0.0,0.0,0.0,-1.3614744711420688,-3.0515503066895673,-1.8508266466873684,0.0014043825731267685,0.006127756534687483,-0.4893961303346376
8127,1.0,299.81942000000004,20585.053,0.0,-0.081270115893742,0.0,0.0,0.0,0.0,-1.3485072003372987,-3.0686124251234674,-1.8402225790908282,-0.0006702247353860314,0.011911638479587188,-0.47698386727214254
8128,1.0,300.10232,20551.221999999998,0.0,-0.08128011188116113,0.0,0.0,0.0,0.0,-1.3380311062283887,-3.072506142607747,-1.8365210751505183,0.016918999897025284,0.01011428468837718,-0.47368315440888753
8129,1.0,300.05548999999996,20687.13,0.0,-0.08129014085863817,0.0,0.0,0.0,0.0,-1.3465067406648685,-3.073033539284797,-1.8688307837392382,0.010469879846046689,0.006286128234592555,-0.47670351110197356
8130,1.0,300.1902,20820.373,0.0,-0.08130013684605741,0.0,0.0,0.0,0.0,-1.3593454300319487,-3.101917043985377,-1.8676108306188381,0.009507390536306391,-0.015764296030064885,-0.46965467466130756
8131,1.0,300.22675,20760.613999999998,0.0,-0.08131013283347654,0.0,0.0,0.0,0.0,-1.3725330827334687,-3.0809786359689175,-1.8571965447660281,-0.008162091792410741,-0.013558450562364887,-0.47747471601808555
8132,1.0,299.77791,20666.164,0.0,-0.0813201288208959,0.0,0.0,0.0,0.0,-1.3678835819995987,-3.0638048573739973,-1.850309382511318,-0.018547628193508383,-0.011098566069343188,-0.4639869386369455
8133,1.0,299.71452,20537.015,0.0,-0.08133012480831536,0.0,0.0,0.0,0.0,-1.3170601728837188,-3.0701052464957974,-1.8555743313559283,0.0014245430077164487,0.018849109615012283,-0.4753259266635166
8134,1.0,299.77346,20488.05,0.0,-0.08134012079573472,0.0,0.0,0.0,0.0,-1.3237564388195886,-3.0461054046271974,-1.8579937699447084,-0.004629180712389565,0.02088465509865498,-0.4551807009578376
8135,1.0,300.07662999999997,20647.71,0.0,-0.08135011678315396,0.0,0.0,0.0,0.0,-1.3164559718490887,-3.081289298449577,-1.878642996382628,0.006311176486339624,0.013972955979523385,-0.4961369387449035
8136,1.0,299.81167999999997,20606.661,0.0,-0.08136011277057309,0.0,0.0,0.0,0.0,-1.346110661200779,-3.065475098838837,-1.8523246356352083,-0.006219889137130265,-0.007967774639908132,-0.49450838238917755
8137,1.0,299.76956,20561.186,0.0,-0.08137014174805013,0.0,0.0,0.0,0.0,-1.3414041144862787,-3.075354692613877,-1.8333284254104285,0.0031564456047419266,0.003493821107063297,-0.5024936037772575
8138,1.0,299.88351,20676.158,0.0,-0.08138013773546926,0.0,0.0,0.0,0.0,-1.3489066235267186,-3.100386428384317,-1.8357427977487082,-0.004227082238730535,-0.0059691453024587745,-0.5121476176825345
8139,1.0,299.27434,20729.738999999998,0.0,-0.0813901337228885,0.0,0.0,0.0,0.0,-1.3507126405049588,-3.103932905059327,-1.8466773875278684,-0.010325482587545792,-0.0016386586618730183,-0.48578727798347154
8140,1.0,299.65969,20673.319,0.0,-0.08140012971030786,0.0,0.0,0.0,0.0,-1.3352047463994487,-3.106759264888267,-1.842208650611838,-0.02262392827955788,-0.0023527545731987978,-0.4892808934007645
8141,1.0,300.11562999999995,20572.016,0.0,-0.08141012569772721,0.0,0.0,0.0,0.0,-1.3256804994344789,-3.077442190469897,-1.8502566935061184,0.0049414228499554645,0.01071380460887019,-0.46504315054118556
8142,1.0,299.89811000000003,20519.773,0.0,-0.08142012168514667,0.0,0.0,0.0,0.0,-1.3192638905262088,-3.065198278911517,-1.853036241180438,0.016187681571099784,-0.0009690046497383129,-0.47649247137114553
8143,1.0,299.33395,20590.18,0.0,-0.0814301176725658,0.0,0.0,0.0,0.0,-1.3460575668955386,-3.065927413683477,-1.846915805276398,0.025902187520596875,0.0015568144996206286,-0.4648306415977126
8144,1.0,299.56925,20810.957,0.0,-0.08144011365998505,0.0,0.0,0.0,0.0,-1.3626918911372188,-3.0845062661920672,-1.8788131210744181,0.0037729491167860863,-0.005878871912624484,-0.48645341899671457
8145,1.0,299.83097999999995,20728.604,0.0,-0.08145014263746198,0.0,0.0,0.0,0.0,-1.3523482288163788,-3.0874128754289267,-1.8612170198378182,-5.161100943186005e-05,-0.0007414244114953923,-0.47392454098021053
8146,1.0,300.19112,20533.775,0.0,-0.08146013862488122,0.0,0.0,0.0,0.0,-1.3339527745758888,-3.0647058393629174,-1.8430962576994383,-0.02660829618403437,-0.0024040905855402675,-0.4910134092167506
8147,1.0,299.8878,20597.173,0.0,-0.08147013461230046,0.0,0.0,0.0,0.0,-1.3222322066941588,-3.067967592759827,-1.870826481136198,-0.02019713754805228,0.0067140996442550446,-0.48857717094131253
8148,1.0,299.73327,20732.253,0.0,-0.08148013059972004,0.0,0.0,0.0,0.0,-1.3734513912990987,-3.082526071521637,-1.8461097648218483,-0.015490730662066087,-0.0019259337090248583,-0.49743405086041853
8149,1.0,300.56217999999996,20738.468,0.0,-0.08149012658713917,0.0,0.0,0.0,0.0,-1.3639409245354885,-3.085328214673187,-1.8547071919203482,0.007521791291168003,0.002337078580901698,-0.49852262597285246
8150,1.0,300.81987999999996,20632.547,0.0,-0.08150012257455863,0.0,0.0,0.0,0.0,-1.3586225774106089,-3.0803770693845474,-1.8327796491562682,0.02042569839960948,-0.017487289321611085,-0.47854283361100053
8151,1.0,300.39489,20649.563000000002,0.0,-0.08151011856197776,0.0,0.0,0.0,0.0,-1.334066461237109,-3.097288010903527,-1.8455970602712481,0.028851850767455976,-0.013470107312646088,-0.48711921550492354
8152,1.0,300.31436,20806.965,0.0,-0.081520114549397,0.0,0.0,0.0,0.0,-1.3591677059644087,-3.0925888609147574,-1.8730411418797681,0.02251930818023268,-0.0021202493416523182,-0.46250687408337454
8153,1.0,299.84828999999996,20850.296000000002,0.0,-0.08153011053681636,0.0,0.0,0.0,0.0,-1.341445151115329,-3.104120558977847,-1.8924037433407082,0.010739702268176091,0.00922831237848852,-0.47132984052163357
8154,1.0,299.66188,20644.834,0.0,-0.08154013951429318,0.0,0.0,0.0,0.0,-1.3427856809976288,-3.0842635927931172,-1.8484647607042681,-0.012226861598947288,0.01185482959948059,-0.4846586389620836
8155,1.0,300.08774,20499.446,0.0,-0.08155013550171253,0.0,0.0,0.0,0.0,-1.3087107894096988,-3.080935978139707,-1.8416728439589582,-0.016050061942517783,0.0013917216078272287,-0.4973214382443046
8156,1.0,299.67849,20530.445,0.0,-0.08156013148913188,0.0,0.0,0.0,0.0,-1.3194993698494488,-3.0882015893067676,-1.8330416756321282,-0.002077140210847778,0.003000531745604427,-0.5160532307229885
8157,1.0,299.7018,20736.877,0.0,-0.08157012747655112,0.0,0.0,0.0,0.0,-1.3652298799876987,-3.0856446526794175,-1.852618275514188,0.0011488868994613088,0.005855017269495214,-0.47912928250387854
8158,1.0,299.8698,20691.974,0.0,-0.08158012346397048,0.0,0.0,0.0,0.0,-1.355415336869079,-3.0806340296099073,-1.8537940509302284,-0.0006877665872122772,0.0026758693909627474,-0.4923971136858115
8159,1.0,299.50588999999997,20519.226000000002,0.0,-0.08159011945138972,0.0,0.0,0.0,0.0,-1.3278984025783687,-3.0745398368834573,-1.834894099464948,0.00040939833267946964,0.0049390832554745655,-0.4809303345566286
8160,1.0,299.85597,20725.09,0.0,-0.08160011543880896,0.0,0.0,0.0,0.0,-1.3601544089117885,-3.083151753458387,-1.8566035908075083,-0.007116536036822424,0.0032136643445139766,-0.4900027429045056
8161,1.0,300.20471000000003,21004.847999999998,0.0,-0.08161011142622854,0.0,0.0,0.0,0.0,-1.3832620840673386,-3.113281555781967,-1.888405762421138,-0.0014368049551266085,-0.0033904994877412466,-0.4686440590115675
8162,1.0,300.0111,20920.664,0.0,-0.08162014040370513,0.0,0.0,0.0,0.0,-1.3736927474729186,-3.1171446731132266,-1.8685220464337682,-0.013234832665926287,-0.017054300196128382,-0.4885427609679165
8163,1.0,300.87998,20693.459,0.0,-0.08163013639112449,0.0,0.0,0.0,0.0,-1.3488535292214787,-3.0797416602468366,-1.861699529535438,0.0006960784703000964,-0.010619269387790292,-0.47195655597348557
8164,1.0,300.41823999999997,20520.9,0.0,-0.08164013237854384,0.0,0.0,0.0,0.0,-1.3155292533076288,-3.082667217260567,-1.8396445199087783,-0.0035732284028251867,0.004603986755278116,-0.48286018082958954
8165,1.0,300.2101,20631.209,0.0,-0.08165012836596308,0.0,0.0,0.0,0.0,-1.3285036168630986,-3.085817715796497,-1.8570509407266584,0.009359713083256761,0.02378651219254598,-0.4944260862160555
8166,1.0,300.04552,20809.82,0.0,-0.08166012435338244,0.0,0.0,0.0,0.0,-1.3698003472137688,-3.0938861250177867,-1.8619792878880483,-0.001004774131190986,0.02088034270622938,-0.4847897129950196
8167,1.0,299.83425,20759.446,0.0,-0.08167012034080168,0.0,0.0,0.0,0.0,-1.3304012316503788,-3.114586925885797,-1.865364961772188,0.002658551933503648,0.014370649551022687,-0.5264286989644674
8168,1.0,299.83104,20551.918999999998,0.0,-0.08168011632822103,0.0,0.0,0.0,0.0,-1.3320921434172588,-3.076593897486177,-1.8385841536791283,-0.0036561190497808567,0.007858055460779693,-0.4826869454599926
8169,1.0,300.01561,20689.925,0.0,-0.08169011231564038,0.0,0.0,0.0,0.0,-1.3444829762401387,-3.0880931715460673,-1.856644526111548,0.0020736767193559576,0.002331958324171368,-0.48820887479496455
8170,1.0,299.52882,20955.668999999998,0.0,-0.08170014129311698,0.0,0.0,0.0,0.0,-1.3841686389318086,-3.094816693909627,-1.891014881428638,-0.010754308268367591,-0.02213303191086018,-0.45539722237170654
8171,1.0,299.70274,20899.799,0.0,-0.08171013728053644,0.0,0.0,0.0,0.0,-1.3655121714655587,-3.103178844334907,-1.8843261135435085,0.0018858109302400479,-0.025376521474717677,-0.48850652714434056
8172,1.0,299.63686,20717.35,0.0,-0.0817201332679558,0.0,0.0,0.0,0.0,-1.3318118784395987,-3.114898905591587,-1.8508463037393084,0.0039052106788392865,-0.0006978843859533263,-0.47397110995480657
8173,1.0,300.1022,20737.717,0.0,-0.08173012925537504,0.0,0.0,0.0,0.0,-1.3224211778378088,-3.1027741522449674,-1.8785528171237282,0.03057330087909987,0.008411835751883553,-0.4857045967753116
8174,1.0,300.0413,20839.401,0.0,-0.08174012524279439,0.0,0.0,0.0,0.0,-1.3420656654765686,-3.120418281536307,-1.8721734958191383,0.012699206371564088,-0.005850626350186864,-0.46586232271703154
8175,1.0,300.49025,20746.891,0.0,-0.08175012123021363,0.0,0.0,0.0,0.0,-1.336454894372829,-3.113019731956127,-1.857062390452788,0.008493058386524602,-0.005965301436879415,-0.4860641789707995
8176,1.0,301.0886,20624.826,0.0,-0.08176011721763299,0.0,0.0,0.0,0.0,-1.3193966262893089,-3.0907661253098673,-1.8592694518206083,-0.0014210005840418387,-0.0029237889936305074,-0.47242448500216655
8177,1.0,300.48095,20520.001,0.0,-0.08177011320505234,0.0,0.0,0.0,0.0,-1.3218455504559987,-3.087231098360987,-1.8284911694330281,-0.006398451466477994,0.008017014035142682,-0.4837058900255546
8178,1.0,299.91424,20778.537,0.0,-0.08178014218252916,0.0,0.0,0.0,0.0,-1.3495814480933188,-3.0964281668686673,-1.8701466916441083,-0.027675333652342773,0.013275236013663786,-0.49363152588513853
8179,1.0,300.35963,21019.007999999998,0.0,-0.0817901381699484,0.0,0.0,0.0,0.0,-1.3808463945039287,-3.117655452488637,-1.8907517403776681,-0.0006038919224219924,0.005648657132929055,-0.4966183237349125
8180,1.0,299.92586,20889.12,0.0,-0.08180013415736775,0.0,0.0,0.0,0.0,-1.3641846111845386,-3.1112322574547173,-1.8743541113593483,0.0036464288324495066,0.017443037649993783,-0.49113518161376857
8181,1.0,299.31573,20636.043999999998,0.0,-0.08181013014478689,0.0,0.0,0.0,0.0,-1.3450798818740488,-3.075836594361437,-1.8519255164208182,0.008841606795048652,0.005002271152910725,-0.47687712137410754
8182,1.0,299.38358,20741.586,0.0,-0.08182012613220635,0.0,0.0,0.0,0.0,-1.3599726318438488,-3.095590310360977,-1.849361183067738,0.01135604913175479,-0.02046889933087308,-0.4806522987291885
8183,1.0,300.04872,20953.004,0.0,-0.08183012211962548,0.0,0.0,0.0,0.0,-1.3819719127150087,-3.1135919142875967,-1.8736262938125183,0.009390929191012552,-0.03272717269617047,-0.4906453157204225
8184,1.0,300.41826000000003,20805.502,0.0,-0.08184011810704495,0.0,0.0,0.0,0.0,-1.3527911204350884,-3.1015850019276074,-1.8699770735773684,0.008562704638773152,-0.006213465840771334,-0.4875878436761735
8185,1.0,300.28367000000003,20544.146,0.0,-0.0818501140944643,0.0,0.0,0.0,0.0,-1.3010419047028388,-3.096341128685077,-1.8475244646114684,-0.0013326719251244789,0.004648301248401615,-0.49946392518325156
8186,1.0,300.25113,20568.425,0.0,-0.08186014307194112,0.0,0.0,0.0,0.0,-1.3280754173708387,-3.081400654635567,-1.842811534421338,-0.004542808031465245,0.015742423000156186,-0.4731187437056846
8187,1.0,299.8933,20936.293,0.0,-0.08187013905936025,0.0,0.0,0.0,0.0,-1.3542595224800087,-3.124172575806827,-1.8856782958019582,-0.006091105150745274,0.006969010368637773,-0.49263351506664255
8188,1.0,300.58153,21064.89,0.0,-0.08188013504677971,0.0,0.0,0.0,0.0,-1.3919414830989287,-3.124407852480047,-1.8868512341177184,0.01744164037810588,0.013115583261657288,-0.48416258211062657
8189,1.0,300.85008,20918.881999999998,0.0,-0.08189013103419884,0.0,0.0,0.0,0.0,-1.3758333396341786,-3.110028212360887,-1.8729561301963782,0.006554190539973244,0.0025128073563447776,-0.48227998368982855
8190,1.0,300.3363,20772.363999999998,0.0,-0.0819001270216182,0.0,0.0,0.0,0.0,-1.3418833817835787,-3.118013839049007,-1.854382647913318,-0.006949574306544582,-0.013255522219718187,-0.4988463188497986
8191,1.0,299.7438,20779.955,0.0,-0.08191012300903766,0.0,0.0,0.0,0.0,-1.3471060780990187,-3.0959411988706074,-1.873540167554018,-0.02382091405994118,-0.01114402654832979,-0.4984071458589555
8192,1.0,300.25877,20892.174,0.0,-0.08192011899645679,0.0,0.0,0.0,0.0,-1.3676786015043687,-3.113540947807567,-1.8694795677782683,-0.025595139303043576,0.01062549276990449,-0.4896762433247825
8193,1.0,299.69998,20768.537,0.0,-0.08193011498387626,0.0,0.0,0.0,0.0,-1.3381358762887288,-3.110883902070337,-1.8640967779470283,-0.015714484655148884,0.005142298061080306,-0.4892870640938735
8194,1.0,299.59356,20597.385,0.0,-0.08194011097129539,0.0,0.0,0.0,0.0,-1.3401558916880887,-3.078110834210887,-1.8428238960725585,0.005989212720689275,-0.016458598303337183,-0.5048695334067435
8195,1.0,300.16289,20725.369,0.0,-0.0819501399487722,0.0,0.0,0.0,0.0,-1.3417340287188386,-3.1151478611411574,-1.8431126723510582,0.005928109585333865,-0.02175018042682568,-0.4977401131856245
8196,1.0,299.66475,20925.802,0.0,-0.08196013593619156,0.0,0.0,0.0,0.0,-1.3560710110087886,-3.122454407612257,-1.8823956694529882,0.034036375925128766,-0.006763966443951513,-0.49559401907632156
8197,1.0,299.95016,20977.343999999997,0.0,-0.0819701319236108,0.0,0.0,0.0,0.0,-1.3711867773255986,-3.114312436433707,-1.8910894566359981,0.015556351778292383,0.009216330392080991,-0.4709934212234316
8198,1.0,300.20242,20829.425,0.0,-0.08198012791103015,0.0,0.0,0.0,0.0,-1.3512936381122986,-3.111899887945607,-1.8684315631998383,0.008197185709624242,0.019396662876301582,-0.4780384478437215
8199,1.0,300.93983,20750.818,0.0,-0.08199012389844962,0.0,0.0,0.0,0.0,-1.3444388998607888,-3.092419445498037,-1.8708722800407183,-0.02053741226288478,0.013108390199197385,-0.4871991001428076
8200,1.0,300.7678,20873.962,0.0,-0.08200011988586875,0.0,0.0,0.0,0.0,-1.3756069795618386,-3.113601540163547,-1.8559546041184585,-0.011577483795358688,0.018730017264508785,-0.4825857015100006
8201,1.0,300.6255,20994.293999999998,0.0,-0.0820101158732881,0.0,0.0,0.0,0.0,-1.3728494194146885,-3.129087953366937,-1.8798035730471683,-0.014840382164881686,-0.0023400021114152276,-0.4978036540993955
8202,1.0,300.0178,20880.735,0.0,-0.08202011186070735,0.0,0.0,0.0,0.0,-1.3578124839556587,-3.1106420392714673,-1.878767524819918,0.0003525125164927767,-0.023422235609344682,-0.49327708086765754
8203,1.0,299.92885,20651.177,0.0,-0.08203014083818416,0.0,0.0,0.0,0.0,-1.325414318633209,-3.110196310552477,-1.8418316202496283,0.009204350533498672,-0.02285725039333498,-0.5102599935412405
8204,1.0,299.70322000000004,20687.686,0.0,-0.08204013682560352,0.0,0.0,0.0,0.0,-1.3172668759041188,-3.1031703330340674,-1.8681028648673983,0.01806810049093268,-0.006619871741930474,-0.4815487717551636
8205,1.0,299.88837,20982.414,0.0,-0.08205013281302276,0.0,0.0,0.0,0.0,-1.3497468105096386,-3.1315026296802473,-1.8968804849325283,0.02027465422045258,0.003962084102977256,-0.4890222207827356
8206,1.0,299.72766,21052.838,0.0,-0.08206012880044211,0.0,0.0,0.0,0.0,-1.3776184836603587,-3.137516775648797,-1.8844019046509881,0.008157813850488542,-0.002573569837016568,-0.4931788361379615
8207,1.0,299.58948,20795.561999999998,0.0,-0.08207012478786146,0.0,0.0,0.0,0.0,-1.3314831801071587,-3.116979614671937,-1.8728687880377584,0.0051177632231589045,0.0024634908527776177,-0.4902389112378135
8208,1.0,300.27988,20765.186,0.0,-0.08208012077528071,0.0,0.0,0.0,0.0,-1.331321060091159,-3.132300969434037,-1.8484760077803783,-0.008515532172417592,0.003399161154896087,-0.48160943503865056
8209,1.0,300.23085,20971.368000000002,0.0,-0.08209011676270006,0.0,0.0,0.0,0.0,-1.3649715012121986,-3.116522942851867,-1.8932778742019782,-0.004503775104487995,0.009095681689423893,-0.4676498073509425
8210,1.0,299.83788,21049.875,0.0,-0.0821001127501193,0.0,0.0,0.0,0.0,-1.3610402934742185,-3.136170166265897,-1.901426026206138,-0.01013142827211912,0.008756683163092341,-0.4865109412048915
8211,1.0,300.07472,20938.964,0.0,-0.08211014172759612,0.0,0.0,0.0,0.0,-1.3700739247407687,-3.117838141481667,-1.8770100425214682,0.001993827038600408,0.014407568331666287,-0.48125871878153753
8212,1.0,299.91828,20820.546000000002,0.0,-0.08212013771501547,0.0,0.0,0.0,0.0,-1.3751599336177185,-3.089224161307687,-1.864542000040968,0.0074763127763296236,0.010723174132544889,-0.5004110505817255
8213,1.0,299.86586,20843.397,0.0,-0.08213013370243472,0.0,0.0,0.0,0.0,-1.3532747447078186,-3.119454174066157,-1.8631434109279381,0.006524989685341344,0.0009303128334072282,-0.5002650513748166
8214,1.0,299.81925,21065.754,0.0,-0.08214012968985429,0.0,0.0,0.0,0.0,-1.3721697312476087,-3.1352446636245572,-1.896048707925438,0.02287559731289568,-0.008144702799494582,-0.5054267399017355
8215,1.0,299.41629,21090.224,0.0,-0.08215012567727342,0.0,0.0,0.0,0.0,-1.3757870341046088,-3.125613316124017,-1.9095009202280682,0.007864298398620823,-0.001113686084362259,-0.4874349341035825
8216,1.0,298.89452,20830.674,0.0,-0.08216012166469266,0.0,0.0,0.0,0.0,-1.3325568199131188,-3.119236021319627,-1.880211710187448,0.0012528614571477989,-0.006155086929634785,-0.48252936480444053
8217,1.0,299.32293,20763.773999999998,0.0,-0.08217011765211202,0.0,0.0,0.0,0.0,-1.3378169051572488,-3.1032147133884473,-1.8706372060175183,-0.00986895799271532,-0.004769908485653316,-0.4685800013402455
8218,1.0,299.4961,21002.16,0.0,-0.08218011363953126,0.0,0.0,0.0,0.0,-1.3849674853106488,-3.132755918728937,-1.8664089133502184,-0.00977274634934497,-0.006891076338521284,-0.4863030729468766
8219,1.0,300.14068,21115.432,0.0,-0.08219014261700797,0.0,0.0,0.0,0.0,-1.3778972287628688,-3.141786104945147,-1.8988806406299283,0.002088567645475578,0.00906589639213431,-0.48704900740549456
8220,1.0,300.12313,20837.133,0.0,-0.08220013860442743,0.0,0.0,0.0,0.0,-1.3642773235686885,-3.112248142004977,-1.8574426632153183,0.001194577386220609,0.01202196520347559,-0.4853656139543565
8221,1.0,299.82276,20706.668,0.0,-0.08221013459184678,0.0,0.0,0.0,0.0,-1.317041833056909,-3.114118703014587,-1.8631493891035282,-0.014430415094921087,0.006889033423669664,-0.48718879538929055
8222,1.0,300.39581,20878.021,0.0,-0.08222013057926614,0.0,0.0,0.0,0.0,-1.3394403344674686,-3.121456356263757,-1.8855005717344182,-0.005650182276979574,-0.015456596292697286,-0.5029261095824425
8223,1.0,300.14187000000004,21118.202999999998,0.0,-0.08223012656668538,0.0,0.0,0.0,0.0,-1.3701191156952288,-3.151770671430547,-1.8975166033453084,-0.008348401330698061,-0.011395823251180189,-0.5000559064216755
8224,1.0,299.39002999999997,21059.76,0.0,-0.08224012255410462,0.0,0.0,0.0,0.0,-1.3807284521922887,-3.143139199128687,-1.8777735264718183,0.008181213442997904,-0.004371822381065277,-0.5114049762867415
8225,1.0,299.28187,20814.101000000002,0.0,-0.08225011854152398,0.0,0.0,0.0,0.0,-1.3438624618788986,-3.116693067543657,-1.8664114464754682,-0.002441281626485738,0.0056341973447269844,-0.4927779133383935
8226,1.0,299.50126,20734.206000000002,0.0,-0.0822601145289431,0.0,0.0,0.0,0.0,-1.3278210915957387,-3.1184159980136967,-1.856443598616718,0.017229747490693684,0.003077164661267507,-0.5067582214606425
8227,1.0,300.55099,21002.481,0.0,-0.08227014350641992,0.0,0.0,0.0,0.0,-1.3614902778436289,-3.1224087100327473,-1.9003306015230281,0.01167181332666829,0.011555891435727689,-0.4749159048780505
8228,1.0,300.74826,21181.967999999997,0.0,-0.08228013949383939,0.0,0.0,0.0,0.0,-1.3900443749366986,-3.130567805137987,-1.9181772795093583,0.03323991169727387,0.01900241840814268,-0.47293033998209055
8229,1.0,300.2781,20828.502,0.0,-0.08229013548125874,0.0,0.0,0.0,0.0,-1.3575638323811186,-3.1129165830959473,-1.8608643074780082,0.0007289378569355652,-8.238687217820122e-05,-0.4675160279402396
8230,1.0,299.86904,20750.435,0.0,-0.0823001314686781,0.0,0.0,0.0,0.0,-1.3504993513589088,-3.116421415191847,-1.8406934364122982,-0.0057754102621386146,-0.008261594573430902,-0.4950071547509025
8231,1.0,300.3387,21028.885,0.0,-0.08231012745609734,0.0,0.0,0.0,0.0,-1.3654921091135788,-3.138782223698687,-1.8879817172542883,-0.017090076030659183,0.004121465303956956,-0.4986725261926465
8232,1.0,299.69459,21120.458,0.0,-0.08232012344351647,0.0,0.0,0.0,0.0,-1.3881591218006386,-3.140176050536247,-1.891756580501838,0.007866692100657062,0.004624616122014076,-0.5021311642164875
8233,1.0,299.53417,20982.232999999997,0.0,-0.08233011943093593,0.0,0.0,0.0,0.0,-1.3504379484028488,-3.128615880145347,-1.8990209757687782,-0.006456314937288675,-0.01018645150157449,-0.49547061534664255
8234,1.0,299.50226000000004,20840.328999999998,0.0,-0.08234011541835529,0.0,0.0,0.0,0.0,-1.3545718061608287,-3.111645460845497,-1.868722467303548,-0.01029548126533489,-0.03011423981529407,-0.5006143186842865
8235,1.0,300.07869,20885.238,0.0,-0.08235011140577464,0.0,0.0,0.0,0.0,-1.349773560312279,-3.1219858807660175,-1.876831406528838,0.006975158162294514,-0.01072366961184379,-0.4983569899790055
8236,1.0,300.07305,20984.455,0.0,-0.08236014038325146,0.0,0.0,0.0,0.0,-1.3672704643640887,-3.130363128617787,-1.8811168465017782,0.009208913806649031,-0.005391999058748875,-0.49265554312381654
8237,1.0,300.17232,21109.67,0.0,-0.0823701363706707,0.0,0.0,0.0,0.0,-1.3629988045925088,-3.146257678961457,-1.907556189311138,0.007495633631886441,0.008181728174048702,-0.49678095037596254
8238,1.0,300.63462999999996,20919.206000000002,0.0,-0.08238013235809005,0.0,0.0,0.0,0.0,-1.3487075198820688,-3.1314741573524367,-1.8787346955166784,-0.014485343382842087,0.007752049741942743,-0.4879585006952545
8239,1.0,301.3013,20794.148,0.0,-0.08239012834550918,0.0,0.0,0.0,0.0,-1.3261921907349787,-3.132331164287017,-1.8623783057774284,-0.004081132681076436,0.031529148334434674,-0.5123869372236535
8240,1.0,300.65505,21020.667999999998,0.0,-0.08240012433292843,0.0,0.0,0.0,0.0,-1.3678355539448588,-3.146882448973117,-1.8750400816770485,-0.004138377562701066,0.01869112872567078,-0.4880764734043975
8241,1.0,300.11258,21163.923,0.0,-0.08241012032034778,0.0,0.0,0.0,0.0,-1.3915497606102687,-3.1468230725172575,-1.8949314983651782,0.0005128540252547515,-0.01033549349853379,-0.4991257529623765
8242,1.0,300.01664,21071.201,0.0,-0.08242011630776724,0.0,0.0,0.0,0.0,-1.3589915017720187,-3.1582926583492172,-1.887834795989788,0.008916180482533502,-0.025509602756101774,-0.49781438441795456
8243,1.0,299.75517,20892.249,0.0,-0.0824301122951866,0.0,0.0,0.0,0.0,-1.3439660160391187,-3.129547158312257,-1.8772088421910882,0.008011442071517773,-0.0006040825552958064,-0.5061077047639415
8244,1.0,300.1011,21051.028,0.0,-0.08244014127266341,0.0,0.0,0.0,0.0,-1.3688215476171686,-3.1301110319929073,-1.9000542882207583,0.0045491869474697955,0.007602086599317532,-0.4810978754606635
8245,1.0,299.98439,21176.817000000003,0.0,-0.08245013726008255,0.0,0.0,0.0,0.0,-1.3838022476956486,-3.141596728501457,-1.9118247080074084,-0.003308389651312637,-0.005244408441232815,-0.47519321116541857
8246,1.0,299.97287,21140.89,0.0,-0.08246013324750201,0.0,0.0,0.0,0.0,-1.4030939216495886,-3.135902161614447,-1.887306588712658,0.0006612748796377494,-0.005104161455141515,-0.4830763982684285
8247,1.0,300.5454,20972.718999999997,0.0,-0.08247012923492114,0.0,0.0,0.0,0.0,-1.3777680393751186,-3.121757696843497,-1.875657150987948,0.0006535875335140673,0.009714662192662512,-0.4787356551050305
8248,1.0,300.07773,20923.101000000002,0.0,-0.08248012522234038,0.0,0.0,0.0,0.0,-1.3500045813350787,-3.1377849829502673,-1.8723105885576683,0.003997455853368176,-0.004791939481252605,-0.49894160488920253
8249,1.0,299.65218,21040.916,0.0,-0.08249012120975974,0.0,0.0,0.0,0.0,-1.3478494996973887,-3.146012371112247,-1.9020512015178381,-0.0026551993928977777,-0.0014086805774009487,-0.4881134266355446
8250,1.0,299.62905,21267.072,0.0,-0.08250011719717909,0.0,0.0,0.0,0.0,-1.3843459576993087,-3.174207169719857,-1.906105620467978,0.002975189246028317,-0.004931603443236366,-0.5068119845109486
8251,1.0,299.93188,21128.192000000003,0.0,-0.08251011318459855,0.0,0.0,0.0,0.0,-1.3768655375110486,-3.1464664084820573,-1.899110648402628,0.02047284695326268,0.00035050074894923066,-0.49162685109229254
8252,1.0,299.53443,20755.538,0.0,-0.08252014216207537,0.0,0.0,0.0,0.0,-1.3459090244308787,-3.114373231439707,-1.8488831316705583,0.0021973901995905277,-0.002875554742495157,-0.48895863933896055
8253,1.0,300.4081,20974.956000000002,0.0,-0.0825301381494945,0.0,0.0,0.0,0.0,-1.3538884702933887,-3.145510812312747,-1.8764634954175283,-0.004540775755739676,-0.010870774274611888,-0.4876264485049836
8254,1.0,300.38432,21248.037999999997,0.0,-0.08254013413691386,0.0,0.0,0.0,0.0,-1.3893559728187588,-3.140688045811777,-1.9288289698605983,-0.0018601394283564682,-0.015936126021773186,-0.48672334882335455
8255,1.0,300.71727999999996,21194.801,0.0,-0.0825501301243331,0.0,0.0,0.0,0.0,-1.3722935504098288,-3.159971005814857,-1.9104256122693282,-0.002911784209095727,0.004727555644723416,-0.4898826727676555
8256,1.0,300.3603,20967.512,0.0,-0.08256012611175245,0.0,0.0,0.0,0.0,-1.3518375507659788,-3.145015231688837,-1.8767473067705382,0.0024877739993741776,0.0073719662545314235,-0.48991599856344453
8257,1.0,300.20371,20985.541,0.0,-0.08257012209917192,0.0,0.0,0.0,0.0,-1.3608612521815489,-3.140539300697097,-1.8776799021625783,-0.012975269401059386,0.004995601535452485,-0.4893416884067645
8258,1.0,299.78756,21191.759,0.0,-0.08258011808659105,0.0,0.0,0.0,0.0,-1.4002196350909186,-3.170824231610987,-1.8707218124008682,0.004526920269897245,0.01827770849936938,-0.5005065494036505
8259,1.0,299.31757000000005,21316.854,0.0,-0.08259011407401051,0.0,0.0,0.0,0.0,-1.3896893321016588,-3.1697646759814173,-1.9203373260725383,0.005123473900722505,0.015752774363177787,-0.4916009929497406
8260,1.0,299.72354,21125.567000000003,0.0,-0.08260014305148722,0.0,0.0,0.0,0.0,-1.3681874557045886,-3.158561777575777,-1.8948955279866282,0.014257274970833487,0.006456487493780704,-0.49101281139919156
8261,1.0,299.9914,20881.05,0.0,-0.08261013903890646,0.0,0.0,0.0,0.0,-1.3273544899246887,-3.1352888413289173,-1.8846744689278883,-0.005016396568579795,-0.013313824630472188,-0.4732119525823836
8262,1.0,300.85649,20935.027,0.0,-0.08262013502632581,0.0,0.0,0.0,0.0,-1.359429327140229,-3.119591064154667,-1.8847049677558982,-0.01063158848250609,-0.010781735935324489,-0.4835925883993725
8263,1.0,300.35501,21148.225,0.0,-0.08263013101374506,0.0,0.0,0.0,0.0,-1.3830591300723087,-3.146070936968027,-1.899402363106418,-0.014376931701642684,-0.0071168203548004835,-0.47518559152466655
8264,1.0,299.81331,21115.532000000003,0.0,-0.08264012700116441,0.0,0.0,0.0,0.0,-1.3855249755156687,-3.132326098036517,-1.9007435009387783,-0.00924033621212518,-0.007489841894314842,-0.47736402857716154
8265,1.0,299.67505,20976.691000000003,0.0,-0.08265012298858376,0.0,0.0,0.0,0.0,-1.3397753149505287,-3.1522580447286472,-1.884356815021538,0.0018818742509515282,-0.002318255535119008,-0.5016860637125594
8266,1.0,299.75141,21118.372000000003,0.0,-0.082660118976003,0.0,0.0,0.0,0.0,-1.3611420237842589,-3.1603548249527367,-1.8979608121891482,-0.004518461455412425,0.004130576246206136,-0.5084509773427045
8267,1.0,299.25461,21360.317000000003,0.0,-0.08267011496342236,0.0,0.0,0.0,0.0,-1.4085117699342884,-3.166651667699187,-1.917839664576038,0.007228463797193833,0.009780834922243251,-0.5186858976628125
8268,1.0,299.46151000000003,21175.952999999998,0.0,-0.08268014394089918,0.0,0.0,0.0,0.0,-1.3770744696816686,-3.1695317297834267,-1.890354748988488,0.01287340128900579,0.004363190300813355,-0.5115872903772345
8269,1.0,300.05636,20804.839,0.0,-0.08269013992831842,0.0,0.0,0.0,0.0,-1.3473087281190188,-3.125956301282867,-1.8508864284432684,0.024429474096501376,-0.0027638395619947274,-0.5088548790975665
8270,1.0,299.80082000000004,20813.358,0.0,-0.08270013591573777,0.0,0.0,0.0,0.0,-1.3341488384702387,-3.134120361313597,-1.8584719226668982,0.0016460774764551988,0.011008101073914988,-0.4922616320149405
8271,1.0,300.21837999999997,21067.566000000003,0.0,-0.08271013190315701,0.0,0.0,0.0,0.0,-1.3502177691561186,-3.155040733478277,-1.898755605567588,-0.014214345590596688,0.012241202127612589,-0.4908660826522105
8272,1.0,299.44642000000005,21104.685,0.0,-0.08272012789057637,0.0,0.0,0.0,0.0,-1.3666768011304986,-3.147534678062487,-1.901085878147568,-0.014152848402277386,0.014163259547054885,-0.4790756410435846
8273,1.0,299.61026,21090.38,0.0,-0.08273012387799572,0.0,0.0,0.0,0.0,-1.3600922966806588,-3.151092908438657,-1.8997635867670681,-0.0034028787695129866,0.00027716294287635275,-0.48736486785916755
8274,1.0,299.97895,21132.368,0.0,-0.08274011986541496,0.0,0.0,0.0,0.0,-1.3723768395680487,-3.157314365377667,-1.8940208905003084,0.004865922747904186,-0.004477044350949875,-0.4933292328503045
8275,1.0,300.59612000000004,21216.106,0.0,-0.08275011585283432,0.0,0.0,0.0,0.0,-1.3954667828468486,-3.1643373031457767,-1.8893621691905282,-0.002220117804633568,-0.00949556003078881,-0.4940545780668905
8276,1.0,299.89835,21429.24,0.0,-0.08276011184025356,0.0,0.0,0.0,0.0,-1.4208383627008287,-3.181492032638817,-1.9116233752125382,-0.004247580085603516,-0.014642314061833885,-0.48770516790525253
8277,1.0,300.26338,21343.02,0.0,-0.08277014081773026,0.0,0.0,0.0,0.0,-1.3976444599617686,-3.1584988547445674,-1.9316018300842581,0.018513213153861882,-0.015655564161833883,-0.5036458819234785
8278,1.0,300.58666,21069.025,0.0,-0.08278013680514973,0.0,0.0,0.0,0.0,-1.3715518513366287,-3.146160609601877,-1.886745146832248,-0.0017514689630815283,0.0040518922083656265,-0.49210733428971254
8279,1.0,300.06859,20963.119,0.0,-0.08279013279256908,0.0,0.0,0.0,0.0,-1.3504551736545487,-3.1305124816825267,-1.8912970715814879,0.013040972590543789,0.011527130331639188,-0.5093429414057346
8280,1.0,300.06887,21094.622000000003,0.0,-0.08280012877998832,0.0,0.0,0.0,0.0,-1.3773807751868987,-3.135120236512277,-1.8997374449144881,-0.015112754937512787,-0.004096856701428276,-0.48223461035035053
8281,1.0,299.86637,21083.066000000003,0.0,-0.08281012476740768,0.0,0.0,0.0,0.0,-1.3677890457652686,-3.155056844154867,-1.8858798312468483,-0.0009539225233248232,-0.006321860600694063,-0.5072932276459435
8282,1.0,299.38032000000004,21030.988999999998,0.0,-0.08282012075482692,0.0,0.0,0.0,0.0,-1.3529978234554887,-3.144846018922137,-1.8950516698270379,-0.0017922751790587885,-0.004729863321826165,-0.48449400608583554
8283,1.0,299.62495,21181.968999999997,0.0,-0.08283011674224627,0.0,0.0,0.0,0.0,-1.3607712755726686,-3.176228907644387,-1.9017895803420184,0.013852761212911088,0.01006214881640677,-0.49800122773639455
8284,1.0,300.08778,21279.586,0.0,-0.08284011272966563,0.0,0.0,0.0,0.0,-1.3864227151042687,-3.176174293463997,-1.9058656828442981,-0.00934245631947865,0.01082787123887769,-0.47778071754828555
8285,1.0,299.40422,21311.961,0.0,-0.08285014170714222,0.0,0.0,0.0,0.0,-1.3809036431345787,-3.175116561684607,-1.922283880839648,-0.004082557614692066,0.005796014196297064,-0.4973679565563956
8286,1.0,299.7742,21363.363999999998,0.0,-0.08286013769456169,0.0,0.0,0.0,0.0,-1.3990812486035686,-3.183841759620717,-1.9110061032516181,0.012413871090403688,0.00994359956795687,-0.5088430139388955
8287,1.0,300.02982000000003,21168.381,0.0,-0.08287013368198104,0.0,0.0,0.0,0.0,-1.3728026072600688,-3.160118737679437,-1.901737904586918,0.014487464115301383,-0.005818998052290395,-0.4943579552793316
8288,1.0,300.73249,20977.124,0.0,-0.08288012966940017,0.0,0.0,0.0,0.0,-1.3453612614268187,-3.1459575542818365,-1.8852029801800483,0.006678781697444433,-0.007411729937480794,-0.5130421250033156
8289,1.0,300.67523,21053.925,0.0,-0.08289012565681964,0.0,0.0,0.0,0.0,-1.3565946586604685,-3.1455343197150674,-1.8977385051172084,-0.002233532628007508,-0.014581613288093187,-0.5009952905893855
8290,1.0,299.79828,21149.646,0.0,-0.08290012164423877,0.0,0.0,0.0,0.0,-1.3867701585635588,-3.139121054532127,-1.903073165568698,0.0005656219221075374,0.013141369463452188,-0.5027678601818245
8291,1.0,299.60166,21158.808999999997,0.0,-0.08291011763165823,0.0,0.0,0.0,0.0,-1.3695833090423488,-3.164364356923447,-1.8978020358984784,-0.001962329753941868,0.03253247871595567,-0.49128834449888453
8292,1.0,300.1288,21177.667,0.0,-0.08292011361907758,0.0,0.0,0.0,0.0,-1.3772075094197986,-3.164038191716257,-1.8962362605189482,-0.001925520201659048,0.015907187598917183,-0.5004472236102955
8293,1.0,300.01184,21329.933999999997,0.0,-0.08293014259655418,0.0,0.0,0.0,0.0,-1.3847085999100988,-3.185775344786547,-1.913283382851368,-0.0018015251392216884,-0.0012696729988319689,-0.48314257363245955
8294,1.0,300.04663,21401.933999999997,0.0,-0.08294013858397353,0.0,0.0,0.0,0.0,-1.3921653100460185,-3.1909430216215573,-1.922545198040438,0.010711571405649791,-0.0028583084151930773,-0.4846493677236685
8295,1.0,299.69795,21335.072999999997,0.0,-0.082950134571393,0.0,0.0,0.0,0.0,-1.3997458393441589,-3.1658788618479172,-1.9197048553601181,0.014609757322870787,-0.002107423723211528,-0.47386149655898857
8296,1.0,299.74487,21198.619,0.0,-0.08296013055881213,0.0,0.0,0.0,0.0,-1.3739736204006385,-3.164236383435817,-1.9056407413220982,-0.0015074613163998485,0.0027269334469773774,-0.4848119437022136
8297,1.0,299.98276,21035.756,0.0,-0.08297012654623159,0.0,0.0,0.0,0.0,-1.3453245817731987,-3.143453205334677,-1.905566571414778,-0.004088990942226986,-0.0026703772714457173,-0.5027514455302045
8298,1.0,299.55467999999996,21090.702,0.0,-0.08298012253365072,0.0,0.0,0.0,0.0,-1.3637383758404986,-3.143918287130577,-1.903390211524988,-0.0012124660127610788,0.01038191960486569,-0.49785124645659257
8299,1.0,298.81976000000003,21256.706000000002,0.0,-0.08299011852107008,0.0,0.0,0.0,0.0,-1.3798009230507489,-3.165200085605927,-1.9165067340694881,-0.005706372263925095,0.005114296185291735,-0.5080523039583585
8300,1.0,298.89441,21150.732999999997,0.0,-0.08300011450848954,0.0,0.0,0.0,0.0,-1.3756474082408288,-3.145540196565647,-1.9081071947155182,0.0057687024451516045,-0.0017304016696523484,-0.49773401342002255
8301,1.0,299.3387,21075.867000000002,0.0,-0.08301014348596614,0.0,0.0,0.0,0.0,-1.3607028811909185,-3.163533390516437,-1.8823011332186583,-0.005780703278010994,-0.01090539601727879,-0.5174237730732505
8302,1.0,299.6474,21279.216,0.0,-0.08302013947338571,0.0,0.0,0.0,0.0,-1.3829560825371388,-3.179870021878737,-1.9055242175605984,0.013775227315259089,0.01082709204955079,-0.4958400362006015
8303,1.0,300.02875,21459.612999999998,0.0,-0.08303013546080484,0.0,0.0,0.0,0.0,-1.4087843342111885,-3.1961252892580068,-1.918276983319198,-0.0003262095064843717,-0.005885105427239684,-0.49898321907080956
8304,1.0,300.39263,21394.023999999998,0.0,-0.08304013144822409,0.0,0.0,0.0,0.0,-1.3976443586367588,-3.197736255591997,-1.9078686756419783,0.00039876681613772055,-0.005100673746972305,-0.5012486639093915
8305,1.0,300.67946,21182.25,0.0,-0.08305012743564344,0.0,0.0,0.0,0.0,-1.3589568486185988,-3.1804575042867174,-1.8994608276371878,0.002519634736843587,-0.01806167445879848,-0.49972767418428155
8306,1.0,300.08853999999997,21180.932,0.0,-0.08306012342306268,0.0,0.0,0.0,0.0,-1.3656466297538288,-3.1693931171697467,-1.9034346932043784,-0.003915967544550906,-0.0012725851809443787,-0.4922531511116035
8307,1.0,299.93568,21245.408,0.0,-0.08307011941048204,0.0,0.0,0.0,0.0,-1.3927968688333485,-3.155969478519937,-1.9093070854839382,-0.0016735728285187782,-0.0026483287466196976,-0.4886667321176515
8308,1.0,299.48025,21271.928,0.0,-0.0830801153979015,0.0,0.0,0.0,0.0,-1.3812796602466886,-3.153822097583007,-1.931033194128138,-0.007455715022996784,-0.0046316167682799855,-0.5050871896607245
8309,1.0,299.66083,21152.265,0.0,-0.0830901443753782,0.0,0.0,0.0,0.0,-1.3736120927649589,-3.161194100010567,-1.894954195167418,-0.004847889935874486,0.0005613020924262035,-0.5166430537386995
8310,1.0,299.78546,21068.064,0.0,-0.08310014036279767,0.0,0.0,0.0,0.0,-1.3665877364467087,-3.147431326552287,-1.890146526092938,-0.0018415058603424785,0.009976810157209502,-0.5030645398111045
8311,1.0,299.66533,21205.725,0.0,-0.0831101363502168,0.0,0.0,0.0,0.0,-1.383045451195959,-3.1607657991932974,-1.9021997439824982,0.0024271899520449977,0.005725916439803954,-0.5058355559195825
8312,1.0,299.68296000000004,21459.522999999997,0.0,-0.08312013233763604,0.0,0.0,0.0,0.0,-1.4173229928038886,-3.184200450156117,-1.921635603425668,0.0019420992024452679,-0.0012649606765918987,-0.4810550453789365
8313,1.0,300.30801,21403.299,0.0,-0.0831301283250554,0.0,0.0,0.0,0.0,-1.4112974984342186,-3.176741105569937,-1.9180299529448182,0.005358114455529725,0.0014818751301746886,-0.5029291898627465
8314,1.0,300.68037999999996,21256.578999999998,0.0,-0.08314012431247464,0.0,0.0,0.0,0.0,-1.3765784837577186,-3.1867401615317674,-1.8981504926078683,0.0038856510002338966,0.015437524899315087,-0.4906404318549405
8315,1.0,300.67213,21277.696,0.0,-0.08315012029989421,0.0,0.0,0.0,0.0,-1.3815443211728087,-3.171529453680587,-1.914814505077478,0.008947169520941881,-0.0016544707336585483,-0.49975886202235953
8316,1.0,300.2144,21395.507999999998,0.0,-0.08316011628731335,0.0,0.0,0.0,0.0,-1.4004437660130384,-3.1838503722465674,-1.9194060479056283,0.004569021318177296,0.003619550651021837,-0.49748796589823957
8317,1.0,299.76533,21261.738999999998,0.0,-0.08317014526479016,0.0,0.0,0.0,0.0,-1.3622824367718087,-3.173548557154857,-1.927206756450498,-0.0007388077640396492,-0.005404456664753345,-0.5061037936185555
8318,1.0,300.02381,21127.03,0.0,-0.08318014125220952,0.0,0.0,0.0,0.0,-1.3629416572868687,-3.154406742890707,-1.904741279208328,-0.0005517777846662274,0.006764076178937344,-0.48654867463861556
8319,1.0,299.66132999999996,21131.517999999996,0.0,-0.08319013723962876,0.0,0.0,0.0,0.0,-1.3581611433150687,-3.152815940233707,-1.9124767344467581,-0.00996568923073695,0.008965389784240082,-0.49415015794882355
8320,1.0,300.28621,21351.281000000003,0.0,-0.083200133227048,0.0,0.0,0.0,0.0,-1.3952261359480986,-3.176545345650617,-1.9184848009147084,-0.018494121495477682,0.000878543535057996,-0.5055706518134385
8321,1.0,299.762,21500.584,0.0,-0.08321012921446735,0.0,0.0,0.0,0.0,-1.4213091186972886,-3.192067526582537,-1.9222640211376882,-0.011132643696706388,-0.006084304925349144,-0.5035726644712525
8322,1.0,299.60266,21433.661,0.0,-0.08322012520188671,0.0,0.0,0.0,0.0,-1.4095265399094385,-3.183297542992007,-1.9224737639083882,-0.004705635701335086,-0.0007109352701563484,-0.5009245454674035
8323,1.0,299.69335,21345.481,0.0,-0.08323012118930617,0.0,0.0,0.0,0.0,-1.3918208050120187,-3.1754836621958367,-1.9211886588065585,0.006394330679646304,-0.009469634304455141,-0.4747425479184415
8324,1.0,300.03328,21375.391,0.0,-0.0832401171767253,0.0,0.0,0.0,0.0,-1.3836315150537986,-3.1831729132297073,-1.9307806922032182,0.009880069191986912,0.002209513129086968,-0.5007667216318274
8325,1.0,300.55093,21449.484,0.0,-0.08325011316414455,0.0,0.0,0.0,0.0,-1.3887698076359087,-3.191241930401057,-1.9400958043475482,0.004394456868424127,-0.003129354336818227,-0.4886777461462385
8326,1.0,300.7512,21233.66,0.0,-0.08326014214162147,0.0,0.0,0.0,0.0,-1.3618941593334886,-3.180386070154667,-1.9122223073466482,0.011345356303449489,0.0053192811388221755,-0.5108385086858355
8327,1.0,300.60865,21055.161,0.0,-0.08327013812904072,0.0,0.0,0.0,0.0,-1.3558618761881487,-3.162738597137997,-1.8816429259536982,-0.004015958813444276,-0.012873445872010187,-0.49054932040594856
8328,1.0,300.85322,21161.476000000002,0.0,-0.08328013411645985,0.0,0.0,0.0,0.0,-1.3722039791009886,-3.1650159780627574,-1.8953403447805282,0.015214078934262684,-0.013889828941319387,-0.5164560179027404
8329,1.0,299.98936000000003,21344.585,0.0,-0.08329013010387931,0.0,0.0,0.0,0.0,-1.3756682811928886,-3.188326607213337,-1.9242260786313283,-0.003293408039309067,-0.01064982191805559,-0.4981816673142025
8330,1.0,300.05261,21384.827999999998,0.0,-0.08330012609129867,0.0,0.0,0.0,0.0,-1.3898209532896486,-3.1933527330093767,-1.9172801478708181,0.008047501312101543,0.005842586109318354,-0.5149225044063945
8331,1.0,299.45066,21482.319,0.0,-0.08331012207871802,0.0,0.0,0.0,0.0,-1.3955463229796985,-3.1967368870183672,-1.9378052511714878,-0.003462726690644517,-0.0023330895165830077,-0.49520429269035854
8332,1.0,299.28263,21515.752,0.0,-0.08332011806613726,0.0,0.0,0.0,0.0,-1.4252671775629187,-3.203065444492947,-1.9119186362916782,0.003920232516871827,0.0038352648085361657,-0.5193256941734554
8333,1.0,299.8781,21460.039,0.0,-0.08333011405355639,0.0,0.0,0.0,0.0,-1.4191744033866087,-3.191625749538937,-1.9125159472256283,0.0025533620836472176,-0.008193076271193672,-0.5045950034246496
8334,1.0,300.06507999999997,21372.845,0.0,-0.08334014303103343,0.0,0.0,0.0,0.0,-1.3903271730396087,-3.181056436420827,-1.925427691924918,0.0037961131286471965,0.005541353238063985,-0.49373622501797154
8335,1.0,299.94757000000004,21235.075,0.0,-0.08335013901845267,0.0,0.0,0.0,0.0,-1.3624041281088186,-3.169011831157117,-1.9235164995862983,-0.005996355221969184,-0.0032752395530909768,-0.4780814501779655
8336,1.0,300.58107,21132.431,0.0,-0.0833601350058718,0.0,0.0,0.0,0.0,-1.3389730235213488,-3.1655519873656575,-1.9192064376359284,-0.0020956825863527677,0.0014302678707814487,-0.48966801573397056
8337,1.0,300.13995,21197.297000000002,0.0,-0.08337013099329116,0.0,0.0,0.0,0.0,-1.3594309483403886,-3.177355641755587,-1.9066624013979283,-0.00965529586930351,0.01191431447310129,-0.49828590035198955
8338,1.0,299.72579,21396.168999999998,0.0,-0.08338012698071062,0.0,0.0,0.0,0.0,-1.3943337665850288,-3.1933615482852473,-1.916205798789788,-0.00048256970229092156,0.004302230439022087,-0.49790301340420146
8339,1.0,299.57046,21553.46,0.0,-0.08339012296812998,0.0,0.0,0.0,0.0,-1.4195783862014788,-3.2151922243397673,-1.9169430395625482,0.007003219819838984,-0.006391632495955014,-0.5039573955342226
8340,1.0,299.41995,21542.591,0.0,-0.08340011895554922,0.0,0.0,0.0,0.0,-1.4216923298851087,-3.214021616499237,-1.912695900443388,0.005623156059712295,-0.001992370795556688,-0.5067867647159595
8341,1.0,299.74428,21487.732999999997,0.0,-0.08341011494296835,0.0,0.0,0.0,0.0,-1.4091630870985687,-3.1982929351969367,-1.9242783623364879,0.025067593678228875,0.0020757974518152583,-0.4882053588171175
8342,1.0,299.69313999999997,21364.749,0.0,-0.08342014392044539,0.0,0.0,0.0,0.0,-1.3766381641886087,-3.1918246505335675,-1.9258875048202981,0.0098796263003682,0.025674690581644677,-0.4907173882000355
8343,1.0,299.81748,21361.591,0.0,-0.08343013990786452,0.0,0.0,0.0,0.0,-1.3825494652720087,-3.186346007242867,-1.9244947925578482,-0.013484044567771589,0.024090835780580376,-0.49551858260637655
8344,1.0,299.73909,21427.882999999998,0.0,-0.08344013589528376,0.0,0.0,0.0,0.0,-1.4083667738449785,-3.1883579166414266,-1.9168166872750783,-0.01173363374176949,-0.0052738036372338955,-0.5077647739774815
8345,1.0,300.18706000000003,21247.952,0.0,-0.08345013188270334,0.0,0.0,0.0,0.0,-1.3793720142834185,-3.176390622360347,-1.903084108669778,-0.015369873229888385,0.0035311398175213666,-0.5185644596383275
8346,1.0,299.61955,21132.049,0.0,-0.08346012787012258,0.0,0.0,0.0,0.0,-1.3501169507711688,-3.1793737319797573,-1.8941246473105482,-0.006854993083910143,-0.004066890538995846,-0.5013542850998155
8347,1.0,299.96001,21325.972999999998,0.0,-0.08347012385754193,0.0,0.0,0.0,0.0,-1.3672979234417988,-3.1868956954221175,-1.9283697649152785,-0.0032758954298807066,-0.01746681457684038,-0.5030277486999736
8348,1.0,300.09961,21579.355,0.0,-0.08348011984496106,0.0,0.0,0.0,0.0,-1.3827130038381488,-3.214840018605007,-1.9620320610624882,-0.004199254945934196,-0.007072869415812863,-0.49473453981149756
8349,1.0,300.184,21488.467,0.0,-0.08349011583238031,0.0,0.0,0.0,0.0,-1.4003125501250884,-3.205347689018187,-1.9262970605107181,0.017114668623836284,0.0032544852526176873,-0.5045675646119415
8350,1.0,300.02505,21352.126,0.0,-0.08350014480985735,0.0,0.0,0.0,0.0,-1.4091390730711988,-3.188058197261847,-1.8933158710807283,0.015557947647199883,0.008526279108278231,-0.48640433716187054
8351,1.0,300.28636,21471.043999999998,0.0,-0.08351014079727648,0.0,0.0,0.0,0.0,-1.4265547144649886,-3.1965013063701173,-1.903605121871198,0.0008419036819019242,0.0019135654716792082,-0.49782952237444855
8352,1.0,299.85853,21521.977000000003,0.0,-0.08352013678469583,0.0,0.0,0.0,0.0,-1.4257554627861087,-3.197542927472917,-1.918845315300288,-0.0037254657852998467,-0.02131139145777058,-0.48759077196896256
8353,1.0,299.28572,21461.786,0.0,-0.0835301327721153,0.0,0.0,0.0,0.0,-1.3934205242698987,-3.1911499272919768,-1.9392766929667085,-0.012318008511692789,-0.0006876745030431893,-0.4956856270178625
8354,1.0,299.77792,21331.037999999997,0.0,-0.08354012875953443,0.0,0.0,0.0,0.0,-1.3646293266534288,-3.175118284209777,-1.9443553051179283,-0.00918895642737939,0.007219401592274462,-0.4918400186483305
8355,1.0,299.38311,21217.595,0.0,-0.08355012474695389,0.0,0.0,0.0,0.0,-1.3608218367526588,-3.1827842304913467,-1.9060129080838284,-0.007040706729813654,-0.0006379485147131164,-0.4993824497427105
8356,1.0,299.61581,21375.689,0.0,-0.08356012073437302,0.0,0.0,0.0,0.0,-1.3852535258138787,-3.1962841668736868,-1.9161380123580982,-0.003112297689934867,0.0044263090945926955,-0.5270757503458265
8357,1.0,300.04256000000004,21657.728,0.0,-0.08357011672179226,0.0,0.0,0.0,0.0,-1.4293660781924487,-3.2099963791519768,-1.9440459598623983,0.011481473282133187,-0.009671681035345601,-0.49775774373736453
8358,1.0,299.7882,21467.48,0.0,-0.08358014569926919,0.0,0.0,0.0,0.0,-1.4050528380679186,-3.203204158431637,-1.9173209818498482,0.025281120938052376,-0.012179256069498988,-0.4975631693206615
8359,1.0,300.02782,21274.497000000003,0.0,-0.08359014168668844,0.0,0.0,0.0,0.0,-1.3618584929299686,-3.196849256454457,-1.9082079117754585,0.011487578113985689,-0.02010701604440798,-0.4771320145692636
8360,1.0,300.22282,21427.188,0.0,-0.08360013767410779,0.0,0.0,0.0,0.0,-1.3767776887273788,-3.210870915313287,-1.925681511074968,-0.00021862323908143375,-0.0018121627453965383,-0.4949982685475255
8361,1.0,300.07144,21517.696,0.0,-0.08361013366152725,0.0,0.0,0.0,0.0,-1.4075567817150385,-3.212351982984457,-1.9209335224313782,-0.00995372254440593,0.014434643387588384,-0.48376916749429955
8362,1.0,300.02465,21443.308999999997,0.0,-0.08362012964894638,0.0,0.0,0.0,0.0,-1.4057124638830187,-3.202681625355067,-1.9098365086611881,-0.006632238155425943,0.028979366266040772,-0.5066407452440486
8363,1.0,299.88448,21347.144,0.0,-0.08363012563636574,0.0,0.0,0.0,0.0,-1.3925646319104286,-3.195727588593757,-1.9007064159851181,-0.011593312788420887,0.015274915483516784,-0.5143717421820385
8364,1.0,300.41212,21351.235,0.0,-0.08364012162378498,0.0,0.0,0.0,0.0,-1.3803695590068688,-3.197286980497657,-1.9125856588325083,-0.006057233618452415,0.005454227003040295,-0.5246418121481154
8365,1.0,300.6037,21472.209,0.0,-0.08365011761120433,0.0,0.0,0.0,0.0,-1.3661456554280789,-3.2131318815864267,-1.947737837926758,-0.0032609787672085466,0.013022164642187589,-0.5191599872521016
8366,1.0,300.59163,21552.371,0.0,-0.0836601135986238,0.0,0.0,0.0,0.0,-1.3935763621352788,-3.2181641882080765,-1.939642273602788,-3.9964873889225956e-05,0.003795650377326527,-0.5062506743530515
8367,1.0,300.32248,21502.59,0.0,-0.08367014257610039,0.0,0.0,0.0,0.0,-1.3942986068065588,-3.209471920900217,-1.9324800139459282,0.008021221353532912,-0.008045717586625502,-0.4967898973743455
8368,1.0,299.90626000000003,21296.304,0.0,-0.08368013856351975,0.0,0.0,0.0,0.0,-1.3869573058570288,-3.203188858355127,-1.8833982804269382,-0.004282924883541777,-0.005853889116833874,-0.48912540004041855
8369,1.0,299.5527,21430.15,0.0,-0.0836901345509391,0.0,0.0,0.0,0.0,-1.3998600326304287,-3.204112233171257,-1.910258122027798,-0.007048145708072823,-0.003365563909405297,-0.4816226883499585
8370,1.0,300.35097,21729.522999999997,0.0,-0.08370013053835834,0.0,0.0,0.0,0.0,-1.4366040276317786,-3.2112713517528073,-1.9573570264260982,0.009343929483799042,0.0001205963986869379,-0.45585267829165654
8371,1.0,300.03983,21593.914,0.0,-0.0837101265257777,0.0,0.0,0.0,0.0,-1.3858105093938486,-3.221915138753267,-1.956285007820298,-0.0037673781664112767,0.006529484260134924,-0.48346682379696054
8372,1.0,299.75948999999997,21382.027000000002,0.0,-0.08372012251319694,0.0,0.0,0.0,0.0,-1.3805107047457987,-3.207682521223617,-1.911408971491378,0.0065387645164758125,0.006340864815594634,-0.4950951859195905
8373,1.0,299.39886,21515.707000000002,0.0,-0.08373011850061629,0.0,0.0,0.0,0.0,-1.408538823711959,-3.2075038852309867,-1.9241950731782682,4.183319054986446e-05,0.009253047941254732,-0.5105372795636065
8374,1.0,299.44036,21586.75,0.0,-0.08374011448803564,0.0,0.0,0.0,0.0,-1.4275026099335386,-3.214004188597517,-1.9203262816464481,0.005266112258374815,0.012601165305138187,-0.5140063439309766
8375,1.0,299.97715,21443.272,0.0,-0.08375014346551246,0.0,0.0,0.0,0.0,-1.4008462289527588,-3.198715764463667,-1.918657256081728,0.002807496962428377,-0.02257964114418708,-0.5149959346411415
8376,1.0,300.54714,21364.717999999997,0.0,-0.0837601394529317,0.0,0.0,0.0,0.0,-1.3739517341984786,-3.200912389355457,-1.919476671437598,-0.007591198619042973,-0.01907187771574778,-0.5200584259832706
8377,1.0,300.38469,21254.805,0.0,-0.08377013544035106,0.0,0.0,0.0,0.0,-1.3464475668590288,-3.1875706213137267,-1.926911799346388,-0.015958799519260883,-0.0015364894118896986,-0.5104968812821196
8378,1.0,300.7815,21417.55,0.0,-0.0837801314277703,0.0,0.0,0.0,0.0,-1.378927298814529,-3.202218570059367,-1.929254534902598,-0.012559633196789289,0.0029820022383757073,-0.49298622742645254
8379,1.0,300.46103,21724.661,0.0,-0.08379012741518965,0.0,0.0,0.0,0.0,-1.4327818456045587,-3.225688380800657,-1.9452842528096081,0.00013525061945069685,-0.006919666507317914,-0.5010262757774435
8380,1.0,299.91963,21753.458,0.0,-0.0838001234026089,0.0,0.0,0.0,0.0,-1.4355472077774787,-3.2261265101438967,-1.9508344315573682,0.01031195468546069,-0.006268209007899064,-0.4947624447192515
8381,1.0,300.0678,21572.607999999997,0.0,-0.08381011939002825,0.0,0.0,0.0,0.0,-1.4010900169268186,-3.231572121481337,-1.924872126895088,0.017098864962026585,0.0017991702446642783,-0.5088409165111886
8382,1.0,299.60412,21590.113999999998,0.0,-0.0838201153774476,0.0,0.0,0.0,0.0,-1.3879774460577088,-3.2168746248058073,-1.9580033786648878,0.008330827419638653,0.003007576772224717,-0.4831450155652005
8383,1.0,299.28887000000003,21697.634,0.0,-0.08383014435492442,0.0,0.0,0.0,0.0,-1.4127561732781788,-3.2215417560914172,-1.961241016709418,0.007886080134695514,-0.004749861231099806,-0.5151372121025845
8384,1.0,299.77815,21521.962000000003,0.0,-0.08384014034234366,0.0,0.0,0.0,0.0,-1.4049024717530787,-3.2104965194013366,-1.926740154779448,0.008456783728969571,0.004791781718212035,-0.49571673379593256
8385,1.0,299.7263,21321.308999999997,0.0,-0.08385013632976301,0.0,0.0,0.0,0.0,-1.3807583430702386,-3.198840900851017,-1.901546298993008,0.002359312023870968,0.003609152678495637,-0.5328921808223634
8386,1.0,299.99452,21459.513,0.0,-0.08386013231718215,0.0,0.0,0.0,0.0,-1.4160008027483986,-3.190315921134667,-1.9168393840773181,-0.0033220975066154965,-0.007405757638741374,-0.48782007046659254
8387,1.0,300.41544,21650.451,0.0,-0.08387012830460161,0.0,0.0,0.0,0.0,-1.4282197883543186,-3.2036478606504266,-1.9493286405837582,-0.002150850203947388,-0.011646627982182689,-0.5090680669186065
8388,1.0,299.66205,21710.85,0.0,-0.08388012429202096,0.0,0.0,0.0,0.0,-1.4096526895468886,-3.2164563551645267,-1.973447134039068,-0.003151295862433687,0.007229434794764664,-0.4864525172041255
8389,1.0,300.00233,21707.414,0.0,-0.0838901202794402,0.0,0.0,0.0,0.0,-1.4036264859021488,-3.229896307140947,-1.9649889275043082,-0.010924025633617388,0.01028889615293499,-0.49595928560487057
8390,1.0,299.97612999999996,21529.311,0.0,-0.08390011626685956,0.0,0.0,0.0,0.0,-1.4106761734728988,-3.208430502447437,-1.925266281183988,-0.005195886528394075,0.00858071445002558,-0.4814185995148166
8391,1.0,299.84796,21526.584,0.0,-0.08391014524433638,0.0,0.0,0.0,0.0,-1.4055726353692186,-3.224777468960757,-1.9131938115425282,-0.018169314043421682,0.003074381871192867,-0.5123319582732275
8392,1.0,300.57647000000003,21697.505,0.0,-0.08392014123175551,0.0,0.0,0.0,0.0,-1.4397026477625885,-3.222558349916747,-1.9332387356208083,0.0015602188173066084,-0.004681414970944685,-0.5206283892970215
8393,1.0,300.0468,21515.191000000003,0.0,-0.08393013721917497,0.0,0.0,0.0,0.0,-1.3838424737246187,-3.225301927212517,-1.9309365300685981,0.002431974215042168,-0.01181479507477949,-0.5240085004381125
8394,1.0,299.57251,21304.135,0.0,-0.0839401332065941,0.0,0.0,0.0,0.0,-1.3327817614353186,-3.2181009614018365,-1.925042454236898,0.004723182659941836,0.01044368429121139,-0.5248678074504195
8395,1.0,299.45004,21498.656000000003,0.0,-0.08395012919401357,0.0,0.0,0.0,0.0,-1.3690300744877486,-3.218648825730907,-1.947375702341018,0.007185214027275413,0.004490471029349985,-0.5029656162038416
8396,1.0,298.92206,21720.566000000003,0.0,-0.08396012518143292,0.0,0.0,0.0,0.0,-1.4201246293303886,-3.234171817262907,-1.9482132548736784,0.00997937864488799,0.026089495920832772,-0.5113538780841985
8397,1.0,299.60277,21636.662999999997,0.0,-0.08397012116885205,0.0,0.0,0.0,0.0,-1.4129782777000988,-3.219740197413617,-1.9442867080861583,0.004766639436855686,0.00905090667412994,-0.5019313006342625
8398,1.0,300.29276,21611.138,0.0,-0.08398011715627152,0.0,0.0,0.0,0.0,-1.4222533664654786,-3.215700267939907,-1.931292788803758,-0.002366599723890208,-0.006561263025671244,-0.5005176039622415
8399,1.0,300.03397,21657.577,0.0,-0.08399014613374833,0.0,0.0,0.0,0.0,-1.4072318324079685,-3.216480774491937,-1.9596500114023983,-0.013118207579416289,-0.01750651371575838,-0.49969171393823253
8400,1.0,299.95884,21643.273999999998,0.0,-0.08400014212116746,0.0,0.0,0.0,0.0,-1.4099796653541588,-3.209613674589207,-1.9594216248298582,-0.016221032698141284,-0.007270216996714553,-0.49313420247105655
8401,1.0,300.37799,21595.437,0.0,-0.08401013810858682,0.0,0.0,0.0,0.0,-1.3928804619665986,-3.223122426247417,-1.9484708230490981,-0.008421276912340321,-0.013795074858217885,-0.5037840892371186
8402,1.0,300.12708,21601.292999999998,0.0,-0.08402013409600606,0.0,0.0,0.0,0.0,-1.4163190646048087,-3.218527337043917,-1.9314071847400482,0.0007901007335168713,0.009222660368105711,-0.4921281869767705
8403,1.0,299.65413,21615.477000000003,0.0,-0.08403013008342541,0.0,0.0,0.0,0.0,-1.4043370781972788,-3.234994880319137,-1.9312332096978782,0.002853926311160597,0.01022387184101759,-0.5217264281653896
8404,1.0,299.67085,21545.168999999998,0.0,-0.08404012607084488,0.0,0.0,0.0,0.0,-1.4191208024563187,-3.226865574766837,-1.9032070159069086,0.01690316178471218,0.006985627163652724,-0.5109601797578435
8405,1.0,299.98169,21565.031000000003,0.0,-0.08405012205826401,0.0,0.0,0.0,0.0,-1.3745267536302288,-3.222117079498197,-1.9585872133725082,0.011008290551683689,-0.006998651277788103,-0.5124786870202086
8406,1.0,299.54719,21565.668999999998,0.0,-0.08406011804568347,0.0,0.0,0.0,0.0,-1.3621787812865789,-3.2320087309494268,-1.961237470334068,0.0014793930727297288,-0.005945983215772854,-0.4964947274877145
8407,1.0,299.88921,21616.193,0.0,-0.0840701140331026,0.0,0.0,0.0,0.0,-1.3785208841994185,-3.235847631603297,-1.9564143998580683,-0.004228355083506156,-0.01762867114781438,-0.5038358460522265
8408,1.0,299.9556,21761.023999999998,0.0,-0.08408014301057942,0.0,0.0,0.0,0.0,-1.4219011607307186,-3.231951887618817,-1.960954976206188,-0.013664893498619986,0.0006908613671252084,-0.5028021890952126
8409,1.0,299.80686000000003,21724.527000000002,0.0,-0.08409013899799878,0.0,0.0,0.0,0.0,-1.4365993666813186,-3.233021271774357,-1.934093108105128,-0.016335402289928684,-0.0040885424777327255,-0.5100862008840885
8410,1.0,299.84947999999997,21604.722,0.0,-0.08410013498541824,0.0,0.0,0.0,0.0,-1.4059149112529985,-3.2265412334098267,-1.934839974753838,-0.00033935474453670566,0.0007858009155250122,-0.5172202415256635
8411,1.0,300.47118,21677.086,0.0,-0.0841101309728376,0.0,0.0,0.0,0.0,-1.4054416221312886,-3.2373009362217267,-1.946550410134568,0.005290943066650425,-0.00896947520864328,-0.5205807158798166
8412,1.0,299.93742000000003,21621.571,0.0,-0.08412012696025672,0.0,0.0,0.0,0.0,-1.3926182328407186,-3.2279837975771972,-1.951815561629198,0.02172868331270408,0.012922103155062288,-0.5176412672072155
8413,1.0,300.24417,21420.577999999998,0.0,-0.08413012294767597,0.0,0.0,0.0,0.0,-1.3840672125967988,-3.2154324659384765,-1.9118211616320584,0.008801708755136023,0.012310965410247688,-0.5048934461091035
8414,1.0,299.89366,21506.682,0.0,-0.08414011893509532,0.0,0.0,0.0,0.0,-1.3792017882666188,-3.222144639900917,-1.9361478779829182,-0.0006256844901402515,0.020043698045658982,-0.5170247551838705
8415,1.0,300.12937999999997,21800.047000000002,0.0,-0.08415011492251456,0.0,0.0,0.0,0.0,-1.4424786490615586,-3.2338138360025765,-1.9503773544372585,-0.005488030039626395,0.0012433776388618189,-0.5049805045576955
8416,1.0,299.70989,21833.692000000003,0.0,-0.08416014389999138,0.0,0.0,0.0,0.0,-1.4263144728662787,-3.246476017202237,-1.964106791967248,3.695725273664686e-05,-0.0026990081728963675,-0.5071912642883805
8417,1.0,300.23177999999996,21726.601000000002,0.0,-0.08417013988741073,0.0,0.0,0.0,0.0,-1.4031742723825187,-3.230979876797887,-1.970190041592618,0.007567776329731372,-0.0034048637264588867,-0.5014656412858055
8418,1.0,299.62717999999995,21719.967,0.0,-0.08418013587483009,0.0,0.0,0.0,0.0,-1.4007129865646089,-3.2201080071999173,-1.981506626659478,0.005200220705696825,-0.004805541046619975,-0.4817876859962426
8419,1.0,300.20664,21760.574,0.0,-0.08419013186224955,0.0,0.0,0.0,0.0,-1.4198916831323987,-3.2337956988257868,-1.960983853834038,0.013741223655153187,-0.026888653367453472,-0.49925698911532856
8420,1.0,300.69931,21782.843999999997,0.0,-0.08420012784966868,0.0,0.0,0.0,0.0,-1.4358863425859485,-3.229941498095407,-1.9556129190289682,-0.012202385529531687,-0.007089831526461894,-0.5052560072598855
8421,1.0,300.94737000000003,21736.019,0.0,-0.08421012383708792,0.0,0.0,0.0,0.0,-1.4503343770868589,-3.220748786563157,-1.9361239652805582,-0.002893633860054427,-0.002158616360663848,-0.5057544959115825
8422,1.0,300.26297,21546.457000000002,0.0,-0.08422011982450728,0.0,0.0,0.0,0.0,-1.4018957534063385,-3.224731872706257,-1.9229571855310983,-0.02002622860068488,-0.002736842728980347,-0.5241636898234284
8423,1.0,300.12289,21612.01,0.0,-0.08423011581192652,0.0,0.0,0.0,0.0,-1.3756914846201787,-3.239939642132147,-1.9538801600329583,-0.02198662233766068,0.011211724827261089,-0.5286965452057865
8424,1.0,299.62282000000005,21929.368,0.0,-0.08424014478940323,0.0,0.0,0.0,0.0,-1.4286021889420586,-3.258202461934547,-1.979175543479418,0.010354381493647891,0.007609669053790862,-0.5080501254706435
8425,1.0,299.89616,21884.968999999997,0.0,-0.08425014077682269,0.0,0.0,0.0,0.0,-1.4261648158265088,-3.247413780169787,-1.9789056136527783,0.018840018735115083,0.0028902079601413173,-0.4967200540449525
8426,1.0,299.74185,21570.61,0.0,-0.08426013676424204,0.0,0.0,0.0,0.0,-1.4056875379305587,-3.237954583861237,-1.9132848014015083,0.021526121445462777,0.005695488134000915,-0.5020370434146986
8427,1.0,300.0472,21591.262000000002,0.0,-0.0842701327516614,0.0,0.0,0.0,0.0,-1.4084692134300885,-3.219650220804737,-1.9350850799530281,0.011089642375712491,-0.017757433957272282,-0.4945001041358606
8428,1.0,300.48525,21827.088,0.0,-0.08428012873908064,0.0,0.0,0.0,0.0,-1.4179126030370788,-3.2484360481956767,-1.9685409770548683,0.0026520473744866976,-0.0013209092060385886,-0.5166246429843825
8429,1.0,300.35402999999997,21725.629,0.0,-0.08429012472649988,0.0,0.0,0.0,0.0,-1.3895550764634088,-3.2339016847862467,-1.9805920671192179,-0.01182053108359559,-0.0049247841687383555,-0.49965569289717754
8430,1.0,300.01961,21534.345,0.0,-0.08430012071391924,0.0,0.0,0.0,0.0,-1.3825485533469186,-3.2320193700754767,-1.9313353453079585,-0.002051370930329548,0.00895574850688856,-0.5264277769068766
8431,1.0,300.38516,21611.692000000003,0.0,-0.08431011670133859,0.0,0.0,0.0,0.0,-1.3967731662007787,-3.230517429452247,-1.942124229722738,-0.039882994161895065,-0.006835560365542284,-0.5017232094612255
8432,1.0,299.8548,21640.065,0.0,-0.08432014567881518,0.0,0.0,0.0,0.0,-1.4189254478370386,-3.245414232422447,-1.913699727317458,-0.016378619433193884,-0.01355593668886679,-0.5263357636652954
8433,1.0,300.40799,21845.678,0.0,-0.08433014166623476,0.0,0.0,0.0,0.0,-1.4410695221474885,-3.258277949066997,-1.941193154205848,-0.008591798088894452,-0.018332077473235182,-0.5024844541288546
8434,1.0,300.42452000000003,21914.929,0.0,-0.084340137653654,0.0,0.0,0.0,0.0,-1.4237359540117986,-3.2543342783527867,-1.9835208665332682,0.007102030855015874,0.006399504435981915,-0.5154720102006265
8435,1.0,299.46341,21686.902000000002,0.0,-0.08435013364107335,0.0,0.0,0.0,0.0,-1.3812623336699787,-3.252884925409747,-1.958129528302338,0.003136907913663707,0.015438793488440286,-0.49620656929177553
8436,1.0,300.27438,21696.6,0.0,-0.0843601296284926,0.0,0.0,0.0,0.0,-1.3878200883171787,-3.248798893056487,-1.9586056545243282,-0.004034603729859386,0.027512238889746573,-0.5044880548765945
8437,1.0,300.33451,21928.238999999998,0.0,-0.08437012561591173,0.0,0.0,0.0,0.0,-1.4480693578133186,-3.2414859631097572,-1.976081888274098,0.004478069861376086,0.02681084791877468,-0.4819030039901235
8438,1.0,299.78354,21803.365,0.0,-0.08438012160333119,0.0,0.0,0.0,0.0,-1.4436663808287786,-3.239049299269277,-1.9449630525279082,-0.0018822127778099383,0.007980942331582681,-0.5019746677385425
8439,1.0,300.41577,21566.292,0.0,-0.08439011759075055,0.0,0.0,0.0,0.0,-1.4034749036871885,-3.2257391446306674,-1.9264002093708983,-0.005560490796677715,-0.015280070900025585,-0.5089017419146915
8440,1.0,300.08155,21586.77,0.0,-0.08440014656822736,0.0,0.0,0.0,0.0,-1.3762485695251587,-3.2497608727014264,-1.9358296161265083,-0.009290864866786971,-0.016987805658315883,-0.5278872927484195
8441,1.0,299.77022,21809.427000000003,0.0,-0.08441014255564672,0.0,0.0,0.0,0.0,-1.4086879741266787,-3.259261814914097,-1.9615713362420182,0.006816628699348874,-0.004104512211233815,-0.5111932272808435
8442,1.0,299.91568,21727.891,0.0,-0.08442013854306596,0.0,0.0,0.0,0.0,-1.4024793854639386,-3.256129656204977,-1.946127175567798,0.013872522629611386,0.002074033180741138,-0.5243400966658385
8443,1.0,299.66887,21687.217,0.0,-0.08443013453048531,0.0,0.0,0.0,0.0,-1.4191226263064987,-3.246933702272407,-1.9263162109376084,0.007326330381952513,0.011753892664268888,-0.5057590758020345
8444,1.0,299.35129,21737.062,0.0,-0.08444013051790455,0.0,0.0,0.0,0.0,-1.4255058992864786,-3.244112712668997,-1.937905461606378,-0.0024929613332611276,0.006093679616599354,-0.5173626335622166
8445,1.0,299.83291,21766.52,0.0,-0.08445012650532369,0.0,0.0,0.0,0.0,-1.4189765156420786,-3.240975183734347,-1.9565267692941581,-0.0017840390769459484,-0.0002963727968847177,-0.4947735600728485
8446,1.0,300.02744,21901.664,0.0,-0.08446012249274326,0.0,0.0,0.0,0.0,-1.3991404224094088,-3.265659982670547,-1.992758363719938,-0.005201909793613525,0.005183219787568964,-0.5205301648323275
8447,1.0,299.88788,21963.702999999998,0.0,-0.0844701184801625,0.0,0.0,0.0,0.0,-1.4383388131279886,-3.247093187838147,-1.990985277369948,0.006258389601179964,0.00026579776233469674,-0.4818497475648675
8448,1.0,300.1628,21690.138,0.0,-0.08448014745763932,0.0,0.0,0.0,0.0,-1.395664974566409,-3.2459555106258673,-1.951639965386868,0.0036615670929185363,0.0005247993320086615,-0.5092136202954715
8449,1.0,300.29184,21575.545,0.0,-0.08449014344505867,0.0,0.0,0.0,0.0,-1.4099111696473987,-3.224798848537867,-1.9237170217810882,-0.0013655902930482687,0.018327127746496683,-0.5007943529620545
8450,1.0,300.02229,21914.655,0.0,-0.0845001394324778,0.0,0.0,0.0,0.0,-1.4465318521115786,-3.2593846208262174,-1.9555915394518584,0.010865589473850188,-0.017015138079763382,-0.5136453229203465
8451,1.0,299.81296000000003,21965.433999999997,0.0,-0.08451013541989727,0.0,0.0,0.0,0.0,-1.4441055234221185,-3.261992625258607,-1.9708452091072781,0.0044682979760866754,-0.01987144654190908,-0.5115067673917875
8452,1.0,300.17042000000004,21708.564,0.0,-0.0845201314073164,0.0,0.0,0.0,0.0,-1.3967686065753289,-3.247034318007337,-1.955058468574248,-0.00017567817373308583,-0.031616320267037874,-0.5150233430563464
8453,1.0,300.14251,21705.214,0.0,-0.08453012739473587,0.0,0.0,0.0,0.0,-1.3992355665937986,-3.2476796569960267,-1.9509278532165881,0.0025613844913139677,-0.01088231418000079,-0.5061197219101276
8454,1.0,299.74338,21933.871,0.0,-0.08454012338215522,0.0,0.0,0.0,0.0,-1.4366136535077287,-3.256569710723407,-1.974165731009988,-0.013630073158933487,0.007021693800962223,-0.5007200310672195
8455,1.0,299.28379,21940.596,0.0,-0.08455011936957446,0.0,0.0,0.0,0.0,-1.4493999578446386,-3.248093873636907,-1.9718994958363283,-0.007313936813354362,0.018071919430559583,-0.49127044036961753
8456,1.0,299.26009,21830.461,0.0,-0.08456011535699381,0.0,0.0,0.0,0.0,-1.4297839425336885,-3.2609035840511265,-1.9452274094789983,-0.005805375715295974,0.011858663737858988,-0.49301877301966457
8457,1.0,298.90497999999997,21730.54,0.0,-0.08457014433447063,0.0,0.0,0.0,0.0,-1.3934971259774587,-3.239014646115857,-1.9730297763228781,-0.008201832778557874,0.013644077288565589,-0.5001940022778045
8458,1.0,299.22972999999996,21666.688,0.0,-0.08458014032188976,0.0,0.0,0.0,0.0,-1.3864855366104685,-3.248493195501317,-1.951153402688848,0.008205387462558692,-0.0009900700787873092,-0.5092614457001915
8459,1.0,299.95759,21855.012000000002,0.0,-0.08459013630930923,0.0,0.0,0.0,0.0,-1.4123539129884786,-3.2611268030481573,-1.969897313638728,0.01085304239786189,-0.012503098907459789,-0.5041247236557365
8460,1.0,299.89313,21923.168999999998,0.0,-0.08460013229672836,0.0,0.0,0.0,0.0,-1.4451303245732587,-3.249630366088547,-1.9693351624832482,0.024957752301138378,-0.02106795406824518,-0.5041585256790725
8461,1.0,299.59352,21654.958,0.0,-0.08461012828414771,0.0,0.0,0.0,0.0,-1.4177475445957886,-3.2444592442031968,-1.920359617574738,-0.0006969754803486243,-0.007326271512121703,-0.5036390323528026
8462,1.0,300.06043999999997,21632.97,0.0,-0.08462012427156718,0.0,0.0,0.0,0.0,-1.3976253095348787,-3.245895728869967,-1.932361666334248,-0.010745477793746091,0.007468784936036683,-0.5283949006510165
8463,1.0,300.21412999999995,22041.957000000002,0.0,-0.08463012025898631,0.0,0.0,0.0,0.0,-1.4378236767771486,-3.2755416029457867,-1.9868392606107683,-0.013841607355810288,0.008315911466241561,-0.5048991608396676
8464,1.0,300.0291,22092.259,0.0,-0.08464011624640577,0.0,0.0,0.0,0.0,-1.4434832865357088,-3.286361796788657,-1.9856500089683982,-0.012057598169742289,0.013293228295689487,-0.5195434213549435
8465,1.0,300.62391,21765.381,0.0,-0.08465014522388248,0.0,0.0,0.0,0.0,-1.4158040295789787,-3.245042774935787,-1.9552854365966483,0.004864015507240956,0.01854818142806298,-0.49808050442421853
8466,1.0,300.48741,21721.113999999998,0.0,-0.08466014121130172,0.0,0.0,0.0,0.0,-1.3947732131533987,-3.262580411641617,-1.9453227563134081,-0.0007046745497759634,0.009629374803920301,-0.5184045687725475
8467,1.0,299.86148,21848.69,0.0,-0.08467013719872107,0.0,0.0,0.0,0.0,-1.4316585565436988,-3.257213529836947,-1.9525841118300482,0.0021150589680150682,0.00851829560941532,-0.49162684095979153
8468,1.0,300.57077000000004,21983.678,0.0,-0.08468013318614032,0.0,0.0,0.0,0.0,-1.4311322744417587,-3.274148181408267,-1.9772087237103084,0.004052514546577046,-0.0068496963190123935,-0.5158153905270155
8469,1.0,300.41598999999997,21947.033,0.0,-0.08469012917355967,0.0,0.0,0.0,0.0,-1.4232968114184588,-3.281981009981307,-1.9660722945112281,0.006903317007679342,0.015722103282650786,-0.5148348278752415
8470,1.0,299.83187999999996,21789.278,0.0,-0.08470012516097902,0.0,0.0,0.0,0.0,-1.4158943101628885,-3.248714995948207,-1.9587870262922282,0.015341715009609383,0.001142139971020439,-0.5085353304135295
8471,1.0,300.07466,21833.752999999997,0.0,-0.08471012114839827,0.0,0.0,0.0,0.0,-1.4182728134476288,-3.2694818607227365,-1.949161049017218,0.017085989593005883,-0.008704205521863202,-0.5195684081024095
8472,1.0,299.9353,22031.666,0.0,-0.08472011713581762,0.0,0.0,0.0,0.0,-1.4427644869147684,-3.272144378010507,-1.9821673670496878,-0.0033360149020390368,-0.016328145392712486,-0.5109185351787335
8473,1.0,299.77583,22101.597999999998,0.0,-0.08473014611329444,0.0,0.0,0.0,0.0,-1.4817639766387185,-3.2573328906987267,-1.979237047760488,-0.00012538961881499187,-0.012579472633747289,-0.5068581076555005
8474,1.0,300.49469,21775.412,0.0,-0.08474014210071368,0.0,0.0,0.0,0.0,-1.4096587690474887,-3.253354668156107,-1.9561679774337482,-0.01764804752947668,-0.005770627620341605,-0.5030853924981625
8475,1.0,300.66397,21709.522999999997,0.0,-0.08475013808813303,0.0,0.0,0.0,0.0,-1.4019333449850486,-3.2513030393536266,-1.9459166221970183,-0.02214324141886778,0.0025281680252107574,-0.5149927429033265
8476,1.0,300.51271,21965.236,0.0,-0.08476013407555227,0.0,0.0,0.0,0.0,-1.4505951876625987,-3.2483077707330175,-1.977980212336448,-0.011714880508918687,0.005896390702878454,-0.5001751659584456
8477,1.0,299.84763,22011.151,0.0,-0.08477013006297163,0.0,0.0,0.0,0.0,-1.4406837778344186,-3.2720664590778172,-1.978090048647288,0.009073355027445421,0.023955712800244777,-0.5125337065006386
8478,1.0,299.94349,21723.422000000002,0.0,-0.08478012605039098,0.0,0.0,0.0,0.0,-1.3918916311940088,-3.2481078564882866,-1.9633782651453482,0.016755141143853684,-0.0026033064983013473,-0.5064499097202145
8479,1.0,300.3243,21749.945,0.0,-0.08479012203781022,0.0,0.0,0.0,0.0,-1.4009162445346686,-3.260219032283567,-1.950305008380118,0.03110205429803377,-0.008857471961139422,-0.5027341696159996
8480,1.0,300.3033,22004.211,0.0,-0.08480011802522958,0.0,0.0,0.0,0.0,-1.4216254553785086,-3.2789460219567768,-1.988159221516038,0.004197868211847336,-0.01100695914105229,-0.5051625957331666
8481,1.0,300.40207999999996,22101.042,0.0,-0.08481014700270639,0.0,0.0,0.0,0.0,-1.4417890310434986,-3.279172584679137,-1.9972034919086379,0.022009877440705778,0.003117391095537547,-0.5059385325272455
8482,1.0,300.58872,22039.087000000003,0.0,-0.08482014299012564,0.0,0.0,0.0,0.0,-1.4404186102832488,-3.280718601681717,-1.978194920032638,-0.01016108478532099,0.0097138514912575,-0.5015193638061075
8483,1.0,300.04048,21794.915,0.0,-0.08483013897754499,0.0,0.0,0.0,0.0,-1.4101805928489886,-3.2509504283188266,-1.963978919804628,0.0007971074187533773,0.008875925575935651,-0.5050527188923225
8484,1.0,299.96011,21806.952999999998,0.0,-0.08484013496496434,0.0,0.0,0.0,0.0,-1.4136420578406088,-3.267697932596677,-1.9474292019462982,-0.013707571592831987,-0.017541880197248786,-0.5134403728226195
8485,1.0,299.97404,22059.845,0.0,-0.08485013095238358,0.0,0.0,0.0,0.0,-1.4428022811434986,-3.278600807647707,-1.984238956879138,-0.012939050776234888,-0.004488537342859146,-0.5161836360108585
8486,1.0,299.61868,22173.271,0.0,-0.08486012693980294,0.0,0.0,0.0,0.0,-1.4565654599018185,-3.278863239423607,-2.004692018097698,-0.005727521833262395,-0.01048463479400289,-0.49602447811630457
8487,1.0,300.01586000000003,21767.257999999998,0.0,-0.08487012292722218,0.0,0.0,0.0,0.0,-1.4055874288206789,-3.251451075193237,-1.9596642982288082,0.0002891688926487477,-0.002262369928503528,-0.5060454506777975
8488,1.0,300.03687,21684.443,0.0,-0.08488011891464153,0.0,0.0,0.0,0.0,-1.4028670549521987,-3.2418285429685674,-1.9468336135375182,0.009227408762049341,0.012619529449950588,-0.49164763285184354
8489,1.0,299.79983,22112.81,0.0,-0.08489014789211835,0.0,0.0,0.0,0.0,-1.4411706445074686,-3.2790944630964267,-2.001476975530398,0.008571761068166952,0.016467176478683784,-0.5094507816138776
8490,1.0,300.21862999999996,22185.601000000002,0.0,-0.08490014387953748,0.0,0.0,0.0,0.0,-1.4592392242656986,-3.2855341741069766,-1.9990952298453382,0.014348546513341286,0.015572983265433785,-0.4994495876943365
8491,1.0,300.73595,21958.882999999998,0.0,-0.08491013986695695,0.0,0.0,0.0,0.0,-1.4164958767472586,-3.2785994904225766,-1.9798569541716682,0.0050053285337624655,-0.0015246204028683185,-0.5183167402538795
8492,1.0,300.57653999999997,21806.619,0.0,-0.0849201358543763,0.0,0.0,0.0,0.0,-1.4007597987192288,-3.265181424648317,-1.962726542681028,0.0037064206350952366,-0.0030104812536363673,-0.5145619697558125
8493,1.0,299.9987,21905.947999999997,0.0,-0.08493013184179554,0.0,0.0,0.0,0.0,-1.4260851743686487,-3.273656045834697,-1.9591201829251084,-0.02039519653184918,-0.0016062038558699787,-0.5191599365895966
8494,1.0,300.39456,22117.478,0.0,-0.0849401278292149,0.0,0.0,0.0,0.0,-1.4473980796220687,-3.2774169262308672,-1.998345931396388,-0.005687207651533694,0.005826350701641045,-0.5161727435722835
8495,1.0,300.40988,22144.187,0.0,-0.08495012381663403,0.0,0.0,0.0,0.0,-1.4395599821485088,-3.2942613985432865,-1.9974584256337982,-0.01895950929290788,0.008609697455885981,-0.5203599692130305
8496,1.0,299.89076,21850.21,0.0,-0.08496011980405349,0.0,0.0,0.0,0.0,-1.4094383871507385,-3.260488759460187,-1.9719911949703781,-0.004723783213276106,0.007389178637955153,-0.5239753266298385
8497,1.0,300.32874,21718.757,0.0,-0.08497011579147284,0.0,0.0,0.0,0.0,-1.3888487398186988,-3.2628116353144367,-1.9502992328545483,0.0009974117850368792,0.01135235887489059,-0.5330345728589165
8498,1.0,300.06888,22028.147999999997,0.0,-0.08498014476894944,0.0,0.0,0.0,0.0,-1.4287946051360485,-3.295125903528607,-1.9720865418047882,0.015739427832860586,0.012243822392371189,-0.5170430139506724
8499,1.0,299.45206,22248.041,0.0,-0.08499014075636901,0.0,0.0,0.0,0.0,-1.4749943513956087,-3.283419926448317,-2.0044346525722982,0.016630406003543284,-0.006966011857616843,-0.4922470918760055
8500,1.0,300.23749,22046.543999999998,0.0,-0.08500013674378826,0.0,0.0,0.0,0.0,-1.4234523453088088,-3.2913821470591267,-1.9867644827533881,-0.0005802009901113794,-0.011914617434881187,-0.5155836602291455
8501,1.0,300.17293,21782.189,0.0,-0.08501013273120739,0.0,0.0,0.0,0.0,-1.3844973372642486,-3.271485562795487,-1.9652587560059378,0.009442364704513841,-0.003163575541720597,-0.5095367761498645
8502,1.0,300.1447,22035.671000000002,0.0,-0.08502012871862685,0.0,0.0,0.0,0.0,-1.4432276435354787,-3.272970176842007,-1.982095932917638,-0.0016860906215791886,-0.0007863373605254552,-0.5177558860585275
8503,1.0,300.80223,22259.842,0.0,-0.08503012470604598,0.0,0.0,0.0,0.0,-1.4559018824113286,-3.2965364489928173,-2.013997808341108,-0.0038820924658826968,0.000993716299802163,-0.5212299862788945
8504,1.0,300.50413,22009.397999999997,0.0,-0.08504012069346545,0.0,0.0,0.0,0.0,-1.4438995296767885,-3.259831464120317,-1.9865764235348282,-7.930101697215103e-05,-0.01895076798429518,-0.5036063651695786
8505,1.0,299.9475,21811.409,0.0,-0.0850501166808848,0.0,0.0,0.0,0.0,-1.4141941778200986,-3.256472438713807,-1.959457088583358,0.0057055524432691835,-0.004749417630206025,-0.5058286050238965
8506,1.0,299.78389,21801.69,0.0,-0.08506014565836162,0.0,0.0,0.0,0.0,-1.4139175605427987,-3.247382166766667,-1.9658697458162382,-0.0011014008321997989,-3.904836992202406e-05,-0.4967854998689115
8507,1.0,299.30155,22016.142999999996,0.0,-0.08507014164578097,0.0,0.0,0.0,0.0,-1.4179399607897787,-3.285102934864417,-1.989314934580098,0.01937274409444098,0.0014078585275948186,-0.5185649966608805
8508,1.0,299.86935,22318.007,0.0,-0.08508013763320021,0.0,0.0,0.0,0.0,-1.4778579988282285,-3.303130883293637,-2.003127863918328,-0.004990659104114705,0.009573711504376761,-0.5264254970941515
8509,1.0,300.02515,22129.336,0.0,-0.08509013362061935,0.0,0.0,0.0,0.0,-1.4293481436656787,-3.291121944433447,-2.006295486380948,0.013353542007891987,0.007867550526141784,-0.5227739058537675
8510,1.0,299.95144,21734.249,0.0,-0.0851001296080387,0.0,0.0,0.0,0.0,-1.3978130647784086,-3.2714605355180173,-1.937395290181028,-0.005650267997938035,0.00033451158131122264,-0.5198365242113705
8511,1.0,300.54400000000004,22024.064,0.0,-0.08511012559545794,0.0,0.0,0.0,0.0,-1.4214562426118087,-3.285218445375817,-1.9880909284592982,0.005074965970735146,-0.008078853296695741,-0.5033921843634406
8512,1.0,300.35091,22343.679,0.0,-0.08512012158287752,0.0,0.0,0.0,0.0,-1.4744260194145185,-3.299101491620967,-2.0183931859498982,-0.00046222831136588253,-0.004577256305715026,-0.4964486550056675
8513,1.0,300.17963,22093.528,0.0,-0.08513011757029676,0.0,0.0,0.0,0.0,-1.4293077149866886,-3.295932551933217,-1.9906407723359483,0.007037455210242754,-0.0035470426765158566,-0.5143842558207735
8514,1.0,299.79881,21841.366,0.0,-0.08514014654777347,0.0,0.0,0.0,0.0,-1.4163310209559885,-3.2759616964372467,-1.9469372690227482,-0.007204979598301123,0.006322562580363344,-0.5102793668831526
8515,1.0,300.05944,21894.533,0.0,-0.08515014253519293,0.0,0.0,0.0,0.0,-1.4099158305978587,-3.274190737912467,-1.9712848583256681,-0.011041922349002888,0.008184864892383273,-0.5149252097841615
8516,1.0,300.28904,22137.714,0.0,-0.08516013852261206,0.0,0.0,0.0,0.0,-1.4607965896693986,-3.295737906589007,-1.972777679697998,-0.0060279023585326445,0.015193664984497987,-0.5057758856211935
8517,1.0,300.96359,22235.754,0.0,-0.0851701345100313,0.0,0.0,0.0,0.0,-1.4562013991408886,-3.288618710061397,-2.014293880020328,-0.0025445248202500474,0.008073715105438643,-0.5038521289813335
8518,1.0,300.67362,22109.049,0.0,-0.08518013049745066,0.0,0.0,0.0,0.0,-1.4374141210867286,-3.296106830950417,-1.9870778810093181,-0.005259449429692246,0.007814785628509294,-0.5115359793921705
8519,1.0,300.44594,21912.457000000002,0.0,-0.08519012648487001,0.0,0.0,0.0,0.0,-1.4024547634865088,-3.2907368080704367,-1.9676481010667481,-0.0006400645558244535,-0.011310114451721387,-0.5178160123194615
8520,1.0,300.26202,22053.064,0.0,-0.08520012247228947,0.0,0.0,0.0,0.0,-1.4401837389100687,-3.286885140465307,-1.9765118102915282,0.006158897459285854,0.0005889840344956985,-0.5212147165998875
8521,1.0,299.80565,22311.683999999997,0.0,-0.0852101184597086,0.0,0.0,0.0,0.0,-1.4468165753896787,-3.315600344324277,-2.0197778935365585,0.0008671861464096091,0.010473163789620791,-0.5261236600218625
8522,1.0,299.94455,22109.336,0.0,-0.08522014743718542,0.0,0.0,0.0,0.0,-1.4587992710722788,-3.2801518909007865,-1.9817349119070082,0.00981798026560921,0.0018410345977209683,-0.4965093993491625
8523,1.0,300.14851,21743.597,0.0,-0.08523014342460478,0.0,0.0,0.0,0.0,-1.3861436660267288,-3.270465827894847,-1.9529010564613283,-0.014604657635117486,-0.006328251574374805,-0.4982773079911415
8524,1.0,300.19536,21929.712000000003,0.0,-0.08524013941202402,0.0,0.0,0.0,0.0,-1.4219832339888185,-3.283997479005317,-1.960104352747238,0.0005405978059778494,-0.005222646260885055,-0.4977965410836935
8525,1.0,299.80276000000003,22293.645,0.0,-0.08525013539944326,0.0,0.0,0.0,0.0,-1.4678998781704387,-3.299284889889067,-2.009526538299828,0.0017736587349714884,-0.0097861995748977,-0.5008770949652205
8526,1.0,300.00647000000004,22279.772,0.0,-0.08526013138686261,0.0,0.0,0.0,0.0,-1.4579145010849588,-3.323801387983657,-1.9907783716995282,0.0017387532822765884,0.001992927272511608,-0.5162346531533935
8527,1.0,299.76952,22121.479,0.0,-0.08527012737428197,0.0,0.0,0.0,0.0,-1.4106888390991488,-3.316314786969787,-1.9973736166004283,-0.011802977538863188,-0.004367864119549626,-0.5284193706409315
8528,1.0,300.04156,22067.74,0.0,-0.08528012336170143,0.0,0.0,0.0,0.0,-1.4353492187079386,-3.3009563472540266,-1.9717363625702282,0.0005647992035563415,0.014824328230297286,-0.5184426973738104
8529,1.0,299.5028,22141.965,0.0,-0.08529011934912056,0.0,0.0,0.0,0.0,-1.4289897571053087,-3.3134147638585767,-1.9882000554950678,-0.007115132077483864,0.02141540563353598,-0.5206002614742455
8530,1.0,300.44822999999997,22208.186,0.0,-0.08530014832659738,0.0,0.0,0.0,0.0,-1.4603293800482886,-3.299666682526747,-1.9907380443455482,0.01973725372516528,-0.0007378236347475233,-0.5122037821355775
8531,1.0,300.51339,21971.734,0.0,-0.08531014431401673,0.0,0.0,0.0,0.0,-1.4186268430325686,-3.283458024652077,-1.9767737354423782,-0.002209499551535628,-0.017560010281288084,-0.5153361130972145
8532,1.0,300.85616,21782.406000000003,0.0,-0.08532014030143598,0.0,0.0,0.0,0.0,-1.3975239845248788,-3.282549544612417,-1.9412338868598682,0.008177850465916002,-0.019559779930399982,-0.5216073510136375
8533,1.0,300.47211,21962.604,0.0,-0.08533013628885511,0.0,0.0,0.0,0.0,-1.4112945600089286,-3.278871041449377,-1.9859177096448182,-0.0028055330810845573,-0.017414783170955284,-0.5037709777808246
8534,1.0,300.25563999999997,22281.33,0.0,-0.08534013227627457,0.0,0.0,0.0,0.0,-1.4727560819247087,-3.316618154049727,-1.9835936178904479,-0.004512186802843166,-0.009737874435228382,-0.5067802495178164
8535,1.0,300.00289,22303.408,0.0,-0.08535012826369393,0.0,0.0,0.0,0.0,-1.4544532387433586,-3.3252657370281766,-1.999960038805688,0.005520011151207684,0.0009342804472213011,-0.5009120216961676
8536,1.0,299.89397,22046.467999999997,0.0,-0.08536012425111328,0.0,0.0,0.0,0.0,-1.4529200900170487,-3.305707172997897,-1.942948508679088,0.006313663914010114,0.012888325449728687,-0.5195531485559035
8537,1.0,299.50007999999997,22090.87,0.0,-0.08537012023853252,0.0,0.0,0.0,0.0,-1.4357147993440187,-3.3121114202549466,-1.9672465500521181,0.005669032680514965,0.02216925458868508,-0.5189331610847155
8538,1.0,299.8517,22290.789,0.0,-0.08538011622595176,0.0,0.0,0.0,0.0,-1.4646777428524385,-3.2980025205625068,-2.013162991583718,0.0096384352863145,0.012118086160961989,-0.5221774359174005
8539,1.0,300.22974,22242.487999999998,0.0,-0.08539014520342869,0.0,0.0,0.0,0.0,-1.4339271221925884,-3.309618825008947,-2.017615009873098,-0.007730308535872053,0.008147660679186503,-0.5273790059682555
8540,1.0,300.06487999999996,22033.932999999997,0.0,-0.08540014119084793,0.0,0.0,0.0,0.0,-1.4395316111457088,-3.275331657525067,-1.9829021760222083,-0.0024356125935012475,0.0034727849204121866,-0.5109086154602545
8541,1.0,300.57962000000003,21975.206000000002,0.0,-0.08541013717826706,0.0,0.0,0.0,0.0,-1.4202143019642386,-3.2680886418352366,-1.991610959306698,-0.008575419306327992,0.010217098264099089,-0.49836460961975754
8542,1.0,300.35938,22046.142000000003,0.0,-0.08542013316568664,0.0,0.0,0.0,0.0,-1.4566906976141787,-3.299516518861927,-1.945269459358148,-0.0032318634308850873,-0.001078274715892429,-0.4963901904748976
8543,1.0,300.75232,22337.541,0.0,-0.08543012915310588,0.0,0.0,0.0,0.0,-1.4528704407621487,-3.3155756210218366,-2.021608532492228,-0.00947098638538858,-0.01037375787531019,-0.5219236471648535
8544,1.0,300.42122,22474.398999999998,0.0,-0.08544012514052524,0.0,0.0,0.0,0.0,-1.4598252881235385,-3.355492102086287,-2.016338922697158,0.0018394457202391581,-0.017441859240127484,-0.5122503004476685
8545,1.0,300.33817999999997,22175.271,0.0,-0.08545012112794448,0.0,0.0,0.0,0.0,-1.4190719638014986,-3.323318371660987,-1.9983382306956283,-0.0008709673728677872,0.0007155886820356043,-0.5176759710231404
8546,1.0,300.13156000000004,22114.903,0.0,-0.08546011711536361,0.0,0.0,0.0,0.0,-1.4436298025001686,-3.305391241616717,-1.9733571574301882,-0.004236885737423066,0.00041640757130622757,-0.49708498620096847
8547,1.0,299.69993999999997,22301.379,0.0,-0.08547014609284065,0.0,0.0,0.0,0.0,-1.4562893492495685,-3.3310186671209467,-1.991754334195848,-0.011351358797041888,0.017125357399141183,-0.5164267045773475
8548,1.0,299.29905,22269.995,0.0,-0.08548014208025978,0.0,0.0,0.0,0.0,-1.4803399549481786,-3.298087734895917,-1.9910947083807482,-0.0033484328899645965,0.008316840008633202,-0.5095470606383795
8549,1.0,300.0677,22023.63,0.0,-0.08549013806767924,0.0,0.0,0.0,0.0,-1.4057279666095486,-3.296446168408907,-1.992459556265448,0.002060274662933278,0.004092185922442306,-0.5292171328421645
8550,1.0,300.20023,21960.131,0.0,-0.0855001340550986,0.0,0.0,0.0,0.0,-1.4066101021466086,-3.2854216020208673,-1.9832998766864582,0.005077896695324385,-0.006648582183513974,-0.5291142778245135
8551,1.0,299.87422999999995,22073.808999999997,0.0,-0.08551013004251784,0.0,0.0,0.0,0.0,-1.4291877461748488,-3.279036403865697,-2.001662602948718,0.005473653439257535,-0.005488387716911694,-0.5101419701695925
8552,1.0,300.55273,22203.071,0.0,-0.0855201260299372,0.0,0.0,0.0,0.0,-1.4531541507901486,-3.306200625796597,-1.989824498055388,-0.0012337310926097789,0.0006037860276540414,-0.5213384141720955
8553,1.0,300.00827999999996,22222.792999999998,0.0,-0.08553012201735644,0.0,0.0,0.0,0.0,-1.4537495365489088,-3.310301248951297,-1.991123282033568,-0.008452675607764132,0.011437457697789189,-0.4973382176659605
8554,1.0,300.24793,22209.532000000003,0.0,-0.08554011800477557,0.0,0.0,0.0,0.0,-1.4666175088438786,-3.314349791050857,-1.970175957416228,-0.011646689790438789,0.0005029237993722145,-0.5059784241836826
8555,1.0,299.91712,22277.754,0.0,-0.0855501469822526,0.0,0.0,0.0,0.0,-1.4323228433092587,-3.340093031041517,-1.9994650661318378,-0.02275982639621998,-0.011158539329512092,-0.5170922477730315
8556,1.0,299.59135,22406.183999999997,0.0,-0.08556014296967174,0.0,0.0,0.0,0.0,-1.4646129961710486,-3.330926461361847,-2.0153808947276084,0.009248000841181622,-0.01790395093498238,-0.5204919247735535
8557,1.0,299.51818,22386.264,0.0,-0.08557013895709109,0.0,0.0,0.0,0.0,-1.4552540102973885,-3.3287643882984668,-2.020846973717068,0.008893554709125511,0.001191666217358299,-0.4979683579031505
8558,1.0,300.38472,22140.985,0.0,-0.08558013494451056,0.0,0.0,0.0,0.0,-1.4420184308661386,-3.303588365713787,-1.984699783024618,0.02720045980747637,-0.01001016098027597,-0.5061955839451144
8559,1.0,299.83554,21937.93,0.0,-0.08559013093192969,0.0,0.0,0.0,0.0,-1.4131062511877288,-3.2868744000142467,-1.9686023800109282,0.017203429332596283,-0.005848622749439124,-0.5166034255272886
8560,1.0,299.63023,22172.884,0.0,-0.08560012691934915,0.0,0.0,0.0,0.0,-1.4495276273572384,-3.312243345417967,-1.9782320049862983,0.003436952951825847,0.012459635544420289,-0.5262124916581296
8561,1.0,299.49835,22316.394,0.0,-0.08561012290676828,0.0,0.0,0.0,0.0,-1.4340596553056686,-3.318830990943117,-2.030735788068018,0.0033959998145840866,0.012452530634719088,-0.5192692358778835
8562,1.0,299.95574,22248.468999999997,0.0,-0.08562011889418775,0.0,0.0,0.0,0.0,-1.4403874021801686,-3.327937272241837,-1.9946542559820484,-0.010513138532565991,-0.0032510905608076567,-0.5245069992223105
8563,1.0,299.89645,22203.092999999997,0.0,-0.08563014787166445,0.0,0.0,0.0,0.0,-1.4351891251921387,-3.320817467764167,-1.9931793691364879,-0.027159755524459178,-0.005688726310783574,-0.5182601806332976
8564,1.0,300.54366,22320.99,0.0,-0.08564014385908392,0.0,0.0,0.0,0.0,-1.4731608753396586,-3.312454304088787,-1.999408526776258,0.0014718357468588787,-0.016733696718737284,-0.5075753772687895
8565,1.0,300.61524,22353.853,0.0,-0.08565013984650305,0.0,0.0,0.0,0.0,-1.4566399337841685,-3.3334540137362967,-2.004919188770118,-0.00045773164927709656,0.006879456690349514,-0.5152810328217785
8566,1.0,300.41192,22308.216,0.0,-0.08566013583392251,0.0,0.0,0.0,0.0,-1.4623784757255185,-3.3102341717946766,-2.0085279803262783,0.02062492870052198,-0.006272849085407004,-0.5186385282206375
8567,1.0,300.15918999999997,22260.815,0.0,-0.08567013182134164,0.0,0.0,0.0,0.0,-1.4332199749477987,-3.3296216992080767,-2.003890334618578,0.006952866761419524,-0.00023558496469542576,-0.5258701853768465
8568,1.0,300.26782000000003,22057.107000000004,0.0,-0.085680127808761,0.0,0.0,0.0,0.0,-1.4320036695277587,-3.308377694961457,-1.9644284988739982,0.012062787023504388,0.012164182961011388,-0.5322417249206685
8569,1.0,300.02997,22088.382,0.0,-0.08569012379618024,0.0,0.0,0.0,0.0,-1.4327439500508186,-3.302349363491507,-1.979223368884138,0.00047677406370643657,0.02110665920881508,-0.5124378733061805
8570,1.0,300.30772,22310.892000000003,0.0,-0.0857001197835996,0.0,0.0,0.0,0.0,-1.4494812205026588,-3.3325240527945175,-1.999948893054588,-0.013708958732218886,0.014199885498419587,-0.5328680046749775
8571,1.0,300.05227,22250.545,0.0,-0.08571014876107641,0.0,0.0,0.0,0.0,-1.4389613539894288,-3.320962565178487,-2.0036861647234283,-0.016011099436422482,-0.0009532243129459151,-0.5158480779752415
8572,1.0,300.4592,22290.787,0.0,-0.08572014474849576,0.0,0.0,0.0,0.0,-1.4484961387554387,-3.320602354767937,-2.0067442548502377,-0.013818240795254186,0.0046178765902989355,-0.5177511136505565
8573,1.0,300.43474,22478.244,0.0,-0.085730140735915,0.0,0.0,0.0,0.0,-1.4675564877115486,-3.3335520963459766,-2.031716310189788,0.0016698116441475784,0.004427367738297176,-0.5120304454409705
8574,1.0,299.62082000000004,22442.037999999997,0.0,-0.08574013672333436,0.0,0.0,0.0,0.0,-1.4766731041612884,-3.3164306014562173,-2.0287154686936284,0.0025495117332672177,-0.006037776987382193,-0.5031233488469085
8575,1.0,299.65547999999995,22356.23,0.0,-0.0857501327107536,0.0,0.0,0.0,0.0,-1.4460322184872685,-3.327498940248577,-2.022204627526058,0.006894556244664723,-0.0036130365674539467,-0.5172784223464055
8576,1.0,300.05916,22340.962000000003,0.0,-0.08576012869817295,0.0,0.0,0.0,0.0,-1.4575952259784486,-3.314578278948407,-2.0189209879269883,0.0025180998655921073,-0.008416178541812152,-0.4897462183766885
8577,1.0,300.37395,22185.121,0.0,-0.0857701246855922,0.0,0.0,0.0,0.0,-1.4357170284942384,-3.299470618632397,-2.008535073076978,0.004243786781204147,-0.001867308071488958,-0.5111517853517535
8578,1.0,300.76387,22260.167999999998,0.0,-0.08578012067301155,0.0,0.0,0.0,0.0,-1.4332334511741287,-3.3344041383550675,-1.998897646075838,-0.02099352780864988,-0.011487307576208989,-0.5128632255656594
8579,1.0,301.04147,22437.867000000002,0.0,-0.0857901166604309,0.0,0.0,0.0,0.0,-1.4615318039419587,-3.336087045446157,-2.022932242422868,0.00043872668457145265,-0.005552254593239865,-0.5338673225861025
8580,1.0,300.57433,22374.729,0.0,-0.08580014563790772,0.0,0.0,0.0,0.0,-1.4764597136902287,-3.330792205723597,-1.9941071009280482,-0.005217162146043815,0.015114092427644785,-0.5063891147142145
8581,1.0,300.70345,22279.987,0.0,-0.08581014162532696,0.0,0.0,0.0,0.0,-1.4479114934477386,-3.3282267577954068,-1.9964215668064682,0.01804084001024228,0.022310665799141278,-0.5247102875898735
8582,1.0,300.24689,22436.462000000003,0.0,-0.08582013761274632,0.0,0.0,0.0,0.0,-1.4679642195517884,-3.3302125253413863,-2.0219472620006584,0.012241482797890288,-0.004244577825557216,-0.5015865929502425
8583,1.0,299.71575,22529.955,0.0,-0.08583013360016556,0.0,0.0,0.0,0.0,-1.4586480941573587,-3.348848423830607,-2.041047229035678,0.007004340069149543,-0.004230939985836266,-0.5217830485809775
8584,1.0,299.78657000000004,22377.605,0.0,-0.08584012958758491,0.0,0.0,0.0,0.0,-1.4510509475575786,-3.3200742488158173,-2.031107853504738,0.011992891005106188,-0.007492841621235893,-0.5116199879579615
8585,1.0,300.44497,22208.49,0.0,-0.08585012557500427,0.0,0.0,0.0,0.0,-1.4456396853985287,-3.305553260307707,-1.999633569623468,0.005082343850013285,-0.005325016337038194,-0.5190335944346275
8586,1.0,300.19627,22152.887000000002,0.0,-0.08586012156242351,0.0,0.0,0.0,0.0,-1.4436255468497488,-3.307586650608387,-1.9827123942784783,-0.01980492869934428,-0.003500115315359487,-0.5393840438155605
8587,1.0,299.96087,22242.541,0.0,-0.08587011754984286,0.0,0.0,0.0,0.0,-1.4475119689333087,-3.322718020976737,-1.9909468751911583,0.0018465007780354382,0.003693469069667017,-0.5350366435990055
8588,1.0,299.99356,22400.701,0.0,-0.08588014652731968,0.0,0.0,0.0,0.0,-1.4463086331145487,-3.343709827273467,-2.019235196782998,-0.005466458350297435,0.014850789256658786,-0.5308394678422765
8589,1.0,299.5841,22426.987,0.0,-0.08589014251473892,0.0,0.0,0.0,0.0,-1.4641900655793088,-3.342758385429567,-2.010295595125728,0.015810913640665687,0.009099210636872173,-0.5163365455834495
8590,1.0,299.50665,22268.803,0.0,-0.08590013850215827,0.0,0.0,0.0,0.0,-1.4400091559178385,-3.3288987452617262,-2.0002522601345283,0.0007921358362102201,-0.005968545559724584,-0.5215492309879015
8591,1.0,299.53261000000003,22241.947999999997,0.0,-0.08591013448957752,0.0,0.0,0.0,0.0,-1.4478706594687087,-3.3339545592856967,-1.9791715918040282,0.018445256496155082,-0.004694959996956475,-0.5263843591400915
8592,1.0,299.43568,22540.91,0.0,-0.08592013047699687,0.0,0.0,0.0,0.0,-1.4944045756112485,-3.333348939700927,-2.024120278165118,-0.0023618940891007977,0.0028334315040379173,-0.5103059748307786
8593,1.0,299.73629,22532.113999999998,0.0,-0.08593012646441622,0.0,0.0,0.0,0.0,-1.4688643909406287,-3.3424919006532674,-2.037843737519518,0.0055968465142407445,0.005326331231692964,-0.5046939675619165
8594,1.0,299.86093999999997,22240.625,0.0,-0.08594012245183547,0.0,0.0,0.0,0.0,-1.4402369345403185,-3.319022393887007,-2.0013354244914283,-0.011923890699796387,-0.0018269000628009984,-0.5166043475848795
8595,1.0,299.99305,22238.894,0.0,-0.08595011843925482,0.0,0.0,0.0,0.0,-1.4247118151831089,-3.318711224781297,-2.0166455321774177,0.006294740151167484,-0.003259946468006667,-0.5163753935922835
8596,1.0,300.26353,22389.756,0.0,-0.08596014741673164,0.0,0.0,0.0,0.0,-1.4626180080491586,-3.331883982706347,-2.011424659712158,0.007393404194847183,0.0011010508556152589,-0.5093895205128315
8597,1.0,300.33562,22461.129,0.0,-0.08597014340415077,0.0,0.0,0.0,0.0,-1.4718758715628386,-3.3338071313961466,-2.0219392573248682,0.01038197533362119,-0.008965045684506122,-0.5360497518439915
8598,1.0,300.1365,22423.182999999997,0.0,-0.08598013939157023,0.0,0.0,0.0,0.0,-1.4777813971206686,-3.3368988614262767,-2.001407567898548,0.00831755668042893,0.003905597233752436,-0.5323997412737635
8599,1.0,299.78123999999997,22274.562,0.0,-0.08599013537898936,0.0,0.0,0.0,0.0,-1.4380588521253586,-3.344730676749217,-1.988121123312278,0.00047864842440392154,0.014115680362109185,-0.5319596867553336
8600,1.0,300.13249,22301.889,0.0,-0.08600013136640894,0.0,0.0,0.0,0.0,-1.4463354842421985,-3.3360989004723267,-1.996782891792128,-0.002346962734302188,0.015518884829344685,-0.5100713871676266
8601,1.0,300.13235,22520.617000000002,0.0,-0.08601012735382818,0.0,0.0,0.0,0.0,-1.4599757557633886,-3.357979023131726,-2.027750347973378,-0.016948997166235786,0.01149118629759179,-0.5083610615288305
8602,1.0,299.68312000000003,22499.76,0.0,-0.08602012334124742,0.0,0.0,0.0,0.0,-1.4789840236643588,-3.3393563982188175,-2.021024697784608,-0.005828435463721795,-0.008039195397056812,-0.5141663361217665
8603,1.0,299.77066,22262.191000000003,0.0,-0.08603011932866678,0.0,0.0,0.0,0.0,-1.4509534728979587,-3.320474685255337,-1.995721917612418,0.012056316408365788,-0.0016138120468958484,-0.5025411049419455
8604,1.0,300.35218,22235.653,0.0,-0.0860401483061436,0.0,0.0,0.0,0.0,-1.4315840826613486,-3.330944193238597,-1.9965551131696482,0.01042790798715439,-0.0013856755444805286,-0.5218649293215585
8605,1.0,300.33793,22527.084,0.0,-0.08605014429356272,0.0,0.0,0.0,0.0,-1.4679742507277787,-3.3348497657490466,-2.044847018235688,0.01050086706060489,-0.015311150320342885,-0.5121808522858146
8606,1.0,300.15806000000003,22640.117000000002,0.0,-0.08606014028098208,0.0,0.0,0.0,0.0,-1.4727319665723286,-3.356099342871217,-2.053198833509948,-0.008181123770364054,-0.0064819735708959835,-0.5334748908223724
8607,1.0,300.0819,22304.22,0.0,-0.08607013626840154,0.0,0.0,0.0,0.0,-1.4515193730788087,-3.3378232494925073,-1.9905833210552784,-0.008545638771313882,-0.001979942573805118,-0.5196601477664635
8608,1.0,300.8733,22268.248,0.0,-0.0860801322558209,0.0,0.0,0.0,0.0,-1.4596323653044987,-3.320732050780737,-1.9886269377621981,-0.013210773042301787,-0.00948455025785223,-0.5076152891902285
8609,1.0,300.00057000000004,22439.847,0.0,-0.08609012824324014,0.0,0.0,0.0,0.0,-1.4576533865341885,-3.356355087196457,-2.007144792614768,-0.015368194274472686,-0.0027213848894297775,-0.5186999615742005
8610,1.0,299.68016,22598.976000000002,0.0,-0.08610012423065927,0.0,0.0,0.0,0.0,-1.4751133069573485,-3.3601636916723363,-2.034247510264598,-0.01111518641073349,-0.01085193694200279,-0.5188707144810525
8611,1.0,299.95732999999996,22601.222999999998,0.0,-0.08611012021807873,0.0,0.0,0.0,0.0,-1.4665433389365587,-3.355108485598427,-2.048555716251708,-0.0026423903917586274,-0.0006339136717549085,-0.5104063575181855
8612,1.0,299.69135,22289.792999999998,0.0,-0.08612014919555544,0.0,0.0,0.0,0.0,-1.4417879164683887,-3.3319511611879764,-2.0018013168874083,0.002742957085383787,0.009390721778717082,-0.49381614005335855
8613,1.0,300.11627999999996,22200.528,0.0,-0.08613014518297468,0.0,0.0,0.0,0.0,-1.4252746756136587,-3.330369072481837,-1.992762518045348,0.012262189576933888,0.01062543704114899,-0.5233563929387545
8614,1.0,300.44915,22468.91,0.0,-0.08614014117039404,0.0,0.0,0.0,0.0,-1.4770726286757185,-3.3436427501168464,-2.009272313849738,0.009563711941789881,0.017498542477221685,-0.5141434468020075
8615,1.0,299.26286,22542.847999999998,0.0,-0.0861501371578135,0.0,0.0,0.0,0.0,-1.4737321457460386,-3.3535081583904867,-2.025222694273918,0.025550737670411473,0.004422162469883456,-0.5273808095534335
8616,1.0,299.66002000000003,22319.537999999997,0.0,-0.08616013314523285,0.0,0.0,0.0,0.0,-1.4453520236951385,-3.338666780200757,-2.0005634292402377,0.006007536234172665,-0.02087079890353748,-0.5100384970693805
8617,1.0,300.30155,22200.906000000003,0.0,-0.08617012913265198,0.0,0.0,0.0,0.0,-1.4219744187129486,-3.3406118150927173,-1.9859347322464982,0.002287151898124318,-0.015108511446093984,-0.5397729393364414
8618,1.0,300.00802000000004,22469.207000000002,0.0,-0.08618012512007123,0.0,0.0,0.0,0.0,-1.4652771816115986,-3.3522285248391968,-2.0125720641253984,-0.01297524001680649,-0.011151996773616389,-0.5205897439382076
8619,1.0,301.01288,22711.464,0.0,-0.08619012110749058,0.0,0.0,0.0,0.0,-1.5016149646478585,-3.359475289554397,-2.0426277978666683,0.0004927863942417306,0.014912146616464287,-0.5134962130356305
8620,1.0,300.84708,22523.988999999998,0.0,-0.0862001500849674,0.0,0.0,0.0,0.0,-1.4760753879272985,-3.354522016440547,-2.016132624976798,-0.01168278682525129,0.004559460290233696,-0.5217129114090555
8621,1.0,299.96835,22315.904,0.0,-0.08621014607238664,0.0,0.0,0.0,0.0,-1.4324773639495088,-3.334263195266157,-2.016737129986458,0.006580033078473703,0.007426834456721493,-0.5087627645309756
8622,1.0,300.01057000000003,22370.872000000003,0.0,-0.086220142059806,0.0,0.0,0.0,0.0,-1.4418451650990385,-3.3478174418538567,-2.010523677723238,-0.012334303599800988,-0.005882849932517084,-0.5323472042560785
8623,1.0,299.4688,22471.173,0.0,-0.08623013804722535,0.0,0.0,0.0,0.0,-1.4616911881826884,-3.3407616747825073,-2.028222522519978,0.01000477667056958,-0.0011769767253585587,-0.49836768990006153
8624,1.0,299.65049,22464.647,0.0,-0.08624013403464481,0.0,0.0,0.0,0.0,-1.4762075157403385,-3.3379894225089073,-2.014494807515158,-0.00914176318939678,-0.01101984565582409,-0.5031093659955285
8625,1.0,300.00971,22342.572,0.0,-0.08625013002206394,0.0,0.0,0.0,0.0,-1.4498917894431786,-3.350022476721477,-1.991669626487488,0.005406596446314525,0.008385243104334061,-0.5162513515150415
8626,1.0,300.23607000000004,22317.901,0.0,-0.08626012600948318,0.0,0.0,0.0,0.0,-1.4524270425183885,-3.347731315595357,-1.9839262678982783,0.01035498032445699,0.0033611263805923466,-0.5275171930168935
8627,1.0,299.94891,22638.485,0.0,-0.08627012199690254,0.0,0.0,0.0,0.0,-1.4763168454261286,-3.375864609921897,-2.029352904331538,0.008205791242723543,0.00963968604223794,-0.5240072338754874
8628,1.0,300.21697,22813.357000000004,0.0,-0.08628011798432189,0.0,0.0,0.0,0.0,-1.5093415032854087,-3.370683963485607,-2.0546655130296982,0.011814672471517388,-0.016006127418181786,-0.5161263063202005
8629,1.0,299.85064,22598.885,0.0,-0.0862901469617986,0.0,0.0,0.0,0.0,-1.4679451704499087,-3.3708599650279765,-2.030691711688668,0.008654761855408493,-0.006552624764593713,-0.5242272915322055
8630,1.0,300.11152000000004,22335.026,0.0,-0.08630014294921817,0.0,0.0,0.0,0.0,-1.4528404485591886,-3.3399379024512066,-1.9965118473903782,-0.005810091685236405,-0.01905594638442548,-0.5165637669183745
8631,1.0,299.942,22366.096,0.0,-0.0863101389366373,0.0,0.0,0.0,0.0,-1.4493804021177086,-3.343903459367577,-2.005450638447568,-0.016938857572485085,-0.012297338209652788,-0.5171239928986645
8632,1.0,299.93192,22440.714,0.0,-0.08632013492405666,0.0,0.0,0.0,0.0,-1.4595519132465586,-3.3584123901994967,-2.0034525092503683,-0.01233195387281909,0.011120150322973388,-0.5236630328165175
8633,1.0,300.48975,22436.217999999997,0.0,-0.0863301309114759,0.0,0.0,0.0,0.0,-1.4360409645512087,-3.370189396111797,-2.013819780298538,-0.017534846215054585,0.01959312700444108,-0.5458957259807135
8634,1.0,300.95214,22342.167999999998,0.0,-0.08634012689889514,0.0,0.0,0.0,0.0,-1.4375957968296587,-3.3515238093946467,-2.0023417844907483,-0.0014955613019254088,0.01065359222167769,-0.5189473871161195
8635,1.0,301.03005,22289.83,0.0,-0.0863501228863145,0.0,0.0,0.0,0.0,-1.4217961880203587,-3.355505274337587,-1.998250280586948,-0.004352802359463146,0.0034620317024009264,-0.5138814608561515
8636,1.0,300.15041,22556.101000000002,0.0,-0.08636011887373385,0.0,0.0,0.0,0.0,-1.4719635176964885,-3.354582710121537,-2.029945351665008,0.03215187259414277,-0.012197236192523489,-0.4966992013578945
8637,1.0,300.06382,22871.102000000003,0.0,-0.08637014785121067,0.0,0.0,0.0,0.0,-1.5077970061579786,-3.3827914915805266,-2.0616554188445484,0.007572805900577752,-0.0035745402577296564,-0.5161458316496276
8638,1.0,299.69126,22727.575,0.0,-0.08638014383863002,0.0,0.0,0.0,0.0,-1.4956597898351287,-3.3793421855901067,-2.0336134183520183,0.025585928859634576,-0.02294827774256868,-0.5175594371291395
8639,1.0,300.42093,22406.947999999997,0.0,-0.08639013982604926,0.0,0.0,0.0,0.0,-1.4560937919802686,-3.3424817681522665,-2.012577029050888,0.007390597188095153,-0.006517306513808074,-0.5223063213301204
8640,1.0,300.19417999999996,22447.109,0.0,-0.08640013581346861,0.0,0.0,0.0,0.0,-1.4703857859657787,-3.344288798380607,-2.008685946016868,0.014820717006940884,0.01342197793289609,-0.5036973550285585
8641,1.0,299.85249,22493.581000000002,0.0,-0.08641013180088786,0.0,0.0,0.0,0.0,-1.4693114368847486,-3.3347050736347668,-2.033470448762908,-0.007264289179654523,0.007860617159682512,-0.5184629319783075
8642,1.0,299.66688999999997,22464.3,0.0,-0.08642012778830699,0.0,0.0,0.0,0.0,-1.4678437441148986,-3.342944924772976,-2.017797597541118,-0.015096526723911185,-0.010776163059774491,-0.5085418861416765
8643,1.0,300.33977999999996,22489.966,0.0,-0.08643012377572656,0.0,0.0,0.0,0.0,-1.4599030044062087,-3.359910480472347,-2.016574604670418,-0.019295046050272782,-0.004210567984625707,-0.5335487466221615
8644,1.0,300.16729,22543.731,0.0,-0.0864401197631458,0.0,0.0,0.0,0.0,-1.4636318660992185,-3.366108227359017,-2.022991112253678,-0.0003904309291550326,-0.0041838532404391655,-0.5180223910998295
8645,1.0,299.70198999999997,22589.731,0.0,-0.08645014874062262,0.0,0.0,0.0,0.0,-1.4681610940462186,-3.380903705319217,-2.017649257726478,-0.0013207810299009388,0.026260672366226576,-0.5398489432264425
8646,1.0,299.13249,22717.593999999997,0.0,-0.08646014472804198,0.0,0.0,0.0,0.0,-1.4863126589876385,-3.3787615932828072,-2.0405070654073683,-0.0008823302026692111,0.0053647289521825256,-0.5075286056441736
8647,1.0,298.88501,22607.24,0.0,-0.08647014071546122,0.0,0.0,0.0,0.0,-1.4616038460240686,-3.3709525760871166,-2.0394798324559877,-0.006061925574365474,0.01063609339245069,-0.5146573672527275
8648,1.0,299.30322,22368.955,0.0,-0.08648013670288057,0.0,0.0,0.0,0.0,-1.4348306373067587,-3.359384299695417,-2.005388627541448,0.009944031617799512,-0.009532435545653141,-0.5075817810094215
8649,1.0,299.80082000000004,22418.615,0.0,-0.08649013269029981,0.0,0.0,0.0,0.0,-1.4388937702077589,-3.3627236680499863,-2.013081627600688,0.018449273019551484,-0.009943651345036981,-0.5475081919248515
8650,1.0,299.43665,22631.362,0.0,-0.08650012867771917,0.0,0.0,0.0,0.0,-1.4818448339966985,-3.370561360223507,-2.026962647345638,0.01055548529399529,-0.016111044399786285,-0.5383767212286454
8651,1.0,299.82624,22546.403,0.0,-0.08651012466513852,0.0,0.0,0.0,0.0,-1.4757452710447185,-3.3609384226987964,-2.016859935898578,-0.0005472911638859325,-0.004194045421870056,-0.5532151204630815
8652,1.0,299.57364,22406.972999999998,0.0,-0.08652012065255776,0.0,0.0,0.0,0.0,-1.4543292169311186,-3.3519864593903073,-2.0048446135627582,-0.0015353265047499285,0.0016117204960394284,-0.5341557239620656
8653,1.0,299.82392000000004,22519.569,0.0,-0.08653014963003458,0.0,0.0,0.0,0.0,-1.4719081942410286,-3.3562325852593675,-2.017245882861668,-0.016713704281014184,0.019972103820093182,-0.5324802439942085
8654,1.0,299.99702,22722.652000000002,0.0,-0.08654014561745393,0.0,0.0,0.0,0.0,-1.4914943186740286,-3.3695106198698066,-2.046113783510708,-0.005939489295881954,-0.006881092582635963,-0.5136423439650525
8655,1.0,300.19867,22756.85,0.0,-0.08655014160487307,0.0,0.0,0.0,0.0,-1.4836395025738185,-3.3827205640735265,-2.051154094808148,-0.014361099668830184,0.015426886786515185,-0.5177142718769205
8656,1.0,299.768,22754.4,0.0,-0.08656013759229253,0.0,0.0,0.0,0.0,-1.4801249432769588,-3.3890196359701963,-2.047624742059828,-0.005604267760623165,-0.009560058161929282,-0.5248204684057476
8657,1.0,300.3788,22614.459,0.0,-0.08657013357971166,0.0,0.0,0.0,0.0,-1.4754221455878287,-3.3695232854960566,-2.0292854218748784,0.018856015927693884,-0.006039515319253754,-0.5049432270865165
8658,1.0,300.29372,22475.846,0.0,-0.08658012956713113,0.0,0.0,0.0,0.0,-1.4602803387434486,-3.356624206423017,-2.015191619608928,0.014532022801698987,-0.001716444960124928,-0.5024037994208945
8659,1.0,300.90002999999996,22705.161,0.0,-0.08659012555455048,0.0,0.0,0.0,0.0,-1.4887862051317586,-3.3626849618961665,-2.050330930426908,0.023891473757154873,0.013260043341664385,-0.49874102189940656
8660,1.0,300.4923,22743.554,0.0,-0.08660012154196972,0.0,0.0,0.0,0.0,-1.4868611312667686,-3.373227119911597,-2.0533841569532383,0.008663184699514761,-0.0025494712032632172,-0.5179910107442326
8661,1.0,300.02653,22480.96,0.0,-0.08661015051944643,0.0,0.0,0.0,0.0,-1.4353888367868486,-3.366094041857617,-2.0321676117843284,-0.004181217168979006,-0.003586730365707726,-0.5339284722296376
8662,1.0,299.96691,22439.217,0.0,-0.08662014650686589,0.0,0.0,0.0,0.0,-1.4463116728648486,-3.3651195992364467,-2.009530489975218,0.003322816508886457,-0.014519104876174088,-0.5472828045726075
8663,1.0,299.45754,22568.558999999997,0.0,-0.08663014249428502,0.0,0.0,0.0,0.0,-1.4667140715784086,-3.3670337300003568,-2.026530698828008,-0.014917600941752587,0.016214398949736586,-0.5303845692098814
8664,1.0,299.73838,22638.928,0.0,-0.08664013848170449,0.0,0.0,0.0,0.0,-1.4776562607333186,-3.379864414691647,-2.024148243867878,-0.01769978103983238,0.005081791426058765,-0.5380813790894975
8665,1.0,299.73535,22581.744,0.0,-0.08665013446912362,0.0,0.0,0.0,0.0,-1.4702249831749088,-3.3620394202574566,-2.032021906419948,-0.03028723403136727,0.008197235764179182,-0.5227967951735265
8666,1.0,299.74816,22528.674,0.0,-0.08666013045654297,0.0,0.0,0.0,0.0,-1.4596029810515987,-3.3665629740038967,-2.0219882986297084,0.00014722377031735486,0.015397053663820885,-0.5189786965442095
8667,1.0,300.19935,22608.187,0.0,-0.08667012644396244,0.0,0.0,0.0,0.0,-1.4545386557267885,-3.376528187412387,-2.041257377106418,0.004757019032456225,0.013781914765919086,-0.5130270579743285
8668,1.0,299.99697000000003,22640.182,0.0,-0.08668012243138157,0.0,0.0,0.0,0.0,-1.4661259812203686,-3.383242185225007,-2.032681937535088,0.02179663389091028,-0.003893426884151316,-0.5371083651509685
8669,1.0,299.88662999999997,22724.974,0.0,-0.08669011841880103,0.0,0.0,0.0,0.0,-1.4784994874665385,-3.3872589112714264,-2.042066355986258,0.00970588055669583,-0.01770719803056438,-0.5225526221644285
8670,1.0,300.28142,22692.603,0.0,-0.08670014739627774,0.0,0.0,0.0,0.0,-1.4896382471408485,-3.3721390919542165,-2.036207135957998,0.03433975111106957,-0.015050743018142684,-0.5141212262273145
8671,1.0,299.97777,22530.502999999997,0.0,-0.08671014338369698,0.0,0.0,0.0,0.0,-1.4765942733035087,-3.3602623822320767,-2.011853669804498,0.021247085540174078,0.005913628924179734,-0.5115572272467676
8672,1.0,300.52671000000004,22688.482999999997,0.0,-0.08672013937111633,0.0,0.0,0.0,0.0,-1.4821153717733986,-3.3803653655410866,-2.034251664590008,0.013021400651612189,0.001359368228159199,-0.5301631335330276
8673,1.0,301.03857999999997,22836.501,0.0,-0.0867301353585358,0.0,0.0,0.0,0.0,-1.4932527128975686,-3.378969208228297,-2.069504054119148,-0.02011597114879178,0.006112762662357703,-0.5251080186516265
8674,1.0,300.7011,22652.395,0.0,-0.08674013134595493,0.0,0.0,0.0,0.0,-1.4702949987568186,-3.3780677196143265,-2.037399731325698,-0.01937139647180798,0.012176391611466289,-0.5391100204585165
8675,1.0,300.64387,22641.894,0.0,-0.0867501273333744,0.0,0.0,0.0,0.0,-1.4728295425569589,-3.3692412979932262,-2.0404994660316182,-0.010724812557956591,0.013152106874761886,-0.5222250586721006
8676,1.0,300.1761,22767.882999999998,0.0,-0.08676012332079353,0.0,0.0,0.0,0.0,-1.4898046228072686,-3.3800960436645067,-2.050967150164698,-0.019281027735139282,-0.006660554645370563,-0.5242551356449535
8677,1.0,299.91764,22762.805,0.0,-0.08677011930821288,0.0,0.0,0.0,0.0,-1.4898813258398385,-3.3885520210490467,-2.0408909858702584,-0.01097622523901909,-0.010659349508745888,-0.5135551943239515
8678,1.0,300.23095,22723.381,0.0,-0.0867801482856897,0.0,0.0,0.0,0.0,-1.4781136418284588,-3.3924086535796674,-2.0368180244432876,-0.004439781571897326,-0.0022275606332431176,-0.5151385394602155
8679,1.0,299.52097000000003,22537.12,0.0,-0.08679014427310894,0.0,0.0,0.0,0.0,-1.4566750935626385,-3.3722668627918266,-2.021779771759128,0.015284989216010986,0.014018362756254687,-0.5224292589647536
8680,1.0,299.79037999999997,22462.802000000003,0.0,-0.08680014026052829,0.0,0.0,0.0,0.0,-1.4477371131055286,-3.3696186323304667,-2.0107752677230684,0.007773215421956633,-0.006246429703624614,-0.5334106406335315
8681,1.0,299.31382,22597.042999999998,0.0,-0.08681013624794764,0.0,0.0,0.0,0.0,-1.4553741817592485,-3.3800679766367367,-2.033494564115288,0.014479440187759486,-0.0058365815892257545,-0.5398182214834104
8682,1.0,299.44786,22748.391,0.0,-0.08682013223536689,0.0,0.0,0.0,0.0,-1.4730292541516685,-3.390623104253447,-2.051290579596618,0.008174457293981122,-0.009148510219162662,-0.5253262524581644
8683,1.0,299.51363,22647.587000000003,0.0,-0.08683012822278624,0.0,0.0,0.0,0.0,-1.4677042195761287,-3.371389793505267,-2.045206722021188,0.012452727205238488,-0.0007771534440040734,-0.5175481089930215
8684,1.0,299.73917,22551.217999999997,0.0,-0.08684012421020548,0.0,0.0,0.0,0.0,-1.4613107127701386,-3.375376426023717,-2.018320029292678,-0.023787627780906078,-0.0015446324976433584,-0.5454684485460445
8685,1.0,299.92384,22709.217,0.0,-0.08685012019762484,0.0,0.0,0.0,0.0,-1.4786643432578086,-3.383441390194667,-2.040928982749008,-0.006550604546544334,0.005446146738792834,-0.5314202020045905
8686,1.0,300.60115,22946.682,0.0,-0.08686014917510165,0.0,0.0,0.0,0.0,-1.5096670605425384,-3.393792043941197,-2.0717592448667177,-0.01831454622000498,0.006444097066257864,-0.5261888018707915
8687,1.0,299.59537,22877.676,0.0,-0.0868701451625209,0.0,0.0,0.0,0.0,-1.4965998832779086,-3.407696773738487,-2.049945490088868,0.0093854135640932,0.0013555268957050888,-0.5188159584456485
8688,1.0,300.03693,22669.647,0.0,-0.08688014114994025,0.0,0.0,0.0,0.0,-1.4832530489856788,-3.3784380625258765,-2.029315616727858,-0.01020949990159919,-0.014967379892665384,-0.5174612531944495
8689,1.0,300.27227999999997,22682.665,0.0,-0.0868901371373596,0.0,0.0,0.0,0.0,-1.4793084663463787,-3.376092591194397,-2.039562716314168,-0.006533920471722744,-0.004024009794763846,-0.4998898955252915
8690,1.0,299.46197,22697.984,0.0,-0.08690013312477884,0.0,0.0,0.0,0.0,-1.4641180234971984,-3.398181443374397,-2.0373209004679182,-0.0013755781019339887,0.009861200853924751,-0.5182261759599415
8691,1.0,299.84152,22787.833,0.0,-0.0869101291121982,0.0,0.0,0.0,0.0,-1.4765529326994287,-3.3935399473163175,-2.056839137144218,0.012569974427309888,0.012242159648957088,-0.5184514822521775
8692,1.0,299.65361,22801.124,0.0,-0.08692012509961744,0.0,0.0,0.0,0.0,-1.4854389334264086,-3.3970573437134566,-2.048476277443868,-0.001109788415202589,0.014761644526110883,-0.5321677272658655
8693,1.0,299.76673999999997,22628.949,0.0,-0.0869301210870368,0.0,0.0,0.0,0.0,-1.4589286631100484,-3.378322349364457,-2.041384438668958,0.009483329899431792,-0.005064765075353395,-0.5243657318933685
8694,1.0,300.33803,22687.455,0.0,-0.08694015006451361,0.0,0.0,0.0,0.0,-1.4714762457233985,-3.3930179208647973,-2.0319257489854583,-0.005017671338530605,-0.01339387746787279,-0.5297103627258425
8695,1.0,300.26178,22891.282000000003,0.0,-0.08695014605193274,0.0,0.0,0.0,0.0,-1.4917962672038285,-3.3981788089241363,-2.068403157885498,0.015750875532490386,-0.017188958094668087,-0.5163778051275215
8696,1.0,300.26755,22834.854,0.0,-0.08696014203935232,0.0,0.0,0.0,0.0,-1.4836993856547285,-3.4023387072096867,-2.055187235506188,-0.0016250295361029286,-0.006874221024432794,-0.5449043215528694
8697,1.0,300.22816,22609.261000000002,0.0,-0.08697013802677156,0.0,0.0,0.0,0.0,-1.4687544533047787,-3.3807820139822065,-2.023114424790848,0.0025620200017766877,0.011122240657929688,-0.5352852850410446
8698,1.0,300.17612,22623.61,0.0,-0.0869801340141908,0.0,0.0,0.0,0.0,-1.4727336890974987,-3.3795618582117863,-2.0247171837990283,-0.02029984463118868,0.013034657002670489,-0.5351678392219534
8699,1.0,300.47632000000004,22683.861,0.0,-0.08699013000161016,0.0,0.0,0.0,0.0,-1.4713554663114787,-3.3748456856213367,-2.049126074732998,0.00045700356828524047,0.005562558637481795,-0.5183696217765985
8700,1.0,300.39645,22638.752,0.0,-0.0870001259890294,0.0,0.0,0.0,0.0,-1.4738405635067384,-3.383515762752007,-2.024258992103808,-0.008726483649161882,0.0004009888736070206,-0.5350637176416775
8701,1.0,300.05913,22644.525,0.0,-0.08701012197644875,0.0,0.0,0.0,0.0,-1.4703855833157586,-3.3748373769705173,-2.038147205924468,0.01999871176771918,-0.006623399473478633,-0.5162869672560565
8702,1.0,300.08782,22735.884,0.0,-0.08702015095392557,0.0,0.0,0.0,0.0,-1.4843311470920786,-3.3867934241754867,-2.040016551033958,0.00929324397802177,-0.0007575951636838213,-0.5300315326100394
8703,1.0,299.96795,22832.857000000004,0.0,-0.08703014694134492,0.0,0.0,0.0,0.0,-1.4901487225412284,-3.4068251760024673,-2.043644391691998,0.021588040145823682,-0.013108286847687186,-0.5253860747440685
8704,1.0,299.44795,23025.998,0.0,-0.08704014292876427,0.0,0.0,0.0,0.0,-1.5124526877174587,-3.420826063234247,-2.066049681878228,0.02194540129709248,-0.003443937284765147,-0.5241467685467586
8705,1.0,299.82377,23074.782000000003,0.0,-0.08705013891618352,0.0,0.0,0.0,0.0,-1.5256945492993286,-3.4118415745975463,-2.0766212241465585,0.011082085556466689,-0.015611155436451085,-0.5151109283949905
8706,1.0,300.07112,22720.22,0.0,-0.08706013490360265,0.0,0.0,0.0,0.0,-1.4878971794940186,-3.3824560044724166,-2.036026270815148,-0.01089552392155449,0.0012654213000873587,-0.5051869340005685
8707,1.0,299.97622,22504.771,0.0,-0.08707013089102211,0.0,0.0,0.0,0.0,-1.4486403242446686,-3.3613130212607674,-2.030935195687698,-0.027094195203238875,-0.0037921568936317464,-0.5140755083828026
8708,1.0,300.42652000000004,22743.54,0.0,-0.08708012687844124,0.0,0.0,0.0,0.0,-1.4827416616602087,-3.3905551151717366,-2.040171476974248,-0.03136769402375037,-0.003212776940076397,-0.5083129321490805
8709,1.0,300.75095,22873.004,0.0,-0.08709012286586082,0.0,0.0,0.0,0.0,-1.4855010456575384,-3.410833998698107,-2.056487032734468,-0.014950489013498384,0.004350520013612896,-0.5367372926993464
8710,1.0,300.17579,22710.278,0.0,-0.08710011885328006,0.0,0.0,0.0,0.0,-1.4716913587196285,-3.4016386527155964,-2.030027526248118,-0.017002764269542184,0.014933404603562288,-0.5303804250169725
8711,1.0,300.38982000000004,22677.868,0.0,-0.08711014783075688,0.0,0.0,0.0,0.0,-1.4615183277156287,-3.4069538587651667,-2.0250334191552377,0.0061381640317646246,0.005387919207221224,-0.5384254585584555
8712,1.0,300.38223,22822.21,0.0,-0.08712014381817623,0.0,0.0,0.0,0.0,-1.4848649272447587,-3.417656819571467,-2.034860121275058,0.005706912224903385,0.0025959512145004374,-0.5287311679617035
8713,1.0,299.95249,22883.102000000003,0.0,-0.08713013980559547,0.0,0.0,0.0,0.0,-1.4791119971519884,-3.4307954309681468,-2.045983986172898,0.028598355857437974,0.00861856035451068,-0.5489528028574235
8714,1.0,299.87644,22914.02,0.0,-0.0871401357930146,0.0,0.0,0.0,0.0,-1.5059174272224785,-3.4160536552632466,-2.043318935759878,0.022238572041276182,0.002385822902137388,-0.5311640523793105
8715,1.0,299.77391,22779.03,0.0,-0.08715013178043396,0.0,0.0,0.0,0.0,-1.4831559796260987,-3.401639463315677,-2.039460986004128,0.00915928532337608,-0.006014734666858095,-0.5276689576168715
8716,1.0,299.84431,22601.257,0.0,-0.08716012776785342,0.0,0.0,0.0,0.0,-1.4485005970558786,-3.397597507341767,-2.024119568890048,-0.013638672612532186,-0.0040435323884155765,-0.5275323715033915
8717,1.0,299.56208,22716.57,0.0,-0.08717012375527278,0.0,0.0,0.0,0.0,-1.4778430027267486,-3.386049698602087,-2.0413773459182583,-0.001235408730800349,0.010301422963921291,-0.5131531670817745
8718,1.0,299.46306,22956.604,0.0,-0.08718011974269202,0.0,0.0,0.0,0.0,-1.4947145288168384,-3.403118301836627,-2.080401457619638,-0.018483656648444882,0.015737798526699785,-0.5189449451833785
8719,1.0,299.56227,22735.587000000003,0.0,-0.08719014872016873,0.0,0.0,0.0,0.0,-1.4688338921126185,-3.3883491683790266,-2.053867679900958,-0.024209030391495273,0.0015854541150221388,-0.5153874038172765
8720,1.0,300.0535,22615.641,0.0,-0.08720014470758819,0.0,0.0,0.0,0.0,-1.4685758173121486,-3.380306191735247,-2.025708142396828,-0.02058356985794018,-0.0030049313788636373,-0.5242125386107495
8721,1.0,300.29429,22907.726000000002,0.0,-0.08721014069500732,0.0,0.0,0.0,0.0,-1.5018307869191587,-3.4100396106197066,-2.0515060978928883,-7.012245953054794e-05,-0.005437147051404636,-0.5280542459673965
8722,1.0,300.50821,23086.127,0.0,-0.08722013668242656,0.0,0.0,0.0,0.0,-1.5361568632068785,-3.416667482173827,-2.064781802028098,0.007792468187106733,0.009576385876690699,-0.5168583187224445
8723,1.0,300.36892,22957.531000000003,0.0,-0.08723013266984592,0.0,0.0,0.0,0.0,-1.5109760783467285,-3.4175905530149264,-2.049949543089268,0.014148809587378786,0.014533092793804587,-0.5143757039899295
8724,1.0,300.26448999999997,22803.931,0.0,-0.08724012865726538,0.0,0.0,0.0,0.0,-1.4853150129391786,-3.4089995093920566,-2.0375111888366977,0.004440702413588206,-0.0034864237733832366,-0.5117375958970686
8725,1.0,300.58036,22801.74,0.0,-0.08725012464468473,0.0,0.0,0.0,0.0,-1.4658684130449486,-3.4056999617664165,-2.059591124415818,0.005344281869139556,0.001024784027213309,-0.5335233039121505
8726,1.0,300.23762999999997,22990.776,0.0,-0.08726012063210387,0.0,0.0,0.0,0.0,-1.5033564375947286,-3.419813725059337,-2.0654515603441976,0.0012929025679745488,-0.008010910621840322,-0.5128461826989775
8727,1.0,300.05183999999997,22948.412999999997,0.0,-0.08727014960958068,0.0,0.0,0.0,0.0,-1.4953682777813586,-3.408434115836257,-2.071942136509768,0.003052120665170857,-0.007537053978749312,-0.5479090437969125
8728,1.0,299.95095,22638.522,0.0,-0.08728014559700015,0.0,0.0,0.0,0.0,-1.4700719824098087,-3.3871646790121264,-2.024308641358708,-0.009337328058072532,-0.015261389607931886,-0.5219061078056224
8729,1.0,300.40717,22537.362,0.0,-0.08729014158441928,0.0,0.0,0.0,0.0,-1.4278135763892288,-3.409646672230927,-2.013335041450698,-0.004662268293080056,-0.001072438597966449,-0.5574829906792874
8730,1.0,299.87629,22841.7,0.0,-0.08730013757183852,0.0,0.0,0.0,0.0,-1.4618256464709587,-3.4197725871052764,-2.0617081078497477,-0.015219314397529384,-0.004704184423216855,-0.5241685027614035
8731,1.0,300.03792000000004,23154.814,0.0,-0.08731013355925787,0.0,0.0,0.0,0.0,-1.5129144257880285,-3.4539160757249765,-2.0716546774563978,-0.008376204710792043,0.01180106857567479,-0.5455832801798775
8732,1.0,300.4521,22968.362,0.0,-0.08732012954667723,0.0,0.0,0.0,0.0,-1.5135672628274586,-3.416938931875617,-2.0513024346227877,-0.0014493108931608485,-0.004180871853344926,-0.5164914107287335
8733,1.0,300.05749,22766.072999999997,0.0,-0.08733012553409669,0.0,0.0,0.0,0.0,-1.4998891970775385,-3.4041297280864464,-2.016298797993198,0.007269118228306113,-0.007919229624967113,-0.5397263298318414
8734,1.0,299.98938,22919.918999999998,0.0,-0.08734012152151582,0.0,0.0,0.0,0.0,-1.5078503031132384,-3.4086074829283666,-2.0506250769309378,0.02045207836596298,-0.015323399500801787,-0.5133347617646965
8735,1.0,300.03146,23039.481,0.0,-0.08735015049899264,0.0,0.0,0.0,0.0,-1.5112778242265088,-3.416983616205026,-2.0751653864028783,0.020851080043341377,-0.006603316045896554,-0.5271150948472094
8736,1.0,299.18482,23020.602000000003,0.0,-0.087360146486412,0.0,0.0,0.0,0.0,-1.4882033836742385,-3.424581066779836,-2.084903733113978,0.021076838245121982,-0.004281462864972486,-0.5224599807077854
8737,1.0,298.97733,22844.611,0.0,-0.08737014247383124,0.0,0.0,0.0,0.0,-1.4919714581461185,-3.3999113652701265,-2.052308490647078,-0.007850369452146143,0.01003851384589918,-0.5280202615590425
8738,1.0,299.95005,22694.43,0.0,-0.08738013846125059,0.0,0.0,0.0,0.0,-1.4728996594638786,-3.395851880069487,-2.0297885005495284,-0.005005136320218495,0.008573951005608082,-0.5138523907107825
8739,1.0,300.09236,22785.179,0.0,-0.08739013444867005,0.0,0.0,0.0,0.0,-1.4838982866493586,-3.405907678036917,-2.036319404069078,-0.017678274806459882,0.017408672259602184,-0.5382613627047604
8740,1.0,300.17458999999997,23155.111,0.0,-0.08740013043608919,0.0,0.0,0.0,0.0,-1.5232511980081884,-3.4285786423993674,-2.086745720470768,-0.0008182630169287722,-5.946223052071524e-05,-0.5142291677604676
8741,1.0,300.20407,23054.307999999997,0.0,-0.08741012642350854,0.0,0.0,0.0,0.0,-1.4946494781604185,-3.433210917881537,-2.080073671212288,-0.01936454487463178,-0.0016478754887576485,-0.5368388912868735
8742,1.0,300.16008999999997,22787.373,0.0,-0.08742012241092778,0.0,0.0,0.0,0.0,-1.4470973469923887,-3.4190375754827365,-2.060657570146068,0.0037662307619980365,0.003350497184393327,-0.5141761950452396
8743,1.0,300.425,22900.624,0.0,-0.0874301513884046,0.0,0.0,0.0,0.0,-1.4852323317310185,-3.4210580975071463,-2.054927640830568,-0.002897934093478827,0.016360465031152183,-0.5376638795182934
8744,1.0,299.97295,23059.785,0.0,-0.08744014737582395,0.0,0.0,0.0,0.0,-1.5174055555312687,-3.4312010349831765,-2.060992347979108,0.015766767347058785,0.013812639548701384,-0.5090677122810715
8745,1.0,299.95651000000004,22877.611,0.0,-0.0874501433632432,0.0,0.0,0.0,0.0,-1.4902661582278185,-3.4172907323103368,-2.046665498190158,0.007472261903754832,0.005824947552902564,-0.5462450135551855
8746,1.0,299.84297999999995,22714.798,0.0,-0.08746013935066255,0.0,0.0,0.0,0.0,-1.4662737130849486,-3.402770453077297,-2.035687338656698,0.013574153912414686,-0.00018840742195686485,-0.5208420938756125
8747,1.0,299.95819,22783.652000000002,0.0,-0.0874701353380819,0.0,0.0,0.0,0.0,-1.4517388430504685,-3.422996444948447,-2.050926012210638,-0.004183406802445106,0.00042379248254006166,-0.5404221590730145
8748,1.0,300.3138,22928.811,0.0,-0.08748013132550114,0.0,0.0,0.0,0.0,-1.4721423563391385,-3.4247302171945564,-2.072913336730618,0.0035262389294376862,-0.022767211976198878,-0.5329841636664414
8749,1.0,300.73016,23151.351000000002,0.0,-0.0874901273129205,0.0,0.0,0.0,0.0,-1.5316156789086985,-3.4404217122181864,-2.065395223638638,-0.01233896049726059,0.0015401921317301287,-0.5285957166883355
8750,1.0,300.23055,23023.937,0.0,-0.08750012330033974,0.0,0.0,0.0,0.0,-1.5171215415282384,-3.4064318323136464,-2.075148667776228,0.0008263205641089902,-1.040665405305679e-05,-0.5203958180015685
8751,1.0,300.34701,22770.189,0.0,-0.08751011928775887,0.0,0.0,0.0,0.0,-1.4821800171297788,-3.4031664312163765,-2.0362223347094983,0.0065682920429399536,0.013973984428374886,-0.5173649843024485
8752,1.0,300.29752,22928.08,0.0,-0.08752014826523591,0.0,0.0,0.0,0.0,-1.4812587701388586,-3.420893140390867,-2.067411895312668,0.001044465599805729,-0.012687579326666589,-0.5394905262685695
8753,1.0,299.86073999999996,23289.102000000003,0.0,-0.08753014425265504,0.0,0.0,0.0,0.0,-1.5198364438461787,-3.4449647203665466,-2.1145043149103278,0.006084027902771805,-0.0033094954111467668,-0.5134446994005465
8754,1.0,300.37223,23081.682,0.0,-0.0875401402400745,0.0,0.0,0.0,0.0,-1.5101125866115088,-3.422312298480927,-2.083829991983008,-0.0038847240790424163,-0.008231185924679803,-0.5390512114227125
8755,1.0,300.6851,22717.212000000003,0.0,-0.08755013622749386,0.0,0.0,0.0,0.0,-1.4783268296494987,-3.4096970307608965,-2.017441338805958,-0.0029457162324195573,0.004060736057888446,-0.5253779079482624
8756,1.0,299.89115,22780.166,0.0,-0.0875601322149131,0.0,0.0,0.0,0.0,-1.4712594102019987,-3.416279306060517,-2.037062926992458,-0.013312426345334187,-0.005418067957321675,-0.5457493012087624
8757,1.0,299.6796,23119.702,0.0,-0.08757012820233245,0.0,0.0,0.0,0.0,-1.5200695926941885,-3.4338228196169265,-2.073919595404928,-0.012263968844109489,0.003970810618138496,-0.5273332678587416
8758,1.0,300.08307,23228.506,0.0,-0.0875801241897517,0.0,0.0,0.0,0.0,-1.5002792983660385,-3.453563971315227,-2.107042639848918,0.01164141379716809,0.006410342057726504,-0.5472190204788124
8759,1.0,300.05428,22971.59,0.0,-0.08759012017717105,0.0,0.0,0.0,0.0,-1.4731675627903185,-3.4349824843563765,-2.074639712250998,0.005113011890789985,0.0005243223343915855,-0.5412315432528945
8760,1.0,300.23215,22776.138,0.0,-0.08760014915464787,0.0,0.0,0.0,0.0,-1.4678397924395088,-3.410874326052087,-2.044663113342538,0.012912401285354787,-0.013102707892636588,-0.5389360656813484
8761,1.0,300.44773,22897.327999999998,0.0,-0.08761014514206722,0.0,0.0,0.0,0.0,-1.4968308029756985,-3.4173202178882462,-2.046065147505908,-0.006948299941893814,-0.007298017134408212,-0.5254495852603365
8762,1.0,300.75316000000004,23118.843999999997,0.0,-0.08762014112948646,0.0,0.0,0.0,0.0,-1.5081290482157486,-3.436354627641797,-2.083067521282758,-0.0028201032122225174,-0.01109024728602219,-0.5269485773257755
8763,1.0,301.2446,23054.615,0.0,-0.08763013711690582,0.0,0.0,0.0,0.0,-1.5109356496677384,-3.4239526490678167,-2.073138784877868,-0.015829746920274387,-0.004124696355875836,-0.5254064816010825
8764,1.0,300.56391,22799.415,0.0,-0.08764013310432495,0.0,0.0,0.0,0.0,-1.4495582275102588,-3.4194196720954464,-2.061474959001738,-0.006014279514913175,0.0017613367018303983,-0.5308877694745434
8765,1.0,300.05191,22983.279,0.0,-0.08765012909174441,0.0,0.0,0.0,0.0,-1.4822159875083287,-3.4409938945496568,-2.063132940140368,-0.00019454512364260883,0.007087166982673924,-0.5375183565389315
8766,1.0,299.85942,23469.738999999998,0.0,-0.08766012507916354,0.0,0.0,0.0,0.0,-1.5688142179049087,-3.4554070732471263,-2.109993224140118,0.0014803630570504585,0.0018148411707108781,-0.5227918403805375
8767,1.0,300.16904,23358.705,0.0,-0.087670121066583,0.0,0.0,0.0,0.0,-1.5582630419635883,-3.447461469937957,-2.094738439909588,0.0014331642461922985,0.0017048242987030586,-0.5189260480690134
8768,1.0,299.95793,22829.353,0.0,-0.08768015004405971,0.0,0.0,0.0,0.0,-1.4656923101775685,-3.420390061716217,-2.053470992486808,0.006453701359980734,0.016498983412572884,-0.5277071976756454
8769,1.0,299.93391,22888.952,0.0,-0.08769014603147918,0.0,0.0,0.0,0.0,-1.4914586522705087,-3.403659073414997,-2.062552246508058,-0.002465724562623068,0.018086116077710684,-0.5118191625301186
8770,1.0,299.73267000000004,23136.402000000002,0.0,-0.08770014201889831,0.0,0.0,0.0,0.0,-1.5008439826467685,-3.425633023033657,-2.106411587686638,-0.0016459286300155086,0.007079707739412753,-0.5279546434825665
8771,1.0,300.64551,23073.093999999997,0.0,-0.08771013800631777,0.0,0.0,0.0,0.0,-1.5030290564874187,-3.435368431319467,-2.0752470543609376,-0.02286270370537318,0.008467354257987803,-0.5250193086053715
8772,1.0,301.20878999999996,22964.955,0.0,-0.0877201339937369,0.0,0.0,0.0,0.0,-1.4848461821179086,-3.4299355869332864,-2.065991217347458,-0.004430747434005725,0.003046131647804787,-0.5346405438699134
8773,1.0,300.71764,22875.417,0.0,-0.08773012998115637,0.0,0.0,0.0,0.0,-1.4801781389072086,-3.4307585486645067,-2.042618881265788,-0.015778188702185985,-0.0096684913240308,-0.5373844454057155
8774,1.0,300.13381,23057.285,0.0,-0.08774012596857572,0.0,0.0,0.0,0.0,-1.4654563242292786,-3.4723781004970364,-2.071004474867228,0.009294836705853961,0.004723230485346555,-0.5512778166693845
8775,1.0,300.12392,23364.389,0.0,-0.08775012195599485,0.0,0.0,0.0,0.0,-1.5183562881000985,-3.4748952163954567,-2.1089393427111083,0.0001324596828452529,-0.009277665055084252,-0.5456155724605645
8776,1.0,299.67819,23288.901,0.0,-0.08776015093347167,0.0,0.0,0.0,0.0,-1.5012694463637586,-3.4730391448622764,-2.104935788915988,0.026629834841410075,0.00934415878229667,-0.5457657867878896
8777,1.0,299.53876,22753.82,0.0,-0.08777014692089113,0.0,0.0,0.0,0.0,-1.4577493413186589,-3.4132391504604764,-2.045604625335458,-0.005729022456660494,-0.006267706030549425,-0.5240508441597915
8778,1.0,300.0243,22676.892000000003,0.0,-0.08778014290831027,0.0,0.0,0.0,0.0,-1.4678922787946884,-3.404310593229297,-2.0210062566327878,0.002005757855877888,-0.004456526543049926,-0.5291301655860815
8779,1.0,299.4384,23186.613999999998,0.0,-0.08779013889572962,0.0,0.0,0.0,0.0,-1.5250498182606984,-3.4317473794370965,-2.091354387225608,-0.017757992258077383,-0.030631980218891075,-0.5191745375235375
8780,1.0,300.17683,23301.209,0.0,-0.08780013488314886,0.0,0.0,0.0,0.0,-1.5336784534622787,-3.444551820950797,-2.104755531723198,0.0014231715737060987,-0.0069898093534404735,-0.5375149418860945
8781,1.0,300.14202,22990.285,0.0,-0.08781013087056821,0.0,0.0,0.0,0.0,-1.4927347394464485,-3.4293001777955765,-2.066437655341518,-0.0005483513072005604,-0.005173948954454006,-0.5304618295300064
8782,1.0,300.11522,22965.071,0.0,-0.08782012685798768,0.0,0.0,0.0,0.0,-1.4852185515296585,-3.426978416516437,-2.068611178131028,0.009229908348721031,-0.0032186665576076565,-0.5328196422477045
8783,1.0,300.65121,23284.569,0.0,-0.08783012284540681,0.0,0.0,0.0,0.0,-1.5397676812632384,-3.4556207676932167,-2.082539111355608,0.006411706804286194,-0.006412247373214545,-0.5367350939466295
8784,1.0,300.39333999999997,23299.696,0.0,-0.08784015182288385,0.0,0.0,0.0,0.0,-1.5459763712509884,-3.4608560283098964,-2.075693492354998,-0.0015381855925570987,0.007341056249630843,-0.5375303736851175
8785,1.0,299.65327,23226.332000000002,0.0,-0.08785014781030298,0.0,0.0,0.0,0.0,-1.5282640502279186,-3.4480989055758666,-2.0838621120111784,-0.006292098101531734,-0.003942724439941606,-0.5330745151778585
8786,1.0,300.07606,23010.56,0.0,-0.08786014379772222,0.0,0.0,0.0,0.0,-1.4816255666750586,-3.4436346269602764,-2.069375472681458,-0.02258403966287118,-0.006987706150207903,-0.5346751564933295
8787,1.0,299.15842999999995,22811.09,0.0,-0.08787013978514158,0.0,0.0,0.0,0.0,-1.4683728633171185,-3.4178663596921464,-2.047762645398438,-0.006874798273014764,-0.007411467303054873,-0.5240822853103945
8788,1.0,299.21238,23109.371,0.0,-0.08788013577256082,0.0,0.0,0.0,0.0,-1.4830273981884086,-3.4460999657785862,-2.095544277714118,-0.009565224926839202,0.017677995149432284,-0.5287085116894674
8789,1.0,300.13108,23289.822999999997,0.0,-0.08789013175998017,0.0,0.0,0.0,0.0,-1.5435118430327588,-3.441072421432407,-2.094940380654518,0.009262698641832181,0.019340837862042083,-0.5113801415267906
8790,1.0,299.63163,22888.338,0.0,-0.08790012774739953,0.0,0.0,0.0,0.0,-1.4749378120400287,-3.429141401504907,-2.053403915330188,0.0026585677402052076,0.017957674468534485,-0.5357482288792335
8791,1.0,300.02117000000004,22803.388,0.0,-0.08791012373481877,0.0,0.0,0.0,0.0,-1.4577724434209385,-3.4373553134405572,-2.0365326932151278,0.01998292026491068,-0.008724502745216382,-0.5455677065258405
8792,1.0,300.60688999999996,23298.132999999998,0.0,-0.0879201527122957,0.0,0.0,0.0,0.0,-1.5161083927532486,-3.4768951694428365,-2.0890471154228982,0.014854118796487384,-0.0065029803732941935,-0.5521963380175354
8793,1.0,300.19996000000003,23422.605,0.0,-0.08793014869971494,0.0,0.0,0.0,0.0,-1.5351458422570985,-3.4760605553354664,-2.1086806599605783,0.020016773964001783,-0.02757195579764018,-0.5391767328451005
8794,1.0,300.18321000000003,23132.097,0.0,-0.08794014468713418,0.0,0.0,0.0,0.0,-1.4976998675864686,-3.4621769011402566,-2.0717031108111783,-0.01206906309462379,-0.0035029151280358065,-0.5471273112122614
8795,1.0,300.81507,23063.453999999998,0.0,-0.08795014067455353,0.0,0.0,0.0,0.0,-1.5085623139585087,-3.4404229281183065,-2.061728980801808,-0.015225581349397882,0.003947024369390976,-0.5200931703291996
8796,1.0,300.59783,23035.289,0.0,-0.08796013666197278,0.0,0.0,0.0,0.0,-1.4966603743088787,-3.4327560699116466,-2.072736119288128,-0.02138041304133248,0.02966725365292997,-0.5215797196834104
8797,1.0,299.93953,23243.249,0.0,-0.08797013264939235,0.0,0.0,0.0,0.0,-1.5082577309784484,-3.454665779473967,-2.102443700295038,-0.011453095186582489,0.008943848391089112,-0.5224595652752445
8798,1.0,300.56837,23430.387000000002,0.0,-0.08798012863681148,0.0,0.0,0.0,0.0,-1.5465846252860185,-3.4461327950818266,-2.129535272193768,-0.0030972416040489473,0.0017051842051385784,-0.5090824348050245
8799,1.0,300.13451000000003,23064.418999999998,0.0,-0.08799012462423073,0.0,0.0,0.0,0.0,-1.5007539047128786,-3.432887184474587,-2.077366368270098,0.027359815677203574,-0.015259606287755884,-0.5278301555752806
8800,1.0,299.8406,22788.266,0.0,-0.08800012061165008,0.0,0.0,0.0,0.0,-1.4619164336799186,-3.419754551253497,-2.0453929573895677,0.01016928096537989,0.008443643699022754,-0.5213621140919346
8801,1.0,300.33699,23237.3,0.0,-0.0880101495891269,0.0,0.0,0.0,0.0,-1.5278378772358587,-3.4535136127852564,-2.0822074745978782,0.014663157629640986,-0.007295745934309063,-0.5338542820573154
8802,1.0,299.7286,23540.53,0.0,-0.08802014557654603,0.0,0.0,0.0,0.0,-1.5471288419147284,-3.4876465636039167,-2.1209578061222376,-0.02178689351769898,0.003972909363070627,-0.5344549468490966
8803,1.0,299.53635,23161.547000000002,0.0,-0.08803014156396549,0.0,0.0,0.0,0.0,-1.4952634063960086,-3.454906223722696,-2.090362314052698,-0.011578145447673988,0.003471505692160937,-0.5457938943456635
8804,1.0,299.92548999999997,22949.548,0.0,-0.08804013755138484,0.0,0.0,0.0,0.0,-1.4662671269592986,-3.4578883200920068,-2.051934196060138,-0.007648060390804793,0.013916668923218288,-0.5463021507283246
8805,1.0,299.72486000000004,23139.909,0.0,-0.0880501335388042,0.0,0.0,0.0,0.0,-1.5078501004632185,-3.443536443025587,-2.0825679889834583,-0.006238412666183394,-0.018904002439179782,-0.5285916940854385
8806,1.0,300.52792,23368.029,0.0,-0.08806012952622344,0.0,0.0,0.0,0.0,-1.5372305030128386,-3.466691943585857,-2.099374869717168,0.010819809821082091,-0.012139145551040387,-0.5298671429138154
8807,1.0,301.00344,23180.271,0.0,-0.08807012551364268,0.0,0.0,0.0,0.0,-1.5220475582143986,-3.4509907213612667,-2.073185394382468,0.005618852482562564,-0.016731432104763785,-0.5219006666525855
8808,1.0,300.31504,22933.425,0.0,-0.08808012150106204,0.0,0.0,0.0,0.0,-1.4666406109461587,-3.437809148160347,-2.066738691946228,0.016777205678031287,0.008348418758599783,-0.5431006654473625
8809,1.0,300.62546000000003,22985.092999999997,0.0,-0.08809015047853885,0.0,0.0,0.0,0.0,-1.4808717086006586,-3.4482036756362064,-2.057818949990918,0.002155368286143288,-0.016720907475975086,-0.5306486120534405
8810,1.0,300.33619,23279.295,0.0,-0.08810014646595798,0.0,0.0,0.0,0.0,-1.5100560472559286,-3.4864699775877965,-2.079798371160118,-0.004153705706238836,-0.016328967138543583,-0.5620641882239165
8811,1.0,299.79282,23495.807,0.0,-0.08811014245337745,0.0,0.0,0.0,0.0,-1.5527040479399585,-3.474441786975707,-2.114992600133518,-0.005179514230628255,-0.034097065553118366,-0.5337971347516755
8812,1.0,300.22893,23264.564,0.0,-0.0881201384407968,0.0,0.0,0.0,0.0,-1.5103793753628385,-3.4832341633934467,-2.078232899755618,0.006078917170592415,0.00934172475290645,-0.5396846649877295
8813,1.0,299.85483,23015.315,0.0,-0.08813013442821616,0.0,0.0,0.0,0.0,-1.4953344352280185,-3.439815282033337,-2.060931350323088,0.005398257296666514,-0.008316279478677881,-0.5360172163832805
8814,1.0,299.85962,23322.36,0.0,-0.0881401304156354,0.0,0.0,0.0,0.0,-1.5093329919845686,-3.4660207667196166,-2.114061321966608,-0.0025959585099011575,0.004604275632881625,-0.5308598037717834
8815,1.0,300.49719,23509.034,0.0,-0.08815012640305453,0.0,0.0,0.0,0.0,-1.5526807431876586,-3.4803151925053672,-2.1131632784029777,-0.006753844480752554,0.016007939109360585,-0.5285270487290584
8816,1.0,300.15004,23167.272999999997,0.0,-0.088160122390474,0.0,0.0,0.0,0.0,-1.5176610972064886,-3.443939311265347,-2.080671995396338,-0.002043742474301678,0.026429809139169074,-0.5218926214467915
8817,1.0,300.09876,22967.632999999998,0.0,-0.0881701513679507,0.0,0.0,0.0,0.0,-1.4942402264450287,-3.448156154206517,-2.039190448227428,0.0019162929382983884,-0.0012899384061320087,-0.5271578641339305
8818,1.0,299.96513,23096.51,0.0,-0.08818014735536994,0.0,0.0,0.0,0.0,-1.5238590467431787,-3.4465929119522367,-2.050310260124868,-0.008651077374069862,-0.007104269935086853,-0.5122977813473545
8819,1.0,300.28159,23356.772999999997,0.0,-0.0881901433427893,0.0,0.0,0.0,0.0,-1.5341146576303286,-3.4695116159641364,-2.0962494997837178,0.013216800867146689,-0.01035779310673459,-0.5398740211664175
8820,1.0,299.46256,23439.28,0.0,-0.08820013933020876,0.0,0.0,0.0,0.0,-1.5164873482906487,-3.5010332186250768,-2.107435274262668,-0.008394614046558902,0.028784201124529472,-0.5570180912684055
8821,1.0,299.63489,23291.619,0.0,-0.08821013531762811,0.0,0.0,0.0,0.0,-1.5050929456161086,-3.469708490458567,-2.105269148198888,-0.005615320900664024,0.00980740598756561,-0.5499293125087974
8822,1.0,299.36588,23096.677000000003,0.0,-0.08822013130504736,0.0,0.0,0.0,0.0,-1.4880176549309085,-3.459905093091047,-2.072890335953348,-0.012111316637043887,0.0005084202758646746,-0.5562390437965193
8823,1.0,299.75071,23174.638,0.0,-0.08823012729246649,0.0,0.0,0.0,0.0,-1.5016689708781885,-3.4686593713050264,-2.074183040430928,0.004578519625939706,0.01707700814411948,-0.5352443193395016
8824,1.0,299.91904,23318.019,0.0,-0.08824012327988584,0.0,0.0,0.0,0.0,-1.5371936207091985,-3.453247938609037,-2.097653864422318,-0.0010508483661606591,-0.007754173919452382,-0.5094736709336365
8825,1.0,300.51552000000004,23277.164,0.0,-0.08825015225736266,0.0,0.0,0.0,0.0,-1.5120363432513684,-3.4722078744802363,-2.091432407483308,-0.006874495919184924,-0.03446145866008117,-0.5086522797400715
8826,1.0,299.97711,23007.772,0.0,-0.0882601482447819,0.0,0.0,0.0,0.0,-1.4685540324349986,-3.442782280976157,-2.082451667871978,-0.024836575695179178,-0.025855011609190973,-0.5354068953180464
8827,1.0,300.27304,23115.492000000002,0.0,-0.08827014423220148,0.0,0.0,0.0,0.0,-1.4870043035058986,-3.461657509138997,-2.077870460194848,0.013662615712395186,0.0026534229628224575,-0.5308012277835025
8828,1.0,300.06318999999996,23467.494,0.0,-0.0882801402196206,0.0,0.0,0.0,0.0,-1.5312127093439285,-3.4888233522700567,-2.113496333710848,0.01089729508272929,0.025257281189699575,-0.5442142475722644
8829,1.0,300.00986,23451.52,0.0,-0.08829013620704007,0.0,0.0,0.0,0.0,-1.5537856924217086,-3.4742799709347367,-2.100610832189148,0.007298573307388103,0.00956964502775043,-0.5243024240271205
8830,1.0,300.03848,23271.862,0.0,-0.0883001321944592,0.0,0.0,0.0,0.0,-1.5336856475379885,-3.4641454434345365,-2.0762336559833083,0.005016537410343695,-0.0013029291843390987,-0.5300841000252274
8831,1.0,300.11242000000004,23183.182,0.0,-0.08831012818187844,0.0,0.0,0.0,0.0,-1.4932110683184587,-3.4520998249207264,-2.101797652031278,0.0019191922521345282,-0.002216227228224598,-0.5363188102755455
8832,1.0,300.21105,23150.78,0.0,-0.0883201241692978,0.0,0.0,0.0,0.0,-1.4804878894627787,-3.4510835350704263,-2.105687620490188,0.0050524270328607245,0.004836544979804826,-0.5357052772074945
8833,1.0,299.48626,23406.95,0.0,-0.08833015314677461,0.0,0.0,0.0,0.0,-1.5247162563277785,-3.4725676795907465,-2.1178442912149578,-0.02239438356215358,-0.015296988123695184,-0.5289286301411915
8834,1.0,298.85192,23519.396,0.0,-0.08834014913419397,0.0,0.0,0.0,0.0,-1.5471176961636286,-3.467232107214167,-2.134959301304078,-0.015673720590375785,-0.001938548368794828,-0.5183968072767815
8835,1.0,299.32218,23192.505,0.0,-0.08835014512161343,0.0,0.0,0.0,0.0,-1.5260125071807087,-3.4544253352252365,-2.069504662069208,-0.009293007384123421,0.014380261241471287,-0.5363166419203315
8836,1.0,299.67312999999996,23065.492000000002,0.0,-0.08836014110903256,0.0,0.0,0.0,0.0,-1.4916217855366085,-3.456139551744417,-2.063572184058718,0.01262128237262359,0.017108935654770483,-0.5249818994116795
8837,1.0,299.26993,23424.428,0.0,-0.08837013709645192,0.0,0.0,0.0,0.0,-1.5258111743858385,-3.4758452396892165,-2.118784688632768,0.011895038403198888,-0.023723466758073877,-0.5339086935876856
8838,1.0,299.93127999999996,23502.832000000002,0.0,-0.08838013308387116,0.0,0.0,0.0,0.0,-1.5341780870865884,-3.493438605150547,-2.116657471372828,0.009307419448245782,-0.027850285467609176,-0.5528373909583024
8839,1.0,300.53735,23170.481,0.0,-0.0883901290712904,0.0,0.0,0.0,0.0,-1.4965908653520186,-3.4691730891057264,-2.077483601306668,0.01054697905940579,-0.01921662758528348,-0.5572676649005365
8840,1.0,299.9672,23038.688,0.0,-0.08840012505870998,0.0,0.0,0.0,0.0,-1.4632987094663383,-3.4771668217946465,-2.062720344699648,0.016745382532140585,0.003911527685262726,-0.5519238244031405
8841,1.0,300.55205,23318.092999999997,0.0,-0.08841012104612911,0.0,0.0,0.0,0.0,-1.5410337372631884,-3.4727781316365167,-2.0743060489930683,-0.004863374930527736,-0.001310633836774489,-0.5320342822276954
8842,1.0,300.07975,23552.925,0.0,-0.08842015002360593,0.0,0.0,0.0,0.0,-1.5356652342583585,-3.5020628833766967,-2.121773168477708,-0.007005495782213604,0.006913499563234284,-0.5421382805023824
8843,1.0,299.70394,23438.672000000002,0.0,-0.08843014601102528,0.0,0.0,0.0,0.0,-1.5215905824192986,-3.484896096207467,-2.118284244408378,-0.017721259915452182,0.024009784891831275,-0.5438474003735595
8844,1.0,299.55077,23226.734,0.0,-0.08844014199844452,0.0,0.0,0.0,0.0,-1.4872318794783588,-3.4712514677108466,-2.101863918587818,-0.01086866772765399,0.01952515717448298,-0.5456773401866605
8845,1.0,299.86048999999997,23172.241,0.0,-0.08845013798586387,0.0,0.0,0.0,0.0,-1.4994678876859586,-3.4669085764572367,-2.0774060876740177,-0.0054620164645090554,-0.006867955085814394,-0.5440004619336655
8846,1.0,299.42041,23416.403,0.0,-0.08846013397328312,0.0,0.0,0.0,0.0,-1.5281915015207586,-3.4803851067622666,-2.109425094809048,0.007726077507429483,0.0023088866193943674,-0.5457351866348694
8847,1.0,299.82189,23531.895,0.0,-0.08847012996070247,0.0,0.0,0.0,0.0,-1.5697454960718185,-3.481350835432577,-2.1020121570774477,0.0001084106983468029,0.008391653836391752,-0.5349291884259005
8848,1.0,299.80886,23239.687,0.0,-0.08848012594812182,0.0,0.0,0.0,0.0,-1.4955260408219286,-3.4823778657339366,-2.086380545134728,0.025460638458269375,0.007870455919478523,-0.5304073572046305
8849,1.0,299.37886000000003,23115.347999999998,0.0,-0.08849012193554107,0.0,0.0,0.0,0.0,-1.4861930954758384,-3.466310556248217,-2.073984950036378,-0.0017987893639516883,0.0005413861753506554,-0.5281415982585176
8850,1.0,299.81618,23549.748,0.0,-0.08850015091301788,0.0,0.0,0.0,0.0,-1.5320618129277286,-3.496002229228557,-2.1304714139611582,0.022932493332510878,-0.011496699391385888,-0.5208333191297465
8851,1.0,300.28612999999996,23768.069,0.0,-0.08851014690043724,0.0,0.0,0.0,0.0,-1.5647694248307185,-3.5180973635591766,-2.142032698927168,-0.008413530007375762,0.006637901818184904,-0.5472863408154565
8852,1.0,299.71873999999997,23373.054,0.0,-0.08852014288785648,0.0,0.0,0.0,0.0,-1.5246580957720386,-3.461939293991807,-2.1182272997527583,-0.008781701422636451,-0.0037321136178809365,-0.5222604109680895
8853,1.0,299.95645,23192.096,0.0,-0.08853013887527583,0.0,0.0,0.0,0.0,-1.5146221575065686,-3.468641031478217,-2.066554989703098,-0.019665201510554283,-0.01131272154422869,-0.5444315998512155
8854,1.0,300.6857,23282.635,0.0,-0.08854013486269507,0.0,0.0,0.0,0.0,-1.5096461875904785,-3.4607935107787267,-2.106900075559848,-0.013950486145305786,-0.0034904214503277764,-0.5341177372158165
8855,1.0,300.34976,23393.67,0.0,-0.08855013085011443,0.0,0.0,0.0,0.0,-1.5216358746987686,-3.482169642838387,-2.107286022522938,-0.002307360158118718,0.014882923470330184,-0.5604097939906404
8856,1.0,299.94899,23456.786,0.0,-0.08856012683753378,0.0,0.0,0.0,0.0,-1.5166265688543885,-3.5043562736530363,-2.1092944868711583,-0.0040945251116231655,-0.005877156885505224,-0.5396253087968715
8857,1.0,299.30438,23259.632999999998,0.0,-0.08857012282495302,0.0,0.0,0.0,0.0,-1.5103908250889684,-3.4699938216867263,-2.089962992188288,0.010843527979422889,-0.011791259301456688,-0.5509673669712455
8858,1.0,299.69433,23249.575,0.0,-0.08858015180242984,0.0,0.0,0.0,0.0,-1.4996352766024785,-3.4886987225077566,-2.078956157676998,0.012669454308877788,-0.026204631529695772,-0.5428382944664685
8859,1.0,299.81234,23570.132999999998,0.0,-0.0885901477898492,0.0,0.0,0.0,0.0,-1.5458488030633986,-3.513259803606747,-2.105623177783828,0.028431777540997974,0.008485360421539872,-0.5476484257386914
8860,1.0,299.80978999999996,23725.734,0.0,-0.08860014377726844,0.0,0.0,0.0,0.0,-1.5404813133086686,-3.508083210170857,-2.1634661809424878,0.02004611363389738,-0.004162628285294426,-0.5240753546797104
8861,1.0,299.71775,23367.789,0.0,-0.08861013976468779,0.0,0.0,0.0,0.0,-1.5052834366349088,-3.492784045585947,-2.1051569814128177,-0.0013666265439255388,0.0031476466421985366,-0.5341913397030805
8862,1.0,300.34811,23169.084,0.0,-0.08862013575210692,0.0,0.0,0.0,0.0,-1.4665244924846985,-3.466842411225707,-2.109456201587118,-0.004852712094425396,-0.010319417272447189,-0.5418854543374304
8863,1.0,300.77986,23362.9,0.0,-0.08863013173952639,0.0,0.0,0.0,0.0,-1.5250250949582587,-3.4761099006153366,-2.100603334138408,-0.002955916317201227,-0.006784948725697304,-0.5428990185449615
8864,1.0,301.17007,23480.025,0.0,-0.08864012772694574,0.0,0.0,0.0,0.0,-1.5503096366286484,-3.471292403014887,-2.115739264132208,-0.01110346817332699,-0.006773838742325833,-0.5335013265174815
8865,1.0,300.51714,23391.127999999997,0.0,-0.08865012371436498,0.0,0.0,0.0,0.0,-1.5341550863093185,-3.4723672587209666,-2.103796490503548,-0.02053105107875698,-0.004897332386429075,-0.5346925843950495
8866,1.0,300.56808,23377.237,0.0,-0.08866015269184169,0.0,0.0,0.0,0.0,-1.5118871928366486,-3.4932334220052965,-2.100975602225148,-0.005189682600681794,0.006227799276685934,-0.5407081387812385
8867,1.0,299.93507,23470.623,0.0,-0.08867014867926115,0.0,0.0,0.0,0.0,-1.5309129899643485,-3.4923842170964865,-2.111186123482848,-0.02002557100136998,0.02956705841679147,-0.5452154298635735
8868,1.0,299.87389,23635.904,0.0,-0.08868014466668028,0.0,0.0,0.0,0.0,-1.5350863644762285,-3.5054222127582366,-2.144216151567658,0.009374313611897722,0.002312388107764938,-0.5282932108709805
8869,1.0,299.35321,23670.083,0.0,-0.08869014065409975,0.0,0.0,0.0,0.0,-1.5570021535391485,-3.5165057503020964,-2.121606184861228,-0.01040194041359159,-0.0002790530596128927,-0.5445057190960305
8870,1.0,300.13725,23452.888,0.0,-0.0887001366415191,0.0,0.0,0.0,0.0,-1.5241382984707383,-3.487342284598886,-2.117611750317008,0.025808329150583773,-0.015755163606913588,-0.5281892412782195
8871,1.0,299.94487999999996,23209.331000000002,0.0,-0.08871013262893834,0.0,0.0,0.0,0.0,-1.4957538194444087,-3.4854828693403768,-2.073820296895128,0.040667036956774066,-0.01047166823247319,-0.5525999155323655
8872,1.0,300.17728,23328.486,0.0,-0.0887201286163577,0.0,0.0,0.0,0.0,-1.5050631560631684,-3.4776358552659365,-2.108578119050458,0.017003749148639384,-0.02076131723023248,-0.5262691728687235
8873,1.0,299.94075,23484.037,0.0,-0.08873012460377683,0.0,0.0,0.0,0.0,-1.5392861848157184,-3.4900701565181067,-2.1092043076122584,-0.0032232392539839473,-0.01587979640896388,-0.5430061190805315
8874,1.0,299.78958,23431.281000000003,0.0,-0.08874015358125364,0.0,0.0,0.0,0.0,-1.5155642774495486,-3.5043360086510367,-2.1026240588128378,-0.006211653035017425,0.004239134848670036,-0.5504293109031435
8875,1.0,299.99884,23355.03,0.0,-0.08875014956867311,0.0,0.0,0.0,0.0,-1.5228447833930787,-3.4963186672347866,-2.080182494273028,-0.026875233883129075,0.03673407528287097,-0.5543555435831324
8876,1.0,299.86361,23452.75,0.0,-0.08876014555609224,0.0,0.0,0.0,0.0,-1.5257335594281787,-3.5010043409972265,-2.102312383082078,-0.012772550480052589,0.015168217208236485,-0.5370187533121245
8877,1.0,300.59436,23698.053,0.0,-0.0887701415435116,0.0,0.0,0.0,0.0,-1.5494432064681383,-3.5325751876130265,-2.121597977535418,-0.01973246611844278,0.02142529090151158,-0.5494389906529065
8878,1.0,300.60961000000003,23639.335,0.0,-0.08878013753093106,0.0,0.0,0.0,0.0,-1.5343104175496485,-3.503888760056897,-2.1475681855484776,-0.0038687825138941064,0.01139400345400059,-0.5366098562342695
8879,1.0,300.15435,23314.034,0.0,-0.08879013351835019,0.0,0.0,0.0,0.0,-1.5149461948885485,-3.4914143341007673,-2.0805236555816977,0.004332619126746216,-0.007301379402215043,-0.5483046875634594
8880,1.0,299.78942,23230.86,0.0,-0.08880012950576965,0.0,0.0,0.0,0.0,-1.4934497900420185,-3.4671800261590264,-2.1009713465747284,0.004414417490094086,-0.016316519361065086,-0.5277159926865135
8881,1.0,300.34713999999997,23435.677000000003,0.0,-0.08881012549318879,0.0,0.0,0.0,0.0,-1.5512851938249286,-3.485943087535797,-2.086632439109588,0.013540274882071088,-0.017389838979993483,-0.5453691601687455
8882,1.0,299.0675,23596.377999999997,0.0,-0.08882012148060825,0.0,0.0,0.0,0.0,-1.5355079778428384,-3.5142089149754168,-2.122992918948088,0.024209684951059875,-0.015306888590422285,-0.5493135705555284
8883,1.0,299.86976,23555.879,0.0,-0.08883015045808496,0.0,0.0,0.0,0.0,-1.5338922492333784,-3.5090677852930265,-2.1174387885249377,-0.004678448985251965,-0.014941007019062588,-0.5490494061219575
8884,1.0,299.22539,23402.342,0.0,-0.0888401464455042,0.0,0.0,0.0,0.0,-1.5088072165076785,-3.496033133356607,-2.1088872616559677,-0.008020588680170472,-0.019326044410582083,-0.5151813999394455
8885,1.0,299.70774,23522.71,0.0,-0.08885014243292355,0.0,0.0,0.0,0.0,-1.5362461305406885,-3.4991436085135863,-2.114926840202028,-0.026455021841407373,0.003184243006660317,-0.5323873289600385
8886,1.0,300.339,23652.23,0.0,-0.0888601384203429,0.0,0.0,0.0,0.0,-1.5443903308694586,-3.509289687064926,-2.136007305882508,-0.016264392709670585,0.016583176389882087,-0.5236294841057065
8887,1.0,300.43349,23536.882,0.0,-0.08887013440776215,0.0,0.0,0.0,0.0,-1.5509703770188585,-3.5101370681235564,-2.093517068239048,-0.02115495678808168,0.01218418147823509,-0.5518934269001405
8888,1.0,299.24521,23421.442000000003,0.0,-0.0888801303951815,0.0,0.0,0.0,0.0,-1.5211020945460885,-3.4882274598862466,-2.110204081485928,0.0006368749458346635,0.011204039325252591,-0.5318773500522075
8889,1.0,299.94192000000004,23418.842,0.0,-0.08889012638260074,0.0,0.0,0.0,0.0,-1.5084638260487884,-3.5065918073486664,-2.1036876674428084,0.02040776184633928,0.00807686935299994,-0.5527014229273834
8890,1.0,299.76,23546.074,0.0,-0.0889001223700201,0.0,0.0,0.0,0.0,-1.5193166465448786,-3.5140004894298467,-2.124101617207508,0.028169569693370075,0.000891007119238056,-0.5414514590545985
8891,1.0,300.07093,23617.861,0.0,-0.08891015134749691,0.0,0.0,0.0,0.0,-1.5347355772916085,-3.5028385263282464,-2.1416660037159776,0.02142192589792948,-0.027657041448287473,-0.5531052132247345
8892,1.0,300.19201,23443.955,0.0,-0.08892014733491627,0.0,0.0,0.0,0.0,-1.5199269270801086,-3.504473101389567,-2.101977098623988,0.004175348019099767,-0.015337739016216986,-0.5421407933626305
8893,1.0,300.03843,23355.251,0.0,-0.08893014332233573,0.0,0.0,0.0,0.0,-1.5317652346234587,-3.4827650285971465,-2.0848827588369083,-0.0002053337851423668,-0.004275519646510936,-0.5463749223505064
8894,1.0,299.81363,23567.837000000003,0.0,-0.08894013930975486,0.0,0.0,0.0,0.0,-1.5261262951669385,-3.5123597335429166,-2.125547930400248,-0.0017033253978301283,0.0024585469015646877,-0.5465642379991905
8895,1.0,299.74741,23717.365,0.0,-0.0889501352971741,0.0,0.0,0.0,0.0,-1.5533084516246087,-3.5244666536877767,-2.1317117334085682,-0.010731079509825091,0.0027441558615770973,-0.5341421464107255
8896,1.0,300.37637,23593.854,0.0,-0.08896013128459346,0.0,0.0,0.0,0.0,-1.5337674168210587,-3.507436351307017,-2.130738911987558,-0.012439114190144988,-0.0007063975714385122,-0.5285515491164765
8897,1.0,300.47432000000003,23477.562,0.0,-0.0889701272720127,0.0,0.0,0.0,0.0,-1.5255383061339087,-3.505075073273977,-2.105979132543958,0.008681242741471952,0.0012389836798031688,-0.5210199395331645
8898,1.0,300.63712000000004,23596.631,0.0,-0.08898012325943205,0.0,0.0,0.0,0.0,-1.5384441739826185,-3.506554722395007,-2.127787618421288,-0.007736946641252181,0.016802925005319585,-0.5457564446219675
8899,1.0,300.72077,23763.845,0.0,-0.08899015223690887,0.0,0.0,0.0,0.0,-1.5730670312246284,-3.519548844327426,-2.130999519913278,0.009935235289706381,-0.006200899310381114,-0.5432608501556715
8900,1.0,300.72501,23643.69,0.0,-0.08900014822432822,0.0,0.0,0.0,0.0,-1.5279827720001586,-3.530238430232407,-2.128870174828128,-0.004695223036682436,0.018510176443312182,-0.5602121190286314
8901,1.0,300.29318,23426.092,0.0,-0.08901014421174758,0.0,0.0,0.0,0.0,-1.5146005752794385,-3.5042987210473573,-2.1020478234809676,0.008572774824892002,0.015419970341332587,-0.5412330732605455
8902,1.0,300.49505,23317.336,0.0,-0.08902014019916682,0.0,0.0,0.0,0.0,-1.5081319866410385,-3.507762516514207,-2.071993508289838,0.014099605149272686,0.0014665828556904585,-0.5535035623690485
8903,1.0,299.78141,23406.717999999997,0.0,-0.08903013618658606,0.0,0.0,0.0,0.0,-1.5300242683016385,-3.506297660844637,-2.078735877105258,0.008471617102483512,-0.021335607121910478,-0.5343195462382335
8904,1.0,299.92666,23616.131,0.0,-0.08904013217400542,0.0,0.0,0.0,0.0,-1.5396044466721286,-3.5213435129045467,-2.1177663722822677,-0.00019725077498713585,-0.01986220874074738,-0.5334384948787805
8905,1.0,299.65704,23624.65,0.0,-0.08905012816142466,0.0,0.0,0.0,0.0,-1.5366879075842883,-3.527865601148226,-2.116750285081988,0.01838294161500508,-0.017314061044764784,-0.5520915983546985
8906,1.0,299.33707000000004,23522.94,0.0,-0.08906012414884423,0.0,0.0,0.0,0.0,-1.5005382850915985,-3.5247614081418672,-2.125086698954728,0.005346752071558345,0.010760747472753091,-0.5546822255478735
8907,1.0,299.1812,23627.716,0.0,-0.08907015312632083,0.0,0.0,0.0,0.0,-1.5435265351592085,-3.512647091271276,-2.1260620535009878,0.005161246749875396,-0.01015801565076809,-0.5423868611494155
8908,1.0,299.76655,23650.292999999998,0.0,-0.08908014911374018,0.0,0.0,0.0,0.0,-1.5422837839115586,-3.5166686809181766,-2.1301459580290376,-0.013269443262842089,0.015261394674182385,-0.5251692290901675
8909,1.0,300.78999,23476.21,0.0,-0.08909014510115953,0.0,0.0,0.0,0.0,-1.5288692645126485,-3.5002284953956564,-2.1070839804529977,-0.01038115561429029,0.014664004706724586,-0.5399858434474535
8910,1.0,300.91936,23458.86,0.0,-0.08910014108857878,0.0,0.0,0.0,0.0,-1.5126546284623885,-3.5109640828551765,-2.107288960948228,-0.015072507630290685,0.005727828848042694,-0.5490719408041815
8911,1.0,300.11643,23577.505,0.0,-0.08911013707599791,0.0,0.0,0.0,0.0,-1.5423567379187586,-3.515150426968337,-2.109465624813048,-0.00945653895883773,-0.016680620651999083,-0.5536533916613355
8912,1.0,300.04842,23713.556,0.0,-0.08912013306341737,0.0,0.0,0.0,0.0,-1.5252687816073087,-3.5416157089802565,-2.141444405919108,-0.0006207084391641535,-0.002827736531850867,-0.5522680457271125
8913,1.0,301.02007000000003,23815.853,0.0,-0.08913012905083673,0.0,0.0,0.0,0.0,-1.5724627288649884,-3.5373155768808666,-2.129646425729738,0.016213456627143585,-0.009355630597278852,-0.5306959612306135
8914,1.0,299.40382,23690.372000000003,0.0,-0.08914012503825608,0.0,0.0,0.0,0.0,-1.5434354439752185,-3.5221430685584565,-2.135703026877478,0.014990547856201885,0.0009233057732681851,-0.5200804033779395
8915,1.0,299.7483,23568.746,0.0,-0.0891501540157329,0.0,0.0,0.0,0.0,-1.5460045396037685,-3.5093819941490367,-2.1089236373345583,-0.01299805942230859,-0.01732477515132218,-0.5099514994157945
8916,1.0,299.57987,23620.346,0.0,-0.08916015000315214,0.0,0.0,0.0,0.0,-1.5321379080102384,-3.5121827187504464,-2.1356747571996877,-0.007577529773868962,-0.0008045170735546533,-0.5293537797506505
8917,1.0,299.7591,23728.265,0.0,-0.08917014599057149,0.0,0.0,0.0,0.0,-1.5367764656430285,-3.531597502591537,-2.144426096988378,0.0009226871942146361,-0.0013331164379433488,-0.5375027727523936
8918,1.0,299.75117,23675.985,0.0,-0.08918014197799073,0.0,0.0,0.0,0.0,-1.5142619470960184,-3.533904369094207,-2.148741833139308,0.0016155962789969386,0.014042416300378587,-0.5554259004587685
8919,1.0,299.944,23501.064,0.0,-0.08919013796540987,0.0,0.0,0.0,0.0,-1.5340736210012786,-3.5117043633782368,-2.097958447402378,-0.008318037264951362,-0.012150528402663788,-0.5397826665374015
8920,1.0,299.10124,23453.798,0.0,-0.08920013395282933,0.0,0.0,0.0,0.0,-1.5147576290449385,-3.5130351660595767,-2.101576256884428,0.005506642633363314,0.004854047254082165,-0.5496416406729064
8921,1.0,300.08943999999997,23632.909,0.0,-0.08921012994024868,0.0,0.0,0.0,0.0,-1.5547076486876985,-3.5237122889883263,-2.105394284586238,-0.0032608334671442073,0.02091213646786718,-0.5572552323218094
8922,1.0,300.1888,23734.355,0.0,-0.08922012592766804,0.0,0.0,0.0,0.0,-1.5355185156438786,-3.5402447815949567,-2.138888077241818,9.699525249418611e-05,0.02135906386172548,-0.5667961675159264
8923,1.0,299.61466,23720.609,0.0,-0.08923012191508728,0.0,0.0,0.0,0.0,-1.5414927395584883,-3.5363437687099566,-2.1326363241248183,-0.009476583882916011,-0.0075403021545948825,-0.5663290490873255
8924,1.0,300.09846,23580.217,0.0,-0.0892401508925641,0.0,0.0,0.0,0.0,-1.5191400370524486,-3.5130420561602564,-2.135615076768798,0.0008888093493736532,0.006896547078461203,-0.5452410346936004
8925,1.0,300.57285,23480.132999999998,0.0,-0.08925014687998345,0.0,0.0,0.0,0.0,-1.5411266522973586,-3.496695596271987,-2.0995517831846278,0.01180307481087279,0.004445097588546975,-0.5294677906519025
8926,1.0,300.73296,23643.106,0.0,-0.08926014286740258,0.0,0.0,0.0,0.0,-1.5398583671471884,-3.5135078472312267,-2.1335475399397477,-0.005013443349838335,-0.009000156624321302,-0.5319134724182725
8927,1.0,300.04025,23865.071,0.0,-0.08927013885482182,0.0,0.0,0.0,0.0,-1.5891990873917383,-3.523356435553207,-2.1418301502321775,-0.013376981522455289,-0.02208249504887258,-0.5089976460366564
8928,1.0,299.71251,23783.275,0.0,-0.0892801348422414,0.0,0.0,0.0,0.0,-1.5453998319440885,-3.535081157760347,-2.149040944568828,-0.00026410914051304277,0.0027564068658861773,-0.5456094625624615
8929,1.0,299.41865,23734.056,0.0,-0.08929013082966064,0.0,0.0,0.0,0.0,-1.5360158187929587,-3.5431223105539464,-2.135422356599778,0.013780910635069987,0.027638465534204175,-0.5467274523252985
8930,1.0,300.21086,23846.301,0.0,-0.08930012681708,0.0,0.0,0.0,0.0,-1.5488439703589985,-3.5485927465188363,-2.151243446311198,0.0018971563929347584,0.004330631231375026,-0.5539340822040375
8931,1.0,299.96672,23854.744,0.0,-0.08931012280449924,0.0,0.0,0.0,0.0,-1.5697013183674586,-3.5357564889519963,-2.145788817047868,-0.004043411305028626,-0.017893420226693085,-0.5226853275300255
8932,1.0,300.15295,23747.572999999997,0.0,-0.08932015178197594,0.0,0.0,0.0,0.0,-1.5382587492143185,-3.532360175941807,-2.148050289946058,-0.011911833023606388,0.0010020713980067471,-0.5375579948828434
8933,1.0,299.52631,23546.4,0.0,-0.08933014776939541,0.0,0.0,0.0,0.0,-1.5405658183670086,-3.5086507315518674,-2.108301197798128,0.003018750083727437,0.00947110280782507,-0.5257667021441336
8934,1.0,300.25407,23553.222999999998,0.0,-0.08934014375681454,0.0,0.0,0.0,0.0,-1.5042224624551985,-3.522292522948207,-2.1330767839432876,-0.010222097640092489,-0.015394363484805383,-0.5636300649284565
8935,1.0,300.91235,23707.06,0.0,-0.08935013974423389,0.0,0.0,0.0,0.0,-1.5444685537771785,-3.5355847430600464,-2.126300977874568,-0.005181483887497645,-0.025323447434479677,-0.5463902021620145
8936,1.0,300.75867,23769.453999999998,0.0,-0.08936013573165336,0.0,0.0,0.0,0.0,-1.5415693412660485,-3.5390479305768365,-2.144703119565718,0.008302243735642662,-0.008688164151580042,-0.5520165266547895
8937,1.0,300.11947000000004,23644.97,0.0,-0.08937013171907249,0.0,0.0,0.0,0.0,-1.5423728485953485,-3.533913589670117,-2.111193824183608,0.02219043556877548,0.009393112846303061,-0.5472786806447004
8938,1.0,300.21693999999997,23620.217,0.0,-0.08938012770649195,0.0,0.0,0.0,0.0,-1.5115624461795985,-3.533681352747197,-2.134712473579718,0.00033631381886658964,0.0015245985166661585,-0.5542502466327405
8939,1.0,300.428,23862.193,0.0,-0.08939012369391108,0.0,0.0,0.0,0.0,-1.5694545919681087,-3.558700220241367,-2.125356122156318,-0.011580251994631887,-0.005600909039191684,-0.5547726175892945
8940,1.0,300.40932999999995,23904.869,0.0,-0.0894001526713879,0.0,0.0,0.0,0.0,-1.5464149058942684,-3.5661473045013365,-2.153920959700448,-0.006836041456689763,0.008979549245112512,-0.5648729478986194
8941,1.0,300.10624,23635.952,0.0,-0.08941014865880725,0.0,0.0,0.0,0.0,-1.5383048520938685,-3.538308561978867,-2.108125905530828,0.0015781473659010185,0.024400550872396874,-0.5494394567479525
8942,1.0,299.71109,23471.032000000003,0.0,-0.0894201446462265,0.0,0.0,0.0,0.0,-1.5087207862741487,-3.5201094756077564,-2.105777394449048,-0.004047469371679126,-0.0026300049291612775,-0.5474166650433185
8943,1.0,299.84682000000004,23638.246,0.0,-0.08943014063364585,0.0,0.0,0.0,0.0,-1.5391303469503386,-3.508699772856707,-2.137606417190328,-0.006892626712499293,-0.02125407899236428,-0.5130265412167776
8944,1.0,299.88563,23863.061,0.0,-0.08944013662106531,0.0,0.0,0.0,0.0,-1.5535435256478085,-3.5347273308254263,-2.165503826893588,0.012525782537448488,0.0030341597938982573,-0.5413017817498265
8945,1.0,299.81087,23834.372000000003,0.0,-0.08945013260848445,0.0,0.0,0.0,0.0,-1.5664027839919183,-3.538704844092976,-2.139946315646258,0.014084420583274086,0.0064304403800850545,-0.5308168926300485
8946,1.0,300.12299,23733.207000000002,0.0,-0.0894601285959038,0.0,0.0,0.0,0.0,-1.5376159433508785,-3.5368238466073363,-2.1398623172129683,-0.0035846692123543064,-0.008873156870037402,-0.5456585342648045
8947,1.0,300.53404,23752.787,0.0,-0.08947012458332304,0.0,0.0,0.0,0.0,-1.5643008979844786,-3.5455843056469267,-2.110369038602208,-0.017860850315478682,-0.014028793152784089,-0.5393460165393075
8948,1.0,300.25708,23873.877999999997,0.0,-0.08948015356079986,0.0,0.0,0.0,0.0,-1.5593564401464985,-3.5464133468787464,-2.1512928929160777,0.003963967228288106,0.011550644826709889,-0.5399772004241005
8949,1.0,300.3448,23868.176,0.0,-0.08949014954821921,0.0,0.0,0.0,0.0,-1.5492117801452987,-3.5465930974464865,-2.1595247393784978,-0.007215055154645504,0.017100521625940085,-0.5406217085477085
8950,1.0,300.24216,23740.932,0.0,-0.08950014553563845,0.0,0.0,0.0,0.0,-1.5277433410015286,-3.5449396759333065,-2.1439673986681083,-0.007418127091987143,0.006284145608121884,-0.5365821235790325
8951,1.0,300.69839,23652.068,0.0,-0.0895101415230578,0.0,0.0,0.0,0.0,-1.5418910481727985,-3.523126731755536,-2.1246204012587078,-0.0100356181797634,-0.004590520560124105,-0.5516028774339655
8952,1.0,300.92242000000005,23797.916,0.0,-0.08952013751047716,0.0,0.0,0.0,0.0,-1.5463895746417684,-3.5384024902631364,-2.149180367782588,0.025767192209773877,0.0005338316663150835,-0.5512319974998624
8953,1.0,300.09496,23853.622000000003,0.0,-0.0895301334978964,0.0,0.0,0.0,0.0,-1.5724773196664286,-3.534632693266086,-2.1437954501261376,0.020518768461044782,0.011498495883813189,-0.5524437939569575
8954,1.0,299.82499,23763.215,0.0,-0.08954012948531576,0.0,0.0,0.0,0.0,-1.5343608774046285,-3.5314205891240764,-2.1576424246677277,0.015152482447433587,-0.013250905852262589,-0.5371806200155995
8955,1.0,299.89417000000003,23777.657000000003,0.0,-0.089550125472735,0.0,0.0,0.0,0.0,-1.5371505575799487,-3.5450588341450673,-2.145604709504698,-0.0019943755108795384,0.002026616622436488,-0.5472675348936005
8956,1.0,300.07736,23766.488999999998,0.0,-0.08956015445021182,0.0,0.0,0.0,0.0,-1.5336665984361086,-3.5398210404031363,-2.150931365280398,0.0008154434458755023,0.01164127599515449,-0.5513559078545915
8957,1.0,299.93122,23784.717,0.0,-0.08957015043763117,0.0,0.0,0.0,0.0,-1.5630903680900086,-3.553747555077577,-2.113122039123908,-0.0005636906978144404,0.004558904725203866,-0.5611417354653775
8958,1.0,300.10857999999996,23853.675,0.0,-0.08958014642505052,0.0,0.0,0.0,0.0,-1.5620155123839286,-3.5557063701708964,-2.133199691180418,-0.02905572580682687,-0.016597660800061583,-0.5581831464983875
8959,1.0,299.7786,23811.679,0.0,-0.08959014241246976,0.0,0.0,0.0,0.0,-1.5785409122398586,-3.536206473321407,-2.123408554139108,-0.018013032374497882,-0.0015303214545559685,-0.5388409417619605
8960,1.0,300.17543,23762.924,0.0,-0.08960013839988912,0.0,0.0,0.0,0.0,-1.5200493276921885,-3.551759659706386,-2.151526649714148,0.0002096325392216208,0.007830312267741652,-0.5552834374947085
8961,1.0,299.68008,23774.548,0.0,-0.08961013438730836,0.0,0.0,0.0,0.0,-1.5346580636589586,-3.527791127265876,-2.1644196492865877,0.004662740771601686,0.02098594869790188,-0.5231217748780995
8962,1.0,299.60387000000003,23871.612999999998,0.0,-0.08962013037472771,0.0,0.0,0.0,0.0,-1.5341463723584587,-3.5469974855613966,-2.1752305212285377,0.005435941385110645,-0.028578078696436773,-0.5375401616810835
8963,1.0,299.5008,23847.177000000003,0.0,-0.08963012636214696,0.0,0.0,0.0,0.0,-1.5646030491642986,-3.5547557389270765,-2.129587657223938,0.002015098299274718,-0.02113215156808098,-0.5425255852206065
8964,1.0,299.50588,23762.787999999997,0.0,-0.08964015533962366,0.0,0.0,0.0,0.0,-1.5437717416834085,-3.546879948549797,-2.1326426062754376,0.005017261478865154,-0.015931901782106288,-0.5621620580510754
8965,1.0,299.61861,23687.402000000002,0.0,-0.08965015132704313,0.0,0.0,0.0,0.0,-1.5645111473802287,-3.5387772914751263,-2.097090396041708,0.007792210821581332,-0.006838203428428133,-0.5498773733086715
8966,1.0,299.96102,23780.552000000003,0.0,-0.08966014731446248,0.0,0.0,0.0,0.0,-1.5237023982777185,-3.5476437364751763,-2.1573476702136376,-0.007101486131762114,-0.016042227492744587,-0.5413310140152116
8967,1.0,300.14826,23942.907000000003,0.0,-0.08967014330188172,0.0,0.0,0.0,0.0,-1.5610424883128986,-3.5583692927587065,-2.158633991215588,-0.007120589341197452,0.009786255607628231,-0.5508943724340415
8968,1.0,300.52795,23937.338,0.0,-0.08968013928930108,0.0,0.0,0.0,0.0,-1.5402271901835884,-3.571311941586047,-2.1648139049004977,-0.002093918416603658,0.013135676011140287,-0.5504209921198224
8969,1.0,300.35396000000003,23787.382,0.0,-0.08969013527672032,0.0,0.0,0.0,0.0,-1.5574752400108385,-3.5566177886358465,-2.116677027099758,-0.02396379752279268,0.02018221338732938,-0.5659715237895404
8970,1.0,300.29011,23818.115,0.0,-0.08970013126413967,0.0,0.0,0.0,0.0,-1.5594530028810285,-3.5534957624277266,-2.1271634563596877,-0.01816178255542838,-0.0031510285670573067,-0.5471015037322144
8971,1.0,300.31145,23951.452999999998,0.0,-0.08971012725155902,0.0,0.0,0.0,0.0,-1.5858108803823485,-3.553272644755707,-2.141560017755518,-0.009010182126110742,0.005941379007318454,-0.5478225629008775
8972,1.0,300.13884,23884.039,0.0,-0.08972012323897827,0.0,0.0,0.0,0.0,-1.5269753987507384,-3.556163041990967,-2.1770130308044577,0.005213375529095105,0.0045686883641944355,-0.5483443461723735
8973,1.0,299.84569,23695.7,0.0,-0.08973015221645497,0.0,0.0,0.0,0.0,-1.5255414472092184,-3.539278444974587,-2.138081327512198,-0.003167392150872267,0.013405497420019587,-0.5403517787210684
8974,1.0,299.81719,23708.324,0.0,-0.08974014820387444,0.0,0.0,0.0,0.0,-1.5218532168452183,-3.5411884214130867,-2.1436969622164184,0.008220276260853102,-0.009099611883911772,-0.5375356020556334
8975,1.0,300.00919,23904.637000000002,0.0,-0.08975014419129357,0.0,0.0,0.0,0.0,-1.5734725339146485,-3.561438325986597,-2.131501990637868,0.004842152812483276,0.016713657671509584,-0.5530303644398475
8976,1.0,300.08711,23944.737,0.0,-0.08976014017871303,0.0,0.0,0.0,0.0,-1.5782511227112586,-3.5624032440568265,-2.1379476798240082,0.0023550733960526478,0.01271104822548279,-0.5659663359490285
8977,1.0,299.78893999999997,23899.67,0.0,-0.08977013616613216,0.0,0.0,0.0,0.0,-1.5678266030324384,-3.5522069083005268,-2.1448692925821184,-0.006968779854240024,-0.01301941569466629,-0.5415905782933286
8978,1.0,300.33966000000004,24016.662999999997,0.0,-0.08978013215355163,0.0,0.0,0.0,0.0,-1.5489935260737586,-3.5685021990587464,-2.182970029467368,0.0036576441938313766,-0.028903981471850873,-0.5343715664983675
8979,1.0,300.73114,24016.357000000004,0.0,-0.08979012814097098,0.0,0.0,0.0,0.0,-1.5644753796516986,-3.5695712792392564,-2.166326281999758,-0.005038011827663055,-0.011284982809491091,-0.5398379494628575
8980,1.0,300.75957999999997,23959.764,0.0,-0.08980012412839022,0.0,0.0,0.0,0.0,-1.5432819365850685,-3.5771391429111463,-2.162749002521708,0.013788927469861186,-0.004917624644856766,-0.5350442024447515
8981,1.0,300.59674,23841.22,0.0,-0.08981015310586715,0.0,0.0,0.0,0.0,-1.5572328705869185,-3.559299760325536,-2.130603035149148,-0.019743360583517982,0.010779397354093688,-0.5405608223491994
8982,1.0,300.09938,23774.716,0.0,-0.0898201490932864,0.0,0.0,0.0,0.0,-1.5574730108606185,-3.5547933305057864,-2.1146538706250877,-0.004240351964690156,0.01055684000937899,-0.5347333069165685
8983,1.0,299.666,23879.871,0.0,-0.08983014508070553,0.0,0.0,0.0,0.0,-1.5548695660536787,-3.569814459263257,-2.1342004783041877,-0.002037978499782818,0.024532008927120777,-0.5568963897988944
8984,1.0,299.94984,23967.106,0.0,-0.08984014106812488,0.0,0.0,0.0,0.0,-1.5444239707727785,-3.5724874130270563,-2.168490280238328,0.006947804158619884,0.012322419189378089,-0.5582507809425624
8985,1.0,299.58763999999996,23810.471,0.0,-0.08985013705554412,0.0,0.0,0.0,0.0,-1.5419286397515086,-3.553664671219397,-2.1421954268932275,0.005343590528596324,-0.008787240455633111,-0.5468085933933066
8986,1.0,299.82845,23740.109,0.0,-0.08986013304296347,0.0,0.0,0.0,0.0,-1.5287995529057685,-3.5493643364699863,-2.138236557427518,-0.0002664945946934687,-0.02292320790859448,-0.5467279082878435
8987,1.0,300.30601,23949.5,0.0,-0.08987012903038294,0.0,0.0,0.0,0.0,-1.5892041536422383,-3.5521860353484667,-2.138659690669278,-0.0028846732841200876,0.00028139565331408874,-0.5462072902539625
8988,1.0,300.15049,24010.439,0.0,-0.08988012501780207,0.0,0.0,0.0,0.0,-1.5944017213551984,-3.566867623997426,-2.137304671310548,-0.0014632339627849488,0.0007008490240234134,-0.5595357847193825
8989,1.0,300.32549,23946.905,0.0,-0.08989015399527911,0.0,0.0,0.0,0.0,-1.5571053023993287,-3.5664960651857567,-2.155659696872048,-0.01734472807229138,-0.006501073233955973,-0.5388278809681716
8990,1.0,300.44847000000004,23957.155,0.0,-0.08990014998269824,0.0,0.0,0.0,0.0,-1.5434513520017883,-3.5668315522938667,-2.172094106868998,-0.00972667538717312,-0.012533765934986387,-0.5464022902357075
8991,1.0,300.31371,23930.261000000002,0.0,-0.08991014597011748,0.0,0.0,0.0,0.0,-1.5586012648469685,-3.565660235178267,-2.149940406682598,-0.0016844665843189083,0.004544400961947456,-0.5456433253808035
8992,1.0,300.14951,23816.251,0.0,-0.08992014195753684,0.0,0.0,0.0,0.0,-1.5440648749373385,-3.5604646939655065,-2.135015941984668,0.002079327007213598,0.017950497618076183,-0.5557916938773694
8993,1.0,300.42184,23843.514,0.0,-0.08993013794495608,0.0,0.0,0.0,0.0,-1.5690690503050586,-3.5584363699153263,-2.120327463235028,-0.006126798101417894,0.0024486877754416676,-0.5408506625403044
8994,1.0,300.6349,23918.819,0.0,-0.08994013393237565,0.0,0.0,0.0,0.0,-1.5767177713349285,-3.562309518422577,-2.1316963320070483,-0.001057251802817629,-0.008185154377936842,-0.5420379586099815
8995,1.0,299.6551,24002.372000000003,0.0,-0.08995012991979479,0.0,0.0,0.0,0.0,-1.5645219891562985,-3.582786998968547,-2.148812760646308,0.01096320497523409,-0.0017376198607147286,-0.5485979525399025
8996,1.0,299.75475,24050.356,0.0,-0.08996012590721403,0.0,0.0,0.0,0.0,-1.5577762766155485,-3.585762813187237,-2.167168596807888,0.013648813219532988,-0.004688069288326415,-0.5524612218586775
8997,1.0,299.56602999999996,24053.423,0.0,-0.08997015488469107,0.0,0.0,0.0,0.0,-1.5574424107075986,-3.579459586965157,-2.174737980354928,0.01992141598384068,-0.023204359480091977,-0.5371166231392834
8998,1.0,300.70333999999997,24030.63,0.0,-0.0899801508721102,0.0,0.0,0.0,0.0,-1.5527720370216684,-3.5830868196731362,-2.1688526184740877,0.00978380708876158,-0.02130049091319478,-0.5377804742073005
8999,1.0,300.97575,23979.468999999997,0.0,-0.08999014685952944,0.0,0.0,0.0,0.0,-1.5655210537548985,-3.5792271473922166,-2.144411607511948,0.01057179558085499,0.029765575389633574,-0.5655001801080225
9000,1.0,300.82558,23943.341,0.0,-0.0900001428469488,0.0,0.0,0.0,0.0,-1.5664583100973986,-3.570853141940767,-2.140866346737058,-0.013305674046667786,0.022628695621278377,-0.5557461685503765
9001,1.0,299.93363,23902.697,0.0,-0.09001013883436815,0.0,0.0,0.0,0.0,-1.5363164500976285,-3.578463359466837,-2.1510430254414183,-0.012363756753707789,0.0007220880228145392,-0.5628808880695184
9002,1.0,300.72415,23885.686,0.0,-0.09002013482178761,0.0,0.0,0.0,0.0,-1.5562032058352986,-3.5582394954208962,-2.146209417164378,-0.022236293241801274,-0.0006450083955798724,-0.5428095080311275
9003,1.0,300.02456,23940.854,0.0,-0.09003013080920674,0.0,0.0,0.0,0.0,-1.5484753499726185,-3.5770981062820963,-2.151848356620898,0.012693955709545887,0.011036694991736989,-0.5573401021501855
9004,1.0,299.54106,23936.145,0.0,-0.09004012679662599,0.0,0.0,0.0,0.0,-1.5626801031245185,-3.5784524163657565,-2.134857976294078,0.006626523222211925,0.006885985770018884,-0.5509687956538866
9005,1.0,299.5246,23916.822999999997,0.0,-0.09005015577410291,0.0,0.0,0.0,0.0,-1.5724362830373786,-3.564768068465217,-2.1329126374270877,-0.0013971524257132086,-0.0018945348109510284,-0.5460991055407854
9006,1.0,299.86892,24094.166,0.0,-0.09006015176152216,0.0,0.0,0.0,0.0,-1.5765322452416186,-3.584436266156317,-2.163056422602048,-0.003215749309244747,-0.0025661500091842876,-0.5406104817366005
9007,1.0,300.02705,24158.64,0.0,-0.0900701477489414,0.0,0.0,0.0,0.0,-1.5739054956823786,-3.5852810127646864,-2.184436911637138,0.013081185447262486,0.013112433067096387,-0.5530678040310425
9008,1.0,300.20857,24035.998,0.0,-0.09008014373636075,0.0,0.0,0.0,0.0,-1.5571441098781587,-3.580786032671067,-2.1684132732307275,0.008921393350322972,0.006074612884167614,-0.5399159899855595
9009,1.0,299.92275,23908.101000000002,0.0,-0.0900901397237801,0.0,0.0,0.0,0.0,-1.5446513440952185,-3.568422050975837,-2.1543924249719777,0.0025455980547559676,-0.036796365846018565,-0.5524267409577744
9010,1.0,300.33574,23995.402000000002,0.0,-0.09010013571119946,0.0,0.0,0.0,0.0,-1.5612675311601085,-3.567129245173246,-2.165606367803708,0.0012816680561657887,-0.02152845698694328,-0.5486080850409024
9011,1.0,300.57858999999996,23988.514,0.0,-0.0901101316986187,0.0,0.0,0.0,0.0,-1.5777487533116785,-3.571210008625987,-2.142950500867748,0.015396026228219483,-0.014948632739315185,-0.5654618691217415
9012,1.0,300.43688,23950.882,0.0,-0.09012012768603794,0.0,0.0,0.0,0.0,-1.5435762857391186,-3.5872470219337167,-2.149646868128628,-0.0032389014660796868,-0.0030996468571363274,-0.5741518262193734
9013,1.0,301.15532,23923.222999999998,0.0,-0.0901301236734573,0.0,0.0,0.0,0.0,-1.5451383120932787,-3.5782993142756467,-2.148624904077768,-0.01959949832106988,-0.015788483323201985,-0.5491422299636185
9014,1.0,300.24016,23913.921000000002,0.0,-0.09014015265093411,0.0,0.0,0.0,0.0,-1.5397664653631185,-3.5789376618386464,-2.150530624865848,0.0011004288213788689,0.0008683548696049532,-0.5401327039169475
9015,1.0,299.48542000000003,24153.556,0.0,-0.09015014863835324,0.0,0.0,0.0,0.0,-1.5573460506230885,-3.6035930765219466,-2.181138579911618,0.017425354409248583,0.02013122866879758,-0.5509362601931755
9016,1.0,300.16675,24302.529,0.0,-0.09016014462577271,0.0,0.0,0.0,0.0,-1.5948934516287285,-3.607302078512997,-2.185166451709138,-0.003282743683331577,0.012324610849344386,-0.5397067538399095
9017,1.0,299.59179,24194.166,0.0,-0.09017014061319206,0.0,0.0,0.0,0.0,-1.5911993444141486,-3.5895795236639167,-2.1736435689219182,-0.015120288452006286,-0.014597443294405486,-0.5400915456978854
9018,1.0,299.7906,24074.488999999998,0.0,-0.09018013660061142,0.0,0.0,0.0,0.0,-1.5661059017126184,-3.5755719489814766,-2.176365665315568,-0.014955182387961586,0.0038775752956118864,-0.5407178254521945
9019,1.0,300.25235,24098.134,0.0,-0.09019013258803066,0.0,0.0,0.0,0.0,-1.5720587460501183,-3.5772702574740864,-2.175901900744798,-0.0005971865068377195,0.00926822632642772,-0.5540051515660515
9020,1.0,299.98429,24015.182,0.0,-0.09020012857544979,0.0,0.0,0.0,0.0,-1.5600090745359085,-3.569356470218057,-2.170650225476498,0.0016179812670823186,0.008136485949133642,-0.5480567452639895
9021,1.0,300.15255,23933.369,0.0,-0.09021012456286925,0.0,0.0,0.0,0.0,-1.5610407657877285,-3.5619418099612865,-2.152163984027048,-0.011774886193090788,-0.013308541544450787,-0.5535165218378275
9022,1.0,299.97916000000004,23832.487999999998,0.0,-0.09022015354034596,0.0,0.0,0.0,0.0,-1.5571746087061686,-3.558940664490097,-2.1283659815783684,0.014175832967545788,-0.002846907629042907,-0.5599109304364065
9023,1.0,299.34995,23939.106,0.0,-0.0902301495277652,0.0,0.0,0.0,0.0,-1.5747642251421285,-3.571714404525767,-2.130411733530268,0.008459080361646231,0.0018676313995958681,-0.5637344702187606
9024,1.0,299.71438,24154.533,0.0,-0.09024014551518478,0.0,0.0,0.0,0.0,-1.5741269921542385,-3.5874065074994568,-2.180841596307308,-0.0036334195117655867,0.003279021813064257,-0.5631952083830395
9025,1.0,299.54767999999996,24103.319,0.0,-0.09025014150260402,0.0,0.0,0.0,0.0,-1.5640873048633985,-3.589000451231767,-2.173719258704388,-0.014603700113772985,-0.017559920102029183,-0.5263768712218525
9026,1.0,299.43187,23998.691000000003,0.0,-0.09026013749002337,0.0,0.0,0.0,0.0,-1.5290236838278883,-3.5933420252602466,-2.1726371075975877,-0.01981486969607538,0.01045446628552549,-0.5461190564352545
9027,1.0,299.70704,24140.921000000002,0.0,-0.09027013347744262,0.0,0.0,0.0,0.0,-1.5634228154478185,-3.594016444526807,-2.180797925227998,0.001359003154148169,0.011848504892356388,-0.5278408250988335
9028,1.0,299.97267,24225.157000000003,0.0,-0.09028012946486175,0.0,0.0,0.0,0.0,-1.5858215195083984,-3.605353497245686,-2.172667707750608,-0.005744885393601045,-0.0016987890771324285,-0.5586084987578664
9029,1.0,300.49863,24171.035,0.0,-0.0902901254522811,0.0,0.0,0.0,0.0,-1.5870906152586484,-3.5864594226309867,-2.173841051366408,-0.0028871126837358373,-0.02037942225429238,-0.5422864581970065
9030,1.0,300.06293,23986.593999999997,0.0,-0.09030015442975792,0.0,0.0,0.0,0.0,-1.5475906813103086,-3.5882699992346767,-2.155465051527838,-0.014025732124231987,0.0002887817095205357,-0.5732565589610175
9031,1.0,299.05672000000004,23960.211,0.0,-0.09031015041717738,0.0,0.0,0.0,0.0,-1.5300049152247286,-3.5927633581281366,-2.1605377868284776,0.006350126225483664,0.013809013126593486,-0.5617181227847625
9032,1.0,299.56289,24109.678,0.0,-0.09032014640459674,0.0,0.0,0.0,0.0,-1.5583651775736684,-3.587993077982347,-2.1823820404343377,-0.01038809536422519,0.0022874517188289077,-0.5617324298761744
9033,1.0,300.52496,24216.317000000003,0.0,-0.09033014239201587,0.0,0.0,0.0,0.0,-1.5812469992819287,-3.5955920484323065,-2.1843168415002876,0.008626574858826654,-0.004934604284732526,-0.5424488517905335
9034,1.0,300.49612,24084.839,0.0,-0.09034013837943533,0.0,0.0,0.0,0.0,-1.5832158455512384,-3.588363319568886,-2.149610695100058,-0.016290099877957685,0.004201105748566856,-0.5431108587433685
9035,1.0,300.38241,24126.567000000003,0.0,-0.09035013436685446,0.0,0.0,0.0,0.0,-1.5833964067190587,-3.588425330475007,-2.162052089102928,0.01054967329142169,-0.00984753413657595,-0.5482688387749215
9036,1.0,300.16444,24285.722999999998,0.0,-0.0903601303542737,0.0,0.0,0.0,0.0,-1.5881631404894985,-3.6111930602220066,-2.1828970754601684,-0.005340796187470545,-0.023376529923833874,-0.5505304636606265
9037,1.0,299.58455,24241.778,0.0,-0.09037012634169328,0.0,0.0,0.0,0.0,-1.5744684574379384,-3.5982161635412866,-2.196210472499098,0.017874804795855882,-0.03086926008755877,-0.5362768921189085
9038,1.0,299.64064,24142.281000000003,0.0,-0.09038015531916987,0.0,0.0,0.0,0.0,-1.5502222944700286,-3.608790441584887,-2.179637956513518,0.01147218076546609,0.0016878396939018084,-0.5547547134600275
9039,1.0,299.6637,24005.071,0.0,-0.09039015130658923,0.0,0.0,0.0,0.0,-1.5631367749445884,-3.5830730394717767,-2.150732362960758,0.004097296350646666,0.0085266374948386,-0.5564371747210735
9040,1.0,299.53345,24073.304,0.0,-0.09040014729400869,0.0,0.0,0.0,0.0,-1.5829536164253586,-3.589616304642546,-2.145113485856218,-0.008056000859240383,-0.0057147479919017145,-0.5745097568171985
9041,1.0,300.04787000000005,24119.61,0.0,-0.09041014328142782,0.0,0.0,0.0,0.0,-1.5784277322036884,-3.5957417054720766,-2.157589533012508,-0.002465291702180348,-0.017689869427354184,-0.5612706006130954
9042,1.0,300.11113,24011.241,0.0,-0.09042013926884729,0.0,0.0,0.0,0.0,-1.5465392316815383,-3.584160763454127,-2.1681177081765584,-0.0013401940912168586,-0.001082895338998449,-0.5798428771285364
9043,1.0,299.73579,24058.97,0.0,-0.09043013525626642,0.0,0.0,0.0,0.0,-1.5413679071461686,-3.5989862336172864,-2.172972088080648,0.002065738006147468,0.007139837344072083,-0.5605739405068405
9044,1.0,299.86483,24176.861,0.0,-0.09044013124368577,0.0,0.0,0.0,0.0,-1.5509599405428287,-3.6053033413657367,-2.192898664547248,-0.006352897768482193,0.004752460420256326,-0.5535655834076695
9045,1.0,299.78021,24204.756,0.0,-0.09045012723110524,0.0,0.0,0.0,0.0,-1.5958296947211286,-3.587137286947886,-2.174674550898668,0.0038812443755489967,0.0005303292254894195,-0.5360368329052165
9046,1.0,300.13016,24289.541,0.0,-0.09046015620858205,0.0,0.0,0.0,0.0,-1.5849290488203185,-3.6130870273089264,-2.185397979356988,0.015086500614171685,0.02051008693418798,-0.5471079480028505
9047,1.0,299.90582,24238.27,0.0,-0.09047015219600119,0.0,0.0,0.0,0.0,-1.5881108567843385,-3.6031399510772264,-2.176577941211518,0.003478619721113036,0.013559853913753386,-0.5523783785305014
9048,1.0,299.26027,24111.416,0.0,-0.09048014818342054,0.0,0.0,0.0,0.0,-1.5615741406403685,-3.5988898735327766,-2.1688043877693275,-0.014018568446024986,-0.025742091978296678,-0.5561746010901595
9049,1.0,299.52841,24139.299,0.0,-0.09049014417083978,0.0,0.0,0.0,0.0,-1.5742879975951285,-3.596826288379117,-2.1666298517297182,-0.014662285221304886,-0.027526155879870076,-0.5551904717980335
9050,1.0,299.49715,24134.286,0.0,-0.09050014015825913,0.0,0.0,0.0,0.0,-1.5597793707382384,-3.591184106522276,-2.185256833618058,0.006608155733674193,0.01112235920819139,-0.5465396160217605
9051,1.0,299.24007,24076.683999999997,0.0,-0.09051013614567838,0.0,0.0,0.0,0.0,-1.5798185192909484,-3.586065876292146,-2.1528263456174184,0.014899360413452384,0.024105027361480978,-0.5470185590790285
9052,1.0,300.18784,24148.047000000002,0.0,-0.09052013213309773,0.0,0.0,0.0,0.0,-1.5763039599940885,-3.5884629220537168,-2.175636530543608,-0.0015675064160008386,0.024195971624206475,-0.5498367723771646
9053,1.0,300.22269,24124.873,0.0,-0.0905301281205172,0.0,0.0,0.0,0.0,-1.5705260026238486,-3.580547310947507,-2.182285781674838,-0.003424812290452657,0.008387539230385673,-0.5454128819105605
9054,1.0,300.19446,24146.908,0.0,-0.09054012410793633,0.0,0.0,0.0,0.0,-1.5582683108641084,-3.5996918609869266,-2.182097013181208,0.007213916160208092,0.015179849319384485,-0.5558798162385665
9055,1.0,300.49757,24212.07,0.0,-0.09055015308541314,0.0,0.0,0.0,0.0,-1.5630935091653184,-3.604164650903357,-2.192606443218408,0.012574401316996789,0.0067118130427543735,-0.5453584805126914
9056,1.0,300.59039,24339.982000000004,0.0,-0.0905601490728325,0.0,0.0,0.0,0.0,-1.5942970526198683,-3.6156866217654864,-2.1887630842640977,0.005832385112611594,-0.02072381887053168,-0.5525101922360105
9057,1.0,300.22262,24179.502,0.0,-0.09057014506025174,0.0,0.0,0.0,0.0,-1.5923109810988585,-3.5995821260010965,-2.158071637410088,-0.015467923415565186,-0.02493224170337068,-0.5449353776684345
9058,1.0,300.10643999999996,24005.487999999998,0.0,-0.09058014104767109,0.0,0.0,0.0,0.0,-1.5562101972609883,-3.597196428640647,-2.1436622077379877,0.0020921582998549484,-0.005671316951540405,-0.5635055263586655
9059,1.0,299.59238,24114.895,0.0,-0.09059013703509033,0.0,0.0,0.0,0.0,-1.5562100959359786,-3.6204194116575765,-2.153696322153278,-0.002019056662115378,0.01014288681352499,-0.5708756441410395
9060,1.0,299.85552,24221.772999999997,0.0,-0.09060013302250969,0.0,0.0,0.0,0.0,-1.5658745767147884,-3.6095955701143465,-2.1873439261740377,-0.007230523734647133,-0.01180386818570109,-0.5539602443216194
9061,1.0,299.63544,23997.897,0.0,-0.09061012900992904,0.0,0.0,0.0,0.0,-1.5380875099474185,-3.6006207073535967,-2.156053344535898,-0.0012713905590764788,-0.01928547995607868,-0.5576908792023044
9062,1.0,299.86157000000003,23953.224,0.0,-0.09062012499734828,0.0,0.0,0.0,0.0,-1.5401882813797485,-3.5908683777911166,-2.150125324825848,0.01341081698304459,0.006242040405516425,-0.5543953744445634
9063,1.0,299.94245,24241.667,0.0,-0.0906301539748251,0.0,0.0,0.0,0.0,-1.5950777618219183,-3.6040641364934363,-2.169719757909668,0.017953806892902782,0.018827568931136383,-0.5354653497163154
9064,1.0,299.60711000000003,24435.076,0.0,-0.09064014996224445,0.0,0.0,0.0,0.0,-1.6045581350575586,-3.6263837057212065,-2.196711119373508,-0.016330465735441484,0.0027160929881325075,-0.5543926285367925
9065,1.0,300.33709,24412.627,0.0,-0.0906501459496637,0.0,0.0,0.0,0.0,-1.5940323916937484,-3.629352021889156,-2.1974445097958877,-0.01937372086753738,0.003531238406756096,-0.5547764071446685
9066,1.0,300.42076000000003,24248.891,0.0,-0.09066014193708305,0.0,0.0,0.0,0.0,-1.5723396189778385,-3.6146725610654062,-2.1840452904734877,-0.0016423576326880782,0.0066758009183002535,-0.5572338223471964
9067,1.0,300.45622000000003,24169.556,0.0,-0.0906701379245024,0.0,0.0,0.0,0.0,-1.5618526830928585,-3.6100162715558666,-2.1750724542129376,0.01017256997520449,0.005788358990466555,-0.5479561193965584
9068,1.0,300.56417000000005,24181.838,0.0,-0.09068013391192165,0.0,0.0,0.0,0.0,-1.5926780816100883,-3.6006755241840063,-2.1573213257110377,0.011940772459712489,-0.02259582072178388,-0.5540996472703775
9069,1.0,299.85611,24284.482999999997,0.0,-0.090690129899341,0.0,0.0,0.0,0.0,-1.6083419149059883,-3.6137845486777667,-2.159750086200738,-0.003725218957575486,-0.016416007348633785,-0.5513950497059545
9070,1.0,299.50035,24194.591,0.0,-0.09070012588676024,0.0,0.0,0.0,0.0,-1.5829316288981885,-3.615206341218087,-2.156413554946448,-0.003047100010925357,0.0021439089341373377,-0.5622054758178605
9071,1.0,299.08497,24036.111,0.0,-0.09071015486423695,0.0,0.0,0.0,0.0,-1.5444316714735384,-3.5971489072109564,-2.164796882298818,0.0003066947148584117,0.005588362368503425,-0.5568396781907975
9072,1.0,298.61599,24258.357999999997,0.0,-0.09072015085165641,0.0,0.0,0.0,0.0,-1.5719935940686884,-3.6142939095030364,-2.1876476985540183,-0.01018388189932089,-0.004799992793047405,-0.5432502110296215
9073,1.0,298.83317999999997,24514.197,0.0,-0.09073014683907554,0.0,0.0,0.0,0.0,-1.6011678002229586,-3.6176433090335967,-2.2328925579193375,-0.0015243194675886185,-0.005208647400153475,-0.5378598420876335
9074,1.0,299.39817999999997,24325.177000000003,0.0,-0.09074014282649501,0.0,0.0,0.0,0.0,-1.5847780745554185,-3.6225548362433266,-2.186913294881538,0.016844427729415586,0.01007963295350732,-0.5405990522754726
9075,1.0,299.58836,24067.381,0.0,-0.09075013881391436,0.0,0.0,0.0,0.0,-1.5590421299654786,-3.6018440041993265,-2.154996727331618,0.012446449107618888,0.02596204628350448,-0.5491900148383344
9076,1.0,300.07604,24290.343999999997,0.0,-0.0907601348013336,0.0,0.0,0.0,0.0,-1.5882123844443587,-3.6144258346660565,-2.181019826999898,-7.358887323565634e-05,0.002978408645571047,-0.5523927768144224
9077,1.0,299.74813,24289.418999999998,0.0,-0.09077013078875296,0.0,0.0,0.0,0.0,-1.5778034688170786,-3.6246579381508863,-2.180915259589578,-0.015328522493307383,0.016091779475634987,-0.5812903555588914
9078,1.0,299.55856,24134.703999999998,0.0,-0.09078012677617209,0.0,0.0,0.0,0.0,-1.5585133147382886,-3.6092712287573363,-2.168562930270498,-0.0051685236081185654,0.017093034720951184,-0.5682406467259855
9079,1.0,299.55818,24171.555,0.0,-0.0907901557536489,0.0,0.0,0.0,0.0,-1.5672386139994086,-3.606399981948967,-2.173910560323268,-0.004114649778484316,0.0018874851233802782,-0.5516762367412055
9080,1.0,300.04658,24170.674,0.0,-0.09080015174106837,0.0,0.0,0.0,0.0,-1.5912477777689285,-3.5979691331669064,-2.1580644433343776,-0.0013261525726560688,-0.024038577406672878,-0.5500480350230145
9081,1.0,300.57769,24306.97,0.0,-0.0908101477284875,0.0,0.0,0.0,0.0,-1.5849741384497684,-3.6144969648230765,-2.1892408316862477,0.003131913097295757,-0.02195512343180198,-0.5439828009844224
9082,1.0,300.42692,24420.217,0.0,-0.09082014371590708,0.0,0.0,0.0,0.0,-1.5948584945002786,-3.6296900421225167,-2.198587658558708,0.015064501941250585,-0.01005938679795918,-0.5537237010857745
9083,1.0,300.05974,24337.484,0.0,-0.09083013970332632,0.0,0.0,0.0,0.0,-1.5722680835207787,-3.627107470267636,-2.198611875236098,-0.008374340735908082,0.013915992072151486,-0.5404202136328224
9084,1.0,300.05062999999996,24285.042,0.0,-0.09084013569074545,0.0,0.0,0.0,0.0,-1.5719704919664086,-3.618305467973946,-2.191770511885908,-0.0018432735764669385,-0.004316404389370946,-0.5482709362026285
9085,1.0,299.74557000000004,24444.346,0.0,-0.09085013167816491,0.0,0.0,0.0,0.0,-1.5928306770751484,-3.6347999637018265,-2.202840167903398,-0.015349870659664287,0.005565620679283995,-0.5485121201239315
9086,1.0,299.2534,24422.231,0.0,-0.09086012766558405,0.0,0.0,0.0,0.0,-1.6084201378137086,-3.629860369464326,-2.185467994938898,-0.0006925202500564274,0.0045949227265085655,-0.5438283107416755
9087,1.0,299.07427,24150.311,0.0,-0.09087015664306086,0.0,0.0,0.0,0.0,-1.5672243271729984,-3.607399147872577,-2.1664678330387277,-0.014693218733607787,-0.00011824286188466189,-0.5631009051962325
9088,1.0,298.98631,24156.183999999997,0.0,-0.09088015263048022,0.0,0.0,0.0,0.0,-1.5733380756263786,-3.6092566379558964,-2.1602819411782277,-0.0037598793050711964,-0.02984792425176077,-0.5547212762067275
9089,1.0,299.36373,24307.806,0.0,-0.09089014861789968,0.0,0.0,0.0,0.0,-1.5900975362554086,-3.6055748923925366,-2.193293426786208,-0.015376720774064184,-0.01279924962018759,-0.5656434739371645
9090,1.0,299.50456,24259.586,0.0,-0.09090014460531903,0.0,0.0,0.0,0.0,-1.5765044821888785,-3.6191682504340967,-2.1786357508396077,0.014871237656926885,0.005624412489836295,-0.5507601471932945
9091,1.0,299.39912999999996,24224.96,0.0,-0.09091014059273828,0.0,0.0,0.0,0.0,-1.5687401493225985,-3.620964844186407,-2.1740779492397877,0.0037767201296832567,0.014412919305444387,-0.5604256918847095
9092,1.0,300.03578,24421.006,0.0,-0.0909201365801574,0.0,0.0,0.0,0.0,-1.6093381424043085,-3.6269634874284264,-2.1870745029724477,0.02244217451637018,-0.009076343101990321,-0.5412961886092744
9093,1.0,299.77147,24327.728,0.0,-0.09093013256757676,0.0,0.0,0.0,0.0,-1.5747308892138383,-3.6361126292063766,-2.1841784315366275,-0.0007408809142742533,-0.0016443455280592684,-0.5726102675172334
9094,1.0,299.71979,24213.9,0.0,-0.090940128554996,0.0,0.0,0.0,0.0,-1.5661961822965285,-3.639741685764536,-2.1544831108559275,0.013147457070052987,0.0008039275443814713,-0.5619542607205675
9095,1.0,299.86324,24265.515,0.0,-0.09095012454241536,0.0,0.0,0.0,0.0,-1.5498576257590384,-3.634379059610287,-2.1918740660461276,-0.013079004933047289,-0.0006516879631540944,-0.5679367020934885
9096,1.0,300.05475,24299.545,0.0,-0.09096015351989217,0.0,0.0,0.0,0.0,-1.5786559161262086,-3.636093174804457,-2.1717058294306777,-0.007874968124823842,-0.01013599671284499,-0.5675208642524484
9097,1.0,300.36464,24279.7,0.0,-0.09097014950731153,0.0,0.0,0.0,0.0,-1.5716553711853085,-3.629027477882126,-2.1797397881485683,-0.0026127148294548775,0.011166615946059189,-0.5599342655862095
9098,1.0,300.68928999999997,24407.037,0.0,-0.09098014549473099,0.0,0.0,0.0,0.0,-1.6121815248349285,-3.6291409618933264,-2.177807216232838,0.02290313542411348,0.017191968460715183,-0.5555058560241595
9099,1.0,300.12431000000004,24480.797000000002,0.0,-0.09099014148215012,0.0,0.0,0.0,0.0,-1.5957308015113683,-3.6477197130769063,-2.1981004879106276,0.017643834435560883,0.01070479478898099,-0.5481590227290835
9100,1.0,299.93733,24464.821,0.0,-0.09100013746956936,0.0,0.0,0.0,0.0,-1.6063733726117084,-3.6338708133601263,-2.1964504101227775,0.007510767738030063,-0.024287170212707078,-0.5553695941507115
9101,1.0,299.56299,24563.403,0.0,-0.09101013345698872,0.0,0.0,0.0,0.0,-1.5994810427814885,-3.6476217317922366,-2.2195584905783683,-0.01136554328519179,0.007767850870627192,-0.5593966553481514
9102,1.0,299.49741,24457.097,0.0,-0.09102012944440818,0.0,0.0,0.0,0.0,-1.6021105281159984,-3.6277472363807766,-2.2044890297911275,-0.008411616281911893,0.01979703852081558,-0.5564704295893554
9103,1.0,299.83968,24279.819,0.0,-0.09103012543182754,0.0,0.0,0.0,0.0,-1.5836189164410184,-3.622591211921917,-2.174248479231618,-0.001976831490698078,0.02232425246973218,-0.5515700481307255
9104,1.0,299.48815,24299.914,0.0,-0.09104015440930413,0.0,0.0,0.0,0.0,-1.5890030234973884,-3.6396246553779865,-2.157939408272038,-0.00966552695953824,-0.0074651021772232234,-0.5623738678519795
9105,1.0,299.906,24369.976000000002,0.0,-0.09105015039672348,0.0,0.0,0.0,0.0,-1.5919375984370085,-3.6324870176985566,-2.1834395695637077,0.012410415907562687,-0.019604584836571883,-0.5554499043536375
9106,1.0,300.58257000000003,24308.017000000003,0.0,-0.09106014638414295,0.0,0.0,0.0,0.0,-1.5759101096802184,-3.6445532051893967,-2.168566881945888,0.016820370132291283,-0.012869987649418886,-0.5531647619331115
9107,1.0,299.53626,24329.306,0.0,-0.09107014237156208,0.0,0.0,0.0,0.0,-1.5541086152285786,-3.6423419894961664,-2.199051017829438,0.011990943538413987,-0.0013459059846805785,-0.5585924083462785
9108,1.0,299.56709,24568.31,0.0,-0.09108013835898132,0.0,0.0,0.0,0.0,-1.6042202161492085,-3.6447635559101568,-2.219169098564938,0.009881780267430782,-0.011236147194421389,-0.5440656240475964
9109,1.0,299.60352,24521.222,0.0,-0.09109013434640068,0.0,0.0,0.0,0.0,-1.5905188456469883,-3.649115566414667,-2.214204781024998,-0.003479339432659067,0.01926294831360498,-0.5477018341514626
9110,1.0,299.91359,24330.898999999998,0.0,-0.09110013033382003,0.0,0.0,0.0,0.0,-1.5970927109707787,-3.6298020062585667,-2.169090934897608,-0.016500748494247087,0.02344096959044358,-0.5448402233515435
9111,1.0,300.01551,24370.31,0.0,-0.09111012632123949,0.0,0.0,0.0,0.0,-1.5756238665269686,-3.6214350935578166,-2.210906651949498,-0.01161895713520179,0.006795669215730334,-0.5536447587704835
9112,1.0,300.17618999999996,24410.827999999998,0.0,-0.0911201552987162,0.0,0.0,0.0,0.0,-1.5895724700535883,-3.6288193563115865,-2.201890347259658,-0.01056532901871679,-0.008536151102677523,-0.5586645112233944
9113,1.0,299.86202000000003,24367.046000000002,0.0,-0.09113015128613544,0.0,0.0,0.0,0.0,-1.5641646158460285,-3.6321432219396264,-2.210665599750708,0.014495562010100589,-0.005441607580994854,-0.5694640347642245
9114,1.0,300.40486,24454.032000000003,0.0,-0.0911401472735548,0.0,0.0,0.0,0.0,-1.5918899756823086,-3.6326370800383665,-2.208887852450258,0.016858525078056883,0.0001270999444537879,-0.5483873383741165
9115,1.0,300.37729,24450.673,0.0,-0.09115014326097404,0.0,0.0,0.0,0.0,-1.5961316432509285,-3.639746650690026,-2.1965157647542277,0.014559217421132885,-0.0005917860965872404,-0.5534078507646024
9116,1.0,300.14472,24483.564,0.0,-0.09116013924839328,0.0,0.0,0.0,0.0,-1.6011759062237585,-3.644585021242537,-2.1966312752656276,-0.014107933051844587,-0.013670872687460086,-0.5559470960452064
9117,1.0,299.92287999999996,24660.766,0.0,-0.09117013523581263,0.0,0.0,0.0,0.0,-1.6156373156259882,-3.6670906231886664,-2.213529145858318,-0.013548875348919884,-0.017927287098035483,-0.5604473146418435
9118,1.0,300.08628999999996,24548.039,0.0,-0.09118013122323199,0.0,0.0,0.0,0.0,-1.5954784009114586,-3.6393062921965664,-2.2272061983581377,-0.016075599898038185,-0.001026376451070469,-0.5425207722826315
9119,1.0,300.59988,24362.682999999997,0.0,-0.09119012721065134,0.0,0.0,0.0,0.0,-1.5709494398406383,-3.631084071610097,-2.2036138856797582,-0.014768270168514787,-0.004586938011745536,-0.5369795709307574
9120,1.0,299.97796,24405.241,0.0,-0.09120015618812816,0.0,0.0,0.0,0.0,-1.5796093844703085,-3.6310055447273464,-2.207968935934568,-0.0013115583261657288,-0.0009288340050187791,-0.5576472081229945
9121,1.0,299.725,24484.075,0.0,-0.0912101521755474,0.0,0.0,0.0,0.0,-1.6117505895673985,-3.624486496233967,-2.206310346845878,0.004097731845539646,-0.000934444502544992,-0.5531929708158955
9122,1.0,299.87883,24384.007,0.0,-0.09122014816296675,0.0,0.0,0.0,0.0,-1.5868752996123985,-3.647037998409626,-2.1782159613231777,0.02364466427129668,0.02079855822440788,-0.5843752461508465
9123,1.0,299.78878,24308.792999999998,0.0,-0.091230144150386,0.0,0.0,0.0,0.0,-1.5755186911665884,-3.6243913520495763,-2.1893559368976083,0.007177379070877163,0.004908644715845516,-0.5812300063829354
9124,1.0,299.83622,24457.033,0.0,-0.09124014013780513,0.0,0.0,0.0,0.0,-1.5880408412024285,-3.640409822880476,-2.205876574478068,-0.002169112922424778,0.004612169256460665,-0.5817923095259304
9125,1.0,299.68112,24482.339,0.0,-0.0912501361252247,0.0,0.0,0.0,0.0,-1.5766425881775086,-3.650140874190857,-2.215236370951808,-0.00843042828326849,-0.009024473309496172,-0.5678419530766375
9126,1.0,299.94651,24486.659,0.0,-0.09126013211264394,0.0,0.0,0.0,0.0,-1.5964278162551586,-3.6474747092027267,-2.199430378666878,-0.002415001262617068,0.002271589085863388,-0.5688933520429025
9127,1.0,300.0886,24556.017000000003,0.0,-0.0912701281000633,0.0,0.0,0.0,0.0,-1.6004272157248685,-3.663400670299496,-2.200587915581118,-0.0016808990320418184,-0.005584720443668994,-0.5540311718286194
9128,1.0,300.61494,24565.57,0.0,-0.09128015707754011,0.0,0.0,0.0,0.0,-1.6142271754618183,-3.661782307239776,-2.191310496340508,-0.005073019922593085,-0.0028767698320150774,-0.5528845577504574
9129,1.0,300.06075,24480.475,0.0,-0.09129015306495936,0.0,0.0,0.0,0.0,-1.5866293838131285,-3.651999985474337,-2.202823753251778,0.014337124144963985,0.012079931215196387,-0.5661684793439784
9130,1.0,299.75131,24481.637000000002,0.0,-0.09130014905237871,0.0,0.0,0.0,0.0,-1.5793694468466286,-3.653609330608167,-2.2088273614192877,0.007017561057779354,0.02994479602757127,-0.5456095942849746
9131,1.0,299.7747,24501.812,0.0,-0.09131014503979784,0.0,0.0,0.0,0.0,-1.5837614807300884,-3.6335054353740666,-2.230672121650198,0.02343978510107668,0.007157491403214403,-0.5444883013268115
9132,1.0,300.3796,24428.569,0.0,-0.0913201410272173,0.0,0.0,0.0,0.0,-1.5909349874630585,-3.6379792385405962,-2.196760768628408,-0.005735402588565165,-0.016008020169368586,-0.5609276357192474
9133,1.0,300.19637,24474.032000000003,0.0,-0.09133013701463666,0.0,0.0,0.0,0.0,-1.5949210120314485,-3.6486249507162465,-2.195948749998268,-0.006595162321016844,-0.023957777803948577,-0.5756675065139594
9134,1.0,299.93377000000004,24566.077999999998,0.0,-0.0913401330020559,0.0,0.0,0.0,0.0,-1.6127795450439486,-3.650029821979896,-2.204665031333498,-0.005032965943490065,-0.007007740232510113,-0.5770528727131845
9135,1.0,299.33532,24607.556,0.0,-0.09135012898947525,0.0,0.0,0.0,0.0,-1.6054487818954586,-3.6712322829724164,-2.203401407133788,0.006975440555097384,-0.004233280694892276,-0.5692419404748055
9136,1.0,299.54963,24659.676,0.0,-0.09136015796695207,0.0,0.0,0.0,0.0,-1.6089249390135285,-3.6574601876132165,-2.2295406252635277,-0.003410814949596227,0.007008022422662964,-0.5648560367544505
9137,1.0,299.51976,24672.84,0.0,-0.0913701539543712,0.0,0.0,0.0,0.0,-1.6097834658232586,-3.6559740536915464,-2.234169860995398,-0.0025420637370821577,-0.000965996330456415,-0.5392328466356385
9138,1.0,299.36794,24423.237,0.0,-0.09138014994179067,0.0,0.0,0.0,0.0,-1.5809143492740985,-3.6454153796994864,-2.1977243694735082,-0.007135425450486664,0.007038091632630562,-0.5582652602864915
9139,1.0,300.51296,24348.903,0.0,-0.0913901459292098,0.0,0.0,0.0,0.0,-1.5842082226991785,-3.6323483037598665,-2.184902196083058,0.01096677566858649,-0.00888131383731743,-0.5432678314488605
9140,1.0,300.18073,24558.856,0.0,-0.09140014191662926,0.0,0.0,0.0,0.0,-1.5915852913772384,-3.659889961353017,-2.213803736635418,-0.013998988401092588,-0.009121892645660712,-0.5522683598346435
9141,1.0,300.32293,24580.996,0.0,-0.09141013790404862,0.0,0.0,0.0,0.0,-1.6000600138886285,-3.6582918632952963,-2.213657220670958,-0.00018929296201426084,-0.014180136240720485,-0.5560107281514864
9142,1.0,300.18615,24432.895,0.0,-0.09142013389146775,0.0,0.0,0.0,0.0,-1.5576484044529284,-3.654917943112317,-2.214423845696618,-0.01927165517171428,0.004330592423896196,-0.5693396785794514
9143,1.0,299.86341,24544.123,0.0,-0.09143012987888721,0.0,0.0,0.0,0.0,-1.5823559001913683,-3.664008620359496,-2.214436004697818,0.013808321076775185,-0.006412060935196144,-0.5655973913226164
9144,1.0,299.95056,24770.342,0.0,-0.09144012586630634,0.0,0.0,0.0,0.0,-1.6285722637525684,-3.6658994463711068,-2.2350938437615877,0.011849595149463989,-0.005572686578856344,-0.5694606201113874
9145,1.0,299.8897,24679.96,0.0,-0.09145015484378316,0.0,0.0,0.0,0.0,-1.6293447656288085,-3.6665980823150566,-2.2061487334549277,0.02162694894966368,0.005116045764239405,-0.5791493175675874
9146,1.0,299.92406,24477.845,0.0,-0.09146015083120251,0.0,0.0,0.0,0.0,-1.5904439664645984,-3.6514298296430665,-2.1987798721026777,0.011402645464103488,0.015510458641513085,-0.5684250379791834
9147,1.0,299.80199,24486.428,0.0,-0.09147014681862176,0.0,0.0,0.0,0.0,-1.5901966321151884,-3.6355264640235263,-2.217539792404138,0.001917091582027208,0.012864809941407885,-0.5502446359399175
9148,1.0,299.87487000000004,24552.049,0.0,-0.09148014280604111,0.0,0.0,0.0,0.0,-1.5872869831280285,-3.6448750134211565,-2.2310480374372976,-0.005926481495073184,0.01278750605152859,-0.5385510306433484
9149,1.0,299.32662,24643.657000000003,0.0,-0.09149013879346057,0.0,0.0,0.0,0.0,-1.6109046270589087,-3.6556492057094867,-2.224502340466288,-0.013675634962930089,-0.00976992667696669,-0.5428980559573665
9150,1.0,299.41062999999997,24622.11,0.0,-0.0915001347808797,0.0,0.0,0.0,0.0,-1.6203575412168383,-3.6555607489757564,-2.208588437045708,-0.006676486989942963,0.013620259831714988,-0.5396049323373605
9151,1.0,299.0777,24475.805,0.0,-0.09151013076829917,0.0,0.0,0.0,0.0,-1.5879830859467285,-3.6736825243642364,-2.1783680501631877,0.0007801290049102383,-0.012292118958387688,-0.5637846159662094
9152,1.0,299.6551,24632.816000000003,0.0,-0.0915201267557183,0.0,0.0,0.0,0.0,-1.5989802945820686,-3.681719016207376,-2.2070616717950275,0.024301036540325578,0.004760503092925076,-0.5606460129864534
9153,1.0,299.82561,24946.62,0.0,-0.09153015573319512,0.0,0.0,0.0,0.0,-1.6467231194189185,-3.6876924295219062,-2.248733912632758,0.01047973066351889,0.005252254340732145,-0.5607990745465594
9154,1.0,300.23251,24702.106,0.0,-0.09154015172061447,0.0,0.0,0.0,0.0,-1.6050809721091586,-3.6649831643056765,-2.238759073348318,0.02108040083247358,0.014700541492080485,-0.5657614973088124
9155,1.0,299.9382,24237.426,0.0,-0.09155014770803394,0.0,0.0,0.0,0.0,-1.5603437510439384,-3.630853455887336,-2.176375088541498,0.003169192696299967,-0.005244305697672674,-0.5583574559130905
9156,1.0,299.88594,24436.797000000002,0.0,-0.09156014369545307,0.0,0.0,0.0,0.0,-1.5914270217116184,-3.647048536210667,-2.189700745906638,0.003275540184395647,-0.004777351820887916,-0.5724670446155985
9157,1.0,300.13088999999997,24798.5,0.0,-0.09157013968287242,0.0,0.0,0.0,0.0,-1.6487377645927483,-3.6666144969666763,-2.2227724185705577,0.0015904898666941286,-0.03078481582422477,-0.5615124228819615
9158,1.0,300.21509,24581.484,0.0,-0.09158013567029166,0.0,0.0,0.0,0.0,-1.5995343397367483,-3.670910069440617,-2.2017130284921578,-0.002091269983492278,0.0027331430488902173,-0.5755830419856234
9159,1.0,299.79163,24327.191000000003,0.0,-0.09159013165771102,0.0,0.0,0.0,0.0,-1.5649396508475186,-3.652447943343547,-2.177471121174668,-0.0004445628734249396,-0.004556595832200996,-0.5591497566962844
9160,1.0,299.45847000000003,24495.016,0.0,-0.09160012764513026,0.0,0.0,0.0,0.0,-1.5688752155609287,-3.6685998592126166,-2.208398148676928,0.0012781498491685687,0.008294506456554053,-0.5654106493291865
9161,1.0,299.5236,24683.661,0.0,-0.09161015662260708,0.0,0.0,0.0,0.0,-1.6171351019238085,-3.6925893659301963,-2.193492226455828,0.007945569365291644,-0.0012692106528113386,-0.5637255434853795
9162,1.0,299.35514,24800.472,0.0,-0.09162015261002643,0.0,0.0,0.0,0.0,-1.6230601832085685,-3.6990764970454264,-2.216587539960158,-0.002879824071791507,-0.004146012300879556,-0.5693786988408024
9163,1.0,299.20025,24743.964,0.0,-0.09163014859744578,0.0,0.0,0.0,0.0,-1.6251412975889585,-3.6916345803609665,-2.2047713212689874,-0.007045763455762713,-0.009805913875468352,-0.5597325376238005
9164,1.0,299.6569,24481.536,0.0,-0.09164014458486502,0.0,0.0,0.0,0.0,-1.5723385044027287,-3.670168876992467,-2.1992681573258683,-0.008910091862682601,-0.01898110469228918,-0.5580426188420184
9165,1.0,300.2227,24635.917,0.0,-0.09165014057228438,0.0,0.0,0.0,0.0,-1.5978622744217286,-3.6649410131015165,-2.225900524279278,-0.003998730420668966,-0.019115184025021784,-0.5504497380251594
9166,1.0,300.2228,24876.463,0.0,-0.09166013655970362,0.0,0.0,0.0,0.0,-1.6261141190099684,-3.6818128431666364,-2.2538966245422776,0.0002796124344630987,0.004343134534959006,-0.5494688004708485
9167,1.0,300.00097999999997,24687.252,0.0,-0.09167013254712297,0.0,0.0,0.0,0.0,-1.6253966366141586,-3.6683522208881763,-2.210559309815218,0.0036089449622251366,0.005010575852055336,-0.5547460400391715
9168,1.0,299.84206,24421.722,0.0,-0.09168012853454233,0.0,0.0,0.0,0.0,-1.5732674520944085,-3.6612690960641268,-2.189056926793098,-0.018435891025480784,0.006017916677472135,-0.5656499688703055
9169,1.0,299.90116,24633.397,0.0,-0.09169015751201892,0.0,0.0,0.0,0.0,-1.6159416959560287,-3.676137122731486,-2.1958588747143977,-0.012245834707069789,0.002728202846702657,-0.5788758717631004
9170,1.0,300.26161,24885.355,0.0,-0.09170015349943839,0.0,0.0,0.0,0.0,-1.6162788042642986,-3.691970067469076,-2.256277660952268,-0.01037951110937799,-0.0028309367809667076,-0.5596733030229545
9171,1.0,300.00935,24717.888,0.0,-0.09171014948685774,0.0,0.0,0.0,0.0,-1.6058247990075685,-3.6776361249294265,-2.230159721074628,-0.01019118236629139,0.0031182823503255073,-0.5550668856833365
9172,1.0,299.44101,24502.148999999998,0.0,-0.09172014547427698,0.0,0.0,0.0,0.0,-1.5579795345856087,-3.6769942309910766,-2.2130677117627777,-0.00972065860675431,-0.015641936961238983,-0.5595417527624714
9173,1.0,299.67998,24557.876,0.0,-0.09173014146169634,0.0,0.0,0.0,0.0,-1.6103275811269586,-3.6672687525562466,-2.187384760153068,-0.008839161518582321,-0.013346309428678186,-0.5478855363945925
9174,1.0,299.88933,24698.605,0.0,-0.09174013744911558,0.0,0.0,0.0,0.0,-1.6080543545276085,-3.6738053302763563,-2.225899612354188,0.006729521614752073,0.008509725438744512,-0.5705973752660765
9175,1.0,299.55675,24797.368,0.0,-0.09175013343653493,0.0,0.0,0.0,0.0,-1.6469693391932185,-3.6848310112395066,-2.205980229963298,0.01222797921380759,0.012941556543732188,-0.5503716367074515
9176,1.0,298.87566,24675.394,0.0,-0.09176012942395428,0.0,0.0,0.0,0.0,-1.6021043472903884,-3.6599307953320466,-2.2386685901143877,0.0072939035416522335,0.011286267610617889,-0.5650149143701305
9177,1.0,299.84733,24448.369,0.0,-0.09177015840143088,0.0,0.0,0.0,0.0,-1.5796894312282086,-3.6580764463240367,-2.193927721348808,0.002902740344003167,0.0014609499957345387,-0.5544559364030405
9178,1.0,300.15361,24523.978,0.0,-0.09178015438885045,0.0,0.0,0.0,0.0,-1.5830350817333985,-3.669250264451807,-2.2023916020841274,0.015656801340205986,0.007560573742720534,-0.5713807898458935
9179,1.0,300.58945,24899.06,0.0,-0.0917901503762697,0.0,0.0,0.0,0.0,-1.6496790739356484,-3.6930589060265366,-2.2259543278595877,-0.015343992795834184,0.005744775861265234,-0.5595893957821735
9180,1.0,300.36921,24893.089,0.0,-0.09180014636368883,0.0,0.0,0.0,0.0,-1.6322246250630283,-3.7056031449145563,-2.2290498069150875,-0.016647377942718283,-0.006463794850851884,-0.5747008659185594
9181,1.0,299.84076,24615.54,0.0,-0.09181014235110829,0.0,0.0,0.0,0.0,-1.6022973714344384,-3.6719247380907567,-2.2082871977909777,-0.013918329640132185,-0.0017821939485138485,-0.5548486012142935
9182,1.0,299.91312,24660.891,0.0,-0.09182013833852742,0.0,0.0,0.0,0.0,-1.5925176841192585,-3.676950154611726,-2.226827242820738,0.013901807584001587,0.006695323410626974,-0.5537329520591875
9183,1.0,300.04247000000004,24860.232999999997,0.0,-0.09183013432594689,0.0,0.0,0.0,0.0,-1.6198524360419884,-3.681803419940707,-2.255234114674278,0.03048747555587957,0.01163638807667209,-0.5398386688704285
9184,1.0,299.68231000000003,24781.654,0.0,-0.09184013031336624,0.0,0.0,0.0,0.0,-1.6048726478885986,-3.683348322368176,-2.2447830478428377,0.01933449390316598,-0.024116844897397276,-0.5416567637898605
9185,1.0,299.04706,24694.189,0.0,-0.09185012630078548,0.0,0.0,0.0,0.0,-1.6118284071750784,-3.6921989606666665,-2.202389474258918,0.005097956919479175,-0.01065182207375299,-0.5673468993427795
9186,1.0,299.37757,24631.533,0.0,-0.09186015527826241,0.0,0.0,0.0,0.0,-1.6195536285874985,-3.668559633183646,-2.199257720849838,0.006186981408332524,0.002383107493194398,-0.5637136884592094
9187,1.0,299.67082,24622.384,0.0,-0.09187015126568165,0.0,0.0,0.0,0.0,-1.6254439553938285,-3.6772681124931066,-2.181877745859568,0.004751037918440936,0.013649998722149987,-0.5861146520675125
9188,1.0,300.2145,24778.706000000002,0.0,-0.09188014725310079,0.0,0.0,0.0,0.0,-1.6106498959837685,-3.690812125254797,-2.230645777147598,-0.013666026312231787,-0.009142079120777961,-0.5768097838816935
9189,1.0,300.36498,24829.622000000003,0.0,-0.09189014324052025,0.0,0.0,0.0,0.0,-1.6266010870080285,-3.6930352972992067,-2.2279485053813977,-0.02060467687077328,-0.006408077545078015,-0.5697175094092405
9190,1.0,300.15377,24644.866,0.0,-0.09190013922793938,0.0,0.0,0.0,0.0,-1.5753968985045685,-3.696545094320596,-2.2194820915208275,0.011913225229243788,-0.014563777046582885,-0.5794609426358425
9191,1.0,300.06178,24684.697999999997,0.0,-0.09191013521535896,0.0,0.0,0.0,0.0,-1.6165247200635684,-3.6839551578530667,-2.203051937174298,0.005330302969434944,0.0016475561123261285,-0.5586678042862194
9192,1.0,300.03525,24913.822999999997,0.0,-0.0919201312027782,0.0,0.0,0.0,0.0,-1.6196200977940585,-3.696618960252886,-2.2569409344677274,0.018635047359135983,-0.009610141594497131,-0.5436535656294295
9193,1.0,299.93138999999996,24952.905,0.0,-0.09193012719019733,0.0,0.0,0.0,0.0,-1.6320620997469883,-3.7177712653654567,-2.235226680849698,-0.0015298424912336987,0.01023537121640249,-0.5454993830715975
9194,1.0,299.49205,24741.609,0.0,-0.09194015616767437,0.0,0.0,0.0,0.0,-1.5801985894034587,-3.701387416548496,-2.239245433396318,0.0067284286218692035,0.012864989286675588,-0.5488135012336754
9195,1.0,299.69665,24613.248,0.0,-0.0919501521550935,0.0,0.0,0.0,0.0,-1.5991538643241985,-3.689205110596197,-2.193453925602048,-0.004195538243242386,0.004847293739515646,-0.5537015615710895
9196,1.0,299.99591000000004,24771.165,0.0,-0.09196014814251274,0.0,0.0,0.0,0.0,-1.6038880727664284,-3.6987930909924565,-2.227134358926048,-0.015307731614505484,-0.017327342727075586,-0.5568524654070595
9197,1.0,300.38883,24858.742000000002,0.0,-0.0919701441299321,0.0,0.0,0.0,0.0,-1.6400224965076182,-3.7045852338640968,-2.211829216165548,-0.017235467287508185,-0.009166869703024601,-0.5817616384454034
9198,1.0,299.48426,24827.313,0.0,-0.09198014011735156,0.0,0.0,0.0,0.0,-1.6090196778978785,-3.7026603626491266,-2.2352031734473776,0.005306435255379385,-0.007775913200347882,-0.5669389243225155
9199,1.0,299.94745,24689.292999999998,0.0,-0.09199013610477091,0.0,0.0,0.0,0.0,-1.6128638474522683,-3.666827988762747,-2.225236642813758,0.004370722802056757,0.02295767867699648,-0.5846607192340205
9200,1.0,300.29506000000003,24682.937,0.0,-0.09200013209219016,0.0,0.0,0.0,0.0,-1.5876438498132486,-3.6695648786078565,-2.2457877866419977,0.005914586445524235,-0.002170681534904588,-0.5588417590633875
9201,1.0,300.92576,24948.033,0.0,-0.09201012807960929,0.0,0.0,0.0,0.0,-1.6349315227051784,-3.697162872906566,-2.2514846840042377,-0.0006887360547754563,0.0062994671655340045,-0.5788179442548834
9202,1.0,300.60832999999997,25031.028,0.0,-0.09202015705708633,0.0,0.0,0.0,0.0,-1.6401130810665585,-3.689066194007486,-2.279628313481798,-0.0038114308357089363,-0.009813794934746151,-0.5446272888430285
9203,1.0,300.73191,24806.791,0.0,-0.09203015304450546,0.0,0.0,0.0,0.0,-1.6277771663990985,-3.6960740343491065,-2.2167938376805183,0.0033220073273565968,0.001947358173114288,-0.5635195801375524
9204,1.0,300.07732000000004,24676.48,0.0,-0.0920401490319247,0.0,0.0,0.0,0.0,-1.5982952361894587,-3.6769773097144065,-2.225761303715538,-0.0021960757102357977,-0.01024746942259649,-0.5410786032828004
9205,1.0,299.73386,24865.44,0.0,-0.09205014501934405,0.0,0.0,0.0,0.0,-1.6224315628465285,-3.7053609781406562,-2.2306802276509976,-0.00039610579846009866,0.01139518085061679,-0.5530374267930445
9206,1.0,299.82809,24939.662,0.0,-0.09206014100676341,0.0,0.0,0.0,0.0,-1.6157788666649586,-3.721627391271026,-2.243628044053848,0.015028824391979485,0.011583418401194388,-0.5783808484267455
9207,1.0,299.91375,24735.857000000004,0.0,-0.09207013699418287,0.0,0.0,0.0,0.0,-1.6053390469096285,-3.6972403865392165,-2.216503541526868,0.0008680105469559711,0.023395230467679478,-0.5747935175077035
9208,1.0,299.21759,24609.379,0.0,-0.092080132981602,0.0,0.0,0.0,0.0,-1.6004522430023382,-3.678932781082396,-2.201251493071608,0.004486833258840965,-0.005685556661820755,-0.5918674909677735
9209,1.0,299.69832,24785.047000000002,0.0,-0.09209012896902125,0.0,0.0,0.0,0.0,-1.6361866356040484,-3.684679125049517,-2.213169543397828,-0.016672327199930583,-0.0031732989936552264,-0.5686651681203825
9210,1.0,299.84712,24966.775,0.0,-0.09210015794649817,0.0,0.0,0.0,0.0,-1.6337550380140684,-3.6953091318486164,-2.260211908440548,-0.009023296216855001,-0.018518043317088582,-0.5793741273672744
9211,1.0,300.34155,24983.811,0.0,-0.09211015393391742,0.0,0.0,0.0,0.0,-1.6213119214860285,-3.709158842165476,-2.2639840359128276,-0.009227770087035,-0.012351695024517387,-0.5540173105672515
9212,1.0,300.22606,24809.595,0.0,-0.09212014992133666,0.0,0.0,0.0,0.0,-1.5853653543133785,-3.693122639457826,-2.2630092893166274,-0.01110892959136599,-0.007145469596077942,-0.5591598081372765
9213,1.0,300.21188,24789.092,0.0,-0.09213014590875601,0.0,0.0,0.0,0.0,-1.6063466228090684,-3.7022017656538666,-2.226716494584808,0.0035812945828962565,0.009151923757424551,-0.5537501165158815
9214,1.0,299.83747,25049.446,0.0,-0.09214014189617536,0.0,0.0,0.0,0.0,-1.6400694099872484,-3.7269127064426466,-2.2474239829034777,0.015040083627090684,0.006564976283312713,-0.5548591086178304
9215,1.0,300.45477999999997,25073.287,0.0,-0.09215013788359472,0.0,0.0,0.0,0.0,-1.6603445444882485,-3.7118969479107067,-2.249411675624648,0.03319803001764047,0.016703817999788484,-0.5588464605438515
9216,1.0,300.2458,24685.209,0.0,-0.09216013387101396,0.0,0.0,0.0,0.0,-1.5821822291242285,-3.7055665665859467,-2.2159382492960775,0.016594255266475483,-0.0022150581402592177,-0.5763075766021295
9217,1.0,300.24935,24579.478,0.0,-0.0921701298584332,0.0,0.0,0.0,0.0,-1.5739544356622086,-3.677122103153697,-2.2204711249434377,0.007741569088208383,0.0006568504318835904,-0.5646556564146744
9218,1.0,299.66992999999997,24825.546000000002,0.0,-0.09218015883591013,0.0,0.0,0.0,0.0,-1.5935769357737983,-3.696876427103297,-2.255892828564288,-0.007322451153944664,-0.010093966186771901,-0.5751253569154534
9219,1.0,299.92449,24958.741,0.0,-0.09219015482332937,0.0,0.0,0.0,0.0,-1.6371369628728385,-3.7178711718253163,-2.231826010864078,-0.015893922128607987,0.009300813361568811,-0.5647484701238344
9220,1.0,300.06987999999996,24882.476000000002,0.0,-0.09220015081074873,0.0,0.0,0.0,0.0,-1.6345718189196785,-3.700535070564376,-2.228544499090218,-0.01022889148201299,-0.011396178901965289,-0.5808704748499524
9221,1.0,300.08513999999997,24859.814,0.0,-0.09221014679816808,0.0,0.0,0.0,0.0,-1.6482670085962883,-3.696676512858567,-2.211819083664548,0.0013076237747024187,-0.006135155793542734,-0.5601995648598925
9222,1.0,300.37324,24846.554,0.0,-0.09222014278558732,0.0,0.0,0.0,0.0,-1.6050946509855086,-3.707551320881826,-2.240086025679278,0.01065802721736539,9.37659818689819e-05,-0.5782113114200135
9223,1.0,299.9131,24907.549,0.0,-0.09223013877300668,0.0,0.0,0.0,0.0,-1.6155645642688086,-3.712574406927567,-2.243133780655068,0.01918244457990988,0.0005283765405592045,-0.5631425700403444
9224,1.0,299.28246,25055.526,0.0,-0.09224013476042592,0.0,0.0,0.0,0.0,-1.5977411910347785,-3.7351123315518864,-2.2834008462541178,0.019076106008415084,0.005280018102747214,-0.5752932524570235
9225,1.0,299.84164,24941.845,0.0,-0.09225013074784505,0.0,0.0,0.0,0.0,-1.6360984828453484,-3.7117203384182766,-2.2338791595417082,-0.008578349422967172,0.012570104123322687,-0.5623144407336145
9226,1.0,299.9283,24701.217999999997,0.0,-0.09226012673526451,0.0,0.0,0.0,0.0,-1.5938945896801484,-3.695591524651486,-2.219067266929888,-0.011540447477703488,0.0013252600006429787,-0.5676124417964864
9227,1.0,300.26977999999997,24800.543999999998,0.0,-0.09227015571274133,0.0,0.0,0.0,0.0,-1.6415715532604984,-3.6911152896847166,-2.206059162146088,-0.02340779983516998,0.01749194824557088,-0.5709258608159954
9228,1.0,300.00955,24963.153,0.0,-0.09228015170016068,0.0,0.0,0.0,0.0,-1.5992135447550884,-3.7165084517658262,-2.272453185548668,-0.01040204781810219,0.019519243846899383,-0.5650017015888265
9229,1.0,300.43003999999996,24894.945,0.0,-0.09229014768758004,0.0,0.0,0.0,0.0,-1.6228280476106585,-3.7175800650715862,-2.227033540541098,-0.0007057923470212814,0.005883628209918895,-0.5790609317613644
9230,1.0,300.29647,24985.333,0.0,-0.09230014367499928,0.0,0.0,0.0,0.0,-1.6118156402238184,-3.7107757866750566,-2.272325921336108,-0.0036248202608169062,-0.0008016304557422663,-0.5482373469618135
9231,1.0,300.04241,25090.876,0.0,-0.09231013966241863,0.0,0.0,0.0,0.0,-1.6728939509517784,-3.715810626421957,-2.238295308777548,-0.01267780652945209,0.001012157998777217,-0.5688669974078014
9232,1.0,299.28283,25053.802000000003,0.0,-0.09232013564983788,0.0,0.0,0.0,0.0,-1.6366150377463284,-3.7303415447810466,-2.2487736320366776,-0.0013134281779002687,-0.005907232884248494,-0.5518212024330125
9233,1.0,299.80973,25134.672000000002,0.0,-0.092330131637257,0.0,0.0,0.0,0.0,-1.6655454559265384,-3.7243824182929264,-2.250384699695678,-0.006554704257773943,-0.014348631626349686,-0.5772487643550175
9234,1.0,299.2316,25097.625,0.0,-0.09234012762467658,0.0,0.0,0.0,0.0,-1.6339712655854086,-3.7066629031941467,-2.2884171435241876,0.0016238458573361084,-0.013374546682464987,-0.5559623353267105
9235,1.0,299.6286,24759.301,0.0,-0.09235015660215318,0.0,0.0,0.0,0.0,-1.6119421951613087,-3.693757339320466,-2.220509729772248,0.008649983063961862,-0.016845135991235483,-0.5782560970744335
9236,1.0,300.28635,24709.428,0.0,-0.09236015258957264,0.0,0.0,0.0,0.0,-1.5826065782661085,-3.6923877291602962,-2.236054607506408,0.016095816264033384,-0.0027864732387534973,-0.5578049812960655
9237,1.0,299.95224,24907.725,0.0,-0.092370148576992,0.0,0.0,0.0,0.0,-1.6325337676685383,-3.7144628011389367,-2.224329783974258,0.009205520634714151,-0.0025783348482618373,-0.5660195518442804
9238,1.0,299.76567,24968.396,0.0,-0.09238014456441124,0.0,0.0,0.0,0.0,-1.6211442285944786,-3.7177834243666563,-2.2508411688657275,-0.0033825378750804965,0.011755147067892689,-0.5502784582282555
9239,1.0,300.35168999999996,24850.47,0.0,-0.09239014055183059,0.0,0.0,0.0,0.0,-1.6189575335536686,-3.7171127541254663,-2.2178520760849576,-0.008149611489604034,0.019670065111034283,-0.5739023336472504
9240,1.0,299.93174,24866.042,0.0,-0.09240013653924972,0.0,0.0,0.0,0.0,-1.5857754166288485,-3.7340400089710566,-2.238840234681328,-0.008616833978990303,0.024118602886320777,-0.5777100768605455
9241,1.0,300.79161,25053.696,0.0,-0.09241013252666919,0.0,0.0,0.0,0.0,-1.6301070336790384,-3.7292705394253467,-2.2563203187814778,-0.00957239407659674,-0.014441797946544486,-0.5617134111717974
9242,1.0,300.82473999999996,25134.673,0.0,-0.09242012851408854,0.0,0.0,0.0,0.0,-1.6301867764619085,-3.7455339128054166,-2.264592391272868,-0.016878688755046885,-0.026073839180287574,-0.5655499306879325
9243,1.0,300.38496000000004,25064.592999999997,0.0,-0.09243015749156536,0.0,0.0,0.0,0.0,-1.6655454559265384,-3.7203348894434667,-2.233130063742778,0.007407250460113703,-0.030217247833710173,-0.5626524407019724
9244,1.0,300.437,24935.2,0.0,-0.09244015347898449,0.0,0.0,0.0,0.0,-1.6211373384937984,-3.7002805421392564,-2.2582603887479475,0.01894604117257868,-0.0029391467240711972,-0.5764773365238834
9245,1.0,300.62786,24775.779,0.0,-0.09245014946640395,0.0,0.0,0.0,0.0,-1.5972802635642882,-3.7067339320261565,-2.2272041718579376,0.03160901878681727,0.003770196926864466,-0.5689128165773234
9246,1.0,299.80724,24945.775,0.0,-0.09246014545382308,0.0,0.0,0.0,0.0,-1.5935384322699986,-3.7176928398077167,-2.271661330595518,0.017015181649517683,0.008512413388609792,-0.5803239784085175
9247,1.0,299.82695,25230.03,0.0,-0.09247014144124255,0.0,0.0,0.0,0.0,-1.6586054020166083,-3.732444444038586,-2.278249280095698,0.03077571481182657,0.008268751462862232,-0.5526655538738434
9248,1.0,299.73039,24880.993,0.0,-0.09248013742866168,0.0,0.0,0.0,0.0,-1.6094463575149884,-3.7199731591577665,-2.233780975607018,-0.0074052267970139835,0.003343190131297177,-0.5638214881373484
9249,1.0,299.95136,24780.575,0.0,-0.09249013341608114,0.0,0.0,0.0,0.0,-1.6097028111152984,-3.7226122703682263,-2.2003610488837277,-0.008270991150883271,-0.017449405926872285,-0.5285008562139735
9250,1.0,300.25762000000003,25220.051,0.0,-0.0925001294035005,0.0,0.0,0.0,0.0,-1.6422760660550284,-3.7488761182602666,-2.275113676336238,-0.029203247928636173,-0.004002168580908286,-0.5473585855475865
9251,1.0,299.97686,25432.871,0.0,-0.09251015838097731,0.0,0.0,0.0,0.0,-1.6846019545322684,-3.7618017444859264,-2.284554026192928,0.002329856539488938,0.017679420792322983,-0.5436985640663705
9252,1.0,300.3042,25103.637000000002,0.0,-0.09252015436839645,0.0,0.0,0.0,0.0,-1.6234289049199586,-3.7343247322491564,-2.273125071689978,-0.01014106498984519,0.027485377629595575,-0.5836934909535625
9253,1.0,300.74124,24930.407000000003,0.0,-0.0925301503558158,0.0,0.0,0.0,0.0,-1.6206372995694485,-3.7258165724844665,-2.2317673436832877,0.004349888353500556,0.00024058000397839772,-0.5711950408375615
9254,1.0,300.4913,24885.782000000003,0.0,-0.09254014634323504,0.0,0.0,0.0,0.0,-1.6183114852899085,-3.7074750231492963,-2.238869720259238,0.0008821121613801923,-0.0073065508280754235,-0.5881703541353944
9255,1.0,299.70018999999996,24996.061,0.0,-0.0925501423306544,0.0,0.0,0.0,0.0,-1.6432322701743984,-3.7198931123998666,-2.235052908457548,0.02982752043449707,-0.02282945289009158,-0.5922998346529424
9256,1.0,299.97482,24976.231,0.0,-0.09256013831807386,0.0,0.0,0.0,0.0,-1.6204698093279184,-3.7175760120711865,-2.254104746112818,0.003126762139087397,-0.0046311255446315055,-0.5903209369426404
9257,1.0,299.64102,24787.581000000002,0.0,-0.09257013430549299,0.0,0.0,0.0,0.0,-1.6153158113692585,-3.7096028483592964,-2.2098870183738684,0.001915001753695958,-0.015844904128520285,-0.5792214508422064
9258,1.0,299.75433,24733.049,0.0,-0.09258013029291245,0.0,0.0,0.0,0.0,-1.5679120200158685,-3.728548598729097,-2.221768693021498,-0.013367596800029087,0.014815713577947087,-0.5793639948662744
9259,1.0,300.21647,25238.256,0.0,-0.09259015927038916,0.0,0.0,0.0,0.0,-1.6655827435302184,-3.7594936620831363,-2.246723219134318,-0.005738382151809224,0.024016948570038273,-0.5695549942257014
9260,1.0,299.79192,25571.166,0.0,-0.0926001552578084,0.0,0.0,0.0,0.0,-1.6934140893269585,-3.7656128820870562,-2.313968980570958,0.0008520731158680692,0.03586543117089246,-0.5286859668747425
9261,1.0,299.83366,25171.264,0.0,-0.09261015124522776,0.0,0.0,0.0,0.0,-1.6603437338881684,-3.731124483133317,-2.2599674111914183,-0.0046443009370068155,0.003047020369467497,-0.5436409506656845
9262,1.0,300.69241,24911.057999999997,0.0,-0.092620147232647,0.0,0.0,0.0,0.0,-1.5849674509991085,-3.7378019026173264,-2.2495702492652976,-0.004806800617819285,0.007683286131856303,-0.5383044258340105
9263,1.0,300.53655,25102.731,0.0,-0.09263014322006635,0.0,0.0,0.0,0.0,-1.6463342340305382,-3.718015154664527,-2.266254121436868,-0.00029846127759333474,-0.006084587824777063,-0.5690843598192534
9264,1.0,300.30361,25249.089,0.0,-0.0926401392074857,0.0,0.0,0.0,0.0,-1.6428755048141883,-3.748209703669496,-2.284007276438968,-0.004325381582606926,0.006294101600954463,-0.5836056928323975
9265,1.0,300.48742000000004,24908.377999999997,0.0,-0.09265013519490495,0.0,0.0,0.0,0.0,-1.6496984270125585,-3.7074439163712265,-2.214382707742558,-0.01934115095632298,-0.02425406327893968,-0.6027493613442304
9266,1.0,300.24401,24775.625,0.0,-0.0926601311823243,0.0,0.0,0.0,0.0,-1.6045773868094586,-3.7018414539183064,-2.224752410590968,-0.009894511045662212,-0.005632341070543785,-0.5860063052343194
9267,1.0,299.90627,24910.369,0.0,-0.09267016015980112,0.0,0.0,0.0,0.0,-1.6304927779921086,-3.7235162921074467,-2.218121093986508,0.005307296315314365,-0.009505378322932802,-0.5916671106279974
9268,1.0,299.67321,25159.556,0.0,-0.09268015614722036,0.0,0.0,0.0,0.0,-1.6309612035133383,-3.7413139287889363,-2.2756014549343777,0.009311830125931082,0.002867144766665157,-0.5701490526268305
9269,1.0,299.78028,25342.37,0.0,-0.09269015213463971,0.0,0.0,0.0,0.0,-1.6640354093025085,-3.7607798817600764,-2.278632389958508,0.008657914887069672,-0.018469680889815585,-0.5514712866434784
9270,1.0,299.84272000000004,25169.411,0.0,-0.09270014812205896,0.0,0.0,0.0,0.0,-1.6281847969143286,-3.7433629231411567,-2.2793246424268276,0.008074436336859822,0.004957820782948815,-0.5444572046812425
9271,1.0,299.47445,24905.111,0.0,-0.09271014410947831,0.0,0.0,0.0,0.0,-1.6078417746566285,-3.7383728690486757,-2.224317422323038,0.0003572153445794097,0.015220363111382886,-0.5727134569074175
9272,1.0,299.84783999999996,25132.241,0.0,-0.09272014009689766,0.0,0.0,0.0,0.0,-1.6264622717443284,-3.7513925248836166,-2.261718813989268,0.0002991055324044177,0.020994702165515782,-0.5598653341819064
9273,1.0,300.31557000000004,25353.11,0.0,-0.0927301360843169,0.0,0.0,0.0,0.0,-1.6732180896587685,-3.7460057833769866,-2.2874884998075378,-0.00955132931629281,-0.012803456634602788,-0.5618154657218695
9274,1.0,300.05101,25037.816000000003,0.0,-0.09274013207173626,0.0,0.0,0.0,0.0,-1.6166447902004184,-3.7398383326683065,-2.254387746865748,-0.012728112370416886,-0.0002799227625712258,-0.5643465948691725
9275,1.0,300.12611,24824.968999999997,0.0,-0.0927501280591555,0.0,0.0,0.0,0.0,-1.6001533342228385,-3.7161782335582365,-2.2298392300679977,0.01084891036395409,-0.017449948015675783,-0.5854587347477784
9276,1.0,300.75872999999996,25106.248,0.0,-0.09276015703663232,0.0,0.0,0.0,0.0,-1.6402528082553485,-3.7197091061817065,-2.2717106758753878,0.0034501565125539366,0.005567738270667985,-0.5770315944610844
9277,1.0,300.34562,25283.557999999997,0.0,-0.09277015302405167,0.0,0.0,0.0,0.0,-1.6680833434520086,-3.7401045134695763,-2.2773825459601578,0.002217911756515848,-0.01138638077349829,-0.5576879002470105
9278,1.0,300.05737,25128.332000000002,0.0,-0.0927801490114708,0.0,0.0,0.0,0.0,-1.6455445069025985,-3.732806984924367,-2.2600338803979776,-0.005040735646581875,0.0033539925932632966,-0.5635328233163595
9279,1.0,300.34053,25121.275,0.0,-0.09279014499889038,0.0,0.0,0.0,0.0,-1.6425761907346486,-3.741845986416446,-2.2518181446121477,0.006626843409243524,0.008400863165225642,-0.5593653357875604
9280,1.0,299.41607999999997,25122.014,0.0,-0.09280014098630962,0.0,0.0,0.0,0.0,-1.6336443911031484,-3.749355182907546,-2.253465283974708,-0.001733813586714078,0.005887317656183015,-0.5754081854158665
9281,1.0,299.33695,25139.449,0.0,-0.09281013697372886,0.0,0.0,0.0,0.0,-1.6388811715949785,-3.7416080752929664,-2.261275618395528,0.004304318848803196,-0.015054273181491088,-0.5484245955802936
9282,1.0,300.4614,25294.255,0.0,-0.09282013296114822,0.0,0.0,0.0,0.0,-1.6447035093195983,-3.7687758435992165,-2.275342468208818,-0.014445981656207387,-0.010212839573928791,-0.5789313674710774
9283,1.0,299.7836,25156.68,0.0,-0.09283012894856746,0.0,0.0,0.0,0.0,-1.6434254969684685,-3.741169540649686,-2.2624074187572276,0.012403571403137187,0.006478204584499014,-0.5586463233840995
9284,1.0,299.89887000000004,24932.028,0.0,-0.09284015792604416,0.0,0.0,0.0,0.0,-1.6072136609196384,-3.7462769291037463,-2.225223369237448,-0.01762984651793038,0.01021800613618869,-0.5950085460127715
9285,1.0,300.68102000000005,25095.6,0.0,-0.09285015391346363,0.0,0.0,0.0,0.0,-1.6391649829479884,-3.7351594476815366,-2.254111230913458,-0.008445968094752152,0.01932838299181288,-0.5645506127768075
9286,1.0,300.54566,25256.543999999998,0.0,-0.09286014990088298,0.0,0.0,0.0,0.0,-1.6671132578062684,-3.742905643371026,-2.267339818919018,-0.01964748584580588,0.00897940779539855,-0.5875986378989705
9287,1.0,299.75408,25130.139,0.0,-0.09287014588830234,0.0,0.0,0.0,0.0,-1.6339661993349086,-3.7527774351202963,-2.252191121973958,0.002023736560352248,0.006678142133981313,-0.5761618611052485
9288,1.0,300.17073,25054.034,0.0,-0.09288014187572158,0.0,0.0,0.0,0.0,-1.6259622328199783,-3.727886743763776,-2.261951861512268,-0.009918512002105922,-0.004929814043559765,-0.5816934365811725
9289,1.0,299.98097,25183.275,0.0,-0.09289013786314071,0.0,0.0,0.0,0.0,-1.6402094411510684,-3.740451450303817,-2.274425882168358,0.007699515865333053,-0.01107952507346399,-0.5544838007807905
9290,1.0,299.9453,25183.761000000002,0.0,-0.09290013385056017,0.0,0.0,0.0,0.0,-1.6530100323143884,-3.7428374516392964,-2.259387122859148,0.00958558031074812,-0.0073081904693872435,-0.5657675768094125
9291,1.0,300.1792,25237.533,0.0,-0.0929101298379793,0.0,0.0,0.0,0.0,-1.6518896816788184,-3.7582940752897462,-2.2613962964824377,0.00975950296788795,0.015300776665819086,-0.5813857226583035
9292,1.0,299.54712,25252.022999999997,0.0,-0.09292015881545612,0.0,0.0,0.0,0.0,-1.6526861975824285,-3.7677305747960563,-2.2555675752821878,0.017210414678785684,0.02124045381826958,-0.5773354175035694
9293,1.0,299.16677000000004,25129.125,0.0,-0.09293015480287548,0.0,0.0,0.0,0.0,-1.6327441183892986,-3.742218254503186,-2.263664051531248,-0.0023109615529491477,-0.010816963601551188,-0.5797901374608314
9294,1.0,299.89352,25132.575,0.0,-0.09294015079029494,0.0,0.0,0.0,0.0,-1.6160642992181284,-3.750830373728136,-2.272780364005958,-0.00034272275747160264,-0.01924269547060618,-0.5529965117540064
9295,1.0,299.7922,25153.586,0.0,-0.0929501467777143,0.0,0.0,0.0,0.0,-1.6247499804003385,-3.7460321278795865,-2.275279849352638,-0.018821650537302285,-0.014649684443061287,-0.5782812763394184
9296,1.0,299.88613,25122.246,0.0,-0.09296014276513354,0.0,0.0,0.0,0.0,-1.6363726683224087,-3.7305165330733168,-2.269646280121648,0.005583125284036564,-0.006904316477577983,-0.5512815251647505
9297,1.0,300.24838,25092.584,0.0,-0.09297013875255267,0.0,0.0,0.0,0.0,-1.6390560585622382,-3.7322805001724064,-2.2561825167678777,-0.026374011482662274,0.0023378525013280776,-0.5844270333634575
9298,1.0,300.21084,25269.248,0.0,-0.09298013473997213,0.0,0.0,0.0,0.0,-1.6582515750816884,-3.7441836557221566,-2.278784985423568,0.0053934981622718245,0.008451271243125532,-0.5643044132675095
9299,1.0,300.44028,25360.403,0.0,-0.09299013072739148,0.0,0.0,0.0,0.0,-1.6724531871582786,-3.747721317121296,-2.2887546571324977,-0.006210738880777204,0.017765256248044283,-0.5820335542422395
9300,1.0,300.3534,25231.147999999997,0.0,-0.09300015970486808,0.0,0.0,0.0,0.0,-1.6360023254108587,-3.749044419101876,-2.2845921243966876,0.028151382867325176,0.0018297948170116884,-0.5612081236119295
9301,1.0,299.21976,25064.551,0.0,-0.09301015569228743,0.0,0.0,0.0,0.0,-1.6195101601582087,-3.7483882383371165,-2.2510991423411877,0.012136368232516289,-0.023604967158878876,-0.5746664762101654
9302,1.0,299.59078,25256.639,0.0,-0.09302015167970679,0.0,0.0,0.0,0.0,-1.6410221690562785,-3.7731123513771965,-2.263253077290688,0.017019341041178183,-0.028874361131677573,-0.5649269642614504
9303,1.0,299.4362,25242.653,0.0,-0.09303014766712625,0.0,0.0,0.0,0.0,-1.6577304605552585,-3.7630899906630666,-2.252315650411248,0.008272394502271772,0.009177632040286762,-0.5916918845929424
9304,1.0,299.62689,25128.408,0.0,-0.09304014365454538,0.0,0.0,0.0,0.0,-1.6446640938907087,-3.7482366561221565,-2.2455079269643776,0.014216381210047589,0.009102679295939501,-0.5709129114797175
9305,1.0,299.77782,25082.646,0.0,-0.09305013964196462,0.0,0.0,0.0,0.0,-1.6453160190050484,-3.7410199849349257,-2.238162167714408,-0.013243656047797089,0.015539875318416286,-0.5681434963063975
9306,1.0,299.63749,25114.551,0.0,-0.09306013562938398,0.0,0.0,0.0,0.0,-1.6231325292657086,-3.739728192382436,-2.271335672013378,-0.0023598827876522973,0.0015856430861657886,-0.5549199542863354
9307,1.0,299.15398,25310.756,0.0,-0.09307013161680344,0.0,0.0,0.0,0.0,-1.6461808279653984,-3.7638734356403862,-2.2837835508168878,-0.002747134310246047,0.013794449682906185,-0.5744953382682754
9308,1.0,300.68236,25474.392000000003,0.0,-0.09308016059428004,0.0,0.0,0.0,0.0,-1.6652186827692885,-3.764745236026426,-2.3136151536360376,0.0022057988581953977,-0.003632677508717356,-0.5593613841121704
9309,1.0,299.99594,25264.31,0.0,-0.09309015658169961,0.0,0.0,0.0,0.0,-1.6421843669209784,-3.7627558207800864,-2.274779101153218,0.0015877071779444984,-0.012370710689144089,-0.5804119690472014
9310,1.0,299.78721,25113.346,0.0,-0.09310015256911874,0.0,0.0,0.0,0.0,-1.6257730590263086,-3.7614503493512466,-2.2466067966978276,-0.005350368563815266,-0.010041491889268091,-0.5893362604954604
9311,1.0,300.19221,25358.183999999997,0.0,-0.09311014855653821,0.0,0.0,0.0,0.0,-1.6672362663684084,-3.7615349557345965,-2.2794835200425076,-0.00925385205653409,0.008689364548973512,-0.5959302287012344
9312,1.0,300.31392,25406.926,0.0,-0.09312014454395734,0.0,0.0,0.0,0.0,-1.6603145522852882,-3.776991376735026,-2.2857650627124477,-0.0013124378272525287,-0.007802270571224152,-0.5647982814987504
9313,1.0,300.3935,25086.471,0.0,-0.09313014053137658,0.0,0.0,0.0,0.0,-1.6153015245428484,-3.7583891181491267,-2.251970132127148,0.0008477272253941632,-0.011039135911227889,-0.5599802164782445
9314,1.0,300.68065,25073.334,0.0,-0.09314013651879594,0.0,0.0,0.0,0.0,-1.6166339484243484,-3.7580475515404164,-2.246985954885248,0.01060302597543719,-0.00970051266164106,-0.5701096675954435
9315,1.0,300.23900000000003,25380.97,0.0,-0.09315013250621529,0.0,0.0,0.0,0.0,-1.6655276227247784,-3.781014080957036,-2.2686395148222878,0.01082355276695149,0.017736087817415584,-0.5664315292024396
9316,1.0,299.74272,25422.837000000003,0.0,-0.09316012849363475,0.0,0.0,0.0,0.0,-1.6791565458448485,-3.765127129989117,-2.283624065251148,-0.012771408547189887,-0.0029942029854798276,-0.5791459535772554
9317,1.0,299.94395,25372.592999999997,0.0,-0.09317015747111146,0.0,0.0,0.0,0.0,-1.6538112091684585,-3.7784994981838667,-2.280324011000458,-0.005117545779687445,0.017487632813394983,-0.5666566531096574
9318,1.0,299.80852000000004,25238.386000000002,0.0,-0.0931801534585307,0.0,0.0,0.0,0.0,-1.6341100808491085,-3.7578966786005266,-2.279832280726928,-0.00946306256695656,0.0035962365768209166,-0.5861725491782264
9319,1.0,299.8732,25258.065,0.0,-0.09319014944595005,0.0,0.0,0.0,0.0,-1.6387859260855786,-3.7543233507978666,-2.284711991883518,-0.0036143999967885067,0.011098578228344388,-0.5609344447599194
9320,1.0,300.04617,25347.735,0.0,-0.0932001454333693,0.0,0.0,0.0,0.0,-1.6604336091720382,-3.7624298582229168,-2.2822149383370776,-0.022821554605562077,-0.01934552617025478,-0.5840067473544784
9321,1.0,300.0644,25302.182,0.0,-0.09321014142078854,0.0,0.0,0.0,0.0,-1.6602219412261485,-3.753850872276236,-2.2771587190130678,-0.0006772404892109324,0.001201925577270819,-0.5542844134261125
9322,1.0,299.98225,25110.086,0.0,-0.09322013740820811,0.0,0.0,0.0,0.0,-1.6305901513267183,-3.754714667986486,-2.247534325839368,0.00900792460488794,-0.017313544287213784,-0.5922966631801295
9323,1.0,300.81479,25199.759,0.0,-0.09323013339562725,0.0,0.0,0.0,0.0,-1.6248360053338284,-3.7649243786441065,-2.2703371140398274,0.0016862640899963084,0.015367883206691984,-0.5743794731193405
9324,1.0,300.50172000000003,25404.347999999998,0.0,-0.0932401293830466,0.0,0.0,0.0,0.0,-1.6632990804548384,-3.769065025177756,-2.289923339797838,-0.003546806082617507,-0.020972721731096478,-0.5647149822080295
9325,1.0,300.4998,25425.495,0.0,-0.09325015836052342,0.0,0.0,0.0,0.0,-1.6486014824542985,-3.780790355334956,-2.2993236662755776,-0.015295505738798882,-0.00935459809542695,-0.5482129175019025
9326,1.0,300.37117,25264.046000000002,0.0,-0.09326015434794266,0.0,0.0,0.0,0.0,-1.6407987474092285,-3.7741589374054865,-2.264681557281668,0.01245468379118159,0.0074424804568156335,-0.5641091498407385
9327,1.0,299.7754,25348.262000000002,0.0,-0.09327015033536201,0.0,0.0,0.0,0.0,-1.6476438597847884,-3.7799862400555964,-2.277608703382478,0.008207689668110902,0.002261182298061318,-0.5679394581337605
9328,1.0,299.64347000000004,25500.607999999997,0.0,-0.09328014632278125,0.0,0.0,0.0,0.0,-1.6759860862819485,-3.7753251882705867,-2.3002370099157177,0.01091645260236999,0.002304798661865918,-0.5700708601166135
9329,1.0,299.85827,25388.572,0.0,-0.09329014231020061,0.0,0.0,0.0,0.0,-1.6462242963946883,-3.7739507145099362,-2.2973169244525273,-0.013097696357641986,0.0009379596191294072,-0.5862933893851524
9330,1.0,299.47392,25198.235,0.0,-0.09330013829761996,0.0,0.0,0.0,0.0,-1.6244775174484485,-3.7711945729129264,-2.263962251035678,0.019089062437443783,0.006296958358286404,-0.5933595524025285
9331,1.0,300.05194,25201.328999999998,0.0,-0.0933101342850392,0.0,0.0,0.0,0.0,-1.6324928323644985,-3.756325735645486,-2.2717562721298874,-0.006301286253438535,0.019699859730224784,-0.5921961386377085
9332,1.0,300.10857000000004,25263.583,0.0,-0.09332013027245856,0.0,0.0,0.0,0.0,-1.6518801571278785,-3.763028081081957,-2.264590263447658,0.018753991775124882,-0.001055484694643229,-0.5622439387916565
9333,1.0,300.07873,25347.674,0.0,-0.09333015924993537,0.0,0.0,0.0,0.0,-1.6647543102484585,-3.774084362198126,-2.2662213934586375,0.006122050011449295,-0.005026071587159646,-0.5772200285821815
9334,1.0,299.8896,25382.015,0.0,-0.09334015523735462,0.0,0.0,0.0,0.0,-1.6486400872831086,-3.7728549858517964,-2.294003799275548,0.010188525624529191,-0.002991369330250167,-0.5750771870056994
9335,1.0,299.52866,25289.557,0.0,-0.09335015122477397,0.0,0.0,0.0,0.0,-1.6338390364473585,-3.7808007918109867,-2.272754019503358,0.0026297098707321574,0.0004811186876177176,-0.5839897146202975
9336,1.0,299.09885,25366.481,0.0,-0.09336014721219321,0.0,0.0,0.0,0.0,-1.6462892457260985,-3.785924493591656,-2.2785631849766776,-0.002171702485705348,0.001941390535325328,-0.5787226582154795
9337,1.0,300.10472999999996,25558.476000000002,0.0,-0.09337014319961257,0.0,0.0,0.0,0.0,-1.6989761231008884,-3.783897182791576,-2.286265101636798,-0.007153306882951424,0.0091718255092637,-0.5678693108293374
9338,1.0,300.10754,25397.835,0.0,-0.09338013918703192,0.0,0.0,0.0,0.0,-1.6608789325909883,-3.786492521597717,-2.2729362018713375,0.0040051184559244165,0.005670980451182194,-0.5626337462376275
9339,1.0,300.59143,25204.478,0.0,-0.09339013517445116,0.0,0.0,0.0,0.0,-1.6342324814611884,-3.7704926945686568,-2.2568067801544878,0.0043537013149518656,0.0006310962893218545,-0.5736585152756875
9340,1.0,300.27452999999997,25370.089,0.0,-0.09340013116187051,0.0,0.0,0.0,0.0,-1.6365047961354484,-3.7772499581605463,-2.298118810581668,0.0018370337797011182,-0.015771478960023785,-0.5570091442700225
9341,1.0,300.63388,25513.023999999998,0.0,-0.09341016013934733,0.0,0.0,0.0,0.0,-1.6611356901663286,-3.7930973923745666,-2.3010892545748276,-0.0062128360045091745,-0.01134044609346489,-0.5826868371117134
9342,1.0,300.16337999999996,25341.811,0.0,-0.09342015612676646,0.0,0.0,0.0,0.0,-1.6484682400661483,-3.7750311430915664,-2.2797782744965978,-0.016565386757876385,0.0029079254487398972,-0.5850989499022704
9343,1.0,299.75415,25332.409,0.0,-0.09343015211418593,0.0,0.0,0.0,0.0,-1.6545339604647884,-3.7732084074866763,-2.2726773164707876,-0.009930333793672641,0.012871942208861788,-0.5882020891285265
9344,1.0,299.02297999999996,25398.859,0.0,-0.09344014810160506,0.0,0.0,0.0,0.0,-1.6689847307409682,-3.7807116258021862,-2.270922671272618,-0.01231503766239959,0.0090160079088857,-0.5551274172443105
9345,1.0,299.72925,25313.297000000002,0.0,-0.09345014408902452,0.0,0.0,0.0,0.0,-1.6377470407580486,-3.7832613683538265,-2.273601704537018,0.01745567895824138,0.004140530313863527,-0.5783089887296534
9346,1.0,299.67222000000004,25373.078999999998,0.0,-0.09346014007644388,0.0,0.0,0.0,0.0,-1.6243765977384883,-3.7958125986675366,-2.292593253811338,-0.018139951068773783,-0.006865699489766784,-0.5685582904998345
9347,1.0,300.13858,25448.711,0.0,-0.09347013606386312,0.0,0.0,0.0,0.0,-1.6426104385880285,-3.7899197387359562,-2.303242512362338,0.006067163976057464,-0.012470468201239388,-0.5741790319845584
9348,1.0,299.8191,25362.267999999996,0.0,-0.09348013205128247,0.0,0.0,0.0,0.0,-1.6443643745111285,-3.7932654905661565,-2.271866412415758,-0.025347030830557178,-0.0019283252832358883,-0.5652209689104665
9349,1.0,300.16942,25371.0,0.0,-0.09349016102875929,0.0,0.0,0.0,0.0,-1.6476771957130785,-3.789419497161586,-2.275053793255328,0.00859577114386156,0.012240022704496187,-0.5809715972099324
9350,1.0,300.27297000000004,25500.515,0.0,-0.09350015701617842,0.0,0.0,0.0,0.0,-1.6943232786416882,-3.7841190845634762,-2.2730774489352776,-0.009264645196599293,0.005123922365216765,-0.5736964412269305
9351,1.0,300.64395,25419.761000000002,0.0,-0.09351015300359777,0.0,0.0,0.0,0.0,-1.6567431496578184,-3.782148009143946,-2.2880814537660576,0.014379381740384488,-0.01093528892172899,-0.5765929990227985
9352,1.0,300.11015,25272.605,0.0,-0.09352014899101724,0.0,0.0,0.0,0.0,-1.6370718108914086,-3.771646989082577,-2.273522164404168,-0.002575524801759508,-0.0011236435970699888,-0.5898947132880754
9353,1.0,300.37448,25403.619,0.0,-0.09353014497843637,0.0,0.0,0.0,0.0,-1.6529665638850985,-3.7879905105455567,-2.2811088745279178,0.018501029834659483,-0.011256136592394187,-0.5869665218240854
9354,1.0,299.99876,25430.502,0.0,-0.09354014096585583,0.0,0.0,0.0,0.0,-1.6756644807002086,-3.7773216962676264,-2.277251330072208,0.003228527102280817,-0.00032109807516241267,-0.5925044402456354
9355,1.0,299.72488,25358.821,0.0,-0.09355013695327496,0.0,0.0,0.0,0.0,-1.6586021596162883,-3.7786203789207966,-2.271225937027548,-0.001968120376938358,-0.013960446393788788,-0.5764634853950165
9356,1.0,300.01757000000003,25415.556,0.0,-0.09356013294069443,0.0,0.0,0.0,0.0,-1.6721394849273183,-3.784080074434626,-2.2694748382047276,0.0011985069727584287,0.015196544641282185,-0.5702567205824565
9357,1.0,300.08859,25475.824,0.0,-0.09357012892811356,0.0,0.0,0.0,0.0,-1.6430775468841285,-3.7943583821240168,-2.306578435666568,-0.01097392414804199,0.012079940334447288,-0.5626821491949044
9358,1.0,299.95203,25406.074,0.0,-0.09358015790559038,0.0,0.0,0.0,0.0,-1.6323030506207683,-3.8030304857548867,-2.287478569956558,-0.0049695483422562345,0.009884000703699922,-0.5754892454238665
9359,1.0,299.90475,25554.122000000003,0.0,-0.09359015389300973,0.0,0.0,0.0,0.0,-1.6523434150735985,-3.8113771334536364,-2.3040945543714275,-0.0025247174019952076,-0.011772334829338989,-0.5498490428358754
9360,1.0,300.09475,25626.116,0.0,-0.0936001498804292,0.0,0.0,0.0,0.0,-1.6646188387100882,-3.814971739508396,-2.3101087003399776,0.005264892001279385,0.012140147655389288,-0.5704194586810175
9361,1.0,299.95355,25414.231,0.0,-0.09361014586784833,0.0,0.0,0.0,0.0,-1.6549326743791384,-3.8058023327284465,-2.2645566235443377,0.007875238966575571,-0.0013074158557818986,-0.5776568609652935
9362,1.0,300.48461000000003,25362.853,0.0,-0.09362014185526768,0.0,0.0,0.0,0.0,-1.6621517773666084,-3.7859628957704463,-2.261559531073548,0.002093007200788728,0.0040006093916544055,-0.5881598467318575
9363,1.0,300.3632,25517.356,0.0,-0.09363013784268692,0.0,0.0,0.0,0.0,-1.6778144960873986,-3.791334235875557,-2.287490323657718,0.0004533090659031216,-0.01795598943361818,-0.5695463106723444
9364,1.0,300.45461,25380.47,0.0,-0.09364013383010628,0.0,0.0,0.0,0.0,-1.6476025191807087,-3.7896724043865464,-2.2777541047718275,0.004314830204015586,0.005699182139890485,-0.5847576062085824
9365,1.0,300.45215,25256.835,0.0,-0.09365012981752574,0.0,0.0,0.0,0.0,-1.6274252646393685,-3.771483754491467,-2.278538157699208,0.008254180521124192,-0.007779741563200713,-0.5851892912811865
9366,1.0,300.5696,25425.629,0.0,-0.09366015879500234,0.0,0.0,0.0,0.0,-1.6513053403461484,-3.7876248285844665,-2.2898262704382577,-0.01124523300806809,-0.005719984569743525,-0.5790277072905855
9367,1.0,299.52043,25492.387000000002,0.0,-0.09367015478242169,0.0,0.0,0.0,0.0,-1.6762301782310383,-3.779977424779726,-2.292841297435818,-0.02421116632270608,-0.023064907895329178,-0.5550067594224025
9368,1.0,299.95943,25586.292999999998,0.0,-0.09368015076984104,0.0,0.0,0.0,0.0,-1.6651832190157883,-3.8052987474287465,-2.3071120131692275,0.005233669206072935,0.01796281468629178,-0.5694887175366605
9369,1.0,299.58435,25728.076,0.0,-0.09369014675726028,0.0,0.0,0.0,0.0,-1.6713996097042985,-3.8286610523344264,-2.320631809253528,-0.015999255556003584,0.015628953174457588,-0.5689991961483485
9370,1.0,300.15179,25653.962000000003,0.0,-0.09370014274467964,0.0,0.0,0.0,0.0,-1.6649679033695381,-3.817357538193856,-2.315838325680448,-0.015850172015790184,0.006926012695344233,-0.5694367074090274
9371,1.0,300.30553,25460.779,0.0,-0.09371013873209888,0.0,0.0,0.0,0.0,-1.6532964781176587,-3.797900400498586,-2.2882442830571277,-0.021707282457341978,-0.026577890575033576,-0.5617613379015275
9372,1.0,300.40722,25466.765,0.0,-0.09372013471951823,0.0,0.0,0.0,0.0,-1.6565958230932785,-3.7992558251573567,-2.285409107952318,0.006513607542993014,0.006349721938693764,-0.5782430362806444
9373,1.0,300.0175,25493.499,0.0,-0.09373013070693759,0.0,0.0,0.0,0.0,-1.6861534430853884,-3.7773621249466167,-2.2858714539729474,0.02332411652266108,-0.009636398248313461,-0.5664902977082396
9374,1.0,300.42184,25368.891,0.0,-0.0937401596844144,0.0,0.0,0.0,0.0,-1.6453100408294585,-3.797502193209286,-2.268697270077988,-0.004247645136259936,-0.0031119114389967467,-0.5912674949210583
9375,1.0,299.85892,25343.235,0.0,-0.09375015567183387,0.0,0.0,0.0,0.0,-1.6643764692861682,-3.7631040748394566,-2.2762301766214277,-0.007559372332076963,-0.004617615982373215,-0.5738636274934305
9376,1.0,299.94977,25605.522,0.0,-0.093760151659253,0.0,0.0,0.0,0.0,-1.6712276611623285,-3.811948302535007,-2.3002634557433277,-0.0043550099274560165,0.02202300105600098,-0.5931687270111954
9377,1.0,299.9381,25595.349,0.0,-0.09377014764667224,0.0,0.0,0.0,0.0,-1.6601476699938182,-3.8088482638540566,-2.311351147612598,0.007360470121546843,0.023492373794516776,-0.5930544931949214
9378,1.0,299.60402999999997,25578.924,0.0,-0.0937801436340916,0.0,0.0,0.0,0.0,-1.6533161351695984,-3.8211724248203565,-2.300865731602768,-0.02497208776355318,-0.01055960314240169,-0.5865111773616465
9379,1.0,299.9779,25694.243,0.0,-0.09379013962151084,0.0,0.0,0.0,0.0,-1.6854146824374783,-3.8147565251871565,-2.3102369778026377,-0.0005012869039681655,-0.02073634061526748,-0.5579579921936664
9380,1.0,299.83862999999997,25521.368,0.0,-0.09380013560893019,0.0,0.0,0.0,0.0,-1.6507477488161184,-3.8102998459473167,-2.296810806027578,-0.011317103850911189,0.0035612544210934464,-0.5769684689798544
9381,1.0,299.39793,25399.665,0.0,-0.09381013159634954,0.0,0.0,0.0,0.0,-1.6425147877785884,-3.8010265810321164,-2.277322460229228,0.02188973840284898,0.011162719999424689,-0.5729923337324404
9382,1.0,300.29298,25531.85,0.0,-0.09382016057382636,0.0,0.0,0.0,0.0,-1.6482459329942085,-3.8110166190680568,-2.3017822163182178,0.0025476143211299574,0.005487534053702445,-0.5853023699923464
9383,1.0,299.82092,25419.042,0.0,-0.09383015656124571,0.0,0.0,0.0,0.0,-1.6529873355121485,-3.7845440416554164,-2.2892225760286777,0.004236081115518656,-0.002055957001607158,-0.5772697082345845
9384,1.0,299.72695,25282.838,0.0,-0.09384015254866496,0.0,0.0,0.0,0.0,-1.6491919032875684,-3.7884007755110467,-2.2477588620615276,0.005197628102665955,0.02127727634015368,-0.6029534603118734
9385,1.0,300.57011,25490.249,0.0,-0.0938501485360842,0.0,0.0,0.0,0.0,-1.6763994923227485,-3.7908427082520464,-2.2811571052326776,0.014474787343300287,-0.0005471980158042395,-0.5780066855623184
9386,1.0,300.0808,25636.402000000002,0.0,-0.09386014452350355,0.0,0.0,0.0,0.0,-1.6849031937869985,-3.8073959724857263,-2.3005269007693276,0.006966901592529654,-0.008216712457601383,-0.5860217775633465
9387,1.0,299.77372,25693.611,0.0,-0.09387014051092268,0.0,0.0,0.0,0.0,-1.6718071388945186,-3.816588785342986,-2.321820250295818,-0.00921164076664316,-0.013644245488082187,-0.5745925393503685
9388,1.0,300.12035,25738.907000000003,0.0,-0.09388013649834226,0.0,0.0,0.0,0.0,-1.6688262584253284,-3.8165768289918067,-2.338581940075068,-0.009313879728233361,0.02012774815470408,-0.5926740177823714
9389,1.0,299.40184,25641.583,0.0,-0.0938901324857615,0.0,0.0,0.0,0.0,-1.6649430787420882,-3.8070950372060257,-2.322362845724368,-0.0015796621748005184,0.01122682934650179,-0.5711073237764045
9390,1.0,299.59774,25495.022,0.0,-0.09390016146323832,0.0,0.0,0.0,0.0,-1.6465543119522585,-3.7979957473329966,-2.305300018015398,0.00028183467431741675,-0.006486053321098623,-0.5788074469838475
9391,1.0,299.96065,25596.703999999998,0.0,-0.09391015745065767,0.0,0.0,0.0,0.0,-1.6794186736457184,-3.7957080312572167,-2.305632060073168,0.013912370716294089,-0.008393035605553122,-0.5440023060488475
9392,1.0,299.27381,25608.836,0.0,-0.09392015343807691,0.0,0.0,0.0,0.0,-1.6683705998553584,-3.8090048109945065,-2.307071179190198,0.006443659139564645,-0.0017968087639812183,-0.5725879152200275
9393,1.0,300.12445,25462.199,0.0,-0.09393014942549605,0.0,0.0,0.0,0.0,-1.6603677479155383,-3.7916209856538563,-2.287883971321568,-0.0027625411833165875,-0.003899642261589726,-0.5661558238502294
9394,1.0,300.4429,25459.962000000003,0.0,-0.09394014541291551,0.0,0.0,0.0,0.0,-1.6336863396572885,-3.813148699928476,-2.2923576731630875,-0.006824710686121504,-0.02140858544711288,-0.5992070997896365
9395,1.0,299.63195,25660.32,0.0,-0.09395014140033486,0.0,0.0,0.0,0.0,-1.6753794534470783,-3.8195631810115365,-2.305153806025968,-0.004136236362589746,0.004689974502489445,-0.5768008672808135
9396,1.0,299.72905,25682.636000000002,0.0,-0.09396013738775422,0.0,0.0,0.0,0.0,-1.6702821974940183,-3.8226121518874465,-2.313985800522618,0.0067047680161340835,0.014437467315617089,-0.6023104214009104
9397,1.0,300.43739,25576.35,0.0,-0.09397013337517346,0.0,0.0,0.0,0.0,-1.6635590804304983,-3.8199020118449765,-2.291110666265018,-0.01117998882087899,0.0004781858757332716,-0.5892469019691414
9398,1.0,300.14701,25553.357000000004,0.0,-0.09398012936259259,0.0,0.0,0.0,0.0,-1.6621301951394785,-3.8029098076679757,-2.302542457868248,0.0021937965054608577,-0.02296447859841758,-0.5874351398628344
9399,1.0,299.91225,25627.512000000002,0.0,-0.09399015834006963,0.0,0.0,0.0,0.0,-1.6652161496440383,-3.8083519739550766,-2.316555706751248,0.010908641457349091,-0.010306605738182791,-0.5832823849904895
9400,1.0,300.3193,25651.409,0.0,-0.09400015432748876,0.0,0.0,0.0,0.0,-1.6611732817450384,-3.822660179942186,-2.3135542573050274,0.02324639112074018,0.015231003250682985,-0.5905810179783084
9401,1.0,299.59719,25613.978,0.0,-0.094010150314908,0.0,0.0,0.0,0.0,-1.6583048720369484,-3.8037007506960365,-2.3240039055863275,-0.017522611220097083,-0.0032763167392722867,-0.5817317982299585
9402,1.0,299.76011,25611.626,0.0,-0.09402014630232736,0.0,0.0,0.0,0.0,-1.6707369441388984,-3.8187410298803965,-2.2958168076794774,-0.011083053210312188,-0.016275992396815386,-0.5648452760383884
9403,1.0,300.19885,25571.429,0.0,-0.09403014228974682,0.0,0.0,0.0,0.0,-1.6711931093339183,-3.8103861748558367,-2.291496511903098,-0.012755474176117288,0.014403959134810088,-0.5667983460036414
9404,1.0,299.84198,25722.909,0.0,-0.09404013827716617,0.0,0.0,0.0,0.0,-1.6922449000365682,-3.830764255566996,-2.296113082008718,0.015503135883040385,0.02214071741286868,-0.5608947861510054
9405,1.0,299.92307999999997,25791.29,0.0,-0.09405013426458542,0.0,0.0,0.0,0.0,-1.6913798884261984,-3.8355343330627667,-2.3129939299997275,-0.014263824619479885,-0.005155350140918445,-0.5745503476162045
9406,1.0,300.30978,25633.117000000002,0.0,-0.09406013025200455,0.0,0.0,0.0,0.0,-1.6574177715743985,-3.821555129383126,-2.3128546081109778,-0.013468501311237589,-0.016217301911273085,-0.5694271727255864
9407,1.0,299.97806,25595.877,0.0,-0.09407015922948159,0.0,0.0,0.0,0.0,-1.6540716144441585,-3.819741513029136,-2.3066942501529977,0.0026607041780410574,0.021310454201428082,-0.5891061311327485
9408,1.0,300.82067,25835.457000000002,0.0,-0.09408015521690072,0.0,0.0,0.0,0.0,-1.6769710667041584,-3.8342648320124764,-2.3420980192470777,0.017150198238592786,0.01919341503874258,-0.5772456942072144
9409,1.0,300.36366,25693.497000000003,0.0,-0.09409015120431996,0.0,0.0,0.0,0.0,-1.6770005522820683,-3.8184128381730065,-2.314768232249838,-0.003995022431928016,0.012157992002900388,-0.5837152859632134
9410,1.0,300.09246,25541.116,0.0,-0.09410014719173954,0.0,0.0,0.0,0.0,-1.6439947408746485,-3.816313181315786,-2.303553580143038,-0.012583516514896387,-0.025375496065616475,-0.5887656790991485
9411,1.0,300.19909,25579.491,0.0,-0.09411014317915867,0.0,0.0,0.0,0.0,-1.6676672016359382,-3.8005549131105663,-2.3073044293632177,0.0023218387927726476,0.012236906960438687,-0.5863621586694395
9412,1.0,299.76032000000004,25574.424,0.0,-0.09412013916657813,0.0,0.0,0.0,0.0,-1.6405539461850684,-3.8239442717939163,-2.3094878820037077,0.015601317791230184,0.007991353982985231,-0.5895289603994784
9413,1.0,299.73274,25555.417,0.0,-0.09413013515399726,0.0,0.0,0.0,0.0,-1.6599563683749383,-3.8093644134549964,-2.2988879687325774,-0.016321368776043683,9.657531706974171e-05,-0.5832650989437834
9414,1.0,300.11499,25680.751,0.0,-0.0941401311414165,0.0,0.0,0.0,0.0,-1.6758841533218882,-3.8252385974716563,-2.305184203528968,-0.008108833340654542,-0.021329273295535377,-0.5733159860793824
9415,1.0,299.7232,25679.096,0.0,-0.09415016011889343,0.0,0.0,0.0,0.0,-1.6846897019909284,-3.828440873087696,-2.2926735032192576,0.006695123597707254,0.030460233313690972,-0.5695008968028624
9416,1.0,299.7953,25641.967999999997,0.0,-0.09416015610631268,0.0,0.0,0.0,0.0,-1.6777088141019685,-3.8251848952163563,-2.291624282740708,0.03567569704991717,-0.004549324546833376,-0.5779130511205774
9417,1.0,299.91845,25744.287,0.0,-0.09417015209373203,0.0,0.0,0.0,0.0,-1.688010223893638,-3.831480116762646,-2.3061300724973184,0.015304817507217884,-0.00969563062000924,-0.5880669013001845
9418,1.0,299.49931000000004,25723.244,0.0,-0.0941801480811515,0.0,0.0,0.0,0.0,-1.6666106857566685,-3.8212627054042665,-2.331350374111368,-0.01231646634504059,-0.035725026117785566,-0.5756392571011714
9419,1.0,300.53288,25627.56,0.0,-0.09419014406857062,0.0,0.0,0.0,0.0,-1.6651757209650486,-3.820985378851897,-2.3039770173598275,-0.005996418550100434,0.013376531639410886,-0.6001180825570434
9420,1.0,300.20887999999997,25682.487,0.0,-0.09420014005599009,0.0,0.0,0.0,0.0,-1.6667971237750683,-3.8267464149454664,-2.313291116254058,-0.005420525392789205,0.018093228080162584,-0.5962529387255834
9421,1.0,299.9409,25750.287999999997,0.0,-0.09421013604340922,0.0,0.0,0.0,0.0,-1.6933450869951483,-3.826423593463607,-2.3076758868498777,-0.00030547008052254974,0.02622940245489048,-0.5883531748509374
9422,1.0,299.70535,25654.846,0.0,-0.09422013203082846,0.0,0.0,0.0,0.0,-1.6748244963673085,-3.8179263767999965,-2.3056817093280677,-0.007425511861365963,-0.015602000721797585,-0.5820169876031044
9423,1.0,299.639,25659.702,0.0,-0.09423016100830539,0.0,0.0,0.0,0.0,-1.6650586905784983,-3.832519204740196,-2.302330688597348,0.012516791969311188,0.011439127533953989,-0.5802872582248935
9424,1.0,299.85048,25813.202,0.0,-0.09424015699572463,0.0,0.0,0.0,0.0,-1.6674847152929286,-3.842375189787906,-2.336708947265218,0.01075073656176509,-0.01858153458160468,-0.5895784070043585
9425,1.0,299.86342,25820.527000000002,0.0,-0.09425015298314399,0.0,0.0,0.0,0.0,-1.677306047187218,-3.8452064132173263,-2.3262828063862377,-0.0025940505599628574,-0.022463367655461777,-0.5696629560238564
9426,1.0,300.06377000000003,25677.017000000003,0.0,-0.09426014897056334,0.0,0.0,0.0,0.0,-1.6641673344655283,-3.835679937102136,-2.3053246399928278,-0.011452487236522488,-0.021881540196289878,-0.5776824759278214
9427,1.0,300.33083,25707.35,0.0,-0.09427014495798258,0.0,0.0,0.0,0.0,-1.6845096474481587,-3.837012057008607,-2.292870884338738,-0.005449937510066955,0.01925970793978518,-0.5657025970804995
9428,1.0,300.48582000000005,25710.676,0.0,-0.09428014094540194,0.0,0.0,0.0,0.0,-1.6839918766470585,-3.8329145749292164,-2.2984969555189876,0.0014693711173156389,0.018085675313917183,-0.5853869865081974
9429,1.0,300.28078999999997,25692.827,0.0,-0.09429013693282118,0.0,0.0,0.0,0.0,-1.6549623626070684,-3.8419002794660364,-2.3131151147116875,-0.010346879389907492,0.017698797173985283,-0.5872897182084824
9430,1.0,300.13752,25705.806,0.0,-0.09430013292024053,0.0,0.0,0.0,0.0,-1.6582686990083784,-3.835831823292126,-2.319822526398658,0.008263376576381772,-0.005569756462217165,-0.5999535814033085
9431,1.0,299.7559,25728.174,0.0,-0.09431016189771735,0.0,0.0,0.0,0.0,-1.6702548397413182,-3.827703530989926,-2.322764092763968,0.001173745470789659,0.021073501612542678,-0.5904138823743135
9432,1.0,299.64044,25730.652000000002,0.0,-0.09432015788513659,0.0,0.0,0.0,0.0,-1.6691838343856182,-3.843497972223717,-2.308793704360198,0.016274213129639784,0.008949892022635571,-0.5816588442227584
9433,1.0,299.82628,25751.466,0.0,-0.09433015387255594,0.0,0.0,0.0,0.0,-1.7001452110662685,-3.828534598721946,-2.299122941430768,-0.009521111563860553,0.01238422643222799,-0.5803004710061975
9434,1.0,300.15051,25817.924,0.0,-0.0943401498599753,0.0,0.0,0.0,0.0,-1.6904492182093485,-3.8356058685198264,-2.321949237033548,-0.002852269444597077,-0.0013240526118238189,-0.5553023447415745
9435,1.0,300.09153,25757.687,0.0,-0.09435014584739454,0.0,0.0,0.0,0.0,-1.6704285108084584,-3.847232406792276,-2.312032760954868,-0.008413598097782481,0.010853361571643388,-0.5935238914362474
9436,1.0,299.73942999999997,25764.931,0.0,-0.0943601418348139,0.0,0.0,0.0,0.0,-1.6597273738523384,-3.8431335061627463,-2.329034894982848,-0.003971198388951766,-0.009133894086470163,-0.5687670098879334
9437,1.0,300.45977999999997,25846.525,0.0,-0.09437013782223325,0.0,0.0,0.0,0.0,-1.6941316730477787,-3.8460173172723566,-2.316549323275618,-0.01073652167611219,-0.007965164203675502,-0.5863605982642854
9438,1.0,300.53767,25717.157000000003,0.0,-0.09438013380965249,0.0,0.0,0.0,0.0,-1.6671408182089882,-3.834877949647986,-2.3153548027327275,-0.0005158890842067885,-0.016014923442299885,-0.5666588011998693
9439,1.0,300.62791,25618.709,0.0,-0.0943901627871293,0.0,0.0,0.0,0.0,-1.6782816043834983,-3.839413561070617,-2.269752772707158,0.005718376339184805,0.015621990119770383,-0.5913874738653995
9440,1.0,300.62581,25803.257,0.0,-0.09440015877454866,0.0,0.0,0.0,0.0,-1.673949352255938,-3.8426199910120666,-2.3269764774046977,0.004718626986167225,0.00958736687332444,-0.5799207048687174
9441,1.0,300.41556,25796.319,0.0,-0.0944101547619679,0.0,0.0,0.0,0.0,-1.6879440586621084,-3.841412399542886,-2.3120804850345777,-0.008255133584168253,0.009053429970853972,-0.5982696711946194
9442,1.0,300.52709,25740.087000000003,0.0,-0.09442015074938725,0.0,0.0,0.0,0.0,-1.6627728996779085,-3.842658595840876,-2.318912222508818,0.003317032978640667,-0.003704727798153166,-0.5715648365940575
9443,1.0,300.85528,25859.14,0.0,-0.0944301467368065,0.0,0.0,0.0,0.0,-1.6939427019041284,-3.8438293050064165,-2.322760951688658,0.005435808953322574,-0.001898651342132298,-0.5922707239775694
9444,1.0,299.85945,25869.155,0.0,-0.09444014272422585,0.0,0.0,0.0,0.0,-1.6826613779407484,-3.843661308139836,-2.3372545824440683,0.016548083485918685,-0.014215059931917186,-0.5813772721524694
9445,1.0,299.63993999999997,25751.792999999998,0.0,-0.09445013871164509,0.0,0.0,0.0,0.0,-1.6930085866369384,-3.836516983009746,-2.2983763787570877,0.014361327650102685,-0.003625891772797656,-0.5854119327256594
9446,1.0,299.75293,25758.082000000002,0.0,-0.09446013469906445,0.0,0.0,0.0,0.0,-1.6576274130200883,-3.8483144565740663,-2.323871980423308,-0.002355868290756098,0.0004954905763736125,-0.5807886954343814
9447,1.0,299.41494,25674.506,0.0,-0.0944701306864838,0.0,0.0,0.0,0.0,-1.6703488693505986,-3.8355388926882164,-2.298520969546358,-0.01004609559109744,0.006839501705781265,-0.5964938895993633
9448,1.0,299.78524,25722.944,0.0,-0.09448015966396062,0.0,0.0,0.0,0.0,-1.6643957210380684,-3.842917886541467,-2.3118189651837677,-0.016627326736489385,-0.007572550966852593,-0.5796822567226845
9449,1.0,299.75221,25807.853,0.0,-0.09449015565137975,0.0,0.0,0.0,0.0,-1.6882892729711787,-3.8470673483509867,-2.3095862685884176,-0.0036701968426952267,-0.0019208524624233783,-0.5882997360406634
9450,1.0,299.62088,25871.737999999998,0.0,-0.09450015163879921,0.0,0.0,0.0,0.0,-1.6962255543794282,-3.8349202021771562,-2.3332163754955277,-0.004057102543029846,-0.014527195678222587,-0.5664694855511855
9451,1.0,300.43408,25825.534,0.0,-0.09451014762621834,0.0,0.0,0.0,0.0,-1.6915709873950586,-3.8510506371441062,-2.307696050526868,0.01964781819183868,0.006767073474058153,-0.5924428853020605
9452,1.0,300.48341,25847.49,0.0,-0.09452014361363781,0.0,0.0,0.0,0.0,-1.6774989700062584,-3.8519968100874857,-2.327495768080948,0.008358266232346652,0.006321911263199063,-0.5846754012279693
9453,1.0,300.224,26019.441000000003,0.0,-0.09453013960105716,0.0,0.0,0.0,0.0,-1.7068533320283086,-3.854009124786086,-2.3483980030688376,0.02673534761407337,0.02240520000697108,-0.5753762781702175
9454,1.0,300.22017999999997,26003.932999999997,0.0,-0.0945401355884764,0.0,0.0,0.0,0.0,-1.7048348365040984,-3.8523268256450565,-2.347384448993808,0.008108109373458091,0.009821851691591292,-0.5771503575053054
9455,1.0,299.74834,25842.202999999998,0.0,-0.09455013157589576,0.0,0.0,0.0,0.0,-1.6745012695854085,-3.8495552826465262,-2.331327981284158,0.006203714321808934,0.008541929566672811,-0.5849864588761684
9456,1.0,300.25805,25790.289,0.0,-0.09456016055337257,0.0,0.0,0.0,0.0,-1.6806434903665983,-3.8415543558818968,-2.3174060262351683,-0.018844096053517483,-0.009700654212680031,-0.5824102198344134
9457,1.0,300.29978,25861.292,0.0,-0.0945701565407917,0.0,0.0,0.0,0.0,-1.6780811835137184,-3.8631153047597966,-2.3199903206152177,-0.015363036831463684,-0.021518214041682377,-0.5809646159167434
9458,1.0,299.98523,25790.599,0.0,-0.09458015252821117,0.0,0.0,0.0,0.0,-1.6656219563090884,-3.847029756772276,-2.3270464929866077,-0.024412554846331577,-0.001176551261641569,-0.5809802807632896
9459,1.0,299.83617999999996,25894.78,0.0,-0.0945901485156303,0.0,0.0,0.0,0.0,-1.6908715408510282,-3.854812024165326,-2.3256828610020275,0.0017320630958413184,0.007720674655246264,-0.5853838150353844
9460,1.0,299.76863,25864.857999999997,0.0,-0.09460014450304965,0.0,0.0,0.0,0.0,-1.6747450575594685,-3.8526509643520463,-2.3348747619341976,-0.0070654826199338435,0.02273681649969908,-0.5871069785529474
9461,1.0,300.06642,25748.376,0.0,-0.09461014049046912,0.0,0.0,0.0,0.0,-1.6620187376284785,-3.847877644455956,-2.316966782316818,0.012553575987691488,0.016535513105178087,-0.5864255678606974
9462,1.0,300.16572,25917.48,0.0,-0.09462013647788825,0.0,0.0,0.0,0.0,-1.6781879800742583,-3.875520829709126,-2.324557950741008,0.019133399222069483,0.0024453929900914977,-0.5916156476554184
9463,1.0,299.61623,25933.187,0.0,-0.09463013246530771,0.0,0.0,0.0,0.0,-1.6968999736459882,-3.8572376435797167,-2.328903679094898,0.024302114638431977,-0.0052873038775912646,-0.5963076744959854
9464,1.0,299.40913,25731.612999999998,0.0,-0.09464016144278442,0.0,0.0,0.0,0.0,-1.6565776859164885,-3.8570464432858462,-2.3081437044210475,-0.014086927364021487,-0.0049842048023027155,-0.5936813505017874
9465,1.0,300.00161,25765.283,0.0,-0.09465015743020366,0.0,0.0,0.0,0.0,-1.6745339975636382,-3.843272118776426,-2.3141963538933976,-0.012954101593220288,-0.016272048827426184,-0.5856683255309635
9466,1.0,300.09436,25934.845,0.0,-0.09466015341762302,0.0,0.0,0.0,0.0,-1.6868070907248987,-3.8530537312667965,-2.3436842622786274,-0.02933411120555137,-0.0009309299229831302,-0.5821868184523654
9467,1.0,300.78309,25898.612999999998,0.0,-0.09467014940504226,0.0,0.0,0.0,0.0,-1.6727798589905183,-3.8675420931216866,-2.332209610196168,0.002139202691397868,0.004827107973673465,-0.5961149239294624
9468,1.0,300.14804,25821.072999999997,0.0,-0.09468014539246161,0.0,0.0,0.0,0.0,-1.6848166622284586,-3.8457289462938964,-2.3184159326098377,-0.00011793499597427788,0.012286726441355488,-0.5815791723673954
9469,1.0,300.48907,25937.411,0.0,-0.09469014137988085,0.0,0.0,0.0,0.0,-1.6945372770628087,-3.867133449356356,-2.3226544591031475,0.0028411374736984373,-0.0016701103502770585,-0.5834110576206885
9470,1.0,300.27158,25982.074,0.0,-0.09470013736730021,0.0,0.0,0.0,0.0,-1.7045397780749783,-3.860515608978226,-2.332846437884018,-0.0048227843341717555,-0.00970502172591107,-0.5743900109203804
9471,1.0,299.9353,25970.505,0.0,-0.09471013335471956,0.0,0.0,0.0,0.0,-1.6958575419431086,-3.8613506283856363,-2.3371768661613976,0.012840364269495287,-0.01242471894597429,-0.5922430521173384
9472,1.0,299.85066,25956.834,0.0,-0.09472016233219638,0.0,0.0,0.0,0.0,-1.6873839340068284,-3.862497424848817,-2.340347933674358,0.005364246847784944,0.008371984524125542,-0.5771263232129334
9473,1.0,300.17109,25893.397999999997,0.0,-0.09473015831961562,0.0,0.0,0.0,0.0,-1.688080644775588,-3.850376623177586,-2.332489064573748,0.0027390060179438474,-0.004569469985321576,-0.5904202861149455
9474,1.0,299.81804,25842.887000000002,0.0,-0.09474015430703497,0.0,0.0,0.0,0.0,-1.6807603181031285,-3.8441143322595464,-2.330717599423918,0.0018589407534881685,0.0034230968580333566,-0.5813771404299565
9475,1.0,299.91888,26050.021,0.0,-0.09475015029445422,0.0,0.0,0.0,0.0,-1.7217208520706182,-3.8705091933895166,-2.3263257681904776,0.022637328512130378,-0.005946643753513044,-0.6065732658966204
9476,1.0,299.82306,26067.031000000003,0.0,-0.09476014628187379,0.0,0.0,0.0,0.0,-1.7040501756266584,-3.8544898106335257,-2.365186442650727,0.016950343775618684,-0.007013760559304273,-0.5753071643808965
9477,1.0,299.373,25854.668999999998,0.0,-0.09477014226929292,0.0,0.0,0.0,0.0,-1.6726687054545486,-3.8708413367722967,-2.3156638440132276,0.0011927637698666187,-0.006565726493686754,-0.5918979087357754
9478,1.0,300.04849,25911.106,0.0,-0.09478013825671217,0.0,0.0,0.0,0.0,-1.6616112084382586,-3.8636878923913063,-2.351030224178618,-0.023431704431529178,0.0039570854362589265,-0.5860711329757174
9479,1.0,300.15906,26082.718999999997,0.0,-0.09479013424413152,0.0,0.0,0.0,0.0,-1.7042101678174484,-3.8724302142541065,-2.3518547057849877,0.0024486608229890077,0.007999960630659643,-0.5914653016055804
9480,1.0,300.34065,25928.366,0.0,-0.09480016322160834,0.0,0.0,0.0,0.0,-1.6794707547008583,-3.8768875014440063,-2.325217475231098,-0.01060436143906899,0.015861196176878183,-0.5918821932267244
9481,1.0,300.39522999999997,25811.917999999998,0.0,-0.09481015920902758,0.0,0.0,0.0,0.0,-1.6789425474237283,-3.8591829824467063,-2.3080530185370978,0.008690894049999462,0.0014654846952320785,-0.5889475980221024
9482,1.0,300.53923,25975.657000000003,0.0,-0.09482015519644693,0.0,0.0,0.0,0.0,-1.6818740826130485,-3.870153238629386,-2.343923794602268,-0.006450409310405834,0.0027802184458861974,-0.5833136234910724
9483,1.0,300.05048999999997,25956.397999999997,0.0,-0.09483015118386628,0.0,0.0,0.0,0.0,-1.6936584852510783,-3.8575569186862264,-2.338881558129638,0.01159427740251609,-0.003023869529857687,-0.5922480879703355
9484,1.0,300.26052999999996,25989.612999999998,0.0,-0.09484014717128564,0.0,0.0,0.0,0.0,-1.6769420877512986,-3.8600434344316263,-2.3632077678554477,0.013619334734373685,0.01966966893024518,-0.5736138208137764
9485,1.0,300.29321,25987.381,0.0,-0.09485014315870488,0.0,0.0,0.0,0.0,-1.7006900356450385,-3.860361493638017,-2.338463491138378,0.016074516733681286,0.016781757197480485,-0.5921259406707804
9486,1.0,299.62408,25975.271,0.0,-0.09486013914612412,0.0,0.0,0.0,0.0,-1.697735398353438,-3.8538654459219064,-2.3442330385327876,-0.015405401831394785,0.02019922484325828,-0.5709666745300235
9487,1.0,299.52133,26074.189,0.0,-0.09487013513354348,0.0,0.0,0.0,0.0,-1.7174624658753483,-3.8743697775955264,-2.3340700387047777,-0.015305399112775288,-0.007471968263875853,-0.5971371919553524
9488,1.0,299.818,26196.244,0.0,-0.09488013112096272,0.0,0.0,0.0,0.0,-1.7281297602781285,-3.877314485036146,-2.3575597091480276,-0.01174767232190499,-0.02082553600832038,-0.5654795199384834
9489,1.0,300.06278,26129.789,0.0,-0.09489016009843942,0.0,0.0,0.0,0.0,-1.7141887561272586,-3.864391898560786,-2.364222740480618,0.006742708152878483,-0.025561195424693577,-0.5743105619800395
9490,1.0,300.15992,25902.955,0.0,-0.09490015608585889,0.0,0.0,0.0,0.0,-1.6687643488442183,-3.870176847356716,-2.3349102256876977,-0.0032164774307666066,-0.010294127563201291,-0.5698423418215605
9491,1.0,300.17341,25976.629,0.0,-0.09491015207327824,0.0,0.0,0.0,0.0,-1.6869296939869984,-3.8731495205000965,-2.3361674664117777,-0.0015967376681357383,0.00888253267586272,-0.5853772187772335
9492,1.0,300.20616,26036.316000000003,0.0,-0.0949201480606976,0.0,0.0,0.0,0.0,-1.6913643856996685,-3.8705193258905166,-2.352506326924298,-0.008397093570878611,0.024976113406200474,-0.5713526620231175
9493,1.0,300.19849,25942.728,0.0,-0.09493014404811684,0.0,0.0,0.0,0.0,-1.6777381983548685,-3.8832605405979757,-2.3249426818039773,0.004347714121435976,0.02764218922832168,-0.5924656327668054
9494,1.0,299.94588,25901.242000000002,0.0,-0.09494014003553597,0.0,0.0,0.0,0.0,-1.6683399997023385,-3.8632605034991263,-2.341730412110798,-0.008086408494741383,0.005461022567485965,-0.6006424496162944
9495,1.0,300.37401,26052.39,0.0,-0.09495013602295543,0.0,0.0,0.0,0.0,-1.6928915562503886,-3.8788505721877464,-2.347534004708568,-0.012715482207920386,-0.023968434155250275,-0.5899327810943324
9496,1.0,300.48905,26036.581000000002,0.0,-0.09496013201037479,0.0,0.0,0.0,0.0,-1.6817830927540682,-3.8870371263706964,-2.3456501701226475,-0.002534475709733278,-0.021615388779272778,-0.6081279664525574
9497,1.0,300.19336,25967.33,0.0,-0.09497016098785138,0.0,0.0,0.0,0.0,-1.6897450093898485,-3.871197798157476,-2.332476905572548,0.02160651372164688,-0.017626396401339884,-0.5922486452578904
9498,1.0,300.03462,26021.072,0.0,-0.09498015697527074,0.0,0.0,0.0,0.0,-1.6789880423532184,-3.8954060655716463,-2.335361932582278,0.025630339611517575,-0.001868543223360858,-0.6134109207514444
9499,1.0,299.99349,26011.571,0.0,-0.0949901529626902,0.0,0.0,0.0,0.0,-1.7000467231565484,-3.8736222016717465,-2.3331991502438276,0.004601328594965776,-0.009503462773618751,-0.5867022864630075
9500,1.0,299.70962000000003,25909.194,0.0,-0.09500014895010955,0.0,0.0,0.0,0.0,-1.6777441765304586,-3.877766191930726,-2.320237654964628,-0.0024811651769219376,-0.005170994418487415,-0.5894148887032205
9501,1.0,299.93676,26020.959,0.0,-0.0950101449375288,0.0,0.0,0.0,0.0,-1.7001873622704284,-3.8843747104079367,-2.325159618650388,-0.005292100096939615,0.0011372118265090688,-0.5660430592466005
9502,1.0,299.74856,26134.475,0.0,-0.09502014092494793,0.0,0.0,0.0,0.0,-1.7028408616323083,-3.8774211802716763,-2.3639658815802678,0.0029336131626250773,-0.0014040438436183386,-0.5756403716762815
9503,1.0,299.45542,26109.256,0.0,-0.09503013691236739,0.0,0.0,0.0,0.0,-1.7051561381108087,-3.889670158080557,-2.341735377036288,-0.017272928156955282,0.002173705275853008,-0.5797825076875784
9504,1.0,300.58993,26144.374,0.0,-0.09504013289978674,0.0,0.0,0.0,0.0,-1.6933605897216786,-3.890279324040676,-2.3635969572188578,-0.013351306778171385,0.008478779767440412,-0.5809863399988874
9505,1.0,300.87817,26105.907000000003,0.0,-0.09505016187726334,0.0,0.0,0.0,0.0,-1.7208341569081085,-3.8686042832015164,-2.346105322067568,-0.0016216784140471987,0.008968476954644762,-0.5753846780135464
9506,1.0,299.99939,25988.254,0.0,-0.09506015786468291,0.0,0.0,0.0,0.0,-1.6948827953469086,-3.8815968852587863,-2.3233004060418976,0.021467590040186182,0.009064259587922771,-0.6023345772832944
9507,1.0,300.15328999999997,26062.575,0.0,-0.09507015385210216,0.0,0.0,0.0,0.0,-1.7099869092875681,-3.8707394038122365,-2.3416457044024375,0.01967359324788248,0.0003262062539515507,-0.5877314445895775
9508,1.0,300.79745,26044.251,0.0,-0.09508014983952151,0.0,0.0,0.0,0.0,-1.6968391786399883,-3.8782667374801263,-2.341696062932408,0.013273799225021986,-0.013382796564779188,-0.5971688560209774
9509,1.0,299.64293,25917.346,0.0,-0.09509014582694064,0.0,0.0,0.0,0.0,-1.6751485337492884,-3.8866455052070465,-2.3164319889140375,-0.004301324897407716,-0.0020604511711006983,-0.5951393971306854
9510,1.0,299.83146,25965.752,0.0,-0.09510014181435988,0.0,0.0,0.0,0.0,-1.6707728131924382,-3.875154033172926,-2.3470134981321977,-0.005592207551307915,0.0009326155050544842,-0.6021356458911614
9511,1.0,300.19711,26128.656000000003,0.0,-0.09511013780177924,0.0,0.0,0.0,0.0,-1.7051694116871183,-3.8908635640483364,-2.346426015724218,-0.025918002328157677,-0.003103644230105837,-0.5853191798115054
9512,1.0,299.5328,26068.568,0.0,-0.0951201337891987,0.0,0.0,0.0,0.0,-1.6696630003579085,-3.8954179205978163,-2.359112717576298,-0.018343544424616883,0.0037704185246613367,-0.5891554662801175
9513,1.0,300.18221,26066.047000000002,0.0,-0.09513016276667541,0.0,0.0,0.0,0.0,-1.6923284931698184,-3.882349426108057,-2.3487494995285276,-0.010207815879932991,0.008419114130001872,-0.5739478995042474
9514,1.0,300.3678,26182.362,0.0,-0.09514015875409487,0.0,0.0,0.0,0.0,-1.6980286329323786,-3.9025016533719263,-2.358254190766568,0.016237312587497985,0.0053063081938168445,-0.5799521460193204
9515,1.0,300.24175,26140.737,0.0,-0.095150154741514,0.0,0.0,0.0,0.0,-1.7120654905427084,-3.871305810618136,-2.3627601139612677,0.0019663199328356683,0.005159144559892925,-0.5684469647113475
9516,1.0,300.21106000000003,26132.139,0.0,-0.09516015072893347,0.0,0.0,0.0,0.0,-1.6851626871376086,-3.9055664309493965,-2.352788719727168,0.01203593285610409,-0.008883248131758332,-0.5926663677441164
9517,1.0,299.48229,26124.089,0.0,-0.0951701467163526,0.0,0.0,0.0,0.0,-1.7351523940712084,-3.867920238059006,-2.3379980040424377,-0.00925726721599614,-0.0009792789348248058,-0.5835976374941024
9518,1.0,299.15439,26091.465,0.0,-0.09518014270377184,0.0,0.0,0.0,0.0,-1.7092475406895984,-3.8805276024282565,-2.3413787130010877,-0.017495684098689582,0.001030475757000039,-0.6022415203941105
9519,1.0,299.56953,25995.076,0.0,-0.09519013869119142,0.0,0.0,0.0,0.0,-1.718709675423438,-3.873530502537696,-2.3096136263411178,-0.011974436681034888,-0.005400201115658355,-0.5870909489363654
9520,1.0,299.63594,25992.827,0.0,-0.09520013467861055,0.0,0.0,0.0,0.0,-1.7004239561687784,-3.8631676897899667,-2.3375786198260475,0.007872065568587381,-0.00042681684157104256,-0.5916675463255404
9521,1.0,299.82706,26176.898999999998,0.0,-0.09521016365608737,0.0,0.0,0.0,0.0,-1.7039793494446684,-3.8943979830471562,-2.3587463263401376,0.0021598263839332677,-0.0003039930557192787,-0.5741496781291614
9522,1.0,299.79168,26174.506,0.0,-0.09522015964350683,0.0,0.0,0.0,0.0,-1.6912480645881884,-3.896241388954086,-2.3689068943679077,0.013729261224472588,-0.025128395776979576,-0.5942335819387884
9523,1.0,300.04900000000004,26160.891,0.0,-0.09523015563092596,0.0,0.0,0.0,0.0,-1.6985641356102286,-3.8890899710732967,-2.3646035198681976,0.0099298196705719,0.005319884731906745,-0.5610341789672625
9524,1.0,300.48773,26256.418999999998,0.0,-0.09524015161834531,0.0,0.0,0.0,0.0,-1.7018805031875284,-3.9153082227108364,-2.3641069259941876,0.014404935907906487,0.0005161277451353425,-0.5842473537232244
9525,1.0,300.13306,26172.708,0.0,-0.09525014760576456,0.0,0.0,0.0,0.0,-1.7077466133164685,-3.9016937890671963,-2.3464094997475877,0.005848935641070005,0.015633286845135284,-0.5690214268555425
9526,1.0,299.93705,26154.487999999998,0.0,-0.09526014359318391,0.0,0.0,0.0,0.0,-1.6927596310873685,-3.917803857707136,-2.339747684315118,-0.013540042847798186,0.014168311612053487,-0.6060445013319354
9527,1.0,300.6519,26300.542999999998,0.0,-0.09527013958060337,0.0,0.0,0.0,0.0,-1.7080988190512283,-3.918195478870786,-2.3684139481942577,-0.009037930385399282,0.01018119982630619,-0.6006824527302425
9528,1.0,300.22741,26062.958,0.0,-0.0952801355680225,0.0,0.0,0.0,0.0,-1.6957350400060183,-3.8855132995453068,-2.3412403030374276,0.011744140132056389,-0.008553491763563912,-0.6070897498700935
9529,1.0,300.39302999999995,25895.166,0.0,-0.09529013155544197,0.0,0.0,0.0,0.0,-1.6758354159920783,-3.8895733926960063,-2.306075154341898,-0.0014590557246725885,0.005480730788556015,-0.6069461520659214
9530,1.0,299.94611000000003,26039.441000000003,0.0,-0.09530016053291868,0.0,0.0,0.0,0.0,-1.7066163328299182,-3.876670969897636,-2.3320526577556775,0.01311783065037909,-0.0015280125615530985,-0.6069731349160844
9531,1.0,300.04834,26229.237,0.0,-0.09531015652033792,0.0,0.0,0.0,0.0,-1.7334243973506682,-3.8867923251465366,-2.352816482779908,0.004628976643819426,0.01825117451900068,-0.5777332904203365
9532,1.0,299.8548,26225.121,0.0,-0.09532015250775727,0.0,0.0,0.0,0.0,-1.7000836054601884,-3.9093430167221164,-2.3623552192213078,0.012318985284789188,0.00976910827486092,-0.5893904389783075
9533,1.0,299.93591000000004,26285.869,0.0,-0.09533014849517651,0.0,0.0,0.0,0.0,-1.7014033637154382,-3.9053234535754164,-2.3835208992351977,-0.01024906630475409,0.004809182464829355,-0.5771337098061624
9534,1.0,299.88826,26335.706000000002,0.0,-0.09534014448259587,0.0,0.0,0.0,0.0,-1.7077986943716084,-3.9175666558587263,-2.3800317725158475,-0.002684988641862747,-0.007841194269840621,-0.5819556353095494
9535,1.0,300.35757,26262.371,0.0,-0.09535014047001522,0.0,0.0,0.0,0.0,-1.7206816627680583,-3.900916119615446,-2.3615070275625976,-0.012920536670407686,-0.0024677855133264674,-0.5623438047215125
9536,1.0,300.06588999999997,26135.037999999997,0.0,-0.09536013645743446,0.0,0.0,0.0,0.0,-1.7115305958149183,-3.881564359930576,-2.3513040043556375,0.008919472532108402,0.007756409047847972,-0.5786888663246444
9537,1.0,300.43407,26129.495,0.0,-0.09537013244485382,0.0,0.0,0.0,0.0,-1.7116679925284786,-3.9040791824526164,-2.3269669528537578,0.009919174566346311,0.017619206378630285,-0.5807558053361355
9538,1.0,300.03431,25965.737,0.0,-0.09538016142233063,0.0,0.0,0.0,0.0,-1.6763307939659682,-3.874217182130466,-2.3423877074506683,0.014608670105513488,0.01222363439737879,-0.6039060977908914
9539,1.0,300.48017999999996,26094.141,0.0,-0.09539015740974988,0.0,0.0,0.0,0.0,-1.6949830057817985,-3.904411629810426,-2.332572556381988,-0.001165777272003259,-0.00035077282686608267,-0.6068512611940564
9540,1.0,300.58027999999996,26197.928,0.0,-0.09540015339716923,0.0,0.0,0.0,0.0,-1.7050105340714383,-3.8881761208081063,-2.370329396183298,0.004672231074688306,-0.01924859055968798,-0.6067134389154545
9541,1.0,300.29976,26179.791,0.0,-0.09541014938458847,0.0,0.0,0.0,0.0,-1.7066205884803383,-3.903614809931786,-2.3477673562065977,-0.024959009744512473,-0.00997668562877221,-0.6014586023068424
9542,1.0,299.96629,26186.185,0.0,-0.09542014537200783,0.0,0.0,0.0,0.0,-1.6895199665426384,-3.9246047923783367,-2.345821612039568,-0.011372529644631289,-0.0052195664872061055,-0.5910114567532895
9543,1.0,300.09823,26377.368,0.0,-0.09543014135942718,0.0,0.0,0.0,0.0,-1.7307367514604184,-3.918328822583946,-2.3689958577266874,-0.02847899904865837,0.007893554880683213,-0.5846043318659554
9544,1.0,300.35622,26371.972,0.0,-0.09544013734684642,0.0,0.0,0.0,0.0,-1.7057781723471985,-3.9262718927678666,-2.3843708134190775,-0.007432792164659472,0.011135132238951989,-0.5793620595585834
9545,1.0,299.5523,26130.734,0.0,-0.09545013333426577,0.0,0.0,0.0,0.0,-1.6802840905561285,-3.9104549573818566,-2.3523516036340277,-0.002893555231846667,-0.0034715237280127163,-0.5900218660431245
9546,1.0,299.66076,26116.072,0.0,-0.09546016231174259,0.0,0.0,0.0,0.0,-1.6811564988922285,-3.896390438043796,-2.3610869340711376,0.017200237594781283,-0.013873719277979485,-0.5746477918783215
9547,1.0,299.94247,26229.435,0.0,-0.09547015829916172,0.0,0.0,0.0,0.0,-1.7072333008158085,-3.9069343185843963,-2.3589257729328477,-0.0051148524595966355,-0.01852981829650068,-0.5864144626396015
9548,1.0,299.86888999999996,26248.453999999998,0.0,-0.09548015428658119,0.0,0.0,0.0,0.0,-1.7123762543483783,-3.901685075116336,-2.3648133639639077,0.00047248573597071154,-0.01072480141220549,-0.5736113890135364
9549,1.0,300.08487,26160.603,0.0,-0.09549015027400054,0.0,0.0,0.0,0.0,-1.7122739160882785,-3.8971022462390463,-2.342793818090748,-0.024261952444218273,0.013432687986453088,-0.6023578719030934
9550,1.0,300.74305,26252.6,0.0,-0.09550014626141978,0.0,0.0,0.0,0.0,-1.7162155603022884,-3.9162145749252866,-2.3477046360254077,-0.013940991991868788,0.005008954449245315,-0.5891221607493304
9551,1.0,300.54362000000003,26345.783,0.0,-0.09551014224883914,0.0,0.0,0.0,0.0,-1.7330880996424782,-3.901574934830466,-2.373797143325538,-0.0010162130459424191,-0.0065761781684682535,-0.6107608056448984
9552,1.0,300.30016,26433.813,0.0,-0.09552013823625838,0.0,0.0,0.0,0.0,-1.7403569532098584,-3.924832672325826,-2.370029676803718,0.009336676842233261,-0.0027315238752304172,-0.5917955806081764
9553,1.0,300.11375,26398.423,0.0,-0.09553013422367773,0.0,0.0,0.0,0.0,-1.7408926585377285,-3.912785736586886,-2.3707829269280576,0.016544962675610685,-0.0026298058255166275,-0.5949530604372953
9554,1.0,299.56689,26278.432,0.0,-0.09554016320115455,0.0,0.0,0.0,0.0,-1.7099458726585182,-3.911041730514766,-2.3669993497296478,0.014457575263851587,-0.003156327763755297,-0.5785183363328145
9555,1.0,299.57537,26279.132,0.0,-0.09555015918857368,0.0,0.0,0.0,0.0,-1.7064618121896684,-3.926592383774496,-2.3551456407847775,-0.001195928555228959,0.007398929042342442,-0.5907220319947254
9556,1.0,299.96061000000003,26399.021,0.0,-0.09556015517599314,0.0,0.0,0.0,0.0,-1.7069369251615587,-3.9167767260807667,-2.4009296505283078,-0.01047157805321429,0.005026283457755555,-0.5802250446687535
9557,1.0,300.05363,26255.247000000003,0.0,-0.0955701511634125,0.0,0.0,0.0,0.0,-1.7056836361128684,-3.917520147679136,-2.357735609365388,0.004717562465612166,-0.001630667563634358,-0.6052944328129094
9558,1.0,299.72706,26023.136000000002,0.0,-0.09558014715083163,0.0,0.0,0.0,0.0,-1.6724174194297483,-3.893003750909556,-2.3449621733047477,-0.011687416364958188,-0.0009064256041547422,-0.6012646662377025
9559,1.0,299.92675,26170.232999999997,0.0,-0.0955901431382511,0.0,0.0,0.0,0.0,-1.7036448755866584,-3.912768410010176,-2.338684177010158,0.013340167106571986,-0.0007960815030271271,-0.5947762482948454
9560,1.0,299.24221,26398.576,0.0,-0.09560013912567022,0.0,0.0,0.0,0.0,-1.7228539696574483,-3.9294969665111563,-2.3721570967136776,0.01972139028159968,0.005650181770354525,-0.5861739069333605
9561,1.0,300.0907,26393.381,0.0,-0.09561013511308969,0.0,0.0,0.0,0.0,-1.724772964021838,-3.9260621499971666,-2.3720936672574178,0.016530546153187883,0.018153914668401883,-0.5936183060805654
9562,1.0,300.66456,26325.802000000003,0.0,-0.0956201640905664,0.0,0.0,0.0,0.0,-1.7127569324109484,-3.9220487676760762,-2.3675807526370276,0.007301073603334863,0.015518463317303086,-0.5958732637806124
9563,1.0,300.58378999999996,26298.613999999998,0.0,-0.09563016007798564,0.0,0.0,0.0,0.0,-1.7188666278639284,-3.919308736755656,-2.3559466149888277,0.006765259857704165,0.0006800155988498144,-0.5910550062425874
9564,1.0,300.46173999999996,26354.837000000003,0.0,-0.09564015606540499,0.0,0.0,0.0,0.0,-1.7192425436510284,-3.9219958760208566,-2.3699740493732273,-0.006809098629905713,0.0032517251593452865,-0.6027656138758344
9565,1.0,300.2226,26443.346,0.0,-0.09565015205282446,0.0,0.0,0.0,0.0,-1.7147673219343584,-3.9481594121529966,-2.3751899569129975,0.0009964888357857909,-0.016474733297929586,-0.5955014313914154
9566,1.0,299.61837,26342.248,0.0,-0.09566014804024359,0.0,0.0,0.0,0.0,-1.7094394502585384,-3.9028286291791963,-2.3951174453046873,-0.006472540415115004,0.0033240586521840463,-0.5772229771399725
9567,1.0,299.90137999999996,26238.244,0.0,-0.09567014402766305,0.0,0.0,0.0,0.0,-1.6873428973777786,-3.918219492898156,-2.3702088194213977,-0.014500802539617788,-0.007277209536979664,-0.5772842686385214
9568,1.0,299.59431,26152.927000000003,0.0,-0.09568014001508218,0.0,0.0,0.0,0.0,-1.6857469271452683,-3.9012274913711757,-2.3628622495713474,0.008210586043521753,-0.0003117325740906097,-0.5891308544351884
9569,1.0,300.21317999999997,26408.926,0.0,-0.09569013600250154,0.0,0.0,0.0,0.0,-1.7287181546111983,-3.917088908436576,-2.381847111395008,0.00031270380470896266,-0.009187360051846841,-0.6000488269127084
9570,1.0,300.49512000000004,26484.272,0.0,-0.095700131989921,0.0,0.0,0.0,0.0,-1.7387078886721083,-3.928137792827017,-2.383711491579008,-0.0007214133198379513,-0.0018503184004372082,-0.5870784960926365
9571,1.0,299.92193,26307.048,0.0,-0.09571016096739782,0.0,0.0,0.0,0.0,-1.7184791610256882,-3.9185218467279967,-2.3596845959327375,-0.008321013180495062,-0.012239669080211289,-0.5944670955568344
9572,1.0,300.22011000000003,26336.707000000002,0.0,-0.09572015695481717,0.0,0.0,0.0,0.0,-1.7145465347375681,-3.925063490698607,-2.366091173665018,-0.01818313477478568,0.0017777836761285885,-0.5755194706743495
9573,1.0,299.61998,26431.796000000002,0.0,-0.0957301529422363,0.0,0.0,0.0,0.0,-1.7351425655452382,-3.9261263900535064,-2.373337127780138,-0.012523210908694689,-0.007745905595986362,-0.5997623507119354
9574,1.0,299.11352,26364.062,0.0,-0.09574014892965554,0.0,0.0,0.0,0.0,-1.7102585616393786,-3.923307021650256,-2.3804508527572077,-0.011824596242996789,0.003513480996103577,-0.5992385206752374
9575,1.0,299.64943,26301.186,0.0,-0.0957501449170749,0.0,0.0,0.0,0.0,-1.7054460289644182,-3.923048541549746,-2.3664094355214274,-0.009546486791414892,-0.001056399760808539,-0.6084261152944824
9576,1.0,298.90108,26280.304,0.0,-0.09576014090449414,0.0,0.0,0.0,0.0,-1.6897810810934084,-3.9245966863775363,-2.3741786319881877,0.006375846160722024,0.007806629978454393,-0.6246590101115443
9577,1.0,299.23617,26214.554,0.0,-0.0957701368919135,0.0,0.0,0.0,0.0,-1.6886375270305485,-3.9207319478461162,-2.3592003637099475,0.01065415761523349,0.0026190735817824377,-0.5990164365183194
9578,1.0,300.61827,26319.345,0.0,-0.09578013287933296,0.0,0.0,0.0,0.0,-1.6975126859814584,-3.9265053455909062,-2.376405755707988,-0.0007795521413633062,0.0019044935395588784,-0.5805941818126844
9579,1.0,299.71782,26373.403,0.0,-0.09579016185680966,0.0,0.0,0.0,0.0,-1.7212229409714785,-3.923604613204626,-2.3720285152759875,-0.008439581680696862,-0.013837983973452686,-0.5591108884224484
9580,1.0,299.77524,26363.289,0.0,-0.09580015784422913,0.0,0.0,0.0,0.0,-1.7044087648370485,-3.942468594291356,-2.366904104220248,-0.009871601055601172,0.011002674106379388,-0.5819781193292685
9581,1.0,300.45046,26428.435,0.0,-0.09581015383164826,0.0,0.0,0.0,0.0,-1.724574164352218,-3.949847081519556,-2.359162974781258,-0.004668257310446126,0.0014733235019807086,-0.6080397225013484
9582,1.0,300.12102999999996,26621.789,0.0,-0.0958201498190675,0.0,0.0,0.0,0.0,-1.7414728455449884,-3.9439085240084664,-2.4069779430252276,0.008719757087048021,0.008854816840577382,-0.5843047036788844
9583,1.0,300.48132999999996,26601.87,0.0,-0.09583014580648685,0.0,0.0,0.0,0.0,-1.7617568966468682,-3.9502408305084167,-2.374306605475818,0.01783183792536538,-0.003978624802909696,-0.6152060351586084
9584,1.0,300.33566,26314.697,0.0,-0.09584014179390621,0.0,0.0,0.0,0.0,-1.7162202212527484,-3.9130625565142063,-2.369728133573958,0.014559203235631486,0.013191023784602688,-0.5901777039085044
9585,1.0,300.08994,26218.548,0.0,-0.09585013778132567,0.0,0.0,0.0,0.0,-1.7091991073348183,-3.9004734306467563,-2.360111478199868,0.011585019336352387,-0.005526289654127324,-0.6165163195254234
9586,1.0,300.52353999999997,26301.506,0.0,-0.0958601337687448,0.0,0.0,0.0,0.0,-1.6992875961816285,-3.9062384184157164,-2.3894750607978277,-0.00014124933362022384,-0.0022553679650124878,-0.5772200387146825
9587,1.0,300.48622,26390.787999999997,0.0,-0.09587016274622162,0.0,0.0,0.0,0.0,-1.7206929098441686,-3.922619227482376,-2.3788283353720776,-0.0028241060567425675,-0.010175602632753791,-0.6132098615341014
9588,1.0,299.35312000000005,26447.403,0.0,-0.09588015873364097,0.0,0.0,0.0,0.0,-1.7163916631696685,-3.937201618946546,-2.3857569395558778,-0.004891336580287336,0.008780004228718951,-0.5884458365725825
9589,1.0,299.69839,26481.904,0.0,-0.09589015472106022,0.0,0.0,0.0,0.0,-1.7411251994356782,-3.9399420551670064,-2.368770308254428,0.0016458522309579686,0.001159613468994939,-0.5999224036977314
9590,1.0,299.55667,26489.199,0.0,-0.09590015070847946,0.0,0.0,0.0,0.0,-1.7333379671171383,-3.9367158668486066,-2.382001226735218,-0.013181699857182488,-0.0003062708115465757,-0.5616550277010355
9591,1.0,300.18685,26523.967,0.0,-0.09591014669589881,0.0,0.0,0.0,0.0,-1.7478737490767084,-3.9454663960372165,-2.3692837220800977,0.008881339573869971,-0.012223638450379187,-0.5717196206793335
9592,1.0,300.20551,26583.034,0.0,-0.09592014268331817,0.0,0.0,0.0,0.0,-1.7292855746671985,-3.9444941825662663,-2.406799003057568,0.00022418602266043776,0.006313418504835894,-0.5852296794301725
9593,1.0,300.18203,26355.045,0.0,-0.09593013867073752,0.0,0.0,0.0,0.0,-1.7134375325031181,-3.932152695023256,-2.3656852656749576,0.013238292915017788,0.010604927845874891,-0.6145336829222524
9594,1.0,299.98746,26280.362,0.0,-0.09594013465815676,0.0,0.0,0.0,0.0,-1.6904876203881383,-3.930656732575617,-2.3674294743970976,-0.014973218239741588,-0.00048516643938219955,-0.6255987995792944
9595,1.0,300.47607999999997,26423.907000000003,0.0,-0.09595016363563358,0.0,0.0,0.0,0.0,-1.7451571242335984,-3.9112974748400067,-2.3757533239685977,0.002885151639492297,-0.007868381897848832,-0.6071437257029204
9596,1.0,300.45099,26448.232999999997,0.0,-0.09596015962305293,0.0,0.0,0.0,0.0,-1.7106671040796986,-3.9340125155818066,-2.394922901285488,-0.01043970019181819,0.009092116568947041,-0.6142150258983033
9597,1.0,299.7694,26289.967999999997,0.0,-0.09597015561047217,0.0,0.0,0.0,0.0,-1.7129541108804085,-3.9248686427043755,-2.3536709565892378,0.010262311510061291,-0.017052965745746683,-0.5835360420205234
9598,1.0,299.94911,26387.944,0.0,-0.0959801515978913,0.0,0.0,0.0,0.0,-1.6935748921178284,-3.937880192538516,-2.3898209843819678,-0.010137301778973791,-0.006808901248786233,-0.5841399998751295
9599,1.0,299.67017999999996,26640.562,0.0,-0.09599014758531077,0.0,0.0,0.0,0.0,-1.7441725491114284,-3.967296970766726,-2.3865963159387182,-0.004646502729474115,-0.02120005553678258,-0.5822723468933065
9600,1.0,300.07167000000004,26623.414,0.0,-0.09600014357273012,0.0,0.0,0.0,0.0,-1.7335320045112885,-3.962928748260617,-2.3963922152554975,4.4705688722107956e-05,0.005660410023488975,-0.5916979843585445
9601,1.0,300.05068,26604.453999999998,0.0,-0.09601013956014948,0.0,0.0,0.0,0.0,-1.7488069524188086,-3.9641196211031464,-2.374163129261658,0.0040733039055037955,0.011534841164900188,-0.5828885954716254
9602,1.0,299.53013,26475.597,0.0,-0.09602013554756872,0.0,0.0,0.0,0.0,-1.7364621211504683,-3.9348530065397567,-2.376605163327668,-0.008183301650128993,0.002005234208226208,-0.5707031484440155
9603,1.0,299.67383,26325.091,0.0,-0.09603016452504554,0.0,0.0,0.0,0.0,-1.7065926227775785,-3.926530879493426,-2.369046722881708,-0.004752919523876636,-0.011392984124399989,-0.5853289576749704
9604,1.0,300.89153,26397.441000000003,0.0,-0.09604016051246489,0.0,0.0,0.0,0.0,-1.7073419212265286,-3.9333346512649063,-2.3834863474067878,-0.000987482187369404,0.006351389647033354,-0.6079495331099475
9605,1.0,300.00424,26456.285,0.0,-0.09605015649988413,0.0,0.0,0.0,0.0,-1.7057536516947782,-3.938843894708626,-2.3974526828101577,0.010676379203176592,-0.005629720805785184,-0.6123404220207944
9606,1.0,299.98019,26270.334,0.0,-0.09606015248730326,0.0,0.0,0.0,0.0,-1.6986190537656483,-3.9292720249889563,-2.3576345883304177,-0.003873035732513866,0.012214934632020188,-0.6076445042998434
9607,1.0,300.08249,26347.847999999998,0.0,-0.09607014847472284,0.0,0.0,0.0,0.0,-1.7136936821283983,-3.9338054072613664,-2.361588796845668,-0.004662441964147196,0.006369893823009573,-0.5943740488001514
9608,1.0,299.97726,26610.181,0.0,-0.09608014446214208,0.0,0.0,0.0,0.0,-1.7566096874638781,-3.9471205268254663,-2.385100252166068,-0.004170563857427606,0.022661734667289078,-0.5989746095541915
9609,1.0,300.00447,26625.705,0.0,-0.09609014044956143,0.0,0.0,0.0,0.0,-1.7454048638830484,-3.966390517227266,-2.3817541963608377,0.00030160417675351473,0.006614798297354764,-0.5899912557576035
9610,1.0,300.0677,26604.63,0.0,-0.09610013643698068,0.0,0.0,0.0,0.0,-1.7208979916644087,-3.967491818760956,-2.398753189313508,0.002220983626844018,-0.01062592644094729,-0.5949745210744134
9611,1.0,299.61294,26597.939,0.0,-0.09611016541445738,0.0,0.0,0.0,0.0,-1.7339437893519283,-3.9575315702779563,-2.3936339458332774,-0.0008636878700418561,-0.016806699361942085,-0.5854349639004325
9612,1.0,300.05523,26536.388,0.0,-0.09612016140187685,0.0,0.0,0.0,0.0,-1.722274289275238,-3.9667308679358566,-2.3773940798555278,-0.003026481485965467,0.01127443183619979,-0.6017843419489904
9613,1.0,300.12722,26406.757,0.0,-0.09613015738929598,0.0,0.0,0.0,0.0,-1.7288560579498082,-3.929694144980617,-2.368444447022268,-0.012146053890222188,0.015911305447323585,-0.5898187093980745
9614,1.0,299.65975,26432.168999999998,0.0,-0.09614015337671544,0.0,0.0,0.0,0.0,-1.7213731046362986,-3.939027292976726,-2.374319068452048,-0.010923726724837888,0.0009930854401574022,-0.5898240390936004
9615,1.0,299.65492,26458.501,0.0,-0.0961501493641348,0.0,0.0,0.0,0.0,-1.7325795494172882,-3.9389737933714457,-2.3711704950913077,-0.006452305101342933,-0.0007547405037795883,-0.6014459974755985
9616,1.0,299.76784,26473.224,0.0,-0.09616014535155404,0.0,0.0,0.0,0.0,-1.7116470182514083,-3.9441047905528364,-2.391447149467458,0.005460119660321855,0.001945197923901088,-0.6043851523056705
9617,1.0,299.63715,26604.517999999996,0.0,-0.09617014133897339,0.0,0.0,0.0,0.0,-1.7288549433746985,-3.9586639785897164,-2.3995903365461273,0.017071748362850383,-0.006334095696976573,-0.6172685969296674
9618,1.0,299.55487,26703.462000000003,0.0,-0.09618013732639252,0.0,0.0,0.0,0.0,-1.7265462530218485,-3.962385240906976,-2.428254168625027,0.013097838212655989,-0.016955495139127086,-0.5752619835589374
9619,1.0,299.86651,26573.461,0.0,-0.09619013331381177,0.0,0.0,0.0,0.0,-1.7415486366524682,-3.953909302495466,-2.3822107668558976,0.02021858602616908,-0.004893361661937196,-0.6008733693140844
9620,1.0,300.3791,26556.642000000003,0.0,-0.0962001622912888,0.0,0.0,0.0,0.0,-1.7305963149965586,-3.9657236973364562,-2.376235934991228,0.008795328927206381,0.012448919411362688,-0.5867325421109935
9621,1.0,300.5347,26526.846,0.0,-0.09621015827870794,0.0,0.0,0.0,0.0,-1.7547963750849183,-3.9453498722757163,-2.3633525612947377,-0.008094502437865192,-0.00015468641809886086,-0.6146212986583994
9622,1.0,300.53785,26355.362,0.0,-0.09622015426612729,0.0,0.0,0.0,0.0,-1.7102291773864784,-3.942766996445806,-2.3583756794535575,-0.024361587353051477,-0.026243733864304876,-0.5884187625299104
9623,1.0,299.83362999999997,26388.683999999997,0.0,-0.09623015025354675,0.0,0.0,0.0,0.0,-1.7078808689547182,-3.9531931373247864,-2.360427105606018,-0.017181435725925683,-0.008244262423845352,-0.6262764105836693
9624,1.0,299.91116,26584.972999999998,0.0,-0.09624014624096588,0.0,0.0,0.0,0.0,-1.7106104633991084,-3.957358811135906,-2.4131987920141773,0.003933748766580776,0.006539859839833914,-0.5954945716882385
9625,1.0,299.33717,26429.472,0.0,-0.09625014222838535,0.0,0.0,0.0,0.0,-1.7218465964080283,-3.9448664506530062,-2.3671865983481277,0.002054133151427158,0.002116332826040788,-0.5898357319997544
9626,1.0,299.69304,26425.697,0.0,-0.09626013821580448,0.0,0.0,0.0,0.0,-1.7095942748738182,-3.9428978070337166,-2.380260057763378,0.0016698244110988382,-0.013348446373139087,-0.5761834939948834
9627,1.0,299.98329,26770.896,0.0,-0.09627013420322394,0.0,0.0,0.0,0.0,-1.7623909885594482,-3.965230447187776,-2.410062478979648,0.01188936318938879,0.004863248983540305,-0.5922236078479194
9628,1.0,299.91811,26848.301,0.0,-0.09628016318070065,0.0,0.0,0.0,0.0,-1.7606380658864484,-3.980663563435906,-2.4199115739266777,0.007670372158006793,0.009394625628702361,-0.5940990324580094
9629,1.0,299.777,26587.642000000003,0.0,-0.0962901591681199,0.0,0.0,0.0,0.0,-1.7178761758911787,-3.956472217298406,-2.407630780064658,4.388211600107766e-05,0.009422977683725492,-0.5863423496299844
9630,1.0,300.16117,26588.08,0.0,-0.09630015515553925,0.0,0.0,0.0,0.0,-1.7124106035267683,-3.973283860307586,-2.3964179518080377,-0.01048330540987169,-0.009985731013739922,-0.5935941198006784
9631,1.0,299.86637,26610.089,0.0,-0.0963101511429586,0.0,0.0,0.0,0.0,-1.7294076713042483,-3.9597319441951164,-2.399662986578298,-0.006560225558893853,0.015136208637577484,-0.5863643675546575
9632,1.0,300.02574,26489.56,0.0,-0.09632014713037784,0.0,0.0,0.0,0.0,-1.7201286308634784,-3.9593727470346667,-2.372663519113658,0.003975403174216747,0.018893183967862083,-0.6029981345087825
9633,1.0,299.90485,26469.022999999997,0.0,-0.0963301431177972,0.0,0.0,0.0,0.0,-1.7158680155179882,-3.969209581655486,-2.3608443619971977,0.00014413113849463585,0.017180365733820084,-0.5894567055348474
9634,1.0,300.25252,26552.667,0.0,-0.09634013910521644,0.0,0.0,0.0,0.0,-1.7403349656826883,-3.948432989679996,-2.382579792542318,-0.013461836152079788,-0.009168417138577321,-0.5947092319332314
9635,1.0,300.24388999999996,26594.472,0.0,-0.09635013509263579,0.0,0.0,0.0,0.0,-1.7082224355634283,-3.9813876319573662,-2.3944452551883475,-0.002961410057918417,0.010819615277062888,-0.6118547813803654
9636,1.0,300.62257,26665.039,0.0,-0.09636016407011261,0.0,0.0,0.0,0.0,-1.7258018181733783,-3.981632027881486,-2.398072285246308,0.013350293528071386,0.007833862290792014,-0.6045028413047855
9637,1.0,300.27666,26778.475,0.0,-0.09637016005753196,0.0,0.0,0.0,0.0,-1.7474757444374285,-3.970294367212546,-2.4222175285042575,0.007090359024463953,-0.00915932818385531,-0.5735957241669905
9638,1.0,300.60537999999997,26692.096,0.0,-0.0963801560449512,0.0,0.0,0.0,0.0,-1.7516058531700385,-3.969601202819136,-2.3925237276987077,0.002966648763585437,-0.019869931733009584,-0.5893627468530744
9639,1.0,300.51923,26576.257,0.0,-0.09639015203237056,0.0,0.0,0.0,0.0,-1.7408230482558582,-3.957727026222246,-2.3799685457096076,0.0018351635226665384,-0.0033236648018701766,-0.6094708166775864
9640,1.0,300.92906,26636.403,0.0,-0.0964001480197898,0.0,0.0,0.0,0.0,-1.748397903353438,-3.9622206890907363,-2.386182707247898,0.02040811547062418,0.012057179697450987,-0.6303345278966743
9641,1.0,300.31155,26672.553,0.0,-0.09641014400720915,0.0,0.0,0.0,0.0,-1.7319175931269584,-3.971607336692126,-2.404265168532498,-0.0041574967814879855,0.01141392901721709,-0.6113601430790485
9642,1.0,300.32595,26453.762000000002,0.0,-0.0964201399946284,0.0,0.0,0.0,0.0,-1.7241264091330284,-3.9362228193499464,-2.380933767754868,0.003345201534070687,-0.0008497359025249041,-0.6173807941132404
9643,1.0,300.09515,26562.85,0.0,-0.09643013598204775,0.0,0.0,0.0,0.0,-1.7215012807739485,-3.9720876172395263,-2.3808541262970078,-0.007244759797227124,-0.004547504344353736,-0.5955565116668514
9644,1.0,300.28929,26642.68,0.0,-0.09644016495952457,0.0,0.0,0.0,0.0,-1.7367641710052786,-3.9672593791880164,-2.3946859020870974,-0.0024542530516159177,-0.004207279988051206,-0.5989096095602764
9645,1.0,300.05145,26655.34,0.0,-0.09645016094694392,0.0,0.0,0.0,0.0,-1.7373927913673184,-3.9760667517072363,-2.3890982330856376,-0.00933106141017906,-0.007032762849029654,-0.5763545711417675
9646,1.0,300.03046,26816.465,0.0,-0.09646015693436316,0.0,0.0,0.0,0.0,-1.746239680640438,-3.9971771082656664,-2.4081190652878477,-0.008332408596419701,-0.01911352026835758,-0.6042852965083154
9647,1.0,299.48332999999997,26870.48,0.0,-0.09647015292178251,0.0,0.0,0.0,0.0,-1.7607138569939282,-3.975742714325256,-2.4314982914701977,-0.02037095553645678,0.01021263287090839,-0.5830761683301374
9648,1.0,299.81934,26681.764,0.0,-0.09648014890920176,0.0,0.0,0.0,0.0,-1.7260926209520782,-3.9892471090080357,-2.3952501810677878,-0.00039501544002748865,0.005887177017069135,-0.6070775199413865
9649,1.0,300.25441,26623.83,0.0,-0.09649014489662111,0.0,0.0,0.0,0.0,-1.7325860342179285,-3.955465451999046,-2.404927935422908,-0.003133305708233197,0.0008132374484202873,-0.5805910610023765
9650,1.0,300.96965,26759.09,0.0,-0.09650014088404046,0.0,0.0,0.0,0.0,-1.7486276071511084,-3.957178655268126,-2.4282888217784477,0.010477088107258089,-0.03265516607781397,-0.5991716259036354
9651,1.0,300.96735,26653.475,0.0,-0.0965101368714597,0.0,0.0,0.0,0.0,-1.7366563611946384,-3.9761085989363663,-2.389226105248258,-0.0004371561570489536,-0.011834604114234488,-0.6125816160745984
9652,1.0,300.58234,26503.933999999997,0.0,-0.09652016584893652,0.0,0.0,0.0,0.0,-1.7013400355841881,-3.9564478992960064,-2.398746197887818,-0.002791738795548167,0.0026747618072784376,-0.6208123986244134
9653,1.0,300.14605,26573.897999999997,0.0,-0.09653016183635588,0.0,0.0,0.0,0.0,-1.7285806565726283,-3.9694688723560763,-2.3797518115132177,-0.02254504270627248,0.004745187412363535,-0.6115125460265894
9654,1.0,300.22898,26650.197,0.0,-0.09654015782377512,0.0,0.0,0.0,0.0,-1.7340774370401182,-3.982099744127646,-2.3848171500881277,-0.005602898555763036,-0.010781173581518989,-0.5999631363517514
9655,1.0,300.09482,26641.727000000003,0.0,-0.09655015381119447,0.0,0.0,0.0,0.0,-1.7329075384746584,-3.9690999479946667,-2.3964122776074777,-0.007612480417518323,0.014657012267784486,-0.5968469059342034
9656,1.0,299.88352000000003,26711.661,0.0,-0.0965601497986136,0.0,0.0,0.0,0.0,-1.7247981939493284,-3.9967786983263465,-2.398100960224138,0.007555038357424232,0.0034464536913884963,-0.5745740171385404
9657,1.0,299.67924,26709.805,0.0,-0.09657014578603307,0.0,0.0,0.0,0.0,-1.7396104918611883,-3.9591694890646068,-2.4203336939183377,-0.0037450296182306468,-0.00871921854461987,-0.5724471747811375
9658,1.0,300.19029,26760.278,0.0,-0.09658014177345242,0.0,0.0,0.0,0.0,-1.7243944137844784,-3.985952019682836,-2.4241097730660077,-0.007015344775835624,-0.006255068977952244,-0.5883928233273504
9659,1.0,299.49512000000004,26797.251,0.0,-0.09659013776087166,0.0,0.0,0.0,0.0,-1.7433688391321083,-3.9827505546668758,-2.4195758841685477,0.0013423288065275388,0.017416047707080086,-0.6188360239068604
9660,1.0,299.46929,26817.752,0.0,-0.09660013374829102,0.0,0.0,0.0,0.0,-1.7568399992116084,-3.9772366502726957,-2.4178501165982276,0.008208642832479972,0.02096895244072448,-0.5990552237321474
9661,1.0,299.94552999999996,26604.879,0.0,-0.09661016272576783,0.0,0.0,0.0,0.0,-1.7216405013376883,-3.9856743891554363,-2.379904103003248,-0.004171673974237166,-0.0002630092169994887,-0.6139736291944794
9662,1.0,300.59229,26600.611,0.0,-0.09662015871318697,0.0,0.0,0.0,0.0,-1.7283229870721986,-3.969725731256426,-2.3878728084146976,-0.006521686793990373,-0.008691777401436642,-0.5994002759212015
9663,1.0,300.67875,26820.988999999998,0.0,-0.09663015470060643,0.0,0.0,0.0,0.0,-1.7556437561435483,-3.9881025416950764,-2.4091646380660374,0.013765901361338687,0.013777732069506287,-0.6111271259535515
9664,1.0,300.06395,26798.313,0.0,-0.09664015068802556,0.0,0.0,0.0,0.0,-1.7456517929324182,-3.9999081212601957,-2.400458083931768,0.005502441495798694,0.004600561665965086,-0.6031951508582264
9665,1.0,300.24647000000004,26719.979,0.0,-0.09665014667544503,0.0,0.0,0.0,0.0,-1.7343371330407484,-3.9732268143269565,-2.414642470756658,-0.0060412683432517645,-0.005462550244661735,-0.5945189334319504
9666,1.0,300.41074,26884.417999999998,0.0,-0.09666014266286438,0.0,0.0,0.0,0.0,-1.7574426803710883,-4.009902921571606,-2.4048462674648476,-0.015236736219748788,-0.021919748844310777,-0.6002094878485644
9667,1.0,300.1674,26919.779,0.0,-0.09667013865028351,0.0,0.0,0.0,0.0,-1.7663539110255584,-3.983264981742646,-2.4333217363501576,0.004903996734986795,0.0007329819306021842,-0.5942787019657414
9668,1.0,299.98566,26697.012000000002,0.0,-0.09668013463770297,0.0,0.0,0.0,0.0,-1.7456826970604682,-3.9567621081520166,-2.412780319722877,0.003664041550987747,-0.006077260506678914,-0.5930044690374844
9669,1.0,299.86784,26657.637000000002,0.0,-0.09669016361517968,0.0,0.0,0.0,0.0,-1.7156776258241981,-3.990219930429046,-2.3973583492258475,0.0037023377438172864,-0.024804593469022772,-0.5914239204714964
9670,1.0,300.0864,26581.283,0.0,-0.09670015960259892,0.0,0.0,0.0,0.0,-1.7300810773207083,-3.9509329816517256,-2.399032238391048,-0.0013842608446909086,-0.015415481643389585,-0.6216890220809295
9671,1.0,300.50941,26638.103,0.0,-0.09671015559001828,0.0,0.0,0.0,0.0,-1.7283197446718785,-3.9861414974515363,-2.3828571190946874,0.016857561477211784,0.01676972890554338,-0.6276462436588613
9672,1.0,299.31919,26762.792999999998,0.0,-0.09672015157743752,0.0,0.0,0.0,0.0,-1.7682328820109983,-3.9895193693099062,-2.377468452412868,0.016094057261859786,0.014904700241479385,-0.6386080898657114
9673,1.0,299.88072999999997,26880.727000000003,0.0,-0.0967301475648571,0.0,0.0,0.0,0.0,-1.7650798503498184,-3.985725152985446,-2.4202648942365474,-0.002318401341808398,-0.006809776696872633,-0.5934693076533605
9674,1.0,300.30077,26742.145,0.0,-0.09674014355227634,0.0,0.0,0.0,0.0,-1.7350836957144282,-4.0029696564373465,-2.3908910778125776,0.0006918259913529093,-0.003971395466096215,-0.6165558464118244
9675,1.0,300.86269,26817.381,0.0,-0.09675013953969547,0.0,0.0,0.0,0.0,-1.7364876550529882,-3.9748525741124063,-2.440473863506018,-0.0012761142297176688,0.004973214889068095,-0.5717599379008125
9676,1.0,300.69673,26896.132999999998,0.0,-0.09676013552711493,0.0,0.0,0.0,0.0,-1.7475172876915286,-3.994337373535406,-2.4338980730070374,0.0011164539796604288,0.025048767491370874,-0.5883559410237105
9677,1.0,300.63187,26774.105,0.0,-0.09677016450459164,0.0,0.0,0.0,0.0,-1.7376151997642684,-3.9851741475810667,-2.4158699219277975,-0.007301725731099222,-0.002365295974986538,-0.5797773198470664
9678,1.0,299.99863999999997,26748.002999999997,0.0,-0.09678016049201088,0.0,0.0,0.0,0.0,-1.7341780527750486,-3.9809620669153665,-2.4155849959996774,-0.013476880889564587,0.003163200436533577,-0.6011278065466954
9679,1.0,300.0792,26979.686,0.0,-0.09679015647943023,0.0,0.0,0.0,0.0,-1.7580475906807882,-4.0196858512871065,-2.423417520597688,-0.0016836536537636782,0.007002576102050453,-0.5925875166213345
9680,1.0,299.6153,26885.045,0.0,-0.09680015246684959,0.0,0.0,0.0,0.0,-1.7455759004999285,-3.9963168589307667,-2.4304897023206578,0.007744156219688713,0.005267405266827425,-0.5964154133791184
9681,1.0,300.24346,26782.293999999998,0.0,-0.09681014845426905,0.0,0.0,0.0,0.0,-1.7273562451517883,-3.997510974173616,-2.4162816054434275,0.0074771959251167825,-0.016458152473293183,-0.5986615254057924
9682,1.0,299.97854,26805.984,0.0,-0.09682014444168818,0.0,0.0,0.0,0.0,-1.7385495176814785,-4.002978978338267,-2.406821294559768,-0.003224035871212567,0.0014321135058385987,-0.6067879026653034
9683,1.0,299.97307,26828.496,0.0,-0.09683014042910743,0.0,0.0,0.0,0.0,-1.7637568496942482,-3.9840490346700257,-2.4073868907655873,0.009623511733541661,0.001143521841506819,-0.6034755982209045
9684,1.0,300.29157999999995,26781.881,0.0,-0.09684013641652678,0.0,0.0,0.0,0.0,-1.7481136867003884,-3.991906181245466,-2.4010032124855676,-0.008144816283505784,0.008042758288383443,-0.5978456057627674
9685,1.0,299.69035,26758.77,0.0,-0.0968501653940036,0.0,0.0,0.0,0.0,-1.7412701955249883,-3.9875861894441167,-2.405141629868998,-5.4578436979472347e-05,0.0008256888735991472,-0.6049937812432374
9686,1.0,299.17141000000004,26772.737,0.0,-0.09686016138142284,0.0,0.0,0.0,0.0,-1.7282014983852083,-3.982879237429576,-2.427162695617308,-0.010774165943827388,0.011977539252841089,-0.5825274934009874
9687,1.0,299.59766,26718.271,0.0,-0.09687015736884219,0.0,0.0,0.0,0.0,-1.7052574631208086,-4.009929266074207,-2.406500499578108,-0.005759926990010535,0.01000165586026158,-0.6168859227644004
9688,1.0,298.77816,26806.909,0.0,-0.09688015335626154,0.0,0.0,0.0,0.0,-1.7390591824817783,-3.978569074154196,-2.4310028121712977,-0.01751939516427968,0.002006960583746588,-0.5920721066929674
9689,1.0,299.70195,26960.123,0.0,-0.09689014934368101,0.0,0.0,0.0,0.0,-1.7593023996046282,-4.017281510124817,-2.4186202879992376,-0.007493282689004423,-0.006246485635030135,-0.6236023422447594
9690,1.0,299.93872000000005,26822.987999999998,0.0,-0.09690014533110014,0.0,0.0,0.0,0.0,-1.7391953632952184,-4.012828377260326,-2.401494942759098,0.0001404278309691479,0.017509910130093582,-0.6125412887206184
9691,1.0,300.09851000000003,26756.821,0.0,-0.09691014131851938,0.0,0.0,0.0,0.0,-1.7491145751491686,-3.9847392606381464,-2.3995518330423273,0.02119161921644998,0.003026252592767877,-0.6215083393230975
9692,1.0,300.29655,26970.161,0.0,-0.09692013730593874,0.0,0.0,0.0,0.0,-1.7625744881525585,-4.010930357173006,-2.4247505524292476,0.009007699866015762,-0.0005771303458158304,-0.5896048832294714
9693,1.0,299.77916,26812.64,0.0,-0.09693016628341555,0.0,0.0,0.0,0.0,-1.7573116671331586,-3.977406167014426,-2.4156552142316077,0.00844496913147856,-0.006244429446602203,-0.6081627310634884
9694,1.0,299.33814,26766.412,0.0,-0.09694016227083468,0.0,0.0,0.0,0.0,-1.752422026125588,-3.989495355282536,-2.394403407959218,-3.326591777434047e-05,-0.0007283672755392533,-0.5927092383558474
9695,1.0,300.20732999999996,26963.338,0.0,-0.09695015825825415,0.0,0.0,0.0,0.0,-1.7874109706287282,-3.9999426730886065,-2.4088278337327975,0.009660017716094522,-0.008264032047871461,-0.6078638121514874
9696,1.0,299.56176,27033.717999999997,0.0,-0.0969601542456735,0.0,0.0,0.0,0.0,-1.778591236458288,-3.997848082481886,-2.441136022446368,-0.01305932052335459,0.004602395040696026,-0.5778091017928184
9697,1.0,300.54621000000003,26927.576,0.0,-0.09697015023309286,0.0,0.0,0.0,0.0,-1.7491870225313182,-4.018985796793016,-2.4171378017779275,-0.001067762550079959,-0.015474807436744587,-0.6083439609763744
9698,1.0,300.50206000000003,26939.141,0.0,-0.0969801462205121,0.0,0.0,0.0,0.0,-1.7409130248647382,-4.006661838476736,-2.4412513303077477,-0.014357604969235287,-0.009111896629449182,-0.5938669880526084
9699,1.0,299.90557,26924.412999999997,0.0,-0.09699014220793134,0.0,0.0,0.0,0.0,-1.7544356580493183,-4.0057455564113065,-2.424168034946758,0.016031487041684587,0.0038201904841484464,-0.6040811570106684
9700,1.0,299.82153,26829.418999999998,0.0,-0.0970001381953507,0.0,0.0,0.0,0.0,-1.7559142939202486,-4.005828440269486,-2.393730609892818,0.009095793552234931,-0.004851784463958845,-0.6154678083219435
9701,1.0,299.75888,26791.235,0.0,-0.09701013418277005,0.0,0.0,0.0,0.0,-1.7577371308501484,-3.9861363298760257,-2.3999929008108576,0.02000327848591988,-0.009550019589213551,-0.6124356067351884
9702,1.0,299.26487000000003,26723.455,0.0,-0.09702016316024686,0.0,0.0,0.0,0.0,-1.7334111237743586,-3.9936347859160666,-2.3962172269632274,0.011561131965244888,-0.00031494349273000267,-0.6201169341532764
9703,1.0,299.89898,26778.398999999998,0.0,-0.09703015914766622,0.0,0.0,0.0,0.0,-1.7348213652635383,-3.997678971040196,-2.4074641004232076,0.02360010659814918,0.003947996177561887,-0.5977652448973364
9704,1.0,300.48052,26879.722,0.0,-0.09704015513508546,0.0,0.0,0.0,0.0,-1.7536808880498282,-3.979483431044436,-2.4375997795973676,-0.006182155703406265,0.02090414293782828,-0.6054370477644845
9705,1.0,300.25093,26997.99,0.0,-0.09705015112250481,0.0,0.0,0.0,0.0,-1.7723027023626583,-4.016470808719806,-2.4179413091072277,-0.016224924591775384,0.004627109426535146,-0.6043785053850145
9706,1.0,300.29491,26917.767000000003,0.0,-0.09706014710992406,0.0,0.0,0.0,0.0,-1.7636453921832485,-4.000962711964276,-2.4177210285354875,-0.03254331846552547,0.00998836911170028,-0.6112104556417755
9707,1.0,300.35487,26962.82,0.0,-0.09707014309734319,0.0,0.0,0.0,0.0,-1.7552487912545682,-4.0256504493257665,-2.415124879129268,-0.008443418960150571,0.011689266559640789,-0.5960303276786134
9708,1.0,300.19866,27121.771,0.0,-0.09708013908476265,0.0,0.0,0.0,0.0,-1.7614097571626086,-4.028767814583426,-2.4541634803070775,-0.0037469285502430565,0.0034241765773399165,-0.6067622775702745
9709,1.0,300.07549,27057.917999999998,0.0,-0.097090135072182,0.0,0.0,0.0,0.0,-1.7566054318134585,-4.009742726730797,-2.4585833785682873,0.004533178507814886,-0.0006455085662267354,-0.5778210581439985
9710,1.0,300.20774,26829.22,0.0,-0.09710016404965882,0.0,0.0,0.0,0.0,-1.7289878817878184,-4.0055253771645765,-2.4208996954241977,-0.0008660242930499432,0.0034484971128651665,-0.5987347732555215
9711,1.0,299.89677,26894.028,0.0,-0.09711016003707817,0.0,0.0,0.0,0.0,-1.7627756182974086,-3.9910293146089257,-2.421308035214498,0.0058357214412158645,0.01693618563197138,-0.5771659108943404
9712,1.0,300.40578,27053.39,0.0,-0.09712015602449742,0.0,0.0,0.0,0.0,-1.7871475256027285,-4.005230014760426,-2.4311774964885378,-0.0014810352471667984,0.01199265897083329,-0.5843011978335384
9713,1.0,300.38082,26995.737999999998,0.0,-0.09713015201191677,0.0,0.0,0.0,0.0,-1.7619366472146083,-4.021934050608986,-2.4221595705985375,0.0046685010984201854,-0.0066040960458235345,-0.6059913766291923
9714,1.0,299.79017000000005,26948.903,0.0,-0.09714014799933601,0.0,0.0,0.0,0.0,-1.7520384096377284,-3.9993779888078764,-2.4403770981214676,-0.0031537545138013373,-0.01237583976115029,-0.5905282073830964
9715,1.0,299.54075,26931.664,0.0,-0.09715014398675514,0.0,0.0,0.0,0.0,-1.7426910761402183,-4.015697394918476,-2.4281650026162276,-0.007780659162491273,-0.015684340464673884,-0.5949188632464204
9716,1.0,299.34893,26911.827,0.0,-0.09716013997417472,0.0,0.0,0.0,0.0,-1.7546139900669182,-4.0120700608854865,-2.4138392674023876,0.004808713634008086,-0.006205907197675354,-0.6041817018180914
9717,1.0,299.15243,26983.401,0.0,-0.09717013596159396,0.0,0.0,0.0,0.0,-1.7745867707380785,-4.019455944839416,-2.4082375142245374,-0.0028100192459023076,0.012738456640687788,-0.6190995601253694
9718,1.0,300.0552,27051.744,0.0,-0.09718016493907067,0.0,0.0,0.0,0.0,-1.7670302554673083,-4.0417460284892766,-2.4142785113207377,0.010122734687586132,0.008083068518436752,-0.6181241042540994
9719,1.0,300.17482,26924.077999999998,0.0,-0.09719016092649013,0.0,0.0,0.0,0.0,-1.7406096577847983,-4.024001587438036,-2.4196360712244878,-0.008409377303165922,0.0048568672304354745,-0.6204037751240854
9720,1.0,300.54308,26823.986,0.0,-0.09720015691390926,0.0,0.0,0.0,0.0,-1.7074806351652185,-4.019768329845246,-2.426573085384118,0.0025336248836243074,-0.007105961150828763,-0.5963051109732325
9721,1.0,300.65702000000005,26889.877,0.0,-0.09721015290132873,0.0,0.0,0.0,0.0,-1.7355580994112483,-4.017969810917746,-2.4203231561172975,0.01121223550531149,-0.017107039863833384,-0.6043024812300114
9722,1.0,300.13532000000004,26928.481,0.0,-0.09722014888874786,0.0,0.0,0.0,0.0,-1.7491815509807784,-4.001689921561047,-2.434714448612608,0.012141342277257187,-0.004882532146193405,-0.5888647749589284
9723,1.0,299.86536,26875.925,0.0,-0.09723014487616732,0.0,0.0,0.0,0.0,-1.7686881352809285,-4.015530006001956,-2.385392068194868,0.00898847648511856,0.008215017391509092,-0.6284011859108685
9724,1.0,300.06559,27072.779,0.0,-0.09724014086358668,0.0,0.0,0.0,0.0,-1.7719074334986484,-4.032276395704696,-2.4252648781800077,-0.013348306544625287,0.0014786260424040287,-0.6070799416091254
9725,1.0,300.13133999999997,27015.818,0.0,-0.09725013685100581,0.0,0.0,0.0,0.0,-1.7693917361503684,-4.023685656056856,-2.419056593492298,-0.0035010761804293166,0.001077613772852199,-0.6296474835338685
9726,1.0,299.85106,27028.632999999998,0.0,-0.09726016582848263,0.0,0.0,0.0,0.0,-1.7548876689189283,-4.033936605993547,-2.427205252121508,-0.004014433162768706,-0.02216347804986498,-0.5952176909659125
9727,1.0,299.84635,27115.26,0.0,-0.09727016181590209,0.0,0.0,0.0,0.0,-1.7820741823520285,-4.009134877995806,-2.4511528102849476,-0.0035406348828834573,0.0010114404454539,-0.5946937393392024
9728,1.0,299.23367,27088.377,0.0,-0.09728015780332122,0.0,0.0,0.0,0.0,-1.7796862558413584,-4.029274642283446,-2.425229414426508,-0.012477995636232288,-0.008025628282192842,-0.5857815460971375
9729,1.0,299.4948,26997.471,0.0,-0.09729015379074057,0.0,0.0,0.0,0.0,-1.7767557339021383,-4.021548306295917,-2.4082531182760776,-0.003498738815098637,0.0013540333650576889,-0.6192002569203074
9730,1.0,299.19273,27085.139,0.0,-0.09730014977815982,0.0,0.0,0.0,0.0,-1.7734050171464484,-4.025757549861336,-2.434043271746368,0.0003795709247157336,0.010738003047758389,-0.5956422630228144
9731,1.0,299.33565,27016.36,0.0,-0.09731014576557917,0.0,0.0,0.0,0.0,-1.7480438737684982,-4.025354276321536,-2.438900792725768,0.024894851761430577,0.01725903244508388,-0.6089408159477795
9732,1.0,299.51074,26822.507999999998,0.0,-0.09732014175299863,0.0,0.0,0.0,0.0,-1.7239218339378384,-3.995952190219776,-2.4334987511426274,0.017293887235273784,0.012229165729674689,-0.5924272508530175
9733,1.0,299.91885,26866.2,0.0,-0.09733013774041777,0.0,0.0,0.0,0.0,-1.7261175469045382,-4.011140099943706,-2.429396304137748,0.006781758710407473,0.008424095470143491,-0.5973616977800095
9734,1.0,300.13982000000004,27048.763,0.0,-0.09734016671789458,0.0,0.0,0.0,0.0,-1.7655511129713284,-4.031373995165636,-2.425223334925908,0.011667017613944989,-0.0038604945333761465,-0.5906112432287914
9735,1.0,299.93037999999996,27112.141,0.0,-0.09735016270531394,0.0,0.0,0.0,0.0,-1.7780340502282985,-4.039695716911926,-2.423684106698998,-0.01001179656858739,0.004393411700945976,-0.6077304684383275
9736,1.0,299.8343,27109.622000000003,0.0,-0.09736015869273318,0.0,0.0,0.0,0.0,-1.7611021344322482,-4.051577594209576,-2.4279684320968276,-0.00882012386642845,-0.014466434109475883,-0.6303804483912064
9737,1.0,299.46705,27177.952,0.0,-0.09737015468015253,0.0,0.0,0.0,0.0,-1.7725768878397181,-4.032942303670416,-2.4558996843534273,-0.026875687819173873,-0.015188552124493385,-0.6094675438797634
9738,1.0,299.61505,26953.165,0.0,-0.097380150667572,0.0,0.0,0.0,0.0,-1.7463267188240286,-4.008792399462006,-2.4379700211839075,-0.01180320957313609,-0.012449280128398289,-0.5992932767106414
9739,1.0,299.39911,26826.05,0.0,-0.09739014665499113,0.0,0.0,0.0,0.0,-1.7334566187038483,-4.002002711866917,-2.418989921635718,-0.006637739799493914,-0.004614554345871056,-0.5781343753399205
9740,1.0,299.78667,27050.627,0.0,-0.09740014264241048,0.0,0.0,0.0,0.0,-1.7733762408436085,-4.0061856109297365,-2.4431532007454475,-0.0015941569201310386,0.005266213178084775,-0.6036800416935814
9741,1.0,300.54957,27124.804,0.0,-0.09741013862982972,0.0,0.0,0.0,0.0,-1.7712257188313683,-4.040302552396816,-2.4337349397409374,-0.0037428223542128065,0.007235749977337923,-0.5966103626983584
9742,1.0,300.69354,27042.361,0.0,-0.09742013461724908,0.0,0.0,0.0,0.0,-1.7615365147501183,-4.031044080933076,-2.4276220018876375,0.014240039586632487,-0.0026266999099850974,-0.6266959974500794
9743,1.0,300.07722,27161.862999999998,0.0,-0.0974301635947259,0.0,0.0,0.0,0.0,-1.7699504422555083,-4.035315436729626,-2.4512621399707375,0.0007208295965878423,-0.0033150455898945273,-0.5847169140845664
9744,1.0,299.97765,27201.838,0.0,-0.09744015958214514,0.0,0.0,0.0,0.0,-1.7805439720510086,-4.046124079521356,-2.442011470532768,0.013500917208436788,-0.0069815165093220334,-0.6095364955490684
9745,1.0,300.24289,27128.57,0.0,-0.09745015556956449,0.0,0.0,0.0,0.0,-1.7687270440847682,-4.027779490435886,-2.449901243761427,-0.01023113583098449,0.007350515243289372,-0.5693657799020274
9746,1.0,299.73143,27104.154,0.0,-0.09746015155698384,0.0,0.0,0.0,0.0,-1.7788944008882084,-4.037628078757867,-2.4224635456285375,-0.001154956368885319,-0.0023448940828980276,-0.6007738377567614
9747,1.0,299.93474,27191.373,0.0,-0.09747014754440309,0.0,0.0,0.0,0.0,-1.7777890463541184,-4.041718772061586,-2.445990503675468,-0.02165571005375218,-0.0013869685529331389,-0.5992067856821055
9748,1.0,299.68011,27042.029,0.0,-0.09748014353182244,0.0,0.0,0.0,0.0,-1.7601728827655383,-4.028155000922946,-2.4317737941723876,0.00854867051693809,-0.0008204781235023862,-0.6258475018163394
9749,1.0,299.57579,26913.678,0.0,-0.09749013951924168,0.0,0.0,0.0,0.0,-1.7123705801478184,-4.037718865966826,-2.4309965300206775,0.0026988639874071375,-0.004682938493795046,-0.6368568187903745
9750,1.0,299.62846,26976.556,0.0,-0.09750013550666103,0.0,0.0,0.0,0.0,-1.7422079584925385,-4.030359833140547,-2.4276315264385775,0.0025108988997814274,-0.011648974669414289,-0.6081204582693164
9751,1.0,299.56552999999997,27042.584,0.0,-0.09751016448413785,0.0,0.0,0.0,0.0,-1.7557637249553883,-4.026662787500676,-2.437843770221448,-0.00960602962294131,-0.01818295948251838,-0.6218535840296704
9752,1.0,299.93344,27071.925,0.0,-0.0975201604715571,0.0,0.0,0.0,0.0,-1.7656706764831285,-4.055707905592206,-2.407810530632398,0.02049921678711518,-0.005324442938806605,-0.6313310391050224
9753,1.0,300.06156,27156.877,0.0,-0.09753015645897645,0.0,0.0,0.0,0.0,-1.7846361852298784,-4.034368757161197,-2.4360075583902274,-0.0022419883014170175,0.011872604032734789,-0.6201273098343004
9754,1.0,300.07932999999997,27062.247000000003,0.0,-0.0975401524463958,0.0,0.0,0.0,0.0,-1.7626167406817281,-4.047074204140126,-2.416556500195558,0.02023481930602118,0.00915466652412024,-0.6176410372689244
9755,1.0,299.89025,27085.74,0.0,-0.09755014843381504,0.0,0.0,0.0,0.0,-1.7544443720001783,-4.041687158658466,-2.4372569970885376,-0.01139669261976599,0.007632525442921613,-0.6095970068450405
9756,1.0,301.15231,27427.206000000002,0.0,-0.0975601444212344,0.0,0.0,0.0,0.0,-1.8037976565459681,-4.051941350995476,-2.481446657799718,0.005636723985176344,0.016192946418619385,-0.5893474771740674
9757,1.0,300.68517,27311.632999999998,0.0,-0.09757014040865364,0.0,0.0,0.0,0.0,-1.7949557321983383,-4.047398444172126,-2.4597003854785275,-0.00044941095091340755,0.006535795389707785,-0.5955572918694284
9758,1.0,300.84386,27030.62,0.0,-0.09758013639607299,0.0,0.0,0.0,0.0,-1.7615646831028984,-4.025087791545236,-2.429981050770458,-0.009220152067483162,0.0007811629962397852,-0.5851252842723693
9759,1.0,300.61877000000004,26999.824,0.0,-0.09759016537354981,0.0,0.0,0.0,0.0,-1.7630878006532182,-4.018110956656676,-2.426073553084818,-0.009253499040199252,-0.00947540476377464,-0.6130587150166844
9760,1.0,300.35999,27221.778,0.0,-0.09760016136096894,0.0,0.0,0.0,0.0,-1.7674656490352785,-4.049429200022546,-2.457846137795528,-0.0012735895144434988,-0.004584556570035506,-0.6079978448747154
9761,1.0,299.63905,27151.023999999998,0.0,-0.09761015734838852,0.0,0.0,0.0,0.0,-1.7535552450374285,-4.028350152892206,-2.471328038326088,0.0037714967240927463,-0.0036426916621056763,-0.6023658259163784
9762,1.0,300.04045,27162.186,0.0,-0.09762015333580776,0.0,0.0,0.0,0.0,-1.7526873963267784,-4.063371724048566,-2.440567082515218,0.007056371373709633,-0.007131490899023353,-0.5993367856699354
9763,1.0,300.09244,27269.072999999997,0.0,-0.097630149323227,0.0,0.0,0.0,0.0,-1.7853443457247682,-4.050622099365276,-2.4531509394821476,0.018536463190656483,0.012307005628856886,-0.6046395287432754
9764,1.0,300.34525,27276.342999999997,0.0,-0.09764014531064635,0.0,0.0,0.0,0.0,-1.7938762155417982,-4.0562654971222365,-2.4411854690512476,0.006655561348877763,0.008354354782985622,-0.5991449166309994
9765,1.0,300.16219,27247.297000000002,0.0,-0.09765014129806548,0.0,0.0,0.0,0.0,-1.7814498176404083,-4.067822425112816,-2.4332256802406778,0.005219459184020515,0.002077269501560538,-0.6206828647316295
9766,1.0,299.18133,27173.251,0.0,-0.09766013728548495,0.0,0.0,0.0,0.0,-1.7518257284417382,-4.034372404861556,-2.4737917559442377,-0.012314383102834989,-0.012786704570699489,-0.5967987461569504
9767,1.0,299.24908,27099.254,0.0,-0.09767016626296166,0.0,0.0,0.0,0.0,-1.7251973131637184,-4.055467360018466,-2.4568317731204177,-0.007978258738692833,-0.007705072832856483,-0.6173433646545464
9768,1.0,299.77487,27040.682999999997,0.0,-0.09768016225038112,0.0,0.0,0.0,0.0,-1.7365220042313783,-4.034809014329646,-2.448361306259448,-0.01915300966450488,0.004301240696324406,-0.6159154419511214
9769,1.0,299.88748,27076.769,0.0,-0.09769015823780047,0.0,0.0,0.0,0.0,-1.7604264992655685,-4.021572117673267,-2.4486631534642376,-0.006060428497342724,0.0061820929832250736,-0.6078229984374595
9770,1.0,299.90554,27092.224,0.0,-0.09770015422521972,0.0,0.0,0.0,0.0,-1.7680607308190084,-4.056048965575866,-2.411250008096848,0.0004929026748232065,0.011313474389052988,-0.6257224768865004
9771,1.0,300.29557,27075.214,0.0,-0.09771015021263885,0.0,0.0,0.0,0.0,-1.749165440304188,-4.031716980324486,-2.449306364627718,0.0030872802409908375,0.005707240821910813,-0.6155847373834834
9772,1.0,300.24014,27310.085,0.0,-0.09772014620005831,0.0,0.0,0.0,0.0,-1.7808913141852882,-4.057240243718436,-2.4634523492738176,0.008512768634094852,-0.004136119332203196,-0.6204154072352334
9773,1.0,300.7065,27558.808999999997,0.0,-0.09773014218747744,0.0,0.0,0.0,0.0,-1.7982480857482683,-4.081324793295396,-2.497617014820608,-0.0025394902844781777,-0.013904018495719787,-0.5839269741741054
9774,1.0,300.73479,27398.028,0.0,-0.09774013817489702,0.0,0.0,0.0,0.0,-1.8195220821978482,-4.046264921285256,-2.4625291771077076,0.00919694782959308,0.001127199598295939,-0.6057923337795484
9775,1.0,300.12482,27309.728,0.0,-0.09775016715237361,0.0,0.0,0.0,0.0,-1.8034572045123685,-4.066125433845336,-2.4318928510591378,0.004118510362690326,-0.00939118797508809,-0.5925480505299395
9776,1.0,299.8513,27309.2,0.0,-0.09776016313979308,0.0,0.0,0.0,0.0,-1.8316561574453882,-4.041704991860226,-2.4279537399703774,0.017939066130447982,0.01069122534364179,-0.6169180630575725
9777,1.0,299.47951,27101.833,0.0,-0.09777015912721243,0.0,0.0,0.0,0.0,-1.7638497647284184,-4.031747073852456,-2.4426836606491076,-0.0056692033118318046,-0.0006777303551042784,-0.5911651667934594
9778,1.0,300.1055,26982.385,0.0,-0.09778015511463156,0.0,0.0,0.0,0.0,-1.7337119577290483,-4.054826985955266,-2.4134324474872377,0.009659431550911672,0.0034486701759822466,-0.6444471867469853
9779,1.0,300.42397,27127.199,0.0,-0.0977901511020508,0.0,0.0,0.0,0.0,-1.7364510767243786,-4.028480862155106,-2.4810589883114575,-0.005236131201165915,0.0017042098638424188,-0.5928224893195244
9780,1.0,299.98386,27221.792,0.0,-0.09780014708947016,0.0,0.0,0.0,0.0,-1.7829776974661982,-4.068519338531597,-2.4232479025309477,-0.007158058519295373,0.013826766281595588,-0.6432182764957014
9781,1.0,299.17816,27353.486,0.0,-0.09781014307688962,0.0,0.0,0.0,0.0,-1.7929762468029782,-4.076375269206916,-2.4454252114446775,-0.025604678039484977,0.005577401434221665,-0.6089055548442994
9782,1.0,299.73219,27412.556,0.0,-0.09782013906430898,0.0,0.0,0.0,0.0,-1.8241550669550881,-4.073768278024626,-2.434809086171948,-0.016462346315457083,0.006877735178429613,-0.6288560237482573
9783,1.0,299.79776,27372.429,0.0,-0.09783016804178557,0.0,0.0,0.0,0.0,-1.7442103433401583,-4.108712842173386,-2.4676117409343177,-0.001957045249370328,-0.009100830722457062,-0.6197705140765875
9784,1.0,301.13161,27261.436,0.0,-0.09784016402920492,0.0,0.0,0.0,0.0,-1.7541539745215182,-4.056561264826426,-2.4760806879201374,0.0064977713558551035,-0.008840736311887741,-0.6300730587083694
9785,1.0,300.31302999999997,27222.72,0.0,-0.09785016001662439,0.0,0.0,0.0,0.0,-1.7411556982636882,-4.065951560128176,-2.467919768964718,0.02378976675186718,-0.015984999127096583,-0.5989086064426774
9786,1.0,300.1245,27125.715,0.0,-0.09786015600404352,0.0,0.0,0.0,0.0,-1.7766792335195882,-4.046000361684146,-2.422860537017718,0.014669547184771587,0.014135375917552987,-0.6232736540448204
9787,1.0,299.92854,26991.475,0.0,-0.09787015199146276,0.0,0.0,0.0,0.0,-1.7627432956192182,-4.016809335578216,-2.4251819943218274,0.013797946409001286,0.014972722760442687,-0.6154029299180405
9788,1.0,300.20429,27144.486,0.0,-0.09788014797888211,0.0,0.0,0.0,0.0,-1.786226886561868,-4.064605660020346,-2.4004133996023578,-0.0036766710042091767,0.019423759210475785,-0.6239164497757594
9789,1.0,299.5298,27412.971,0.0,-0.09789014396630147,0.0,0.0,0.0,0.0,-1.7792949386527381,-4.052320205207867,-2.5012436395785276,-0.012863261695255089,-0.0036826664050508763,-0.6025397604285445
9790,1.0,299.63386,27458.091,0.0,-0.09790013995372093,0.0,0.0,0.0,0.0,-1.7714119541997482,-4.076015261446385,-2.4991468198215876,-0.01122378149020099,-0.005019638968899795,-0.5856193551536304
9791,1.0,299.57804,27440.107000000004,0.0,-0.09791013594114006,0.0,0.0,0.0,0.0,-1.7812134263920782,-4.076569002626036,-2.4833250208350974,-0.0013779242825405387,-0.017072167848391783,-0.5904463773050204
9792,1.0,300.03125,27558.597999999998,0.0,-0.09792016491861688,0.0,0.0,0.0,0.0,-1.8254656046344282,-4.065907382423816,-2.485752768074698,-0.005916588627721833,0.003249670997417557,-0.5666226383038004
9793,1.0,299.97607999999997,27352.737999999998,0.0,-0.09793016090603623,0.0,0.0,0.0,0.0,-1.7998231830287181,-4.077296212222806,-2.4374297562305873,0.008169130232905383,-0.0049150303193007255,-0.5975025902064144
9794,1.0,300.15817999999996,27187.527000000002,0.0,-0.09794015689345548,0.0,0.0,0.0,0.0,-1.7743036686601383,-4.0550980303570165,-2.434927737758658,0.004916440560789905,0.010768132039481888,-0.5926118954187405
9795,1.0,300.38586000000004,27273.117000000002,0.0,-0.09795015288087472,0.0,0.0,0.0,0.0,-1.7667629600909285,-4.048526394183447,-2.4750571026691177,0.013615981889792787,0.007581042407990632,-0.6137067695156424
9796,1.0,300.64404,27308.097,0.0,-0.09796014886829407,0.0,0.0,0.0,0.0,-1.7542104125520883,-4.0890370451065365,-2.457732045834268,-0.008001179367879923,-0.013332289087044489,-0.6123466231114064
9797,1.0,300.66005,27140.939,0.0,-0.09797014485571343,0.0,0.0,0.0,0.0,-1.7528239824402585,-4.041109808751486,-2.4562341582114375,0.007228817826778773,-0.02162066983879398,-0.6258227582488974
9798,1.0,300.39062,27233.41,0.0,-0.09798014084313289,0.0,0.0,0.0,0.0,-1.7744905119785783,-4.075117825832816,-2.428668182615888,-0.016275070339224384,-0.01055172714937439,-0.6113923036372224
9799,1.0,300.20942,27285.71,0.0,-0.09799013683055202,0.0,0.0,0.0,0.0,-1.7741438791193682,-4.075176493013607,-2.4448542450133277,0.01056892605657179,0.005984112526310924,-0.6325168862270565
9800,1.0,300.54119,27410.287,0.0,-0.09800016580802884,0.0,0.0,0.0,0.0,-1.7888149299672882,-4.084001496084566,-2.459226589731768,-0.025063758526600376,0.02328795261334198,-0.6080831605331355
9801,1.0,299.82985,27505.194,0.0,-0.09801016179544819,0.0,0.0,0.0,0.0,-1.7763617822632585,-4.100704417358016,-2.483826073009548,-0.008854035624750282,0.012828035042278488,-0.6251781184027764
9802,1.0,300.3308,27411.566000000003,0.0,-0.09802015778286743,0.0,0.0,0.0,0.0,-1.7933198399118881,-4.0582588640439665,-2.480852791916108,-0.006201547486470084,0.013015285687258689,-0.5986526088049124
9803,1.0,300.23232,27269.551,0.0,-0.09803015377028657,0.0,0.0,0.0,0.0,-1.762719484241868,-4.077037124172237,-2.4495060762224274,0.004174128876579446,-0.004356075461261176,-0.6250182072719944
9804,1.0,299.48872,27352.222999999998,0.0,-0.09804014975770614,0.0,0.0,0.0,0.0,-1.8124656058514284,-4.064385075473576,-2.437542024341668,-0.0018760835266300282,-0.011828846827166289,-0.6088960809558644
9805,1.0,299.21709,27362.132999999998,0.0,-0.09805014574512538,0.0,0.0,0.0,0.0,-1.8012933075988085,-4.055674873638946,-2.4604370183012274,0.004316709580301066,-0.019344897955192782,-0.6076416368020604
9806,1.0,299.9188,27152.9,0.0,-0.09806014173254474,0.0,0.0,0.0,0.0,-1.7592123216707385,-4.067793952785006,-2.426797520281268,0.0090332382268362,0.008517470418533882,-0.6214622668410504
9807,1.0,299.96474,27238.396,0.0,-0.09807013771996398,0.0,0.0,0.0,0.0,-1.7582878322794984,-4.051954523246776,-2.4695497844005874,0.010377538311433291,-0.004554119651606616,-0.6143058739022694
9808,1.0,300.44692000000003,27485.62,0.0,-0.0980801666974408,0.0,0.0,0.0,0.0,-1.8113893315952083,-4.074882346509576,-2.4686703846387976,-0.0017081004402513887,0.015116916355673487,-0.6086151269681364
9809,1.0,300.17125,27428.188,0.0,-0.09809016268486015,0.0,0.0,0.0,0.0,-1.7928346957640084,-4.082390023125526,-2.462259753906118,-0.012519874276115388,0.007201130261171223,-0.6128308654666974
9810,1.0,300.81827999999996,27400.027000000002,0.0,-0.09810015867227939,0.0,0.0,0.0,0.0,-1.8139448496724182,-4.060241389189626,-2.4547377904637577,0.0015095091961769586,0.011381176720984688,-0.6103936443386624
9811,1.0,300.44619,27530.702999999998,0.0,-0.09811015465969875,0.0,0.0,0.0,0.0,-1.7806479315112684,-4.101681291779426,-2.486316945730377,-0.004339934893793226,0.004839421698163735,-0.5974621209974205
9812,1.0,300.18667999999997,27509.319,0.0,-0.0981201506471181,0.0,0.0,0.0,0.0,-1.7926299179187983,-4.089077676435546,-2.4804385752752274,-0.00976045876670728,0.0026078803092527475,-0.6128780727888564
9813,1.0,299.89666,27493.389,0.0,-0.09813014663453734,0.0,0.0,0.0,0.0,-1.7648945269065286,-4.097865898527876,-2.494543320642258,-0.0032415180831379268,-0.0027601916589847075,-0.6026154096810105
9814,1.0,299.931,27338.639,0.0,-0.0981401426219567,0.0,0.0,0.0,0.0,-1.7861001289743585,-4.092331526481676,-2.4318320560531377,0.003861378999388436,0.0017870321164163384,-0.6421524387155114
9815,1.0,299.52827,27073.533,0.0,-0.09815013860937594,0.0,0.0,0.0,0.0,-1.7434864774687182,-4.058277305195786,-2.4279143245414874,0.017531136706438483,-0.003725418365195166,-0.6163838370748485
9816,1.0,299.99405,27004.22,0.0,-0.09816016758685264,0.0,0.0,0.0,0.0,-1.756014099055098,-4.062942207331176,-2.3896522782403182,0.008196898453220892,-0.005738349626481015,-0.6345817480758424
9817,1.0,299.69844,27298.263,0.0,-0.0981701635742721,0.0,0.0,0.0,0.0,-1.7491227824749782,-4.081842260121467,-2.467025271776438,0.004837108752160465,-0.008452904804936752,-0.6048596167974964
9818,1.0,300.32629,27432.585,0.0,-0.09818015956169124,0.0,0.0,0.0,0.0,-1.7656496008810483,-4.077592790527076,-2.4955785582694276,0.004384570891173455,0.01039106824001859,-0.6087940669357964
9819,1.0,300.26878999999997,27358.609,0.0,-0.0981901555491107,0.0,0.0,0.0,0.0,-1.7448086675242085,-4.104067698414946,-2.4674576255941076,-0.005792771492002035,0.009031282046193141,-0.6166143514725985
9820,1.0,299.90435,27552.852000000003,0.0,-0.09820015153653006,0.0,0.0,0.0,0.0,-1.8198328460035182,-4.074254435422606,-2.4812918331844376,-0.0009650329423938361,-9.553024889010151e-05,-0.5912942041936944
9821,1.0,300.25431000000003,27785.173,0.0,-0.0982101475239493,0.0,0.0,0.0,0.0,-1.8333851674160282,-4.114959326389866,-2.497654403749298,-0.012074477903158189,0.00882905799653518,-0.6092846522367135
9822,1.0,300.44832,27440.475,0.0,-0.09822014351136865,0.0,0.0,0.0,0.0,-1.8082431900347085,-4.082587505570016,-2.450388414409508,0.0044916392053902755,0.0021788884554145476,-0.5940659599747454
9823,1.0,300.20947,27223.693,0.0,-0.09823013949878778,0.0,0.0,0.0,0.0,-1.7400638199559284,-4.055901335036296,-2.4793577413935575,9.52921411961021e-05,-0.01018178953786439,-0.6088629679425964
9824,1.0,300.12865,27355.458,0.0,-0.0982401684762646,0.0,0.0,0.0,0.0,-1.7753122578096785,-4.0636177411728465,-2.4764461672312077,-0.0011882576440218988,-0.022689645654543678,-0.5870399723238344
9825,1.0,299.94147999999996,27279.776,0.0,-0.09825016446368406,0.0,0.0,0.0,0.0,-1.7712239963061982,-4.056921373911966,-2.464225459100118,0.0027943571351315777,-0.016504355664603086,-0.6260673264255344
9826,1.0,299.66782,27285.537,0.0,-0.0982601604511032,0.0,0.0,0.0,0.0,-1.7929530433756882,-4.070282089730566,-2.4308868963598576,0.0024306452362110077,0.005225895247330706,-0.6122575888251194
9827,1.0,299.79359,27517.617000000002,0.0,-0.09827015643852255,0.0,0.0,0.0,0.0,-1.8038011015963085,-4.111041392228196,-2.4498258579539876,0.004903411177754006,0.013176371174906588,-0.6349425360389495
9828,1.0,299.31658999999996,27531.086,0.0,-0.09828015242594201,0.0,0.0,0.0,0.0,-1.8142318021007384,-4.082625705098786,-2.4719050842580375,-0.004756629336467765,0.0027123072831088876,-0.5776795273700305
9829,1.0,299.78387000000004,27544.38,0.0,-0.09829014841336114,0.0,0.0,0.0,0.0,-1.7671108088502585,-4.113374096608417,-2.4923187300477077,-0.0014177040761664986,0.016911083373993985,-0.6254172251613744
9830,1.0,300.16025,27704.187,0.0,-0.09830014440078061,0.0,0.0,0.0,0.0,-1.7908908767721683,-4.113301750551276,-2.5171884471271575,-0.0006624011577864043,0.0026808321886275374,-0.5892567304951114
9831,1.0,300.38026,27545.891,0.0,-0.09831014038819974,0.0,0.0,0.0,0.0,-1.7956559893424482,-4.087475322727406,-2.490131528381848,-0.0001126825101058979,0.0054630049913066145,-0.6306791747856885
9832,1.0,300.2933,27329.833,0.0,-0.0983201363756192,0.0,0.0,0.0,0.0,-1.7829048447840086,-4.091482524222886,-2.4331993357380775,-0.013813248512011489,-0.010642156681049092,-0.6174515797652265
9833,1.0,300.39587,27272.984,0.0,-0.09833016535309591,0.0,0.0,0.0,0.0,-1.7879039168023785,-4.070380476315276,-2.432021736471858,0.005803914406001755,0.007567573578386363,-0.6531635694072254
9834,1.0,300.6168,27363.451,0.0,-0.09834016134051538,0.0,0.0,0.0,0.0,-1.7845389132202785,-4.079864801226306,-2.4534021241819377,-0.015838166015355284,0.000984903212552379,-0.6183295001818704
9835,1.0,300.64065,27249.972,0.0,-0.0983501573279345,0.0,0.0,0.0,0.0,-1.7404850280224984,-4.082060108892966,-2.4607659192836877,-0.005930290707499125,-0.00040297136835517765,-0.6427939070888193
9836,1.0,300.32788999999997,27463.737999999998,0.0,-0.09836015331535397,0.0,0.0,0.0,0.0,-1.7775890307843785,-4.086265096807966,-2.4844364548697877,-0.008763662227131121,-0.03235134100882877,-0.5902184061650214
9837,1.0,300.00615,27727.645,0.0,-0.0983701493027731,0.0,0.0,0.0,0.0,-1.8253647862494784,-4.115896177432326,-2.4872506556975273,0.01049889324941009,-0.002946306450602807,-0.6148494015209114
9838,1.0,300.19021000000004,27705.93,0.0,-0.09838014529019246,0.0,0.0,0.0,0.0,-1.8505062570057482,-4.106354401240625,-2.4650501433565077,-0.0038977919655821163,-0.00015523176956768286,-0.5950577190401244
9839,1.0,299.91965,27609.842,0.0,-0.0983901412776117,0.0,0.0,0.0,0.0,-1.8154219656681982,-4.107031150982416,-2.4702494335946374,-0.006428184378737404,0.01805593642348218,-0.6096232297576284
9840,1.0,300.21047999999996,27715.168999999998,0.0,-0.09840013726503105,0.0,0.0,0.0,0.0,-1.833972751149018,-4.100018751015346,-2.4907280287157176,0.00014039809207871287,0.013647340967137687,-0.5853677144912954
9841,1.0,300.30953,27627.549,0.0,-0.09841016624250787,0.0,0.0,0.0,0.0,-1.7749984542537083,-4.0945176135724255,-2.5285688669503177,0.006972302012912634,0.024978933281228775,-0.5953351570500055
9842,1.0,299.98429,27357.904,0.0,-0.09842016222992722,0.0,0.0,0.0,0.0,-1.7666284004776482,-4.087601675014876,-2.4618897149695975,0.005814289073775655,-0.0028326669055124577,-0.6098706958295514
9843,1.0,299.85596,27421.763,0.0,-0.09843015821734646,0.0,0.0,0.0,0.0,-1.7790757726561084,-4.084596476543286,-2.4718588800534773,-0.004978469705411705,-0.018814623647858783,-0.6189418781448074
9844,1.0,299.81282999999996,27413.956000000002,0.0,-0.09844015420476582,0.0,0.0,0.0,0.0,-1.8030289036950982,-4.081465229759256,-2.448663862739308,0.004599861510145986,-0.02680817192526057,-0.6309113002510974
9845,1.0,300.2173,27453.441000000003,0.0,-0.09845015019218506,0.0,0.0,0.0,0.0,-1.7695646979424382,-4.120994142660456,-2.4546018123003375,0.0012448892053609987,-0.00028112070789945373,-0.6398604467243093
9846,1.0,300.44569,27558.648999999998,0.0,-0.09846014617960441,0.0,0.0,0.0,0.0,-1.8019321617868584,-4.091758533550126,-2.4834504611974775,0.010155692268288791,0.0013623036136988986,-0.6322950351176614
9847,1.0,300.7103,27552.463,0.0,-0.09847014216702388,0.0,0.0,0.0,0.0,-1.7577388533753182,-4.105576022513806,-2.5119460937597777,-0.023439715186819775,-0.0014638273220435086,-0.5967710945617214
9848,1.0,300.48759,27400.142999999996,0.0,-0.09848013815444301,0.0,0.0,0.0,0.0,-1.7690223051639082,-4.0971698970341865,-2.4627669869061775,0.004427148572300546,-0.014513043614075885,-0.6160248628294205
9849,1.0,299.88543,27633.063,0.0,-0.09849016713191983,0.0,0.0,0.0,0.0,-1.7994056226625084,-4.109569747782956,-2.490785783971418,-0.001746631605779118,0.002034796793143808,-0.6034532357911975
9850,1.0,299.9262,27789.411,0.0,-0.09850016311933918,0.0,0.0,0.0,0.0,-1.8307747311833982,-4.129611429460916,-2.4869006791129875,0.015518249521531986,-0.0009078236258477161,-0.6357476544359084
9851,1.0,300.04026,27539.912999999997,0.0,-0.09851015910675842,0.0,0.0,0.0,0.0,-1.7857479232395983,-4.102446396929936,-2.4832516615278575,-0.0008508587052257161,0.0017341524175475184,-0.6057742067352594
9852,1.0,299.6319,27354.631,0.0,-0.09852015509417777,0.0,0.0,0.0,0.0,-1.7632793049221183,-4.090419827518006,-2.4614255450987876,-0.003876859434416236,-0.0006645360352171004,-0.6248480623152024
9853,1.0,299.65398999999996,27508.298,0.0,-0.09853015108159702,0.0,0.0,0.0,0.0,-1.7740183374319785,-4.088529508131446,-2.499287965560518,-8.291170634574831e-05,0.014582305337911486,-0.6032147775126635
9854,1.0,299.79422,27604.5,0.0,-0.09854014706901637,0.0,0.0,0.0,0.0,-1.8094129872751583,-4.087910108345316,-2.493755417364498,0.0009038869465591959,-0.007915346039983832,-0.6140006931046504
9855,1.0,299.83652,27528.575,0.0,-0.09855014305643572,0.0,0.0,0.0,0.0,-1.7944291461213682,-4.101529304264426,-2.472040859771438,0.004844714308736076,-0.002997398269670177,-0.6132030930234333
9856,1.0,299.93388,27559.427000000003,0.0,-0.09856013904385497,0.0,0.0,0.0,0.0,-1.8208204608759881,-4.088148627418856,-2.4684087634629774,0.0037758014158175866,-0.004908894481995165,-0.5968310384376374
9857,1.0,300.05303,27709.24,0.0,-0.0985701680213319,0.0,0.0,0.0,0.0,-1.814881802039888,-4.119035935517196,-2.4889993227201077,0.001007652116112521,0.017163999718204884,-0.6175340279258634
9858,1.0,300.35491,27730.727000000003,0.0,-0.09858016400875114,0.0,0.0,0.0,0.0,-1.8129484195240781,-4.119422186455316,-2.497078067092418,-0.004729656416155746,-0.00917228826058437,-0.6028051103647324
9859,1.0,300.89026,27773.04,0.0,-0.09859015999617038,0.0,0.0,0.0,0.0,-1.8061998698830484,-4.1206538932768755,-2.5154570053562773,-0.025035312543292974,-0.0037562504511630566,-0.6168331121691883
9860,1.0,301.17148,27578.412999999997,0.0,-0.09860015598358973,0.0,0.0,0.0,0.0,-1.8046769549827484,-4.107273824381366,-2.471198139663268,-0.005006910115843555,0.01185536155578309,-0.6060377429537684
9861,1.0,300.28981,27352.658,0.0,-0.09861015197100897,0.0,0.0,0.0,0.0,-1.7658403958748785,-4.107222452601296,-2.4414621876535576,-0.00810984294305418,0.019189980120903585,-0.6616684361090903
9862,1.0,299.64252,27547.185,0.0,-0.09862014795842833,0.0,0.0,0.0,0.0,-1.7958468856612884,-4.117435304334226,-2.4603740954700175,-0.004651163071984055,0.0017017055148952586,-0.6200862529402484
9863,1.0,300.01841,27638.412999999997,0.0,-0.09863014394584768,0.0,0.0,0.0,0.0,-1.8086480847746684,-4.111159841164886,-2.4815794948878276,-0.00016797543634038483,-0.013480699829191487,-0.6321954022353284
9864,1.0,300.08061000000004,27443.097,0.0,-0.09864013993326692,0.0,0.0,0.0,0.0,-1.7497141152333382,-4.105048017886696,-2.4872541007478675,0.005322871489226515,-0.004880189815937235,-0.5966650984687605
9865,1.0,299.92037,27380.998,0.0,-0.09865016891074385,0.0,0.0,0.0,0.0,-1.7604417993420782,-4.099830894446806,-2.4628668933660376,0.0012688927962549688,-0.004757535182057165,-0.6344386062342153
9866,1.0,299.80215,27696.237,0.0,-0.0986601648981631,0.0,0.0,0.0,0.0,-1.8038139698725784,-4.127127244190746,-2.488023258898777,-0.0029444028576399374,-0.018295964226421085,-0.5975195013505834
9867,1.0,299.60323,27776.487,0.0,-0.09867016088558223,0.0,0.0,0.0,0.0,-1.8256897355565482,-4.130871304635256,-2.4867974289277974,-0.017260834003761685,-0.0033592926005613665,-0.6276560620523305
9868,1.0,299.92312999999996,27781.793999999998,0.0,-0.09868015687300169,0.0,0.0,0.0,0.0,-1.815384880714538,-4.139092511971626,-2.4904941705926373,0.00031768711055577676,0.006768008298600414,-0.6068048239419734
9869,1.0,300.19298,27638.257999999998,0.0,-0.09869015286042082,0.0,0.0,0.0,0.0,-1.8140318878560084,-4.110460394620857,-2.4768480222208678,-0.003235412744660377,0.013811644537103186,-0.6145881856451314
9870,1.0,299.83897,27578.439,0.0,-0.0987001488478404,0.0,0.0,0.0,0.0,-1.7712786104865883,-4.121188180054606,-2.4906900318369676,-0.012144770102345489,-0.007849126092948432,-0.6030412786980405
9871,1.0,300.54026,27641.596,0.0,-0.09871014483525964,0.0,0.0,0.0,0.0,-1.7999131596375981,-4.105424136323816,-2.497017778711468,0.007775274650134862,-0.008737365955235882,-0.6019303107583964
9872,1.0,300.69377000000003,27870.771,0.0,-0.09872014082267877,0.0,0.0,0.0,0.0,-1.8331521198930283,-4.119601734373036,-2.5192645965820577,0.005732224732276536,0.014070199618120588,-0.6048257742441564
9873,1.0,300.67891000000003,27751.507999999998,0.0,-0.09873013681009823,0.0,0.0,0.0,0.0,-1.8129608825003085,-4.124483370704817,-2.4983211223150974,0.01150659276536229,0.01214962661007479,-0.6146979206309614
9874,1.0,300.64558999999997,27520.682,0.0,-0.09874016578757505,0.0,0.0,0.0,0.0,-1.8028620214036284,-4.096792157396906,-2.465945856444908,0.005186577090450305,-0.012211537204434887,-0.6132464297302104
9875,1.0,300.05186000000003,27693.688,0.0,-0.09875016177499418,0.0,0.0,0.0,0.0,-1.8065781161453782,-4.103835968117076,-2.5077755563481774,-0.002696581945531917,-0.01070625184262479,-0.5909983959595004
9876,1.0,300.04795,27843.859,0.0,-0.09876015776241354,0.0,0.0,0.0,0.0,-1.830321200438638,-4.109771587202876,-2.5237449858742376,0.0045670550050332355,-0.0007678787098762284,-0.6116571976108653
9877,1.0,300.2577,27700.631,0.0,-0.098770153749833,0.0,0.0,0.0,0.0,-1.7967250695229584,-4.129234601748726,-2.4943405692972473,-0.007909799103636393,-0.01022755905813149,-0.6094339242414454
9878,1.0,299.73417,27535.488999999998,0.0,-0.09878014973725235,0.0,0.0,0.0,0.0,-1.8067074068581381,-4.109525772728616,-2.453867915252908,-0.013034967057201089,-0.008929098610708421,-0.6495831893838694
9879,1.0,300.21522000000004,27609.077999999998,0.0,-0.0987901457246716,0.0,0.0,0.0,0.0,-1.7913643685438982,-4.1341937517131555,-2.466912091740268,-0.005893301100673535,-0.008773896559766172,-0.6337652306152584
9880,1.0,300.42015,27535.067000000003,0.0,-0.09880014171209073,0.0,0.0,0.0,0.0,-1.8096756217010783,-4.118311866995736,-2.441985227355177,0.016110202388953183,0.018638166142943783,-0.6588249422209593
9881,1.0,300.295,27680.972999999998,0.0,-0.09881013769951019,0.0,0.0,0.0,0.0,-1.7905468783632184,-4.125289917784416,-2.4984875993065274,0.007419383826086173,-3.666230677828796e-05,-0.6227900703020944
9882,1.0,299.9521,27703.319,0.0,-0.0988201666769869,0.0,0.0,0.0,0.0,-1.7847692249680083,-4.136551686020866,-2.4997963131356875,0.001031545647780629,-0.011655780670335989,-0.6358221992457654
9883,1.0,299.7068,27543.621,0.0,-0.09883016266440614,0.0,0.0,0.0,0.0,-1.7657902399949286,-4.1140381807239566,-2.4927445990647374,-0.002188019156040678,-0.0047942284132285054,-0.5960368226117545
9884,1.0,299.8448,27701.071,0.0,-0.0988401586518255,0.0,0.0,0.0,0.0,-1.7965990212105183,-4.1345786854261455,-2.489256181620458,0.01898081186301028,0.02188642102202158,-0.6394186696807094
9885,1.0,299.73581,27980.355,0.0,-0.09885015463924496,0.0,0.0,0.0,0.0,-1.8399859851924782,-4.144036868484596,-2.5213061942085475,0.004905345269544885,0.003736174015006666,-0.5894934155859705
9886,1.0,299.65938,27746.217,0.0,-0.09886015062666431,0.0,0.0,0.0,0.0,-1.8309760639782684,-4.109535499929576,-2.493645581053658,-0.008935049631195742,-0.006977766673351953,-0.6194029373378104
9887,1.0,299.62426,27602.855,0.0,-0.09887014661408344,0.0,0.0,0.0,0.0,-1.7808841201095782,-4.117450503085726,-2.4922441548403476,0.0052468746919762145,-0.0013449144181327188,-0.5774942343242434
9888,1.0,299.61165,27723.216,0.0,-0.09888014260150269,0.0,0.0,0.0,0.0,-1.7961619051173785,-4.122076395092266,-2.5089272164118372,0.002357808056747538,0.02214862582989918,-0.6277427152008824
9889,1.0,299.71665,27857.332000000002,0.0,-0.09889013858892204,0.0,0.0,0.0,0.0,-1.8344916365252284,-4.119491391437146,-2.5139504037825873,0.0014555245480740884,-0.013765298477529185,-0.6052484211258684
9890,1.0,299.72863,27773.978,0.0,-0.09890016756639886,0.0,0.0,0.0,0.0,-1.8167304768473382,-4.136278919093946,-2.4895862985030375,-0.026997679078213474,-0.021602171944968378,-0.6507465524861843
9891,1.0,299.86256000000003,27695.786,0.0,-0.0989101635538181,0.0,0.0,0.0,0.0,-1.8471090320704682,-4.113842319479626,-2.457875927348468,-0.006626257852010734,-0.003089862610195697,-0.6179265914121064
9892,1.0,300.35906,27682.765,0.0,-0.09892015954123745,0.0,0.0,0.0,0.0,-1.8196023316057683,-4.115457034838986,-2.4798099549131876,0.004520021556591396,0.027254534938813177,-0.6294994578267593
9893,1.0,300.25685,27711.173,0.0,-0.0989301555286568,0.0,0.0,0.0,0.0,-1.8078000957659786,-4.124771235058225,-2.4909333131859777,0.0016163842835997084,0.0030534959495315873,-0.6201031438194154
9894,1.0,299.98548,27828.155,0.0,-0.09894015151607627,0.0,0.0,0.0,0.0,-1.7877861771407584,-4.132362403482416,-2.5389156703464675,-0.0005540415880396475,-0.006443209965795314,-0.6030985982561975
9895,1.0,300.40179,27805.692000000003,0.0,-0.0989501475034954,0.0,0.0,0.0,0.0,-1.8010081790206682,-4.146281825406156,-2.5049462580939474,0.008845986365955882,-0.006220763166666524,-0.6246527076959224
9896,1.0,300.18965,27606.237999999998,0.0,-0.09896014349091464,0.0,0.0,0.0,0.0,-1.7552790874325586,-4.1436378505952165,-2.492690086209358,0.006865912677587823,0.019293054000576182,-0.6248959383824274
9897,1.0,300.17406,27667.635,0.0,-0.098970139478334,0.0,0.0,0.0,0.0,-1.8058944763029083,-4.139992176735416,-2.4643833234656976,0.0005765022624763435,-0.025879644732372076,-0.6478846782412394
9898,1.0,299.83447,27967.113999999998,0.0,-0.09898016845581081,0.0,0.0,0.0,0.0,-1.8207345372675083,-4.1568948096035765,-2.523674970292327,-0.01258608611714999,-0.025526814835550474,-0.5913521418344124
9899,1.0,299.96823,27826.175,0.0,-0.09899016444323017,0.0,0.0,0.0,0.0,-1.8058835332018284,-4.1434693471035855,-2.5091095001048274,0.005577822946263265,-0.012176795898256187,-0.6343060528561334
9900,1.0,299.68552,27644.138,0.0,-0.09900016043064963,0.0,0.0,0.0,0.0,-1.7586240286626784,-4.1476366421148665,-2.4968670070965877,0.01112805266050329,0.013722585932813789,-0.6029409162756355
9901,1.0,299.79374,27692.07,0.0,-0.09901015641806876,0.0,0.0,0.0,0.0,-1.8015927230033582,-4.126569348685686,-2.489535635998038,0.003504009438143807,-0.0090304690143129,-0.6241596500647614
9902,1.0,299.60708999999997,27857.217,0.0,-0.09902015240548812,0.0,0.0,0.0,0.0,-1.8021122163296281,-4.145576603336556,-2.5202096549503277,-0.015514888570950286,-0.0037182771811403864,-0.5957149535849884
9903,1.0,300.26105,27895.31,0.0,-0.09903014839290736,0.0,0.0,0.0,0.0,-1.866939349777568,-4.139591031020826,-2.4729473133108977,0.0025885652292214974,0.014048506946729685,-0.6154971621773404
9904,1.0,299.59353,27896.569,0.0,-0.0990401443803266,0.0,0.0,0.0,0.0,-1.8097901189623784,-4.147315036533126,-2.5227551418515475,-0.0027074289905024375,0.038344758920083065,-0.6063589533679694
9905,1.0,300.23696,27748.249,0.0,-0.09905014036774595,0.0,0.0,0.0,0.0,-1.8079953490602485,-4.121916909526526,-2.5048625636356876,-0.0051029486960968255,-0.009444397689514482,-0.6106902226429325
9906,1.0,300.91035,27711.764,0.0,-0.09906016934522277,0.0,0.0,0.0,0.0,-1.7726601769979382,-4.130257477724676,-2.5207665372052874,-0.007341198611269894,-0.015131305520343585,-0.6103879701381024
9907,1.0,300.89356000000004,27872.842,0.0,-0.09907016533264212,0.0,0.0,0.0,0.0,-1.8320916523383681,-4.137169261956816,-2.5033868661900476,0.007979252230415882,5.568325145125905e-05,-0.6138880602235345
9908,1.0,300.15648,27910.117000000002,0.0,-0.09908016132006148,0.0,0.0,0.0,0.0,-1.820487912193168,-4.145409619720076,-2.5180810191402476,0.013293934531009187,0.016580090030077484,-0.6418284114660323
9909,1.0,299.98005,27643.046000000002,0.0,-0.09909015730748072,0.0,0.0,0.0,0.0,-1.8191059403817782,-4.123827797890116,-2.4598619988694774,0.01004375619926656,-0.01696822257363318,-0.6096694947571945
9910,1.0,299.49597,27678.468999999997,0.0,-0.09910015329490007,0.0,0.0,0.0,0.0,-1.778516762575938,-4.135924889509006,-2.4991215898940977,-0.011904856796667888,-0.007503131074676383,-0.6336479266511814
9911,1.0,300.08312,28000.106,0.0,-0.09911014928231932,0.0,0.0,0.0,0.0,-1.8388986665101683,-4.146701310947556,-2.5257329825704375,-0.0016149947124125686,0.003857085554739706,-0.6062662409838194
9912,1.0,300.50699,27936.173,0.0,-0.09912014526973867,0.0,0.0,0.0,0.0,-1.8209934226680584,-4.165309446384036,-2.505596359358108,-0.006971452808003823,0.012023919762918488,-0.6467275466270395
9913,1.0,299.39392999999995,27745.449,0.0,-0.09913014125715802,0.0,0.0,0.0,0.0,-1.8059008597785382,-4.148229393423366,-2.479793438936558,-0.0098474444639421,-0.02124332739555318,-0.6239229548414014
9914,1.0,299.74782999999996,27775.727000000003,0.0,-0.09914013724457726,0.0,0.0,0.0,0.0,-1.824580125372038,-4.135236994016116,-2.4833103287086478,-0.007101882819176263,-0.0034223424933339064,-0.6351460067915304
9915,1.0,300.13265,27855.112999999998,0.0,-0.09915016622205408,0.0,0.0,0.0,0.0,-1.8287254328561484,-4.158815931793176,-2.479717445179058,0.013913513662406885,0.016012458204806585,-0.6226458037528565
9916,1.0,300.45533,27799.332000000002,0.0,-0.09916016220947343,0.0,0.0,0.0,0.0,-1.7915641814636183,-4.1453213656363666,-2.513417231579968,0.004834228487426206,0.024101961266678375,-0.6549351966770713
9917,1.0,300.43137,27952.435,0.0,-0.09917015819689268,0.0,0.0,0.0,0.0,-1.8251840224316382,-4.146302090408156,-2.525355952208227,-0.006771079763628543,-0.01071457265244599,-0.6141391739958174
9918,1.0,300.54249,27814.071,0.0,-0.09918015418431203,0.0,0.0,0.0,0.0,-1.8063525666731182,-4.147096275836536,-2.5013343254624774,-0.005562544046680355,-0.0025539197765022574,-0.6234073321305135
9919,1.0,300.64527000000004,27800.653,0.0,-0.09919015017173127,0.0,0.0,0.0,0.0,-1.8054204779061285,-4.145488754552885,-2.499795097235568,-0.003912690288427466,0.01068061256209439,-0.6157313040104484
9920,1.0,300.47229,28008.093999999997,0.0,-0.09920014615915063,0.0,0.0,0.0,0.0,-1.8395807864774882,-4.158557451692666,-2.5156228743976476,-0.002294307875630558,0.0003437830122437416,-0.6162774458143484
9921,1.0,299.93387,28049.786,0.0,-0.09921014214656998,0.0,0.0,0.0,0.0,-1.843061097920968,-4.159346570870546,-2.5240267707270476,-0.011263364105357488,-0.03338800225238926,-0.5963181413695184
9922,1.0,300.23027,27811.716,0.0,-0.09922013813398922,0.0,0.0,0.0,0.0,-1.7897204715816584,-4.152786992373167,-2.5115596401716376,-0.004649139510209345,-0.012804431381198987,-0.6180189187612184
9923,1.0,299.99762000000004,27878.558999999997,0.0,-0.09923016711146604,0.0,0.0,0.0,0.0,-1.8310467888352484,-4.152942222288487,-2.490396898583038,0.022600867720531978,0.0038309576850110868,-0.6057399690143804
9924,1.0,299.38088999999997,27873.886000000002,0.0,-0.09924016309888539,0.0,0.0,0.0,0.0,-1.8190811157543283,-4.146393080267136,-2.5074911370451076,0.01019604596677139,0.017728494521166184,-0.6415927700227764
9925,1.0,300.39081,27778.118,0.0,-0.09925015908630452,0.0,0.0,0.0,0.0,-1.8157799469285283,-4.152441372764057,-2.4756329327009476,0.0029517052497856273,-0.004641305263086166,-0.6288558616282414
9926,1.0,299.4876,27810.936,0.0,-0.09926015507372399,0.0,0.0,0.0,0.0,-1.806564335944018,-4.1428141795889255,-2.504451488070118,0.004650396953583446,0.0098906149977027,-0.6323431442324094
9927,1.0,299.57162,27938.148999999998,0.0,-0.09927015106114312,0.0,0.0,0.0,0.0,-1.8247787223916383,-4.149293002053336,-2.5184279559744875,0.0019078615828912783,0.023869293712465874,-0.6314435199986234
9928,1.0,299.79555,27824.228,0.0,-0.09928014704856258,0.0,0.0,0.0,0.0,-1.7793167235298881,-4.152806750750116,-2.525747269396848,-0.0013264748875128787,-0.006928025212692853,-0.6294647540108343
9929,1.0,299.90501,27670.929,0.0,-0.09929014303598194,0.0,0.0,0.0,0.0,-1.8114246940236982,-4.122940697427566,-2.4769061827766077,-0.0100675264386625,-0.025422204868726275,-0.6185725890133614
9930,1.0,300.00645,27907.613999999998,0.0,-0.09930013902340118,0.0,0.0,0.0,0.0,-1.809508030134538,-4.155001045166676,-2.5187087275771978,-0.002125526449498128,-0.01045598514742539,-0.5986874139458473
9931,1.0,300.77907000000005,27978.33,0.0,-0.09931016800087789,0.0,0.0,0.0,0.0,-1.8401328051319683,-4.162118316519097,-2.502462478123818,0.01965762847930688,0.006671273412878424,-0.6363130479917084
9932,1.0,300.29311,27887.265,0.0,-0.09932016398829735,0.0,0.0,0.0,0.0,-1.7998918813854983,-4.157891037101896,-2.5192490938555276,0.002050547664623298,-0.0010827637178104591,-0.5944084587735474
9933,1.0,299.98562000000004,27976.291,0.0,-0.09933015997571648,0.0,0.0,0.0,0.0,-1.8156601807667085,-4.171257832421096,-2.5171760854759375,-4.382180127562506e-05,-0.012032189910234688,-0.6284187151375984
9934,1.0,299.91952000000003,28003.137000000002,0.0,-0.09934015596313595,0.0,0.0,0.0,0.0,-1.8027147961640984,-4.162528176184546,-2.547011437320458,-0.004057546042598616,-0.0008689888905900261,-0.5809975769424964
9935,1.0,299.88674,27827.045,0.0,-0.0993501519505553,0.0,0.0,0.0,0.0,-1.820279385322588,-4.158724435309146,-2.4797229167295978,0.005509646818584805,0.029538357094458872,-0.6544282068570354
9936,1.0,300.4448,27999.053,0.0,-0.09936014793797443,0.0,0.0,0.0,0.0,-1.8220336252207183,-4.165406819718646,-2.523572530707218,-0.011689432732657188,0.014939903589703686,-0.6037769185356424
9937,1.0,299.9743,27913.365,0.0,-0.0993701439253939,0.0,0.0,0.0,0.0,-1.8417594768425083,-4.1451936961237665,-2.4980128916346773,-0.011832087200986089,0.004963263861161005,-0.6416385385297934
9938,1.0,299.88856,27892.203999999998,0.0,-0.09938013991281303,0.0,0.0,0.0,0.0,-1.8018475554035085,-4.1669085576918565,-2.5097775358957577,-0.006162119999903894,0.006553296042784963,-0.6076113406240704
9939,1.0,299.74979,28102.172000000002,0.0,-0.09939016889028984,0.0,0.0,0.0,0.0,-1.8331127044641384,-4.1664219949938355,-2.542823978632187,0.014976636945578985,0.011513377488031887,-0.6439536731532794
9940,1.0,299.91371000000004,28212.191000000003,0.0,-0.0994001648777092,0.0,0.0,0.0,0.0,-1.8515155554303582,-4.173561557848456,-2.550724593636918,0.007962814780668633,-0.01982612487818618,-0.6043369013359084
9941,1.0,299.92996,27812.852000000003,0.0,-0.09941016086512844,0.0,0.0,0.0,0.0,-1.822805215171868,-4.153054186424536,-2.4785531194891477,0.0022241672586582177,-0.026495953092446976,-0.6154446555571584
9942,1.0,300.88652,27824.036,0.0,-0.09942015685254779,0.0,0.0,0.0,0.0,-1.806812379568498,-4.146332589236166,-2.5046672090164077,-0.0007278988804155263,-0.007371580104918312,-0.6248532805532174
9943,1.0,299.89203,28059.632,0.0,-0.09943015283996726,0.0,0.0,0.0,0.0,-1.8461797804037583,-4.171813093475896,-2.5114346051092977,0.007614132217831342,0.01841546289021468,-0.6258354036101454
9944,1.0,299.66745,27922.798,0.0,-0.09944014882738639,0.0,0.0,0.0,0.0,-1.8052607896903683,-4.148180250793516,-2.5343922179250375,-0.0076819268568471535,-0.01140875130920609,-0.6279993410537094
9945,1.0,300.12408,27865.439,0.0,-0.09945014481480585,0.0,0.0,0.0,0.0,-1.7978364022326383,-4.1619419096766865,-2.5106194454038473,-0.01046638919945219,-0.013269708734368287,-0.6068014194216375
9946,1.0,300.37066,27960.068,0.0,-0.09946014080222498,0.0,0.0,0.0,0.0,-1.8116946238503382,-4.166194317696366,-2.5212736688803377,-0.006718192262733953,-0.004143253524832286,-0.6261849242321404
9947,1.0,300.16694,27998.895,0.0,-0.0994701697797018,0.0,0.0,0.0,0.0,-1.837178978440448,-4.169876164584736,-2.5039099058916676,0.006722375161796774,0.025709991201878578,-0.6205726636507534
9948,1.0,299.59483,28050.612999999998,0.0,-0.09948016576712115,0.0,0.0,0.0,0.0,-1.8162721838271083,-4.194929381257296,-2.5154843631089774,-0.006390749853792905,-0.0005431413373063765,-0.6598645368235594
9949,1.0,299.59809,28244.242000000002,0.0,-0.0994901617545404,0.0,0.0,0.0,0.0,-1.866670635851048,-4.193751883316086,-2.5251217901101177,-0.014327632018027186,-0.001063409222350319,-0.6030611586650024
9950,1.0,299.92349,28070.033,0.0,-0.09950015774195975,0.0,0.0,0.0,0.0,-1.8282147548057484,-4.174306296671956,-2.5300681731232872,-0.0073768738300657635,0.011578567972965689,-0.6333034722796864
9951,1.0,300.53506,27834.619,0.0,-0.0995101537293791,0.0,0.0,0.0,0.0,-1.7860184610162984,-4.169619103034367,-2.5053917841629176,0.003857302390261106,0.02271122078892298,-0.6138381069936044
9952,1.0,300.34053,27857.017999999996,0.0,-0.09952014971679835,0.0,0.0,0.0,0.0,-1.8030343752456381,-4.145426439671736,-2.519377168668168,0.017616977228410283,-0.015996587668490284,-0.6127881671074834
9953,1.0,299.93019,28073.531000000003,0.0,-0.0995301457042177,0.0,0.0,0.0,0.0,-1.8328052843837983,-4.171338892429096,-2.529508149793018,-0.004572958098790826,-0.02372982794220168,-0.6017957916751204
9954,1.0,299.58893,27913.592999999997,0.0,-0.09954014169163694,0.0,0.0,0.0,0.0,-1.8183968679617983,-4.150314560804156,-2.516323840816827,0.016332997847441386,-0.013846100106753688,-0.6321008963985014
9955,1.0,299.94043999999997,27965.146,0.0,-0.09955017066911376,0.0,0.0,0.0,0.0,-1.8262922140660085,-4.172673748110836,-2.5017399294775076,0.003117022475151167,0.011541998763606589,-0.6247665970071624
9956,1.0,299.39724,28062.304,0.0,-0.09956016665653311,0.0,0.0,0.0,0.0,-1.8291698443500082,-4.171769118421556,-2.5293008388225577,-0.005349983326127245,-0.006556279557704415,-0.6288096574236814
9957,1.0,299.20432,28038.988999999998,0.0,-0.09957016264395235,0.0,0.0,0.0,0.0,-1.8138059330837082,-4.173005688843596,-2.5363410018423678,-0.006761691697477014,-0.00961188154756885,-0.6168207302529664
9958,1.0,300.20607,28023.595,0.0,-0.09958015863137193,0.0,0.0,0.0,0.0,-1.8233499384256284,-4.181636350545376,-2.5134868418618375,0.003247783819106307,0.00012267890121996487,-0.6314647273232165
9959,1.0,300.11928,28076.605,0.0,-0.09959015461879106,0.0,0.0,0.0,0.0,-1.8298980671968785,-4.180196826128306,-2.524492055172968,0.0027249887160604473,0.004747474723139276,-0.6374732294887094
9960,1.0,299.80617,27907.476000000002,0.0,-0.0996001506062103,0.0,0.0,0.0,0.0,-1.8267991430910382,-4.161111855194766,-2.4952649573634775,-0.006088719554709834,-0.013850951548232487,-0.6220275590718405
9961,1.0,300.30557999999996,27905.377,0.0,-0.09961014659362966,0.0,0.0,0.0,0.0,-1.8380478404011982,-4.174151370731666,-2.4703385996034375,-0.014791989340105685,0.00037352560104160666,-0.6401627194941414
9962,1.0,300.22257,28108.65,0.0,-0.0996201425810489,0.0,0.0,0.0,0.0,-1.830160701622798,-4.167824839757286,-2.5463419829793876,0.007846813653570211,0.021526578421257877,-0.6144217694487074
9963,1.0,299.96666,28056.261000000002,0.0,-0.09963013856846825,0.0,0.0,0.0,0.0,-1.8410798900004381,-4.166319960708766,-2.5210029284536177,0.00849089236178583,0.033256837026944264,-0.6333758183368264
9964,1.0,299.62762999999995,27920.027000000002,0.0,-0.09964016754594507,0.0,0.0,0.0,0.0,-1.7848016489712082,-4.178224636133666,-2.5239647598209274,0.0007872724687777433,-0.01888665661071788,-0.6125342770299264
9965,1.0,299.82883,28099.833,0.0,-0.09965016353336442,0.0,0.0,0.0,0.0,-1.8282756511367582,-4.179435368678156,-2.533936559355068,-0.0025301262323540177,-0.012142651396386386,-0.6312329260978394
9966,1.0,299.76376,28265.647999999997,0.0,-0.09966015952078378,0.0,0.0,0.0,0.0,-1.8363636160849781,-4.202063979186426,-2.553623502173018,0.00991893726317289,0.005199809934106285,-0.6045238257143565
9967,1.0,299.62755,28054.221,0.0,-0.09967015550820302,0.0,0.0,0.0,0.0,-1.8409466476122882,-4.180526943010886,-2.5063089781534376,0.006581757224843863,0.014371564515862986,-0.6477838902537923
9968,1.0,298.79827,28051.572,0.0,-0.09968015149562226,0.0,0.0,0.0,0.0,-1.7970590367559183,-4.185339982310896,-2.5445785225053474,-0.016914369344068283,-0.013991131659817186,-0.6015646085323044
9969,1.0,299.28352,28080.74,0.0,-0.09969014748304161,0.0,0.0,0.0,0.0,-1.8524383222964282,-4.171986359242997,-2.5114192037077774,-0.0005457589473497144,-0.006945302849423024,-0.6277680667183844
9970,1.0,299.79434,27958.997000000003,0.0,-0.09970014347046074,0.0,0.0,0.0,0.0,-1.8010545858752485,-4.164743951503226,-2.533038313141418,0.0031678240993898974,0.015518552483311883,-0.6051666214452954
9971,1.0,300.12252,27967.028,0.0,-0.09971013945788032,0.0,0.0,0.0,0.0,-1.8313627202164282,-4.176055267669566,-2.4938600860998275,-0.0019080679819366481,0.024013330253931178,-0.6542399044584514
9972,1.0,300.53955,28184.652000000002,0.0,-0.09972016843535703,0.0,0.0,0.0,0.0,-1.8642217116843585,-4.167504956700716,-2.535703870179488,-0.021439746940688276,-0.026668123536188876,-0.5974156128178304
9973,1.0,300.43699,28122.373,0.0,-0.09973016442277638,0.0,0.0,0.0,0.0,-1.8670433092378282,-4.172516390370307,-2.5089394767380475,-0.0015613175857150483,-0.004461932333658435,-0.6533812256612064
9974,1.0,300.12205,28057.071,0.0,-0.09974016041019573,0.0,0.0,0.0,0.0,-1.8176204144101682,-4.194688734358547,-2.5163399514934177,0.013158970630939288,0.008048710322120862,-0.6148697273179174
9975,1.0,300.00302999999997,28196.908,0.0,-0.09975015639761498,0.0,0.0,0.0,0.0,-1.863149591753548,-4.179336880768436,-2.5286694826852476,0.017709668334308183,0.0015186352358526286,-0.6227873547918265
9976,1.0,299.83775,28210.047000000002,0.0,-0.0997601523850341,0.0,0.0,0.0,0.0,-1.8156541012661083,-4.197484392709456,-2.5620113891508374,-0.004689523504869935,-0.02769585196686777,-0.5994415557302755
9977,1.0,299.63835,28030.245,0.0,-0.09977014837245357,0.0,0.0,0.0,0.0,-1.8100468765377185,-4.186057059406666,-2.5243906288379576,0.01126661157192799,0.0014786882559601688,-0.6167756102260133
9978,1.0,299.90435,28054.61,0.0,-0.09978014435987292,0.0,0.0,0.0,0.0,-1.8120436885097881,-4.175088424424146,-2.5407688034543576,0.007535399037360983,0.016358098078918585,-0.6214195482168344
9979,1.0,299.68084,28080.522999999997,0.0,-0.09979014034729228,0.0,0.0,0.0,0.0,-1.8310308808086784,-4.191654455609086,-2.5130924849229177,-0.007005255540614894,0.004872240868902735,-0.6156182658292924
9980,1.0,300.18546000000003,28046.841,0.0,-0.09980016932476887,0.0,0.0,0.0,0.0,-1.8123068295607583,-4.188948875192066,-2.524283629627398,-0.02226988450911648,-0.026269227236820875,-0.6424428260616704
9981,1.0,300.22391,28156.828999999998,0.0,-0.09981016531218834,0.0,0.0,0.0,0.0,-1.845578011169368,-4.194210176336316,-2.5191847524741773,-0.017616539504367083,0.004548710415947766,-0.5952451601761234
9982,1.0,300.12026000000003,28163.695,0.0,-0.09982016129960769,0.0,0.0,0.0,0.0,-1.8195963534301782,-4.199751742458226,-2.5417119366474377,0.01312967047779759,0.025042622129514375,-0.6514008080757544
9983,1.0,300.20308,28082.156000000003,0.0,-0.09983015728702693,0.0,0.0,0.0,0.0,-1.831321784912388,-4.183158758820626,-2.521793770156668,0.003204342038293937,0.014633266751690984,-0.6052443782579694
9984,1.0,300.47148,28151.354,0.0,-0.09984015327444606,0.0,0.0,0.0,0.0,-1.8399721036661083,-4.187152788064806,-2.5301835823096774,-0.004436150387513956,-0.012627847220021488,-0.6547643931077144
9985,1.0,300.37846,28402.857999999997,0.0,-0.09985014926186542,0.0,0.0,0.0,0.0,-1.8812392471138584,-4.194306131120785,-2.5582141330760773,0.014319133889438486,-0.00936451416620559,-0.6109120129573214
9986,1.0,299.76802000000004,28107.152000000002,0.0,-0.09986014524928488,0.0,0.0,0.0,0.0,-1.8376379807357484,-4.175883825752646,-2.5303504646011477,0.031429347252585074,0.00917441385664415,-0.6532763745408584
9987,1.0,299.81392999999997,27947.405,0.0,-0.09987014123670424,0.0,0.0,0.0,0.0,-1.812592870063988,-4.172517606270426,-2.5102025943127075,0.017248942500588085,-0.00989284961947324,-0.6107680706481154
9988,1.0,300.14141,28157.097999999998,0.0,-0.09988017021418105,0.0,0.0,0.0,0.0,-1.8240927520739383,-4.173552843897596,-2.5614092146164076,-0.0036128735355128567,-0.01169578986378459,-0.6302275084211123
9989,1.0,299.77783999999997,28214.722999999998,0.0,-0.09989016620160018,0.0,0.0,0.0,0.0,-1.844620996449918,-4.193040885720916,-2.5389093881958473,-0.017985095042740682,0.015404286243034686,-0.6059440578495224
9990,1.0,299.6232,28071.666,0.0,-0.09990016218901965,0.0,0.0,0.0,0.0,-1.8175726903304585,-4.192234135991296,-2.5232786881782174,-0.003857186879749707,0.017583360629842584,-0.6352445453637554
9991,1.0,300.04688,28334.255,0.0,-0.09991015817643878,0.0,0.0,0.0,0.0,-1.8706384219176382,-4.202998702403676,-2.5392690919813474,-0.02188788314191588,-0.004762036140326375,-0.5976920882401164
9992,1.0,300.54318,28344.122000000003,0.0,-0.09992015416385802,0.0,0.0,0.0,0.0,-1.8699756550272284,-4.210414071935516,-2.5355155069858974,-0.019016494478531883,-0.018696861694736583,-0.6377067836367594
9993,1.0,300.28909,28220.388,0.0,-0.09993015015127737,0.0,0.0,0.0,0.0,-1.8576371059095083,-4.189794128425486,-2.5308621559016475,0.01126375724639629,-0.008434919818311772,-0.6161008667194214
9994,1.0,300.37352000000004,28368.016,0.0,-0.09994014613869684,0.0,0.0,0.0,0.0,-1.833581940585448,-4.2208006960605955,-2.5687857766694178,0.016364243440775084,0.03975762472702206,-0.6492602969745024
9995,1.0,300.14312,28232.639,0.0,-0.09995014212611619,0.0,0.0,0.0,0.0,-1.8597057573136682,-4.193023761794225,-2.529287970546288,0.010931821579886791,0.003490077958543877,-0.6193344011010464
9996,1.0,300.5051,27957.092,0.0,-0.09996017110359301,0.0,0.0,0.0,0.0,-1.7919881253054586,-4.182571580387676,-2.5236980723946076,-0.003359055804012997,-0.013582072461946188,-0.6463823627154724
9997,1.0,300.07456,28004.165,0.0,-0.09997016709101214,0.0,0.0,0.0,0.0,-1.8398583156798785,-4.173411698158666,-2.4992969834864076,0.0014156705845408087,-0.007482342627674722,-0.6299631413375214
9998,1.0,300.18112,28210.46,0.0,-0.0999801630784315,0.0,0.0,0.0,0.0,-1.8250922219725785,-4.1978657800470955,-2.552317524119127,0.015625432130360085,-0.005505598580460276,-0.6285628803618264
9999,1.0,299.70926000000003,28124.819,0.0,-0.09999015906585074,0.0,0.0,0.0,0.0,-1.8364120494397584,-4.196179123930635,-2.5166514245741576,-0.006513210247628804,-0.026709194615742272,-0.6299765061063404
10000,1.0,299.95377,28266.111,0.0,-0.10000015505326998,0.0,0.0,0.0,0.0,-1.7988835962109881,-4.218488358007386,-2.5748198836649374,-0.017198829177142282,-0.016790085100052383,-0.6246822439363373
10001,1.0,300.09092000000004,28422.917,0.0,-0.10001015104068955,0.0,0.0,0.0,0.0,-1.8890470484094282,-4.213655560330426,-2.5371544390226477,-0.01106505383553579,0.01045358678443869,-0.6139715925617784
10002,1.0,299.51829,28189.377999999997,0.0,-0.10002014702810869,0.0,0.0,0.0,0.0,-1.804847586299588,-4.2035401832571155,-2.5604793549996376,-0.013386856657929887,0.02500159360646518,-0.6148647319949244
10003,1.0,299.65488999999997,28134.996,0.0,-0.10003014301552815,0.0,0.0,0.0,0.0,-1.8574247286885481,-4.199101438544046,-2.4958102885672977,-0.0044997536161661056,-0.018705990064887483,-0.6233097054833785
10004,1.0,300.33352,28347.195,0.0,-0.10004013900294728,0.0,0.0,0.0,0.0,-1.841248089517038,-4.207006207874186,-2.5685850518246074,-0.00848750283755131,-0.011999379858746589,-0.6076076422612054
10005,1.0,300.18694,28108.885,0.0,-0.1000501679804241,0.0,0.0,0.0,0.0,-1.8468429525942085,-4.179456748255266,-2.5180995616170776,0.02338292049221458,0.0033686981959396268,-0.6432379943426474
10006,1.0,300.45557,28081.806,0.0,-0.10006016396784345,0.0,0.0,0.0,0.0,-1.8022238764906482,-4.197539209539866,-2.536404633948648,0.008778580308353422,0.01182012983655599,-0.6364552677757443
10007,1.0,300.52288,28319.952,0.0,-0.1000701599552627,0.0,0.0,0.0,0.0,-1.8834402289810783,-4.1927562637678255,-2.5323617660496476,-0.005048093463508035,-0.012412867972804687,-0.6441360379062774
10008,1.0,300.28642,28346.523999999998,0.0,-0.10008015594268205,0.0,0.0,0.0,0.0,-1.833444037246838,-4.220456191026597,-2.5627353563472877,-0.0001285010768245689,0.001004088930943362,-0.6301981950957193
10009,1.0,299.91848999999996,28132.639,0.0,-0.1000901519301014,0.0,0.0,0.0,0.0,-1.8315836087382282,-4.199927946650616,-2.5201083299403275,0.007110607307837303,0.024421019537666976,-0.6279452436308703
10010,1.0,299.93995,28294.616,0.0,-0.10010014791752064,0.0,0.0,0.0,0.0,-1.8194384890645983,-4.212431959509666,-2.568986400189218,-0.0024886862284392076,0.012667644644199188,-0.6059518092127875
10011,1.0,300.04992000000004,28305.577999999998,0.0,-0.10011014390494,0.0,0.0,0.0,0.0,-1.8384341926643284,-4.2094502684403965,-2.5563045619376177,-0.004828754099785925,-0.027354672419695976,-0.6054658949948314
10012,1.0,299.85312999999996,28131.697,0.0,-0.10012013989235924,0.0,0.0,0.0,0.0,-1.8012764876471483,-4.205189450444887,-2.5448675014338678,-0.00971687290173069,-0.005166469750165865,-0.6208789083609774
10013,1.0,299.27846,28241.376,0.0,-0.10013016886983606,0.0,0.0,0.0,0.0,-1.8539382364194583,-4.209377314433196,-2.5213574646636077,0.017147221309798982,0.01094264714395519,-0.6362960963175354
10014,1.0,300.04218,28322.867000000002,0.0,-0.10014016485725541,0.0,0.0,0.0,0.0,-1.839732064717418,-4.213826394297286,-2.5558858869962977,-0.01123607829341459,0.008678723295098303,-0.6323748994905434
10015,1.0,299.71029,28153.397999999997,0.0,-0.10015016084467465,0.0,0.0,0.0,0.0,-1.8425054315661284,-4.198996465833686,-2.516428104252118,-0.008153757709013231,-0.01226225239844009,-0.6344642921242505
10016,1.0,299.98353,28257.418999999998,0.0,-0.100160156832094,0.0,0.0,0.0,0.0,-1.8239304294079184,-4.217084702643856,-2.5485346561957876,0.02036420627754068,0.01284999825144609,-0.6576877311037254
10017,1.0,300.49582999999996,28481.76,0.0,-0.10017015281951336,0.0,0.0,0.0,0.0,-1.8733196843322584,-4.225352215509797,-2.5590719506107376,0.026297918426652477,0.023052832993887478,-0.6270468960922104
10018,1.0,300.52191,28156.303,0.0,-0.1001801488069326,0.0,0.0,0.0,0.0,-1.8219458777620585,-4.199418484500336,-2.5374487881766976,0.004361055382852656,-0.0017269143667831782,-0.6516797760932864
10019,1.0,300.39932999999996,28170.548,0.0,-0.10019014479435195,0.0,0.0,0.0,0.0,-1.8519389926471483,-4.202411219995696,-2.5087929607735875,-0.004748587373074086,-0.03691143154062467,-0.6120982755118964
10020,1.0,299.95185,28399.42,0.0,-0.1002001407817712,0.0,0.0,0.0,0.0,-1.8548961630639984,-4.218233728257256,-2.5595846551613373,0.004835802267481526,0.0039825145687185865,-0.6413602696548304
10021,1.0,298.88905,28331.197,0.0,-0.10021016975924801,0.0,0.0,0.0,0.0,-1.857075461379078,-4.223421568769256,-2.531479326537558,0.009096151128195222,-0.0002250855455692138,-0.5946746294423164
10022,1.0,299.25049,28277.014,0.0,-0.10022016574666737,0.0,0.0,0.0,0.0,-1.818314186753638,-4.209481071243435,-2.5677108196383274,-0.011698622911064188,0.0004826966523959505,-0.6365900705690485
10023,1.0,299.87291,28412.023999999998,0.0,-0.1002301617340865,0.0,0.0,0.0,0.0,-1.8632608466145284,-4.221237913478746,-2.5520469863424275,-0.03165146079375597,-0.025682777330692772,-0.5979516018557285
10024,1.0,299.48751,28301.937,0.0,-0.10024015772150596,0.0,0.0,0.0,0.0,-1.8451523448023583,-4.219761608083046,-2.538168195747698,0.001107281229155149,0.009779384860025142,-0.6536899325691734
10025,1.0,299.88417999999996,28259.994,0.0,-0.10025015370892532,0.0,0.0,0.0,0.0,-1.8602887814212081,-4.214599301473567,-2.5154446437050577,0.002049735848643178,0.01098885540151559,-0.6377469488707234
10026,1.0,299.95847000000003,28316.267000000003,0.0,-0.10026014969634456,0.0,0.0,0.0,0.0,-1.8347469755504284,-4.228465629092066,-2.544225607495518,0.011097329904221189,0.004264161822165006,-0.6632120517089334
10027,1.0,300.14995,28232.06,0.0,-0.10027014568376391,0.0,0.0,0.0,0.0,-1.8463983384503282,-4.196757385762706,-2.5386855612487578,-0.012622637088007288,-0.010659417396502592,-0.6158320312028894
10028,1.0,300.30839,28088.895,0.0,-0.10028014167118315,0.0,0.0,0.0,0.0,-1.7848373153747286,-4.198359840795856,-2.5551253414712374,0.004257465860204166,0.014746439695110287,-0.6373825942672644
10029,1.0,299.9225,28252.571,0.0,-0.10029017064865986,0.0,0.0,0.0,0.0,-1.8287932192878382,-4.224173805643495,-2.535108991045777,0.018269682545327282,0.005755075143231694,-0.6368358445133044
10030,1.0,300.02206,28452.629,0.0,-0.10030016663607932,0.0,0.0,0.0,0.0,-1.8529667322235783,-4.217568022941556,-2.5783541000137373,0.008057991591711852,-0.0016883348692256785,-0.6094763490231324
10031,1.0,300.44631,28493.935,0.0,-0.10031016262349868,0.0,0.0,0.0,0.0,-1.880902138805588,-4.239625869668496,-2.5409167379689577,0.0036220767848461465,-0.02016626280425518,-0.6426404807586774
10032,1.0,299.37138,28403.804,0.0,-0.10032015861091792,0.0,0.0,0.0,0.0,-1.845087800770988,-4.231592620225676,-2.5573667520174475,-0.004352103318219155,0.01038963043812669,-0.6260329975121465
10033,1.0,299.18642,28346.693,0.0,-0.10033015459833727,0.0,0.0,0.0,0.0,-1.8641709478543484,-4.218311444539926,-2.5342044626815077,-0.006896142386371264,0.01005138354071932,-0.6310616159034325
10034,1.0,299.74863999999997,28266.676,0.0,-0.1003401505857564,0.0,0.0,0.0,0.0,-1.8236567505559083,-4.2234714206741755,-2.545235615195198,-0.011184542366828388,-0.006647264553083933,-0.6121308819001143
10035,1.0,299.88079,28195.897,0.0,-0.10035014657317587,0.0,0.0,0.0,0.0,-1.8455628124178682,-4.196356240048116,-2.5289296853109273,-0.023937562451203476,-0.0050849211529676456,-0.6343348798214784
10036,1.0,299.78444,28398.939,0.0,-0.100360142560595,0.0,0.0,0.0,0.0,-1.8589173474108582,-4.2225222079804965,-2.5511288804268175,-0.011930854767733689,0.004258036218685457,-0.6111382717046514
10037,1.0,299.96198,28363.153,0.0,-0.10037017153807182,0.0,0.0,0.0,0.0,-1.8701137610158582,-4.218209207604835,-2.5333674167738973,-0.004057868762755466,0.0048879914364071955,-0.6483493243395965
10038,1.0,299.91182000000003,28335.744,0.0,-0.10038016752549117,0.0,0.0,0.0,0.0,-1.8218457686521783,-4.213565178421506,-2.5779477867236373,-0.0040621501497280065,-0.004490340218762076,-0.6130829012965714
10039,1.0,300.0106,28464.62,0.0,-0.10039016351291064,0.0,0.0,0.0,0.0,-1.8569598495426682,-4.227108177933096,-2.5684657922878373,0.01042056496367969,-0.018681942600264182,-0.6253576865854984
10040,1.0,300.11703,28542.231,0.0,-0.10040015950032977,0.0,0.0,0.0,0.0,-1.8505399982340782,-4.208512201497816,-2.6170733247600273,0.008743946001385281,0.02054623665800568,-0.5997297645887194
10041,1.0,300.2727,28353.662,0.0,-0.10041015548774923,0.0,0.0,0.0,0.0,-1.854235929298838,-4.234323329245176,-2.5302460998408476,0.006261225485559844,0.01223853727984959,-0.6445498188496144
10042,1.0,300.38104,28298.095,0.0,-0.10042015147516836,0.0,0.0,0.0,0.0,-1.8203149504010983,-4.237603523793906,-2.5439957010478276,0.005691936793725425,-0.007608140363364993,-0.6272227456470655
10043,1.0,300.38527999999997,28330.791,0.0,-0.10043014746258783,0.0,0.0,0.0,0.0,-1.8665240185615781,-4.215710735508256,-2.5296182900788877,-0.0036084145257977867,-0.007822280335523962,-0.6401183087422584
10044,1.0,300.10937,28347.644,0.0,-0.10044014345000718,0.0,0.0,0.0,0.0,-1.8282609590103085,-4.244225518497446,-2.5444896604715774,0.0042877568706186555,-0.0018526751188447982,-0.6378702208778895
10045,1.0,299.83317,28334.36,0.0,-0.10045013943742631,0.0,0.0,0.0,0.0,-1.856282491850818,-4.227782293224625,-2.5288731459553477,-0.0027081033084439873,-0.007871376761169403,-0.6401749595553494
10046,1.0,299.49361,28355.106,0.0,-0.10046016841490313,0.0,0.0,0.0,0.0,-1.8247080988596682,-4.223961732397567,-2.570574467070948,-0.015660851300855684,-0.017160708681880084,-0.6080597037933204
10047,1.0,300.05405,28472.916,0.0,-0.10047016440232248,0.0,0.0,0.0,0.0,-1.8624115403807082,-4.249918666834316,-2.5427251867474374,0.0019720354739997483,-0.0012038418358599388,-0.6308888060988774
10048,1.0,299.39959,28531.83,0.0,-0.10048016038974172,0.0,0.0,0.0,0.0,-1.8550933415334583,-4.226731654195936,-2.5911389858005074,0.0037288601731348464,0.017639158286349384,-0.6228957826850274
10049,1.0,299.58938,28565.045,0.0,-0.10049015637716108,0.0,0.0,0.0,0.0,-1.8812733936422283,-4.2386599383481665,-2.563127180160958,0.003565258684163637,0.012968471506138488,-0.6360491976656684
10050,1.0,299.52191,28374.885,0.0,-0.10050015236458032,0.0,0.0,0.0,0.0,-1.8322169913757382,-4.222350968713596,-2.570688660357218,0.0012199801741776689,-0.01996035417193358,-0.6305695309923673
10051,1.0,300.37314,28184.002999999997,0.0,-0.10051014835199967,0.0,0.0,0.0,0.0,-1.8276501718500284,-4.209525046297776,-2.5300580406222877,-0.0035829637097859863,-0.0036301356695164965,-0.6325342432012694
10052,1.0,300.25675,28481.209,0.0,-0.10052014433941914,0.0,0.0,0.0,0.0,-1.8536031546113882,-4.2451143414851655,-2.5588587627896975,0.0001013330248082909,0.0007960391897029513,-0.6311324218204204
10053,1.0,300.21731,28555.974,0.0,-0.10053014032683827,0.0,0.0,0.0,0.0,-1.8793053579729981,-4.2367708348617255,-2.564226860494488,-0.01186121307511059,0.006271092109733604,-0.6291237041596754
10054,1.0,299.97356,28259.446,0.0,-0.10054016930431531,0.0,0.0,0.0,0.0,-1.8259254175298083,-4.241488527327326,-2.5227518994512277,-0.007103354767596534,0.0016663844270093386,-0.6416706281604604
10055,1.0,300.31116000000003,28356.716,0.0,-0.10055016529173444,0.0,0.0,0.0,0.0,-1.8469294841527484,-4.244014762476646,-2.5287894514970874,-0.00933310726345597,0.007878960634192873,-0.6233646439038004
10056,1.0,299.88455,28594.8,0.0,-0.10056016127915368,0.0,0.0,0.0,0.0,-1.8748428018825785,-4.243647560640405,-2.5736147239959974,0.01926185299024688,0.008294698062147962,-0.6329461293669193
10057,1.0,299.76215,28557.374,0.0,-0.10057015726657303,0.0,0.0,0.0,0.0,-1.8609132474578383,-4.266037348100106,-2.5537778201632477,0.0008136363953821601,-0.012274376949136688,-0.6278937603932895
10058,1.0,299.29648,28353.686,0.0,-0.10058015325399228,0.0,0.0,0.0,0.0,-1.8283705926711284,-4.222156829994436,-2.5682851297950076,-0.0036731536078120366,-0.01814567491858868,-0.6252854418533684
10059,1.0,299.84,28443.185,0.0,-0.10059014924141163,0.0,0.0,0.0,0.0,-1.847469039830998,-4.243415323717485,-2.5551338527720775,-0.015329461776150084,0.006763185532099443,-0.6179992819742804
10060,1.0,300.00888,28366.456000000002,0.0,-0.10060014522883098,0.0,0.0,0.0,0.0,-1.8269082701268082,-4.228946922889566,-2.5668392219023075,0.008315282643229501,0.020859366402659178,-0.6476184670424664
10061,1.0,300.15002999999996,28447.284,0.0,-0.10061014121625023,0.0,0.0,0.0,0.0,-1.8558673632848484,-4.226639752411867,-2.5647568916217978,-0.00961261078366582,0.02309091701214608,-0.6281863768896684
10062,1.0,299.63021000000003,28585.993,0.0,-0.10062017019372715,0.0,0.0,0.0,0.0,-1.859823496975288,-4.255150077100616,-2.5744545056788772,0.007080842579524753,-0.003014634059171217,-0.6405838465007033
10063,1.0,300.09189,28497.917,0.0,-0.1006301661811464,0.0,0.0,0.0,0.0,-1.8644048059774285,-4.239426867348856,-2.5588235016862177,0.008884831740339622,0.012574666788522988,-0.6303952013126625
10064,1.0,299.96601,28415.053,0.0,-0.10064016216856564,0.0,0.0,0.0,0.0,-1.8394180585114281,-4.2486838189374465,-2.5493648120027177,0.0067761666844305835,0.011323254279018188,-0.6395587920370385
10065,1.0,300.18679,28579.432999999997,0.0,-0.10065015815598499,0.0,0.0,0.0,0.0,-1.8794830820405382,-4.250437045585476,-2.5575137746069574,0.008732673391372762,0.0004665805751829176,-0.6218253143518805
10066,1.0,300.08792,28523.278,0.0,-0.10066015414340435,0.0,0.0,0.0,0.0,-1.8575345649993882,-4.2340452934177355,-2.5787844273312075,-0.014742826445253687,-0.013493820404736385,-0.6215522738474334
10067,1.0,300.59303,28301.386000000002,0.0,-0.10067015013082381,0.0,0.0,0.0,0.0,-1.8330156351045586,-4.234961271508136,-2.534937650453868,0.0054848288785854645,0.015622107656781986,-0.6345222702949724
10068,1.0,300.58675,28456.615,0.0,-0.10068014611824294,0.0,0.0,0.0,0.0,-1.8480964442929184,-4.228863431081326,-2.5731404216241875,0.006871005171265414,0.002352441782892928,-0.6234134622936184
10069,1.0,300.21695,28618.2,0.0,-0.10069014210566218,0.0,0.0,0.0,0.0,-1.8829122243539682,-4.232598574924956,-2.5837073029420576,-0.002000527053561648,0.0007160536726389953,-0.6392068801448074
10070,1.0,299.86045,28526.602000000003,0.0,-0.10070017108313911,0.0,0.0,0.0,0.0,-1.8457622200375483,-4.247937458913786,-2.5776750197967178,-0.005912821059875005,-0.022898250545381377,-0.6277350752951284
10071,1.0,299.22983,28478.435,0.0,-0.10071016707055835,0.0,0.0,0.0,0.0,-1.8590298181719582,-4.2340835942715165,-2.5636196197095575,0.010728005309021689,0.005092118876378005,-0.6435679288402094
10072,1.0,299.84667,28607.44,0.0,-0.10072016305797749,0.0,0.0,0.0,0.0,-1.8476934747281482,-4.260060996360286,-2.588192961134758,0.003419947676722557,0.005745049742767265,-0.6356274120465414
10073,1.0,299.6081,28450.384,0.0,-0.10073015904539695,0.0,0.0,0.0,0.0,-1.8727370655247584,-4.237381419371986,-2.5380879463397776,0.003594699983044267,-3.347417208064357e-05,-0.6516598961263244
10074,1.0,299.55251,28529.257999999998,0.0,-0.1007401550328163,0.0,0.0,0.0,0.0,-1.8552240507963584,-4.241933242796216,-2.5750246615101475,-0.004098102492426226,-0.01167256313174229,-0.6191503948828864
10075,1.0,299.73989,28644.861,0.0,-0.10075015102023566,0.0,0.0,0.0,0.0,-1.892432013018498,-4.253294106892446,-2.5615962605848677,0.013152210226272087,0.008181698891120812,-0.6475581786615164
10076,1.0,300.05026000000004,28457.349,0.0,-0.1007601470076549,0.0,0.0,0.0,0.0,-1.8309501247757083,-4.235109611322776,-2.584263881221988,0.0022722876204823274,-0.002924589765184537,-0.6269095703061573
10077,1.0,300.15853,28494.632,0.0,-0.10077014299507414,0.0,0.0,0.0,0.0,-1.8460606221919984,-4.257930638025036,-2.5576654581469276,-0.0006766316778883473,0.0092359997043472,-0.6410209321963404
10078,1.0,300.40252999999996,28684.443,0.0,-0.10078017197255107,0.0,0.0,0.0,0.0,-1.8502853684839482,-4.263500068524696,-2.605568781799618,-0.008165356788207971,-0.004553657305585986,-0.6328047303154645
10079,1.0,300.17177999999996,28571.165,0.0,-0.10079016795997031,0.0,0.0,0.0,0.0,-1.870117307391208,-4.251742415689305,-2.563060913604418,0.011920908704752091,0.01985067187510878,-0.6320292292189283
10080,1.0,300.1314,28521.179,0.0,-0.10080016394738944,0.0,0.0,0.0,0.0,-1.8344216209433182,-4.2743636294718454,-2.560940789095177,-0.0031162567620505966,0.0029388497404668873,-0.6482516064999524
10081,1.0,299.93323,28718.72,0.0,-0.10081015993480891,0.0,0.0,0.0,0.0,-1.9084411619484785,-4.250256383092646,-2.5710763298454773,-0.014381903719883385,-0.006538668966991384,-0.6253033561151364
10082,1.0,299.77224,28659.408,0.0,-0.10082015592222826,0.0,0.0,0.0,0.0,-1.8741441659386284,-4.2505704906236454,-2.5870295473699376,-0.02626340510174627,-0.022532659776800378,-0.6317385784277434
10083,1.0,300.08988999999997,28386.412,0.0,-0.10083015190964761,0.0,0.0,0.0,0.0,-1.8529514321470681,-4.239527280433766,-2.5362819293615373,-0.004718096043114826,0.0046873828113836655,-0.6345268603179254
10084,1.0,299.78868,28533.086,0.0,-0.10084014789706686,0.0,0.0,0.0,0.0,-1.8508985874444683,-4.239662042697066,-2.5827851440260474,0.013796344460593187,0.001058855879050939,-0.6451533815366814
10085,1.0,298.86324,28636.236,0.0,-0.10085014388448599,0.0,0.0,0.0,0.0,-1.8868493089425282,-4.256752937433805,-2.5610984508107375,0.006111723371730134,0.0017631843633877482,-0.6346699717620494
10086,1.0,299.00449,28489.657000000003,0.0,-0.10086017286196303,0.0,0.0,0.0,0.0,-1.8441836777067582,-4.242021800854956,-2.5739389640279975,0.012567016750267987,0.004488775355307636,-0.6286613986690494
10087,1.0,299.71404,28540.591,0.0,-0.10087016884938216,0.0,0.0,0.0,0.0,-1.8675355461364083,-4.242426594269906,-2.5656647637113976,-0.006900399961966453,0.026849043394544272,-0.6211483011650645
10088,1.0,300.47519,28619.629,0.0,-0.1008801648368014,0.0,0.0,0.0,0.0,-1.839480272067568,-4.262944098194826,-2.5972282136014675,0.008433232554245253,0.006671769398802373,-0.6246346009166354
10089,1.0,300.4158,28609.582000000002,0.0,-0.10089016082422098,0.0,0.0,0.0,0.0,-1.856860044407818,-4.259998478829116,-2.5797400235005177,-0.014796244990525686,-0.004653537218293365,-0.6259195033684455
10090,1.0,300.65609,28722.754,0.0,-0.10090015681164022,0.0,0.0,0.0,0.0,-1.8541296393633482,-4.2798539251386964,-2.5970163430055577,-0.004472956089446396,-0.013737070342993287,-0.6398901248197384
10091,1.0,299.83104,28721.443,0.0,-0.10091015279905957,0.0,0.0,0.0,0.0,-1.8819502447090284,-4.2623386812600765,-2.5863125715991773,-0.007196014868041373,-0.003399363500941057,-0.6351107558205513
10092,1.0,300.28337999999997,28520.769,0.0,-0.10092014878647881,0.0,0.0,0.0,0.0,-1.8474267873018284,-4.253229562861076,-2.5689451609101477,-0.015650412798325485,0.003040705288219247,-0.6347768088525934
10093,1.0,300.13617,28611.94,0.0,-0.10093014477389795,0.0,0.0,0.0,0.0,-1.861106879551948,-4.274005040261455,-2.5622034000447873,-0.012195564329858488,0.0006920291581304603,-0.6323012260757724
10094,1.0,299.45078,28707.362,0.0,-0.1009401407613173,0.0,0.0,0.0,0.0,-1.8788322715013084,-4.241716001974775,-2.605772951694768,-0.0015850054478778585,0.009802659518797172,-0.6408139353334114
10095,1.0,299.97118,28578.206000000002,0.0,-0.10095016973879412,0.0,0.0,0.0,0.0,-1.8617865677190284,-4.247445019365186,-2.5778294391119574,0.007328735837689913,0.016271725600644285,-0.6257328829650274
10096,1.0,300.65216000000004,28414.827,0.0,-0.10096016572621347,0.0,0.0,0.0,0.0,-1.8259829701354882,-4.245021933076046,-2.5663930878832772,0.011892602549958489,-0.007465037025241794,-0.6534405919845654
10097,1.0,300.16752,28642.087000000003,0.0,-0.10097016171363293,0.0,0.0,0.0,0.0,-1.8793398084763981,-4.252980505986496,-2.574159041949718,0.01085945019149429,-0.02144645668285048,-0.6321620257770344
10098,1.0,300.68871,28737.754,0.0,-0.10098015770105206,0.0,0.0,0.0,0.0,-1.883041413741718,-4.272677277330416,-2.579840841885468,-0.006908843881674804,-0.006494114130944165,-0.6360787744360874
10099,1.0,301.13069,28653.671000000002,0.0,-0.10099015368847153,0.0,0.0,0.0,0.0,-1.8804586392368183,-4.259432375998245,-2.570109385275048,-0.005103850691335845,0.003757893030900166,-0.6395176642154795
10100,1.0,300.1541,28724.127999999997,0.0,-0.10100014967589066,0.0,0.0,0.0,0.0,-1.8663698018963584,-4.276763208358666,-2.588284660268808,-0.01786224454761628,0.010216471062287189,-0.6331238129044554
10101,1.0,300.29222000000004,28755.414,0.0,-0.1010101456633099,0.0,0.0,0.0,0.0,-1.8875017406819181,-4.275347191343916,-2.5780787999615677,-0.001832792010807488,0.0019082415516787784,-0.6331213101767084
10102,1.0,300.10688999999996,28692.183999999997,0.0,-0.10102014165072948,0.0,0.0,0.0,0.0,-1.8604769419647782,-4.270085282249606,-2.591145166626118,-0.003432947878155577,-0.00965156680496048,-0.6376152263577234
10103,1.0,299.56776,28735.134,0.0,-0.10103017062820607,0.0,0.0,0.0,0.0,-1.8990316148948283,-4.270159553481936,-2.565572152652258,0.017028385311570787,-0.016911287037264085,-0.6437848454216174
10104,1.0,299.92789,28721.15,0.0,-0.10104016661562543,0.0,0.0,0.0,0.0,-1.881334796598288,-4.255515556411686,-2.5936619785495076,-0.016696243955290985,-0.016893890546297183,-0.6308800921480174
10105,1.0,300.11596000000003,28468.591,0.0,-0.10105016260304489,0.0,0.0,0.0,0.0,-1.8419384168101682,-4.257757777557975,-2.554044507589568,-0.0023799124116540677,-0.005573853741646535,-0.6423320271632353
10106,1.0,300.36797,28538.797000000002,0.0,-0.10106015859046402,0.0,0.0,0.0,0.0,-1.8286965552282983,-4.265432741765436,-2.5809522759201573,-0.0018581868954137683,0.014839989023842884,-0.6397863984070015
10107,1.0,299.82403999999997,28784.533,0.0,-0.10107015457788338,0.0,0.0,0.0,0.0,-1.8768270495534083,-4.267485282493006,-2.6054669501645678,0.017954361140707482,0.024018793698470375,-0.6462010618750794
10108,1.0,300.09501,28765.445,0.0,-0.10108015056530262,0.0,0.0,0.0,0.0,-1.8644899189858282,-4.291572466520226,-2.5879147226572976,0.008089399406386562,-0.007330217918611182,-0.6411928300758054
10109,1.0,300.01018999999997,28545.25,0.0,-0.10109014655272197,0.0,0.0,0.0,0.0,-1.8587437776687281,-4.276863824093596,-2.541435724670177,0.012692908008942488,-0.015313760452600486,-0.6586499640611904
10110,1.0,300.5127,28689.654,0.0,-0.10110014254014144,0.0,0.0,0.0,0.0,-1.8676438625720981,-4.283451368293736,-2.5698431031487674,0.0001937468852138288,0.012404173273696589,-0.6195800939852943
10111,1.0,300.07511,28800.532000000003,0.0,-0.10111017151761803,0.0,0.0,0.0,0.0,-1.883813712967938,-4.286112973656416,-2.5847158920915976,0.01788097650221498,0.007917042828601293,-0.6328712501845294
10112,1.0,300.30721,28730.854,0.0,-0.10112016750503738,0.0,0.0,0.0,0.0,-1.8568657186083781,-4.279056598635005,-2.5975397880072175,-0.02232534374008988,0.016593257215126982,-0.6273963863167024
10113,1.0,300.07112,28780.293999999998,0.0,-0.10113016349245674,0.0,0.0,0.0,0.0,-1.890269737305098,-4.273711907007526,-2.5845090877461874,-0.03211931585517967,0.004520997721737736,-0.6328712907145334
10114,1.0,300.28846,28683.978,0.0,-0.10114015947987598,0.0,0.0,0.0,0.0,-1.8574898806699782,-4.268755796793395,-2.5929671929559373,-0.011219721397050289,-0.0007091333163110093,-0.6279519006840274
10115,1.0,300.31812,28540.496,0.0,-0.10115015546729533,0.0,0.0,0.0,0.0,-1.8698736207421582,-4.260500442928655,-2.5452239628190476,-0.0013561966540211888,-0.011363274618217888,-0.6444420191714754
10116,1.0,300.38628,28757.456000000002,0.0,-0.10116015145471458,0.0,0.0,0.0,0.0,-1.8823360903471082,-4.271439491008255,-2.587772867643298,0.0018535201694281985,-0.017553290406624882,-0.6405928745590944
10117,1.0,300.14642000000003,28858.696,0.0,-0.10117014744213393,0.0,0.0,0.0,0.0,-1.9058243422402183,-4.271499678064195,-2.5949989620564575,0.013352200464759587,-0.014039677485358287,-0.6276730643890084
10118,1.0,299.94189,28578.887000000002,0.0,-0.10118014342955328,0.0,0.0,0.0,0.0,-1.8393061957003882,-4.269529919869797,-2.578431917621418,0.0026729879103283677,0.03119032459374537,-0.6339611526545944
10119,1.0,299.7323,28634.436,0.0,-0.1011901724070301,0.0,0.0,0.0,0.0,-1.8567306523700484,-4.281707260896606,-2.5657157301914273,0.01034175335765159,0.014056426509511288,-0.6372513682468134
10120,1.0,299.37257999999997,29053.722999999998,0.0,-0.10120016839444934,0.0,0.0,0.0,0.0,-1.912725892646348,-4.300711982422226,-2.6181684454681076,-0.0003514579460536987,0.005877291850418544,-0.6260796070167464
10121,1.0,300.15117999999995,28944.639,0.0,-0.1012101643818687,0.0,0.0,0.0,0.0,-1.9091474985931882,-4.292692107880725,-2.5966079018902475,-0.016114938319920585,-0.02077135245922288,-0.6343972960276384
10122,1.0,300.32066000000003,28633.972,0.0,-0.10122016036928794,0.0,0.0,0.0,0.0,-1.8536620244421984,-4.281103161186986,-2.569247312089968,-0.0047945545784356955,-0.00899834483181749,-0.6253865642133484
10123,1.0,300.08725,28625.435,0.0,-0.10123015635670729,0.0,0.0,0.0,0.0,-1.857782608623868,-4.253154785003696,-2.590479967935468,-0.018977841013717085,-0.01056330555826709,-0.6152667997671054
10124,1.0,300.19673,28658.192000000003,0.0,-0.10124015234412653,0.0,0.0,0.0,0.0,-1.8475496945389582,-4.278343574539637,-2.5854814025421478,0.0035927966940564266,0.00027314417006473076,-0.6401557787309564
10125,1.0,300.31552,28655.951,0.0,-0.10125014833154589,0.0,0.0,0.0,0.0,-1.8616281967283983,-4.273636318550066,-2.5754291509500677,0.00851180817432506,0.003567264818036627,-0.6391435925435615
10126,1.0,299.30818999999997,28693.777000000002,0.0,-0.10126014431896524,0.0,0.0,0.0,0.0,-1.8721344856902882,-4.270026007118756,-2.5800312315792575,0.019369185560089784,0.02464969691298568,-0.6451775880815704
10127,1.0,299.30754,28700.109,0.0,-0.10127017329644206,0.0,0.0,0.0,0.0,-1.8607886176955382,-4.294419699301226,-2.5689082786065076,0.005756599881982175,-0.008073396134307163,-0.6507799694744824
10128,1.0,299.42454,28651.556,0.0,-0.1012801692838613,0.0,0.0,0.0,0.0,-1.8567837466752881,-4.274841883519046,-2.5777320657773477,0.004091760762700345,-0.01047740120153899,-0.6527976746636144
10129,1.0,299.65099,28952.09,0.0,-0.10129016527128065,0.0,0.0,0.0,0.0,-1.895418061063198,-4.294180369627606,-2.611113995621887,0.013732430670785386,-0.017241573132610783,-0.6339904761124884
10130,1.0,300.36222999999995,29097.557,0.0,-0.1013001612586999,0.0,0.0,0.0,0.0,-1.9206107009495184,-4.297382543918636,-2.6269375171335474,0.008217809706134673,0.009893955176657351,-0.6136506151951004
10131,1.0,300.61215,28750.678,0.0,-0.10131015724611925,0.0,0.0,0.0,0.0,-1.889292356258638,-4.275364315270606,-2.5748316373660978,-0.0007791364251122783,-0.004067637101669527,-0.6213486916373414
10132,1.0,300.04966,28664.671000000002,0.0,-0.1013201532335386,0.0,0.0,0.0,0.0,-1.870032397032828,-4.273382398075006,-2.5699294320572874,-0.00994818513260943,0.01032262927526419,-0.6330532096374875
10133,1.0,299.90539,29007.932,0.0,-0.10133014922095784,0.0,0.0,0.0,0.0,-1.9240699367909182,-4.2785267701577165,-2.6150903943143273,0.002088962002414498,0.0041063979709949254,-0.6086716156612114
10134,1.0,300.28547000000003,28895.605,0.0,-0.1013401452083772,0.0,0.0,0.0,0.0,-1.879995786591138,-4.297863533741106,-2.6056831777359077,0.008193820402067111,0.014954260330370587,-0.6290389052588063
10135,1.0,300.3682,28710.229,0.0,-0.10135014119579644,0.0,0.0,0.0,0.0,-1.8581913537142085,-4.2944630664055055,-2.5745382001371375,-0.014878775224420786,-0.008026447494898692,-0.6436604385743394
10136,1.0,299.77038999999996,28776.46,0.0,-0.10136017017327315,0.0,0.0,0.0,0.0,-1.8633699736502982,-4.285425686113586,-2.5985297333549178,-0.016221179619405786,-0.008460611078572303,-0.6434860379671274
10137,1.0,300.35624,28799.577,0.0,-0.10137016616069261,0.0,0.0,0.0,0.0,-1.8721867693954481,-4.307869885103655,-2.5742956280631977,-0.004041884539777946,-0.014286202247938385,-0.6543112473979923
10138,1.0,300.18748,28828.222999999998,0.0,-0.10138016214811174,0.0,0.0,0.0,0.0,-1.875537486151138,-4.296291273560937,-2.5912311915596073,-0.006615966372070044,0.024643529259626977,-0.6497926281795394
10139,1.0,300.81958,28921.097999999998,0.0,-0.1013901581355312,0.0,0.0,0.0,0.0,-1.9160166249961184,-4.2909800191867555,-2.5842949880000576,-0.0008336921004415042,0.012672731159701188,-0.6516518407880295
10140,1.0,300.4562,28655.868,0.0,-0.10140015412295056,0.0,0.0,0.0,0.0,-1.8511120792405382,-4.285776473298205,-2.5737798837622976,0.011908743624051489,0.00997773059360034,-0.6506381448579854
10141,1.0,300.51161,28558.833,0.0,-0.1014101501103698,0.0,0.0,0.0,0.0,-1.8430479256696684,-4.279861828489476,-2.5582621611308176,0.02107556965599678,0.012345644908170288,-0.6324866407115713
10142,1.0,299.32491,28984.764,0.0,-0.10142014609778915,0.0,0.0,0.0,0.0,-1.8943446239072583,-4.307703408112226,-2.6085965757484373,0.02030128040658038,0.0002726976510106627,-0.6250765198152494
10143,1.0,299.97652,29064.015,0.0,-0.10143014208520829,0.0,0.0,0.0,0.0,-1.9108442872106481,-4.306284655322206,-2.6176058890125873,0.0063582112520065934,-0.018363988771884582,-0.6375284921491634
10144,1.0,300.08185,28636.918999999998,0.0,-0.1014401710626851,0.0,0.0,0.0,0.0,-1.8442551118388084,-4.287191274412836,-2.5734620272059274,-0.038197294553529465,-0.0011016723832265988,-0.6343323264312264
10145,1.0,300.29548,28633.194,0.0,-0.10145016705010446,0.0,0.0,0.0,0.0,-1.8611576433819583,-4.287237681267416,-2.5553807818214476,-0.028817989975614175,-0.0009003559118157101,-0.6575595043035704
10146,1.0,299.9338,29025.687,0.0,-0.1014601630375237,0.0,0.0,0.0,0.0,-1.9008575929000382,-4.289672014632666,-2.6325545703879074,-0.008679001229600731,0.01084694465876009,-0.6213148389515004
10147,1.0,300.19417999999996,28966.925,0.0,-0.10147015902494305,0.0,0.0,0.0,0.0,-1.9116695794170981,-4.290889738602846,-2.602662780512818,-0.01003824634787278,-0.003999244341119686,-0.6398519455559704
10148,1.0,299.14246,28845.515,0.0,-0.10148015501236252,0.0,0.0,0.0,0.0,-1.885183728428148,-4.288390050606146,-2.5947424071311374,0.012179511408524187,-0.012003899967442689,-0.6235021926048755
10149,1.0,299.37366000000003,28836.285,0.0,-0.10149015099978165,0.0,0.0,0.0,0.0,-1.8885281630332182,-4.274663855476476,-2.6023184781288373,0.006365577985533634,-0.0027177336426944276,-0.6257930801534684
10150,1.0,299.48787000000004,28793.22,0.0,-0.10150014698720111,0.0,0.0,0.0,0.0,-1.8635503321680984,-4.2893569951765755,-2.5995124846269078,0.01011739698738434,0.01110233130671479,-0.6294430805911954
10151,1.0,300.02679,28996.042999999998,0.0,-0.10151014297462024,0.0,0.0,0.0,0.0,-1.899875854878148,-4.304840773929706,-2.6093564119984274,-0.010887280118740888,-0.008760235111317892,-0.6336456164409534
10152,1.0,300.31087,29104.976000000002,0.0,-0.10152017195209706,0.0,0.0,0.0,0.0,-1.9051371560223984,-4.304064219053066,-2.6379846789988175,-0.00023712531762994676,0.0034473569025276368,-0.6234547826326964
10153,1.0,300.30675,28751.41,0.0,-0.10153016793951641,0.0,0.0,0.0,0.0,-1.859106926504568,-4.306854000553396,-2.573749790234327,-0.002906410335865367,0.006928621409051693,-0.6290914929389964
10154,1.0,300.09682999999995,28635.957000000002,0.0,-0.10154016392693566,0.0,0.0,0.0,0.0,-1.8383036860514483,-4.287232007066855,-2.5790800937103877,0.01750570716867878,-0.008580408144520352,-0.6497552797808533
10155,1.0,300.41817000000003,29122.553,0.0,-0.10155015991435523,0.0,0.0,0.0,0.0,-1.9005405469437482,-4.327408285456946,-2.6245799881258773,-0.006139565154002905,-0.019618688264713784,-0.6453075475393963
10156,1.0,299.5081,29021.644,0.0,-0.10156015590177436,0.0,0.0,0.0,0.0,-1.8954252551389081,-4.313933072377046,-2.6124966767083473,-0.002334134988036188,-0.013687711890871987,-0.6526211259661904
10157,1.0,300.08248,28603.028,0.0,-0.1015701518891936,0.0,0.0,0.0,0.0,-1.8392725557970682,-4.2808898720409365,-2.574443765227818,-0.006949793877841254,0.016579776935796584,-0.6449700136660844
10158,1.0,300.1977,28834.142999999996,0.0,-0.10158014787661296,0.0,0.0,0.0,0.0,-1.8641941512816382,-4.312437819204476,-2.5882275129631678,-0.006140950266889603,0.029183679029454873,-0.6564551022245744
10159,1.0,300.18855,29071.275,0.0,-0.1015901438640322,0.0,0.0,0.0,0.0,-1.9112497899006682,-4.297820267961836,-2.6278718350507577,-0.016363729722974382,0.013889459105032885,-0.6271002741074785
10160,1.0,300.5296,28935.418999999998,0.0,-0.10160017284150902,0.0,0.0,0.0,0.0,-1.879681273760098,-4.316355246741096,-2.5996083380863677,0.006901657101365523,-0.009640926159035331,-0.6448226871015443
10161,1.0,300.26117999999997,28871.592999999997,0.0,-0.10161016882892837,0.0,0.0,0.0,0.0,-1.8750723030302283,-4.306815801024626,-2.594355345592937,0.006604016505690684,-0.004691747284864405,-0.6303961740327584
10162,1.0,299.81584,28839.322,0.0,-0.10162016481634772,0.0,0.0,0.0,0.0,-1.8886412417443783,-4.281568546957916,-2.5962240827523675,0.015244068097472386,-0.011946678694545389,-0.6367117112435534
10163,1.0,300.75522,28889.336,0.0,-0.10163016080376719,0.0,0.0,0.0,0.0,-1.8889139073462884,-4.306933439361236,-2.5857895318975577,0.003751324130501866,-0.00946615581686184,-0.6389591810253613
10164,1.0,299.90148,29038.839,0.0,-0.10164015679118632,0.0,0.0,0.0,0.0,-1.9015775070960883,-4.301063478881916,-2.6244409702121576,0.009403832931036053,0.019290906923614282,-0.6378479192431884
10165,1.0,299.44102000000004,29092.113999999998,0.0,-0.10165015277860556,0.0,0.0,0.0,0.0,-1.9030051764869882,-4.305245162044616,-2.635026090031827,0.003870069544171127,0.03997683226690617,-0.6239198441635944
10166,1.0,299.67499,28814.02,0.0,-0.10166014876602492,0.0,0.0,0.0,0.0,-1.8560475191526282,-4.310630586326116,-2.5920643871168374,0.006302101717119014,0.0016425994954869484,-0.6496356352090453
10167,1.0,299.69912,28871.554,0.0,-0.10167014475344416,0.0,0.0,0.0,0.0,-1.8836598002777483,-4.293537158464126,-2.5990345345547374,-0.01896987686793108,-0.01874059052930228,-0.6409398316583365
10168,1.0,299.75061,29181.636000000002,0.0,-0.10168017373092098,0.0,0.0,0.0,0.0,-1.9275801391123482,-4.318919884069206,-2.6239886553675174,-0.016838887277868784,-0.02172233226107728,-0.6389504468094994
10169,1.0,300.41537999999997,29036.085,0.0,-0.10169016971834033,0.0,0.0,0.0,0.0,-1.9042227991321583,-4.312387460674505,-2.6096344478258677,0.006269921197918044,0.009736158698834051,-0.6251276180177924
10170,1.0,300.02869,28745.784,0.0,-0.10170016570575968,0.0,0.0,0.0,0.0,-1.858394206384228,-4.301501608225156,-2.5781048404891376,-0.003902490000995776,0.009572981862979751,-0.6535072030461394
10171,1.0,300.6371,29011.922000000002,0.0,-0.10171016169317904,0.0,0.0,0.0,0.0,-1.8871984749269883,-4.329550093518326,-2.6021511905373274,0.016122577212424483,0.02038408421800248,-0.6402395542492244
10172,1.0,299.79622,29055.57,0.0,-0.10172015768059828,0.0,0.0,0.0,0.0,-1.8964114514612382,-4.313830936766966,-2.6219252728638773,0.016652957911018985,-0.0026716766633739578,-0.6405983055796304
10173,1.0,300.08759,28838.832000000002,0.0,-0.10173015366801752,0.0,0.0,0.0,0.0,-1.8595062483689784,-4.326803780447286,-2.5799745908986678,0.02157030320282318,0.01148728528470679,-0.6514593232690294
10174,1.0,300.41927999999996,28925.522,0.0,-0.10174014965543687,0.0,0.0,0.0,0.0,-1.8716183360893484,-4.317889104742476,-2.6031289768838275,-0.0005463441904749735,-0.029876846462615177,-0.6521915991162994
10175,1.0,299.38369,28930.667999999998,0.0,-0.10175014564285623,0.0,0.0,0.0,0.0,-1.8837067137573784,-4.296183463750296,-2.6143104957123575,-0.014474596852281486,-0.013798260516532289,-0.6336924488605754
10176,1.0,299.52615,28845.415,0.0,-0.10176014163027569,0.0,0.0,0.0,0.0,-1.8630772456964082,-4.327624411703276,-2.5775841312627477,-0.025580506958349476,0.0009932708446607,-0.6462782411351964
10177,1.0,300.06855,29025.513,0.0,-0.10177017060775229,0.0,0.0,0.0,0.0,-1.8941574766137883,-4.2954492627278364,-2.6334243442737475,-0.01746877014953338,0.024175041930140875,-0.6311467086468304
10178,1.0,299.38741,29161.725,0.0,-0.10178016659517164,0.0,0.0,0.0,0.0,-1.9058965869723483,-4.326136453931426,-2.6324031908229677,-0.0005843264378935295,0.009597451042294671,-0.6236536430973224
10179,1.0,299.75561,28926.923,0.0,-0.10179016258259099,0.0,0.0,0.0,0.0,-1.8718207834593283,-4.312899354625025,-2.6083422499733375,-0.01015485431045609,0.004931219826748505,-0.6418753553431654
10180,1.0,300.65391,28992.536,0.0,-0.10180015857001024,0.0,0.0,0.0,0.0,-1.8942421843221482,-4.308474288788306,-2.6102906285906275,0.014904667817476186,-0.013075629796964186,-0.6351325001676974
10181,1.0,300.62359,29238.381,0.0,-0.10181015455742937,0.0,0.0,0.0,0.0,-1.924825112090448,-4.330633359200236,-2.6322793716607475,0.017915929577664583,-0.0002186412445357108,-0.6376761733512384
10182,1.0,300.38612,29078.282000000003,0.0,-0.10182015054484883,0.0,0.0,0.0,0.0,-1.9123023541045483,-4.306076229776636,-2.6206931607422774,0.009012303466520101,-0.01125619029464949,-0.6311334553355225
10183,1.0,300.08267,28843.374,0.0,-0.10183014653226818,0.0,0.0,0.0,0.0,-1.8588163263758881,-4.309773680716546,-2.5990752672087574,-0.0004265369616284205,-0.006627926066975373,-0.6513152593698114
10184,1.0,299.82944,29025.732999999997,0.0,-0.10184014251968754,0.0,0.0,0.0,0.0,-1.8913831978399882,-4.315021100334426,-2.6166939639225872,-0.006877937220499554,0.000970631949663915,-0.6473540492963704
10185,1.0,299.77058,29049.507,0.0,-0.10185017149716435,0.0,0.0,0.0,0.0,-1.910773562353668,-4.294347859869136,-2.6252035422374176,-0.0025347787728381877,0.03413728955558817,-0.6343422056197013
10186,1.0,299.88916,28852.779,0.0,-0.1018601674845836,0.0,0.0,0.0,0.0,-1.8771948593397083,-4.3157030176517255,-2.5776263837919178,0.0023074223716748575,-0.0062818625529965635,-0.6600051962024414
10187,1.0,299.43343,29036.377999999997,0.0,-0.10187016347200295,0.0,0.0,0.0,0.0,-1.8923142733568783,-4.314262176009526,-2.6197575255999372,0.008228879362152162,-0.0015745942017753487,-0.6292245630746295
10188,1.0,299.53855,29212.386000000002,0.0,-0.10188015945942219,0.0,0.0,0.0,0.0,-1.9124777476968584,-4.3332498749334665,-2.6341082880912476,0.004953694727216605,-0.013368328366601288,-0.6338228642809464
10189,1.0,300.42001,29115.589,0.0,-0.10189015544684132,0.0,0.0,0.0,0.0,-1.8769555296660883,-4.3548554068157665,-2.618601103260808,0.016850199201985185,0.0022791678926363575,-0.6429553178297495
10190,1.0,300.91525,29089.349,0.0,-0.10190015143426068,0.0,0.0,0.0,0.0,-1.901743274812448,-4.322810865778216,-2.6178815943647975,-0.01094522991846009,0.004947101508815905,-0.6490416983979285
10191,1.0,300.38732999999996,29170.83,0.0,-0.10191014742168014,0.0,0.0,0.0,0.0,-1.9104441547461584,-4.3302132657087755,-2.6265465039199576,-0.011821304193421887,0.00965128927575809,-0.6303132597770754
10192,1.0,300.61843999999996,28878.016,0.0,-0.1019201434090995,0.0,0.0,0.0,0.0,-1.872203589347108,-4.320743632924196,-2.5852485576691677,0.0019347918453740884,0.008248190895808062,-0.6510284487965053
10193,1.0,300.3884,28842.964,0.0,-0.10193017238657631,0.0,0.0,0.0,0.0,-1.8643713687241283,-4.305575076277176,-2.5975944021876076,-0.017068697466799284,0.015096399054398588,-0.6371448553963014
10194,1.0,300.41477000000003,29113.862,0.0,-0.10194016837399544,0.0,0.0,0.0,0.0,-1.9042467118345183,-4.333154021474006,-2.6124862402323177,0.006540027532725463,-0.017082356078147284,-0.6500915673565424
10195,1.0,300.29621000000003,29082.656000000003,0.0,-0.10195016436141491,0.0,0.0,0.0,0.0,-1.8870148740088681,-4.316927226422545,-2.6364589269982375,0.004802582558977995,-0.02007388073963778,-0.6406972798493984
10196,1.0,299.72143,28996.536,0.0,-0.10196016034883404,0.0,0.0,0.0,0.0,-1.8819729415112683,-4.348167854830756,-2.5840822054790578,-0.007325091987680293,0.0029393299196892775,-0.6541143931685643
10197,1.0,299.92146,29333.567000000003,0.0,-0.10197015633625328,0.0,0.0,0.0,0.0,-1.919627037752438,-4.347194526784696,-2.6498504456198773,-0.015090707628586884,-0.002986528629222427,-0.6265122850744484
10198,1.0,300.43195,29331.952999999998,0.0,-0.10198015232367286,0.0,0.0,0.0,0.0,-1.9352644252207283,-4.3464007466563555,-2.634516019931487,-0.03140667274184727,-0.0007207516776551522,-0.6364691999646194
10199,1.0,300.38228,29078.658,0.0,-0.1019901483110921,0.0,0.0,0.0,0.0,-1.8808745784028682,-4.349333497745796,-2.6089777604360576,-0.009389512464722732,0.0046009548070038864,-0.6234464739818765
10200,1.0,300.57037,29137.328999999998,0.0,-0.10200014429851145,0.0,0.0,0.0,0.0,-1.9019570705835482,-4.327220124913375,-2.6278431600729273,0.014198528756535687,-0.008673292781187352,-0.6305774039456444
10201,1.0,300.3158,29130.803,0.0,-0.10201017327598827,0.0,0.0,0.0,0.0,-1.8825217177654283,-4.334455541227456,-2.638059558181207,0.017782086332205283,-0.007195973020812244,-0.6360502210482694
10202,1.0,300.42919,28877.451,0.0,-0.1020201692634074,0.0,0.0,0.0,0.0,-1.883347719246948,-4.318296329957666,-2.5763799848439075,-0.005945526645277795,-0.013557341053505385,-0.6698494782114963
10203,1.0,300.6066,29019.551,0.0,-0.10203016525082687,0.0,0.0,0.0,0.0,-1.8877808910844682,-4.310089308122696,-2.623348686604358,0.004047977516604276,0.01053247134447399,-0.6456549099386784
10204,1.0,300.0152,29126.938,0.0,-0.102040161238246,0.0,0.0,0.0,0.0,-1.9113245677580482,-4.333984481255966,-2.608552904669127,-0.005633614219294434,0.021990286250022275,-0.6518621307137833
10205,1.0,299.46733,28926.693,0.0,-0.10205015722566535,0.0,0.0,0.0,0.0,-1.857903388035788,-4.334387957445786,-2.6007010269942077,-0.006645405340475443,0.016598615281655786,-0.6548428997254624
10206,1.0,300.59184,29104.376,0.0,-0.10206015321308481,0.0,0.0,0.0,0.0,-1.8951967672413583,-4.338870271913156,-2.6129364272517472,0.00041355328630453167,-0.018635521560182784,-0.6437906918746944
10207,1.0,300.22536,29346.088,0.0,-0.10207014920050395,0.0,0.0,0.0,0.0,-1.9261615889723482,-4.355535500282886,-2.6387808909273978,-0.00022428350745255877,-0.026635651910234176,-0.6518254915901674
10208,1.0,300.00697,29182.505,0.0,-0.10208014518792341,0.0,0.0,0.0,0.0,-1.925907161872238,-4.333236905332186,-2.6116087656457174,0.014962775684210986,-0.00884073783176289,-0.6345465376348673
10209,1.0,299.96061000000003,29085.423,0.0,-0.10209017416540012,0.0,0.0,0.0,0.0,-1.8792226767648383,-4.350103871796826,-2.611915780426018,0.017029278998158984,0.006616887821710984,-0.6654697147867473
10210,1.0,299.70211,29276.213,0.0,-0.10210017015281936,0.0,0.0,0.0,0.0,-1.9241912228278881,-4.338242056851155,-2.6368045466073475,0.01012292213885463,0.02905130094364017,-0.6229558076209514
10211,1.0,300.06209,29217.779,0.0,-0.10211016614023871,0.0,0.0,0.0,0.0,-1.8987897520959582,-4.325431637161866,-2.6572539601255474,0.003307579963157727,0.019259700847034482,-0.6459162980669755
10212,1.0,300.60749,28983.136000000002,0.0,-0.10212016212765795,0.0,0.0,0.0,0.0,-1.8757277745199181,-4.3367861177824665,-2.597635742791687,0.006921075330256953,0.005219715130995775,-0.6331038620099864
10213,1.0,300.03505,29024.303,0.0,-0.10213015811507731,0.0,0.0,0.0,0.0,-1.882842006122038,-4.305970446466196,-2.6338508212408374,0.004639207632729145,-0.022609894765672878,-0.6501444691442634
10214,1.0,300.54325,29203.78,0.0,-0.10214015410249677,0.0,0.0,0.0,0.0,-1.912397092988898,-4.349588532795966,-2.6152342758285276,-0.01066479471478329,-0.013888088177647587,-0.6379733393405664
10215,1.0,300.44764,29183.688,0.0,-0.1021501500899159,0.0,0.0,0.0,0.0,-1.9021070315983482,-4.351870270696155,-2.6171350316911175,-0.003743180639448166,-0.01211879138303159,-0.6516060418835093
10216,1.0,300.56338,29362.292,0.0,-0.10216014607733526,0.0,0.0,0.0,0.0,-1.9391034271996082,-4.348184472132395,-2.6381157935617576,-0.02024909903968048,0.02502268440729668,-0.6336120069351364
10217,1.0,300.46106000000003,29297.232000000004,0.0,-0.1021701420647545,0.0,0.0,0.0,0.0,-1.9172882538716183,-4.3553690232914555,-2.632969597628868,0.004936844074078576,0.02209289200814868,-0.6383880018114904
10218,1.0,300.0332,29067.06,0.0,-0.10218017104223132,0.0,0.0,0.0,0.0,-1.874502451173988,-4.341220910820145,-2.6199370735176575,0.0035046636937333766,0.002113963239356928,-0.6332285930972964
10219,1.0,299.64905,29242.665,0.0,-0.10219016702965067,0.0,0.0,0.0,0.0,-1.905157421024398,-4.344885025831767,-2.6389976251237877,0.0038644481339413367,-0.01816503610149948,-0.6388479970918884
10220,1.0,300.25358,29421.624,0.0,-0.10220016301706991,0.0,0.0,0.0,0.0,-1.933998774520818,-4.357613372262955,-2.6518269925899474,-0.0012757942453360887,-0.025007478563045974,-0.6444465686644244
10221,1.0,300.10851,28955.418999999998,0.0,-0.10221015900448926,0.0,0.0,0.0,0.0,-1.864981953234388,-4.3259464695376755,-2.6107959364154976,-0.00024847931189049874,-0.01971928069489148,-0.6605241930361624
10222,1.0,300.1001,28873.444,0.0,-0.10222015499190862,0.0,0.0,0.0,0.0,-1.8717709315544084,-4.324157272511096,-2.580877802037808,-0.008477322308496573,0.013974193157895486,-0.6507975797612203
10223,1.0,299.89643,29339.159,0.0,-0.10223015097932786,0.0,0.0,0.0,0.0,-1.9231579103759082,-4.353733131005005,-2.641480898468868,0.003984182682358216,0.00994601961449571,-0.6427630130932704
10224,1.0,300.16168999999996,29287.887000000002,0.0,-0.10224014696674721,0.0,0.0,0.0,0.0,-1.9328896709613583,-4.340170373116466,-2.6297260827337574,-0.007968622426266803,0.02039575483265428,-0.6309695823968494
10225,1.0,300.15231,29088.566000000003,0.0,-0.10225014295416646,0.0,0.0,0.0,0.0,-1.876113113532948,-4.360777043050186,-2.6053076672488475,-0.003304121233941377,-0.007541344586297763,-0.6544881709979534
10226,1.0,300.01428,29243.49,0.0,-0.10226017193164327,0.0,0.0,0.0,0.0,-1.9211065855484584,-4.336785611157416,-2.6313984520238076,0.0023841907588763077,-0.013211924094415387,-0.6304477585953494
10227,1.0,299.35546,29391.054,0.0,-0.10227016791906263,0.0,0.0,0.0,0.0,-1.9097933442069281,-4.374309707410755,-2.6500435710889376,-0.00022299934467332177,-0.014283463432918087,-0.6387451420742374
10228,1.0,299.31422000000003,29320.701,0.0,-0.10228016390648198,0.0,0.0,0.0,0.0,-1.927954231049268,-4.363551321823986,-2.6212553118977575,-0.005064630819715145,0.014097094315524887,-0.6350185703264535
10229,1.0,300.2768,29305.447,0.0,-0.10229015989390122,0.0,0.0,0.0,0.0,-1.908656882894768,-4.340473537546386,-2.6589936092222373,-0.0015658557302629284,-0.0006562532526721534,-0.6370038312473835
10230,1.0,300.02099999999996,29011.868,0.0,-0.10230015588132058,0.0,0.0,0.0,0.0,-1.8818998861790586,-4.337327902610936,-2.5996556568660374,-0.00881453477887685,0.02083283039579028,-0.6397719899905795
10231,1.0,300.16707,28923.1,0.0,-0.10231015186873982,0.0,0.0,0.0,0.0,-1.846347067995268,-4.335496757030216,-2.6100565678175274,0.012839487808158788,0.010707929784790389,-0.6527739950087774
10232,1.0,300.6837,29324.35,0.0,-0.10232014785615917,0.0,0.0,0.0,0.0,-1.9077604605312983,-4.3735425757600455,-2.6325671346891477,0.016994384691215184,0.0029046261037642775,-0.6736382837804223
10233,1.0,300.54861,29460.116,0.0,-0.10233014384357841,0.0,0.0,0.0,0.0,-1.934028158773718,-4.372004360783236,-2.6491071253465175,0.017794355777666183,-0.016234774395997485,-0.6433293388391623
10234,1.0,300.2668,29168.497000000003,0.0,-0.10234017282105512,0.0,0.0,0.0,0.0,-1.9080545057103182,-4.350491237310055,-2.6079489062845176,-0.01149709050592449,0.002214199208149448,-0.6568531980563634
10235,1.0,300.25036,29150.135,0.0,-0.10235016880847458,0.0,0.0,0.0,0.0,-1.8872843985354681,-4.357321556234155,-2.6163071050344078,-0.008290850954168283,0.00040800598518705565,-0.6344030107582024
10236,1.0,299.95322999999996,29444.771,0.0,-0.10236016479589394,0.0,0.0,0.0,0.0,-1.9395331465670183,-4.359057760280506,-2.6518842412205976,-0.02037416855252388,0.019609298476037082,-0.6450237463188874
10237,1.0,300.75633999999997,29495.081000000002,0.0,-0.10237016078331318,0.0,0.0,0.0,0.0,-1.9234189236016683,-4.365167253083466,-2.6771819551422875,-0.01828332697117388,0.005548224998917176,-0.6293571367177133
10238,1.0,300.44869,29233.331000000002,0.0,-0.10238015677073253,0.0,0.0,0.0,0.0,-1.8932405865982984,-4.361786848099846,-2.631175131701768,0.006272189966216954,-0.009626306378642471,-0.6600446014988304
10239,1.0,299.20572000000004,29114.764,0.0,-0.10239015275815166,0.0,0.0,0.0,0.0,-1.8858971578235582,-4.335632127243576,-2.6286318739507677,0.015037001320286486,0.002052745201440178,-0.6294469917365814
10240,1.0,299.29935,29127.851000000002,0.0,-0.10240014874557113,0.0,0.0,0.0,0.0,-1.9139914420212483,-4.3354453852501456,-2.6047024529641174,0.026189134882666373,-0.0014266558368249687,-0.6532378001095515
10241,1.0,299.75414,29225.028,0.0,-0.10241014473299048,0.0,0.0,0.0,0.0,-1.8977131738647084,-4.357194393346605,-2.6287711958395175,0.01065635940770079,-0.010080922111609552,-0.6405721535945493
10242,1.0,300.13731,29419.773999999998,0.0,-0.10242017371046708,0.0,0.0,0.0,0.0,-1.937082195900128,-4.355986396577386,-2.6498080917656974,-0.013631855465859386,0.02276420059690168,-0.6361593582165403
10243,1.0,300.35306,29356.964,0.0,-0.10243016969788665,0.0,0.0,0.0,0.0,-1.901925558505438,-4.362666045211617,-2.6591924088918577,-0.006313966470489974,0.007125949940851504,-0.6458349442164464
10244,1.0,299.80905,29160.832000000002,0.0,-0.1024401656853059,0.0,0.0,0.0,0.0,-1.897052838774538,-4.349261759638716,-2.617850183611697,-0.0006565246213139353,0.00983520328815899,-0.6368718148918544
10245,1.0,299.87604,29371.721,0.0,-0.10245016167272503,0.0,0.0,0.0,0.0,-1.9217669206386283,-4.361084057830486,-2.6454187936575075,-0.012835630365028088,-0.0028066203997668673,-0.6467173431985324
10246,1.0,300.39986,29514.856,0.0,-0.10246015766014449,0.0,0.0,0.0,0.0,-1.9539481491146682,-4.370141399149375,-2.6476895884566174,0.009374855092751162,-0.010144116899146391,-0.6171350505664874
10247,1.0,299.83434,29237.36,0.0,-0.10247015364756362,0.0,0.0,0.0,0.0,-1.8996179827276982,-4.365497775266086,-2.6223117264520175,0.00029334149709055174,-0.012343255664434487,-0.6538792988803623
10248,1.0,299.20473,29153.994,0.0,-0.10248014963498309,0.0,0.0,0.0,0.0,-1.8955481623760382,-4.359049958254736,-2.607488080139037,-0.004814586026287646,0.0041446771412227855,-0.6582104870953174
10249,1.0,298.99355,29262.651,0.0,-0.10249014562240244,0.0,0.0,0.0,0.0,-1.891150960917068,-4.3600261234010755,-2.6439381312863772,-0.005765543840614874,-0.002194849981589828,-0.6654990483771424
10250,1.0,299.58837,29343.947999999997,0.0,-0.10250017459987926,0.0,0.0,0.0,0.0,-1.8990386063205182,-4.379806082578205,-2.6409826833946974,-0.007514637340161963,0.007919440988937973,-0.6628112099693734
10251,1.0,300.43596,29326.825,0.0,-0.10251017058729861,0.0,0.0,0.0,0.0,-1.900098161950088,-4.377131710264266,-2.6373927382903974,-0.003741756820407647,-0.0002606333886950128,-0.6708869145913834
10252,1.0,300.10267999999996,29337.659,0.0,-0.10252016657471785,0.0,0.0,0.0,0.0,-1.9070492602861082,-4.371491554907625,-2.639374959461027,0.0015214660539820087,-0.012270090901213688,-0.6389707320765013
10253,1.0,299.91188999999997,29176.228,0.0,-0.10253016256213698,0.0,0.0,0.0,0.0,-1.8857992778638981,-4.352056607389546,-2.6309889976583976,-0.00876729584331473,-0.013630247437950688,-0.6324716446100914
10254,1.0,300.194,29338.778,0.0,-0.10254015854955634,0.0,0.0,0.0,0.0,-1.913346204357568,-4.376201445347456,-2.6287082730083076,-1.4223824545282186e-05,-0.008815860312657672,-0.6342019718058614
10255,1.0,300.33789,29576.964,0.0,-0.10255015453697558,0.0,0.0,0.0,0.0,-1.953302708800968,-4.371598756768205,-2.6657570536397373,0.003043561133626097,0.014741275159350586,-0.6241957319008224
10256,1.0,300.60958,29477.658,0.0,-0.10256015052439516,0.0,0.0,0.0,0.0,-1.9530235583984181,-4.378122972837096,-2.6293256462942374,0.00985849415893262,0.020645038675256678,-0.6477303399860074
10257,1.0,299.9723,29146.861,0.0,-0.1025701465118144,0.0,0.0,0.0,0.0,-1.898042581472218,-4.348736997411926,-2.6131384693216875,-0.006486892596156453,0.011621213643174488,-0.6503156273511553
10258,1.0,299.97139,29327.032000000003,0.0,-0.1025801754892911,0.0,0.0,0.0,0.0,-1.928504020553528,-4.352561915214416,-2.6336193949179973,0.005212121632096355,-0.012199242427721487,-0.6396751536785223
10259,1.0,300.06845,29595.033,0.0,-0.10259017147671057,0.0,0.0,0.0,0.0,-1.9333111830029583,-4.390348645893675,-2.672491316454358,-0.009432023980618291,-0.012485996259021888,-0.6602844783275044
10260,1.0,299.99327,29394.322,0.0,-0.1026001674641297,0.0,0.0,0.0,0.0,-1.9161161261559378,-4.370458951730716,-2.648565036543018,-0.0038117837507187662,-0.006010945618109145,-0.6512781541511493
10261,1.0,299.32899,29314.328999999998,0.0,-0.10261016345154894,0.0,0.0,0.0,0.0,-1.8874458092763982,-4.375473526475616,-2.6479044988028275,-0.002258879991184098,-0.001184940161869489,-0.6545737703664014
10262,1.0,299.41303,29316.549,0.0,-0.1026201594389683,0.0,0.0,0.0,0.0,-1.924247964833488,-4.349000543762936,-2.6382504545000476,0.015186335133274586,0.02301008903841898,-0.6314376836780474
10263,1.0,299.47887000000003,29336.929,0.0,-0.10263015542638776,0.0,0.0,0.0,0.0,-1.891902488516238,-4.373740159529546,-2.652051123512068,0.012935847892668788,0.02570687647107118,-0.6285284805209315
10264,1.0,300.8859,29437.945,0.0,-0.10264015141380711,0.0,0.0,0.0,0.0,-1.920638058702218,-4.381844843104416,-2.6459173127067075,0.016256853115676484,-0.012469604912154188,-0.6398211123554274
10265,1.0,300.75759,29487.915,0.0,-0.10265014740122624,0.0,0.0,0.0,0.0,-1.9061765479749782,-4.380721655368566,-2.6766915420938875,-0.007453506543078823,-0.001788012435888088,-0.6212511764477174
10266,1.0,299.88973,29232.715,0.0,-0.10266014338864549,0.0,0.0,0.0,0.0,-1.9072688315827784,-4.3728972367713554,-2.6058491481022874,-0.004199279567911626,-0.00943396364528472,-0.6711806456628724
10267,1.0,299.7699,29322.939,0.0,-0.10267017236612253,0.0,0.0,0.0,0.0,-1.905306368789098,-4.386948583858116,-2.6211864108909575,-0.003063219502791227,-0.007683776139604664,-0.6651314615058644
10268,1.0,300.01121,29608.432,0.0,-0.10268016835354166,0.0,0.0,0.0,0.0,-1.9735516001243782,-4.390208412079836,-2.6364639932487375,-0.006926312313398804,0.006305660758095264,-0.6766666147517953
10269,1.0,299.86877999999996,29357.805,0.0,-0.1026901643409609,0.0,0.0,0.0,0.0,-1.903628933248548,-4.377045584005766,-2.6433651383548273,-0.003202946995556257,0.01001158479931649,-0.6568195176230394
10270,1.0,301.00421,29105.402000000002,0.0,-0.10270016032838025,0.0,0.0,0.0,0.0,-1.8901799633462382,-4.338504995252105,-2.618630588838718,0.005216100766564065,-0.002927117925509047,-0.6584747427213974
10271,1.0,300.02261,29282.528,0.0,-0.1027101563157996,0.0,0.0,0.0,0.0,-1.8889539307252379,-4.346340559600416,-2.6658627356251676,-0.001125791484631969,-0.011835578860830689,-0.6203113160524605
10272,1.0,299.91107,29637.1,0.0,-0.10272015230321907,0.0,0.0,0.0,0.0,-1.9518210331797379,-4.384200649586916,-2.672916577521327,0.019844961197545183,-0.024827710770054277,-0.6406513998848704
10273,1.0,299.9258,29671.782000000003,0.0,-0.1027301482906382,0.0,0.0,0.0,0.0,-1.936418719734648,-4.397188590693726,-2.685873614500087,0.01046756254306799,0.01266670637460659,-0.6265182835150405
10274,1.0,299.75334,29618.306,0.0,-0.10274014427805744,0.0,0.0,0.0,0.0,-1.9585878213225678,-4.385466908236887,-2.6591707253397177,-0.005655801863359184,0.01968965022221718,-0.6194253605625234
10275,1.0,299.02492,29583.772999999997,0.0,-0.10275017325553437,0.0,0.0,0.0,0.0,-1.9256051120174285,-4.399106369157996,-2.6680170066627773,-0.012790673471341187,0.019771965647091085,-0.6489069665321314
10276,1.0,299.84192,29418.202999999998,0.0,-0.10276016924295361,0.0,0.0,0.0,0.0,-1.9216851513555582,-4.381517259347086,-2.6391967287684373,-0.009986599774375661,0.00890538865969343,-0.6326346258886764
10277,1.0,299.92273,29508.866,0.0,-0.10277016523037286,0.0,0.0,0.0,0.0,-1.9104230791440782,-4.402361739079276,-2.657173609392618,-0.005639624514912604,0.015768964073275587,-0.6757498969888224
10278,1.0,300.26791000000003,29422.822999999997,0.0,-0.10278016121779221,0.0,0.0,0.0,0.0,-1.935654121209188,-4.365569716023186,-2.6425795655522974,-0.0018130753797616082,-0.011686693917636888,-0.6497864777514324
10279,1.0,300.24382,29085.354,0.0,-0.10279015720521156,0.0,0.0,0.0,0.0,-1.8846974697051582,-4.3562250169759364,-2.6002987667045074,6.713260470522224e-05,-0.006410148222982374,-0.6791870642430444
10280,1.0,299.89692,29176.034,0.0,-0.10280015319263092,0.0,0.0,0.0,0.0,-1.908812518110128,-4.3603441826074665,-2.5996290083884075,0.0028809403694266774,-0.003261738502133527,-0.6533191640925814
10281,1.0,299.9751,29574.366,0.0,-0.10281014918005016,0.0,0.0,0.0,0.0,-1.9275330229826981,-4.384703728261566,-2.6776321421617175,0.011545741709475988,0.008707463728884762,-0.6629352925766193
10282,1.0,299.85044,29605.507,0.0,-0.1028201451674694,0.0,0.0,0.0,0.0,-1.9270072475058084,-4.394620913615316,-2.677706616044068,-0.0001995577732123188,-0.009082478837970871,-0.6364063176634134
10283,1.0,299.65885,29401.12,0.0,-0.10283017414494633,0.0,0.0,0.0,0.0,-1.8837478517114383,-4.3867244529359954,-2.6667341307111676,-0.016210063252558683,-0.02159777342628428,-0.6573912541244654
10284,1.0,299.49421,29468.93,0.0,-0.10284017013236557,0.0,0.0,0.0,0.0,-1.9238088222401482,-4.3837149988139865,-2.6502950597637573,0.011048644250166289,-0.024096091508849077,-0.6362268812032044
10285,1.0,299.28448,29455.589,0.0,-0.1028501661197847,0.0,0.0,0.0,0.0,-1.917661940508498,-4.3963015915561865,-2.6397999165529678,0.017948769013405586,0.005934470668136654,-0.6620661063758374
10286,1.0,300.17424,29547.382999999998,0.0,-0.10286016210720428,0.0,0.0,0.0,0.0,-1.938068594872478,-4.399504171147255,-2.644094070476768,0.02167918604531908,0.013616386176582685,-0.6403641029515165
10287,1.0,300.18941,29518.42,0.0,-0.10287015809462352,0.0,0.0,0.0,0.0,-1.9352722272464984,-4.3865510858438865,-2.6510392919622077,0.002110621135227088,0.018192747478484383,-0.6548583011269824
10288,1.0,300.04834,29361.203999999998,0.0,-0.10288015408204287,0.0,0.0,0.0,0.0,-1.9133314109061084,-4.374568896786337,-2.637172660368677,-0.007078221402841063,0.017655655011227483,-0.6308914506816383
10289,1.0,300.23177999999996,29314.717999999997,0.0,-0.10289015006946212,0.0,0.0,0.0,0.0,-1.8931530417896583,-4.373142949920605,-2.6446462917812674,-0.00875012591507019,0.019811860343278382,-0.6623066722145794
10290,1.0,300.10087000000004,29687.421000000002,0.0,-0.10290014605688125,0.0,0.0,0.0,0.0,-1.955083799826748,-4.396842464459566,-2.6723084248113076,-0.007761982936648071,-0.01085656546845959,-0.6380139402720734
10291,1.0,300.40565,29830.53,0.0,-0.10291017503435829,0.0,0.0,0.0,0.0,-1.9702461756481584,-4.402544934697356,-2.6949452426453875,-0.01029612873214879,-0.007150011185676163,-0.6490820764144134
10292,1.0,299.76229,29432.145,0.0,-0.10292017102177742,0.0,0.0,0.0,0.0,-1.936551658147768,-4.377505396901146,-2.6325801042904273,-0.0003996944770017736,-0.01223435154368649,-0.6386567258705114
10293,1.0,298.89288,29401.03,0.0,-0.10293016700919688,0.0,0.0,0.0,0.0,-1.904438925378488,-4.394872706265166,-2.6378673446372374,0.0012952009231763787,0.0022712665683565576,-0.6502326523004663
10294,1.0,299.64331,29643.392000000003,0.0,-0.10294016299661624,0.0,0.0,0.0,0.0,-1.951736528121398,-4.3972035867952055,-2.6619108575851476,0.0036220136593649163,-0.016314948823410086,-0.6401849907313394
10295,1.0,299.55995,29529.761000000002,0.0,-0.10295015898403548,0.0,0.0,0.0,0.0,-1.8897752712562983,-4.4216889781117255,-2.6648457364997973,0.003281825273440937,-0.01844855057223018,-0.6561253095820263
10296,1.0,300.05897000000004,29387.834,0.0,-0.10296015497145483,0.0,0.0,0.0,0.0,-1.914636274384888,-4.3885013896363665,-2.6300300577637574,0.0029675253262469474,-0.022571479414631578,-0.6596035945253064
10297,1.0,300.74356,29368.092999999997,0.0,-0.10297015095887407,0.0,0.0,0.0,0.0,-1.878876246555648,-4.397824101156446,-2.650466501680677,0.003414444208804407,0.009100526646102051,-0.6622253487615534
10298,1.0,300.14044,29286.327,0.0,-0.1029801469462932,0.0,0.0,0.0,0.0,-1.9048954958735482,-4.391500204632326,-2.605916427908927,0.007769746256264253,0.022279780922843183,-0.6525527417169413
10299,1.0,300.60919,29650.125,0.0,-0.10299017592377024,0.0,0.0,0.0,0.0,-1.923934870552588,-4.408900140649566,-2.680062523851577,-0.01011060912363943,0.010271860379003689,-0.6440902997967635
10300,1.0,300.14531,29918.821,0.0,-0.10300017191118938,0.0,0.0,0.0,0.0,-1.986988512350498,-4.416540553028616,-2.6910455469855177,-0.016044276284446785,0.013930973988130087,-0.6421580318560633
10301,1.0,299.93305,29530.384,0.0,-0.10301016789860884,0.0,0.0,0.0,0.0,-1.899101123851688,-4.392727858453486,-2.6846701773563177,-0.00917511735618858,0.012150062307617789,-0.6453192708430534
10302,1.0,300.31489,29286.351000000002,0.0,-0.1030201638860282,0.0,0.0,0.0,0.0,-1.8922070714962984,-4.384453962111916,-2.625658491532318,0.004547342832287795,-0.004417189033092616,-0.6497947864022524
10303,1.0,299.79823999999996,29677.75,0.0,-0.10303015987344732,0.0,0.0,0.0,0.0,-1.9257328828550382,-4.409396227898525,-2.686165835828927,0.016472395729948883,-0.01902431980905418,-0.6534349481815084
10304,1.0,299.21175,29893.679,0.0,-0.10304015586086679,0.0,0.0,0.0,0.0,-1.9912036327664981,-4.407482401109646,-2.688245835634208,0.014679025126206986,-0.008048484367348561,-0.6442785717978443
10305,1.0,300.53404,29531.58,0.0,-0.10305015184828592,0.0,0.0,0.0,0.0,-1.9257333894800879,-4.392647305070536,-2.6584823232217776,0.009172718790551862,-0.004719715318099636,-0.6508931900406564
10306,1.0,299.92601,29283.78,0.0,-0.10306014783570538,0.0,0.0,0.0,0.0,-1.9014485203583582,-4.376648187316546,-2.6234412976634975,-0.006141116338580994,0.002294768600451028,-0.6407991317494504
10307,1.0,300.27012,29631.019,0.0,-0.10307014382312474,0.0,0.0,0.0,0.0,-1.9189100619816783,-4.398484638896636,-2.6896952899022577,0.005783053916917984,0.00947304034466629,-0.6305797850833794
10308,1.0,299.9998,29856.191000000003,0.0,-0.10308017280060133,0.0,0.0,0.0,0.0,-1.9704281553661183,-4.425041012092546,-2.6800673874520577,0.012777314782022788,0.026830637706477773,-0.6426225563644083
10309,1.0,299.49205,29822.762000000002,0.0,-0.10309016878802069,0.0,0.0,0.0,0.0,-1.939352484074188,-4.430220746603746,-2.6958016416299078,0.006240310382295684,0.030825121899952672,-0.6410940989860614
10310,1.0,300.00302,29588.589,0.0,-0.10310016477544015,0.0,0.0,0.0,0.0,-1.9486916102458882,-4.388898887650596,-2.6566018323611873,-0.0032543709580064063,0.009263069592693792,-0.6339036101814154
10311,1.0,300.75935,29335.015,0.0,-0.10311016076285928,0.0,0.0,0.0,0.0,-1.8869459730020681,-4.3917436886313554,-2.6384223017170076,0.004713845154970296,-0.01140382691372009,-0.6467009082819104
10312,1.0,300.7885,29563.702,0.0,-0.10312015675027875,0.0,0.0,0.0,0.0,-1.9217542550123783,-4.401658847484906,-2.663214201188777,-0.0004989148449540615,-0.0005863936707475495,-0.6642341880123104
10313,1.0,300.67691,29903.918999999998,0.0,-0.10313015273769788,0.0,0.0,0.0,0.0,-1.9494560061213284,-4.429250964933036,-2.7113377040881974,0.006262439257854634,-0.013784715389195486,-0.6803850906312804
10314,1.0,300.01011,29506.369,0.0,-0.10314014872511723,0.0,0.0,0.0,0.0,-1.9172938267471682,-4.404811372521037,-2.6470941013728475,-0.0058287374122515945,-0.011462358318996689,-0.6697701711261693
10315,1.0,299.88096,29205.362999999998,0.0,-0.1031501447125367,0.0,0.0,0.0,0.0,-1.8708852496419983,-4.385725287012386,-2.6210904561064874,-4.196196450507346e-05,-0.023077844059355875,-0.6942685725739733
10316,1.0,299.68835,29648.152000000002,0.0,-0.10316017369001351,0.0,0.0,0.0,0.0,-1.9482601683533083,-4.413783499506516,-2.6502541244597175,0.019747932367969182,0.0012654046827857187,-0.6459798187157444
10317,1.0,299.71576,29950.279,0.0,-0.10317016967743264,0.0,0.0,0.0,0.0,-1.9915073038214681,-4.420032820823276,-2.6925969342136273,0.012376694944234688,0.005343668447529016,-0.6406511060423413
10318,1.0,300.2445,29845.444,0.0,-0.103180165664852,0.0,0.0,0.0,0.0,-1.9635425129865585,-4.433139616166816,-2.6755877074349472,-0.006628402598497404,-0.0010531743830902189,-0.6165699407207155
10319,1.0,299.67787000000004,29543.9,0.0,-0.10319016165227124,0.0,0.0,0.0,0.0,-1.916050062249418,-4.415814458006955,-2.6487434698856274,-0.008573020842016282,-0.016621125645877383,-0.6381681772022954
10320,1.0,299.69665,29610.21,0.0,-0.10320015763969059,0.0,0.0,0.0,0.0,-1.925198697402318,-4.404042315695136,-2.6715235612838475,-0.0005165197614665315,0.033147395883643266,-0.6250334060234944
10321,1.0,299.95655,29678.516,0.0,-0.10321015362710984,0.0,0.0,0.0,0.0,-1.9256857667253882,-4.424594472773475,-2.6712474506315975,0.013155822462878589,0.010287611351808189,-0.6750265073449294
10322,1.0,299.97102,29663.543999999998,0.0,-0.10322014961452919,0.0,0.0,0.0,0.0,-1.9480477911323482,-4.4049939601890555,-2.6639348246598975,-0.01011645598201647,0.005271157534597745,-0.6448537634821113
10323,1.0,300.88903999999997,29500.482999999997,0.0,-0.10323014560194865,0.0,0.0,0.0,0.0,-1.9292905052811484,-4.385879908977646,-2.6522398920056975,-0.011670285345517489,-0.014147168122216787,-0.6663248370761413
10324,1.0,300.59552,29284.121,0.0,-0.10324017457942536,0.0,0.0,0.0,0.0,-1.886098895918468,-4.3850120602669955,-2.630530603313158,-0.003587142353198387,0.0012811663960412788,-0.6743608830892374
10325,1.0,299.92271,29535.406000000003,0.0,-0.1032501705668446,0.0,0.0,0.0,0.0,-1.9081501565197585,-4.405566243845536,-2.6643093218968574,0.006731021731525124,-0.0016900380413187683,-0.6844314035806204
10326,1.0,299.87717000000004,30175.069,0.0,-0.10326016655426395,0.0,0.0,0.0,0.0,-1.9939031336829183,-4.460445794436725,-2.718118576407418,-0.006884354640007904,-0.004106507098030696,-0.6643403664902894
10327,1.0,300.32227,29953.701,0.0,-0.1032701625416832,0.0,0.0,0.0,0.0,-1.966040377133078,-4.438626162808296,-2.7005107214696573,-0.006401794482532925,-0.006432677231005813,-0.6529635133074814
10328,1.0,300.02244,29357.523999999998,0.0,-0.10328015852910255,0.0,0.0,0.0,0.0,-1.899005473042248,-4.408818371366496,-2.6161302928919574,-0.014141176774375486,0.00934860076941006,-0.6472649440825764
10329,1.0,300.18515,29586.5,0.0,-0.1032901545165219,0.0,0.0,0.0,0.0,-1.9151486749604585,-4.4281040671448455,-2.6503045843146977,0.014545814148810088,-0.008953737712065112,-0.6313696844638365
10330,1.0,299.33887000000004,29900.016,0.0,-0.10330015050394115,0.0,0.0,0.0,0.0,-1.953203410291168,-4.431207753526155,-2.7044471981081575,-0.001155397335328839,0.005081601036364975,-0.6399617008068024
10331,1.0,299.97462,29763.336,0.0,-0.1033101464913605,0.0,0.0,0.0,0.0,-1.929191713396398,-4.448274026285466,-2.6698453151432173,0.00921944471758835,0.003003895229311377,-0.6558901241013153
10332,1.0,300.04922,29502.82,0.0,-0.10332017546883732,0.0,0.0,0.0,0.0,-1.8983970163571984,-4.414766250778506,-2.6549573274488876,0.0046909825850139355,0.024807890584848176,-0.6638494569493404
10333,1.0,299.88982999999996,29467.076,0.0,-0.10333017145625656,0.0,0.0,0.0,0.0,-1.9091086911143584,-4.394327780361386,-2.6538186369865078,0.004425337793046835,0.01040933815257169,-0.6477680126247254
10334,1.0,300.26923999999997,29657.91,0.0,-0.10334016744367591,0.0,0.0,0.0,0.0,-1.9310978394845182,-4.414696741821646,-2.6694692980311077,-0.0036412965180429866,-0.017799084615882883,-0.6640399783656434
10335,1.0,300.49723,29994.159,0.0,-0.10335016343109515,0.0,0.0,0.0,0.0,-1.9794900563104583,-4.4134743569010055,-2.7245109686382976,-0.009963633751584091,-0.016544354725550683,-0.6339439172703933
10336,1.0,300.33224,29928.736,0.0,-0.10336015941851451,0.0,0.0,0.0,0.0,-1.974645606257348,-4.419250389096056,-2.7036923267836577,-0.013355020339787886,0.0075978733027517115,-0.6578756383347704
10337,1.0,300.05375,29486.276,0.0,-0.10337015540593386,0.0,0.0,0.0,0.0,-1.9264477308005878,-4.3992321134954055,-2.6374116860672676,-0.005939379864871155,-0.008839021386093493,-0.6420035314808155
10338,1.0,300.44263,29558.748,0.0,-0.1033801513933531,0.0,0.0,0.0,0.0,-1.930470840322638,-4.408966305881096,-2.6456841638586974,-0.008516390395252291,-0.0017385872105851986,-0.6579833974829054
10339,1.0,299.95627,30123.746,0.0,-0.10339014738077246,0.0,0.0,0.0,0.0,-2.0001675524261677,-4.4534049221418455,-2.7032940181693474,0.012656652907114386,0.0017202464718501084,-0.6334524403093884
10340,1.0,300.13386,29992.966,0.0,-0.10340017635824927,0.0,0.0,0.0,0.0,-1.9665235961057683,-4.441052896797796,-2.7095362467354076,0.018133767203413483,0.016229172136194587,-0.6493305760014384
10341,1.0,299.85892,29499.821,0.0,-0.1034101723456684,0.0,0.0,0.0,0.0,-1.8725313757544582,-4.4368097093540255,-2.6578677870361274,0.005678903762989165,-0.0065867498120615936,-0.6392055831846795
10342,1.0,300.10796,29589.346,0.0,-0.10342016833308787,0.0,0.0,0.0,0.0,-1.902023843765138,-4.423802009870266,-2.6685963830699575,0.004557640087754056,-0.013088727067756788,-0.6561579463677474
10343,1.0,299.03601000000003,29857.742000000002,0.0,-0.103430164320507,0.0,0.0,0.0,0.0,-1.9482469961020081,-4.430211323377816,-2.6975498020274373,0.0031056695144057165,-0.008509438486316192,-0.6400261333806614
10344,1.0,299.22519,29787.769,0.0,-0.10344016030792647,0.0,0.0,0.0,0.0,-1.9364475973624982,-4.4414221251342365,-2.6768681515863175,0.007085577801217083,0.012908064574926787,-0.6681787098566043
10345,1.0,299.23663,29670.36,0.0,-0.10345015629534582,0.0,0.0,0.0,0.0,-1.9507688742758982,-4.404072510548116,-2.6642070849617676,-0.0014916999071193187,-0.008931356233256232,-0.6382266417330654
10346,1.0,300.24492999999995,29545.175,0.0,-0.10346015228276506,0.0,0.0,0.0,0.0,-1.9026572264026482,-4.400662012036526,-2.677676319866077,-0.018965497600998884,-0.010658815525943189,-0.6440348243537883
10347,1.0,300.49228999999997,29604.93,0.0,-0.10347014827018441,0.0,0.0,0.0,0.0,-1.9095065944286282,-4.425846343272026,-2.6638065471972374,0.005755166741040734,0.002400143571100728,-0.6520750145597934
10348,1.0,300.05811,30047.652000000002,0.0,-0.10348014425760355,0.0,0.0,0.0,0.0,-1.973714733390478,-4.447196840104156,-2.7128242433099077,0.008645533477472721,0.02053477375962438,-0.6648080016764414
10349,1.0,299.88165,30117.958,0.0,-0.10349017323508036,0.0,0.0,0.0,0.0,-2.007395065389468,-4.452762521578446,-2.6949495996208177,0.005151133804602325,0.005381540696516715,-0.6715455170238823
10350,1.0,300.4315,29651.29,0.0,-0.10350016922249983,0.0,0.0,0.0,0.0,-1.9307505986752482,-4.438845430129937,-2.6436558398085177,-0.00936341357394697,-0.010885160399531689,-0.6862391734815334
10351,1.0,300.22385,29573.494,0.0,-0.10351016520991896,0.0,0.0,0.0,0.0,-1.9373532403018783,-4.4086382154987165,-2.6436122700542177,0.003802977594099666,0.01011836565447994,-0.6581521846845634
10352,1.0,299.66425,30015.729,0.0,-0.10352016119733853,0.0,0.0,0.0,0.0,-1.9432365756825183,-4.460440930836246,-2.7203546167280974,0.0017677676988900881,0.006894048910339653,-0.6528414470679343
10353,1.0,299.30043,29786.773999999998,0.0,-0.10353015718475778,0.0,0.0,0.0,0.0,-1.931529382702108,-4.420940591587867,-2.7019655459632377,-0.0019058896968716682,0.002884478537450867,-0.6441181337770104
10354,1.0,299.76335,29546.456000000002,0.0,-0.10354015317217691,0.0,0.0,0.0,0.0,-1.9004965718894085,-4.425526257565436,-2.6553619182138175,-0.01053843128156219,0.0016109382669622285,-0.6467551880897674
10355,1.0,300.18847,29748.429,0.0,-0.10355014915959637,0.0,0.0,0.0,0.0,-1.9475198878302482,-4.423583350498687,-2.6716763593989272,0.00960763896807514,0.018131861279975382,-0.6580694832114014
10356,1.0,299.6444,29850.736,0.0,-0.1035601451470155,0.0,0.0,0.0,0.0,-1.9448234266641282,-4.437600551057075,-2.6914542920758575,0.02344799546663698,0.016469270866640486,-0.6573233765002664
10357,1.0,300.29847,29912.779,0.0,-0.10357017412449232,0.0,0.0,0.0,0.0,-1.951009521174648,-4.460334032950696,-2.681394238458007,0.0020111003183551483,-0.010717736019258189,-0.6667032454584874
10358,1.0,300.45096,29989.014,0.0,-0.10358017011191167,0.0,0.0,0.0,0.0,-1.939823138745638,-4.4430740267722655,-2.7330142648025073,-0.01184531011479109,-0.02276550262328018,-0.6653941972567944
10359,1.0,300.22864,29727.897,0.0,-0.10359016609933114,0.0,0.0,0.0,0.0,-1.9348424065540781,-4.434227948099226,-2.6674679264335874,-0.015693711001598686,-0.005609484884063055,-0.6656780086098043
10360,1.0,300.07999,29474.418999999998,0.0,-0.10360016208675049,0.0,0.0,0.0,0.0,-1.906278987560088,-4.427368954197296,-2.6258395593251875,0.005244710491087625,0.01025292881413529,-0.6754521230494344
10361,1.0,299.84061,29877.102000000003,0.0,-0.10361015807416973,0.0,0.0,0.0,0.0,-1.974829916450538,-4.428789226862466,-2.6782737321250374,-0.0059891507097831545,-0.0014831252781480687,-0.6628448397401924
10362,1.0,299.8275,30024.095,0.0,-0.10362015406158886,0.0,0.0,0.0,0.0,-1.971159924588338,-4.460843393775966,-2.6945719613085473,0.002119919123444728,-0.0031087885008635368,-0.6608045796038343
10363,1.0,299.95281,29697.034,0.0,-0.10363015004900822,0.0,0.0,0.0,0.0,-1.9253701393192382,-4.429583006990805,-2.6722036547509678,0.005401228449934744,0.005335040420277494,-0.6368950791141504
10364,1.0,300.02612,29766.744,0.0,-0.10364014603642746,0.0,0.0,0.0,0.0,-1.8940465257278383,-4.443127931677586,-2.7111723416718774,0.011231825682744888,0.0076795685172394035,-0.6388813532851804
10365,1.0,299.85913,30007.907000000003,0.0,-0.10365017501390428,0.0,0.0,0.0,0.0,-1.9668001120580583,-4.439340706778816,-2.7155136117253273,0.014145876228339288,-0.01079537630817069,-0.6257309172598334
10366,1.0,300.10077,29964.622000000003,0.0,-0.10366017100132363,0.0,0.0,0.0,0.0,-1.9547676657955482,-4.450161913871786,-2.7035671903963077,-0.009031042919169542,-0.017748527488893284,-0.6519098649259945
10367,1.0,299.60272000000003,29884.048,0.0,-0.10367016698874298,0.0,0.0,0.0,0.0,-1.962972965105348,-4.441744946616096,-2.6792864755999872,0.006800019807684703,0.012849656786162388,-0.6501384504386694
10368,1.0,300.0798,29858.716,0.0,-0.10368016297616245,0.0,0.0,0.0,0.0,-1.9640306968847379,-4.433165555369375,-2.6791077382823474,0.0031285691693157367,0.00957988381868592,-0.6664419789202024
10369,1.0,300.50723,29736.277000000002,0.0,-0.10369015896358158,0.0,0.0,0.0,0.0,-1.940988173710618,-4.422911667007396,-2.675185852445287,-0.009691925974993621,0.002240789322573688,-0.6474440461702524
10370,1.0,300.7301,29898.039,0.0,-0.10370015495100082,0.0,0.0,0.0,0.0,-1.9326810427657684,-4.453564813007626,-2.702011547517777,-0.009926796132273501,-0.014950745365773685,-0.6676005594820453
10371,1.0,299.60617,30102.111,0.0,-0.10371015093842018,0.0,0.0,0.0,0.0,-1.9863312170106282,-4.4427647828417465,-2.7211941957609573,-0.009224385831701001,0.017635294763718085,-0.6320716945306194
10372,1.0,299.64203,29871.618,0.0,-0.10372014692583964,0.0,0.0,0.0,0.0,-1.955453129488198,-4.444924930729936,-2.6798481201304174,-0.0014380770906271586,0.012749401768267988,-0.6682985773434343
10373,1.0,299.60706,29749.083,0.0,-0.10373017590331624,0.0,0.0,0.0,0.0,-1.9255199990090284,-4.462148865204806,-2.6553096345086575,-0.02698895904785287,-0.009625220275860281,-0.6510835088069394
10374,1.0,300.08883,29945.037999999997,0.0,-0.10374017189073559,0.0,0.0,0.0,0.0,-1.9582604402152584,-4.448597151742355,-2.695686131118508,0.004689775702819826,-0.020467875948272082,-0.6613787276404983
10375,1.0,300.22139,30017.201,0.0,-0.10375016787815494,0.0,0.0,0.0,0.0,-1.9303094295817085,-4.488158184671725,-2.7060118589125772,0.00033180878733197767,-0.002755005237022847,-0.6388595481430284
10376,1.0,300.34466000000003,29667.202999999998,0.0,-0.1037601638655743,0.0,0.0,0.0,0.0,-1.8981422852820584,-4.443399482704386,-2.676546951304618,0.02714184024944108,-0.000852889440811134,-0.6630808155559814
10377,1.0,300.54237,29723.353,0.0,-0.10377015985299354,0.0,0.0,0.0,0.0,-1.9158410287537884,-4.449961695652026,-2.6693542941447577,0.0034177036317260875,-0.002188548984517968,-0.6622587860148533
10378,1.0,300.72627,29921.452,0.0,-0.10378015584041278,0.0,0.0,0.0,0.0,-1.9563328332250183,-4.459111445380036,-2.6799300920635076,0.012730363812139088,0.0016850281275243282,-0.6715757422743653
10379,1.0,300.18799,30103.207000000002,0.0,-0.10379015182783213,0.0,0.0,0.0,0.0,-1.9859441554724284,-4.459201624638935,-2.7054774708098375,-0.0008130606970728431,0.02122053129480338,-0.6662998908586794
10380,1.0,299.53565,30125.022999999997,0.0,-0.10380014781525149,0.0,0.0,0.0,0.0,-1.9797595808370583,-4.4742726053013255,-2.7032224827122873,-0.008499038183314763,0.006446905694210054,-0.6733875246456744
10381,1.0,299.65472,29971.422000000002,0.0,-0.1038101767927283,0.0,0.0,0.0,0.0,-1.9509650394952582,-4.447390168223236,-2.7122086938741576,-0.02709953908426627,-0.0010327439173488892,-0.6533972958077924
10382,1.0,299.3359,29766.782000000003,0.0,-0.10382017278014766,0.0,0.0,0.0,0.0,-1.9293226253093183,-4.435481541122946,-2.6835541836961774,-0.020228758043922983,-0.025082657667465577,-0.6415293506990174
10383,1.0,300.45202,29889.202999999998,0.0,-0.1038301687675669,0.0,0.0,0.0,0.0,-1.958532700517128,-4.4463206827426855,-2.6807179953412676,0.011820391255081789,0.010048916682025861,-0.6451779731166084
10384,1.0,300.30687,30098.875,0.0,-0.10384016475498625,0.0,0.0,0.0,0.0,-1.9925132585207481,-4.457212614692636,-2.6995805578778573,0.014257488766604588,0.006238819891398584,-0.6427270933772254
10385,1.0,300.03341,29863.835,0.0,-0.1038501607424055,0.0,0.0,0.0,0.0,-1.9580467457691684,-4.457701913165926,-2.6621114811049473,0.007642364000067603,0.010327746188269189,-0.6646759549234094
10386,1.0,300.13261,29815.207000000002,0.0,-0.10386015672982463,0.0,0.0,0.0,0.0,-1.9337312764944181,-4.466108950570637,-2.663238113891137,0.0013029351625146888,-0.01092754059821429,-0.6578192712317074
10387,1.0,300.30696,30093.797000000002,0.0,-0.10387015271724409,0.0,0.0,0.0,0.0,-1.9547720227709784,-4.466124959922216,-2.7268659645207176,0.01040283612667999,0.008997825237166211,-0.6509062305694434
10388,1.0,300.09418,30177.414,0.0,-0.10388014870466344,0.0,0.0,0.0,0.0,-1.9549567382642083,-4.484812027541486,-2.7334115601667177,0.003983565410397296,-0.006741744754683404,-0.6582378853780214
10389,1.0,300.28583,29944.615,0.0,-0.1038901446920828,0.0,0.0,0.0,0.0,-1.9406645416286783,-4.4682554195824755,-2.6934952817522873,-0.017843872296803082,-0.01053560634028339,-0.6728820040382834
10390,1.0,300.2075,29816.607000000004,0.0,-0.10390017366955961,0.0,0.0,0.0,0.0,-1.9343777300582181,-4.4468206203420255,-2.6823054542729374,-0.022688786418458878,-0.01870186309723018,-0.6519072608732374
10391,1.0,300.03756,29878.852000000003,0.0,-0.10391016965697886,0.0,0.0,0.0,0.0,-1.9710529253777784,-4.439879958482036,-2.6714921505307476,-0.011516727292862489,0.01210863861702959,-0.6574020148405274
10392,1.0,300.00561,29920.726000000002,0.0,-0.10392016564439821,0.0,0.0,0.0,0.0,-1.9425186879866683,-4.440647596757795,-2.7119871974022973,-0.0008536485981835573,0.006390806798448524,-0.6517124331440094
10393,1.0,299.89312,30014.998,0.0,-0.10393016163181745,0.0,0.0,0.0,0.0,-1.9503669179612282,-4.4778009447995455,-2.6956420547391575,0.002301454835210908,0.009457079223791052,-0.6791973588640604
10394,1.0,299.77025,29970.092,0.0,-0.1039401576192368,0.0,0.0,0.0,0.0,-1.950445850144018,-4.458828343302096,-2.7008854213566376,-0.006294131998457464,-0.0007947337993341192,-0.6552461833977633
10395,1.0,300.31766,29925.256,0.0,-0.10395015360665616,0.0,0.0,0.0,0.0,-1.963118771794738,-4.462835544797576,-2.6705763750903673,-0.008117812155090682,0.015838877316925487,-0.6829063507226093
10396,1.0,299.46508,30006.109,0.0,-0.1039601495940754,0.0,0.0,0.0,0.0,-1.951050557803698,-4.495173725714105,-2.674883701265468,-0.006464346464206323,-0.003075763133729187,-0.6718146362504424
10397,1.0,299.79132999999996,30174.326,0.0,-0.10397014558149476,0.0,0.0,0.0,0.0,-1.9927013177393083,-4.470089300938466,-2.7094511337270073,-0.007413495221805014,0.0028655550785832676,-0.6550880657196584
10398,1.0,300.47107,30048.125,0.0,-0.10398017455897157,0.0,0.0,0.0,0.0,-1.9396035674489682,-4.475695208441725,-2.7185808211030373,0.0027666768649247473,-0.01091338650756739,-0.6388934717563765
10399,1.0,300.51047,29801.285,0.0,-0.10399017054639081,0.0,0.0,0.0,0.0,-1.9212019323828682,-4.439049600025086,-2.6985950708305975,0.009279557704946042,-0.0020043874351176384,-0.6437916747272914
10400,1.0,300.1465,30033.25,0.0,-0.10400016653381017,0.0,0.0,0.0,0.0,-1.9676970410465782,-4.442055913071786,-2.719605115629127,0.022790891631035877,0.007893737873651272,-0.6300615380547324
10401,1.0,300.20865,30204.177000000003,0.0,-0.1040101625212293,0.0,0.0,0.0,0.0,-1.985197795448768,-4.474330563207046,-2.721787149719477,0.007363172662213562,0.01003805788335418,-0.6447706567089093
10402,1.0,299.98462,30113.121,0.0,-0.10402015850864876,0.0,0.0,0.0,0.0,-1.9898335159812781,-4.469444164599796,-2.6943590774625377,0.004254100856622066,0.02101779210879458,-0.6549157625401534
10403,1.0,299.83464,30109.683999999997,0.0,-0.10403015449606812,0.0,0.0,0.0,0.0,-1.9809126594508581,-4.465515388662055,-2.7061640490775973,-0.02222955918163668,0.014166590100133589,-0.6509210645509074
10404,1.0,299.94503,30010.547000000002,0.0,-0.10404015048348736,0.0,0.0,0.0,0.0,-1.948669318743688,-4.475567944229166,-2.6982197629935576,-0.002043268273254878,-0.012538417766195489,-0.6745845681813134
10405,1.0,299.69739,29854.161,0.0,-0.10405014647090671,0.0,0.0,0.0,0.0,-1.9173190566746583,-4.467959145253236,-2.6896411823469175,-0.004056248271870536,-0.011739939197141789,-0.6613896707415784
10406,1.0,299.86576,30026.162999999997,0.0,-0.10406017544838353,0.0,0.0,0.0,0.0,-1.9486811737698582,-4.4877044512769455,-2.690818274988087,0.012952475326809789,-0.00913129459333861,-0.6758650731276894
10407,1.0,299.90165,30164.978,0.0,-0.10407017143580266,0.0,0.0,0.0,0.0,-1.976709495386038,-4.490318028584886,-2.7023723658783876,0.004922564644394305,0.005657936173369824,-0.6530569754967054
10408,1.0,300.42305,29826.072,0.0,-0.10408016742322213,0.0,0.0,0.0,0.0,-1.9400310576661584,-4.466084125943186,-2.660266048697818,0.015412388190834285,0.0025947896245857977,-0.6686893980395053
10409,1.0,300.21012,29836.792,0.0,-0.10409016341064126,0.0,0.0,0.0,0.0,-1.917052470573348,-4.476053291027066,-2.6765340830283475,0.012843129429018187,0.016848663114833587,-0.6435139428748814
10410,1.0,300.40556000000004,30183.708,0.0,-0.10410015939806072,0.0,0.0,0.0,0.0,-1.949476879073388,-4.4823706014255364,-2.7432459629872974,0.0031938652349099575,0.0025167805126368975,-0.6439140449418683
10411,1.0,300.29535,30176.804,0.0,-0.10411015538548007,0.0,0.0,0.0,0.0,-1.9575075953909582,-4.494533351650905,-2.720953954162247,0.007842441175413682,-0.0025578232211874974,-0.6447947923262914
10412,1.0,300.22182999999995,29936.546000000002,0.0,-0.1041201513728992,0.0,0.0,0.0,0.0,-1.9458121561117083,-4.466741927908105,-2.6874083844265577,-0.01049206597023629,-0.01238937475598609,-0.6715062637150083
10413,1.0,300.37505,30069.757999999998,0.0,-0.10413014736031867,0.0,0.0,0.0,0.0,-1.982708949228138,-4.467079644166436,-2.6906670980731677,-0.01881355568225338,0.000993195854020799,-0.6515722601251754
10414,1.0,299.96558,30134.377999999997,0.0,-0.10414017633779538,0.0,0.0,0.0,0.0,-1.9931138118550182,-4.480392230605286,-2.6865923127960176,0.0006497806009008523,0.006173889406440443,-0.6657930226286554
10415,1.0,299.6241,30087.722999999998,0.0,-0.10415017232521462,0.0,0.0,0.0,0.0,-1.9706780228407783,-4.463213588409886,-2.7120249916310275,-0.00974340749004945,0.001947727604100748,-0.6633898568364813
10416,1.0,299.76857,30200.528,0.0,-0.10416016831263397,0.0,0.0,0.0,0.0,-1.9667237130005182,-4.472966829897456,-2.7405159632428675,0.007487913476724522,0.0034575531369589268,-0.6560464280617414
10417,1.0,300.19847000000004,30078.281000000003,0.0,-0.10417016430005344,0.0,0.0,0.0,0.0,-1.950880838411948,-4.4621669010565865,-2.7299987311798977,0.013919280068725988,-0.004883364227175525,-0.6573004973130084
10418,1.0,300.65041,30004.651,0.0,-0.10418016028747257,0.0,0.0,0.0,0.0,-1.9440688593146582,-4.462240260363826,-2.714355568186037,0.017230017015220284,-0.0035858847071742667,-0.6415187318379694
10419,1.0,300.77452999999997,30297.952,0.0,-0.10419015627489203,0.0,0.0,0.0,0.0,-2.009738307570728,-4.495255697647196,-2.7048267615956174,0.011006345111491688,-0.005108241407994175,-0.6617667416337923
10420,1.0,300.21362999999997,30321.077,0.0,-0.10420015226231116,0.0,0.0,0.0,0.0,-2.012359788229448,-4.4881555502214665,-2.7163350535813975,-0.012591769436960887,-0.004047580525215096,-0.6408545970599244
10421,1.0,301.06564,29985.377999999997,0.0,-0.10421014824973052,0.0,0.0,0.0,0.0,-1.951424345765588,-4.474525715176305,-2.6888562174944473,-0.006252944293817555,0.002767198384751217,-0.6574868036088954
10422,1.0,301.13029,29958.367000000002,0.0,-0.10422017722720733,0.0,0.0,0.0,0.0,-1.9124305302421982,-4.4924106940164155,-2.7017543846423977,-0.028934399239852873,0.0017745988284142682,-0.6476265831757674
10423,1.0,299.65808,30192.744,0.0,-0.10423017321462658,0.0,0.0,0.0,0.0,-1.967289613181368,-4.487043204261686,-2.723507445739257,0.008757115212934981,-0.010816131723219092,-0.6782388445344623
10424,1.0,300.46621,30223.662999999997,0.0,-0.10424016920204593,0.0,0.0,0.0,0.0,-1.9551638465846481,-4.500028916218276,-2.7320461043319573,0.00046926583993543247,-0.004143327694739606,-0.6752803264949794
10425,1.0,300.3621,30095.475,0.0,-0.10425016518946528,0.0,0.0,0.0,0.0,-1.9844666341766082,-4.487543141861026,-2.6762630386265975,0.00948088583886558,0.02102571369807638,-0.6929216288185402
10426,1.0,300.03352,30102.48,0.0,-0.10426016117688452,0.0,0.0,0.0,0.0,-1.974927796410198,-4.461537571419475,-2.7139367919197075,-0.008528185234366352,0.01040914158205229,-0.6576237342274094
10427,1.0,300.0055,30049.882999999998,0.0,-0.10427015716430388,0.0,0.0,0.0,0.0,-1.9471593734446682,-4.478663727259696,-2.7085909857171178,-0.014434170199791686,-0.003464900213434027,-0.6861305632033143
10428,1.0,299.91325,29990.618,0.0,-0.10428015315172312,0.0,0.0,0.0,0.0,-1.916493055193138,-4.474617414310355,-2.725288435440027,-0.006506443966111024,0.0030087748391429575,-0.6608347541918124
10429,1.0,299.16093,30086.34,0.0,-0.10429014913914247,0.0,0.0,0.0,0.0,-1.9549718356906982,-4.472785964754605,-2.7177385062949075,-0.003610029950432216,0.001095795937946639,-0.6591102025216123
10430,1.0,300.27382,30207.34,0.0,-0.10430017811661929,0.0,0.0,0.0,0.0,-1.9736880849128482,-4.4941715200401955,-2.7144174777671473,-0.01077463811837399,0.01993852369852908,-0.6495708479976514
10431,1.0,300.16577,30020.627999999997,0.0,-0.10431017410403853,0.0,0.0,0.0,0.0,-1.9828897130459784,-4.479749728716875,-2.6628817538309675,-0.005005729375502026,-0.007893392963317232,-0.6614304033955984
10432,1.0,299.95288999999997,30253.531000000003,0.0,-0.10432017009145789,0.0,0.0,0.0,0.0,-1.9866856518956082,-4.511792445904246,-2.6978398955310676,0.012138687561995189,0.007320168909419424,-0.6665195736128604
10433,1.0,300.60509,30436.722999999998,0.0,-0.10433016607887724,0.0,0.0,0.0,0.0,-1.991244061445488,-4.496815190876106,-2.763944433380077,0.006419505891630904,0.007802426307764523,-0.6370536122247964
10434,1.0,300.59666,30210.881,0.0,-0.10434016206629648,0.0,0.0,0.0,0.0,-1.9530793884789281,-4.485839868442926,-2.7444343027045774,-0.003050527937338667,-0.005880882504797915,-0.6442872857487044
10435,1.0,300.21337,30154.889,0.0,-0.10435015805371584,0.0,0.0,0.0,0.0,-1.9563127708730381,-4.486973593979816,-2.7230468222437976,-0.006389117710531823,-0.01905594537117538,-0.6578211964068974
10436,1.0,300.61246,30282.964,0.0,-0.10436015404113508,0.0,0.0,0.0,0.0,-1.988535137303138,-4.477462519266146,-2.739267132494618,-0.0022336116615153077,-0.0018468891567987684,-0.6596509335699784
10437,1.0,300.59925,30115.941000000003,0.0,-0.10437015002855443,0.0,0.0,0.0,0.0,-1.986981318274788,-4.483728255234526,-2.683784596768918,0.01811959588751488,0.0025424428952695774,-0.6632644874016084
10438,1.0,300.02563,30079.736,0.0,-0.10438014601597378,0.0,0.0,0.0,0.0,-1.9606161453727482,-4.479962815212906,-2.7029097937314273,-0.00019393060772196082,-0.006553405879095804,-0.6678212453538254
10439,1.0,299.52839,30203.726000000002,0.0,-0.10439017499345038,0.0,0.0,0.0,0.0,-1.954052513874968,-4.501918121029726,-2.7252079833820875,0.007617096075698853,-0.027895353818807075,-0.6682464253607874
10440,1.0,299.91255,30070.939,0.0,-0.10440017098086996,0.0,0.0,0.0,0.0,-1.9209676689597481,-4.502906850477306,-2.7169401665411175,0.0060668630407777644,2.7426411540026075e-05,-0.6709083043009944
10441,1.0,300.23343,30163.97,0.0,-0.1044101669682892,0.0,0.0,0.0,0.0,-1.9420748844428681,-4.511243163025036,-2.715775536876177,0.017828687730804486,0.015012053076324286,-0.6611811337384974
10442,1.0,300.26489,30314.644,0.0,-0.10442016295570844,0.0,0.0,0.0,0.0,-1.9841286139432481,-4.505346655393096,-2.7254196513279774,-0.01931348922859298,0.004891911599719086,-0.6676451931489503
10443,1.0,299.87211,30222.417,0.0,-0.1044301589431278,0.0,0.0,0.0,0.0,-1.981120477046368,-4.514693178290526,-2.6910463575855976,-0.034268491258036764,-0.014376903330639883,-0.6625411889502244
10444,1.0,300.7131,30047.709,0.0,-0.10444015493054704,0.0,0.0,0.0,0.0,-1.939443271283148,-4.494722120144536,-2.6995879546035875,-0.015476687015680085,0.008091268751496053,-0.6759621526197703
10445,1.0,300.37248999999997,30156.122000000003,0.0,-0.10445015091796639,0.0,0.0,0.0,0.0,-1.9431125538702783,-4.492615573186636,-2.730980063901747,0.008307448700081353,0.01009356919538272,-0.6453825381792974
10446,1.0,300.24721,30334.042,0.0,-0.10446014690538574,0.0,0.0,0.0,0.0,-1.9735009376193784,-4.484835433618795,-2.762454955733077,0.004037671749837176,0.004056661373936306,-0.6594738782475044
10447,1.0,300.84799,30239.991,0.0,-0.10447017588286256,0.0,0.0,0.0,0.0,-1.9782829714663284,-4.482507187539016,-2.7314121137443874,0.013276559318294386,-0.01248161091258909,-0.6595938774568474
10448,1.0,300.97253,30235.141,0.0,-0.10448017187028191,0.0,0.0,0.0,0.0,-1.9857783877560682,-4.496601091129976,-2.7083484136431775,0.0013950352396292587,0.019440221484850483,-0.6650713960399364
10449,1.0,300.88243,30279.39,0.0,-0.10449016785770116,0.0,0.0,0.0,0.0,-2.011310061125848,-4.484016018262926,-2.7088524042429176,0.01239769353930709,0.003117332631006777,-0.6513842110391164
10450,1.0,300.9264,30306.972999999998,0.0,-0.10450016384512029,0.0,0.0,0.0,0.0,-1.9803235558427181,-4.4957321278442155,-2.736507343197247,-0.015519246559630384,-0.009795627360453151,-0.6516990886401923
10451,1.0,300.61992000000004,30438.586,0.0,-0.10451015983253975,0.0,0.0,0.0,0.0,-1.9801027686459283,-4.514749616321096,-2.7577178088655576,-0.012353214899667387,-0.015244670981281884,-0.6712034235251203
10452,1.0,299.73094,30421.819,0.0,-0.10452015581995888,0.0,0.0,0.0,0.0,-1.983071591438928,-4.495970849567776,-2.7684308008478475,-0.004230022487870715,0.005579160132420235,-0.6332878580956454
10453,1.0,300.37642,30205.057999999997,0.0,-0.10453015180737846,0.0,0.0,0.0,0.0,-1.963564905813768,-4.501472392310736,-2.7165460122522176,0.007131512987875533,0.03138036370300076,-0.6587329999068854
10454,1.0,300.42756,30173.974,0.0,-0.1045401477947977,0.0,0.0,0.0,0.0,-1.9754323949599981,-4.497622548555786,-2.6990796070284175,0.0016061332323380087,0.015249815252039585,-0.6533763215307223
10455,1.0,299.82977,30397.968999999997,0.0,-0.10455017677227452,0.0,0.0,0.0,0.0,-2.012147208358468,-4.506441066826105,-2.7216353648544973,0.01915181402938688,-0.001082588932168209,-0.6787258024000213
10456,1.0,299.67964,30344.725,0.0,-0.10456017275969387,0.0,0.0,0.0,0.0,-1.9617581795604584,-4.518958353261466,-2.743322260719827,0.011729719556633189,0.017567518464529086,-0.6553584211113404
10457,1.0,299.71533999999997,29985.087000000003,0.0,-0.10457016874711311,0.0,0.0,0.0,0.0,-1.9181621820828683,-4.484941115604225,-2.7116144226905075,0.016171729974775485,-0.005648777709690954,-0.6678225220489513
10458,1.0,299.20928,30179.09,0.0,-0.10458016473453224,0.0,0.0,0.0,0.0,-1.9398800834012582,-4.501661363454386,-2.7321483412670475,-0.006999242002596403,-0.006037806472960104,-0.6664853156269794
10459,1.0,299.82189,30416.252,0.0,-0.10459016072195171,0.0,0.0,0.0,0.0,-2.0032883627341684,-4.510643420290846,-2.731849229837527,-0.008777087689631112,-0.016882627258185585,-0.6771236412094004
10460,1.0,300.19782000000004,30273.085,0.0,-0.10460015670937106,0.0,0.0,0.0,0.0,-1.9890027522242881,-4.498183787786175,-2.7150754823820873,-0.0007440941633888764,0.0067601157895964825,-0.6740888254373874
10461,1.0,300.06077,30178.557,0.0,-0.10461015269679041,0.0,0.0,0.0,0.0,-1.974663439459108,-4.509181908346605,-2.689682522950997,-0.0098793983190957,-0.004015204955369876,-0.6730008886725163
10462,1.0,300.55984,30416.237999999998,0.0,-0.10462014868420966,0.0,0.0,0.0,0.0,-1.9714886229207782,-4.523658415175325,-2.750629820441027,0.005841682188904145,0.0003107391431625657,-0.6641567655721693
10463,1.0,300.71877,30310.007,0.0,-0.10463017766168636,0.0,0.0,0.0,0.0,-1.9637460749316482,-4.5185577141719255,-2.731181498021627,-0.009239710124888391,-0.006359402327499144,-0.6793288685945394
10464,1.0,300.39175,30298.57,0.0,-0.10464017364910583,0.0,0.0,0.0,0.0,-1.962724718830848,-4.516840255252426,-2.7304437506238175,0.01122318164614179,0.013167388712770088,-0.6422252913977013
10465,1.0,300.38987000000003,30263.046000000002,0.0,-0.10465016963652496,0.0,0.0,0.0,0.0,-1.980087468569418,-4.5041697654019455,-2.7149530817700076,-0.007653181559460212,0.004201453192026147,-0.6596347215683784
10466,1.0,299.97129,30111.841,0.0,-0.1046601656239442,0.0,0.0,0.0,0.0,-1.9687649053269682,-4.505204800379096,-2.6792781669491674,-0.016169457254801185,-0.0028387792354156974,-0.6489902252928483
10467,1.0,300.2017,30265.569,0.0,-0.10467016161136355,0.0,0.0,0.0,0.0,-1.978599004172518,-4.5139911986212455,-2.7073869406232873,0.0006421123748065573,-0.012904935658617988,-0.6755218853188193
10468,1.0,299.46367999999995,30571.897,0.0,-0.10468015759878302,0.0,0.0,0.0,0.0,-2.006412111467458,-4.520409428729676,-2.7662716662097577,0.01039952381210309,-0.016567427443577785,-0.6389448941989514
10469,1.0,299.45853999999997,30493.992000000002,0.0,-0.10469015358620237,0.0,0.0,0.0,0.0,-1.983518130757998,-4.521451556457525,-2.7644425471292373,0.013952823713286489,-0.014189278796372787,-0.6637130025583734
10470,1.0,299.21578999999997,30236.007,0.0,-0.1047001495736215,0.0,0.0,0.0,0.0,-1.947784346106348,-4.496497435644746,-2.7467093531541074,0.005274001727628445,-0.00027870025606057373,-0.6656295955200263
10471,1.0,299.89221000000003,30318.76,0.0,-0.10471017855109832,0.0,0.0,0.0,0.0,-1.9840187776324083,-4.512370302436276,-2.7197569004941076,-0.0024511035663300875,0.01079449174083339,-0.6897076805613483
10472,1.0,300.39176000000003,30357.444,0.0,-0.10472017453851779,0.0,0.0,0.0,0.0,-2.018159023851788,-4.492992603548846,-2.7167535258726976,-0.01907847802689918,0.015743634847275784,-0.6769824549404664
10473,1.0,300.49183999999997,30233.147,0.0,-0.10473017052593692,0.0,0.0,0.0,0.0,-1.965024289932798,-4.516117706606116,-2.708979769780487,-0.016496932594370486,0.011115769029540989,-0.6681165064329654
10474,1.0,300.11856,30217.389,0.0,-0.10474016651335616,0.0,0.0,0.0,0.0,-1.9456885395995083,-4.5161692810362055,-2.7234740084859577,-0.009522371540359901,0.0006918334691386474,-0.6804369893014024
10475,1.0,300.44703,30327.152000000002,0.0,-0.10475016250077551,0.0,0.0,0.0,0.0,-1.964693869075188,-4.517422874059926,-2.7365800945544274,0.0018423291260487285,0.0026740925555873876,-0.6572071263162933
10476,1.0,300.53055,30333.14,0.0,-0.10476015848819487,0.0,0.0,0.0,0.0,-1.961990011183338,-4.526815094536866,-2.7317121370989974,0.008643771435548822,0.012960968389147988,-0.6721316112792254
10477,1.0,300.14601,30403.009,0.0,-0.10477015447561433,0.0,0.0,0.0,0.0,-2.0023763363191582,-4.522250909461416,-2.717128327084687,0.0014355798344306988,-0.008029698305194522,-0.6430138532880264
10478,1.0,300.34935,30507.231,0.0,-0.10478015046303346,0.0,0.0,0.0,0.0,-2.015005890865598,-4.528639248691896,-2.7297914202094375,0.00997795259669725,-0.017787349153224684,-0.6642784771741814
10479,1.0,299.7495,30361.15,0.0,-0.1047901464504527,0.0,0.0,0.0,0.0,-1.988531692252798,-4.517320130499787,-2.7231796593319078,0.0004977854561275995,-0.004202380721167686,-0.6526521010217473
10480,1.0,300.22937,30321.109,0.0,-0.10480017542792963,0.0,0.0,0.0,0.0,-1.9688989583151981,-4.501359617574606,-2.7466015433434676,-0.006049386401727954,-0.011215096923593888,-0.6433450746132154
10481,1.0,299.7027,30452.91,0.0,-0.10481017141534887,0.0,0.0,0.0,0.0,-1.9890428769282482,-4.517248696367736,-2.7506326575413076,-0.012731806680281487,-0.008132149542680673,-0.6494307155088214
10482,1.0,299.52485,30415.167,0.0,-0.10482016740276812,0.0,0.0,0.0,0.0,-1.9809749743320082,-4.508185680848286,-2.7562907474247176,-0.0072909055372563526,0.0005014435119036216,-0.6570236165906823
10483,1.0,299.64104,30402.752999999997,0.0,-0.10483016339018769,0.0,0.0,0.0,0.0,-2.004971877775318,-4.523248555509875,-2.713457321972387,-0.0070097462650580925,0.02662591660327337,-0.6835578401394063
10484,1.0,299.82007000000004,30462.156000000003,0.0,-0.10484015937760682,0.0,0.0,0.0,0.0,-2.019031330862878,-4.5231903949541366,-2.717513159472668,-0.008329927552224843,0.011509596038658688,-0.6492488371158713
10485,1.0,300.16188999999997,30376.803,0.0,-0.10485015536502618,0.0,0.0,0.0,0.0,-1.9844088789209082,-4.512019819226686,-2.737360803756477,-0.006778696364630243,0.001997390233902068,-0.6702086551069443
10486,1.0,300.69289,30387.853,0.0,-0.10486015135244542,0.0,0.0,0.0,0.0,-1.963793596361338,-4.537925584533387,-2.735429447740868,0.010716977094933291,-0.009309867156512351,-0.6405149860239074
10487,1.0,299.84654,30519.661,0.0,-0.10487014733986466,0.0,0.0,0.0,0.0,-1.981900375648338,-4.530885522838586,-2.7644290709029073,0.015240694987889486,0.0009298228155263672,-0.6624333487420814
10488,1.0,299.58771,30454.682,0.0,-0.10488017631734159,0.0,0.0,0.0,0.0,-1.9798526985212481,-4.527326279212316,-2.750283998181897,0.01183819203283859,-0.028251705772976272,-0.6360481641505664
10489,1.0,300.43057000000005,30217.624,0.0,-0.10489017230476083,0.0,0.0,0.0,0.0,-1.9669189662947881,-4.527742522353395,-2.6907416732805274,-0.02117295312310778,-0.02255443756119968,-0.6776702187108433
10490,1.0,300.11527,30335.34,0.0,-0.10490016829218018,0.0,0.0,0.0,0.0,-1.9780199317403682,-4.525546100111626,-2.7176199560332073,-9.0744521746537e-06,-0.0008031905873187393,-0.6599371969882303
10491,1.0,300.16345,30474.402000000002,0.0,-0.10491016427959954,0.0,0.0,0.0,0.0,-1.9836954495254981,-4.541092599045946,-2.7386691122855975,-0.0038314124316559664,0.004262865368662056,-0.6934794027335883
10492,1.0,299.40179,30377.397,0.0,-0.10492016026701878,0.0,0.0,0.0,0.0,-1.957526745817848,-4.529277596254896,-2.7471657209991474,0.012107157245383388,0.011087907691541289,-0.6544614617253174
10493,1.0,299.18037000000004,30295.333,0.0,-0.10493015625443813,0.0,0.0,0.0,0.0,-1.954622467056218,-4.524119545295836,-2.7302826438579175,-0.014016437581064686,0.008535820276519872,-0.6798790127363343
10494,1.0,299.40368,30454.097999999998,0.0,-0.10494015224185738,0.0,0.0,0.0,0.0,-1.974066229850168,-4.543461577779746,-2.739757545543018,0.016441420674391884,0.002816665355958227,-0.6690355749361704
10495,1.0,299.83242,30404.537,0.0,-0.10495014822927651,0.0,0.0,0.0,0.0,-2.013127426505208,-4.516748758768395,-2.7123438614374975,-0.005444001080381075,0.01973521607921418,-0.6659632486454554
10496,1.0,299.49442,30459.3,0.0,-0.10496017720675355,0.0,0.0,0.0,0.0,-1.989158083464618,-4.541962271606776,-2.7277461748825873,0.004825965635510725,-0.004548239355976275,-0.6626647446674183
10497,1.0,299.44792,30488.767999999996,0.0,-0.10497017319417279,0.0,0.0,0.0,0.0,-2.010970318367318,-4.522074806594036,-2.7347790425016774,0.0003270854915933247,-0.008392298162130342,-0.6487882440179145
10498,1.0,300.08499,30459.849,0.0,-0.10498016918159214,0.0,0.0,0.0,0.0,-1.9851169380907878,-4.517931728260145,-2.7559849485445373,0.00039009433760431365,-0.012589048860442388,-0.6449063308972993
10499,1.0,299.65783999999996,30495.418999999998,0.0,-0.1049901651690115,0.0,0.0,0.0,0.0,-1.971022629199788,-4.547848342762686,-2.750974832100077,0.01727602059626048,0.0037058243374113865,-0.6627516308634934
10500,1.0,300.07652,30676.442000000003,0.0,-0.10500016115643074,0.0,0.0,0.0,0.0,-2.017014963163878,-4.548602403487105,-2.759254909267258,0.009202589302174852,-0.008668895579728383,-0.6590651432896654
10501,1.0,300.39702,30649.241,0.0,-0.10501015714385009,0.0,0.0,0.0,0.0,-2.0206006526177585,-4.552780844249486,-2.7432222529349573,-0.005103940262644685,0.008191691056981962,-0.6659377350079374
10502,1.0,300.45402,30420.385,0.0,-0.10502015313126933,0.0,0.0,0.0,0.0,-1.978256930938758,-4.545298600211046,-2.723481810511727,-0.006467977040639634,0.0030424458492410273,-0.6887560158024263
10503,1.0,300.42409,30419.775,0.0,-0.10503014911868869,0.0,0.0,0.0,0.0,-1.9911272337089583,-4.518513840442596,-2.7372111467167075,-0.007407978885610593,0.026624499066383474,-0.6634828124006553
10504,1.0,300.30242000000004,30390.104,0.0,-0.1050401780961655,0.0,0.0,0.0,0.0,-1.9696788569171682,-4.527221002526925,-2.740933016984027,-0.004783659100110396,-0.001016147286010929,-0.6831751963716424
10505,1.0,299.39011,30343.787999999997,0.0,-0.10505017408358464,0.0,0.0,0.0,0.0,-1.9658417801134782,-4.520157534754816,-2.737754350095318,-0.007208028873152062,0.004038996270367896,-0.6624032248166084
10506,1.0,299.83741000000003,30418.158,0.0,-0.1050601700710041,0.0,0.0,0.0,0.0,-1.991645713785128,-4.527141665044096,-2.7275733144155274,-0.007124866067219534,-0.00916123339801834,-0.6909897256478763
10507,1.0,299.66299,30515.326,0.0,-0.10507016605842345,0.0,0.0,0.0,0.0,-2.0135535994972678,-4.530464213447005,-2.7318794246905074,-0.0003085778503017627,-0.0031055649469953974,-0.6559596938531813
10508,1.0,299.79132000000004,30453.375,0.0,-0.1050801620458427,0.0,0.0,0.0,0.0,-1.9825613186885682,-4.533947361990766,-2.740557101196927,-0.0043075229482694155,-0.003034803207711757,-0.6826807404553433
10509,1.0,300.39396,30636.264,0.0,-0.10509015803326205,0.0,0.0,0.0,0.0,-2.0016430472217883,-4.553811623576216,-2.7572044963648974,0.009151693952301872,0.003403106446810457,-0.6497995486777224
10510,1.0,299.88997,30739.087000000003,0.0,-0.10510015402068118,0.0,0.0,0.0,0.0,-1.993634217106378,-4.562479370231656,-2.7878013056595674,0.015848110051836686,-0.002382423448051888,-0.6767864518411223
10511,1.0,299.5573,30599.002,0.0,-0.10511015000810064,0.0,0.0,0.0,0.0,-2.000285596062818,-4.532495779897506,-2.768551174959727,0.013830970256260487,-0.001037520276995279,-0.6300330251969184
10512,1.0,300.09207999999995,30453.632,0.0,-0.10512017898557735,0.0,0.0,0.0,0.0,-1.981272160586338,-4.549197383945826,-2.7266740549517774,0.008037581492297533,-0.013014539935185088,-0.6829825572626304
10513,1.0,300.24577,30585.291,0.0,-0.10513017497299681,0.0,0.0,0.0,0.0,-2.021207994727698,-4.519420597957086,-2.7565362579239476,-0.004030960082499786,0.0024822991051088477,-0.6214423159465814
10514,1.0,300.43843,30597.703999999998,0.0,-0.10514017096041595,0.0,0.0,0.0,0.0,-2.010554885826318,-4.534996683794326,-2.7553863203854574,0.0020585407893621583,-0.0024096385351378077,-0.6742842408516734
10515,1.0,300.17436000000004,30498.529,0.0,-0.10515016694783541,0.0,0.0,0.0,0.0,-1.9858007805832782,-4.532498313022756,-2.752492072799818,-0.007296111312295123,0.00017667926483188587,-0.6367543386752604
10516,1.0,300.07162,30504.33,0.0,-0.10516016293525454,0.0,0.0,0.0,0.0,-1.9799127842521782,-4.529127939215126,-2.763513903412587,-0.014486421480948487,-0.0014151073188102188,-0.6812506797942074
10517,1.0,300.27925,30614.389,0.0,-0.105170158922674,0.0,0.0,0.0,0.0,-2.0120898584028084,-4.552510711772825,-2.741409345856037,-0.0052435586283739455,-0.0025605231274039575,-0.6663203281131964
10518,1.0,301.25038,30568.037,0.0,-0.10518015491009314,0.0,0.0,0.0,0.0,-2.0121200532557877,-4.545776043658166,-2.7340239685271572,-0.0025152710739629273,-0.002742272432291217,-0.6804409409767923
10519,1.0,300.47907000000004,30559.39,0.0,-0.10519015089751249,0.0,0.0,0.0,0.0,-2.009563623253488,-4.553335497354225,-2.7263922700989673,-0.004481503968615006,-0.00883066490986877,-0.6719735645286273
10520,1.0,299.94084,30569.435,0.0,-0.10520014688493196,0.0,0.0,0.0,0.0,-1.968976978572898,-4.5748543963529755,-2.748513748932187,0.015493761293115185,-0.011174587184595889,-0.6620673121434564
10521,1.0,299.85483,30429.092999999997,0.0,-0.10521017586240877,0.0,0.0,0.0,0.0,-1.950252319374918,-4.544438452201155,-2.754993584646697,0.004158052447842826,0.01128082037808029,-0.6742658098323543
10522,1.0,299.7535,30486.745,0.0,-0.1052201718498279,0.0,0.0,0.0,0.0,-1.9411953833560682,-4.569846509058736,-2.7561673335625376,0.01071027444552179,0.0013487291021091988,-0.6643133431101224
10523,1.0,299.86809,30703.827,0.0,-0.10523016783724726,0.0,0.0,0.0,0.0,-2.022597667239848,-4.551366245784876,-2.7592329217400873,-0.017487527435384582,0.00978038970014931,-0.6684750348483494
10524,1.0,300.40317999999996,30593.909,0.0,-0.1052401638246665,0.0,0.0,0.0,0.0,-2.005275650155298,-4.5523114054781555,-2.7421974517838175,-0.013512973871376687,0.007307107710330383,-0.6614050721430984
10525,1.0,299.45928,30411.441000000003,0.0,-0.10525015981208585,0.0,0.0,0.0,0.0,-1.981368621995858,-4.555439815161906,-2.7075104558104774,0.006552255434932265,0.003660300530293536,-0.6835398144201273
10526,1.0,299.49136,30604.561,0.0,-0.10526015579950532,0.0,0.0,0.0,0.0,-1.977305387769848,-4.538365841701836,-2.7873510173151272,-0.005611160191778395,0.001848613911118988,-0.6603415749706394
10527,1.0,300.29716,30779.237,0.0,-0.10527015178692445,0.0,0.0,0.0,0.0,-2.014455594736288,-4.561754187135087,-2.7799096072557172,0.009664702781906901,-0.014809094015043786,-0.6676026569097524
10528,1.0,300.36862,30604.016,0.0,-0.10528014777434391,0.0,0.0,0.0,0.0,-1.981336096667648,-4.558799853818516,-2.7627206299092975,-0.003575443570193807,-0.012340947480706688,-0.6879374009141354
10529,1.0,300.38897000000003,30534.291,0.0,-0.10529017675182062,0.0,0.0,0.0,0.0,-2.0386138075955182,-4.538345779349855,-2.7047024358083473,0.0035917783777059268,0.008340877340755502,-0.6736709104336424
10530,1.0,300.3053,30661.342,0.0,-0.10530017273923986,0.0,0.0,0.0,0.0,-2.0241843155714383,-4.566458403374355,-2.729639635344457,0.0066823557345221645,-0.003731505059870877,-0.6812461505662604
10531,1.0,300.11264,30688.529,0.0,-0.10531016872665921,0.0,0.0,0.0,0.0,-2.041510790956428,-4.536253316568345,-2.7507823145810772,0.003912442143477976,-0.01114934003185419,-0.6580030747998474
10532,1.0,300.49053,30706.403,0.0,-0.10532016471407846,0.0,0.0,0.0,0.0,-1.9774756137866483,-4.552896456085895,-2.803607601919527,0.0031716119322387267,-0.013490159532125089,-0.6553772270331963
10533,1.0,299.8407,30610.832000000002,0.0,-0.10533016070149781,0.0,0.0,0.0,0.0,-1.9687846637039181,-4.552010875498495,-2.784132934997527,0.01104340473389919,0.0035804166016846065,-0.6518195944745854
10534,1.0,299.74852999999996,30448.095,0.0,-0.10534015668891716,0.0,0.0,0.0,0.0,-1.9519894353463583,-4.522832515018816,-2.7806388433526874,-0.016113979785325985,0.01030831610435159,-0.6629299020860874
10535,1.0,299.71513999999996,30623.91,0.0,-0.1053501526763364,0.0,0.0,0.0,0.0,-2.030329576102928,-4.552203494342505,-2.7263709918468675,-0.01046376082869279,0.007169911012340122,-0.6655469953718743
10536,1.0,299.66827,30806.101000000002,0.0,-0.10536014866375576,0.0,0.0,0.0,0.0,-2.048997594620318,-4.5554931121171665,-2.759794667595527,-0.030464375480099767,0.0017548529144404985,-0.6795126924276814
10537,1.0,299.99701,30608.888,0.0,-0.10537017764123258,0.0,0.0,0.0,0.0,-2.001825432239788,-4.5632848027361455,-2.7392274130906973,0.001083877279670359,0.0012580994535397489,-0.6868444181637663
10538,1.0,300.01637,30359.487,0.0,-0.10538017362865182,0.0,0.0,0.0,0.0,-1.9252783388601782,-4.572947459664775,-2.7303001730846472,-0.0016363229177424983,-0.011178106202193188,-0.6878020813632804
10539,1.0,299.56318,30670.975,0.0,-0.10539016961607117,0.0,0.0,0.0,0.0,-1.9693618109608781,-4.5723237029032155,-2.781524930565137,0.00976205139321446,-0.014274543792287786,-0.6659812338347304
10540,1.0,300.01183,30873.746,0.0,-0.10540016560349041,0.0,0.0,0.0,0.0,-2.013722508288938,-4.589035439452536,-2.782089918820897,0.006929604666948734,-0.006567269673589054,-0.6848154658985244
10541,1.0,299.93307999999996,30662.248,0.0,-0.10541016159090977,0.0,0.0,0.0,0.0,-2.0237940116329183,-4.5676792684198455,-2.729084576939677,0.00857764805124795,0.023331849647424276,-0.6726046369559093
10542,1.0,300.38937999999996,30602.127,0.0,-0.10542015757832912,0.0,0.0,0.0,0.0,-2.009990302870598,-4.561557008665625,-2.730735161352577,0.005003231106055465,0.02018814799316508,-0.6787801936653894
10543,1.0,300.68581,30865.8,0.0,-0.10543015356574836,0.0,0.0,0.0,0.0,-2.026444673894518,-4.574998480517196,-2.780989326562277,-7.164036086935313e-05,-0.0024193510439713575,-0.6362551610134953
10544,1.0,300.46061000000003,30866.591,0.0,-0.10544014955316772,0.0,0.0,0.0,0.0,-2.000245066058818,-4.565058801011226,-2.817369058152677,-0.0026261483979556676,0.01889686510547538,-0.6642309456119904
10545,1.0,299.66222,30725.522999999997,0.0,-0.10545017853064453,0.0,0.0,0.0,0.0,-1.979890898050018,-4.558966938760006,-2.800933837555647,-0.002304796432715698,-0.004949022529680495,-0.6358859529420574
10546,1.0,300.11172,30576.131,0.0,-0.10546017451806378,0.0,0.0,0.0,0.0,-1.9684712654479881,-4.560521973688475,-2.765386997547447,-0.008097212983207702,-0.007062942503258153,-0.6711374710761114
10547,1.0,299.54517000000004,30484.872000000003,0.0,-0.10547017050548313,0.0,0.0,0.0,0.0,-2.000522088636158,-4.543467150655296,-2.7226504388046773,-0.016160350162902383,-0.016706701709573085,-0.6554035411382934
10548,1.0,300.16765,30744.721,0.0,-0.10548016649290226,0.0,0.0,0.0,0.0,-2.033363348227338,-4.577049805344645,-2.7352144360696475,0.016293423338285686,0.001940112320324178,-0.7019154798861643
10549,1.0,300.31605,30889.477000000003,0.0,-0.10549016248032184,0.0,0.0,0.0,0.0,-2.0616659566455877,-4.561527928387756,-2.7664357114009475,0.021997233092707878,-0.0017741557341455385,-0.6710701608719684
10550,1.0,299.79236000000003,30552.744,0.0,-0.10550015846774108,0.0,0.0,0.0,0.0,-1.9748281939253682,-4.555786650671136,-2.756656429385808,0.019103346224103483,0.0053894507347473745,-0.6790899340884584
10551,1.0,299.66433,30464.041,0.0,-0.10551015445516032,0.0,0.0,0.0,0.0,-1.9546038232543783,-4.5580507580195855,-2.747653296947268,0.015421871198520187,-0.015080732181352386,-0.6677657800433514
10552,1.0,300.09319,30836.197999999997,0.0,-0.10552015044257967,0.0,0.0,0.0,0.0,-2.009964464993048,-4.564336758989966,-2.7991329881529174,-0.006991734933930513,-0.0029145348791421973,-0.6611760370904943
10553,1.0,299.82412,30924.105,0.0,-0.10553017942005649,0.0,0.0,0.0,0.0,-2.046722544170788,-4.588657395840226,-2.7647759064121376,0.0013117992770395087,0.0006409743024267384,-0.6865933753189903
10554,1.0,299.56712999999996,30688.994,0.0,-0.10554017540747562,0.0,0.0,0.0,0.0,-1.9993094309164783,-4.575142362031396,-2.754236078871937,-0.016029593277247685,-0.002947534205748977,-0.6642353836474284
10555,1.0,299.4505,30667.988999999998,0.0,-0.10555017139489509,0.0,0.0,0.0,0.0,-2.002345229541088,-4.576212050161966,-2.7437455966116073,0.002948863691205187,0.0018420426802454582,-0.6818275028111354
10556,1.0,299.58525,30740.732999999997,0.0,-0.10556016738231444,0.0,0.0,0.0,0.0,-1.980753376535138,-4.572170702138116,-2.791491055898718,-0.006391635434380305,0.013086880926074589,-0.6489318823520904
10557,1.0,300.60901,30763.605,0.0,-0.1055701633697338,0.0,0.0,0.0,0.0,-1.987536579329588,-4.581378815071886,-2.7824524597066773,0.015554536034113184,-0.0037199742737328762,-0.6759983053833383
10558,1.0,300.6434,30728.127,0.0,-0.10558015935715304,0.0,0.0,0.0,0.0,-1.9893707646606082,-4.576897716504637,-2.774314946828568,-0.005944843410735364,-0.014695562381089088,-0.6489776508591073
10559,1.0,300.40043,30687.241,0.0,-0.10559015534457217,0.0,0.0,0.0,0.0,-2.036722576283868,-4.560880968198905,-2.7305513577844374,-0.0025646061200069177,-0.015790703354171088,-0.6850148127231984
10560,1.0,299.99543,30757.214,0.0,-0.10560015133199163,0.0,0.0,0.0,0.0,-2.0248161783337983,-4.581816437790076,-2.7427924322425374,0.0005090772064345085,-0.00933005596210483,-0.6739123274024683
10561,1.0,300.52338,30857.06,0.0,-0.10561014731941076,0.0,0.0,0.0,0.0,-2.067079650604878,-4.568460788221976,-2.7442351990599274,0.001836045759528608,-0.0046421259956671655,-0.6902979392746024
10562,1.0,299.63605,30873.955,0.0,-0.10562017629688758,0.0,0.0,0.0,0.0,-2.0036450267693677,-4.582277061285536,-2.7989893092887375,-0.014279599910286787,-0.0018221857140607283,-0.6527239404538373
10563,1.0,299.37949,30635.34,0.0,-0.10563017228430693,0.0,0.0,0.0,0.0,-1.985836852286838,-4.5639113965979865,-2.7626301466753675,-0.005772057214907694,-0.00974911381063762,-0.6624970213783653
10564,1.0,299.71086,30720.632999999998,0.0,-0.1056401682717264,0.0,0.0,0.0,0.0,-1.9770390043185582,-4.575253616892375,-2.7860126152580373,-0.007846159701955673,0.019904409594162283,-0.6662933249980314
10565,1.0,300.52187999999995,30885.019,0.0,-0.10565016425914575,0.0,0.0,0.0,0.0,-2.036710214632648,-4.585867310364866,-2.7656970520780475,0.0023230060568878476,0.002841279126062417,-0.6591857605815693
10566,1.0,300.17665,30823.881,0.0,-0.105660160246565,0.0,0.0,0.0,0.0,-2.014291144245058,-4.579107310997705,-2.7762917977736676,-0.003169058744636747,0.0065764611692211835,-0.6684895851197854
10567,1.0,300.99805,30710.03,0.0,-0.10567015623398412,0.0,0.0,0.0,0.0,-2.010834644178928,-4.575168706533995,-2.749079041162977,0.005436032172319604,0.0025447740797746475,-0.6672022103377313
10568,1.0,300.54872,30803.234,0.0,-0.10568015222140348,0.0,0.0,0.0,0.0,-1.9917441003698382,-4.578095276797825,-2.793574399429327,0.005309425660399515,0.009232899766991261,-0.6667460147452084
10569,1.0,300.77128999999996,30815.103,0.0,-0.10569014820882294,0.0,0.0,0.0,0.0,-2.0008129927398683,-4.581136952273016,-2.7850720151902073,0.008811230874275782,0.002730970336700787,-0.6714622076006603
10570,1.0,300.53965,30783.798,0.0,-0.10570017718629954,0.0,0.0,0.0,0.0,-2.003646141344478,-4.582278986460725,-2.7715808940837374,-0.01017820161926029,-0.0039103608264475665,-0.6663250295936604
10571,1.0,300.11279,30909.269,0.0,-0.10571017317371911,0.0,0.0,0.0,0.0,-2.0315742525257683,-4.595210894837005,-2.7688608241902872,-0.005210307711767335,-0.01030219100749709,-0.6689659646543004
10572,1.0,299.25767,30829.193,0.0,-0.10572016916113824,0.0,0.0,0.0,0.0,-2.030684821587988,-4.589754543048505,-2.7508656037392973,0.0039359930142272665,0.004378144149764186,-0.6767663793566414
10573,1.0,299.93928999999997,30674.341,0.0,-0.10573016514855771,0.0,0.0,0.0,0.0,-1.9951617929571381,-4.574743546792036,-2.7543282846310375,0.007664853997962193,0.0015129513080916687,-0.6719772730239933
10574,1.0,299.67158,30745.576,0.0,-0.10574016113597684,0.0,0.0,0.0,0.0,-1.9936883246617179,-4.575540771970716,-2.776658189009827,-0.0024755300878157977,-0.0025819182072404872,-0.6629109036467123
10575,1.0,299.84648,30953.406000000003,0.0,-0.10575015712339608,0.0,0.0,0.0,0.0,-2.016661541528998,-4.585239399277896,-2.8071617792952974,-0.008189895476479752,-0.0015704595334172886,-0.6513571673939473
10576,1.0,299.56276,30800.058999999997,0.0,-0.10576015311081544,0.0,0.0,0.0,0.0,-2.006946398245188,-4.590577504779725,-2.7649250568268577,0.0016844256490148684,0.01953636169408878,-0.6837836429241914
10577,1.0,299.98494,30818.459,0.0,-0.1057701490982349,0.0,0.0,0.0,0.0,-2.0159299749567983,-4.5992079638314864,-2.752904060290477,0.00989271262805972,-0.00909408379401619,-0.6784934033570853
10578,1.0,300.88974,30950.236,0.0,-0.1057801780757116,0.0,0.0,0.0,0.0,-2.038630526222168,-4.592793280098405,-2.7766751102864977,0.016604610682497484,-0.007510287052182623,-0.6836607762170654
10579,1.0,301.1785,30885.099,0.0,-0.10579017406313107,0.0,0.0,0.0,0.0,-2.022926669547318,-4.592184418113316,-2.773187807417327,0.01020103419701369,-0.008111270409795061,-0.6733066774201953
10580,1.0,300.51732999999996,30787.328999999998,0.0,-0.1058001700505502,0.0,0.0,0.0,0.0,-1.9859614820491382,-4.602258859882586,-2.7703590157881472,0.00987033337840106,-0.004294313206715716,-0.6950691921404883
10581,1.0,300.40304,30844.318,0.0,-0.10581016603796967,0.0,0.0,0.0,0.0,-2.025155110492248,-4.579728737284036,-2.7710185402782375,-0.01767355103449368,-0.008967735863521622,-0.6533048468686684
10582,1.0,300.22517999999997,30874.765,0.0,-0.1058201620253888,0.0,0.0,0.0,0.0,-2.018378493823448,-4.600512016710185,-2.7662669039342873,-0.016623916136652785,-0.0013819064567585485,-0.6853370566525014
10583,1.0,300.61518,30804.937,0.0,-0.10583015801280804,0.0,0.0,0.0,0.0,-2.021000075807178,-4.595293576045165,-2.7476379968707576,-0.006251198666545274,-0.004380001133222456,-0.6756435361258253
10584,1.0,300.03828,30844.414,0.0,-0.10584015400022762,0.0,0.0,0.0,0.0,-2.008255112074348,-4.592897948833736,-2.774778610074327,-0.0035032713867709665,0.006163350896125374,-0.6831812758722423
10585,1.0,299.84111,30809.866,0.0,-0.10585014998764675,0.0,0.0,0.0,0.0,-1.9958125021713584,-4.5945334358201455,-2.7750840036544675,-0.016043313696851785,-0.003762702321174806,-0.6732144716610954
10586,1.0,299.61079,30737.732000000004,0.0,-0.10586017896512356,0.0,0.0,0.0,0.0,-1.985461645774808,-4.574426196860716,-2.7836150628714176,-0.0014614392942078284,-0.014315511520330986,-0.6597055984128734
10587,1.0,300.06813999999997,30923.161,0.0,-0.10587017495254292,0.0,0.0,0.0,0.0,-2.041066278137558,-4.587166600968096,-2.771636116214187,0.007900994568217452,0.010141139970352589,-0.6651540468505934
10588,1.0,300.21038,30979.259,0.0,-0.10588017093996216,0.0,0.0,0.0,0.0,-2.038059965090858,-4.597933700505726,-2.7809274169811675,0.01206087400731559,0.014203156269742386,-0.6622576613072424
10589,1.0,300.42924,30813.229,0.0,-0.10589016692738151,0.0,0.0,0.0,0.0,-2.025052670907138,-4.596839694372756,-2.7445596417419473,0.013240274832213387,0.0022756855546926776,-0.6896450110426634
10590,1.0,300.30681,30909.685,0.0,-0.10590016291480098,0.0,0.0,0.0,0.0,-2.0128467562275083,-4.603709428725745,-2.779216138887277,0.005675721752375125,-0.002440247604758688,-0.6562390469057514
10591,1.0,300.5193,31104.599,0.0,-0.10591015890222011,0.0,0.0,0.0,0.0,-2.032712335038088,-4.608431174191746,-2.8138778036081176,0.013569852665740186,0.01010690913957427,-0.6727513353053873
10592,1.0,300.2755,30963.249,0.0,-0.10592015488963957,0.0,0.0,0.0,0.0,-2.005543553481738,-4.601207612903836,-2.8053033772868874,0.0019652034325504785,-0.002132809184591878,-0.6553395037319734
10593,1.0,300.67683,30902.912,0.0,-0.1059301508770587,0.0,0.0,0.0,0.0,-2.029051867726828,-4.601996833406725,-2.7626649011537974,-0.018116831741242085,-0.0036709658995211264,-0.6787710136194833
10594,1.0,300.05028,30961.086,0.0,-0.10594017985453552,0.0,0.0,0.0,0.0,-2.033824782322878,-4.587222228398586,-2.7903498323110876,-0.007760872718513502,-0.006562412659234703,-0.6497493725327704
10595,1.0,299.76758,30807.26,0.0,-0.10595017584195487,0.0,0.0,0.0,0.0,-2.018826958317708,-4.589009804225006,-2.756801020175077,0.0005189083161922636,0.017710672465157284,-0.6853053115268684
10596,1.0,299.88967,30807.462000000003,0.0,-0.10596017182937412,0.0,0.0,0.0,0.0,-1.9845530644101381,-4.593764682969276,-2.7863813369694275,0.00971585448405518,0.015191919154575685,-0.6741964933930134
10597,1.0,299.39009,30962.112,0.0,-0.10597016781679347,0.0,0.0,0.0,0.0,-2.0013565000935083,-4.602336880140286,-2.8080155438295575,-0.006235388519934933,-0.0005385141990022136,-0.6737403484629954
10598,1.0,299.89081,31027.853,0.0,-0.10598016380421271,0.0,0.0,0.0,0.0,-2.004006250430018,-4.624853627837516,-2.8028327695680573,0.0019129542792188882,-0.005904318371660854,-0.6498216273974013
10599,1.0,300.47519,30880.596,0.0,-0.10599015979163207,0.0,0.0,0.0,0.0,-2.031255585369318,-4.598525843864166,-2.757148564959377,-0.007975192846540252,0.01030082615961239,-0.6770159327237704
10600,1.0,300.46902,31062.065,0.0,-0.10600015577905142,0.0,0.0,0.0,0.0,-2.063881630639258,-4.606593543810386,-2.771616965787297,0.016129164351324585,-0.0024427362483292977,-0.6647037179761494
10601,1.0,300.43214,31055.132,0.0,-0.10601015176647066,0.0,0.0,0.0,0.0,-2.065328450457048,-4.607682179717825,-2.7669740511790772,0.006878406152645834,-0.01015337597856019,-0.6781680892799794
10602,1.0,299.49331,30768.318,0.0,-0.10602018074394748,0.0,0.0,0.0,0.0,-1.9931775452863083,-4.581794348937896,-2.777828492875327,0.017394897124492683,-0.007258491869207373,-0.6701437564380394
10603,1.0,299.12442000000004,30907.527000000002,0.0,-0.10603017673136683,0.0,0.0,0.0,0.0,-1.9815813031918483,-4.604355578314516,-2.8091797681944572,0.006460192240121333,0.0023142477256734677,-0.6712769246873744
10604,1.0,299.94043,31072.817000000003,0.0,-0.10604017271878607,0.0,0.0,0.0,0.0,-2.021897612745758,-4.596454558009746,-2.8270084103290074,0.0012265646786275087,0.0044003948179851555,-0.6584619453726344
10605,1.0,298.99625,30830.34,0.0,-0.10605016870620543,0.0,0.0,0.0,0.0,-2.018335228044178,-4.585999336852896,-2.7673191641631374,-0.01003716044774061,0.01049260299278929,-0.6585218588510474
10606,1.0,299.31212999999997,30872.189,0.0,-0.10606016469362456,0.0,0.0,0.0,0.0,-2.0430380628321583,-4.5955713078975755,-2.745765308035937,-0.0033933015295677864,-0.01078207334760779,-0.6817876111546983
10607,1.0,299.84499,31114.493,0.0,-0.10607016068104402,0.0,0.0,0.0,0.0,-2.064282168403788,-4.608249397123805,-2.7854974789071973,1.9279673019755584e-05,0.01046199676026869,-0.6780640386272103
10608,1.0,300.11863,30992.165,0.0,-0.10608015666846338,0.0,0.0,0.0,0.0,-2.004373148291228,-4.622365997517005,-2.794105342481727,0.013087242656360288,-0.0005422669430000805,-0.6919614122287743
10609,1.0,300.33022,31016.212000000003,0.0,-0.10609015265588262,0.0,0.0,0.0,0.0,-1.987701941745908,-4.620774789559966,-2.8196774445304973,0.0056122762867635454,-0.011559444903828387,-0.6670375267989783
10610,1.0,300.28841,31045.772,0.0,-0.10610014864330197,0.0,0.0,0.0,0.0,-2.0261107066615582,-4.604324876836486,-2.8067039929001174,0.006003544940703755,-0.013702921788123087,-0.6704026519710903
10611,1.0,299.74209,30977.917,0.0,-0.10611017762077879,0.0,0.0,0.0,0.0,-2.0446737524685883,-4.612981072440786,-2.7588584245031273,0.0018177481852477784,-0.0008034884625831371,-0.6598204908417123
10612,1.0,300.35642,30965.222999999998,0.0,-0.10612017360819792,0.0,0.0,0.0,0.0,-2.057217890031598,-4.604545765358286,-2.7508910363168075,0.007500559445922583,-0.008658530233855401,-0.6981076353478594
10613,1.0,300.33662000000004,31010.802000000003,0.0,-0.10613016959561739,0.0,0.0,0.0,0.0,-2.050701273338458,-4.602671556648316,-2.7731367396122875,-0.02069236758742768,0.0026020821882055175,-0.6779696949103994
10614,1.0,300.2666,30943.921000000002,0.0,-0.10614016558303674,0.0,0.0,0.0,0.0,-1.9871738357937883,-4.613273293769625,-2.8057322860542175,-0.007115610736831104,-0.002140148864341248,-0.7028797596088313
10615,1.0,300.19613,30871.811,0.0,-0.10615016157045598,0.0,0.0,0.0,0.0,-1.9714665340685982,-4.594807925272236,-2.817985114213477,-0.02114153426400698,0.024510651641512976,-0.6762541409010874
10616,1.0,299.43377000000004,31031.353,0.0,-0.10616015755787533,0.0,0.0,0.0,0.0,-2.019787012787458,-4.618003347886445,-2.794966098441677,-0.024492675571488876,0.014259530465556088,-0.6800721990004004
10617,1.0,299.48287999999997,31096.747000000003,0.0,-0.10617015354529447,0.0,0.0,0.0,0.0,-2.058159705999548,-4.609537541975936,-2.784937151601897,-0.02287158889550008,0.008900637428649522,-0.6531914135199735
10618,1.0,299.80201,30971.215,0.0,-0.10618014953271393,0.0,0.0,0.0,0.0,-2.038500120934298,-4.620548936112675,-2.7554267490644473,0.014105862981890288,-0.005778367027255425,-0.6861829482334844
10619,1.0,299.41427999999996,31056.155,0.0,-0.10619017851019075,0.0,0.0,0.0,0.0,-2.0318785315307983,-4.637791818364416,-2.7706252979144272,0.028062159103269476,0.003100073334103417,-0.6836244714659823
10620,1.0,300.02149,31292.159,0.0,-0.10620017449760988,0.0,0.0,0.0,0.0,-2.033279957744108,-4.629683689739205,-2.849071221981437,0.03262540590912687,-0.00976881504028198,-0.6685484346855933
10621,1.0,300.16637000000003,31189.076,0.0,-0.10621017048502923,0.0,0.0,0.0,0.0,-2.008172734841218,-4.645206579946196,-2.8273210993098674,0.0008523346863813842,-0.005960898561219885,-0.6641533711843344
10622,1.0,300.54967,30974.302000000003,0.0,-0.10622016647244847,0.0,0.0,0.0,0.0,-2.017547020791388,-4.6040963889389355,-2.7937708686237177,0.0005008588868609235,-0.0035494719436306066,-0.6518990231499244
10623,1.0,300.14954,31018.056,0.0,-0.10623016245986783,0.0,0.0,0.0,0.0,-2.0383453976440284,-4.615098157199726,-2.775271049622927,-0.005155641855622235,-0.002135970727553898,-0.6801091015690424
10624,1.0,299.45108,31015.472,0.0,-0.10624015844728729,0.0,0.0,0.0,0.0,-2.037135982324668,-4.620571936889946,-2.770221112449537,0.009046062933351902,-0.009277742568716902,-0.6703513105885234
10625,1.0,299.88683,31075.429,0.0,-0.10625015443470642,0.0,0.0,0.0,0.0,-2.032992093390698,-4.6094432083916255,-2.8037190594305272,-0.02391058162754068,-0.007626765116103113,-0.6997339422883634
10626,1.0,300.42129,31213.072999999997,0.0,-0.10626015042212589,0.0,0.0,0.0,0.0,-2.010813669901858,-4.629212629767716,-2.847968400572597,-0.013824217957594089,-0.00965423752957406,-0.6767860566735834
10627,1.0,300.42983,31019.924,0.0,-0.1062701793996026,0.0,0.0,0.0,0.0,-1.997817825444268,-4.622413012321646,-2.8090515920568073,-0.02199374548586368,0.006613081041085284,-0.6830131878131533
10628,1.0,300.23328,31019.522999999997,0.0,-0.10628017538702184,0.0,0.0,0.0,0.0,-2.027983699471408,-4.610105975282036,-2.7910708610822472,-0.016170551564909184,0.01098001986064359,-0.6501850396782674
10629,1.0,299.84736000000004,31210.156000000003,0.0,-0.10629017137444119,0.0,0.0,0.0,0.0,-2.070451949587698,-4.628153479438186,-2.7885026773787875,-0.007930816545160653,0.012032506044265888,-0.6643120562824953
10630,1.0,299.33546,31242.629,0.0,-0.10630016736186065,0.0,0.0,0.0,0.0,-2.075340881320198,-4.621162763023255,-2.8004754432104075,0.005269520426411175,0.004521829498744826,-0.6576534832503453
10631,1.0,299.43516,31023.924,0.0,-0.10631016334927978,0.0,0.0,0.0,0.0,-2.010455080691468,-4.6257839940793355,-2.7942592551719176,0.02261839897376218,0.0037093633160356562,-0.6892934740529693
10632,1.0,299.44414,30986.235,0.0,-0.10632015933669914,0.0,0.0,0.0,0.0,-1.9899548020182483,-4.620997501931946,-2.8080895110868576,0.02285876520223448,-0.014874078810207286,-0.6776942226057123
10633,1.0,299.03668,31025.213,0.0,-0.10633015532411838,0.0,0.0,0.0,0.0,-2.019551533464218,-4.592552531874645,-2.818785987092517,0.015615871102416485,-0.01828349415744038,-0.6690196263795964
10634,1.0,299.44157,31024.007999999998,0.0,-0.10634015131153773,0.0,0.0,0.0,0.0,-2.030192179389368,-4.623586051962415,-2.776745429843437,-1.3106206645231887e-05,-0.0005644467343765554,-0.6666967302603444
10635,1.0,300.38552999999996,30983.336,0.0,-0.10635018028901455,0.0,0.0,0.0,0.0,-2.0281096464588377,-4.612550137173255,-2.7775007064679773,-0.009833692937559929,0.0015481560748661083,-0.6800946627551174
10636,1.0,300.34485,31140.841,0.0,-0.1063601762764338,0.0,0.0,0.0,0.0,-2.045126371288258,-4.625920985492855,-2.794990619094097,-0.006088815509494304,0.006917181410122654,-0.6733052791350573
10637,1.0,299.88982999999996,31240.406000000003,0.0,-0.10637017226385337,0.0,0.0,0.0,0.0,-2.021220660353948,-4.649605807905366,-2.825476882802857,-0.012160670022914688,-0.003843673568466046,-0.6840568151511514
10638,1.0,299.79957,31295.583,0.0,-0.1063801682512725,0.0,0.0,0.0,0.0,-2.0263851961136483,-4.644534389829856,-2.842156296673987,-0.009993154995897612,0.004352448532528226,-0.6796340088621544
10639,1.0,299.70065,31319.697999999997,0.0,-0.10639016423869174,0.0,0.0,0.0,0.0,-2.047858600182908,-4.642855839714195,-2.8296916992438272,-0.013567094598967988,-0.0045786582385533865,-0.6608420901225364
10640,1.0,300.2316,31015.851000000002,0.0,-0.1064001602261111,0.0,0.0,0.0,0.0,-2.046806137304038,-4.612652576758365,-2.7685853214880973,0.005272509818181205,-0.007405055963047123,-0.6695020043547034
10641,1.0,299.87211,30899.85,0.0,-0.10641015621353034,0.0,0.0,0.0,0.0,-2.015203069335058,-4.627063728955636,-2.7505161337798074,0.02893129058854607,-0.001990009618848658,-0.6701805779466734
10642,1.0,300.06895,31069.291,0.0,-0.10642015220094969,0.0,0.0,0.0,0.0,-2.050870486105158,-4.625584586459655,-2.7678334899138974,0.013607122030918385,0.011940411742676888,-0.6915356951992593
10643,1.0,299.67689,31230.077999999998,0.0,-0.10643018117842651,0.0,0.0,0.0,0.0,-2.028119981609858,-4.644162020418105,-2.8208818949243675,0.018435510043443182,-0.001300486947623069,-0.6873284173390334
10644,1.0,300.11464,31097.87,0.0,-0.10644017716584586,0.0,0.0,0.0,0.0,-2.0097603964229083,-4.637305255666395,-2.8059104154217973,-0.009495995120381752,-0.002436804175618848,-0.6994886040416504
10645,1.0,299.64175,31053.808999999997,0.0,-0.10645017315326522,0.0,0.0,0.0,0.0,-2.018779436888018,-4.630423564962225,-2.7903795205390174,0.01028258765781239,0.004371277961786545,-0.6659742322765394
10646,1.0,299.60873,31264.528,0.0,-0.10646016914068446,0.0,0.0,0.0,0.0,-2.073328465296588,-4.640683836799836,-2.7896237372894275,-0.009099714627471911,0.006698648593480144,-0.6788381211736064
10647,1.0,299.27365,31344.312,0.0,-0.1064701651281037,0.0,0.0,0.0,0.0,-2.059772496183718,-4.650086493752805,-2.818029291917837,0.0014889923002020986,0.0007673840715749112,-0.6627264009360034
10648,1.0,299.99258,31245.75,0.0,-0.10648016111552305,0.0,0.0,0.0,0.0,-2.053817625346018,-4.635509067214126,-2.808600898412327,-0.016064498729942586,0.0031946804959404164,-0.6678634472204904
10649,1.0,300.26345,31128.472999999998,0.0,-0.1064901571029423,0.0,0.0,0.0,0.0,-2.003188962899358,-4.629025381149236,-2.830064068655577,0.006906413196009914,-0.00034861490812811266,-0.6619668787935444
10650,1.0,300.40491000000003,31007.246,0.0,-0.10650015309036187,0.0,0.0,0.0,0.0,-2.0109909886693584,-4.618620315872336,-2.795817228525677,0.004436838384331856,0.015787075918813086,-0.6816287943340243
10651,1.0,300.39472,31156.23,0.0,-0.106510149077781,0.0,0.0,0.0,0.0,-2.049806776150178,-4.630799582074336,-2.7901094893873672,0.003083363826704317,-0.01784541446345528,-0.6683912086675764
10652,1.0,300.24051000000003,31367.174,0.0,-0.10652017805525782,0.0,0.0,0.0,0.0,-2.089681511310508,-4.648094038756166,-2.7970620062735274,-0.004683571369807505,-0.013499880653584487,-0.6728320102783494
10653,1.0,300.1369,31223.612999999998,0.0,-0.10653017404267717,0.0,0.0,0.0,0.0,-2.0573815299227483,-4.644536213680036,-2.789280752130577,-0.001909331200836318,-0.01946482522377868,-0.6929724129135524
10654,1.0,300.53489,31098.452,0.0,-0.10654017003009641,0.0,0.0,0.0,0.0,-2.031452561188758,-4.646125699111906,-2.7755746193528874,0.009186956474332012,0.0022153281714108676,-0.6854575624868944
10655,1.0,299.83216,31297.607000000004,0.0,-0.10655016601751555,0.0,0.0,0.0,0.0,-2.011383217783068,-4.656332370019225,-2.8459755402759175,0.003928978891735027,-0.023994376397560576,-0.6850988820839953
10656,1.0,299.3515,31362.64,0.0,-0.10656016200493501,0.0,0.0,0.0,0.0,-2.051755154767468,-4.643305317458555,-2.8383990639781773,-0.007454569746408753,0.0007546114055843472,-0.6662498059062364
10657,1.0,299.6544,31201.404,0.0,-0.10657015799235436,0.0,0.0,0.0,0.0,-2.0334047901564283,-4.640883041769495,-2.8101597836911774,0.0077908596525729824,0.005963129535290064,-0.6712581086330174
10658,1.0,299.95899,31057.933999999997,0.0,-0.10658015397977372,0.0,0.0,0.0,0.0,-2.037219575457918,-4.629046659401336,-2.7745702858537675,0.0002984842682381037,0.01999370631222518,-0.6750441581616713
10659,1.0,299.7215,31154.13,0.0,-0.10659014996719296,0.0,0.0,0.0,0.0,-2.031137035107618,-4.635332964346746,-2.803607601919527,0.003683465251429716,-0.005341096413475175,-0.6785236590050714
10660,1.0,300.62635,31307.105,0.0,-0.10660017894466978,0.0,0.0,0.0,0.0,-2.050908888283948,-4.649492729194205,-2.8161764627849775,-0.01086437863998069,0.0015828117614113584,-0.6574020047080263
10661,1.0,299.86044,31307.86,0.0,-0.10661017493208913,0.0,0.0,0.0,0.0,-2.004896187992848,-4.6627418861767955,-2.849169507241137,0.006825623827111623,0.02011648182684218,-0.6923994301145033
10662,1.0,300.22062999999997,31259.502,0.0,-0.10662017091950837,0.0,0.0,0.0,0.0,-2.035570612245178,-4.658173952075975,-2.808363392588887,-0.007455268888977753,0.017250676171509185,-0.6610316388187434
10663,1.0,300.5672,31126.737,0.0,-0.1066301669069275,0.0,0.0,0.0,0.0,-2.0463644615854477,-4.641632238893436,-2.7737541128982173,0.003869122155327626,-0.01018563178224359,-0.6841989032126743
10664,1.0,299.63124,31297.955,0.0,-0.10664016289434697,0.0,0.0,0.0,0.0,-2.069739026817338,-4.6643170847822555,-2.779740495814027,0.004853954035072965,-0.007749642766330192,-0.6596795984153074
10665,1.0,299.62681000000003,31461.928,0.0,-0.10665015888176632,0.0,0.0,0.0,0.0,-2.104626241010438,-4.645160274416626,-2.8138539922307673,0.028970374684653372,-0.008453060845452153,-0.6762809920287374
10666,1.0,300.50116,31277.151,0.0,-0.10666015486918567,0.0,0.0,0.0,0.0,-2.0304781185675878,-4.655313344393655,-2.8216813492532675,0.011234242284233387,-0.004695384244773345,-0.6669529609456324
10667,1.0,299.36831,30936.952999999998,0.0,-0.10667015085660492,0.0,0.0,0.0,0.0,-1.9595903309715084,-4.627932489591376,-2.8165384970457072,-0.0017316857615040783,-0.026351897299229772,-0.6811198996038004
10668,1.0,299.74484,31227.892999999996,0.0,-0.10668017983408173,0.0,0.0,0.0,0.0,-2.0290812519797283,-4.637792324989466,-2.825626235867597,-0.011925789530483788,0.015084416358715986,-0.6634011444425953
10669,1.0,299.75345,31397.945,0.0,-0.10669017582150109,0.0,0.0,0.0,0.0,-2.066199845543048,-4.655676290579475,-2.8223150358658073,-0.009580785915249952,0.01830403071046718,-0.6766470590248653
10670,1.0,299.77624,31170.862999999998,0.0,-0.10670017180892022,0.0,0.0,0.0,0.0,-2.055870368723608,-4.6465189414757155,-2.772774604026547,-0.019833084893123083,0.022099531836053978,-0.6812888894554783
10671,1.0,300.45117999999997,31129.51,0.0,-0.10671016779633946,0.0,0.0,0.0,0.0,-2.035818351894628,-4.646258232224986,-2.780517152015677,-0.016117098569133785,-0.017673849943273184,-0.6758377255074903
10672,1.0,300.42892,31203.876,0.0,-0.10672016378375881,0.0,0.0,0.0,0.0,-2.022707402225678,-4.653235168438555,-2.8092565725520373,-0.003719596432770587,-0.004765784963046356,-0.6774891914479774
10673,1.0,300.19165,31294.104,0.0,-0.10673015977117828,0.0,0.0,0.0,0.0,-2.003485034578578,-4.669820552700405,-2.839320716269137,0.013820576336734686,0.008902516703609992,-0.6867009622146083
10674,1.0,300.49266,31433.801,0.0,-0.10674015575859763,0.0,0.0,0.0,0.0,-2.0636924568455877,-4.673911246004126,-2.817486899139307,-0.0018313109431363182,0.014097236170538884,-0.6854568532118244
10675,1.0,299.77846,31283.95,0.0,-0.10675015174601687,0.0,0.0,0.0,0.0,-2.050034757422678,-4.653576127097205,-2.8059286539235972,-0.0025590962686131377,-0.002204010674418918,-0.6793634812179554
10676,1.0,299.07599,31105.874,0.0,-0.10676018072349358,0.0,0.0,0.0,0.0,-2.0563648347724084,-4.6412114361269055,-2.7578327114268975,-0.0009461375404215051,0.007141356003321963,-0.6698493971514884
10677,1.0,299.60062999999997,31376.41,0.0,-0.10677017671091305,0.0,0.0,0.0,0.0,-2.060191779075098,-4.659968114028046,-2.8174851766141376,0.027907377044493673,-0.0029569633085295573,-0.6689276435355184
10678,1.0,299.35407999999995,31534.215,0.0,-0.10678017269833218,0.0,0.0,0.0,0.0,-2.057875793321528,-4.658210429079576,-2.869527728250337,-0.0005952974236162814,-0.017698708007976485,-0.6767923590892054
10679,1.0,300.07268,31342.228,0.0,-0.10679016868575142,0.0,0.0,0.0,0.0,-2.011978907516858,-4.663007763003036,-2.8522679247219274,-0.006875161219200583,-0.03191676209393917,-0.6638364670830584
10680,1.0,300.31501000000003,31172.701,0.0,-0.106800164673171,0.0,0.0,0.0,0.0,-2.029685959639408,-4.646787858052255,-2.7992488026393474,-0.005831536920952885,-0.007962917726878791,-0.6845696514242643
10681,1.0,300.49393,31405.92,0.0,-0.10681016066059013,0.0,0.0,0.0,0.0,-2.065083142607838,-4.6682357282189955,-2.813296806000777,-0.0024232898510850877,0.013303288855932387,-0.6723223150805463
10682,1.0,300.1428,31518.182,0.0,-0.10682015664800959,0.0,0.0,0.0,0.0,-2.109445461136058,-4.679349359290826,-2.7919453972435573,0.01106605796638489,0.01014806553478609,-0.6832620015077093
10683,1.0,300.3251,31392.851000000002,0.0,-0.10683015263542872,0.0,0.0,0.0,0.0,-2.0606866504239383,-4.666287552251725,-2.8156687231598676,-0.0028041458403726474,-0.007861365748856392,-0.6632638389215443
10684,1.0,299.90004,31302.514,0.0,-0.10684018161290554,0.0,0.0,0.0,0.0,-2.0288146658784183,-4.6605536712608355,-2.8258141937611474,0.01117049264094179,-0.0017108369247964585,-0.6997361613060823
10685,1.0,300.01456,31246.587000000003,0.0,-0.10685017760032489,0.0,0.0,0.0,0.0,-2.011476842092308,-4.648802401901076,-2.8379029767292177,0.01136412473505179,0.002066530671700698,-0.6633267718852554
10686,1.0,299.33553,31226.313,0.0,-0.10686017358774413,0.0,0.0,0.0,0.0,-2.041856410565538,-4.652428216058915,-2.7977347030149176,0.008383566479393591,0.004870911586096546,-0.7011380738794403
10687,1.0,299.75947,31485.995,0.0,-0.10687016957516349,0.0,0.0,0.0,0.0,-2.066873454209528,-4.671053272772066,-2.833029345073227,-0.006931438649629733,-0.0008318621504959021,-0.6678042126196444
10688,1.0,300.03463,31398.72,0.0,-0.10688016556258295,0.0,0.0,0.0,0.0,-2.093786288790618,-4.652619922977836,-2.7980207435181472,-0.003032018391136917,0.024746022546992274,-0.6825358963535484
10689,1.0,300.5183,31180.267000000003,0.0,-0.10689016155000208,0.0,0.0,0.0,0.0,-2.0041459776188084,-4.6579187143757865,-2.8159579047384073,0.002956849115243287,0.019496931066447284,-0.6824312580157214
10690,1.0,300.11874,31314.314,0.0,-0.10690015753742155,0.0,0.0,0.0,0.0,-1.9975418161170282,-4.677426615901066,-2.843801206886327,0.006511182227553655,-0.0043389164761177155,-0.6948561157769594
10691,1.0,300.48028999999997,31619.741,0.0,-0.10691015352484068,0.0,0.0,0.0,0.0,-2.0498476101292082,-4.689766887543954,-2.8719972213940577,-0.007496060818128603,-0.011090299975027388,-0.6789055631002624
10692,1.0,300.42216,31564.622000000003,0.0,-0.10692014951225992,0.0,0.0,0.0,0.0,-2.0733456905482877,-4.698518632632686,-2.8229924948826675,-0.006791744898093035,0.0008124606199661201,-0.6816992658784794
10693,1.0,300.41317999999995,31300.865,0.0,-0.10693017848973685,0.0,0.0,0.0,0.0,-2.073082245522288,-4.6517130641383355,-2.789886169065327,-0.006889138497705034,0.008184600839407212,-0.6814714973885003
10694,1.0,299.5706,31323.933999999997,0.0,-0.10694017447715609,0.0,0.0,0.0,0.0,-2.0937789933898983,-4.656872432322525,-2.7710424529805975,-0.0012879430127100788,0.004788321874420576,-0.6488890016078583
10695,1.0,299.66336,31423.435,0.0,-0.10695017046457544,0.0,0.0,0.0,0.0,-2.061258630105388,-4.654559081019215,-2.8361216830534173,-0.003992321816436486,-0.0039460477989445965,-0.6655198605341964
10696,1.0,299.63588,31528.031000000003,0.0,-0.1069601664519948,0.0,0.0,0.0,0.0,-2.034813106470418,-4.674522033164405,-2.8743989281060873,0.002691657955345958,-0.00097942397144412,-0.6844477067747294
10697,1.0,300.07093,31510.377999999997,0.0,-0.10697016243941404,0.0,0.0,0.0,0.0,-2.0423551322647584,-4.6827187198483555,-2.8532942457482173,-0.007974623501309062,-0.007325714427216723,-0.6855364541396803
10698,1.0,299.67001,31273.021,0.0,-0.1069801584268334,0.0,0.0,0.0,0.0,-2.036119692474368,-4.648616369182716,-2.8214812323585177,0.005665252244391864,-0.01983537889134948,-0.6859038180959364
10699,1.0,299.42114,31186.215,0.0,-0.10699015441425264,0.0,0.0,0.0,0.0,-2.036863012747728,-4.658362720569605,-2.7846048055690975,0.005556947866378055,-0.01054735294869269,-0.6888533384745313
10700,1.0,299.76895,31491.581000000002,0.0,-0.10700015040167199,0.0,0.0,0.0,0.0,-2.0769818398571482,-4.684732655747116,-2.810939682293147,0.016342187012598285,-0.001185236537523739,-0.6793363058502734
10701,1.0,299.99901,31551.41,0.0,-0.1070101793791488,0.0,0.0,0.0,0.0,-2.044939933269858,-4.681284565656815,-2.8646162010406075,-0.0005055967835335174,0.007259527208159555,-0.6973607686991493
10702,1.0,300.19588,31304.67,0.0,-0.10702017536656805,0.0,0.0,0.0,0.0,-1.998426079479298,-4.682764417427866,-2.834647505482927,0.00039821735087349256,-0.003244669392273937,-0.6877358350717423
10703,1.0,299.74508,31213.118,0.0,-0.1070301713539874,0.0,0.0,0.0,0.0,-2.018906194475528,-4.658228870231396,-2.810873314411597,1.7430629389269185e-05,0.00044482375492818665,-0.6836399032650053
10704,1.0,299.47934,31547.819,0.0,-0.10704016734140676,0.0,0.0,0.0,0.0,-2.068273664522718,-4.694129435849505,-2.8273459239373175,0.004973578139228945,-0.0017481280748518082,-0.6804432410545193
10705,1.0,299.16902000000005,31586.992000000002,0.0,-0.107050163328826,0.0,0.0,0.0,0.0,-2.091198144060188,-4.692332842097196,-2.8181258546523673,-0.009000034527684251,0.001117015725515869,-0.6877904087221284
10706,1.0,299.45565,31401.971,0.0,-0.10706015931624535,0.0,0.0,0.0,0.0,-2.0802342713531377,-4.6543397123725665,-2.8108410930584173,-0.01892662426091238,-0.009009273342096053,-0.6659508059342274
10707,1.0,300.1903,31364.828999999998,0.0,-0.1070701553036646,0.0,0.0,0.0,0.0,-2.024155741918618,-4.673807286543866,-2.836161807757377,-0.017749541752243383,0.006383033447656354,-0.6915301223237094
10708,1.0,299.66842,31361.542999999998,0.0,-0.10708015129108395,0.0,0.0,0.0,0.0,-2.020489195106758,-4.676995275333495,-2.8356414025060177,0.017380036798526084,0.01097433451433249,-0.6994715611749683
10709,1.0,300.02004,31546.247000000003,0.0,-0.10709018026856076,0.0,0.0,0.0,0.0,-2.043844204611718,-4.689489155691545,-2.8559381192341475,0.005531177369959704,0.008945549536682001,-0.6979984576495843
10710,1.0,300.20378999999997,31685.13,0.0,-0.10710017625598012,0.0,0.0,0.0,0.0,-2.0874934990445677,-4.695857635220066,-2.8481372080392573,0.013096531120026988,-0.009251663740293122,-0.6824374692388343
10711,1.0,300.04902000000004,31425.759,0.0,-0.10711017224339936,0.0,0.0,0.0,0.0,-2.0661406717372084,-4.666666609114136,-2.819838855271427,0.006375888717226223,-0.003033793706637127,-0.6598448696391184
10712,1.0,299.79772,31322.414,0.0,-0.10712016823081871,0.0,0.0,0.0,0.0,-2.049866355256058,-4.676052344790436,-2.7953129339509073,0.02112159350203898,0.008424891682072071,-0.6840788330758244
10713,1.0,299.89552000000003,31646.056,0.0,-0.10713016421823796,0.0,0.0,0.0,0.0,-2.0473082027285883,-4.691571181997026,-2.880731437256057,-0.006296486082414794,4.212652645381446e-05,-0.6646979525830804
10714,1.0,298.73753,31723.537999999997,0.0,-0.10714016020565731,0.0,0.0,0.0,0.0,-2.084897450963358,-4.690215959988276,-2.8680500043044974,-0.0005176508018906566,-0.008705839894274502,-0.6878527641332823
10715,1.0,299.77436,31415.81,0.0,-0.10715015619307644,0.0,0.0,0.0,0.0,-2.026469903822008,-4.691305102520766,-2.8318466795565076,-0.015858170612079586,0.0006071742650609344,-0.6759548065565454
10716,1.0,299.80518,31218.262000000002,0.0,-0.1071601521804959,0.0,0.0,0.0,0.0,-2.041027673308748,-4.651670912934176,-2.796873643079937,0.017733671215927085,-0.003663734434882437,-0.7075033920676483
10717,1.0,299.58239,31478.472,0.0,-0.10717018115797272,0.0,0.0,0.0,0.0,-2.063472986873928,-4.688632351406985,-2.8165641322732373,0.0024928059006957878,-0.0018009622787911383,-0.6608605920693624
10718,1.0,299.70487,31647.015,0.0,-0.10718017714539207,0.0,0.0,0.0,0.0,-2.070044521722488,-4.693493216111715,-2.8563644948762272,0.0018691709317978083,-0.007437814744080163,-0.6938750059701314
10719,1.0,299.75755,31626.905,0.0,-0.1071901731328112,0.0,0.0,0.0,0.0,-2.035121235825828,-4.693430394605516,-2.8852377657507975,-0.015945012225150185,0.012913485462961788,-0.6777627892399795
10720,1.0,299.94441,31491.75,0.0,-0.10720016912023067,0.0,0.0,0.0,0.0,-2.037507237161308,-4.698539201609716,-2.836659313556477,-0.011388826759239688,0.021837457737439277,-0.7206739208424784
10721,1.0,300.4242,31429.482999999997,0.0,-0.1072101651076498,0.0,0.0,0.0,0.0,-2.042626480641538,-4.675836927819176,-2.835314730673777,-0.01020485718964099,0.014960111849698086,-0.6996024933528904
10722,1.0,300.16055,31559.569,0.0,-0.10722016109506927,0.0,0.0,0.0,0.0,-2.0813818784163978,-4.692375803901435,-2.8195632512442272,-0.006611644252443483,-0.014335607309564288,-0.6844362367835973
10723,1.0,300.20603,31705.242000000002,0.0,-0.10723015708248862,0.0,0.0,0.0,0.0,-2.106237308669438,-4.696455554104075,-2.8349089240087273,-0.012552380352573488,-0.01807184647655238,-0.6657012424345973
10724,1.0,300.17097,31441.841,0.0,-0.10724015306990786,0.0,0.0,0.0,0.0,-2.0522482022661284,-4.662110631364495,-2.843175930249618,0.0025908093755429777,-0.026280390213172574,-0.6649183243473293
10725,1.0,300.03992999999997,31292.901,0.0,-0.10725018204738479,0.0,0.0,0.0,0.0,-2.007088455909208,-4.680227137852455,-2.8249448251753475,-0.008479817538192831,-0.023044447336059877,-0.6822705970798654
10726,1.0,299.95603,31552.751,0.0,-0.10726017803480403,0.0,0.0,0.0,0.0,-2.070910242607928,-4.6761597493010365,-2.8441785412235676,0.02037055226291698,-0.01960086215570448,-0.6676853989129183
10727,1.0,299.99942000000004,31864.212000000003,0.0,-0.10727017402222316,0.0,0.0,0.0,0.0,-2.100543045757458,-4.717702294125965,-2.8676795600679372,0.0015273911352667684,-0.0026075145259666474,-0.7057593353330233
10728,1.0,299.90452999999997,31710.93,0.0,-0.10728017000964263,0.0,0.0,0.0,0.0,-2.1005275430309283,-4.704617283659576,-2.8341861727123976,-0.002099747239128918,0.016394359260247286,-0.6852637986702714
10729,1.0,300.35805,31448.86,0.0,-0.10729016599706176,0.0,0.0,0.0,0.0,-2.053121725177338,-4.674802703442105,-2.831743632021337,-0.01869872911467088,0.0027301515292949773,-0.6799000275434084
10730,1.0,300.44377000000003,31528.856,0.0,-0.10730016198448111,0.0,0.0,0.0,0.0,-2.029609560581868,-4.699021306007296,-2.8553541832015177,-0.01836204535819278,0.004636096954922146,-0.6605382670800514
10731,1.0,300.28075,31594.62,0.0,-0.10731015797190058,0.0,0.0,0.0,0.0,-2.042258366880208,-4.690701306786175,-2.8710159899972174,-0.008126046433353342,0.004763300777776186,-0.7083653639277183
10732,1.0,300.42598,31663.185,0.0,-0.10732015395931971,0.0,0.0,0.0,0.0,-2.076513009035878,-4.698429973248936,-2.8498746279857268,0.0065708603279684245,-0.0005507037395602274,-0.6816255418012034
10733,1.0,300.69782000000004,31459.743,0.0,-0.10733014994673917,0.0,0.0,0.0,0.0,-2.064379136438358,-4.688362016280305,-2.8102349668485975,0.004768403707929806,0.002209546059715218,-0.7244604060686752
10734,1.0,299.78081000000003,31288.881,0.0,-0.10734017892421588,0.0,0.0,0.0,0.0,-2.048855840931328,-4.677162056299956,-2.7850206434101374,0.018538480571605585,-0.015196286262506686,-0.6633125965163563
10735,1.0,299.60118,31585.731,0.0,-0.10735017491163512,0.0,0.0,0.0,0.0,-2.0649975229743878,-4.714157033351076,-2.8221190732964674,0.027549613632935177,-0.005052257414793986,-0.6905697537464284
10736,1.0,299.77711,31917.987,0.0,-0.10736017089905447,0.0,0.0,0.0,0.0,-2.072738753738388,-4.733784802363186,-2.8957473984380178,0.00982136026529279,-0.018316220109170184,-0.6630617563216004
10737,1.0,299.62732,31618.805,0.0,-0.10737016688647372,0.0,0.0,0.0,0.0,-2.049407352960758,-4.707334820427775,-2.8545850250506075,-0.004524876747095566,-0.010837595400087389,-0.6907928612859473
10738,1.0,300.35983999999996,31423.898999999998,0.0,-0.10738016287389307,0.0,0.0,0.0,0.0,-2.033691539934728,-4.691878804727386,-2.8265104992298675,-0.014075092602853487,-0.003216337602252807,-0.6822376664516154
10739,1.0,300.18756,31630.83,0.0,-0.10739015886131253,0.0,0.0,0.0,0.0,-2.077267272410318,-4.710634976003475,-2.8270803510861073,0.001016268166747859,0.01863635850476538,-0.7273503574738913
10740,1.0,300.35828,31808.474,0.0,-0.10740015484873167,0.0,0.0,0.0,0.0,-2.122625413136818,-4.706261383271836,-2.8400950419955575,-0.003881924975641166,0.024973498207692374,-0.6755934511733824
10741,1.0,300.3944,31668.847999999998,0.0,-0.10741015083615102,0.0,0.0,0.0,0.0,-2.0753793848239983,-4.696297183113446,-2.8548624529279873,-0.003142801786845387,0.014542794663512089,-0.6890245270789264
10742,1.0,300.1257,31464.23,0.0,-0.10742017981362784,0.0,0.0,0.0,0.0,-2.039616317244458,-4.663210514348045,-2.8615132239343675,-0.002930959967238227,-8.312636236618321e-07,-0.6432697597332824
10743,1.0,299.79247999999995,31405.96,0.0,-0.10743017580104708,0.0,0.0,0.0,0.0,-2.0171592499781177,-4.683725586472725,-2.845742796727947,0.011664539204200387,-0.006047415326308425,-0.6858562561362423
10744,1.0,299.99372,31752.703999999998,0.0,-0.10744017178846643,0.0,0.0,0.0,0.0,-2.0907216125381582,-4.706728390242925,-2.8545792495250373,0.007851675227550012,-0.014277030308033187,-0.6839817738487454
10745,1.0,299.74024,32083.072999999997,0.0,-0.10745016777588579,0.0,0.0,0.0,0.0,-2.140888638239258,-4.739922463518925,-2.8716419759089975,0.01111170184363959,-0.009333955252464662,-0.7050562309561323
10746,1.0,299.59295,31804.981,0.0,-0.10746016376330525,0.0,0.0,0.0,0.0,-2.135942457876108,-4.706609839981225,-2.825367755767087,-0.010590344137185589,0.00937938736044846,-0.6684331369567144
10747,1.0,299.93843,31374.496,0.0,-0.10747015975072438,0.0,0.0,0.0,0.0,-2.022661704646168,-4.701578749259696,-2.8128230102540175,-0.007801813392779033,0.004477217920692006,-0.6831815089197654
10748,1.0,299.49565,31435.245,0.0,-0.10748015573814362,0.0,0.0,0.0,0.0,-2.010021004348628,-4.700321913835656,-2.845186623748057,-0.02116811485388028,-0.017705126947359984,-0.6704403448748104
10749,1.0,300.40574,31734.708,0.0,-0.10749015172556298,0.0,0.0,0.0,0.0,-2.056062278292548,-4.713749301510836,-2.876747236537847,-0.005682451050264254,-0.018779866129678482,-0.6750866842683684
10750,1.0,299.82793,31706.994,0.0,-0.1075001807030398,0.0,0.0,0.0,0.0,-2.061348910689298,-4.718482496702966,-2.858302842317527,0.0019461739877224182,-0.005199240082250045,-0.6935305718636384
10751,1.0,300.74906,31476.705,0.0,-0.10751017669045904,0.0,0.0,0.0,0.0,-2.0491165501820583,-4.708522552194996,-2.8104932442990873,0.008558717803604681,0.007052126666390712,-0.7038406550761643
10752,1.0,300.47118,31464.66,0.0,-0.10752017267787839,0.0,0.0,0.0,0.0,-2.0694496425887783,-4.696619700620276,-2.7984017255557476,-0.01029705585599029,0.0037105641187291662,-0.6954704999750944
10753,1.0,300.64511,31726.06,0.0,-0.10753016866529774,0.0,0.0,0.0,0.0,-2.067041349751098,-4.711685513707155,-2.8652031768235373,-0.010805042714124689,0.015619640392788486,-0.6674328361929923
10754,1.0,299.84737,31809.895,0.0,-0.1075401646527171,0.0,0.0,0.0,0.0,-2.0735805619214682,-4.711144539478766,-2.884688584196597,-0.019385770437726584,0.02170677076604148,-0.6825896796688563
10755,1.0,300.12636000000003,31725.822,0.0,-0.10755016064013634,0.0,0.0,0.0,0.0,-2.0555111715631584,-4.714935513402906,-2.873411009258587,0.0007321174560143673,-0.008578140186821523,-0.6737909805704924
10756,1.0,300.35729,31476.177000000003,0.0,-0.10756015662755558,0.0,0.0,0.0,0.0,-2.050857111203838,-4.700348460988276,-2.8167662756681873,0.008941131462270971,-0.005918246710185474,-0.7033702739822413
10757,1.0,299.89914,31597.627999999997,0.0,-0.10757015261497493,0.0,0.0,0.0,0.0,-2.075461356757088,-4.719612473214486,-2.8098161905822674,0.027148108214559673,-0.019248586506687582,-0.6934883902619754
10758,1.0,299.69442000000004,31929.662999999997,0.0,-0.10758018159245175,0.0,0.0,0.0,0.0,-2.1340767604669777,-4.719800633758055,-2.8519428740898474,0.021453593003304777,-0.00019824206795746878,-0.6931463170282154
10759,1.0,299.78702999999996,31873.98,0.0,-0.10759017757987088,0.0,0.0,0.0,0.0,-2.089714137963728,-4.722831163482145,-2.876348826598527,0.0014349726949707785,-0.0051762385957049755,-0.6821284482233364
10760,1.0,300.51526,31441.392000000003,0.0,-0.10760017356729035,0.0,0.0,0.0,0.0,-2.030573668052018,-4.692261205315125,-2.8345633043996177,-0.01005672245682123,0.0005116512973860516,-0.6799548545063193
10761,1.0,300.2229,31455.299,0.0,-0.1076101695547097,0.0,0.0,0.0,0.0,-2.020382702521248,-4.697237073906205,-2.8440056807565073,-0.007908280343061503,-0.0005992327755471704,-0.6749488315922633
10762,1.0,300.1366,31872.963,0.0,-0.10762016554212905,0.0,0.0,0.0,0.0,-2.094314192092718,-4.726435699387886,-2.867834992633277,-0.002165866165129348,0.014914771947473385,-0.6733686883263154
10763,1.0,300.38532999999995,31962.58,0.0,-0.1076301615295483,0.0,0.0,0.0,0.0,-2.131331865946078,-4.737894747418805,-2.846599803662527,0.010188268259003791,0.004301642044689016,-0.6968278194115514
10764,1.0,301.76419,31684.685,0.0,-0.10764015751696743,0.0,0.0,0.0,0.0,-2.088169336861268,-4.7175755365384555,-2.8256082000158176,-0.013762868703789385,0.013239892836925686,-0.6860572140285753
10765,1.0,300.71137999999996,31398.07,0.0,-0.10765015350438689,0.0,0.0,0.0,0.0,-2.023219904126258,-4.697327557140135,-2.8236819102507074,0.006900214131898113,0.005944903091166255,-0.6914253927933733
10766,1.0,299.64283,31615.237999999998,0.0,-0.10766018248186371,0.0,0.0,0.0,0.0,-2.0332612126172585,-4.726058669025676,-2.8509229365391873,0.0063151415366309435,0.01174252298489679,-0.6926068322774723
10767,1.0,299.63464,32014.487,0.0,-0.10767017846928284,0.0,0.0,0.0,0.0,-2.072672791156878,-4.763917036487005,-2.895014717290707,0.011949424602316388,-0.003737284638441277,-0.7129380501715074
10768,1.0,299.41089,31969.109,0.0,-0.10768017445670242,0.0,0.0,0.0,0.0,-2.086725556793778,-4.761031908152265,-2.870053503727227,-0.0008029213667671692,-0.014826966733557686,-0.6866763605021804
10769,1.0,300.43469,31429.914,0.0,-0.10769017044412166,0.0,0.0,0.0,0.0,-2.047884336735448,-4.705345303856425,-2.8006793091305275,0.004842509577843485,-0.018298264304148083,-0.7034506348476723
10770,1.0,300.27421,31401.221,0.0,-0.10770016643154101,0.0,0.0,0.0,0.0,-2.036233480460598,-4.710196745335225,-2.7987566670657773,-0.008721457422040831,-0.008174422944802733,-0.6808316907453564
10771,1.0,299.11031,31902.714,0.0,-0.10771016241896025,0.0,0.0,0.0,0.0,-2.080205495050298,-4.725063556102466,-2.8923594954036576,-0.006488886165728203,-0.009572315752364011,-0.6901248558925203
10772,1.0,299.21789,32153.666,0.0,-0.10772015840637938,0.0,0.0,0.0,0.0,-2.119964314399188,-4.738190616448006,-2.9157564534627576,-0.007772703730656133,0.009658526617247361,-0.6520939623366634
10773,1.0,299.59004,31725.903,0.0,-0.10773015439379885,0.0,0.0,0.0,0.0,-2.0592320285803782,-4.714801764389705,-2.8698484219069873,-0.003251351168733377,0.013143017008114787,-0.6863715444745974
10774,1.0,300.01543,31529.477000000003,0.0,-0.10774018337127556,0.0,0.0,0.0,0.0,-2.0617582637296983,-4.695279069412965,-2.8271364851416476,0.005473008505568885,0.015280865288103984,-0.6603370356101913
10775,1.0,300.84577,31853.98,0.0,-0.10775017935869502,0.0,0.0,0.0,0.0,-2.112183566881288,-4.712947618031715,-2.857683442531397,0.013511356724217088,-0.016416320442914686,-0.6806749308223853
10776,1.0,300.5346,32082.123,0.0,-0.10776017534611437,0.0,0.0,0.0,0.0,-2.118220105677048,-4.735506922233146,-2.898437273478487,-0.015683827760123285,-0.02178434012744698,-0.6709090135760644
10777,1.0,300.03192,31843.269,0.0,-0.10777017133353362,0.0,0.0,0.0,0.0,-2.076162525826288,-4.723305263203936,-2.8800907592178273,-0.022862969176899377,-0.02085112665284598,-0.6839766670682413
10778,1.0,300.59352,31555.345,0.0,-0.10778016732095297,0.0,0.0,0.0,0.0,-2.030775406146928,-4.712064975869605,-2.8491964596937973,-0.028782069246319073,0.001129672536489999,-0.6894343968768774
10779,1.0,300.22648,31523.193,0.0,-0.1077901633083721,0.0,0.0,0.0,0.0,-2.031221337515938,-4.715386814997446,-2.8356553853573976,-0.006703599130818724,0.011152060608372689,-0.6996480186798834
10780,1.0,300.28547000000003,31914.802000000003,0.0,-0.10780015929579134,0.0,0.0,0.0,0.0,-2.111336185822658,-4.7277388403414955,-2.8622279705549074,-0.007963197282581382,0.004103509802909886,-0.6832963709511014
10781,1.0,299.67174,32012.932999999997,0.0,-0.10781015528321092,0.0,0.0,0.0,0.0,-2.118264587356438,-4.738434809722105,-2.874433074634457,0.009089416460080562,-0.003098806974128437,-0.6733618590206414
10782,1.0,299.86679,31591.752999999997,0.0,-0.10782015127063016,0.0,0.0,0.0,0.0,-2.0374398560296583,-4.730346743448876,-2.835317365124037,-0.015621997212521084,0.006642352113949114,-0.6990833040016503
10783,1.0,299.93807000000004,31535.259,0.0,-0.10783018024810687,0.0,0.0,0.0,0.0,-2.021491299455658,-4.724620360508726,-2.8398197419433875,-0.007384728747490982,-0.013565663889826787,-0.6906189369062824
10784,1.0,300.43096,32004.863999999998,0.0,-0.10784017623552633,0.0,0.0,0.0,0.0,-2.097220294704528,-4.741661302015536,-2.889797897825847,0.0022513594462918777,0.002215450369372928,-0.6948245530363444
10785,1.0,299.97316,32123.873,0.0,-0.10785017222294546,0.0,0.0,0.0,0.0,-2.104283255851588,-4.764865742555636,-2.895706260483957,-0.007737615892943232,0.01957401609430498,-0.6953230416880413
10786,1.0,300.10694,31701.091,0.0,-0.10786016821036493,0.0,0.0,0.0,0.0,-2.081754855778208,-4.722884257787386,-2.831700974192127,0.005933668478032485,0.027208396595509676,-0.7036695070017733
10787,1.0,300.47654,31644.494,0.0,-0.10787016419778406,0.0,0.0,0.0,0.0,-2.045228000273288,-4.723231701246675,-2.8506764127898574,-0.008461830930367693,0.007127748561104014,-0.6909769789616184
10788,1.0,300.03695,31838.057,0.0,-0.10788016018520352,0.0,0.0,0.0,0.0,-2.076737747908058,-4.7271584506842155,-2.874078234449437,0.002274760862651418,-0.0025621240625619576,-0.6841771993955323
10789,1.0,300.00973999999997,32032.411,0.0,-0.10789015617262288,0.0,0.0,0.0,0.0,-2.0852409427472582,-4.741581863207696,-2.9102301874173575,0.014357669817241688,-0.021772214563500276,-0.6796237142411384
10790,1.0,300.34727999999996,31953.56,0.0,-0.107900152160042,0.0,0.0,0.0,0.0,-2.092839406572168,-4.736226228479136,-2.8840185219054675,0.014708577578623587,-0.0025810670771564876,-0.6970258895410993
10791,1.0,299.66424,31670.289,0.0,-0.10791018113751882,0.0,0.0,0.0,0.0,-2.068834295803048,-4.712703728732645,-2.8454390243479675,-0.0015412890762883885,-0.013414766631934387,-0.6869725537714124
10792,1.0,299.69342,31657.492000000002,0.0,-0.10792017712493818,0.0,0.0,0.0,0.0,-2.099294924284278,-4.7133376179952045,-2.8104545381452675,-0.007008677995477664,-0.003844480216870656,-0.6926967987538513
10793,1.0,299.9271,32047.636000000002,0.0,-0.10793017311235742,0.0,0.0,0.0,0.0,-2.108916240608828,-4.749253888989865,-2.883510782280357,-0.0005256046530556405,0.00891608158932374,-0.6787689567217804
10794,1.0,299.5733,32143.997000000003,0.0,-0.10794016909977677,0.0,0.0,0.0,0.0,-2.1136936135053177,-4.751261644063016,-2.9060172961515773,0.0056890121486367845,0.006361550417711144,-0.6977225800448573
10795,1.0,299.23644,31851.505,0.0,-0.10795016508719602,0.0,0.0,0.0,0.0,-2.043275771305618,-4.7493766949019856,-2.8894098230375476,-0.006508868065650264,-0.010073991987550601,-0.6865208063468283
10796,1.0,300.26758,31686.416,0.0,-0.10796016107461537,0.0,0.0,0.0,0.0,-2.053310797645998,-4.726594273028536,-2.851974183517937,0.0032021384219764575,-0.017246613038608184,-0.7049064219288473
10797,1.0,300.21257,31901.045,0.0,-0.10797015706203483,0.0,0.0,0.0,0.0,-2.0996127808406477,-4.728777826994036,-2.8687306043966676,0.016070587349793487,0.006029957027085425,-0.6813137546129324
10798,1.0,300.94608999999997,32046.218999999997,0.0,-0.10798015304945396,0.0,0.0,0.0,0.0,-2.122314649331148,-4.750329352646005,-2.8686064812594174,0.028395072556125472,0.014846541712239588,-0.7060979331189404
10799,1.0,300.19862,31778.798,0.0,-0.10799018202693078,0.0,0.0,0.0,0.0,-2.059091592116518,-4.728092667276416,-2.872776816020997,-0.003806164569639197,-0.0027839287651023775,-0.6807093002657774
10800,1.0,299.93766,31656.738999999998,0.0,-0.10800017801435013,0.0,0.0,0.0,0.0,-2.034624135326768,-4.727439019636906,-2.860795133588497,-0.01965036347608988,-0.014026400869297987,-0.6822295097883104
10801,1.0,299.51616,31772.744,0.0,-0.10801017400176938,0.0,0.0,0.0,0.0,-2.0476233235096877,-4.726456471014936,-2.8840410160576875,-0.017525864766168183,-0.006227729970379094,-0.6823197599747174
10802,1.0,299.87215,31985.037999999997,0.0,-0.10802016998918873,0.0,0.0,0.0,0.0,-2.081311558859458,-4.759510715777136,-2.8818307122895472,-0.006376122068724254,0.0015183004580195884,-0.6938582265484754
10803,1.0,299.98401,32101.014,0.0,-0.10803016597660797,0.0,0.0,0.0,0.0,-2.118313324686248,-4.773773122859725,-2.8658200434844177,0.0030675733371459167,-0.003662657957976197,-0.6994850272687974
10804,1.0,299.31804,31903.37,0.0,-0.10804016196402733,0.0,0.0,0.0,0.0,-2.112051945693298,-4.732666174252786,-2.8531097329050072,0.0007434999124702284,-0.007865114875551403,-0.6903900031786884
10805,1.0,299.08176000000003,31769.029,0.0,-0.10805015795144668,0.0,0.0,0.0,0.0,-2.0651704847664583,-4.744311153677056,-2.8475100062273575,-0.00035923434672866964,0.012400468831330988,-0.7010990029555844
10806,1.0,299.41278,31886.612,0.0,-0.10806015393886592,0.0,0.0,0.0,0.0,-2.0722764077177582,-4.734289907538036,-2.8861676253675674,0.012444559396182386,0.004459186121912406,-0.6792477984540384
10807,1.0,299.26234,31974.471,0.0,-0.10807018291634274,0.0,0.0,0.0,0.0,-2.0702461584923877,-4.7296447637795955,-2.9195497578621272,0.015720910687283086,-0.0004713407734902126,-0.6821664653670884
10808,1.0,299.5789,31920.855,0.0,-0.10808017890376209,0.0,0.0,0.0,0.0,-2.070350219277658,-4.752462548081536,-2.8803300888914474,-0.003104655352380627,-0.0036796610039292665,-0.6745069329586514
10809,1.0,300.03727000000003,31861.395,0.0,-0.10809017489118133,0.0,0.0,0.0,0.0,-2.099572149511638,-4.717337422764955,-2.8681591313402675,-0.0013570714941575288,0.008124251967426242,-0.6869071687424594
10810,1.0,299.8347,31977.714,0.0,-0.10810017087860069,0.0,0.0,0.0,0.0,-2.116760721558018,-4.749528074466926,-2.854137877781477,-0.0008699562201954942,0.015243030529369987,-0.6734838948626853
10811,1.0,300.51786,32050.411,0.0,-0.10811016686602004,0.0,0.0,0.0,0.0,-2.095444877879308,-4.763426218138566,-2.883653650544457,-0.019915780286784483,0.02148858660875838,-0.6864246185148353
10812,1.0,300.13555,32096.529,0.0,-0.10812016285343928,0.0,0.0,0.0,0.0,-2.086555736077018,-4.7649593668648755,-2.9050281614039575,-0.005936410130153064,0.005746605385645795,-0.6762877504069044
10813,1.0,299.75329,32024.063,0.0,-0.10813015884085864,0.0,0.0,0.0,0.0,-2.072762362465718,-4.772596536843605,-2.8891567131625675,-0.01869809988635878,0.016698196488233685,-0.6973437866274733
10814,1.0,299.92099,31825.856,0.0,-0.10814015482827788,0.0,0.0,0.0,0.0,-2.061633836617418,-4.7484104596066254,-2.864221134826617,0.011629859706277789,0.0023331534526643176,-0.6929100271048954
10815,1.0,299.3522,31754.902000000002,0.0,-0.1081501838057547,0.0,0.0,0.0,0.0,-2.086843397780408,-4.740278012979016,-2.8255759786626373,0.01122673815399279,-0.011803141685379388,-0.6958012248077343
10816,1.0,299.93526,32023.58,0.0,-0.10816017979317405,0.0,0.0,0.0,0.0,-2.106765515946568,-4.766334245925566,-2.8612690306602673,0.016634606938457884,-0.018353998125898583,-0.6999224777344704
10817,1.0,299.88762,32039.486,0.0,-0.10817017578059318,0.0,0.0,0.0,0.0,-2.101502390952138,-4.746694723212296,-2.8910064012201175,-0.014031548179805987,-0.0022010505655767777,-0.6971834094016454
10818,1.0,300.06327999999996,31810.532000000003,0.0,-0.10818017176801265,0.0,0.0,0.0,0.0,-2.055324226919708,-4.739531348980325,-2.874751944440927,-0.0013473134903944886,-0.0015717075535654583,-0.6963238490768133
10819,1.0,300.74692999999996,31928.732000000004,0.0,-0.108190167755432,0.0,0.0,0.0,0.0,-2.063223423374298,-4.746612143329146,-2.8957017008585075,-0.00802095193033132,-0.0016055126166517584,-0.6774286092244983
10820,1.0,301.07912999999996,32161.385,0.0,-0.10820016374285124,0.0,0.0,0.0,0.0,-2.1074924215683084,-4.767770527942316,-2.900995122030927,0.00976360278044257,-0.027133009774819576,-0.6907485214615713
10821,1.0,300.37731,32217.741,0.0,-0.1082101597302706,0.0,0.0,0.0,0.0,-2.126559559300088,-4.790210369956955,-2.876618857750177,0.011090598883806889,-0.017154919984058783,-0.6922076320030743
10822,1.0,300.76074,32118.674,0.0,-0.10822015571768984,0.0,0.0,0.0,0.0,-2.125933370738288,-4.765502975543525,-2.871838546428397,0.005352255640801505,-0.016216992869992584,-0.7010031292311223
10823,1.0,299.94916,31874.313,0.0,-0.10823015170510919,0.0,0.0,0.0,0.0,-2.0737234301855683,-4.758465750949005,-2.8568059679447972,-0.006904218293643294,0.001687418181860208,-0.6820584529064283
10824,1.0,299.88605,31782.54,0.0,-0.108240180682586,0.0,0.0,0.0,0.0,-2.065598177633668,-4.747510997492855,-2.847989577499687,-0.004205583402083766,0.003428268385218747,-0.6908556118646404
10825,1.0,300.40903,32034.892999999996,0.0,-0.10825017667000514,0.0,0.0,0.0,0.0,-2.083268651427608,-4.753948175378155,-2.9005906325910074,-0.007626393759941462,0.029843829708106676,-0.6890388139053364
10826,1.0,300.09407999999996,32072.988999999998,0.0,-0.1082601726574246,0.0,0.0,0.0,0.0,-2.106483427118728,-4.772401080899315,-2.870503184121607,0.004895670656265075,0.01818156119738038,-0.6880622941214614
10827,1.0,300.14065,31831.632999999998,0.0,-0.10827016864484396,0.0,0.0,0.0,0.0,-2.087252750820808,-4.736673781048306,-2.8520950642548675,-0.007126358077991784,-0.01000849995938704,-0.6907261995618683
10828,1.0,300.09247999999997,31913.266,0.0,-0.10828016463226309,0.0,0.0,0.0,0.0,-2.084404504789708,-4.764410793260735,-2.8520205903725175,0.008607860129479653,-0.02314187943917568,-0.7028407089499773
10829,1.0,299.62665,32166.202,0.0,-0.10829016061968255,0.0,0.0,0.0,0.0,-2.098627496443408,-4.778796918180536,-2.900297701987097,0.007869722427731133,-0.0003962017025820636,-0.7153163913362314
10830,1.0,299.21057,32162.72,0.0,-0.10830015660710168,0.0,0.0,0.0,0.0,-2.097698548751728,-4.7723065446649855,-2.906658582139867,0.02206673293031698,0.009383851436414032,-0.6990809127314143
10831,1.0,299.53814,31933.41,0.0,-0.10831015259452115,0.0,0.0,0.0,0.0,-2.051973611489028,-4.770164229978556,-2.884821421284707,-0.010046344749297031,0.0036103329122121166,-0.6880048732382943
10832,1.0,299.37559,31877.713,0.0,-0.10832018157199785,0.0,0.0,0.0,0.0,-2.0757266256332683,-4.7471726732844655,-2.867129365263637,-0.0012539102723263089,-0.008817491746643681,-0.6798048833590183
10833,1.0,299.40349,32034.255,0.0,-0.1083301775594171,0.0,0.0,0.0,0.0,-2.099241222028978,-4.768939717232705,-2.8694325840659474,-0.016027268881518283,0.0015245325540846485,-0.6795805903168823
10834,1.0,299.82256,32080.481,0.0,-0.10834017354683667,0.0,0.0,0.0,0.0,-2.089378650855618,-4.773995632581686,-2.8882908909521174,-0.011566836563307889,-0.0054589199722034545,-0.6891784904316213
10835,1.0,300.19077000000004,32090.952999999998,0.0,-0.10835016953425591,0.0,0.0,0.0,0.0,-2.097893700720988,-4.766931658184526,-2.8900231433230767,-0.024646238690394378,-0.018241528378048683,-0.6772005671569924
10836,1.0,300.707,32007.444,0.0,-0.10836016552167504,0.0,0.0,0.0,0.0,-2.084474824346648,-4.752408440526196,-2.8925803839254574,-0.01088114691588559,-0.0055108726485557855,-0.6821590787738593
10837,1.0,300.51965,31941.17,0.0,-0.10837016150909451,0.0,0.0,0.0,0.0,-2.076625378471968,-4.774272553834016,-2.858420176679107,0.004909161574721526,0.03144964163883797,-0.7051488420152723
10838,1.0,300.27592000000004,32113.42,0.0,-0.10838015749651364,0.0,0.0,0.0,0.0,-2.1112975809938477,-4.771179810553786,-2.8792005176799678,0.014292374967547587,0.02151388847700548,-0.6939272896752914
10839,1.0,299.52482000000003,32183.459,0.0,-0.108390153483933,0.0,0.0,0.0,0.0,-2.120573379034298,-4.789467860283675,-2.8729264730607675,-0.004438670340512656,-0.0018447783541904485,-0.7022115211678813
10840,1.0,299.89644,32054.127,0.0,-0.10840018246140981,0.0,0.0,0.0,0.0,-2.0899032104323876,-4.770774510513785,-2.882976495502627,0.014422344557874589,-0.015775225958893586,-0.6832716679136633
10841,1.0,300.07523,31937.351000000002,0.0,-0.10841017844882916,0.0,0.0,0.0,0.0,-2.082556539257328,-4.755986631929336,-2.8696141584838677,0.004933958844418825,0.0008259603030359353,-0.7083611488073024
10842,1.0,299.59069,32050.705,0.0,-0.10842017443624863,0.0,0.0,0.0,0.0,-2.075178659979188,-4.763751775395695,-2.903683578521257,0.001053673915389519,0.0007946309240514663,-0.6585343420922793
10843,1.0,299.86569,32152.515,0.0,-0.10843017042366776,0.0,0.0,0.0,0.0,-2.0878059853754083,-4.773960270153196,-2.9117955574968475,-0.013554545496479487,-0.0057363634536349946,-0.6844859670985053
10844,1.0,300.23082,32160.702,0.0,-0.108440166411087,0.0,0.0,0.0,0.0,-2.114140051499378,-4.777611922188586,-2.8842985842331075,-0.014066044279460488,0.0017843330207999583,-0.6674360076658054
10845,1.0,300.43854,32143.226000000002,0.0,-0.10845016239850636,0.0,0.0,0.0,0.0,-2.112945936256528,-4.784067237250675,-2.8737247114895474,-0.0033181622458771168,0.015327301526936885,-0.7100190792834273
10846,1.0,300.40469,31996.417,0.0,-0.1084601583859256,0.0,0.0,0.0,0.0,-2.070485994791058,-4.780645491662975,-2.874980432338477,0.006103781821421364,-0.005888869246061145,-0.6814408465729753
10847,1.0,300.5595,31975.439,0.0,-0.10847015437334517,0.0,0.0,0.0,0.0,-2.073144864378468,-4.7853562940278955,-2.861233769556787,0.014895567818328086,-0.022197896129261777,-0.7127151655470103
10848,1.0,300.15172,32262.171000000002,0.0,-0.10848018335082177,0.0,0.0,0.0,0.0,-2.095072711117578,-4.793569800663505,-2.9182516831590175,0.013078170014964885,-0.01992811052725138,-0.6893915870601524
10849,1.0,299.97065,32190.243,0.0,-0.10849017933824112,0.0,0.0,0.0,0.0,-2.113661392152138,-4.782810604476655,-2.8885581863284973,0.010043101335726931,-0.0013050359339470189,-0.7081542735343853
10850,1.0,299.40452999999997,31927.281000000003,0.0,-0.10850017532566059,0.0,0.0,0.0,0.0,-2.090997013915338,-4.7704985011865455,-2.8436008873415575,-0.01070193742369899,-0.0030098514173742073,-0.6970910009925253
10851,1.0,299.88607,32057.933999999997,0.0,-0.10851017131307972,0.0,0.0,0.0,0.0,-2.105119491159118,-4.760043482679715,-2.879648475549177,0.005972214234361654,-0.008617277478559072,-0.6883946806842653
10852,1.0,299.78018,32343.639,0.0,-0.10852016730049896,0.0,0.0,0.0,0.0,-2.133517142436748,-4.784544174072746,-2.913597217499657,0.0026222584294967573,0.005338345034153635,-0.6754044394997283
10853,1.0,300.47207000000003,32254.591,0.0,-0.10853016328791831,0.0,0.0,0.0,0.0,-2.114215741281848,-4.773642818896866,-2.9167317066840073,0.02864008453630627,0.01031999077200379,-0.6784355366438743
10854,1.0,300.26214,31976.043999999998,0.0,-0.10854015927533767,0.0,0.0,0.0,0.0,-2.057625419221818,-4.763293077075425,-2.8990004378840677,0.0010348941353860992,0.015426907051517186,-0.6808506891847314
10855,1.0,300.03135,32033.963,0.0,-0.10855015526275713,0.0,0.0,0.0,0.0,-2.086252672972108,-4.787314095871116,-2.8639580951006574,-0.01042843893020679,0.0016393941801206085,-0.6791343448403414
10856,1.0,299.85008,32288.342999999997,0.0,-0.10856018424023373,0.0,0.0,0.0,0.0,-2.132409254777408,-4.795462653175315,-2.8869782254475673,-0.012125311647425089,0.00948753377277168,-0.7011895064545163
10857,1.0,299.83262,32337.267999999996,0.0,-0.10857018022765308,0.0,0.0,0.0,0.0,-2.137507625305578,-4.8175744048075755,-2.874639980304877,-0.003187848454491147,0.022733971293418278,-0.7147588808662093
10858,1.0,299.10795,32074.049,0.0,-0.10858017621507243,0.0,0.0,0.0,0.0,-2.094531838214198,-4.780966489294655,-2.874211476837587,-0.017402972727789682,0.008909481886122401,-0.6940969077420314
10859,1.0,299.3538,31916.642999999996,0.0,-0.10859017220249167,0.0,0.0,0.0,0.0,-2.045735030623328,-4.768084331498286,-2.8880430499776573,0.0008180988704125722,-0.016069696702955584,-0.6837622937445843
10860,1.0,299.43271,32112.622000000003,0.0,-0.10860016818991092,0.0,0.0,0.0,0.0,-2.069053968424728,-4.778471563573426,-2.913909501180477,0.0007452653082519593,-0.010895894771091092,-0.6947865054950894
10861,1.0,300.13696,32454.298,0.0,-0.10861016417733027,0.0,0.0,0.0,0.0,-2.144745574744908,-4.792009496834516,-2.928541339249527,0.021087037620628583,-0.005653536945410655,-0.6853485367761344
10862,1.0,300.19837,32273.862,0.0,-0.10862016016474962,0.0,0.0,0.0,0.0,-2.136275310533958,-4.771918875176725,-2.9022539839551675,0.005150299494469985,0.013908380537400287,-0.6999995556695774
10863,1.0,299.9893,31948.417999999998,0.0,-0.10863015615216898,0.0,0.0,0.0,0.0,-2.093594683196708,-4.778499630601195,-2.8394268035546073,-0.014759536965902886,-0.004141452675429556,-0.7087533475235093
10864,1.0,299.68607000000003,32044.935,0.0,-0.10864015213958822,0.0,0.0,0.0,0.0,-2.076809283365118,-4.774263231933095,-2.889787562674827,-0.018007571969708983,-0.005305016198614335,-0.7055206642719684
10865,1.0,299.50154,32374.624,0.0,-0.10865018111706504,0.0,0.0,0.0,0.0,-2.113728064008718,-4.8132983880605655,-2.914050950894437,0.003084546593546047,0.00017748524449142983,-0.6962525770647794
10866,1.0,299.69751,32271.767000000003,0.0,-0.10866017710448439,0.0,0.0,0.0,0.0,-2.0809035230441877,-4.805367780852875,-2.923539835430917,0.012188978204208488,0.015346369880568787,-0.6875057158415313
10867,1.0,300.59754,32008.889,0.0,-0.10867017309190363,0.0,0.0,0.0,0.0,-2.095318424266828,-4.773640589746646,-2.8609440813531974,-0.005281522475170685,-0.015736404294562186,-0.6794879589927403
10868,1.0,299.97085,32154.461,0.0,-0.10868016907932276,0.0,0.0,0.0,0.0,-2.085981932545388,-4.808225348784895,-2.879946067103547,0.006495578885288724,0.0007881748287867993,-0.7131610969160204
10869,1.0,299.8667,32413.964,0.0,-0.10869016506674223,0.0,0.0,0.0,0.0,-2.1530329473128083,-4.7919583277044655,-2.9080443029766267,0.01203696637120609,0.0021149112361504878,-0.6937354712988603
10870,1.0,300.04375,32512.034,0.0,-0.10870016105416158,0.0,0.0,0.0,0.0,-2.115712007704518,-4.816617896713176,-2.9505166060933172,0.008271154385474383,0.017320996741699284,-0.6904237950695233
10871,1.0,300.07569,32300.522999999997,0.0,-0.10871015704158093,0.0,0.0,0.0,0.0,-2.104422780390358,-4.798104094861005,-2.9160253700392973,-0.022683070674644777,-0.013594714783443887,-0.6731904778987273
10872,1.0,300.39319,32073.963,0.0,-0.10872015302900018,0.0,0.0,0.0,0.0,-2.070105012753458,-4.774073652839386,-2.9055051995510373,-0.03114701727122127,-0.011596401174725688,-0.6878324079387734
10873,1.0,300.69317,32148.877,0.0,-0.108730182006477,0.0,0.0,0.0,0.0,-2.108966295163768,-4.796708748148296,-2.8667809085542473,-0.006836599352194823,-0.012164308604023788,-0.6960078163706234
10874,1.0,299.54309,32378.506,0.0,-0.10874017799389635,0.0,0.0,0.0,0.0,-2.134597368368358,-4.793909746072055,-2.9137502182647577,0.008908927739642712,-0.014758359569286686,-0.7164268323858234
10875,1.0,299.44246,32265.595,0.0,-0.10875017398131559,0.0,0.0,0.0,0.0,-2.133518358336868,-4.785506559017725,-2.8889103920632575,0.014926046381336088,-0.015897063203917983,-0.7074490514647853
10876,1.0,299.82175,32081.057,0.0,-0.10876016996873472,0.0,0.0,0.0,0.0,-2.0636130180377483,-4.804998755166455,-2.883228490802497,-0.0026590887534066274,0.014224487210847587,-0.7042090322825203
10877,1.0,299.96441,32208.514,0.0,-0.1087701659561543,0.0,0.0,0.0,0.0,-2.090450568136408,-4.779807229855246,-2.920326312738767,0.015176362725790383,0.025143719158241876,-0.6837720614755484
10878,1.0,299.67964,32421.688,0.0,-0.10878016194357354,0.0,0.0,0.0,0.0,-2.1194559668240176,-4.809742994784676,-2.926184519516927,-0.002968306643399057,0.02075710616281688,-0.6658967693063944
10879,1.0,300.41576000000003,32389.887000000002,0.0,-0.10879015793099289,0.0,0.0,0.0,0.0,-2.132639262550108,-4.809226034583655,-2.9038513727378175,0.0004656064061392746,-0.014901177170881684,-0.6749710015044513
10880,1.0,299.98581,32254.597,0.0,-0.10880015391841213,0.0,0.0,0.0,0.0,-2.110479786838138,-4.797323081683925,-2.896789323515847,-0.016751741689768184,-0.015172889304447587,-0.6864215888970363
10881,1.0,300.1241,32292.791,0.0,-0.10881018289588884,0.0,0.0,0.0,0.0,-2.120830947209718,-4.812208130952965,-2.8831630348460373,0.005617187813973275,-0.01043926550752529,-0.7062835098747553
10882,1.0,300.13881000000003,32270.994,0.0,-0.1088201788833083,0.0,0.0,0.0,0.0,-2.099133006918298,-4.786032942444676,-2.9244105212418474,0.00936821607544594,-0.0018485491644375984,-0.6973210188977264
10883,1.0,300.65116,32326.349,0.0,-0.10883017487072744,0.0,0.0,0.0,0.0,-2.1123990851775583,-4.7946518504452955,-2.9193519714426075,0.015526652404611286,0.006036915319497155,-0.6921174527441742
10884,1.0,300.32892000000004,32361.897,0.0,-0.1088401708581469,0.0,0.0,0.0,0.0,-2.117935483723958,-4.807856728398515,-2.9114162979844176,0.005651793141988555,0.04132081226579667,-0.7119103713900833
10885,1.0,300.16875,32140.658,0.0,-0.10885016684556625,0.0,0.0,0.0,0.0,-2.114999794209228,-4.773974354329586,-2.880983128580897,-0.00039593304945054967,0.028049379993008272,-0.6876680486400524
10886,1.0,300.16242,32103.912,0.0,-0.10886016283298539,0.0,0.0,0.0,0.0,-2.081588480111788,-4.804766315593516,-2.872432716287037,-0.021377080461753583,-0.009841063825412381,-0.7182433365025983
10887,1.0,300.2547,32351.228,0.0,-0.10887015882040485,0.0,0.0,0.0,0.0,-2.129605591750708,-4.794945794299305,-2.9094141157868174,-0.0024038362597651676,-0.027422949264434372,-0.6724136494445604
10888,1.0,299.91196,32469.718999999997,0.0,-0.10888015480782398,0.0,0.0,0.0,0.0,-2.109958976286738,-4.817428294143156,-2.942596638011677,-0.0077719612209828535,0.002871888195683297,-0.7020255796420303
10889,1.0,299.85381,32327.61,0.0,-0.1088901837853008,0.0,0.0,0.0,0.0,-2.107583006127248,-4.809862355646454,-2.909340857804587,0.009369164882839582,0.008323702244935451,-0.6633973042247163
10890,1.0,299.99942000000004,32288.822999999997,0.0,-0.10890017977272015,0.0,0.0,0.0,0.0,-2.108094900077768,-4.801355411781886,-2.9055457295550373,-0.016844731704445583,0.0017437915670738282,-0.6932845243418553
10891,1.0,299.56017,32358.254,0.0,-0.1089101757601394,0.0,0.0,0.0,0.0,-2.133747758159508,-4.816720032323254,-2.885633439914847,0.005347976584304194,-0.01021675173256489,-0.6784954805197904
10892,1.0,299.91323,32396.002,0.0,-0.10892017174755875,0.0,0.0,0.0,0.0,-2.122574851956828,-4.808923174128766,-2.9160776537444573,0.016866873245630784,-0.010747082781904489,-0.7136639526756483
10893,1.0,300.27245,32337.531000000003,0.0,-0.10893016773497821,0.0,0.0,0.0,0.0,-2.121093581635638,-4.8041948425371155,-2.9045135316781674,0.01113826824801149,-0.0045380445400951255,-0.7016194892669524
10894,1.0,299.9645,32166.037,0.0,-0.10894016372239734,0.0,0.0,0.0,0.0,-2.058276027111028,-4.7995304470267754,-2.9198655879182973,-0.012982013593724988,-0.00907802874485668,-0.7136748451142234
10895,1.0,300.39822000000004,32245.487,0.0,-0.10895015970981681,0.0,0.0,0.0,0.0,-2.1067485946698983,-4.781913878138155,-2.9131605067065576,-0.017602753223506483,-0.004374187408123686,-0.6966686378208413
10896,1.0,300.83484,32439.325,0.0,-0.10896015569723594,0.0,0.0,0.0,0.0,-2.127926737660018,-4.810225707132315,-2.9225924465874176,-0.008037120666152052,0.026354654352751875,-0.6998832244255964
10897,1.0,300.2901,32550.371,0.0,-0.10897018467471276,0.0,0.0,0.0,0.0,-2.153198512379148,-4.829296897864495,-2.9120044896674675,0.004133602621604816,0.0073004871341769825,-0.6975985075701123
10898,1.0,300.20788,32324.815,0.0,-0.10898018066213211,0.0,0.0,0.0,0.0,-2.103228361172478,-4.809623127297845,-2.913085222224127,0.010051533704384141,-0.015192539263636883,-0.6978429440242364
10899,1.0,300.43264,32298.982999999997,0.0,-0.10899017664955157,0.0,0.0,0.0,0.0,-2.093821853869128,-4.827334536395825,-2.896928037454537,0.010450921936675689,-0.028057186071778675,-0.6884734608795403
10900,1.0,300.10407999999995,32519.936,0.0,-0.1090001726369707,0.0,0.0,0.0,0.0,-2.1184874010534283,-4.818050531029566,-2.948710487790067,0.033046809532966175,0.003126692934105567,-0.6870085748124674
10901,1.0,300.03603,32453.289,0.0,-0.10901016862439006,0.0,0.0,0.0,0.0,-2.139947531546378,-4.814820593685796,-2.910221372141487,0.0027596102560773273,0.010809345987299388,-0.6787254781599893
10902,1.0,300.25692000000004,32215.93,0.0,-0.1090201646118093,0.0,0.0,0.0,0.0,-2.105651244811598,-4.818310125705185,-2.868876816386097,-0.02013316093673828,-0.004826596181047956,-0.7125121203594713
10903,1.0,300.19768,32250.553,0.0,-0.10903016059922865,0.0,0.0,0.0,0.0,-2.1256681018621078,-4.7885180396399365,-2.889176572864527,-0.03166095190744267,0.0073529255626272536,-0.6936910200169734
10904,1.0,299.76544,32432.532000000003,0.0,-0.1090401565866479,0.0,0.0,0.0,0.0,-2.120383698615578,-4.828213632182586,-2.910082556877787,-0.007571196960743962,0.025690701959724872,-0.7006822329244524
10905,1.0,299.82518,32543.37,0.0,-0.10905018556412471,0.0,0.0,0.0,0.0,-2.1343812421220276,-4.815974989524725,-2.942015539079327,0.006138761545348594,0.018836091377727484,-0.6885894881484913
10906,1.0,299.85387000000003,32546.104,0.0,-0.10906018155154407,0.0,0.0,0.0,0.0,-2.111632865451938,-4.819577397605255,-2.961992676725917,0.0074898864773192434,-0.014466728965254985,-0.6884768350023733
10907,1.0,300.01908,32391.667999999998,0.0,-0.10907017753896342,0.0,0.0,0.0,0.0,-2.119328803936468,-4.816348473511586,-2.910580873276967,0.007816864919039502,-0.0029998954245416274,-0.6877258140282533
10908,1.0,300.43291,32414.526,0.0,-0.10908017352638266,0.0,0.0,0.0,0.0,-2.1201472060422377,-4.818401318214185,-2.9146579890293474,0.022119119986987183,0.01000385400502852,-0.6973449822625913
10909,1.0,300.40696,32487.734,0.0,-0.10909016951380202,0.0,0.0,0.0,0.0,-2.135943167151178,-4.837124356212005,-2.902392393918827,0.004231078598449946,0.012228184903577887,-0.6994943086397134
10910,1.0,300.46846,32456.84,0.0,-0.10910016550122126,0.0,0.0,0.0,0.0,-2.113585499719648,-4.847058057542386,-2.9054253554431573,0.0025979497489976777,-0.014251964527059385,-0.7068478192529483
10911,1.0,301.20173,32291.08,0.0,-0.10911016148864061,0.0,0.0,0.0,0.0,-2.080953374949108,-4.820470273593375,-2.9142583631899073,-0.012670925548022988,0.007066198886429533,-0.6972643984821383
10912,1.0,300.9941,32214.361,0.0,-0.10912015747605996,0.0,0.0,0.0,0.0,-2.065677312466478,-4.832452867950965,-2.8942311709883772,0.014442653129628887,0.0029367086416805777,-0.6999319009604004
10913,1.0,300.59028,32333.404,0.0,-0.10913015346347921,0.0,0.0,0.0,0.0,-2.108183964761558,-4.816352931812026,-2.9040104530035173,-0.005016309226421175,-0.003992951551373637,-0.6893217639957614
10914,1.0,300.02106000000003,32489.526,0.0,-0.10914018244095602,0.0,0.0,0.0,0.0,-2.130045848919158,-4.833929679971715,-2.912029010319887,-0.01232231482461779,-0.02058125255496148,-0.7056760664398053
10915,1.0,300.08497,32496.865,0.0,-0.10915017842837538,0.0,0.0,0.0,0.0,-2.123531765351268,-4.8409277931123755,-2.9137758534922873,0.002641900384010267,-0.0018788136276994682,-0.6949494462436704
10916,1.0,299.97906,32528.987999999998,0.0,-0.10916017441579462,0.0,0.0,0.0,0.0,-2.139697968046748,-4.822431621811945,-2.925870513310937,-0.00038524162956288856,0.023032793946659774,-0.6896678699649192
10917,1.0,299.97533,32589.267000000003,0.0,-0.10917017040321397,0.0,0.0,0.0,0.0,-2.140365091912588,-4.822846345077876,-2.943111875687527,0.0055918342699710745,0.01124683799622649,-0.6753007840144983
10918,1.0,299.7332,32464.988999999998,0.0,-0.10918016639063322,0.0,0.0,0.0,0.0,-2.113661696127168,-4.830820826014895,-2.924063381757587,-0.016304677507146384,-0.03562795675820557,-0.6962746051219533
10919,1.0,300.37628,32460.494,0.0,-0.10919016237805257,0.0,0.0,0.0,0.0,-2.1292423415898583,-4.811684989926336,-2.9262523059486174,0.0007257083248918353,-0.007455401726065863,-0.6771487495468783
10920,1.0,299.91917,32475.677000000003,0.0,-0.10920015836547192,0.0,0.0,0.0,0.0,-2.1209792870243582,-4.835366873913555,-2.9154488307323976,-0.00018492873171354482,-0.009775472498739021,-0.7029242210232193
10921,1.0,300.05484,32408.84,0.0,-0.10921015435289116,0.0,0.0,0.0,0.0,-2.144706361966038,-4.813233236079136,-2.8935384118950074,0.016622736713536385,0.007856832265258972,-0.6813784911618214
10922,1.0,299.77869,32424.246,0.0,-0.10922018333036809,0.0,0.0,0.0,0.0,-2.107890628857608,-4.826543998667805,-2.921726421726947,-0.012575223062827887,-0.0067499879495469435,-0.6985654217430394
10923,1.0,300.02238,32585.589,0.0,-0.10923017931778733,0.0,0.0,0.0,0.0,-2.127469863189928,-4.846550013942245,-2.9311854153854773,0.013251358775057289,0.00920147969199034,-0.6889242558490304
10924,1.0,300.47472999999997,32630.828999999998,0.0,-0.10924017530520658,0.0,0.0,0.0,0.0,-2.114979022582178,-4.844753420189936,-2.9592248827527574,0.0022093836357241882,0.007003759578167253,-0.6976337788060933
10925,1.0,300.76355,32644.174,0.0,-0.10925017129262593,0.0,0.0,0.0,0.0,-2.140654577466158,-4.859197199040425,-2.923162095793637,-0.005377697236237395,-0.011717876689464387,-0.6917092345438863
10926,1.0,300.69785,32570.845,0.0,-0.10926016728004506,0.0,0.0,0.0,0.0,-2.128567111723218,-4.842326179575386,-2.929830294701737,-0.01125353557938749,-0.03140018996770747,-0.7208997540247664
10927,1.0,300.48862,32499.742000000002,0.0,-0.10927016326746453,0.0,0.0,0.0,0.0,-2.1465223087952583,-4.831105447967986,-2.9014822926790074,-0.016104970978686885,0.00893409413635144,-0.6974783867707572
10928,1.0,300.33538,32473.342999999997,0.0,-0.10928015925488388,0.0,0.0,0.0,0.0,-2.120133628490898,-4.842356779728405,-2.9085949030809672,-0.005517612484245954,0.029492819608464674,-0.7220900391822384
10929,1.0,299.72267,32508.828999999998,0.0,-0.10929015524230312,0.0,0.0,0.0,0.0,-2.1210445403307983,-4.817756181875516,-2.943071345683527,-0.021465227140952982,0.024435602233106177,-0.6831427014409354
10930,1.0,300.22782,32401.11,0.0,-0.10930018421978005,0.0,0.0,0.0,0.0,-2.112392600376918,-4.813351178390776,-2.9233848081656175,-0.017525630705395086,-0.0028700364811255472,-0.7018504798922494
10931,1.0,299.72873,32363.257999999998,0.0,-0.10931018020719929,0.0,0.0,0.0,0.0,-2.088122220731618,-4.827319134994305,-2.9221808643967973,0.0038556799742009863,0.004655556727067675,-0.6871724781486434
10932,1.0,300.00882,32607.854,0.0,-0.10932017619461842,0.0,0.0,0.0,0.0,-2.136733502229178,-4.831711675502815,-2.9435282201536173,0.00941841147214984,-0.0008728047499366223,-0.6857384759446183
10933,1.0,299.44709,32793.833,0.0,-0.10933017218203789,0.0,0.0,0.0,0.0,-2.1664739125393275,-4.867685499103155,-2.934347059672507,0.01179466280854259,-0.008729863851495481,-0.7027564876016653
10934,1.0,300.12755,32628.62,0.0,-0.10934016816945702,0.0,0.0,0.0,0.0,-2.143466042518628,-4.833146538969426,-2.941673161870537,0.0015511554978121286,-0.006233969868469925,-0.6838793747936394
10935,1.0,300.20412000000005,32483.205,0.0,-0.1093501641568766,0.0,0.0,0.0,0.0,-2.1215115473018877,-4.842285750896395,-2.910285916172857,0.006763069514962994,0.015866350580136884,-0.6950328772569043
10936,1.0,300.24008,32573.84,0.0,-0.10936016014429584,0.0,0.0,0.0,0.0,-2.1381453649185183,-4.843050653396886,-2.9204377702497677,0.012991112579622988,0.009304374327720251,-0.6747221675448934
10937,1.0,299.47555,32671.998,0.0,-0.10937015613171497,0.0,0.0,0.0,0.0,-2.1580245212804376,-4.844398174704875,-2.9290489775496273,-0.009221449635561221,-0.002266136381775248,-0.7028582888392123
10938,1.0,299.25618,32597.888,0.0,-0.10938018510919201,0.0,0.0,0.0,0.0,-2.139256292328158,-4.858465733793236,-2.911221855290227,0.01220209270025279,-0.014291243167185885,-0.6889676026883084
10939,1.0,299.31077,32359.676,0.0,-0.10939018109661114,0.0,0.0,0.0,0.0,-2.122690058493198,-4.813069190887945,-2.9007743348341375,-0.012544942083589387,-0.0036318401588347165,-0.7048443502277214
10940,1.0,299.94838,32489.505,0.0,-0.10940017708403038,0.0,0.0,0.0,0.0,-2.1023850331142477,-4.835842189535465,-2.937771034410427,-0.002096561580814518,0.004030015530756566,-0.6994320545535694
10941,1.0,300.05447999999996,32603.409,0.0,-0.10941017307144973,0.0,0.0,0.0,0.0,-2.106328298528418,-4.863550729420086,-2.940743200928757,-0.012742467084583589,-0.014486279625934486,-0.7187508329476844
10942,1.0,299.6489,32604.89,0.0,-0.1094201690588692,0.0,0.0,0.0,0.0,-2.1141387342742477,-4.845330972746936,-2.9516028102005176,-0.0025267132007171776,-0.005411062751430314,-0.6993411254895954
10943,1.0,300.06838999999997,32472.496,0.0,-0.10943016504628855,0.0,0.0,0.0,0.0,-2.100925446345198,-4.860287861448065,-2.9096145366565973,-0.0008915667575332882,-0.0067576288685510435,-0.7132002792973873
10944,1.0,299.97821,32399.17,0.0,-0.1094401610337078,0.0,0.0,0.0,0.0,-2.110761267715918,-4.841909328484245,-2.8958678738749075,0.014657503694082986,-0.018104564322281382,-0.6973643150744994
10945,1.0,300.55215,32543.16,0.0,-0.10945015702112693,0.0,0.0,0.0,0.0,-2.136897344770348,-4.846566023293826,-2.9088446692306174,0.016316100888773784,-0.002617942186720777,-0.7111400783990613
10946,1.0,300.84207000000004,32729.762000000002,0.0,-0.10946018599860396,0.0,0.0,0.0,0.0,-2.140748201775398,-4.879306869800096,-2.9289754155923675,0.017030488818778382,-0.010735840772044989,-0.7010943420051243
10947,1.0,300.83595,32583.787,0.0,-0.1094701819860231,0.0,0.0,0.0,0.0,-2.1309568620840684,-4.8400996638056455,-2.933601206273897,0.004359002436825046,0.019644445082255782,-0.7087499024731693
10948,1.0,300.23165,32500.675,0.0,-0.10948017797344234,0.0,0.0,0.0,0.0,-2.116105959343398,-4.845365524575346,-2.9179222755515073,-0.017000323350051284,0.028141680997617678,-0.6835761293037113
10949,1.0,300.47149,32624.997000000003,0.0,-0.10949017396086169,0.0,0.0,0.0,0.0,-2.143893735385838,-4.848883934222586,-2.924406670891467,-0.015179771299126786,0.025333800824001475,-0.7092927816117472
10950,1.0,299.99902000000003,32609.066000000003,0.0,-0.10950016994828105,0.0,0.0,0.0,0.0,-2.146674498960278,-4.818797802978316,-2.946869513683377,-0.01988507374250398,0.005920838907916305,-0.6596027332627215
10951,1.0,300.16118,32679.746,0.0,-0.10951016593570051,0.0,0.0,0.0,0.0,-2.147119822379228,-4.851305804611605,-2.935401143751537,0.009113345070467132,0.0015471623804930385,-0.6955327844587413
10952,1.0,300.15112999999997,32717.03,0.0,-0.10952016192311964,0.0,0.0,0.0,0.0,-2.1289422169102377,-4.838049757528336,-2.9781682013223176,0.006389867110305784,0.002101435921745578,-0.6785949614146084
10953,1.0,299.69153,32650.842,0.0,-0.10953015791053888,0.0,0.0,0.0,0.0,-2.127139239682298,-4.851587994764455,-2.946313442028497,0.0087985340399227,-0.008179437215572603,-0.7076374957183833
10954,1.0,300.01842,32683.847,0.0,-0.10954015389795824,0.0,0.0,0.0,0.0,-2.125822014552298,-4.866656037001555,-2.942595118136527,0.0019671548509180682,-0.01939946147307778,-0.6913521652086464
10955,1.0,299.53586,32769.779,0.0,-0.10955018287543505,0.0,0.0,0.0,0.0,-2.154381988495948,-4.861557159848336,-2.945255406274077,0.0017408222376557785,0.0002981174109068977,-0.6846795485301104
10956,1.0,299.55177000000003,32666.982000000004,0.0,-0.1095601788628543,0.0,0.0,0.0,0.0,-2.146210025114438,-4.864302662319296,-2.919434146025717,0.0015782672333878485,0.005974419370554284,-0.6917714278350243
10957,1.0,299.91306000000003,32541.866,0.0,-0.10957017485027365,0.0,0.0,0.0,0.0,-2.1190159123055876,-4.850496319106715,-2.9224024621936673,0.005214872302142825,-0.006320941278878334,-0.6987824801794613
10958,1.0,300.87459,32556.306,0.0,-0.109580170837693,0.0,0.0,0.0,0.0,-2.109472210938698,-4.837405127814716,-2.9494268556107675,-0.009162494083792761,-0.017679616349592284,-0.7158233203612613
10959,1.0,300.26755,32583.1,0.0,-0.10959016682511247,0.0,0.0,0.0,0.0,-2.118071563212388,-4.855681626493466,-2.930695508962127,0.008076629516701272,0.010970442620698389,-0.7216984484160913
10960,1.0,300.67496,32631.822999999997,0.0,-0.1096001628125316,0.0,0.0,0.0,0.0,-2.140227087248968,-4.843111853702925,-2.9359203331027772,-0.012714174102041287,0.036111361155663865,-0.7171203919467724
10961,1.0,299.79897,32656.022999999997,0.0,-0.10961015879995084,0.0,0.0,0.0,0.0,-2.133910790100598,-4.867723394656895,-2.924981487673197,-0.003582110451876777,0.02273280402930308,-0.7178920021629243
10962,1.0,300.22652,32645.726000000002,0.0,-0.1096201547873702,0.0,0.0,0.0,0.0,-2.1437089185675977,-4.847252196261545,-2.9325242227426074,-0.02904084014960777,-0.00025855322676971674,-0.6837668331050324
10963,1.0,300.43827000000005,32708.901,0.0,-0.10963018376484701,0.0,0.0,0.0,0.0,-2.110295780619978,-4.867119092297255,-2.9652742898247872,0.012327416538871289,-0.007075398082762424,-0.7011245165931024
10964,1.0,300.29016,32829.649,0.0,-0.10964017975226614,0.0,0.0,0.0,0.0,-2.125768920247058,-4.882872294251975,-2.970752325165427,0.023929140316372277,-0.02373260222097548,-0.6959914422490073
10965,1.0,299.64211,32893.325,0.0,-0.10965017573968572,0.0,0.0,0.0,0.0,-2.1488445766994477,-4.874955973870695,-2.9749489031045973,0.004315923095573446,-0.016530015210135484,-0.7140313774269104
10966,1.0,300.10578,32738.881,0.0,-0.10966017172710496,0.0,0.0,0.0,0.0,-2.1539658466798777,-4.863206224386086,-2.9346302630754573,0.002825309595211347,-0.015035448007883185,-0.6885295544050763
10967,1.0,300.06617,32556.641,0.0,-0.10967016771452431,0.0,0.0,0.0,0.0,-2.144033766549658,-4.850877402469325,-2.9014948569802472,0.0016136154763764486,-0.0007026037502815914,-0.7074068597306213
10968,1.0,300.35406,32706.328999999998,0.0,-0.10968016370194356,0.0,0.0,0.0,0.0,-2.161928776565758,-4.8489425000783655,-2.931036062320737,0.017858511734247882,0.026563900630902873,-0.6807045177253054
10969,1.0,300.29974,32789.837,0.0,-0.1096901596893628,0.0,0.0,0.0,0.0,-2.119342077512778,-4.872271975680805,-2.9756776325765175,0.0022494223147506978,-0.01114210643939029,-0.7139070719046423
10970,1.0,300.29371000000003,32708.613999999998,0.0,-0.10970015567678215,0.0,0.0,0.0,0.0,-2.116757175182668,-4.861049724198255,-2.964795123852497,-0.006256000154794145,-0.032901583435883466,-0.7047339363643244
10971,1.0,301.15602,32648.176,0.0,-0.10971018465425897,0.0,0.0,0.0,0.0,-2.102399015965628,-4.869272451409775,-2.952558811669867,-0.026737866553821977,-0.03496055931483857,-0.7157794466319313
10972,1.0,300.74472000000003,32759.755,0.0,-0.10972018064167832,0.0,0.0,0.0,0.0,-2.143149503187388,-4.8719968782786545,-2.943001127451597,0.0074346539103932125,-0.0006023538087701924,-0.7036950611692954
10973,1.0,300.51743,32807.052,0.0,-0.10973017662909768,0.0,0.0,0.0,0.0,-2.171045494340508,-4.861877752179975,-2.939601268066057,-0.014365301616994884,0.015281236137640587,-0.7066844428068243
10974,1.0,299.91568,32828.079,0.0,-0.10974017261651692,0.0,0.0,0.0,0.0,-2.150197873533008,-4.879613073980315,-2.949105250029027,-0.004081459960858735,0.01922780778688688,-0.6901439049944004
10975,1.0,300.07279,32660.019,0.0,-0.10975016860393627,0.0,0.0,0.0,0.0,-2.117581859439058,-4.862202093536985,-2.9480462010245074,-0.007666919001665993,0.013922762609319687,-0.7107919053996994
10976,1.0,299.92652000000004,32674.873,0.0,-0.10976016459135551,0.0,0.0,0.0,0.0,-2.1000095695798078,-4.863881960877775,-2.9684540712886074,0.003477722386824477,0.016392862689849585,-0.7024676606606604
10977,1.0,300.05668,32781.621,0.0,-0.10977016057877464,0.0,0.0,0.0,0.0,-2.1424913972474378,-4.889419207123105,-2.9328838252030973,0.002140549402105778,-0.009190169287749092,-0.7430203817279023
10978,1.0,299.72446,32781.272000000004,0.0,-0.10978015656619422,0.0,0.0,0.0,0.0,-2.159964287271878,-4.862472023363625,-2.9422519303276573,-0.015843924315673587,-0.022340689412854376,-0.7057010835847743
10979,1.0,300.51572000000004,32586.666,0.0,-0.10979018554367082,0.0,0.0,0.0,0.0,-2.1489874449635478,-4.861687767786226,-2.8948576635252072,-0.003080666453613107,9.91868840894833e-05,-0.7119219224412233
10980,1.0,300.12012000000004,32532.729,0.0,-0.10980018153109028,0.0,0.0,0.0,0.0,-2.121986356298748,-4.851991268304255,-2.9151595478288472,-0.009321674154627611,0.018788230509253982,-0.6917127302567314
10981,1.0,300.49832999999995,32866.802,0.0,-0.10981017751850963,0.0,0.0,0.0,0.0,-2.144742838969638,-4.860115000981005,-2.985829182678397,-0.0038660202927964958,0.002042398600694048,-0.6956290634832434
10982,1.0,300.41462,33001.38,0.0,-0.10982017350592888,0.0,0.0,0.0,0.0,-2.1593644432126777,-4.878692029639415,-2.993539104014307,-0.021259246567874278,-0.02010364597457538,-0.6828901285885084
10983,1.0,299.97572,32916.686,0.0,-0.10983016949334823,0.0,0.0,0.0,0.0,-2.143989791495318,-4.886098786545405,-2.975761934984837,-0.005533451508484145,-0.011262978057069389,-0.7002310225224213
10984,1.0,300.31757000000005,32945.012,0.0,-0.10984016548076736,0.0,0.0,0.0,0.0,-2.1858770440042683,-4.863952179109705,-2.964631889261387,-0.007384452028888674,-0.003028281524768117,-0.6924193607439704
10985,1.0,300.5274,32973.962999999996,0.0,-0.10985016146818682,0.0,0.0,0.0,0.0,-2.181622406834368,-4.886986596283025,-2.9546524903514975,-0.004321457974244696,-0.013758390138347386,-0.7015238485900134
10986,1.0,299.58762,32837.81,0.0,-0.10986015745560618,0.0,0.0,0.0,0.0,-2.153699564553598,-4.8726409000422155,-2.955534017938497,-0.008910609228183661,-0.00017571161098638586,-0.7114844213130453
10987,1.0,300.34353,32715.215,0.0,-0.10987018643308277,0.0,0.0,0.0,0.0,-2.110193239709858,-4.876722372770025,-2.957692645951537,0.015921741923353588,0.013786412583112986,-0.7044254929013833
10988,1.0,299.87642,32594.019,0.0,-0.10988018242050213,0.0,0.0,0.0,0.0,-2.106642102084388,-4.8629822961139855,-2.9381434038221768,0.016395463702856286,0.023999229865539578,-0.7086104792594093
10989,1.0,299.47888,32611.382,0.0,-0.10989017840792159,0.0,0.0,0.0,0.0,-2.118708188250218,-4.861910480158205,-2.9324271533830273,0.016083787972096284,-0.006585584067821545,-0.6896264483008313
10990,1.0,299.35641,32790.101,0.0,-0.10990017439534072,0.0,0.0,0.0,0.0,-2.142990726896718,-4.890879908467265,-2.933501401139047,0.018981666032844582,-0.027108716090421973,-0.7160243998436063
10991,1.0,299.52789,32968.645,0.0,-0.10991017038276019,0.0,0.0,0.0,0.0,-2.1704886120855478,-4.882848077574586,-2.968308061949197,0.02044133791490298,0.0006873125498424673,-0.6723541007361834
10992,1.0,299.64842999999996,32948.399,0.0,-0.10992016637017932,0.0,0.0,0.0,0.0,-2.1457805083970483,-4.899400531208186,-2.9703094335467175,0.0043337199216548555,0.0008554772511690312,-0.7170559695054144
10993,1.0,300.3951,32913.272000000004,0.0,-0.10993016235759878,0.0,0.0,0.0,0.0,-2.1401012415865477,-4.892182644120836,-2.972528957890767,-0.016469070243120686,-0.0068721956388079035,-0.6891118692375464
10994,1.0,300.09305,32929.751000000004,0.0,-0.10994015834501814,0.0,0.0,0.0,0.0,-2.158502977977658,-4.865149536752876,-2.986169634711997,-0.03144820079719577,0.007141699393780853,-0.7083952041431633
10995,1.0,300.29068,32804.792,0.0,-0.10995015433243727,0.0,0.0,0.0,0.0,-2.1306788262566276,-4.880704952288075,-2.9604538537990472,-0.0027553710203089476,0.027584085414587272,-0.7060623072454243
10996,1.0,300.05127000000005,32613.435,0.0,-0.10996018330991408,0.0,0.0,0.0,0.0,-2.135642130546468,-4.859143294135105,-2.9188843565214575,0.004930807535282815,0.007230282378473313,-0.7135393634433523
10997,1.0,299.78148999999996,32735.994,0.0,-0.10997017929733355,0.0,0.0,0.0,0.0,-2.156606984390538,-4.854707082547286,-2.9396106912919873,0.0024944325724063276,-0.016289392629387885,-0.7062593945223754
10998,1.0,299.80691,32786.617,0.0,-0.10998017528475268,0.0,0.0,0.0,0.0,-2.165370179205398,-4.8804874074916045,-2.9204554008015076,0.008509803661652233,-0.025892650810655678,-0.7181822071240653
10999,1.0,299.5201,32657.265,0.0,-0.10999017127217203,0.0,0.0,0.0,0.0,-2.115799957813198,-4.8686649066498155,-2.942528344954937,0.01894158489863888,0.005588587614000655,-0.7063098239798523
11000,1.0,299.19683,32937.884,0.0,-0.11000016725959127,0.0,0.0,0.0,0.0,-2.1504836100612077,-4.910895954917695,-2.9509148133826173,0.022582257355945275,0.013879478591547884,-0.6938350940486924
11001,1.0,299.59732,33183.152,0.0,-0.11001016324701063,0.0,0.0,0.0,0.0,-2.176134036342708,-4.908656165571646,-3.002059220130177,0.0030995982211315274,-0.014622642824392485,-0.6886947141713764
11002,1.0,299.59567000000004,32936.344,0.0,-0.11002015923443009,0.0,0.0,0.0,0.0,-2.1655711067002277,-4.887286214337595,-2.958968834452487,0.007912547037907593,-0.006692140589412853,-0.6841370949565744
11003,1.0,300.41395,32815.571,0.0,-0.11003015522184922,0.0,0.0,0.0,0.0,-2.1374611171259876,-4.895054904179305,-2.942598259211837,0.008209796417718821,0.014596609389573186,-0.7007252048611933
11004,1.0,300.15287,32887.152,0.0,-0.11004018419932604,0.0,0.0,0.0,0.0,-2.148731092688248,-4.882298693370366,-2.965843229755937,0.019112545521761382,0.021646669836359978,-0.7052428918895544
11005,1.0,299.70697,32789.621,0.0,-0.1100501801867454,0.0,0.0,0.0,0.0,-2.1377360118781183,-4.882944741634126,-2.946545273651377,-0.027973858410054873,0.006116304174107224,-0.7268013481722083
11006,1.0,299.68352999999996,32811.935,0.0,-0.11006017617416464,0.0,0.0,0.0,0.0,-2.127854492927888,-4.8962417240214355,-2.9499127090337174,-0.024868693696848975,0.01796782622128638,-0.7360717050596213
11007,1.0,300.13244,32740.429,0.0,-0.11007017216158399,0.0,0.0,0.0,0.0,-2.143577905329668,-4.8654835039858355,-2.9432115794973672,-0.026472931036924875,0.028456349869173073,-0.7185618719365353
11008,1.0,300.45529,32681.255,0.0,-0.11008016814900345,0.0,0.0,0.0,0.0,-2.114385156698568,-4.903381185551046,-2.9165191268130273,-5.5200674879132444e-05,0.003447447588411587,-0.7276362966521113
11009,1.0,300.29612000000003,32901.635,0.0,-0.11009016413642259,0.0,0.0,0.0,0.0,-2.165180701436698,-4.885087968245646,-2.9510069178167075,-0.020273108000799983,-0.033453845270387465,-0.7003355088727333
11010,1.0,300.0152,33116.077000000005,0.0,-0.11010016012384194,0.0,0.0,0.0,0.0,-2.186841759424478,-4.902323960396704,-2.977294779736117,0.004770894985950676,-0.03973145349018916,-0.6979329206331164
11011,1.0,300.54944,32923.693,0.0,-0.11011015611126118,0.0,0.0,0.0,0.0,-2.1605560253302776,-4.892862230962905,-2.954562311092597,0.021091058197025378,0.004466447072129006,-0.6847278096323733
11012,1.0,299.73156,32803.341,0.0,-0.110120185088738,0.0,0.0,0.0,0.0,-2.131795326541818,-4.8814884985904055,-2.958112840768007,0.00980503437438155,0.014056212713740187,-0.6773700332362174
11013,1.0,299.9425,33127.518,0.0,-0.11013018107615735,0.0,0.0,0.0,0.0,-2.178768891902748,-4.901352557525835,-2.989816929771957,-0.006178475173743024,-0.006354049935170904,-0.6780432163376553
11014,1.0,299.53756,33172.317,0.0,-0.1101401770635766,0.0,0.0,0.0,0.0,-2.1798676603111877,-4.908380865519475,-2.995307529413837,0.0037087645865515667,-0.003636488443668466,-0.6845260512724614
11015,1.0,299.61242999999996,32839.845,0.0,-0.11015017305099595,0.0,0.0,0.0,0.0,-2.125862544556298,-4.884726035309924,-2.971904289204117,0.015547998544467985,0.025706954491328874,-0.6931575337068224
11016,1.0,299.46619,32797.473,0.0,-0.1101601690384153,0.0,0.0,0.0,0.0,-2.1279008997824684,-4.900833672149625,-2.9408782671670872,0.006116599941811415,-0.0068769376492759035,-0.7180494004334583
11017,1.0,300.34384,32993.943,0.0,-0.11017016502583454,0.0,0.0,0.0,0.0,-2.1709808489841276,-4.888239885331715,-2.970114281577457,-0.016440131820264683,-0.014490383288839486,-0.7086794917237202
11018,1.0,300.14412000000004,32940.413,0.0,-0.1101801610132539,0.0,0.0,0.0,0.0,-2.1717975285647277,-4.8994725732902955,-2.9417928267073474,-0.014420740582966286,-0.0015130944803307983,-0.7269104448104753
11019,1.0,300.66022000000004,32899.547999999995,0.0,-0.11019015700067314,0.0,0.0,0.0,0.0,-2.1541365793217278,-4.902626618201575,-2.943877994088137,0.0016013202943630086,0.02274162538467368,-0.7114157634862692
11020,1.0,300.10382999999996,32884.123999999996,0.0,-0.11020018597814996,0.0,0.0,0.0,0.0,-2.158294045807038,-4.886105879296105,-2.9515525529955573,-0.01948655133242288,0.0060654812716163945,-0.6873932957429364
11021,1.0,300.14166,32928.238,0.0,-0.11021018196556931,0.0,0.0,0.0,0.0,-2.126315264700978,-4.920570669522515,-2.962476098348627,-0.013596801065399787,-0.03105139381953397,-0.6918537949356534
11022,1.0,299.58351,33054.858,0.0,-0.11022017795298855,0.0,0.0,0.0,0.0,-2.156861006190608,-4.9178989316588355,-2.973091615671297,0.007364313683151174,-0.013926967597234685,-0.7110330183934953
11023,1.0,299.69457,33082.443999999996,0.0,-0.1102301739404079,0.0,0.0,0.0,0.0,-2.163396773310638,-4.905942377828816,-2.986897654908847,0.020023116909627783,0.012772262717024188,-0.6939824510107353
11024,1.0,300.08673999999996,32744.764,0.0,-0.11024016992782726,0.0,0.0,0.0,0.0,-2.124781710674628,-4.900054178847695,-2.928754729720587,0.002095081019768398,-0.016838781899858383,-0.7272615967651314
11025,1.0,300.40274,32711.303,0.0,-0.1102501659152465,0.0,0.0,0.0,0.0,-2.116161992073928,-4.884430774230786,-2.9428264431343574,-0.004049231514928036,-0.008011400629588682,-0.7016240995549073
11026,1.0,300.24253999999996,32964.94,0.0,-0.11026016190266585,0.0,0.0,0.0,0.0,-2.169550950443008,-4.902151302579666,-2.9488163724255174,0.005365939178101965,0.02010866662882088,-0.7285095054557903
11027,1.0,300.09514,32979.995,0.0,-0.1102701578900851,0.0,0.0,0.0,0.0,-2.151368987998588,-4.891970672199915,-2.981755208001327,0.016548918404001085,0.028595453909151577,-0.6858631361044214
11028,1.0,299.69707999999997,32903.598,0.0,-0.1102801868675618,0.0,0.0,0.0,0.0,-2.153565916865408,-4.897595223505015,-2.950711048787507,-0.014762891836983986,-0.02287616878595208,-0.7135490805118113
11029,1.0,299.84542000000005,33179.589,0.0,-0.11029018285498127,0.0,0.0,0.0,0.0,-2.189266872213818,-4.923602415146725,-2.9728972743021176,-0.024583017963654977,-0.030951735605948473,-0.6883013502175543
11030,1.0,300.50518,33339.274,0.0,-0.1103001788424004,0.0,0.0,0.0,0.0,-2.217887134538418,-4.9106509510435155,-3.005768728746277,-4.978244763889505e-05,-0.014988909430790186,-0.7119101079450573
11031,1.0,300.6914,33121.067,0.0,-0.11031017482981997,0.0,0.0,0.0,0.0,-2.1725669906906684,-4.9226333427510856,-2.9727771028402574,0.012760881891900989,0.01077227015289029,-0.6850102429652474
11032,1.0,300.12797,32991.248,0.0,-0.11032017081723922,0.0,0.0,0.0,0.0,-2.160973180396448,-4.909416508446686,-2.958125810369287,-0.007848804791341722,-0.014712008443462184,-0.7025519630689804
11033,1.0,300.10875,32985.245,0.0,-0.11033016680465835,0.0,0.0,0.0,0.0,-2.141074873607638,-4.898042978724205,-2.987572986100497,-0.0091408950367111,-0.0070669248801261825,-0.6841881120991093
11034,1.0,299.87645,32762.406000000003,0.0,-0.11034016279207781,0.0,0.0,0.0,0.0,-2.102340348784838,-4.914015751975595,-2.942597347286747,-0.000875838511928531,0.01850965461951068,-0.7291580767122993
11035,1.0,299.63252,32816.089,0.0,-0.11035015877949694,0.0,0.0,0.0,0.0,-2.126636870282718,-4.894755792749786,-2.9538790765501677,-0.002100441720747458,0.01856968968793568,-0.7200229380507313
11036,1.0,299.36068,33054.602999999996,0.0,-0.11036015476691641,0.0,0.0,0.0,0.0,-2.1633637413573776,-4.913997918773836,-2.9704122784318674,-0.0027092101828532274,-0.013719099339219686,-0.7153092681880283
11037,1.0,299.35078,33017.717000000004,0.0,-0.11037018374439311,0.0,0.0,0.0,0.0,-2.173828791040198,-4.911423554244765,-2.951308967671517,-0.01967426300619858,0.01073801925975999,-0.7208069504481074
11038,1.0,299.50133999999997,33013.393,0.0,-0.11038017973181258,0.0,0.0,0.0,0.0,-2.167410763581788,-4.905954435505005,-2.961881928489987,-0.0028850912497863377,0.035435873923498465,-0.7206788249729623
11039,1.0,300.30844,33148.598,0.0,-0.11039017571923193,0.0,0.0,0.0,0.0,-2.1670685890230184,-4.922596865747486,-2.986680616737427,0.00031269119987771863,0.013362668351542687,-0.7109552919783244
11040,1.0,300.49478,33046.782999999996,0.0,-0.11040017170665117,0.0,0.0,0.0,0.0,-2.1546041942428777,-4.910308371184705,-2.9804841870758874,-0.008266402141180372,-0.021526959403295482,-0.6957325061859523
11041,1.0,299.86941,33011.443,0.0,-0.1104101676940703,0.0,0.0,0.0,0.0,-2.165641020957128,-4.905265932062055,-2.963747625899117,-0.00968198112791214,-0.02863112841867237,-0.7129615778388294
11042,1.0,299.94658,33112.915,0.0,-0.11042016368148977,0.0,0.0,0.0,0.0,-2.1681404049787982,-4.929933100446515,-2.9674257237621173,0.017035841819056683,-0.01032317440381799,-0.7126149753771224
11043,1.0,300.17053,32980.321,0.0,-0.1104301596689089,0.0,0.0,0.0,0.0,-2.179741814648768,-4.889347874316066,-2.956104376419787,-0.003992263351905716,-0.003969032769513037,-0.7092569632207123
11044,1.0,300.4783,32931.147000000004,0.0,-0.11044015565632848,0.0,0.0,0.0,0.0,-2.1374914133039775,-4.917524029121836,-2.955230954833587,0.007575523943971003,-0.007762429475967143,-0.7122982435283634
11045,1.0,300.25703,33160.214,0.0,-0.11045018463380507,0.0,0.0,0.0,0.0,-2.176427372246658,-4.919575049974255,-2.983874521910487,0.011452440627017888,0.008706298997894811,-0.7081456609085354
11046,1.0,299.94538,33299.968,0.0,-0.11046018062122454,0.0,0.0,0.0,0.0,-2.175721440901988,-4.922868518099295,-3.0237687114727367,0.013464378396580687,0.039918317073631165,-0.6841532157656653
11047,1.0,299.29226,33054.567,0.0,-0.11047017660864389,0.0,0.0,0.0,0.0,-2.139785918155428,-4.9282776524331355,-2.979699323548427,0.017054263719124784,0.01056757539418849,-0.7021237635767203
11048,1.0,299.431,33148.396,0.0,-0.11048017259606302,0.0,0.0,0.0,0.0,-2.1549377561757983,-4.916095447805845,-3.0052513632452174,0.019920812086781082,-0.01098899219027909,-0.6824413094567133
11049,1.0,299.56211,33336.222,0.0,-0.11049016858348226,0.0,0.0,0.0,0.0,-2.213184742149328,-4.924267512512365,-2.9959269291999675,0.023630298411378876,0.016108927720327383,-0.6888836447850224
11050,1.0,299.85409,33096.914,0.0,-0.11050016457090162,0.0,0.0,0.0,0.0,-2.165976812040268,-4.918499181018075,-2.9761594329990673,0.02142344678632958,0.004807885504701356,-0.7161128261798333
11051,1.0,299.48433,32830.267,0.0,-0.11051016055832108,0.0,0.0,0.0,0.0,-2.1269388188125182,-4.895613204984405,-2.9570292711110677,-0.012261295890345688,-0.007057348146806033,-0.7088212352802093
11052,1.0,300.34957,32980.382000000005,0.0,-0.11052015654574043,0.0,0.0,0.0,0.0,-2.144783774273678,-4.912462844872335,-2.967965988715437,-0.048079512646328454,-0.018177692608498584,-0.7185749631278273
11053,1.0,300.62582000000003,33121.58,0.0,-0.11053018552321725,0.0,0.0,0.0,0.0,-2.1544634538039875,-4.922027013891245,-2.991642806452157,-0.002798191172184967,0.008425432048350402,-0.7231573056450693
11054,1.0,299.99825,33065.34,0.0,-0.11054018151063638,0.0,0.0,0.0,0.0,-2.175221401977638,-4.918440513837286,-2.957375903970277,-0.011419454270012388,0.015719091903353587,-0.7348704970660713
11055,1.0,299.42688,33121.623,0.0,-0.11055017749805585,0.0,0.0,0.0,0.0,-2.175981947502698,-4.925157754050225,-2.9670065421957474,0.0038295168433688867,-0.004351119452372056,-0.7037364828333833
11056,1.0,299.60687,33131.237,0.0,-0.11056017348547498,0.0,0.0,0.0,0.0,-2.1609812863972477,-4.920102750626336,-2.989984825313527,-0.006719358006974005,-0.02630189442004487,-0.7009068400741193
11057,1.0,299.72736000000003,33139.942,0.0,-0.11057016947289422,0.0,0.0,0.0,0.0,-2.1458709916309777,-4.938667113658495,-2.9891765557087573,0.029068540380841574,0.006746135876641773,-0.7028397463623823
11058,1.0,300.71412000000004,33255.156,0.0,-0.11058016546031357,0.0,0.0,0.0,0.0,-2.179893802163768,-4.924425782177986,-3.004417458412917,0.03309268443124367,0.016840668571544586,-0.6953411585998294
11059,1.0,300.55902000000003,33154.865,0.0,-0.11059016144773293,0.0,0.0,0.0,0.0,-2.153240460933288,-4.920278448193675,-3.004732275218987,0.018487511051825282,0.007841690458414593,-0.6917820568285733
11060,1.0,300.41397,32862.77,0.0,-0.11060015743515239,0.0,0.0,0.0,0.0,-2.139262473153768,-4.9082526893818255,-2.9419462327724872,-0.012935441579378688,-0.006091536389987834,-0.7135584024127313
11061,1.0,299.99945,33129.462,0.0,-0.1106101864126291,0.0,0.0,0.0,0.0,-2.184317449450348,-4.916830763403416,-2.969381093805097,-0.014929784260954985,-0.0034380689454859862,-0.7111821485432133
11062,1.0,299.80418,33408.95,0.0,-0.11062018240004834,0.0,0.0,0.0,0.0,-2.1959493579483276,-4.951244485824786,-3.008292836070387,-0.02190544175289878,-0.0019527042832919081,-0.7321730327823524
11063,1.0,299.5506,33175.82,0.0,-0.11063017838746769,0.0,0.0,0.0,0.0,-2.161218994870708,-4.9381308003805655,-2.985271185848327,-0.03970000423358536,-0.024035050283074774,-0.7201111718694394
11064,1.0,299.69425,33045.458,0.0,-0.11064017437488693,0.0,0.0,0.0,0.0,-2.137852535639618,-4.930416724719246,-2.9767247252298574,-0.04699942856973246,-0.014017927058711686,-0.7262544565632344
11065,1.0,299.45221000000004,33313.985,0.0,-0.11065017036230618,0.0,0.0,0.0,0.0,-2.1737503654824577,-4.938778368519475,-3.0140907544675968,-0.0070683756516193635,0.014416805119577884,-0.7099600675976033
11066,1.0,300.29925,33253.836,0.0,-0.11066016634972553,0.0,0.0,0.0,0.0,-2.185714822663258,-4.929162017120415,-2.993458854606387,0.010448137525400891,0.014310925550378384,-0.7150918753790734
11067,1.0,299.69307000000003,33007.623,0.0,-0.11067016233714488,0.0,0.0,0.0,0.0,-2.146531022746118,-4.9232698664639045,-2.963692099793637,0.03177416335436577,-0.01025329662392159,-0.6846744924121113
11068,1.0,299.5808,33125.147000000004,0.0,-0.11068015832456435,0.0,0.0,0.0,0.0,-2.1409241019927583,-4.928873443491936,-2.9994200075947073,0.02107776536896348,-0.02476453259981908,-0.7039982965267223
11069,1.0,299.29405,33194.587,0.0,-0.11069018730204105,0.0,0.0,0.0,0.0,-2.166775557094098,-4.933525781326086,-2.990024342067427,0.029029947711032768,0.02091369282002078,-0.6996495892175383
11070,1.0,299.35007,33169.477999999996,0.0,-0.1107001832894603,0.0,0.0,0.0,0.0,-2.153404303474458,-4.942386146825536,-2.9869025185093268,0.0033032659495319666,0.016921862328557784,-0.7303561638955413
11071,1.0,299.85517999999996,33247.503,0.0,-0.11071017927687965,0.0,0.0,0.0,0.0,-2.1789324304688877,-4.934919506838636,-2.9925587845425574,-0.006013187332630385,0.009434245126162501,-0.7259760154357543
11072,1.0,300.01037,33125.054,0.0,-0.11072017526429889,0.0,0.0,0.0,0.0,-2.168494333238728,-4.924247348835375,-2.976447601327507,-0.022114665739547578,0.012547751826116688,-0.7138944569408973
11073,1.0,299.82702,33014.089,0.0,-0.11073017125171825,0.0,0.0,0.0,0.0,-2.1513986762265183,-4.934970777293696,-2.949089240677447,-0.005559954584724795,-0.0017225434085017984,-0.7491408378969443
11074,1.0,300.26433,33298.884,0.0,-0.1107401672391376,0.0,0.0,0.0,0.0,-2.1864649317122877,-4.933880722836116,-3.0016837096431175,-0.004684062390805965,-0.029834991127484372,-0.7080096320826103
11075,1.0,299.67605,33336.193999999996,0.0,-0.11075016322655684,0.0,0.0,0.0,0.0,-2.2096067533962076,-4.928210271301486,-2.995553546538117,-0.016901420007790286,-0.03659617093101086,-0.7128452364623473
11076,1.0,299.22874,33125.278,0.0,-0.1107601592139762,0.0,0.0,0.0,0.0,-2.163644918260128,-4.918165923060186,-2.9874465324880175,0.02160874388511698,-0.007935815009228962,-0.6781290183561234
11077,1.0,300.00184,33268.223,0.0,-0.11077018819145301,0.0,0.0,0.0,0.0,-2.179329320533058,-4.930185095746386,-3.0031944655422174,0.009007040341525673,0.01892277391053238,-0.7100384931553433
11078,1.0,300.34265,33442.527,0.0,-0.11078018417887225,0.0,0.0,0.0,0.0,-2.211242949657688,-4.931162476792846,-3.0232877216502674,0.0033060142891032074,0.03509690528804486,-0.6819991676430773
11079,1.0,300.52927,33246.066,0.0,-0.11079018016629161,0.0,0.0,0.0,0.0,-2.1512592530127583,-4.951031095353725,-3.0036836626904972,-0.004641928209247646,-0.0030010099996516273,-0.7137849955325943
11080,1.0,300.18314,33193.964,0.0,-0.11080017615371085,0.0,0.0,0.0,0.0,-2.156165106021928,-4.941303286443665,-2.992667911578327,0.015725084264444987,0.008010018657777293,-0.6921016460426143
11081,1.0,300.08206,33430.881,0.0,-0.1108101721411302,0.0,0.0,0.0,0.0,-2.1958570508642183,-4.9675707820360655,-2.9987253233261475,0.008487563531232303,0.008069381333435932,-0.7219242309358743
11082,1.0,300.36974,33363.248999999996,0.0,-0.11082016812854956,0.0,0.0,0.0,0.0,-2.183143497884488,-4.957558655147945,-3.0008923613150174,-0.0021907266616328883,-0.015410995985196884,-0.6940472888846343
11083,1.0,299.87833,33131.534,0.0,-0.1108301641159688,0.0,0.0,0.0,0.0,-2.1595534143563277,-4.950143792241155,-2.9614619363235373,-0.015557603142165883,-0.007180212827431832,-0.7240590171740613
11084,1.0,299.26235,33366.679,0.0,-0.11084016010338815,0.0,0.0,0.0,0.0,-2.184778984870898,-4.960541663442346,-2.9973167030371273,-0.010921142937082889,0.012763960145704788,-0.6951080097518193
11085,1.0,299.08671,33455.815,0.0,-0.1108501560908074,0.0,0.0,0.0,0.0,-2.194858898190708,-4.957218304439355,-3.017655165669377,0.0033572690387866566,0.017340824019656084,-0.7226534872978463
11086,1.0,299.79027,33193.727,0.0,-0.1108601850682841,0.0,0.0,0.0,0.0,-2.163544302525198,-4.942305694767596,-2.9842141633440074,-0.03190846154911997,-0.005396824561025115,-0.7061984880588643
11087,1.0,300.45416,33095.383,0.0,-0.11087018105570356,0.0,0.0,0.0,0.0,-2.173747731032198,-4.913082548633495,-2.973339760620787,-0.013104760737339188,-0.008718159799590381,-0.7117982350015164
11088,1.0,300.08939,33140.312000000005,0.0,-0.1108801770431227,0.0,0.0,0.0,0.0,-2.1619998053977683,-4.927797777185775,-2.9840297518258074,0.0059765399003635635,-0.007068116158268754,-0.7025726840335254
11089,1.0,299.89344,33134.607,0.0,-0.11089017303054216,0.0,0.0,0.0,0.0,-2.1722757826119277,-4.940764744015516,-2.959052832885777,0.021439387236902776,0.005311637078742765,-0.7380624780610953
11090,1.0,300.4144,33349.11,0.0,-0.11090016901796151,0.0,0.0,0.0,0.0,-2.1885051107886375,-4.954548491750865,-2.994243008858777,0.00938445715732381,-0.009479968442225041,-0.7131591717408303
11091,1.0,299.85101000000003,33389.301,0.0,-0.11091016500538076,0.0,0.0,0.0,0.0,-2.173028323461198,-4.968335887186575,-3.008149663831257,0.0026098774251998476,-0.0067656694133945835,-0.7061481092638923
11092,1.0,299.99116000000004,33229.651,0.0,-0.11092016099280011,0.0,0.0,0.0,0.0,-2.1574602422997478,-4.956732248366386,-2.986791871598407,-0.013183121447072788,0.004876656308863505,-0.6932852741469293
11093,1.0,299.38723,33414.617,0.0,-0.11093015698021924,0.0,0.0,0.0,0.0,-2.1734274426755875,-4.968184203646604,-3.0155976600163172,-0.008416708775589482,-0.002137666604246268,-0.7051300664909192
11094,1.0,299.15152,33659.611000000004,0.0,-0.11094018595769606,0.0,0.0,0.0,0.0,-2.217192551594868,-4.983307974639205,-3.031180635954237,-0.008722383431307223,-0.013079537902599888,-0.6948173589606343
11095,1.0,299.67156,33333.113,0.0,-0.11095018194511552,0.0,0.0,0.0,0.0,-2.175737855553608,-4.951630331462866,-3.0050659384769176,-0.00806930919002881,-0.0017598105445297784,-0.7065291926265024
11096,1.0,299.84161,32951.805,0.0,-0.11096017793253488,0.0,0.0,0.0,0.0,-2.138148100693788,-4.9309525313721245,-2.947425382688237,-0.005219619682836355,-0.0004701751508401746,-0.7064252534312443
11097,1.0,300.57585,33252.718,0.0,-0.11097017391995401,0.0,0.0,0.0,0.0,-2.164358651630568,-4.9535636126536655,-2.990073788672307,0.004863615780076506,0.00945604510073899,-0.7196328468947323
11098,1.0,300.0778,33385.203,0.0,-0.11098016990737347,0.0,0.0,0.0,0.0,-2.215318140234878,-4.925669648000745,-3.007280295245457,-0.014925931884074786,0.005708226714258114,-0.6936087745063563
11099,1.0,299.72392,33248.824,0.0,-0.1109901658947926,0.0,0.0,0.0,0.0,-2.1535733135911377,-4.967424975346675,-2.985813882601887,0.006237995815092254,0.0037800347747353863,-0.7374713783502582
11100,1.0,300.19004,33291.74,0.0,-0.11100016188221207,0.0,0.0,0.0,0.0,-2.166547981121638,-4.9486011189639045,-3.004708463841637,0.006935864323416513,0.008093321494873643,-0.7138004171991162
11101,1.0,300.66983,33425.941,0.0,-0.1110101578696312,0.0,0.0,0.0,0.0,-2.193137892895858,-4.967863307339936,-2.999650420667447,0.011661973654947188,0.016328945860291485,-0.7312307101893523
11102,1.0,299.68549,33436.567,0.0,-0.11102018684710802,0.0,0.0,0.0,0.0,-2.1828299983035477,-4.979160741979904,-3.001890615313537,0.018190006636963883,-0.00986727356574908,-0.7060908606332423
11103,1.0,299.91594,33383.638999999996,0.0,-0.11103018283452737,0.0,0.0,0.0,0.0,-2.184056740199618,-4.951566800681595,-3.0121692269779574,0.011849786653732887,0.004315233882855426,-0.7050725949452473
11104,1.0,299.85652999999996,33285.157,0.0,-0.11104017882194683,0.0,0.0,0.0,0.0,-2.1819434044660477,-4.949972755624275,-2.9859403362143673,0.001210563534373319,0.00013486770210540587,-0.6768859530009423
11105,1.0,300.0367,33179.958,0.0,-0.11105017480936596,0.0,0.0,0.0,0.0,-2.156388325018958,-4.9478439171641755,-2.981646384940587,0.003901749720472716,-0.003131018904082507,-0.7208071834956303
11106,1.0,299.58136,33305.377,0.0,-0.11106017079678543,0.0,0.0,0.0,0.0,-2.175111160366758,-4.9528409626823455,-2.9960508496871974,0.004414724403549375,-0.02082905806566798,-0.7037380736360402
11107,1.0,298.62921,33382.824,0.0,-0.11107016678420456,0.0,0.0,0.0,0.0,-2.184994503167168,-4.973859316131695,-2.988691107585847,-0.0015557886852193886,-0.012661192267562387,-0.7253914207905593
11108,1.0,299.15616,33308.459,0.0,-0.11108016277162391,0.0,0.0,0.0,0.0,-2.1710806541189775,-4.947296255485125,-3.0065628128496473,0.003927549803793986,-0.012474522214889488,-0.7020174736412303
11109,1.0,300.32315,33320.682,0.0,-0.11109015875904338,0.0,0.0,0.0,0.0,-2.179100326010458,-4.967142683868816,-2.982412300691177,-0.03584992945761257,-0.0009309993812774851,-0.7266035921501913
11110,1.0,300.10188,33505.3,0.0,-0.11110018773651997,0.0,0.0,0.0,0.0,-2.207997712237408,-4.965420563998856,-3.0113563977477367,-0.018750206272751282,0.01806059940044238,-0.6910240646937653
11111,1.0,300.41219,33441.186,0.0,-0.11111018372393933,0.0,0.0,0.0,0.0,-2.194940464823758,-4.9522194350710045,-3.0181256176908073,-0.023057728005120577,0.026488271643438872,-0.7214336355024563
11112,1.0,299.88941,33357.212999999996,0.0,-0.11112017971135868,0.0,0.0,0.0,0.0,-2.1612023775690683,-4.983047772013525,-2.995509672808787,0.02220824546578318,0.025237997013796375,-0.7074479064921724
11113,1.0,299.69581,33496.093,0.0,-0.11113017569877792,0.0,0.0,0.0,0.0,-2.198363527636588,-4.976462254313586,-3.007149991282597,0.00825625150300358,0.0036481099156904164,-0.7223727663576412
11114,1.0,299.93948,33547.863,0.0,-0.11114017168619728,0.0,0.0,0.0,0.0,-2.1963176743596775,-4.977369822428155,-3.024025165073047,0.031702314803024864,-0.021616409122123478,-0.6878261865831593
11115,1.0,299.88723,33319.497,0.0,-0.11115016767361652,0.0,0.0,0.0,0.0,-2.175980832927588,-4.974495535869485,-2.9778187313628273,0.004538993347488766,-0.006300031039214654,-0.7146051708260394
11116,1.0,299.82922,33319.128,0.0,-0.11116016366103587,0.0,0.0,0.0,0.0,-2.1789636385719677,-4.950199115696615,-2.9990201791052473,0.003852051221617856,-0.0015534823253417684,-0.6921798588178334
11117,1.0,300.11617,33498.935,0.0,-0.11117015964845522,0.0,0.0,0.0,0.0,-2.1971962635213877,-4.980936260130136,-3.004707146616507,-0.01185688852368379,0.0020185291641133182,-0.7268090894029723
11118,1.0,300.31788,33383.372,0.0,-0.11118018862593193,0.0,0.0,0.0,0.0,-2.181897605561528,-4.968954375047615,-2.996859423266997,-0.025180751422896677,0.01156480398360729,-0.7346118143155412
11119,1.0,300.6388,33264.037000000004,0.0,-0.1111901846133515,0.0,0.0,0.0,0.0,-2.174003880657478,-4.955327275777726,-2.982105387235887,-0.01714642286872018,0.012333660185987487,-0.7287898109634543
11120,1.0,300.5216,33474.555,0.0,-0.11120018060077064,0.0,0.0,0.0,0.0,-2.1867106448615377,-4.989081068408966,-2.999637248416147,-0.01159756742559079,-0.015845947776123283,-0.7199016418812604
11121,1.0,300.07877,33536.286,0.0,-0.11121017658818988,0.0,0.0,0.0,0.0,-2.213381211343718,-4.956466270215135,-3.024346162704727,-0.011286184524109689,-0.006628799285911555,-0.6951315779491454
11122,1.0,300.00349,33520.384,0.0,-0.11122017257560923,0.0,0.0,0.0,0.0,-2.192419498574958,-4.9826129863956155,-3.0143271457159266,0.00040640798845434557,-0.0067770754684452735,-0.7178559000618613
11123,1.0,300.0548,33531.739,0.0,-0.11123016856302848,0.0,0.0,0.0,0.0,-2.1906447910248077,-4.9800604067436955,-3.022106373358677,0.007970154359092993,0.02194634057993518,-0.7050183657998953
11124,1.0,300.48023,33435.731,0.0,-0.11124016455044783,0.0,0.0,0.0,0.0,-2.183904955334638,-4.965732442379636,-3.013989936082647,-0.0011342724892939788,0.012702138717353487,-0.7385790734920793
11125,1.0,299.59351000000004,33389.108,0.0,-0.11125016053786718,0.0,0.0,0.0,0.0,-2.162254435147898,-4.995895175331466,-2.9913054954938674,0.012960986627649787,-0.0049003803440548855,-0.7195583527473802
11126,1.0,299.36216,33512.734,0.0,-0.11126015652528642,0.0,0.0,0.0,0.0,-2.1989095681154778,-4.960721819310125,-3.027402935606407,-0.0017438370620033185,-0.006888338536751083,-0.7124132980772183
11127,1.0,299.80492000000004,33465.992,0.0,-0.11127018550276335,0.0,0.0,0.0,0.0,-2.1921283918212278,-4.977588279149716,-3.0031092512088073,-0.004460867205153316,-0.004808544725216415,-0.6912229352908923
11128,1.0,300.13924,33214.388,0.0,-0.1112801814901826,0.0,0.0,0.0,0.0,-2.1500527761186876,-4.968665598769116,-2.9776261125188173,-0.014426739023558286,-0.02188956615033198,-0.7183713302552304
11129,1.0,300.12814,33501.495,0.0,-0.11129017747760184,0.0,0.0,0.0,0.0,-2.196402787368078,-4.964481686456195,-3.0227334738455673,0.003979653150436187,0.01107003092002699,-0.6936181572022824
11130,1.0,300.17695,33753.073,0.0,-0.11130017346502119,0.0,0.0,0.0,0.0,-2.226192542958098,-5.002365587820045,-3.0315330443390174,-0.003623926168928666,0.02091839632698498,-0.7336117972618473
11131,1.0,300.00219,33548.621,0.0,-0.11131016945244032,0.0,0.0,0.0,0.0,-2.186122655828508,-4.9748482482292955,-3.0369721708758175,-0.0005988156002159985,0.01062227671408709,-0.7088241534404973
11132,1.0,300.18532000000005,33459.826,0.0,-0.1113201654398599,0.0,0.0,0.0,0.0,-2.190662320251538,-4.974773065071875,-3.0055162268213573,-0.026021031624825875,-0.013506551892242886,-0.7213042738621893
11133,1.0,300.27918999999997,33573.331,0.0,-0.11133016142727914,0.0,0.0,0.0,0.0,-2.206317844896618,-4.983019603660745,-3.016116950692567,0.0037897481954940267,-0.01067037164333369,-0.6977887047463833
11134,1.0,300.61431,33541.062000000005,0.0,-0.11134015741469838,0.0,0.0,0.0,0.0,-2.203102701004308,-4.9746454968842855,-3.017896927143237,0.02781374766900318,-0.006825480249572453,-0.7318204926750592
11135,1.0,300.30525,33503.106,0.0,-0.11135018639217531,0.0,0.0,0.0,0.0,-2.175427497047978,-5.008787668278855,-2.999892384791327,0.017763178072089183,-0.0012855705889259388,-0.7303931880541953
11136,1.0,300.12619,33464.278,0.0,-0.11136018237959455,0.0,0.0,0.0,0.0,-2.179574020432208,-4.977871482552665,-3.0148592033434367,0.01034375047359869,-0.00027543703345101877,-0.7348101276251133
11137,1.0,300.26296,33402.606,0.0,-0.11137017836701368,0.0,0.0,0.0,0.0,-2.1644326188878678,-4.972506019298136,-3.016619421417157,0.002196120394565208,-0.003507810341918927,-0.7068606064692102
11138,1.0,299.66267999999997,33482.119,0.0,-0.11138017435443315,0.0,0.0,0.0,0.0,-2.1811289540356684,-4.993242385244654,-3.003356686883227,0.0006098495999624694,0.013504442305534686,-0.6994113639865274
11139,1.0,299.85114,33708.237,0.0,-0.1113901703418525,0.0,0.0,0.0,0.0,-2.226327406546408,-4.975116050230725,-3.0450188965449674,-0.0031130663414607267,-0.020426378290426584,-0.6958261304951924
11140,1.0,300.14216,33679.253,0.0,-0.11140016632927185,0.0,0.0,0.0,0.0,-2.1889356407561276,-5.010773841124875,-3.037942357846567,-0.0022118648825690678,-0.024284735372716776,-0.7148884046264923
11141,1.0,299.73487,33417.359,0.0,-0.1114101623166911,0.0,0.0,0.0,0.0,-2.191495819783798,-4.970730197172875,-2.995816586264077,-0.02275347433134308,3.559746907594666e-05,-0.7189336941932313
11142,1.0,300.25212999999997,33551.757000000005,0.0,-0.11142015830411023,0.0,0.0,0.0,0.0,-2.189983746659568,-4.985391926119875,-3.0235205665232474,-0.005044407158319225,0.028126937195412576,-0.7273669646430303
11143,1.0,300.15756,33678.092000000004,0.0,-0.11143018728158727,0.0,0.0,0.0,0.0,-2.219536705701218,-4.998948300532786,-3.018814019808747,-0.010978578005751291,0.029177257050321072,-0.7180868501571543
11144,1.0,300.07695,33476.531,0.0,-0.11144018326900651,0.0,0.0,0.0,0.0,-2.182634947659298,-4.9755902512775245,-3.017804417409107,-0.015996494449481084,0.016317444458406383,-0.7245557022405803
11145,1.0,299.947,33523.453,0.0,-0.11145017925642564,0.0,0.0,0.0,0.0,-2.205187463085058,-4.982204038655255,-3.002901230963277,0.009047309433624922,0.0015459656307999284,-0.7031715047101244
11146,1.0,300.51849,33641.109,0.0,-0.111460175243845,0.0,0.0,0.0,0.0,-2.189871681198508,-4.989604209435595,-3.046581024224137,0.02137715442901088,-0.01298630065489809,-0.7370721780758603
11147,1.0,299.96344,33530.626000000004,0.0,-0.11147017123126446,0.0,0.0,0.0,0.0,-2.2008471049566976,-4.9853169456124755,-3.006309095024607,0.022924788578750476,-0.026012421025476077,-0.7071963468898453
11148,1.0,300.33654,33617.878,0.0,-0.11148016721868381,0.0,0.0,0.0,0.0,-2.1864245030332983,-5.0057180271009045,-3.026852943452127,0.013737550623540687,-0.014005758938260787,-0.7279789575709293
11149,1.0,300.42064,33677.058,0.0,-0.11149016320610305,0.0,0.0,0.0,0.0,-2.212064290188748,-4.991628075185336,-3.0332923504876472,-0.006496734497027774,0.013676940029058886,-0.6928618065326364
11150,1.0,300.72700000000003,33489.125,0.0,-0.11150015919352219,0.0,0.0,0.0,0.0,-2.188144697728068,-4.994264450620525,-2.997448628200147,-0.019734067053600785,0.028368153540718772,-0.7075261091348903
11151,1.0,299.81665,33503.077000000005,0.0,-0.11151018817099922,0.0,0.0,0.0,0.0,-2.186173520983528,-4.992302798426925,-3.0056225167568473,-0.018178776786105584,-0.01137145458627519,-0.7208406511464333
11152,1.0,299.99251,33794.476,0.0,-0.11152018415841836,0.0,0.0,0.0,0.0,-2.2134163711221877,-5.022225796405095,-3.037034891057007,0.003713070696826546,-0.008705522848318211,-0.7305361171133014
11153,1.0,299.92762999999997,33772.708,0.0,-0.1115301801458376,0.0,0.0,0.0,0.0,-2.224578131573768,-5.020436194078475,-3.021045601828987,0.0014494807138776085,-0.007359513106827393,-0.7369401515878302
11154,1.0,299.71823,33627.664,0.0,-0.11154017613325695,0.0,0.0,0.0,0.0,-2.192314627189608,-5.010911440488455,-3.0187442068768573,-0.002497247482509138,0.002368243114227398,-0.7286219559518883
11155,1.0,299.7171,33512.806000000004,0.0,-0.11155017212067642,0.0,0.0,0.0,0.0,-2.1904802392085685,-4.9848170080131355,-3.0117588606874572,-0.015925500067974486,-0.008142110500438742,-0.7208987103771634
11156,1.0,299.95788,33486.404,0.0,-0.11156016810809577,0.0,0.0,0.0,0.0,-2.1863168958726775,-4.975358520979655,-3.017355344964787,-0.0038084496512647164,0.013769000893394587,-0.6885668622737583
11157,1.0,300.0419,33673.104,0.0,-0.1115701640955149,0.0,0.0,0.0,0.0,-2.195164291770848,-4.985592752289695,-3.055025754532567,0.03157826664628227,0.023457007313026378,-0.6973683680748993
11158,1.0,299.98446,33778.082,0.0,-0.11158016008293414,0.0,0.0,0.0,0.0,-2.2086322094500277,-5.008953334670204,-3.050107945172217,0.00949025060026481,0.01003308211608811,-0.7084899632925152
11159,1.0,300.12712999999997,33607.657999999996,0.0,-0.11159018906041107,0.0,0.0,0.0,0.0,-2.2079348907312077,-4.993556695425675,-3.014397161297837,0.019058936485470582,-0.024541535504560976,-0.7094883490135484
11160,1.0,300.59922,33596.172,0.0,-0.11160018504783031,0.0,0.0,0.0,0.0,-2.182881876708668,-5.007374994989435,-3.022140621212057,0.015113377073074186,-0.02750334458036877,-0.7296417617800353
11161,1.0,300.1972,33889.992999999995,0.0,-0.11161018103524956,0.0,0.0,0.0,0.0,-2.222798864398168,-5.027781446703395,-3.0511313277732173,0.027227293709874673,0.013653523819247886,-0.7002512267294153
11162,1.0,300.16925,33894.354,0.0,-0.11162017702266913,0.0,0.0,0.0,0.0,-2.2260981080487774,-5.019829459918595,-3.057109807338247,-0.016509964003906585,0.018211693228854183,-0.7263867870262943
11163,1.0,299.91735,33508.593,0.0,-0.11163017301008826,0.0,0.0,0.0,0.0,-2.1649832189922082,-4.993081379803765,-3.0277110649618173,-0.017118899956253885,-0.007889894818671993,-0.7107653278495764
11164,1.0,300.30388,33329.895,0.0,-0.11164016899750773,0.0,0.0,0.0,0.0,-2.153615971420348,-4.9831436254729855,-2.9946963369535173,-0.021265693878260578,0.016198302458647985,-0.7418374527661563
11165,1.0,299.37618,33638.552,0.0,-0.11165016498492686,0.0,0.0,0.0,0.0,-2.216744188425618,-4.991630709635595,-3.016904853970327,0.02184560730799358,0.008040524983838032,-0.7055196003593633
11166,1.0,299.92678,33841.806000000004,0.0,-0.1116601609723461,0.0,0.0,0.0,0.0,-2.213476862153158,-5.014732811915595,-3.058854320035417,0.007972763782075521,-0.025525441881664977,-0.7417172407742922
11167,1.0,299.21162000000004,33655.279,0.0,-0.11167015695976545,0.0,0.0,0.0,0.0,-2.1991519375393977,-5.006603607688305,-3.024608695805637,-0.014762812803476187,-0.04498634684080676,-0.7117468328239434
11168,1.0,299.76653,33518.132000000005,0.0,-0.11168018593724227,0.0,0.0,0.0,0.0,-2.164114458356468,-4.9947075448892555,-3.029853278323237,-0.0026942203635238475,-0.009723090001694272,-0.7129434203970374
11169,1.0,300.12478,33652.224,0.0,-0.11169018192466162,0.0,0.0,0.0,0.0,-2.186088509300138,-5.004564745837086,-3.0387824435044766,0.024150430085211876,0.02124197875967008,-0.7032354711889374
11170,1.0,300.32864,33858.592000000004,0.0,-0.11170017791208098,0.0,0.0,0.0,0.0,-2.226523571765768,-5.022905079272136,-3.042737969244857,0.007453952271797812,0.02766882757345068,-0.7221609869542404
11171,1.0,299.95318,33904.207,0.0,-0.11171017389950022,0.0,0.0,0.0,0.0,-2.248662579825718,-5.019490223785115,-3.037879536340367,-0.0009062858769659522,-0.003292776784496767,-0.7261747036478633
11172,1.0,300.58083999999997,33573.481,0.0,-0.11172016988691957,0.0,0.0,0.0,0.0,-2.1839138719355184,-5.007581900659855,-3.014004121584047,-0.006023515390899683,-0.0017659544878361386,-0.7275006123312203
11173,1.0,300.40427999999997,33455.127,0.0,-0.11173016587433882,0.0,0.0,0.0,0.0,-2.176877660591098,-4.996695744235475,-2.995949828652227,-0.014520097861272086,0.013795980703807288,-0.7277680292976123
11174,1.0,299.92728999999997,33801.011,0.0,-0.11174016186175806,0.0,0.0,0.0,0.0,-2.2107665194606683,-5.025501532653386,-3.038395077991247,-0.016896886726842884,-0.0025932175670556473,-0.7157549969070183
11175,1.0,298.98077,33893.083,0.0,-0.11175015784917763,0.0,0.0,0.0,0.0,-2.208540408990968,-5.027688430344215,-3.066422082382297,-0.018123922465441884,-0.005833670521688454,-0.7150007031350754
11176,1.0,299.37332000000004,33613.711,0.0,-0.11176018682665423,0.0,0.0,0.0,0.0,-2.1954259129466682,-5.008776826502785,-3.0135259688618574,-0.02031961314063968,0.01848946054501768,-0.7135269916596313
11177,1.0,299.81219,33573.827000000005,0.0,-0.11177018281407358,0.0,0.0,0.0,0.0,-2.183476147892318,-5.006115829090165,-3.0160131938823267,0.003448709996711177,-0.0008217765832405343,-0.7310316369422053
11178,1.0,299.85937,33807.719,0.0,-0.11178017880149294,0.0,0.0,0.0,0.0,-2.211072824965898,-5.020369826196925,-3.045259948743757,0.016325596055460884,-0.017107190838098287,-0.7177787309342454
11179,1.0,299.75957,33820.257000000005,0.0,-0.11179017478891218,0.0,0.0,0.0,0.0,-2.218317461855888,-5.027120098363125,-3.035076177288697,0.002366788188408808,-0.042747528188352556,-0.7247254925598373
11180,1.0,299.55699,33732.198,0.0,-0.11180017077633153,0.0,0.0,0.0,0.0,-2.186118602828108,-5.031330659153674,-3.036296535709137,0.026165307293314774,-0.01798962123093738,-0.7156411582582833
11181,1.0,299.63291,33609.888999999996,0.0,-0.11181016676375077,0.0,0.0,0.0,0.0,-2.198399194040108,-5.002870996969925,-3.015296826061627,0.003119373316708177,0.026993567309307676,-0.7115690378288962
11182,1.0,300.24022,33673.528,0.0,-0.11182016275117013,0.0,0.0,0.0,0.0,-2.2037440883176083,-5.022991712155686,-3.0091758835325373,0.002004339812362938,0.027742025773924768,-0.7171609928782794
11183,1.0,300.31555,33801.44,0.0,-0.11183015873858948,0.0,0.0,0.0,0.0,-2.2122552878325976,-5.024816676910795,-3.037721773299797,-0.013144246080486088,0.002787148164645107,-0.7378639418365013
11184,1.0,299.99768,33945.445,0.0,-0.11184018771606608,0.0,0.0,0.0,0.0,-2.2279395887805182,-5.025182966821945,-3.0654453092858973,-0.0072384565710050435,0.00986240054204315,-0.7133450727366774
11185,1.0,299.98537000000005,33815.258,0.0,-0.11185018370348554,0.0,0.0,0.0,0.0,-2.2246942500352276,-5.0208393662932655,-3.033460347354227,-0.006369159216687073,-0.01061789744715489,-0.7151489314922044
11186,1.0,300.55012,33611.721,0.0,-0.11186017969090489,0.0,0.0,0.0,0.0,-2.182336140204808,-5.005790677133075,-3.028997081988737,-0.008280309404102912,-0.02045214828021988,-0.7133752067946513
11187,1.0,300.03112999999996,33737.964,0.0,-0.11187017567832414,0.0,0.0,0.0,0.0,-2.214733089627138,-5.012304963350985,-3.028460566060787,0.006666659781198093,-0.01062994600409399,-0.7159030834091333
11188,1.0,299.74616000000003,33959.532999999996,0.0,-0.11188017166574349,0.0,0.0,0.0,0.0,-2.2432545600669878,-5.033484119591205,-3.046111484127797,0.01010122318531311,0.013964379830676986,-0.7084431612703963
11189,1.0,299.86879,33811.038,0.0,-0.11189016765316273,0.0,0.0,0.0,0.0,-2.205694594760108,-5.019756607236404,-3.052260189709627,0.006181906950506714,0.025322984379183976,-0.7335670318724293
11190,1.0,299.84026,33720.102999999996,0.0,-0.11190016364058208,0.0,0.0,0.0,0.0,-2.212681866124698,-5.018197519307535,-3.019189935595847,-0.007020358945280483,0.002069250944244168,-0.7176277060068403
11191,1.0,299.52336,33804.467000000004,0.0,-0.11191015962800144,0.0,0.0,0.0,0.0,-2.216078989734968,-5.020042749064645,-3.039592232984397,-0.005536441204229204,-0.01309739846211259,-0.7254507871139183
11192,1.0,299.38133,33832.872,0.0,-0.11192018860547825,0.0,0.0,0.0,0.0,-2.2089341579798276,-5.023832608413675,-3.051581616117657,0.026447574453172376,-0.013386503033644987,-0.7178843318596674
11193,1.0,299.50182,33838.032999999996,0.0,-0.1119301845928975,0.0,0.0,0.0,0.0,-2.224449651461088,-5.024109934966045,-3.037357408563837,0.022163633077130276,0.004615219747211726,-0.7146648309919273
11194,1.0,299.17321,33803.847,0.0,-0.11194018058031685,0.0,0.0,0.0,0.0,-2.223404787957968,-5.014906280332716,-3.037214438974727,0.0028625347826851874,-0.004832460163351686,-0.7085705876029723
11195,1.0,300.14553,33644.633,0.0,-0.11195017656773598,0.0,0.0,0.0,0.0,-2.178890380589738,-5.020937550227955,-3.0273004960212972,-0.015550449596459886,0.004231480048139566,-0.7217202636907443
11196,1.0,299.56962999999996,33606.611000000004,0.0,-0.11196017255515545,0.0,0.0,0.0,0.0,-2.1864300759088477,-5.025072218586015,-3.0040683937534673,-0.010095139429062691,0.02146550679798058,-0.7179107979522793
11197,1.0,299.67904,34041.771,0.0,-0.11197016854257458,0.0,0.0,0.0,0.0,-2.2269325195061276,-5.050035458649695,-3.070880180172277,-0.0003387652052310227,0.013281844430815988,-0.7145670219597743
11198,1.0,300.54975,34044.592000000004,0.0,-0.11198016452999404,0.0,0.0,0.0,0.0,-2.227438941906108,-5.049526503124465,-3.071740328182167,-0.005909209025918525,-0.01172886437354879,-0.7330946040133043
11199,1.0,300.8317,33636.792,0.0,-0.1119901605174134,0.0,0.0,0.0,0.0,-2.1833664129064876,-5.034681173259345,-3.006697372462927,-0.011934009015294988,-0.011808134981872187,-0.7092915555791263
11200,1.0,300.02373,33707.45,0.0,-0.11200018949489021,0.0,0.0,0.0,0.0,-2.193764993382748,-5.019028688364566,-3.0334293419011673,0.01021215056386079,-0.01055588046153429,-0.7261803575834214
11201,1.0,300.36626,34090.193,0.0,-0.11201018548230934,0.0,0.0,0.0,0.0,-2.225834359047748,-5.051633252732385,-3.0850998281006468,0.007840513771073462,0.008730883586396121,-0.7072295612281233
11202,1.0,299.46814,33894.877,0.0,-0.11202018146972881,0.0,0.0,0.0,0.0,-2.2352953792064776,-5.018286786641346,-3.049613884423457,-0.01036849404104069,0.0036170716333271766,-0.7196522506341473
11203,1.0,299.11327,33746.696,0.0,-0.11203017745714794,0.0,0.0,0.0,0.0,-2.191106934395418,-5.023473512578235,-3.043572684677237,0.005231122807246625,0.00990138706216582,-0.7155130023856353
11204,1.0,299.6254,33708.564,0.0,-0.1120401734445674,0.0,0.0,0.0,0.0,-2.217911857840858,-5.011516249473146,-3.0171336458429074,0.004291169395630446,0.02250229064480318,-0.7116271274571294
11205,1.0,299.96702,33720.331,0.0,-0.11205016943198676,0.0,0.0,0.0,0.0,-2.2023859278835682,-5.026546598806525,-3.021205897994807,0.0016467989105263983,0.0036746416669088964,-0.7131309628580463
11206,1.0,299.98137,34056.645,0.0,-0.11206016541940589,0.0,0.0,0.0,0.0,-2.239364186308038,-5.059926704800886,-3.053078794465417,0.007117637946306174,-0.02871123698482847,-0.7116623075006013
11207,1.0,300.47053999999997,34068.594,0.0,-0.11207016140682535,0.0,0.0,0.0,0.0,-2.2288658006969277,-5.055545208718465,-3.071590873792417,-0.02250904091696938,-0.00862132794583382,-0.7319989766801743
11208,1.0,300.23987999999997,33646.399,0.0,-0.11208015739424448,0.0,0.0,0.0,0.0,-2.178759873976858,-5.041278647310465,-3.0076264214796176,-0.004567416633993925,0.0003316599307597867,-0.7077169243937224
11209,1.0,300.84842000000003,33779.08,0.0,-0.1120901863717213,0.0,0.0,0.0,0.0,-2.1681105141008477,-5.048152637313875,-3.051733603632657,-0.004303592551131516,0.0012179614760034387,-0.7469147071622423
11210,1.0,300.05053,34245.622,0.0,-0.11210018235914065,0.0,0.0,0.0,0.0,-2.264209990685128,-5.059816564515015,-3.0857874196185073,0.009044478108870492,-0.011430045773307689,-0.7069588613314073
11211,1.0,300.23467999999997,34043.323,0.0,-0.1121101783465599,0.0,0.0,0.0,0.0,-2.2508659934931776,-5.049417477413705,-3.0480368619678173,0.014506445329424687,-0.009404085331635961,-0.7312543695791873
11212,1.0,299.60485,33577.736000000004,0.0,-0.11212017433397925,0.0,0.0,0.0,0.0,-2.171941004778888,-5.011818501977975,-3.023033902500217,0.022776463962861978,-0.0031239236202572573,-0.7087930567949283
11213,1.0,300.05591,33642.312999999995,0.0,-0.11213017032139871,0.0,0.0,0.0,0.0,-2.191820769090868,-5.017457542759504,-3.017144690268997,-0.003949005881286536,-0.0005693017323632065,-0.7246122517286614
11214,1.0,299.93433999999996,33986.27,0.0,-0.11214016630881785,0.0,0.0,0.0,0.0,-2.2186934789679977,-5.041062622389146,-3.0712215441309674,-0.0019158374823784383,0.00044578105335766455,-0.7192804891724572
11215,1.0,300.09515,34038.919,0.0,-0.1121501622962372,0.0,0.0,0.0,0.0,-2.218637040937428,-5.048547500877846,-3.079796983702297,-0.004294586277617666,0.02174556304611998,-0.7300477913601073
11216,1.0,299.39831000000004,33917.301,0.0,-0.11216015828365644,0.0,0.0,0.0,0.0,-2.227349471922278,-5.048568880454955,-3.034094135291777,0.007922648330804513,0.03075624926415547,-0.7309870032753003
11217,1.0,300.28161,33838.876000000004,0.0,-0.11217018726113326,0.0,0.0,0.0,0.0,-2.239599564306268,-5.027449607295646,-3.019124276989367,-0.02124380260985008,-0.003972652200195247,-0.7195878281927893
11218,1.0,300.33603999999997,33896.16,0.0,-0.11218018324855261,0.0,0.0,0.0,0.0,-2.225154164255618,-5.047382263262845,-3.031049926691337,0.002258418557088558,-0.02950172709009377,-0.7350608259648553
11219,1.0,300.30843,34112.907,0.0,-0.11219017923597185,0.0,0.0,0.0,0.0,-2.245794068792618,-5.057096899921604,-3.0665808586729675,-0.014153004442792787,-0.02100670411295028,-0.7275237752285063
11220,1.0,300.23072,34214.848,0.0,-0.11220017522339121,0.0,0.0,0.0,0.0,-2.2326410692445178,-5.056908232752986,-3.110910246572937,0.007256118330848123,-0.008734768184629501,-0.7065362549796994
11221,1.0,300.08087,33825.989,0.0,-0.11221017121081056,0.0,0.0,0.0,0.0,-2.174457411402238,-5.042998132730165,-3.064800375597247,-0.016249082500659585,-0.01921700147457038,-0.7194059396673383
11222,1.0,299.47074,33760.974,0.0,-0.1122201671982298,0.0,0.0,0.0,0.0,-2.211748358807568,-5.019890457574615,-3.0308544707470473,-0.02088807583099258,-0.006146626493949805,-0.7038711539041743
11223,1.0,300.10232,34211.902,0.0,-0.11223016318564916,0.0,0.0,0.0,0.0,-2.2711067788157875,-5.047033806553455,-3.081423148787787,0.010548245622030791,0.0026518081461380876,-0.7155091723002573
11224,1.0,300.14645,34159.558,0.0,-0.1122401591730684,0.0,0.0,0.0,0.0,-2.254124504489768,-5.062049767735416,-3.067478395611547,0.021334966747847278,0.010891956267952389,-0.7088492009829693
11225,1.0,300.3045,33832.082,0.0,-0.11225018815054522,0.0,0.0,0.0,0.0,-2.2068251792216875,-5.042227556029116,-3.035055405661647,0.009222270368142221,0.002268566763465108,-0.7295785248412943
11226,1.0,300.09087999999997,33887.488,0.0,-0.11226018413796457,0.0,0.0,0.0,0.0,-2.199393293713218,-5.049840610655465,-3.051716378380957,0.0017041131997828783,-0.017639796633912384,-0.7310263275116813
11227,1.0,300.32892000000004,34037.377,0.0,-0.11227018012538392,0.0,0.0,0.0,0.0,-2.215201008523318,-5.052941763911525,-3.0783699222614573,0.002306186814502918,0.025757300862297678,-0.7260577745863234
11228,1.0,299.90696,34046.262,0.0,-0.11228017611280339,0.0,0.0,0.0,0.0,-2.246108581623658,-5.056402924928116,-3.046702006286077,-0.0005300268817920805,0.029216858917229475,-0.7246609485284673
11229,1.0,300.09172,34115.592000000004,0.0,-0.11229017210022252,0.0,0.0,0.0,0.0,-2.231626907219428,-5.075772011189695,-3.0628893859086475,-0.0071468877409179045,0.007736858184518452,-0.7253136437128833
11230,1.0,299.43688,33946.219,0.0,-0.11230016808764176,0.0,0.0,0.0,0.0,-2.225952504009408,-5.0390313599136745,-3.0538191763134868,-0.035715706243365765,-0.005454077143350505,-0.7408714809158223
11231,1.0,299.97539,33902.872,0.0,-0.11231016407506111,0.0,0.0,0.0,0.0,-2.198112545586818,-5.058108630146455,-3.049405256227867,-0.01187310863128459,-0.008245680467360303,-0.7117344407752203
11232,1.0,299.38301,34079.163,0.0,-0.11232016006248036,0.0,0.0,0.0,0.0,-2.199218609395978,-5.071096368603245,-3.0888997186256675,0.007442343465402112,0.0017373640150644782,-0.7468885754421634
11233,1.0,299.60523,34131.791,0.0,-0.11233018903995706,0.0,0.0,0.0,0.0,-2.217364297486818,-5.063824272635546,-3.0940237243813673,-0.001138286479565129,-0.0070112769819841644,-0.6786577829208084
11234,1.0,299.85022999999995,33871.657999999996,0.0,-0.11234018502737653,0.0,0.0,0.0,0.0,-2.2105389434882077,-5.065160242892395,-3.020439171644137,0.0033895944527519263,0.007192876325856623,-0.7403658184534173
11235,1.0,300.72696,33887.575,0.0,-0.11235018101479588,0.0,0.0,0.0,0.0,-2.218853268508768,-5.045262240078615,-3.036861118664857,-0.0013359419871722088,0.016879266307603884,-0.7046173315428162
11236,1.0,300.17947000000004,34092.108,0.0,-0.11236017700221523,0.0,0.0,0.0,0.0,-2.2441198756523875,-5.057081802495116,-3.061947873915727,0.008509506272747882,0.018589008314342282,-0.7326672353861262
11237,1.0,301.03632999999996,34194.8,0.0,-0.11237017298963448,0.0,0.0,0.0,0.0,-2.2313634621934275,-5.0777310289330355,-3.085271067367547,0.007796072824337482,-0.013355532031088387,-0.7194673223583964
11238,1.0,300.49368,34120.327000000005,0.0,-0.11238016897705372,0.0,0.0,0.0,0.0,-2.205740393664628,-5.064578839985015,-3.1014082911101672,0.013061080538778287,-0.024216633820245678,-0.7448006317560992
11239,1.0,300.00295,33998.8,0.0,-0.11239016496447307,0.0,0.0,0.0,0.0,-2.224162091082708,-5.045992996050735,-3.064631162830547,0.02084728947471728,-0.00881795794301469,-0.7130951039370073
11240,1.0,299.71362999999997,33868.108,0.0,-0.11240016095189242,0.0,0.0,0.0,0.0,-2.231215730328848,-5.030799513451255,-3.033043901563127,0.008040909917551022,0.006612300838508284,-0.7172635641859023
11241,1.0,299.77822000000003,33908.626000000004,0.0,-0.11241018992936902,0.0,0.0,0.0,0.0,-2.2074325213316275,-5.049002348847735,-3.0509407354294074,0.004589703475243466,-0.002123851243107798,-0.7342228377346522
11242,1.0,299.89088,34136.509,0.0,-0.11242018591678848,0.0,0.0,0.0,0.0,-2.2534355957467778,-5.067835020506375,-3.055375528467087,-0.014218834288539687,0.009550785707614163,-0.7285090494932454
11243,1.0,299.66073,34184.317,0.0,-0.11243018190420784,0.0,0.0,0.0,0.0,-2.232267990557698,-5.069271201198116,-3.089639695173697,-0.004150840133631026,0.015603519583697486,-0.7260021471558333
11244,1.0,299.68022,33982.041,0.0,-0.11244017789162719,0.0,0.0,0.0,0.0,-2.205084618199908,-5.062781232982605,-3.061825979928697,0.003653076867680616,-4.298103775339816e-07,-0.7196601641174283
11245,1.0,299.78174,34038.46,0.0,-0.11245017387904643,0.0,0.0,0.0,0.0,-2.2221652791106377,-5.0580919115198055,-3.066584709023347,-0.013597026006921989,-0.007795727914003442,-0.7048261927859294
11246,1.0,300.45273,34254.55,0.0,-0.11246016986646556,0.0,0.0,0.0,0.0,-2.2586721735885877,-5.0699223157123745,-3.0839334759105372,0.0019661418034680883,-0.000858042536977205,-0.7089803763409153
11247,1.0,300.21695,34132.829,0.0,-0.11247016585388503,0.0,0.0,0.0,0.0,-2.224694554010258,-5.071549696697986,-3.0792835698766265,-0.0016298307203767683,0.005357458781390015,-0.7280141072168983
11248,1.0,299.78335,33906.003,0.0,-0.11248016184130438,0.0,0.0,0.0,0.0,-2.2046490219819184,-5.0523851856315956,-3.049544172816577,0.002298532925897538,0.01852088244386878,-0.7341509273750554
11249,1.0,299.48226,33970.718,0.0,-0.11249019081878098,0.0,0.0,0.0,0.0,-2.210639356573118,-5.0531563702827045,-3.062454397640717,0.005468235185672795,-0.013371972013960887,-0.7238585253767743
11250,1.0,299.08018,34081.234,0.0,-0.11250018680620055,0.0,0.0,0.0,0.0,-2.208347283521908,-5.077263110036855,-3.0742338353532572,0.02050361935879968,-0.008905989111702692,-0.7474569074232532
11251,1.0,299.31175,34108.032,0.0,-0.1125101827936198,0.0,0.0,0.0,0.0,-2.262062812398218,-5.053713353862674,-3.0522138841800572,0.014107906707341985,-0.013232453554691489,-0.7090373007315334
11252,1.0,299.74329,34202.604,0.0,-0.11252017878103915,0.0,0.0,0.0,0.0,-2.2479737724077378,-5.0724628376881045,-3.0763008655572572,0.002277262577148318,-0.008512747457167763,-0.7218661311751403
11253,1.0,300.01768,34125.807,0.0,-0.11253017476845839,0.0,0.0,0.0,0.0,-2.245079322172078,-5.063538738757365,-3.064775044344747,-0.02671600872266477,-0.015233656952694883,-0.7151405721788794
11254,1.0,299.93077999999997,34117.411,0.0,-0.11254017075587752,0.0,0.0,0.0,0.0,-2.2266797136061776,-5.067881630010975,-3.076279587305157,-0.027885001442535372,0.009694313394879242,-0.7260296670285493
11255,1.0,299.93216,34280.835,0.0,-0.11255016674329688,0.0,0.0,0.0,0.0,-2.2485364301882678,-5.068793453775966,-3.1031880649108174,-0.006493847240867824,0.011183898953014889,-0.7204468413625673
11256,1.0,300.30446,34192.869,0.0,-0.11256016273071634,0.0,0.0,0.0,0.0,-2.2405436094244378,-5.069583383553925,-3.0836514884077073,-0.003949687798603836,0.025493400887002773,-0.7181310683915183
11257,1.0,300.37039,33832.496,0.0,-0.1125701587181357,0.0,0.0,0.0,0.0,-2.2221113742053182,-5.034242030666005,-3.027880683028557,0.005187910628906915,-0.0043403665383358265,-0.7191416840412583
11258,1.0,300.4762,33995.836,0.0,-0.11258018769561251,0.0,0.0,0.0,0.0,-2.2229417326622682,-5.0679295567407046,-3.043014079897107,0.013704571359285888,0.0013493759609730387,-0.7171317099503894
11259,1.0,299.98597,34345.356,0.0,-0.11259018368303164,0.0,0.0,0.0,0.0,-2.2421018867532276,-5.090002500894135,-3.1080261314882973,0.018114799161541482,0.00920122870994057,-0.7203520416832113
11260,1.0,300.30045,34312.244,0.0,-0.1126001796704511,0.0,0.0,0.0,0.0,-2.234924833644908,-5.108629584107486,-3.0865108801899073,0.00967161659263924,0.0007165044169459803,-0.7295261296786233
11261,1.0,300.38886,34258.383,0.0,-0.11261017565787024,0.0,0.0,0.0,0.0,-2.203969637789868,-5.106246926497335,-3.1034763345642675,0.0087061529885554,-0.015885151435742383,-0.7182914658823484
11262,1.0,300.11051000000003,34230.216,0.0,-0.11262017164528948,0.0,0.0,0.0,0.0,-2.2550016751013375,-5.081916967746155,-3.0682121913339673,-0.01042841055920399,0.003227780336957117,-0.7178539951516734
11263,1.0,299.3031,34136.136,0.0,-0.11263016763270906,0.0,0.0,0.0,0.0,-2.2325798689384775,-5.086371113860745,-3.0575820832098572,0.0006572654895220534,0.003921933865114737,-0.7170614714534573
11264,1.0,299.932,34127.422999999995,0.0,-0.11264016362012819,0.0,0.0,0.0,0.0,-2.236096049435498,-5.074130850002725,-3.063657632134467,-0.016759424152026383,0.0012902228254350787,-0.7305056689477963
11265,1.0,299.71311000000003,34135.781,0.0,-0.11265015960754765,0.0,0.0,0.0,0.0,-2.2318377645652374,-5.068651497436955,-3.0759356902212174,-0.019688246870828683,-0.010583893787048989,-0.7269358976529873
11266,1.0,300.04677000000004,33854.008,0.0,-0.11266018858502447,0.0,0.0,0.0,0.0,-2.202388866308858,-5.047193596094225,-3.041190533692137,-0.017448938818576183,-0.002926240248272427,-0.7504266117438403
11267,1.0,300.06301,33838.662000000004,0.0,-0.1126701845724436,0.0,0.0,0.0,0.0,-2.190249623485808,-5.050043058025445,-3.0458157164236073,0.011763678633734688,0.012778234813113588,-0.7258024456936243
11268,1.0,300.12949,34248.079,0.0,-0.11268018055986295,0.0,0.0,0.0,0.0,-2.273684487070188,-5.079655596172975,-3.0572208595492074,0.01093189960014449,0.015684176318157685,-0.7421880271682553
11269,1.0,300.39971,34456.78,0.0,-0.1126901765472822,0.0,0.0,0.0,0.0,-2.2943641110111077,-5.087054247078165,-3.092582376114117,0.03526455764959086,-0.015663822150148884,-0.7083104255072963
11270,1.0,300.82147000000003,34198.488,0.0,-0.11270017253470155,0.0,0.0,0.0,0.0,-2.240851029504778,-5.087635751310555,-3.066999432289277,0.02167273569518248,-0.007474737273749133,-0.7272450605234994
11271,1.0,300.67757,34208.976,0.0,-0.11271016852212101,0.0,0.0,0.0,0.0,-2.227313197568698,-5.089454129940015,-3.081907178360557,0.035608757695310765,-0.009263626474948751,-0.7073813359606024
11272,1.0,300.67822,34340.179,0.0,-0.11272016450954014,0.0,0.0,0.0,0.0,-2.2345222693801774,-5.093261923815815,-3.110772849859377,0.014770571259491886,-0.010180457113982891,-0.7294635412199463
11273,1.0,300.03645,34219.431000000004,0.0,-0.11273016049695961,0.0,0.0,0.0,0.0,-2.230996766982238,-5.087752984347125,-3.083102813478557,-0.0036783235137972667,-0.011987562322830289,-0.7206143620016003
11274,1.0,300.05975,34144.509,0.0,-0.11274018947443631,0.0,0.0,0.0,0.0,-2.260641627807958,-5.067658613663966,-3.050777906138337,-0.02095701432804628,0.01734272994309418,-0.7270717846238983
11275,1.0,300.07988,34114.724,0.0,-0.11275018546185556,0.0,0.0,0.0,0.0,-2.240785370898298,-5.065505761176495,-3.0637331192669173,-0.02145521521671488,0.018531101071127282,-0.7245673951467343
11276,1.0,300.3168,34008.292,0.0,-0.11276018144927491,0.0,0.0,0.0,0.0,-2.222865637579758,-5.0802760092092045,-3.034529832834777,-0.019725034942209382,0.006795860112049174,-0.7326620982081193
11277,1.0,299.4438,34321.943,0.0,-0.11277017743669415,0.0,0.0,0.0,0.0,-2.2395753476288776,-5.105118773835995,-3.088319531618407,-0.011459629636477387,-0.009565567000072961,-0.7307116322956233
11278,1.0,299.13201000000004,34544.919,0.0,-0.1127801734241135,0.0,0.0,0.0,0.0,-2.265646272701878,-5.108608508505405,-3.126538008165277,0.01184760512626759,0.000979347177219041,-0.7139708559984372
11279,1.0,299.47159,34266.279,0.0,-0.11279016941153286,0.0,0.0,0.0,0.0,-2.240568231401868,-5.093461230110486,-3.082063826826017,0.009095163817297781,0.004484835838918836,-0.7199740791309093
11280,1.0,299.94732999999997,34088.387,0.0,-0.1128001653989521,0.0,0.0,0.0,0.0,-2.232527078608268,-5.077154084326096,-3.0523372980422367,-0.003999852088529666,0.006113784423758545,-0.7134136191059423
11281,1.0,299.91999,34363.068,0.0,-0.11281016138637145,0.0,0.0,0.0,0.0,-2.2659806452348774,-5.100795336984305,-3.078738745297857,0.0031173098328795275,-0.013049854740920385,-0.7308162706334502
11282,1.0,300.05722000000003,34415.488,0.0,-0.11282019036384827,0.0,0.0,0.0,0.0,-2.2729725775499277,-5.092241175665075,-3.0962351427246175,0.013253937496561789,-0.0016859645732667486,-0.7049428584024433
11283,1.0,300.55655,34138.215,0.0,-0.11283018635126751,0.0,0.0,0.0,0.0,-2.2257581626402274,-5.0709247240363045,-3.080482042094907,0.003516640613890406,-0.0031764953924206868,-0.7318765456705912
11284,1.0,299.98425,33957.72,0.0,-0.11284018233868687,0.0,0.0,0.0,0.0,-2.173194901777638,-5.079607669443245,-3.069496283185697,0.00039908333520395867,-0.01927741144553238,-0.7263334394085293
11285,1.0,299.76204,33993.507000000005,0.0,-0.11285017832610611,0.0,0.0,0.0,0.0,-2.208265615563848,-5.061820063937746,-3.063091529303597,-0.029347601617382774,-0.003935018976906136,-0.7306125364358432
11286,1.0,299.87552999999997,34409.24,0.0,-0.11286017431352546,0.0,0.0,0.0,0.0,-2.2739503638964274,-5.118378164644595,-3.067221131411157,-0.01130504516147109,0.023890646945073275,-0.7248828300353654
11287,1.0,300.15463,34507.11,0.0,-0.11287017030094482,0.0,0.0,0.0,0.0,-2.295502700148478,-5.106386451036105,-3.087410544953697,-0.01007430153545615,0.017682500059376882,-0.7319167615670603
11288,1.0,299.82216,34215.148,0.0,-0.11288016628836406,0.0,0.0,0.0,0.0,-2.2512702802830775,-5.098959733103145,-3.050320727693217,-0.016955087812586884,0.017664302087580883,-0.7184430075673043
11289,1.0,300.13703,34116.462,0.0,-0.11289016227578341,0.0,0.0,0.0,0.0,-2.2018223581779477,-5.111516941592446,-3.0572131588484472,-0.0037090773768574366,-0.01908198285899508,-0.7259073677414793
11290,1.0,299.97704,34497.73,0.0,-0.11290019125326023,0.0,0.0,0.0,0.0,-2.246202205932898,-5.112938835457775,-3.127307672941237,0.022574926491471775,0.002268635968446938,-0.7048816986264074
11291,1.0,299.73639,34645.437000000005,0.0,-0.11291018724067947,0.0,0.0,0.0,0.0,-2.2885376189610773,-5.116719474230894,-3.126090658246127,0.026729432259989576,-0.0005790299263083045,-0.7094362578259074
11292,1.0,300.0239,34137.945,0.0,-0.11292018322809882,0.0,0.0,0.0,0.0,-2.231782441109778,-5.0835248943298454,-3.061775621398727,0.02206475303962158,-0.01953374953533098,-0.7176760684341134
11293,1.0,299.93582999999995,33861.325,0.0,-0.11293017921551818,0.0,0.0,0.0,0.0,-2.1949308389478084,-5.070904661684325,-3.0271617820826076,0.010308683914137891,-0.02243231559289718,-0.7438144354337692
11294,1.0,299.77203,34206.337,0.0,-0.11294017520293742,0.0,0.0,0.0,0.0,-2.250635377770418,-5.085027645553155,-3.0622092924415267,0.012825941667571887,0.0025317329430375878,-0.7316667218398833
11295,1.0,300.10976,34468.556000000004,0.0,-0.11295017119035677,0.0,0.0,0.0,0.0,-2.2549393602201877,-5.102134448316465,-3.120506535620017,0.012664579562646687,0.005640399955214135,-0.7425128954153173
11296,1.0,300.3358,34316.451,0.0,-0.11296016717777602,0.0,0.0,0.0,0.0,-2.241129977257308,-5.101017036106186,-3.0891974115050473,-0.012869178062588988,-0.0049759124648093254,-0.7418887130887153
11297,1.0,300.23565,34160.394,0.0,-0.11297016316519537,0.0,0.0,0.0,0.0,-2.223132730306118,-5.096722578207355,-3.064051583773347,-0.009103851524980191,0.0009345417036270851,-0.7308740562866533
11298,1.0,299.80714,34269.388,0.0,-0.11298015915261461,0.0,0.0,0.0,0.0,-2.2603471773288977,-5.092544745395036,-3.064146423982707,-0.004901673251182485,0.023385463749965578,-0.7194485873640474
11299,1.0,300.0528,34622.926,0.0,-0.11299018813009132,0.0,0.0,0.0,0.0,-2.307265317909358,-5.125576901305054,-3.091662750323357,0.00972262816229869,0.01814602651637338,-0.7236147880652193
11300,1.0,299.75917999999996,34637.616,0.0,-0.11300018411751078,0.0,0.0,0.0,0.0,-2.3146299236111876,-5.109220815540835,-3.1051197249014573,0.0005576223632305425,-0.01848862664018538,-0.7256552913816013
11301,1.0,299.58282,34192.925,0.0,-0.11301018010493014,0.0,0.0,0.0,0.0,-2.223401545557648,-5.080778378608786,-3.0896154784963072,0.018729655534223084,-0.023475776757878774,-0.7118912108306923
11302,1.0,299.67861,33995.226,0.0,-0.11302017609234927,0.0,0.0,0.0,0.0,-2.191446778478958,-5.083241184301845,-3.059011880425967,0.017626968887646383,0.002044400073616578,-0.7431752671381883
11303,1.0,299.80281,34373.481,0.0,-0.11303017207976873,0.0,0.0,0.0,0.0,-2.2458343961465976,-5.095214862058556,-3.107630558649257,0.007724550742178803,0.010021474626917541,-0.7044265264164854
11304,1.0,299.63633,34606.062000000005,0.0,-0.11304016806718786,0.0,0.0,0.0,0.0,-2.268379818821658,-5.125180923165975,-3.1258178913192074,-0.003281293722438477,-0.017090170262918484,-0.7348020418893153
11305,1.0,299.85413,34385.524,0.0,-0.11305016405460733,0.0,0.0,0.0,0.0,-2.248181691328258,-5.122986628749415,-3.0811724707130472,-0.018832383895611583,-0.004932949849969245,-0.7221197274101683
11306,1.0,300.04447000000005,34114.516,0.0,-0.11306016004202668,0.0,0.0,0.0,0.0,-2.208904267101878,-5.107221875743555,-3.0538349830150473,-0.0025130525628689775,0.025863303034759273,-0.7374261266007923
11307,1.0,300.14182,34399.076,0.0,-0.11307018901950328,0.0,0.0,0.0,0.0,-2.244676656582338,-5.129291780146685,-3.082491722343247,-0.007622928545924473,0.01962449317453668,-0.7288261258470383
11308,1.0,300.52423999999996,34598.01,0.0,-0.11308018500692263,0.0,0.0,0.0,0.0,-2.2804095293088977,-5.123739777548745,-3.1127818208326468,-0.01020229366688799,0.0006518120254963385,-0.7371143090150183
11309,1.0,300.56197000000003,34433.654,0.0,-0.1130901809943421,0.0,0.0,0.0,0.0,-2.2644004817039276,-5.119607338340904,-3.0829630862897672,-0.012970012659540588,-0.002843963022927297,-0.7302492052149853
11310,1.0,300.28235,34178.13,0.0,-0.11310017698176122,0.0,0.0,0.0,0.0,-2.219259683123878,-5.095813388892625,-3.0742251214023972,0.012922861066137088,0.006017091081290654,-0.7290278740744492
11311,1.0,300.41866,34174.89,0.0,-0.11311017296918069,0.0,0.0,0.0,0.0,-2.243249088516448,-5.0842082301972855,-3.060855894282957,-0.0036433333533940067,0.004743843437430896,-0.7324428815489843
11312,1.0,300.13871,34375.37,0.0,-0.11312016895659982,0.0,0.0,0.0,0.0,-2.2413454955535776,-5.113143815953005,-3.094764714179497,-0.00012767863185089988,-0.02107661431684988,-0.7341076008007793
11313,1.0,299.50405,34507.596,0.0,-0.11313016494401917,0.0,0.0,0.0,0.0,-2.254974925298698,-5.105206926594695,-3.1292656774344767,-0.008088594683157143,-0.008202437384892543,-0.7231595449277903
11314,1.0,299.61787999999996,34470.184,0.0,-0.11314016093143864,0.0,0.0,0.0,0.0,-2.2517765000330376,-5.115677954453105,-3.110620963669387,0.004250750849141446,0.01144284109557049,-0.7200551594039113
11315,1.0,299.72796,34338.292,0.0,-0.11315018990891523,0.0,0.0,0.0,0.0,-2.222403392884138,-5.127851242479515,-3.0877288068101074,-0.0025214739884251076,0.008807984826255421,-0.7430773669135263
11316,1.0,299.95111,34559.668,0.0,-0.11316018589633481,0.0,0.0,0.0,0.0,-2.269432383025538,-5.122831398834095,-3.113012335230397,-0.004486065215265166,-0.01022173894955709,-0.7180884105623083
11317,1.0,300.03902,34748.92,0.0,-0.11317018188375394,0.0,0.0,0.0,0.0,-2.312894023539868,-5.140727827400336,-3.109182047202377,-0.0036467295650791866,0.009440318040636851,-0.7168671402167783
11318,1.0,300.02286000000004,34474.316,0.0,-0.11318017787117318,0.0,0.0,0.0,0.0,-2.257818105079298,-5.126573331453395,-3.094939601146757,0.011326917178129689,0.014638157709923685,-0.7081695634783943
11319,1.0,299.75745,34168.986000000004,0.0,-0.11319017385859254,0.0,0.0,0.0,0.0,-2.224671958533028,-5.1022065917235855,-3.059639892837947,-0.005211421982902305,-0.0008924871432616232,-0.7353779833786563
11320,1.0,300.34987,34380.608,0.0,-0.11320016984601178,0.0,0.0,0.0,0.0,-2.252399142219488,-5.112404650005055,-3.086042555993687,-0.007198701196706492,-0.015572578978643885,-0.7188361587386053
11321,1.0,299.97632999999996,34467.595,0.0,-0.11321016583343113,0.0,0.0,0.0,0.0,-2.249209937529738,-5.111779576018365,-3.1162986092797267,-0.015914634987152183,0.004623492427653176,-0.7516014752347903
11322,1.0,300.39321,34451.662000000004,0.0,-0.1132201618208506,0.0,0.0,0.0,0.0,-2.2518906933193077,-5.121526738005336,-3.099027558675207,0.02126970634865658,0.003665988815029926,-0.7257111721246163
11323,1.0,300.09592000000004,34377.179,0.0,-0.1132301907983273,0.0,0.0,0.0,0.0,-2.2423949186821477,-5.112192576759125,-3.095216421074077,0.0016312795666947584,-0.009255341432856081,-0.7507033404786513
11324,1.0,300.0385,34346.157999999996,0.0,-0.11324018678574677,0.0,0.0,0.0,0.0,-2.225470804911868,-5.109928570735685,-3.1049751341121867,0.018154810381490284,-0.02043317517209738,-0.7225809892531913
11325,1.0,299.70873,34486.102999999996,0.0,-0.1132501827731659,0.0,0.0,0.0,0.0,-2.243399252181268,-5.142268778152415,-3.0972462649994075,0.009488947054011161,-0.003997463250093906,-0.7336184543150043
11326,1.0,299.84821,34770.446,0.0,-0.11326017876058514,0.0,0.0,0.0,0.0,-2.3044442269809373,-5.134700813155516,-3.130202325826917,0.01276817019987029,0.006155689408144244,-0.7077629766107673
11327,1.0,299.7268,34645.035,0.0,-0.11327017474800449,0.0,0.0,0.0,0.0,-2.286146044750048,-5.140896938842025,-3.1041826712089766,-0.005383428381453015,-0.007127713907950594,-0.7510411377969893
11328,1.0,299.82045,34208.242,0.0,-0.11328017073542374,0.0,0.0,0.0,0.0,-2.243511722942368,-5.105702912518645,-3.0492366514112272,-0.008995797926366131,-0.014447884539895185,-0.7295069691192323
11329,1.0,300.05571000000003,34277.157999999996,0.0,-0.11329016672284331,0.0,0.0,0.0,0.0,-2.245767622965008,-5.099691097025325,-3.073941411374397,0.0008056559160045482,0.012070323577748189,-0.7255255548387973
11330,1.0,300.28199,34680.464,0.0,-0.11330016271026244,0.0,0.0,0.0,0.0,-2.280412265084168,-5.134891101524295,-3.1266916168804366,-0.00026543868676425874,-0.0001974437079386768,-0.7238257771335423
11331,1.0,300.02027999999996,34577.27,0.0,-0.11331019168773926,0.0,0.0,0.0,0.0,-2.2544093290928777,-5.1352208131068355,-3.120996543368377,-0.0028909146007610573,0.002132041748966138,-0.7312830648220192
11332,1.0,300.60345,34362.26,0.0,-0.11332018767515861,0.0,0.0,0.0,0.0,-2.237257132725088,-5.120166145771055,-3.0878457358716473,-0.013659902228627386,-0.014221462659299088,-0.7425685431108093
11333,1.0,300.71299999999997,34525.062999999995,0.0,-0.11333018366257785,0.0,0.0,0.0,0.0,-2.242136742556668,-5.142286408704154,-3.110333808591047,0.010203891562295689,0.010088276787460401,-0.7281334883436803
11334,1.0,300.42298,34736.323,0.0,-0.1133401796499971,0.0,0.0,0.0,0.0,-2.2937429886998077,-5.134285380614515,-3.130946355375347,-0.014777066192632885,0.01053503182747669,-0.7262606981838503
11335,1.0,300.60007,34799.247,0.0,-0.11335017563741645,0.0,0.0,0.0,0.0,-2.282383644478728,-5.140982254500445,-3.154736353148237,-0.017296295730761486,-0.0031486216927697672,-0.7114560807077484
11336,1.0,299.95824,34583.763,0.0,-0.1133601716248358,0.0,0.0,0.0,0.0,-2.2545310204298876,-5.134303315141286,-3.1237660598667074,-0.011257635189292091,-0.0068875456685478335,-0.7226600936884984
11337,1.0,299.25819,34257.082,0.0,-0.11337016761225527,0.0,0.0,0.0,0.0,-2.2125023182069774,-5.096270567337745,-3.104524744442737,-0.0020721244202027583,0.014636599331269885,-0.7084514901862183
11338,1.0,300.00222,34461.905,0.0,-0.1133801635996744,0.0,0.0,0.0,0.0,-2.267696178979188,-5.119338320439354,-3.088524005488587,0.012338248182440288,0.007169881830737242,-0.7325066555102783
11339,1.0,299.37241,34770.227999999996,0.0,-0.11339015958709364,0.0,0.0,0.0,0.0,-2.2913351011621677,-5.147110391105246,-3.130835708464427,-0.010844084253727791,-0.008948942201991831,-0.7399695870018124
11340,1.0,299.77856,34537.115,0.0,-0.11340018856457057,0.0,0.0,0.0,0.0,-2.286438874028948,-5.130984819738774,-3.0809969757957267,-0.0040689745918015266,-0.0020410750934134283,-0.7378660595292102
11341,1.0,299.8423,34308.638,0.0,-0.11341018455198981,0.0,0.0,0.0,0.0,-2.208844789321008,-5.137040610286435,-3.083083865701687,0.004768182616757985,-0.005699096216282005,-0.7276575850367123
11342,1.0,299.97665,34584.089,0.0,-0.11342018053940894,0.0,0.0,0.0,0.0,-2.2570550264289877,-5.135934850452305,-3.1197096144163674,0.010829176305006488,-0.007848408914527653,-0.7270057713798833
11343,1.0,300.46495,34916.442,0.0,-0.11343017652682841,0.0,0.0,0.0,0.0,-2.281410620407698,-5.167983951115304,-3.164332034245257,-0.006131829597439464,-0.005251189516202055,-0.7307137601208333
11344,1.0,300.9736,34751.461,0.0,-0.11344017251424776,0.0,0.0,0.0,0.0,-2.292901585816768,-5.1487889412209045,-3.121885872981147,0.015257018447000486,-0.005995264458236535,-0.7289422949710034
11345,1.0,299.9246,34482.121,0.0,-0.11345016850166711,0.0,0.0,0.0,0.0,-2.2546404514406877,-5.127058982226325,-3.100004331771607,0.011792380969317388,0.015238973475969586,-0.7408488043785844
11346,1.0,300.25141,34439.254,0.0,-0.11346016448908636,0.0,0.0,0.0,0.0,-2.2782260766684077,-5.117445670577566,-3.073001520581637,0.011742883701932388,0.0033460447608039063,-0.7369064914195083
11347,1.0,300.17696,34511.182,0.0,-0.1134701604765056,0.0,0.0,0.0,0.0,-2.2432418944407377,-5.122724500948546,-3.1245710870711574,0.0026681591656518076,-0.0022492338502320976,-0.7437186225043133
11348,1.0,300.40522000000004,34615.668,0.0,-0.11348018945398253,0.0,0.0,0.0,0.0,-2.2564342080927178,-5.139597445588775,-3.126267267738557,0.0034014412715961165,-0.001985322830511108,-0.7407121574700983
11349,1.0,299.92681,34513.385,0.0,-0.11349018544140177,0.0,0.0,0.0,0.0,-2.242150928058068,-5.139701202399015,-3.109355008994447,0.015192214010354787,0.005015427293534136,-0.7367416254957373
11350,1.0,299.51241,34454.517,0.0,-0.1135001814288209,0.0,0.0,0.0,0.0,-2.2523611453407377,-5.130898186855225,-3.0900536078395473,0.01036826200676779,0.005003213272853705,-0.7329425759683004
11351,1.0,299.96076,34695.952000000005,0.0,-0.11351017741624025,0.0,0.0,0.0,0.0,-2.2871568630498076,-5.163305978053625,-3.096240310300127,0.0070840693757932135,-0.004367207432159816,-0.7489310951262442
11352,1.0,300.31474,34943.922,0.0,-0.11352017340365972,0.0,0.0,0.0,0.0,-2.321604428024518,-5.172878557048365,-3.1275968545197768,0.006102183926013665,0.0016584621284524686,-0.7159194980607533
11353,1.0,300.2422,34622.02,0.0,-0.11353016939107907,0.0,0.0,0.0,0.0,-2.2454778334364076,-5.146093594629895,-3.132658241419297,0.016433373442097682,0.006882696658869274,-0.7205738319976004
11354,1.0,300.32281,34439.013,0.0,-0.11354016537849831,0.0,0.0,0.0,0.0,-2.218140852363458,-5.1413638444881045,-3.109095312993817,0.00017647990787471082,-0.001777101860136298,-0.7181951260628403
11355,1.0,300.32444,34550.212,0.0,-0.11355016136591745,0.0,0.0,0.0,0.0,-2.2517338422038278,-5.1245072131744855,-3.126160673828037,-0.010126403666198231,-0.012854185000859289,-0.7411185214227033
11356,1.0,300.00059,34608.331,0.0,-0.11356019034339448,0.0,0.0,0.0,0.0,-2.2699835910799377,-5.130405848631636,-3.119679014263347,-0.01102664456399509,0.002237133516212888,-0.7269187331962933
11357,1.0,300.11405,34599.937999999995,0.0,-0.11357018633081362,0.0,0.0,0.0,0.0,-2.2820595057717377,-5.138993953829215,-3.0964638332721868,-0.014820782868197385,-0.0028608968638985373,-0.7488965736953374
11358,1.0,299.5093,34585.318,0.0,-0.11358018231823286,0.0,0.0,0.0,0.0,-2.2771636839385576,-5.1275207202968955,-3.108388672374077,-0.024924108344817977,-0.01091164473064549,-0.7314626634022443
11359,1.0,299.39857,34644.086,0.0,-0.11359017830565243,0.0,0.0,0.0,0.0,-2.261529944170628,-5.156251224232375,-3.113156014094577,-0.010720962207576592,-0.016001614402236384,-0.7514060294230013
11360,1.0,299.71629,34778.275,0.0,-0.11360017429307168,0.0,0.0,0.0,0.0,-2.276638313761708,-5.161285152054186,-3.133803821982357,-2.3508943473402078e-05,0.01159948246827979,-0.7213633362105184
11361,1.0,299.47219,34835.715,0.0,-0.11361017028049103,0.0,0.0,0.0,0.0,-2.2900494894352876,-5.161166196492445,-3.1379719275937172,0.003169992251953877,0.004008962321503776,-0.7221954678551433
11362,1.0,299.83313,34629.518,0.0,-0.11362016626791016,0.0,0.0,0.0,0.0,-2.272843084187148,-5.156036921836225,-3.097628766912157,0.011457550447272188,-0.0026460413345189477,-0.7199547463190014
11363,1.0,300.24372,34439.11,0.0,-0.1136301622553294,0.0,0.0,0.0,0.0,-2.248702197904628,-5.129559582148116,-3.090367512720527,0.005007056834458035,-0.003419924574620277,-0.7182086833491783
11364,1.0,300.40317000000005,34587.745,0.0,-0.11364019123280644,0.0,0.0,0.0,0.0,-2.273981369349488,-5.149420803983266,-3.090408549349577,0.003587395057773327,0.0015775900783460185,-0.7338626779866073
11365,1.0,299.80208,34800.921,0.0,-0.11365018722022557,0.0,0.0,0.0,0.0,-2.2685285639363375,-5.154408628925525,-3.155673812140757,-0.006356823808644664,-0.003452684470228426,-0.7073116243537223
11366,1.0,299.72845,34648.83,0.0,-0.11366018320764493,0.0,0.0,0.0,0.0,-2.258390287410768,-5.153324755293555,-3.120663994685557,-0.018259888469860684,-0.0016067283141217384,-0.7430450847653403
11367,1.0,300.13746000000003,34570.278,0.0,-0.11367017919506439,0.0,0.0,0.0,0.0,-2.240721232166968,-5.155789080861766,-3.111990877804587,-0.001106439319647059,0.001985275511731438,-0.7398677654992634
11368,1.0,300.26462000000004,34689.896,0.0,-0.11368017518248352,0.0,0.0,0.0,0.0,-2.291654781568718,-5.147676392611105,-3.1055311044420573,-0.014194182926856785,0.014028333137238686,-0.7420043857201313
11369,1.0,299.36293,34744.318,0.0,-0.11369017116990299,0.0,0.0,0.0,0.0,-2.285893644150138,-5.166583031527045,-3.1089284307023473,-0.0037256129092143667,0.01036026341047839,-0.7258912469323884
11370,1.0,299.21779,34686.43,0.0,-0.11370016715732212,0.0,0.0,0.0,0.0,-2.282887432428448,-5.159331909836415,-3.101589358903037,-0.01135259901516429,-0.0029733264870444773,-0.7480723555339933
11371,1.0,299.30217000000005,34640.488,0.0,-0.11371016314474136,0.0,0.0,0.0,0.0,-2.248631979672698,-5.152648613501825,-3.1285627858401073,0.024620755450379374,-0.02069914015109608,-0.7211246955469663
11372,1.0,299.73073,34565.917,0.0,-0.11372019212221829,0.0,0.0,0.0,0.0,-2.2670375664141877,-5.148665020733675,-3.091472968579627,0.015717817234727784,-0.005025452288698526,-0.7368250970389754
11373,1.0,300.22605,34625.539,0.0,-0.11373018810963753,0.0,0.0,0.0,0.0,-2.262186935535468,-5.143847421808215,-3.119264898947477,0.02473645543954808,-0.013554769424751588,-0.7167989586175493
11374,1.0,300.05942999999996,34767.97,0.0,-0.11374018409705688,0.0,0.0,0.0,0.0,-2.2935298008787677,-5.159593733662255,-3.115471087923057,0.01018463981039569,-0.006721333439368963,-0.7303865613985413
11375,1.0,299.8246,34805.818,0.0,-0.11375018008447635,0.0,0.0,0.0,0.0,-2.2778687033581377,-5.165351527355505,-3.136879441335897,0.010428502764963089,0.003597539109824466,-0.7180525820387723
11376,1.0,300.45887,34667.461,0.0,-0.11376017607189548,0.0,0.0,0.0,0.0,-2.275045079304468,-5.137315707688585,-3.1256817105057673,-0.00024590525133645874,0.030401034176598472,-0.7348079592698993
11377,1.0,300.45307,34681.613,0.0,-0.11377017205931483,0.0,0.0,0.0,0.0,-2.257412805039298,-5.1654385655390955,-3.119492880219977,-0.021870706526220682,0.017290966035235483,-0.7230807444675134
11378,1.0,299.83401000000003,34788.632000000005,0.0,-0.11378016804673408,0.0,0.0,0.0,0.0,-2.301301125170738,-5.156664832923195,-3.116909396440007,-0.030853752294778266,0.010635576634899689,-0.7320001013877853
11379,1.0,299.99541,34853.107,0.0,-0.11379016403415343,0.0,0.0,0.0,0.0,-2.288314501289058,-5.171892360726035,-3.134267383903107,-0.011472989339045888,-0.0040219173319823364,-0.7367431251058854
11380,1.0,299.43391,34687.123,0.0,-0.1138001600215729,0.0,0.0,0.0,0.0,-2.273447690521818,-5.180551798730655,-3.090019663961197,0.004819793726501606,0.012390202581317789,-0.7423152711158133
11381,1.0,299.21322000000004,34658.928,0.0,-0.1138101889990496,0.0,0.0,0.0,0.0,-2.277283044800338,-5.137105762267866,-3.121059972824637,0.013189157377918488,-0.0006276898134131614,-0.7168475034298403
11382,1.0,299.07847999999996,34777.37,0.0,-0.11382018498646884,0.0,0.0,0.0,0.0,-2.270707355626368,-5.173054963890775,-3.127689870878957,0.02158375207140048,-0.012060322799261189,-0.7288805272449073
11383,1.0,299.26429,34734.281,0.0,-0.1138301809738882,0.0,0.0,0.0,0.0,-2.2660763973693276,-5.163716952294185,-3.128560658014897,0.027142259734982473,0.005042915248871985,-0.7383500587044773
11384,1.0,299.18567,34709.75,0.0,-0.11384017696130744,0.0,0.0,0.0,0.0,-2.267360185246028,-5.162709376394745,-3.1208276345767074,0.016280780003537883,0.008655690600450152,-0.7217066152118973
11385,1.0,299.52432999999996,34627.534,0.0,-0.11385017294872679,0.0,0.0,0.0,0.0,-2.256438159768108,-5.171388370126294,-3.098079055256597,-0.0018100857853415584,-0.00994340765838793,-0.7343283373350643
11386,1.0,299.38888,34543.462,0.0,-0.11386016893614603,0.0,0.0,0.0,0.0,-2.250096126067198,-5.159544084407355,-3.090709788604307,-0.030603215061802174,-0.014711355910397787,-0.7398884864638083
11387,1.0,299.92463,34822.295,0.0,-0.11387016492356539,0.0,0.0,0.0,0.0,-2.295711328344068,-5.175904324496985,-3.113492615777797,-0.02023197511299048,-0.005497576476768556,-0.7314148076000213
11388,1.0,300.32374,34898.08,0.0,-0.11388016091098474,0.0,0.0,0.0,0.0,-2.284313885919228,-5.193346715693416,-3.130484212004737,-0.009330369563010782,0.01782143995283918,-0.7452927673296692
11389,1.0,299.95718999999997,34586.839,0.0,-0.11389018988846156,0.0,0.0,0.0,0.0,-2.259014956097418,-5.150493531864136,-3.104026833343597,-0.007457640198186783,0.011435800020625591,-0.7385021171469843
11390,1.0,300.22803999999996,34683.089,0.0,-0.1139001858758808,0.0,0.0,0.0,0.0,-2.2654047138780378,-5.177857161414715,-3.099531042649897,-0.0007678597215693543,-0.004493075386082016,-0.7449082287842184
11391,1.0,299.92327,35011.984,0.0,-0.11391018186330015,0.0,0.0,0.0,0.0,-2.3213147398209273,-5.165375237407845,-3.156078706880717,0.015392983438169186,-0.006524404432083583,-0.7294032021764912
11392,1.0,299.63321,34920.765,0.0,-0.1139201778507194,0.0,0.0,0.0,0.0,-2.301805926370558,-5.173700201554455,-3.1395344605729267,0.01913210631494188,0.01004161580975532,-0.7325710576866342
11393,1.0,299.92869,34696.513,0.0,-0.11393017383813875,0.0,0.0,0.0,0.0,-2.265445547857068,-5.153491029634965,-3.1279371039033568,-0.004368241453886866,-0.017028813916363086,-0.7123261990986223
11394,1.0,299.52036,34755.804,0.0,-0.11394016982555799,0.0,0.0,0.0,0.0,-2.273448805096928,-5.151302713393995,-3.1401448424331675,-0.024244835610278976,-0.006572879836742734,-0.7203247041955133
11395,1.0,299.31166,34867.11,0.0,-0.11395016581297734,0.0,0.0,0.0,0.0,-2.2777566378970775,-5.177051830235236,-3.1439222388059673,-0.006333448838112734,0.004693960020432785,-0.7182818906689034
11396,1.0,300.135,34918.494,0.0,-0.1139601618003967,0.0,0.0,0.0,0.0,-2.2886723812243774,-5.1862565994436745,-3.139421179211747,0.007128117992090473,0.026658999219038373,-0.7248839243454733
11397,1.0,299.8125,34915.616,0.0,-0.11397019077787351,0.0,0.0,0.0,0.0,-2.2920119522289677,-5.184608142855986,-3.136855528633537,0.0028530786261269374,0.0035542078745980066,-0.7204542786183014
11398,1.0,300.01059,34783.525,0.0,-0.11398018676529276,0.0,0.0,0.0,0.0,-2.2773042217274275,-5.192825398516965,-3.103193435136347,-0.011442332444020289,-0.0027303309758876875,-0.7401420624338343
11399,1.0,300.45477,34755.918,0.0,-0.11399018275271211,0.0,0.0,0.0,0.0,-2.262709772587068,-5.176615727392195,-3.125605716748267,0.0031864989066829573,0.008494414621783452,-0.7314365722121693
11400,1.0,300.50016,34916.866,0.0,-0.11400017874013124,0.0,0.0,0.0,0.0,-2.289646013245468,-5.1866177217793155,-3.137591654831187,0.004480036883795216,0.015669352469194684,-0.7464233315262473
11401,1.0,299.92255,34849.904,0.0,-0.1140101747275507,0.0,0.0,0.0,0.0,-2.279115608931198,-5.177693521523565,-3.1366913821173372,0.006381795661334193,-0.016166917036800486,-0.7461620244579583
11402,1.0,299.53166,34576.601,0.0,-0.11402017071497006,0.0,0.0,0.0,0.0,-2.251487825079548,-5.161053827056355,-3.0978816741371173,-0.0031964322027132966,-0.025797480281763076,-0.7662771059731623
11403,1.0,299.66541,34699.291,0.0,-0.1140301667023893,0.0,0.0,0.0,0.0,-2.2690462334124275,-5.161668768542046,-3.117003122074257,0.017729382128253784,-0.008276257518278023,-0.7401561466102243
11404,1.0,299.72794,34908.697,0.0,-0.11404016268980866,0.0,0.0,0.0,0.0,-2.302307383845048,-5.168447715686075,-3.140617016979767,0.016717310438120084,0.007056915489013333,-0.7389837047870133
11405,1.0,299.63375,34813.287000000004,0.0,-0.11405019166728547,0.0,0.0,0.0,0.0,-2.2545588848076377,-5.175468626953985,-3.152342651111997,0.0069987207867449625,0.0038527386104856964,-0.7268958742740373
11406,1.0,299.71611,34820.704,0.0,-0.1140601876547046,0.0,0.0,0.0,0.0,-2.2619778007148277,-5.186688142661265,-3.1359587009700265,-0.0005035719754611844,0.012928974003990387,-0.7495816827504522
11407,1.0,300.28771,34970.261,0.0,-0.11407018364212407,0.0,0.0,0.0,0.0,-2.298629285982048,-5.186554798948104,-3.1449020516526676,0.0026095476122922974,0.015211388755247185,-0.7308900555057323
11408,1.0,300.236,34912.528,0.0,-0.1140801796295432,0.0,0.0,0.0,0.0,-2.299443635087418,-5.190392382376845,-3.122700728711567,-0.00954070234924401,0.009419330489990541,-0.7395038567258483
11409,1.0,300.11992999999995,34924.802,0.0,-0.11409017561696266,0.0,0.0,0.0,0.0,-2.313049962730258,-5.186451954062955,-3.116765920225847,-0.015363115864971485,-0.005133070899044655,-0.7292653596328873
11410,1.0,299.93619,34970.007000000005,0.0,-0.11410017160438202,0.0,0.0,0.0,0.0,-2.3060187163113275,-5.178362570564595,-3.145627640049277,-0.014910051215257484,-0.009707246417830632,-0.7338018424506033
11411,1.0,299.90706,34910.586,0.0,-0.11411016759180115,0.0,0.0,0.0,0.0,-2.2888744232943177,-5.188814549321124,-3.134257454052127,-0.003077449688520637,0.006441393613666054,-0.7265204651119873
11412,1.0,299.46959,34847.091,0.0,-0.11412016357922061,0.0,0.0,0.0,0.0,-2.273310699108298,-5.171523639014644,-3.1478112953397868,-0.0005756690263891094,-0.0004395742885451046,-0.7300264827105043
11413,1.0,299.48519,35054.583,0.0,-0.11413019255669743,0.0,0.0,0.0,0.0,-2.3021906574335276,-5.199876707287875,-3.153650655666087,0.009286292677035731,-0.011590004526844387,-0.7521410207805392
11414,1.0,299.0845,34999.971,0.0,-0.11414018854411656,0.0,0.0,0.0,0.0,-2.295430556741358,-5.193512584734786,-3.1501740932479767,0.011617954017602789,-0.0054675374616539344,-0.7437790020777723
11415,1.0,299.8474,34831.495,0.0,-0.11415018453153591,0.0,0.0,0.0,0.0,-2.285576192893808,-5.177022547307345,-3.1253059973686868,0.01011528355032576,0.01009949498594255,-0.7421410630261204
11416,1.0,299.89875,34881.185,0.0,-0.11416018051895516,0.0,0.0,0.0,0.0,-2.2726278698659077,-5.178036810657446,-3.1523445762871867,-0.007132466760194664,-0.004585547123333266,-0.7346725890565393
11417,1.0,300.13718,34897.168,0.0,-0.11417017650637473,0.0,0.0,0.0,0.0,-2.265261136338868,-5.177522991531736,-3.165083561844427,-0.023431690246027776,-0.00949456329666544,-0.7292686222982093
11418,1.0,299.6046,34773.635,0.0,-0.11418017249379397,0.0,0.0,0.0,0.0,-2.243043601396168,-5.178274012505855,-3.148999027107007,-0.01169244613845459,0.0030295784848961174,-0.7406807771145013
11419,1.0,299.83547999999996,34941.362,0.0,-0.1141901684812131,0.0,0.0,0.0,0.0,-2.2729806835507276,-5.198049006757495,-3.1502717705576173,-0.0003660027560716597,0.004314698684152606,-0.7463560415871062
11420,1.0,299.94689,35136.047999999995,0.0,-0.11420016446863257,0.0,0.0,0.0,0.0,-2.316081607029458,-5.200450206844475,-3.163949532332507,0.005250440521728135,0.003911058246491397,-0.7341012173251493
11421,1.0,299.78016,34910.962,0.0,-0.11421019344610928,0.0,0.0,0.0,0.0,-2.297614009381848,-5.197388469017305,-3.1170581415546867,-0.008615346629168512,-0.002037144088325468,-0.7392741529281783
11422,1.0,300.91447,34972.6,0.0,-0.11422018943352852,0.0,0.0,0.0,0.0,-2.288794173886398,-5.204368951606225,-3.1376342113353872,0.015497981479781686,-0.007608051298681203,-0.7404239688766563
11423,1.0,301.29195,35034.029,0.0,-0.11423018542094787,0.0,0.0,0.0,0.0,-2.289713394377118,-5.195286785659885,-3.1644699375838674,-0.005082054972409776,0.0029190920727919577,-0.7326521987546423
11424,1.0,300.85335,34967.616,0.0,-0.11424018140836734,0.0,0.0,0.0,0.0,-2.270944557474778,-5.205063737199795,-3.153273726628887,0.00984426620235343,-0.008496554707319661,-0.7533361492734894
11425,1.0,300.26274,34885.867,0.0,-0.11425017739578669,0.0,0.0,0.0,0.0,-2.2787791085729876,-5.183710808567424,-3.1419424494355765,-0.0028075249281311375,-0.013820275401454987,-0.7570082081658933
11426,1.0,300.26561,34933.93,0.0,-0.11426017338320582,0.0,0.0,0.0,0.0,-2.3008165889729177,-5.183437838990486,-3.134788194454507,0.003981444475287975,-0.006818520639935593,-0.7370999917911053
11427,1.0,300.14732999999995,34985.935,0.0,-0.11427016937062506,0.0,0.0,0.0,0.0,-2.298589262603098,-5.183667644113165,-3.152593531836757,0.011614545444266388,0.012500693451722387,-0.7254415361405052
11428,1.0,300.14051,35107.46,0.0,-0.11428016535804442,0.0,0.0,0.0,0.0,-2.3084039070467277,-5.1816979872437745,-3.1816892111082766,0.017709843626575482,0.018962247094678083,-0.7279499482205664
11429,1.0,299.61586,35181.17,0.0,-0.11429016134546366,0.0,0.0,0.0,0.0,-2.2796187889308577,-5.218293135805435,-3.196285281448797,-0.0020952377695588682,0.00949200575208803,-0.7419619913359473
11430,1.0,299.87045,35067.951,0.0,-0.11430019032294048,0.0,0.0,0.0,0.0,-2.280835297000918,-5.197726286600646,-3.1812196710119367,-0.0003987498543310466,-0.008647326119549641,-0.7326707108339693
11431,1.0,299.65623999999997,35007.378,0.0,-0.11431018631035983,0.0,0.0,0.0,0.0,-2.277363699508298,-5.217298732157295,-3.146706244780727,-0.001124554508909889,-2.8788950227748174e-05,-0.7513914690190643
11432,1.0,299.29626,35000.106,0.0,-0.11432018229777918,0.0,0.0,0.0,0.0,-2.311786237205538,-5.208972653435575,-3.118399380712057,0.0043115096821128756,-0.011530499388221689,-0.7471054210960643
11433,1.0,299.7034,34968.551,0.0,-0.11433017828519865,0.0,0.0,0.0,0.0,-2.311305754008118,-5.184338922304415,-3.1339215616439766,-0.008317461840219571,-0.01877097688655118,-0.7455257337926613
11434,1.0,300.14721000000003,34880.656,0.0,-0.11434017427261778,0.0,0.0,0.0,0.0,-2.280725764665108,-5.202691718715695,-3.119431173288887,-0.008840515727340972,-0.013451123058772487,-0.7462925108058363
11435,1.0,300.42717000000005,34897.959,0.0,-0.11435017026003702,0.0,0.0,0.0,0.0,-2.2670296630634077,-5.191644658175435,-3.149433610074897,0.003893573704090806,0.018628850321524382,-0.7518727628165643
11436,1.0,300.74138999999997,35114.604,0.0,-0.11436016624745637,0.0,0.0,0.0,0.0,-2.284588983321378,-5.2096302527504745,-3.179743669591267,0.001729312020494808,0.008202974002145503,-0.7484465183984202
11437,1.0,299.95873,35164.842000000004,0.0,-0.11437016223487573,0.0,0.0,0.0,0.0,-2.298104625080268,-5.227474701586586,-3.163654473903387,0.0004004678806706026,0.0024281316666879375,-0.7632027835797502
11438,1.0,299.65783999999996,35066.519,0.0,-0.11438019121235243,0.0,0.0,0.0,0.0,-2.303905380577758,-5.194912085772905,-3.1605286986698973,-0.016743525244707284,-0.011793773174954789,-0.7376253518354543
11439,1.0,299.87836,35070.104,0.0,-0.11439018719977179,0.0,0.0,0.0,0.0,-2.3038517796474682,-5.212504640634155,-3.144079393896477,-0.005675012578630135,0.01304099082904559,-0.7183727792028733
11440,1.0,299.88122000000004,35100.891,0.0,-0.11440018318719114,0.0,0.0,0.0,0.0,-2.282094462900188,-5.222108630381995,-3.165591301469537,-0.012950945319158788,0.007015860114836483,-0.7361129544711923
11441,1.0,299.97547000000003,35061.317,0.0,-0.1144101791746105,0.0,0.0,0.0,0.0,-2.286312420416468,-5.205915171258825,-3.165537396564217,-0.002033222810438468,-0.01107804775481819,-0.7396714888223923
11442,1.0,299.65952999999996,35086.55,0.0,-0.11442017516202974,0.0,0.0,0.0,0.0,-2.271479350877558,-5.232589993391425,-3.161365643252497,0.015924522281627985,-0.016478552237556485,-0.7307902301058803
11443,1.0,299.51661,34964.981,0.0,-0.11443017114944898,0.0,0.0,0.0,0.0,-2.288361921393738,-5.192072655017674,-3.148046572013007,0.02494796227867218,0.004419740396844416,-0.7223579729061813
11444,1.0,299.69315,34943.03,0.0,-0.11444016713686833,0.0,0.0,0.0,0.0,-2.2938624508865977,-5.203975202617365,-3.123970837711917,0.010366643846358091,-0.00018160222150274383,-0.7402791349073623
11445,1.0,300.53504,35087.771,0.0,-0.11445016312428768,0.0,0.0,0.0,0.0,-2.3071013740431776,-5.213046729437655,-3.145658138877287,-0.01163636781167009,-0.015493752173864285,-0.7386645107405113
11446,1.0,300.23559,35043.619,0.0,-0.11446019210176428,0.0,0.0,0.0,0.0,-2.309475723002508,-5.183243193646275,-3.1596661188597674,-0.01853252063451738,0.0061414982325436835,-0.7364869450831023
11447,1.0,299.82345,34983.51,0.0,-0.11447018808918386,0.0,0.0,0.0,0.0,-2.2647264442610977,-5.225163376783475,-3.144223579385707,-0.018946030026827584,0.02124737634295278,-0.7630621242008683
11448,1.0,299.61932,35067.841,0.0,-0.1144801840766031,0.0,0.0,0.0,0.0,-2.2831173388761377,-5.211953331254745,-3.164677349879337,0.0012729381972792187,0.008206183167862221,-0.7572202915443242
11449,1.0,300.67785,35222.581,0.0,-0.11449018006402245,0.0,0.0,0.0,0.0,-2.3244308891784677,-5.219422504366896,-3.162931621282047,-0.016660923070055084,-0.001983419338873248,-0.7462124032529303
11450,1.0,300.61281,35049.826,0.0,-0.1145001760514417,0.0,0.0,0.0,0.0,-2.2957695902248183,-5.2173382489111955,-3.141163969383747,0.014538190455057687,0.007755200037828654,-0.7323630881036093
11451,1.0,299.86622,34955.906,0.0,-0.11451017203886082,0.0,0.0,0.0,0.0,-2.2839805266363276,-5.196916193145695,-3.144825956570157,0.016065176594259486,0.013071063078763488,-0.7245386796389003
11452,1.0,299.61097,35172.502,0.0,-0.11452016802628029,0.0,0.0,0.0,0.0,-2.305264655586908,-5.225387609030604,-3.160909984682527,0.013544637937001688,0.008248485852912173,-0.7310648107504794
11453,1.0,299.79339,35226.348,0.0,-0.11453016401369964,0.0,0.0,0.0,0.0,-2.2899835268537774,-5.235157974444865,-3.182788587466777,-0.013755894503351086,-0.008201239925924362,-0.7503767294414173
11454,1.0,299.83603999999997,35059.608,0.0,-0.11454019299117646,0.0,0.0,0.0,0.0,-2.284959123582908,-5.215417025396586,-3.156869345933747,-0.0036446887780527764,-0.006052958108330454,-0.7349823193471073
11455,1.0,300.33636,35117.03,0.0,-0.11455018897859581,0.0,0.0,0.0,0.0,-2.307248700607718,-5.217503915302545,-3.149947631850627,-0.008935318041147233,-0.0002988369400679097,-0.7325421395287803
11456,1.0,299.9833,35181.032999999996,0.0,-0.11456018496601506,0.0,0.0,0.0,0.0,-2.325364497820608,-5.215034219508804,-3.1537568442765673,0.003882608311508606,-0.00996670622986232,-0.7324204177942674
11457,1.0,299.50099,35131.128,0.0,-0.11457018095343441,0.0,0.0,0.0,0.0,-2.295119184985628,-5.236274981355105,-3.147591420068087,-0.0070048443637243125,-0.00991721220487764,-0.7306817414176733
11458,1.0,300.55167,35274.358,0.0,-0.11458017694085365,0.0,0.0,0.0,0.0,-2.314117320385598,-5.240229291195366,-3.1681773183747572,0.018385727039529984,0.005098620902269705,-0.7328640794830533
11459,1.0,300.37935,35231.432,0.0,-0.11459017292827278,0.0,0.0,0.0,0.0,-2.2924400503962183,-5.221001654647745,-3.1960338940989867,0.007377576822985143,0.020716168832276678,-0.7389646860826363
11460,1.0,300.70604,35141.154,0.0,-0.11460016891569236,0.0,0.0,0.0,0.0,-2.300753159516658,-5.236461216723486,-3.1448190664694766,0.023457611210085976,-0.003577516375923377,-0.7510659421594373
11461,1.0,300.42963,35149.564,0.0,-0.1146101649031116,0.0,0.0,0.0,0.0,-2.320773968242558,-5.2101622090529744,-3.153653492766367,-0.00983859483889371,-0.008226785886120552,-0.7407815043069423
11462,1.0,299.84382,35245.692,0.0,-0.11462019388058842,0.0,0.0,0.0,0.0,-2.334308456453308,-5.221617406733515,-3.157884318558917,0.0011643470694871088,0.01027139935020819,-0.7275790074914573
11463,1.0,300.17109,35094.405,0.0,-0.11463018986800777,0.0,0.0,0.0,0.0,-2.302338287973098,-5.224210313739415,-3.1412741096696175,0.002755479944694698,0.009749726218998061,-0.7427626311674643
11464,1.0,300.38158,35114.053,0.0,-0.1146401858554269,0.0,0.0,0.0,0.0,-2.297583510553838,-5.215599410414585,-3.160612393128157,-0.005314746844624675,0.0011447687470798789,-0.7389348762646943
11465,1.0,299.56068,35128.722,0.0,-0.11465018184284637,0.0,0.0,0.0,0.0,-2.293265747902708,-5.2381305462632355,-3.146857826995687,0.0015753607254759983,-0.017850002459908084,-0.7573367849083212
11466,1.0,299.76698999999996,35044.562999999995,0.0,-0.1146601778302655,0.0,0.0,0.0,0.0,-2.287082287842448,-5.230124553248104,-3.1354653494963367,-0.001115753013241249,-0.001284756037170549,-0.7307987515392212
11467,1.0,300.16307,35124.156,0.0,-0.11467017381768496,0.0,0.0,0.0,0.0,-2.3037501506624376,-5.239142783113135,-3.133973541374107,-0.015205596004425486,0.008065700195822633,-0.7504916016052543
11468,1.0,299.94337,35329.008,0.0,-0.11468016980510432,0.0,0.0,0.0,0.0,-2.318635503906508,-5.248859547597105,-3.171641316491627,-0.018951846082401583,-0.012951001047914289,-0.7363318468902953
11469,1.0,300.31793999999996,35215.795,0.0,-0.11469016579252356,0.0,0.0,0.0,0.0,-2.312277663504038,-5.232810881913225,-3.1596338975065867,-0.02002601075191338,-0.002119153612994178,-0.7487181910152323
11470,1.0,299.82301,34990.672,0.0,-0.11470016177994291,0.0,0.0,0.0,0.0,-2.258566592928168,-5.217066292584354,-3.1606575840826174,-0.014051227523248186,0.014021635554077686,-0.7339043124332163
11471,1.0,300.33038,35245.125,0.0,-0.11471019075741973,0.0,0.0,0.0,0.0,-2.293031788454618,-5.243426196585875,-3.177179944188247,0.008135929674828743,0.005368551438184776,-0.7549479464725612
11472,1.0,300.58556,35383.387,0.0,-0.11472018674483886,0.0,0.0,0.0,0.0,-2.322874334374848,-5.235534194206995,-3.1972576975697673,-0.006785333558085284,-0.005817289611296785,-0.7376824890085933
11473,1.0,300.26487000000003,35224.86,0.0,-0.11473018273225832,0.0,0.0,0.0,0.0,-2.302491491388218,-5.237747031100385,-3.1672392514321768,0.029943216370665368,-0.011861960853684388,-0.7346578158700813
11474,1.0,300.01032999999995,35179.241,0.0,-0.11474017871967745,0.0,0.0,0.0,0.0,-2.319845932475968,-5.222061514252345,-3.151703188973887,0.027844745016062374,0.013287735466897386,-0.7210257719397033
11475,1.0,300.10438999999997,35261.282,0.0,-0.11475017470709681,0.0,0.0,0.0,0.0,-2.3233763997993977,-5.230698762079775,-3.164473990584267,0.004123755553157986,0.02226256580364418,-0.7276404003150163
11476,1.0,299.95531,35228.127,0.0,-0.11476017069451627,0.0,0.0,0.0,0.0,-2.3065087240596873,-5.239304193854065,-3.162658246405067,-0.020225692962370482,-0.007827150927429654,-0.7320235885251033
11477,1.0,299.74929,35210.734,0.0,-0.1147701666819354,0.0,0.0,0.0,0.0,-2.300381904680018,-5.228401926753095,-3.174400193863907,-0.012304404615850188,-0.011537371250399888,-0.7380500758798713
11478,1.0,299.65144,35255.97,0.0,-0.11478016266935487,0.0,0.0,0.0,0.0,-2.3038160119189377,-5.249936328478374,-3.163182198031777,0.001112956645615269,0.004969745014100646,-0.7372109933395603
11479,1.0,299.87962000000005,35132.429,0.0,-0.11479019164683157,0.0,0.0,0.0,0.0,-2.3055637670164275,-5.220737399021665,-3.153080094534777,0.0035541164794389867,-0.007312494046536972,-0.7489987194379183
11480,1.0,300.03426,35200.339,0.0,-0.11480018763425082,0.0,0.0,0.0,0.0,-2.3106292069163477,-5.233422479673585,-3.1559724169452266,-0.012930562780147186,-0.012522400308614687,-0.7512684097944192
11481,1.0,299.60675,35245.348,0.0,-0.11481018362167017,0.0,0.0,0.0,0.0,-2.3108950837425875,-5.241983024468445,-3.1608277087744074,-0.00010811992596560592,0.009271088960610241,-0.7524042530240183
11482,1.0,300.44037000000003,35212.013,0.0,-0.11482017960908941,0.0,0.0,0.0,0.0,-2.2864884219588375,-5.234723087501945,-3.1823612998996067,0.02019546467213718,0.026254887721405672,-0.7593298782525242
11483,1.0,300.62026000000003,35132.429,0.0,-0.11483017559650877,0.0,0.0,0.0,0.0,-2.282491352964358,-5.241546009700315,-3.1553437965831868,0.02450421952987818,0.0034364097484472366,-0.7536108616406013
11484,1.0,300.84103,35290.363,0.0,-0.11484017158392823,0.0,0.0,0.0,0.0,-2.318539853097068,-5.241651691685744,-3.167197404203047,0.004460450050087147,-0.010349799576695691,-0.7508219819328603
11485,1.0,300.17135,35427.587999999996,0.0,-0.11485016757134736,0.0,0.0,0.0,0.0,-2.338128814630348,-5.250847746943325,-3.180125664878967,0.007648452518593494,-0.003599522040270166,-0.7248099874856763
11486,1.0,300.05554,35265.516,0.0,-0.11486016355876671,0.0,0.0,0.0,0.0,-2.320715402386778,-5.246255190865075,-3.1528656908136172,0.017789356401672785,0.006570556048963393,-0.7430570715140233
11487,1.0,300.08428,35280.612,0.0,-0.11487019253624353,0.0,0.0,0.0,0.0,-2.3035042348631682,-5.244840085775415,-3.176080871804777,-0.013117243978571188,0.0027772963339228072,-0.7237338145544664
11488,1.0,300.14366,35387.081,0.0,-0.11488018852366277,0.0,0.0,0.0,0.0,-2.315803875177048,-5.245880592303104,-3.195104541107267,-0.016524866886377384,-0.006286156605595354,-0.7374307672862503
11489,1.0,299.84587999999997,35289.98,0.0,-0.11489018451108213,0.0,0.0,0.0,0.0,-2.304833720319378,-5.240013266274045,-3.182425641280957,-0.004798079574208586,0.002157934342021538,-0.7393889440320073
11490,1.0,300.12066,35302.75,0.0,-0.11490018049850148,0.0,0.0,0.0,0.0,-2.3121440158158477,-5.244876056153966,-3.1741343170376672,0.0028685897626327676,0.02254442158396118,-0.7532305483480674
11491,1.0,299.9476,35395.049,0.0,-0.11491017648592072,0.0,0.0,0.0,0.0,-2.329343530963308,-5.247225884460875,-3.182641564877267,0.010999971768362688,-0.022879373696018376,-0.7408207272183133
11492,1.0,300.02065,35246.775,0.0,-0.11492017247334008,0.0,0.0,0.0,0.0,-2.3223198839201276,-5.224843088426866,-3.1669763130312267,-0.013072903140945087,-0.01895017117998628,-0.7370979348934023
11493,1.0,299.86907,35222.611000000004,0.0,-0.11493016846075932,0.0,0.0,0.0,0.0,-2.311630703315188,-5.234557725085624,-3.160605908327517,-0.01147923197291199,0.003212732255746987,-0.7431900808546503
11494,1.0,300.20333999999997,35331.529,0.0,-0.11494016444817867,0.0,0.0,0.0,0.0,-2.295834235581198,-5.251752072657575,-3.1923162794820867,0.011301624429133489,0.010895208800773389,-0.7470730173578662
11495,1.0,300.49241,35367.422999999995,0.0,-0.11495019342565549,0.0,0.0,0.0,0.0,-2.3282812395584678,-5.246096617224425,-3.176435610664787,0.0067640857034882845,0.02123911936788788,-0.7464354601299442
11496,1.0,299.94794,35359.638,0.0,-0.11496018941307473,0.0,0.0,0.0,0.0,-2.3203613728018375,-5.247850958447565,-3.180234589264717,-0.014579584761392985,-0.008504293202308392,-0.7437304977954853
11497,1.0,299.97461,35369.858,0.0,-0.11497018540049408,0.0,0.0,0.0,0.0,-2.3489969352029476,-5.2442067031379045,-3.158350109629887,0.009438014517859512,-0.0010210318607679991,-0.7337386055118623
11498,1.0,299.42228,35286.46,0.0,-0.11498018138791344,0.0,0.0,0.0,0.0,-2.3017495896649978,-5.2467690099907855,-3.177684137438007,-0.01070232347198709,0.007639704319880112,-0.7342173357866093
11499,1.0,300.17008,35292.632000000005,0.0,-0.11499017737533268,0.0,0.0,0.0,0.0,-2.2925810948101377,-5.253787286808436,-3.1817104893603765,0.005454281313245655,-0.01069701809446349,-0.7486882190772742
11500,1.0,300.52115,35467.674,0.0,-0.11500017336275203,0.0,0.0,0.0,0.0,-2.2887988348368578,-5.278015413924566,-3.214473019418787,-0.01727945754059968,-0.011304554748422688,-0.7581534847539233
11501,1.0,300.5721,35464.297,0.0,-0.11501016935017128,0.0,0.0,0.0,0.0,-2.3347965390264775,-5.253586865938654,-3.191877339538767,-0.009408447677291492,0.008615623246445811,-0.7375405326695833
11502,1.0,300.44932,35348.113,0.0,-0.11502016533759063,0.0,0.0,0.0,0.0,-2.3103266504364877,-5.2578862887629745,-3.176730669093907,-0.012872108381878187,0.001204480082097929,-0.7635779799592793
11503,1.0,300.81205,35301.271,0.0,-0.11503019431506745,0.0,0.0,0.0,0.0,-2.3212738045168875,-5.248688105680185,-3.160743001066047,-0.00904030250520839,-0.01259268338855109,-0.7299824772586614
11504,1.0,299.80236,35437.547,0.0,-0.11504019030248658,0.0,0.0,0.0,0.0,-2.3329337800426377,-5.248982252184215,-3.1902131775745266,-0.006571648028596164,-0.003983927545983036,-0.7349271884091663
11505,1.0,300.16704,35617.221,0.0,-0.11505018628990604,0.0,0.0,0.0,0.0,-2.338817419398308,-5.268519537962395,-3.219408864630917,0.01011885100127784,0.00976768334124529,-0.7368995506563233
11506,1.0,299.43505,35451.667,0.0,-0.1150601822773254,0.0,0.0,0.0,0.0,-2.307728373205058,-5.254725961701075,-3.2139671036438573,0.007963008412762743,-0.002178745181850408,-0.7381872902084133
11507,1.0,300.10939,35411.29,0.0,-0.11507017826474464,0.0,0.0,0.0,0.0,-2.3279887142545976,-5.2612184630418355,-3.1749408641172674,0.016562546617846084,-0.007609005881600414,-0.7420723849343422
11508,1.0,300.26949,35477.388,0.0,-0.11508017425216399,0.0,0.0,0.0,0.0,-2.333853608483418,-5.2614560701902855,-3.188930504272937,0.0031756250105847866,-0.01185612149335809,-0.7370691484580613
11509,1.0,300.16826000000003,35460.532999999996,0.0,-0.11509017023958312,0.0,0.0,0.0,0.0,-2.3532187430696077,-5.249271737737785,-3.176626203008597,0.012268541641810788,-0.0006112556567287365,-0.7443859692851753
11510,1.0,300.0217,35403.835,0.0,-0.11510016622700259,0.0,0.0,0.0,0.0,-2.313488497373538,-5.267595555196205,-3.1807976523452868,-0.025143763741246272,0.005865012880406704,-0.7401487498844943
11511,1.0,300.29294,35355.761,0.0,-0.11511016221442194,0.0,0.0,0.0,0.0,-2.294833245807408,-5.250817754740366,-3.201617408775037,0.00019319986188234183,0.0001159985027806609,-0.7532711898095783
11512,1.0,300.58582,35332.49,0.0,-0.11512019119189854,0.0,0.0,0.0,0.0,-2.288279442835598,-5.267201400907305,-3.1847137626567767,-0.005089251885220056,-0.0040738940223620365,-0.7659986040506762
11513,1.0,300.88178,35567.421,0.0,-0.11513018717931811,0.0,0.0,0.0,0.0,-2.339163342982448,-5.279668126162675,-3.192776396352497,0.013009176802405788,0.006240853585674295,-0.7581983717333532
11514,1.0,300.67015,35620.06,0.0,-0.11514018316673735,0.0,0.0,0.0,0.0,-2.3680309396564576,-5.255729585925125,-3.203848382845217,0.013698699574956386,-0.006857858859167973,-0.7724223867696542
11515,1.0,300.54121000000004,35297.866,0.0,-0.11515017915415648,0.0,0.0,0.0,0.0,-2.3194863300154775,-5.256152313866845,-3.154031333728657,-0.0025414671354232776,-0.0027716431076398773,-0.7450848686741514
11516,1.0,301.07532000000003,35307.443,0.0,-0.11516017514157595,0.0,0.0,0.0,0.0,-2.2973316165789774,-5.2596527889873155,-3.175596639581987,-0.0012636285566854288,-0.004251895821754446,-0.7473322675284523
11517,1.0,300.18857,35632.496,0.0,-0.11517017112899508,0.0,0.0,0.0,0.0,-2.3223391356720278,-5.2666200993249355,-3.242429805577907,0.007876280081053323,-0.0028374518777846973,-0.7225649393716073
11518,1.0,300.6739,35773.799,0.0,-0.11518016711641454,0.0,0.0,0.0,0.0,-2.3473711754174977,-5.309206291752865,-3.217764055743587,-0.0007128822099584964,-1.813203555899258e-05,-0.7584391300896143
11519,1.0,300.47639,35482.016,0.0,-0.1151901631038339,0.0,0.0,0.0,0.0,-2.3190655272489478,-5.259798089051655,-3.206783261759867,-0.008059998536184923,-0.0012360615678397788,-0.7361596754333033
11520,1.0,300.26286,35416.928,0.0,-0.11520019208131071,0.0,0.0,0.0,0.0,-2.3071094800439775,-5.2880514535150445,-3.1707007164237972,-0.0034997479108732263,0.007663635970016982,-0.7563489572533303
11521,1.0,300.16035,35578.54,0.0,-0.11521018806873007,0.0,0.0,0.0,0.0,-2.338709609587668,-5.290682661374725,-3.1855955942188072,-0.007656445947307382,0.022047060679625478,-0.7399898925338163
11522,1.0,300.01283,35587.621,0.0,-0.11522018405614931,0.0,0.0,0.0,0.0,-2.315006852648388,-5.285599185623025,-3.2171419201821867,-0.0012816480951388187,0.004255803015465056,-0.7383762714845643
11523,1.0,300.15404,35513.487,0.0,-0.11523018004356844,0.0,0.0,0.0,0.0,-2.311191966021888,-5.293599200462565,-3.1904222110701568,-0.008520933707375682,-0.011512311548926688,-0.7400330772530783
11524,1.0,300.24047,35333.727,0.0,-0.1152401760309878,0.0,0.0,0.0,0.0,-2.3095069311055876,-5.243577677475825,-3.1874860149303768,-0.00964376315799032,-0.015669639218972985,-0.7211704032589773
11525,1.0,300.97324,35389.704,0.0,-0.11525017201840704,0.0,0.0,0.0,0.0,-2.3240329858641977,-5.268834456093475,-3.1647189944584473,0.009365302069483352,-0.009011489826689801,-0.7582574746116862
11526,1.0,300.81788,35642.411,0.0,-0.11526016800582661,0.0,0.0,0.0,0.0,-2.362858196570948,-5.276049506080545,-3.1954953516708366,0.0014169122212133488,0.0020338448446748578,-0.7479624381631452
11527,1.0,300.94284,35667.795,0.0,-0.11527016399324586,0.0,0.0,0.0,0.0,-2.368186372221798,-5.257470957546985,-3.216461826715067,0.006399019494484054,0.01765164152758138,-0.7461045427797853
11528,1.0,300.08774,35345.922999999995,0.0,-0.11528019297072256,0.0,0.0,0.0,0.0,-2.2870337531626577,-5.279639349859836,-3.177604901280187,-0.00906563831733384,0.004289560050496616,-0.7487922292000393
11529,1.0,300.4843,35270.477999999996,0.0,-0.11529018895814203,0.0,0.0,0.0,0.0,-2.2884676033791678,-5.246418020156145,-3.1864590859540267,0.006289743612274364,0.005349198057299745,-0.7467556268965423
11530,1.0,300.03344,35653.03,0.0,-0.11530018494556116,0.0,0.0,0.0,0.0,-2.3393235378232577,-5.292194329198915,-3.2061127941686967,-0.014665864020658087,-0.003910706243406656,-0.7587719523499612
11531,1.0,300.18562000000003,35658.755,0.0,-0.1153101809329804,0.0,0.0,0.0,0.0,-2.3458734904446876,-5.293235646326685,-3.2002620854412767,0.002119564891209768,0.001091531269600749,-0.7552874055210632
11532,1.0,299.81254,35408.303,0.0,-0.11532017692039975,0.0,0.0,0.0,0.0,-2.319302019822288,-5.265073170397265,-3.178864573804507,-7.771551867942452e-05,-0.01125434719271759,-0.7508875189493283
11533,1.0,299.8437,35556.712,0.0,-0.11533017290781922,0.0,0.0,0.0,0.0,-2.331364356962748,-5.297785544575724,-3.1792026953628767,-0.01123588780239579,0.004339423810442785,-0.7372586363592623
11534,1.0,300.35132999999996,35698.91,0.0,-0.11534016889523857,0.0,0.0,0.0,0.0,-2.3399340210085082,-5.273827347286235,-3.237815971247557,0.01149265449698669,-0.0034600983198851162,-0.7268144596285023
11535,1.0,300.29491,35626.297999999995,0.0,-0.1153501648826577,0.0,0.0,0.0,0.0,-2.342945400305708,-5.273980449376345,-3.2125792549818866,0.013844296521575686,0.014963738271805986,-0.7152590413805714
11536,1.0,299.8263,35616.943,0.0,-0.11536019386013452,0.0,0.0,0.0,0.0,-2.3234441862310877,-5.2907601750073745,-3.2124569556948175,0.014996249414514587,0.015376268864519585,-0.7236367553273874
11537,1.0,299.81065,35468.45,0.0,-0.11537018984755387,0.0,0.0,0.0,0.0,-2.3404166320311375,-5.249020654363005,-3.192085967734357,0.005000778736838436,-0.0015992816351618085,-0.7389764600487982
11538,1.0,300.34467,35397.737,0.0,-0.11538018583497311,0.0,0.0,0.0,0.0,-2.3214612557853878,-5.2834614305620455,-3.1551055814846767,0.0008792247734977291,-0.006370164462111284,-0.7632308303425183
11539,1.0,300.27195,35534.622,0.0,-0.11539018182239236,0.0,0.0,0.0,0.0,-2.331760537751848,-5.281095896878585,-3.188781252533207,-0.018591328657071284,0.01050336573535149,-0.7545580478340813
11540,1.0,300.22087999999997,35655.554,0.0,-0.11540017780981171,0.0,0.0,0.0,0.0,-2.3445767329667078,-5.2763753673127045,-3.217445996537197,-0.008987437295816001,-0.009970242270061302,-0.7472814125059333
11541,1.0,299.68695,35505.536,0.0,-0.11541017379723106,0.0,0.0,0.0,0.0,-2.309809183610418,-5.299774858497055,-3.183212227333587,-0.017408389562824284,-0.007304605894508472,-0.7462002341192293
11542,1.0,300.03528,35489.587999999996,0.0,-0.11542016978465053,0.0,0.0,0.0,0.0,-2.3138678582109775,-5.278989147270665,-3.195091672830997,-0.005437683364682564,-0.02146400110833198,-0.7526700487902502
11543,1.0,299.44746000000004,35634.204,0.0,-0.11543016577206966,0.0,0.0,0.0,0.0,-2.320392378254898,-5.309604499042165,-3.201911555279067,0.008356334471031002,-7.623003121131833e-06,-0.7463811499245843
11544,1.0,299.75265,35623.445,0.0,-0.11544019474954648,0.0,0.0,0.0,0.0,-2.344535797662668,-5.2999517719645155,-3.184150091626147,0.013845998781743687,-0.016354407822054384,-0.7398085106334152
11545,1.0,299.73511,35546.839,0.0,-0.11545019073696583,0.0,0.0,0.0,0.0,-2.3201196113279776,-5.291429831998465,-3.1938021094287268,-0.003904652378034186,-0.0024366118607498676,-0.7386719074662413
11546,1.0,299.91741,35452.903,0.0,-0.11546018672438507,0.0,0.0,0.0,0.0,-2.332555331130288,-5.280644189984005,-3.1635979345478074,0.004726692152988195,-0.002071566322047678,-0.7389841202195543
11547,1.0,300.56764,35412.913,0.0,-0.1154701827118042,0.0,0.0,0.0,0.0,-2.309322316937368,-5.2703981036477945,-3.184920870977217,0.0011996565049968788,0.03236118473355026,-0.7295456854055533
11548,1.0,300.45732999999996,35535.465,0.0,-0.11548017869922367,0.0,0.0,0.0,0.0,-2.308579097989018,-5.301068981524774,-3.192245858600137,0.0020371754990785684,0.005105434502567155,-0.7513305220255493
11549,1.0,300.23147,35804.589,0.0,-0.11549017468664302,0.0,0.0,0.0,0.0,-2.3511624533166677,-5.315256813400005,-3.217281546045967,-0.004032671765893716,-0.00923334042945975,-0.7643756813655063
11550,1.0,300.02541,35804.67,0.0,-0.11550017067406237,0.0,0.0,0.0,0.0,-2.3710244857518976,-5.299697040889375,-3.2130042120738267,0.008128199488490832,0.0022357764703539577,-0.7569548808131303
11551,1.0,299.4804,35586.812000000005,0.0,-0.11551016666148162,0.0,0.0,0.0,0.0,-2.337036429697538,-5.300643923107825,-3.1798218924989867,0.004618688912904105,0.009555155146020391,-0.7501677668732942
11552,1.0,299.59806000000003,35583.072,0.0,-0.11552016264890086,0.0,0.0,0.0,0.0,-2.3402736624420277,-5.277155671214715,-3.198935842385387,-0.0059784435946514435,-0.008123378241865013,-0.7329845245224403
11553,1.0,300.21154,35698.257000000005,0.0,-0.11553019162637779,0.0,0.0,0.0,0.0,-2.359352148574928,-5.278571181604415,-3.213455412343357,-0.02421738666506998,-0.0041801244800711655,-0.7212358592154373
11554,1.0,299.49018,35551.72,0.0,-0.11554018761379703,0.0,0.0,0.0,0.0,-2.309282192233408,-5.296170727891355,-3.2013822334268265,-0.006874241796059844,-0.004100216334784846,-0.7481571443023614
11555,1.0,299.32034,35373.831,0.0,-0.11555018360121638,0.0,0.0,0.0,0.0,-2.312687725819508,-5.265612219450465,-3.174461495494957,-0.005573065635718755,0.004453914890917176,-0.7372692856178132
11556,1.0,299.42342,35548.726,0.0,-0.11556017958863574,0.0,0.0,0.0,0.0,-2.331989025649398,-5.298844086955195,-3.175091838382167,-0.011851767557678389,-0.009694297182877641,-0.7484657397528173
11557,1.0,299.88988,35697.532999999996,0.0,-0.11557017557605498,0.0,0.0,0.0,0.0,-2.358292998245398,-5.303340384273945,-3.189525383406647,-0.0026259171742828475,-0.013723503937404386,-0.7447756247436312
11558,1.0,299.99176,35728.003,0.0,-0.11558017156347433,0.0,0.0,0.0,0.0,-2.3446809964019977,-5.316195386967635,-3.199544400395447,0.012498084332714886,0.013800557554508985,-0.7650934576038453
11559,1.0,300.31282999999996,35609.636,0.0,-0.11559016755089357,0.0,0.0,0.0,0.0,-2.328621083642008,-5.302942278309654,-3.192876910762417,0.00976219193100333,0.025521525670028477,-0.7610863270358723
11560,1.0,300.14789,35547.402,0.0,-0.1156001635383127,0.0,0.0,0.0,0.0,-2.307548116012268,-5.295676160517544,-3.2022984141672466,0.007439420137538603,-0.0032755530526719164,-0.7529055179809893
11561,1.0,301.39743,35693.465,0.0,-0.11561019251578974,0.0,0.0,0.0,0.0,-2.339284021069358,-5.307974990231346,-3.202663082878237,-0.01130642216835699,-0.010144057117390491,-0.7706197135167443
11562,1.0,300.26575,35679.855,0.0,-0.11562018850320888,0.0,0.0,0.0,0.0,-2.360367526500138,-5.289568998189815,-3.1958485706556967,0.011851811127432688,0.0013474111677041288,-0.7313040897615943
11563,1.0,299.71835,35631.311,0.0,-0.11563018449062834,0.0,0.0,0.0,0.0,-2.3451955248027776,-5.289767696534425,-3.196065710152127,0.009337726873311893,0.0015294680953217485,-0.7294491935985303
11564,1.0,299.19608999999997,35523.95,0.0,-0.1156401804780477,0.0,0.0,0.0,0.0,-2.3173080449504977,-5.287876566547785,-3.193209155470207,-0.004837616897085615,-0.010357857954740991,-0.7251174582285214
11565,1.0,299.56806,35668.657,0.0,-0.11565017646546694,0.0,0.0,0.0,0.0,-2.3256884338775774,-5.303418911156695,-3.2132738379254366,-0.02431056615751608,-0.012890018590645787,-0.7428663879777042
11566,1.0,299.40009,35810.39,0.0,-0.11566017245288629,0.0,0.0,0.0,0.0,-2.3321804285932877,-5.3151106014105745,-3.238173445882837,0.008476330336648673,0.014201430704822089,-0.7316576836489913
11567,1.0,299.78688,35662.942,0.0,-0.11567016844030553,0.0,0.0,0.0,0.0,-2.3367230314416076,-5.3076147798207955,-3.196305951750837,0.006296542925745404,0.021489554262603877,-0.7571386539837672
11568,1.0,299.85276,35662.562999999995,0.0,-0.11568016442772489,0.0,0.0,0.0,0.0,-2.339032735044558,-5.304665816729754,-3.1968302073525767,0.008190318508396502,0.0014473135745637288,-0.7364222186667143
11569,1.0,300.25251000000003,35828.178,0.0,-0.1156901934052017,0.0,0.0,0.0,0.0,-2.362203231706308,-5.308484857681665,-3.220183291682347,0.0015121277384103887,-0.005408403577867874,-0.7379586604558493
11570,1.0,300.30812000000003,35823.022000000004,0.0,-0.11570018939262083,0.0,0.0,0.0,0.0,-2.352299826553918,-5.3170320275752045,-3.219972434336537,0.00960682451764476,0.01112130137508699,-0.7406600865474593
11571,1.0,299.91449,35716.047,0.0,-0.1157101853800403,0.0,0.0,0.0,0.0,-2.327079828914898,-5.305212769133735,-3.224493758932757,-0.0027715793742085874,0.0045079594221009555,-0.7356615008891373
11572,1.0,300.38366,35780.224,0.0,-0.11572018136745965,0.0,0.0,0.0,0.0,-2.342578401119488,-5.315523703476345,-3.2181927618608968,0.0062266132674438845,-0.011759066319279489,-0.7584300108387143
11573,1.0,299.50832,35694.405,0.0,-0.11573017735487878,0.0,0.0,0.0,0.0,-2.353675820189718,-5.303762706915625,-3.192769303601797,-0.013578235283817488,-0.007290068187373713,-0.7427537956265923
11574,1.0,299.32068,35625.505,0.0,-0.11574017334229825,0.0,0.0,0.0,0.0,-2.338176437385048,-5.308240765732575,-3.182846748022517,0.0012623810431623087,-0.0006447605343404103,-0.7620021227412543
11575,1.0,299.37192999999996,35635.393,0.0,-0.11575016932971738,0.0,0.0,0.0,0.0,-2.336776733696908,-5.3016042815526045,-3.193888742312277,-0.0005830272891453136,-0.013608028889757885,-0.7400571115454503
11576,1.0,299.83315,35622.262,0.0,-0.11576016531713684,0.0,0.0,0.0,0.0,-2.305104562071108,-5.306798606865245,-3.2163751938315173,-0.005917872618248555,-0.0024436407766935675,-0.7565568255113453
11577,1.0,299.90801,35618.49,0.0,-0.11577019429461355,0.0,0.0,0.0,0.0,-2.303112411049498,-5.315130663762554,-3.208888592817647,-0.0035898022360358966,-0.002145756899669718,-0.7522221314510443
11578,1.0,300.04647,35763.527,0.0,-0.11578019028203301,0.0,0.0,0.0,0.0,-2.339819118447168,-5.324677708854774,-3.206722466753867,-0.0007460136846433183,0.018191058390567682,-0.7643250897880133
11579,1.0,299.78592000000003,35832.852999999996,0.0,-0.11579018626945214,0.0,0.0,0.0,0.0,-2.3677357799023273,-5.316159923214135,-3.208396862544117,-0.015330479079250486,0.03447391657006067,-0.7488185331726354
11580,1.0,299.85401,35720.678,0.0,-0.11580018225687161,0.0,0.0,0.0,0.0,-2.3420178711641677,-5.325629758648735,-3.190546536857427,-0.0007032447829573563,0.007897807694002931,-0.7620824329441802
11581,1.0,300.30041,35849.671,0.0,-0.11581017824429074,0.0,0.0,0.0,0.0,-2.357058555648568,-5.322480374687915,-3.2178658873786365,-0.002418036047991578,-0.0025603791445647475,-0.7470745574980183
11582,1.0,299.91964,35924.62,0.0,-0.1158201742317101,0.0,0.0,0.0,0.0,-2.3607468873375774,-5.308395286372824,-3.2510452685281868,-0.005830218378597755,-0.011907809407459289,-0.7394099993690852
11583,1.0,299.78832,35710.309,0.0,-0.11583017021912956,0.0,0.0,0.0,0.0,-2.3056042970204276,-5.320975292989375,-3.228462558249447,0.009364078468662591,-0.017852230596877985,-0.7505428720603143
11584,1.0,299.99029,35603.56,0.0,-0.11584016620654869,0.0,0.0,0.0,0.0,-2.3210697359467476,-5.3016065107028245,-3.199916972457217,-0.007235149322678643,-0.012429682858214188,-0.7460597165953613
11585,1.0,300.69458,35920.366,0.0,-0.1158501951840255,0.0,0.0,0.0,0.0,-2.384977547578958,-5.317137709560636,-3.2167791766463867,-0.00029223101551095575,-0.008614888032173253,-0.7571313788480493
11586,1.0,299.80142,35904.985,0.0,-0.11586019117144486,0.0,0.0,0.0,0.0,-2.3756607129094576,-5.311760593929955,-3.226797585685127,-0.016305663399493683,-0.012344170629274788,-0.7474864335311673
11587,1.0,300.05225,35734.443,0.0,-0.1158701871588641,0.0,0.0,0.0,0.0,-2.348269624281168,-5.299219192142215,-3.2148896678599073,-0.001974012223619838,-0.01002668587350685,-0.7371031835289203
11588,1.0,299.70159,35817.961,0.0,-0.11588018314628346,0.0,0.0,0.0,0.0,-2.3206787227331582,-5.333147973065724,-3.2339389723899266,0.002306030976637538,0.008014805149924682,-0.7478415168962113
11589,1.0,299.49055,35880.132000000005,0.0,-0.1158901791337027,0.0,0.0,0.0,0.0,-2.3452479098329477,-5.319045152873885,-3.242371138397117,0.013784952489718887,0.007928655890647411,-0.7449576247265932
11590,1.0,299.67409,35883.758,0.0,-0.11590017512112205,0.0,0.0,0.0,0.0,-2.366094112090308,-5.321856516601345,-3.2198157858710768,0.0015924934674418686,0.01219034203884309,-0.7505855096245223
11591,1.0,299.44955,35824.831,0.0,-0.11591017110854152,0.0,0.0,0.0,0.0,-2.3755482421483576,-5.3175943813807045,-3.196711353115847,0.00881656979037769,0.010953985412574188,-0.7569014825328603
11592,1.0,299.58865,35706.691,0.0,-0.11592016709596065,0.0,0.0,0.0,0.0,-2.330529033580308,-5.304678786331036,-3.218734749339387,0.010013200122625911,0.0014930652616290687,-0.7521464619335763
11593,1.0,299.96064,35745.146,0.0,-0.11593019607343746,0.0,0.0,0.0,0.0,-2.3282924866345778,-5.325408667476915,-3.211930572267867,0.013523538016919287,-0.007162477505631493,-0.7622578569339933
11594,1.0,299.3491,35943.239,0.0,-0.11594019206085682,0.0,0.0,0.0,0.0,-2.3337250270457273,-5.335243982222585,-3.256878245378857,-0.00021580537028833183,-0.02141863790135498,-0.7434814713184084
11595,1.0,299.79639,35886.191,0.0,-0.11595018804827606,0.0,0.0,0.0,0.0,-2.3407887987928677,-5.315946228768045,-3.2517711608998265,0.005325032143739755,-0.022356202271885377,-0.7514536825752043
11596,1.0,300.23071,35685.635,0.0,-0.11596018403569541,0.0,0.0,0.0,0.0,-2.322058364069318,-5.3326866402951945,-3.192796762679507,-0.02028235796096288,0.0004954513737272435,-0.7593472453592383
11597,1.0,300.05246,35801.292,0.0,-0.11597018002311466,0.0,0.0,0.0,0.0,-2.3493888603416275,-5.3147855507784945,-3.2185244999436367,-0.006316304545095724,0.013542996471839685,-0.7636815442520003
11598,1.0,300.40237,36155.299,0.0,-0.11598017601053401,0.0,0.0,0.0,0.0,-2.3827232687564774,-5.354397246212866,-3.2531873805645968,-0.005612041719365395,0.0063340910360261135,-0.7517958267364713
11599,1.0,299.89175,35929.234,0.0,-0.11599017199795336,0.0,0.0,0.0,0.0,-2.3369026806843376,-5.3378819788579355,-3.246805323484737,-0.005700812965926434,0.01009251886032906,-0.7521847425223542
11600,1.0,300.18359,35560.681000000004,0.0,-0.1160001679853726,0.0,0.0,0.0,0.0,-2.2951198942606976,-5.2990929411797545,-3.215346238354967,0.008112052841522282,0.008887705013648191,-0.7416811893357343
11601,1.0,300.48287999999997,35848.007000000005,0.0,-0.11601016397279196,0.0,0.0,0.0,0.0,-2.3289372176732077,-5.349861634790235,-3.218100252126767,0.014800675933212987,0.007971963111846501,-0.7493614933712213
11602,1.0,299.89982000000003,36034.818999999996,0.0,-0.11602019295026877,0.0,0.0,0.0,0.0,-2.397016681292128,-5.323415908505245,-3.2332524954471764,0.004352452382878605,0.013701839637016287,-0.7358033255056343
11603,1.0,299.50084,36010.597,0.0,-0.11603018893768802,0.0,0.0,0.0,0.0,-2.3805108371631274,-5.349622913066675,-3.216188553163097,-0.00981278908137188,-0.003705000565080087,-0.7568705581398082
11604,1.0,300.08507000000003,35964.687000000005,0.0,-0.11604018492510737,0.0,0.0,0.0,0.0,-2.3630539564902677,-5.341646608279475,-3.227666143670847,-0.012571494302459888,0.005024723255251575,-0.7533917564389773
11605,1.0,298.9643,35794.986000000004,0.0,-0.11605018091252661,0.0,0.0,0.0,0.0,-2.341940154881498,-5.308754584858286,-3.230087102134777,-0.014182212390175385,-0.002233668707495938,-0.7561635020875273
11606,1.0,299.66708,35923.592000000004,0.0,-0.11606017689994597,0.0,0.0,0.0,0.0,-2.3379654787142274,-5.341939538883386,-3.239969836985127,-0.01172615190303109,-0.01886370649595288,-0.7615592311225443
11607,1.0,300.12705,36027.64,0.0,-0.11607017288736532,0.0,0.0,0.0,0.0,-2.3885979915112676,-5.317431856064665,-3.245473203578267,-0.0037285890274080867,-0.013613709169818487,-0.7461596129227203
11608,1.0,299.76956,35889.34,0.0,-0.11608016887478456,0.0,0.0,0.0,0.0,-2.3518440666589377,-5.3378484402796245,-3.2197706962416266,-0.004016888875711067,0.012448831258603988,-0.7580845634821213
11609,1.0,300.21213,35692.601,0.0,-0.11609016486220392,0.0,0.0,0.0,0.0,-2.3198603206273876,-5.329901418420315,-3.199897619380307,0.015985055869102184,0.00908759159665046,-0.7516928197313053
11610,1.0,299.94093,35833.028,0.0,-0.11610019383968073,0.0,0.0,0.0,0.0,-2.3333359390073274,-5.327449251853305,-3.231560570430197,0.006598644658960524,0.012445923230816988,-0.7636338505697933
11611,1.0,300.15976,36031.396,0.0,-0.11611018982709986,0.0,0.0,0.0,0.0,-2.3436960159797877,-5.360077627598475,-3.248871137788617,0.010205455007199991,0.014811169151248586,-0.7551981787172573
11612,1.0,300.62765,35932.226,0.0,-0.11612018581451933,0.0,0.0,0.0,0.0,-2.343434901429018,-5.341293389294615,-3.237771185593137,-0.0028837155601255673,0.0007408161979903663,-0.7578433694283173
11613,1.0,299.43998,35791.628,0.0,-0.11613018180193846,0.0,0.0,0.0,0.0,-2.346171385974088,-5.337096000755365,-3.1964937069943673,-0.005254721604725646,0.0026115553673654477,-0.7534974080269042
11614,1.0,298.99795,36005.693,0.0,-0.11614017778935803,0.0,0.0,0.0,0.0,-2.371363823210388,-5.354633536136186,-3.2188342504992074,-0.019453862870946782,-0.006057957484323854,-0.7612387705134173
11615,1.0,299.55408,36132.429,0.0,-0.11615017377677728,0.0,0.0,0.0,0.0,-2.375436885962368,-5.349022157082385,-3.2588972475281173,0.0034142266640079365,-0.015965523446924486,-0.7582514863035953
11616,1.0,299.4184,35905.04,0.0,-0.11616016976419652,0.0,0.0,0.0,0.0,-2.3381380352062577,-5.336113046833354,-3.2399844277865673,-0.015445131367815786,0.002265187169081568,-0.7527753153431394
11617,1.0,299.61078,35886.45,0.0,-0.11617016575161587,0.0,0.0,0.0,0.0,-2.331022081078968,-5.3287359781552945,-3.2488266561092267,-0.001100304090291559,-0.017901842361524284,-0.7461758249243203
11618,1.0,299.67753,35864.506,0.0,-0.11618019472909269,0.0,0.0,0.0,0.0,-2.351639187488718,-5.315747935723475,-3.234527366722997,-0.013328532968923789,-0.029689413432616975,-0.7445542599942843
11619,1.0,300.12166,35989.322,0.0,-0.11619019071651182,0.0,0.0,0.0,0.0,-2.373197603241368,-5.357321891301504,-3.2093355374367567,0.012051893571679288,-0.01158815939841229,-0.7553906253087503
11620,1.0,300.59354,36122.705,0.0,-0.11620018670393129,0.0,0.0,0.0,0.0,-2.3914815999708576,-5.338322742651435,-3.250595993433847,0.006804878747214243,0.0005584587201280844,-0.7486108472996382
11621,1.0,299.79445,36042.839,0.0,-0.11621018269135064,0.0,0.0,0.0,0.0,-2.3717484529483475,-5.346634433221736,-3.237739977490057,0.020636236571637982,-0.002011402773509998,-0.7424459499812103
11622,1.0,299.90351,35924.098,0.0,-0.11622017867876999,0.0,0.0,0.0,0.0,-2.335096562381088,-5.355512429272925,-3.229419775618917,-0.0040210206056438364,0.0006779025873562763,-0.7629759776773664
11623,1.0,299.96398999999997,35956.892,0.0,-0.11623017466618923,0.0,0.0,0.0,0.0,-2.3449798038564875,-5.338979531366254,-3.246038090509017,0.003747042439554296,0.01051272613977529,-0.7397545348005883
11624,1.0,300.04632999999995,36157.677,0.0,-0.11624017065360837,0.0,0.0,0.0,0.0,-2.3775604555219476,-5.3741616013384546,-3.239308893944897,0.0022130252565835877,0.021257847269486183,-0.7393996135555603
11625,1.0,299.68414,36063.668,0.0,-0.11625016664102783,0.0,0.0,0.0,0.0,-2.389320337507558,-5.3335311842535456,-3.239602837798907,-0.0024635411099825774,-0.011638493610379889,-0.7368426870607113
11626,1.0,298.75867,35854.98,0.0,-0.11626019561850454,0.0,0.0,0.0,0.0,-2.341256312389008,-5.345477504257555,-3.212284804502827,-0.014352180028199884,-0.026451537274313475,-0.7622104165643113
11627,1.0,299.05737,35848.722,0.0,-0.11627019160592378,0.0,0.0,0.0,0.0,-2.3256618867249577,-5.341950583309474,-3.229503875377217,0.0014770569232991687,-0.014972062121377487,-0.7585402727145963
11628,1.0,299.71671000000003,35998.596,0.0,-0.11628018759334313,0.0,0.0,0.0,0.0,-2.3460787749149477,-5.3214553708867545,-3.2751401532561673,0.000889707220684766,0.0036718022361536666,-0.7468447726403403
11629,1.0,299.88707,36032.137,0.0,-0.1162901835807626,0.0,0.0,0.0,0.0,-2.341500404338098,-5.361938765382154,-3.2494305531688266,-0.016269795359203785,0.003696063800523096,-0.7506729531081523
11630,1.0,300.54278,35988.12,0.0,-0.11630017956818195,0.0,0.0,0.0,0.0,-2.373183316414958,-5.3364759930191745,-3.229830445884447,-0.0050021401396727954,-0.003689054845606366,-0.7542370704674033
11631,1.0,300.0639,35889.076,0.0,-0.11631017555560108,0.0,0.0,0.0,0.0,-2.364678196400568,-5.338872836130725,-3.205831819915967,0.007176435431059034,0.00975334473775518,-0.7682588002537403
11632,1.0,299.63277999999997,35994.52,0.0,-0.11632017154302032,0.0,0.0,0.0,0.0,-2.374711905515818,-5.368429645522754,-3.198293745797017,0.024270903495601678,0.01015687777090579,-0.7511878665439703
11633,1.0,300.19717,36231.705,0.0,-0.11633016753043968,0.0,0.0,0.0,0.0,-2.3879279292201376,-5.361651205003775,-3.2639545814272366,0.008049360119409993,-0.0038374526181520863,-0.7598811268369283
11634,1.0,299.82149,36131.531,0.0,-0.1163401965079165,0.0,0.0,0.0,0.0,-2.3652295057799777,-5.380904375453915,-3.2369493384370265,-0.021403147333826183,-0.00977727071369149,-0.7434044136483032
11635,1.0,298.9891,35788.872,0.0,-0.11635019249533574,0.0,0.0,0.0,0.0,-2.310649573243358,-5.350482351801495,-3.217791514821297,-0.016807099595731585,0.005041055934938485,-0.7613547268548613
11636,1.0,299.93295,35819.123,0.0,-0.11636018848275509,0.0,0.0,0.0,0.0,-2.3599214938061177,-5.328619555718804,-3.199578040298767,-0.0013730045480049987,0.024978132813649773,-0.7263969195272943
11637,1.0,299.46963,36146.841,0.0,-0.11637018447017444,0.0,0.0,0.0,0.0,-2.3912745929754275,-5.372728764372045,-3.223733821357757,-0.013725536517104987,0.007967374912743682,-0.7588691736970563
11638,1.0,299.89327000000003,36170.129,0.0,-0.11638018045759391,0.0,0.0,0.0,0.0,-2.4015253402620975,-5.350047262208555,-3.2432436480582267,0.0032129037989889167,-0.02208425202454598,-0.7449223332256103
11639,1.0,299.69369,35835.116,0.0,-0.11639017644501304,0.0,0.0,0.0,0.0,-2.3286717461470077,-5.349614908390886,-3.2146938066155766,-0.0014013109054486187,-0.005537372381071105,-0.7557568240273913
11640,1.0,300.30467000000004,35797.318999999996,0.0,-0.11640017243243228,0.0,0.0,0.0,0.0,-2.3124270165687775,-5.346692087152425,-3.2223721145483673,0.02009000864147948,-0.008303451631086872,-0.7497618487507333
11641,1.0,300.17726,36211.66,0.0,-0.11641016841985163,0.0,0.0,0.0,0.0,-2.366105359166418,-5.359434923060045,-3.281900253948337,-0.003189037098183457,0.0009709639005291761,-0.7392516385109563
11642,1.0,300.70484,36375.025,0.0,-0.11642016440727099,0.0,0.0,0.0,0.0,-2.4005684268676575,-5.399862690124955,-3.256667995983107,-0.017554578247501985,0.0020796687764723276,-0.7632720696215883
11643,1.0,299.80582999999996,36062.288,0.0,-0.1164301933847477,0.0,0.0,0.0,0.0,-2.380137150526248,-5.359656014231866,-3.222241810585507,-0.0017099268235566383,0.014014438438617386,-0.7593188844889392
11644,1.0,299.60922999999997,35842.186,0.0,-0.11644018937216727,0.0,0.0,0.0,0.0,-2.3359197267623273,-5.352185929194625,-3.207023908658617,0.009752034402725861,0.01062739261384199,-0.7571910390139373
11645,1.0,299.527,35960.995,0.0,-0.1164501853595864,0.0,0.0,0.0,0.0,-2.3354419793401773,-5.375171102413085,-3.2206313508765674,0.01105902499744079,-0.013021687401390487,-0.7532839162308342
11646,1.0,299.76613,36182.509,0.0,-0.11646018134700575,0.0,0.0,0.0,0.0,-2.3677790456815977,-5.355374525934315,-3.275425687134347,0.0035281129354976367,-0.03158402899960097,-0.7519760535317583
11647,1.0,299.49377999999996,36145.32,0.0,-0.116470177334425,0.0,0.0,0.0,0.0,-2.3537641755984375,-5.380105427750065,-3.253405229336097,0.0050848150656821745,-0.0018744315236669882,-0.7433252686829923
11648,1.0,299.47878,35880.971,0.0,-0.11648017332184424,0.0,0.0,0.0,0.0,-2.3479875354533277,-5.346621666270474,-3.212310135755327,0.005955862100272824,-0.0045612266891330265,-0.7454242770601484
11649,1.0,300.05564,35985.519,0.0,-0.11649016930926359,0.0,0.0,0.0,0.0,-2.363177066377418,-5.344551596316174,-3.2309706562219764,-0.004337744449727046,-0.006082629414983785,-0.7506656273099294
11650,1.0,300.72234,36354.439,0.0,-0.11650016529668294,0.0,0.0,0.0,0.0,-2.410501418922968,-5.394075613503816,-3.246264653231377,-0.006278084346023683,-0.012231512416906289,-0.7572227132120632
11651,1.0,300.79675,36269.937999999995,0.0,-0.11651019427415976,0.0,0.0,0.0,0.0,-2.380091756921768,-5.360672304082165,-3.284391329319187,0.01123985771628759,0.017152100109030486,-0.7567442159848393
11652,1.0,300.67631,36067.357,0.0,-0.11652019026157912,0.0,0.0,0.0,0.0,-2.356080566652048,-5.374417649638725,-3.2330778111299368,-0.004263827246981986,0.007844802453446723,-0.7395030866557722
11653,1.0,300.58643,36118.824,0.0,-0.11653018624899836,0.0,0.0,0.0,0.0,-2.3549795690933877,-5.379510244641325,-3.244730693904987,-0.004686732608794496,-0.00022928069482574276,-0.7544336004567993
11654,1.0,299.69236,36313.64,0.0,-0.11654018223641771,0.0,0.0,0.0,0.0,-2.4252363045271874,-5.371463924272215,-3.241739478284777,-0.007348808727470953,0.01039468250312529,-0.7368913838605173
11655,1.0,299.40462,36343.926,0.0,-0.11655017822383695,0.0,0.0,0.0,0.0,-2.391159386439058,-5.398584272473785,-3.2579021346049073,0.004169385143586276,0.02886473322922737,-0.7668156484013122
11656,1.0,299.97021,36074.831,0.0,-0.11656017421125608,0.0,0.0,0.0,0.0,-2.363465336030868,-5.367255288656854,-3.235127210782197,0.0023213270001471377,-0.0064593019985834735,-0.7523364767248293
11657,1.0,299.9832,35899.752,0.0,-0.11657017019867566,0.0,0.0,0.0,0.0,-2.317160819710968,-5.357308415075175,-3.2381590577314174,-0.0014117417072780586,-0.01138069441393709,-0.7605153099420172
11658,1.0,300.28002999999995,35996.921,0.0,-0.1165801661860949,0.0,0.0,0.0,0.0,-2.3337965625027874,-5.378169613434015,-3.2301987622957973,0.006605859202322544,-0.026898286336154174,-0.7658076469368303
11659,1.0,300.62453999999997,36225.082,0.0,-0.11659019516357172,0.0,0.0,0.0,0.0,-2.3789461763587076,-5.361624961826186,-3.270949148192547,0.003898399409017066,0.0017779827797732384,-0.7496659952912733
11660,1.0,300.60442,36254.333,0.0,-0.11660019115099107,0.0,0.0,0.0,0.0,-2.395051280073158,-5.399772916166095,-3.225587866390737,-0.0026296736977035875,-0.004220992808279556,-0.7581204122706593
11661,1.0,300.10716,36033.815,0.0,-0.11661018713841032,0.0,0.0,0.0,0.0,-2.3479996944545274,-5.375733253568566,-3.229647047616347,0.003513308236961527,-0.01182663084919759,-0.7609999575973483
11662,1.0,300.96156,36255.393,0.0,-0.11662018312582967,0.0,0.0,0.0,0.0,-2.3894050452159177,-5.386347554991115,-3.244981473304737,-0.0024683008523273273,0.006738127147851374,-0.7648503485073523
11663,1.0,300.65772999999996,36443.057,0.0,-0.11663017911324891,0.0,0.0,0.0,0.0,-2.3883702128887876,-5.400562339319005,-3.288846792658907,-0.005211828701492445,0.01861441150759938,-0.7481494436016013
11664,1.0,300.35596,36390.135,0.0,-0.11664017510066826,0.0,0.0,0.0,0.0,-2.3922308984198075,-5.382745146910585,-3.2867164343236572,-0.01044658826599799,-0.015119043167633385,-0.7529318219535852
11665,1.0,300.53298,36166.538,0.0,-0.11665017108808762,0.0,0.0,0.0,0.0,-2.366668320921977,-5.370611172988054,-3.256445080961107,-0.018447330619109782,-0.0023862574851052777,-0.7451107774792083
11666,1.0,300.17443,36080.071,0.0,-0.11666016707550686,0.0,0.0,0.0,0.0,-2.388651592441558,-5.362271820690024,-3.2165171501705268,0.003190063013909707,-0.0058279145518453845,-0.7483331762422343
11667,1.0,299.50455,36067.377,0.0,-0.11667019605298368,0.0,0.0,0.0,0.0,-2.365391929771008,-5.351245126476775,-3.246945050673527,0.008686341415975152,0.014439379318555786,-0.7522594595847283
11668,1.0,300.37096,36168.573,0.0,-0.11668019204040303,0.0,0.0,0.0,0.0,-2.3824117956757376,-5.380514679465454,-3.231416587590987,0.004617123238849586,-0.002030008882446278,-0.7605283099408003
11669,1.0,300.17244,36206.305,0.0,-0.11669018802782227,0.0,0.0,0.0,0.0,-2.3508235211582176,-5.387713112150886,-3.267276015255037,0.014580049843188886,0.0018633774717010383,-0.7691018243369402
11670,1.0,300.38558,36253.825,0.0,-0.11670018401524163,0.0,0.0,0.0,0.0,-2.373646979660718,-5.393619954933845,-3.252990708720187,0.0036835688055899367,0.005491794669047935,-0.7543164180827343
11671,1.0,300.08187000000004,36389.275,0.0,-0.11671018000266076,0.0,0.0,0.0,0.0,-2.383677041075608,-5.416312805498454,-3.2614411132291767,-0.007702380829990803,0.008058624873024353,-0.7563443672303772
11672,1.0,299.90012,36437.343,0.0,-0.11672017599008022,0.0,0.0,0.0,0.0,-2.402110694844868,-5.394361552682035,-3.2795700826933674,-0.014137706392782987,-0.014986934606345287,-0.7380663689414793
11673,1.0,299.4746,36395.239,0.0,-0.11673017197749957,0.0,0.0,0.0,0.0,-2.371500915948918,-5.411000132574135,-3.280742717034097,-0.025916964760055273,-0.000997763686796609,-0.7536806340424873
11674,1.0,299.27259,36162.454,0.0,-0.11674016796491882,0.0,0.0,0.0,0.0,-2.3530058592235976,-5.371454805021315,-3.2680223752786968,0.00036633777708472366,0.0031400068377695468,-0.7600199826306323
11675,1.0,298.88454,36096.636,0.0,-0.11675019694239552,0.0,0.0,0.0,0.0,-2.3367048942648183,-5.373319286530324,-3.2624518302039265,-0.0018433823995276783,0.011459470556211689,-0.7497947692464823
11676,1.0,299.75586,36116.081,0.0,-0.11676019292981499,0.0,0.0,0.0,0.0,-2.3534028506127775,-5.374778771974365,-3.250205081545267,0.011147157491138789,-0.00965239037464176,-0.7756661752422912
11677,1.0,299.94656000000003,36179.013999999996,0.0,-0.11677018891723412,0.0,0.0,0.0,0.0,-2.3785735029719275,-5.370983846374835,-3.247959719323667,0.015800603820898186,-0.002377904352605888,-0.7448280097738013
11678,1.0,299.99888,36225.477,0.0,-0.11678018490465358,0.0,0.0,0.0,0.0,-2.3698220618582275,-5.394713961066815,-3.2471043335892467,0.03117852934933127,0.002284023792415598,-0.7821803196051872
11679,1.0,299.89359,36249.75,0.0,-0.11679018089207271,0.0,0.0,0.0,0.0,-2.367982404976668,-5.386274398333895,-3.264762040431927,0.012239214130916387,3.505902594630647e-05,-0.7382357438281952
11680,1.0,299.72597,36392.768,0.0,-0.11680017687949207,0.0,0.0,0.0,0.0,-2.3747918509487076,-5.396204350638905,-3.291496542995417,-0.008054193525037013,-0.014108481220148687,-0.7755413225649692
11681,1.0,300.20684,36586.36,0.0,-0.11681017286691153,0.0,0.0,0.0,0.0,-2.3961250212041274,-5.417977879387785,-3.3072370793238868,-0.025829566872679774,0.006199513690869365,-0.7498157840535563
11682,1.0,300.34927999999996,36524.656,0.0,-0.11682016885433066,0.0,0.0,0.0,0.0,-2.416188791734268,-5.410329158357915,-3.276065655897507,-0.005406732525802955,0.003822005721702596,-0.7546569815738453
11683,1.0,300.21435,36254.623999999996,0.0,-0.11683016484175013,0.0,0.0,0.0,0.0,-2.3809906110854775,-5.371774586752875,-3.267735220200357,-0.007685103598560673,0.01128741359648099,-0.7346292118197584
11684,1.0,300.36536,36133.777,0.0,-0.11684019381922683,0.0,0.0,0.0,0.0,-2.3710740336817877,-5.371409107441805,-3.241282806464707,0.0007303794179853363,-0.01146954124895559,-0.7584014371858943
11685,1.0,300.15222,36226.115,0.0,-0.11685018980664608,0.0,0.0,0.0,0.0,-2.3577209172389377,-5.371468281247645,-3.282645296746867,0.008658973125474112,0.009339531978365042,-0.7469794741086343
11686,1.0,299.40455,36358.201,0.0,-0.11686018579406543,0.0,0.0,0.0,0.0,-2.3720871824567777,-5.395048434924825,-3.284849419689397,0.009394655924880351,0.0026611877009887776,-0.7553536822101043
11687,1.0,299.59869,36362.303,0.0,-0.1168701817814849,0.0,0.0,0.0,0.0,-2.3579133334329274,-5.408597513937015,-3.286721297924137,0.0025905175595141773,0.008018552858069553,-0.7754491066733683
11688,1.0,299.10287999999997,36308.165,0.0,-0.11688017776890403,0.0,0.0,0.0,0.0,-2.4045630640618976,-5.386245216731015,-3.245967163002017,-0.01279768921503359,-0.004096647566607637,-0.7444312210346413
11689,1.0,299.50654,36476.735,0.0,-0.11689017375632349,0.0,0.0,0.0,0.0,-2.3964715527383276,-5.424620848368394,-3.2669241134953073,0.0027071536904502676,-0.004431478189977846,-0.7674067987746543
11690,1.0,300.18776,36528.003,0.0,-0.11690016974374262,0.0,0.0,0.0,0.0,-2.408613531336648,-5.418554621344705,-3.2764327564087368,-0.0001760785696426018,-0.011268404011354888,-0.7557424054784683
11691,1.0,299.97963,36353.204,0.0,-0.11691016573116197,0.0,0.0,0.0,0.0,-2.3613696308490377,-5.405182658449995,-3.283913784547057,0.0035517712107575273,0.0013260507410210187,-0.7718514000733022
11692,1.0,300.52367999999996,36302.969,0.0,-0.11692019470863879,0.0,0.0,0.0,0.0,-2.365975967128648,-5.403244918958754,-3.265975103451647,-0.005693093722689605,-0.005757204488316845,-0.7816992487227092
11693,1.0,300.27633,36127.87,0.0,-0.11693019069605803,0.0,0.0,0.0,0.0,-2.348937254772058,-5.369007603379795,-3.2640253062842173,-0.0002945352576958668,0.007936384557110173,-0.7775614392893393
11694,1.0,299.59095,36179.896,0.0,-0.11694018668347739,0.0,0.0,0.0,0.0,-2.3704658809717682,-5.401854334521515,-3.2254646551785764,-0.01036878991006989,0.010012374425119422,-0.7805333626276453
11695,1.0,300.19239,36345.935,0.0,-0.11695018267089674,0.0,0.0,0.0,0.0,-2.3766501516321075,-5.401748753861095,-3.2698576751848267,-0.003360343239590057,0.003025384946707247,-0.7665872415637702
11696,1.0,300.28533,36314.028,0.0,-0.11696017865831598,0.0,0.0,0.0,0.0,-2.378291718119118,-5.398257296666515,-3.2620088372602067,-0.004167052135231027,0.0024586540021002577,-0.7695679903104472
11697,1.0,299.79301,36284.199,0.0,-0.11697017464573534,0.0,0.0,0.0,0.0,-2.3734449375907776,-5.405395643621015,-3.250649898339167,0.021182058188506377,0.01107920387318229,-0.7450769349258684
11698,1.0,299.84288,36545.097,0.0,-0.11698017063315458,0.0,0.0,0.0,0.0,-2.3915561751782177,-5.404784755135725,-3.312456127938967,0.016860659996017584,0.0035340499731335764,-0.7492568347683922
11699,1.0,299.34816,36574.664,0.0,-0.11699016662057393,0.0,0.0,0.0,0.0,-2.415333912624898,-5.415083023852085,-3.287367548837917,0.023886961754459576,-0.0006470992067637194,-0.7420177910189543
11700,1.0,299.85819,36572.26,0.0,-0.11700019559805075,0.0,0.0,0.0,0.0,-2.4115655341779876,-5.421425969478085,-3.2840624283367266,0.01175548448017599,0.010044457267010752,-0.7491838908936932
11701,1.0,300.69506,36455.97,0.0,-0.11701019158546999,0.0,0.0,0.0,0.0,-2.4006633684020273,-5.3872138838266155,-3.293827423525457,0.0015721968520387485,0.0016138155932711984,-0.7347461206162963
11702,1.0,300.29964,36270.028,0.0,-0.11702018757288934,0.0,0.0,0.0,0.0,-2.367871048790678,-5.393066112429185,-3.264245789505977,-0.016949534188788785,-0.01050170704493779,-0.7594701829938713
11703,1.0,300.38409,36318.967000000004,0.0,-0.1170301835603087,0.0,0.0,0.0,0.0,-2.3669865827783876,-5.399133859328025,-3.2739385399625767,-0.018277131960062483,-0.014480632783127187,-0.7690221930115813
11704,1.0,300.14147,36332.067,0.0,-0.11704017954772794,0.0,0.0,0.0,0.0,-2.3576772461596276,-5.391196260694644,-3.295167446782707,-0.009416603428671401,0.003338431807502567,-0.7673455478061093
11705,1.0,299.98492999999996,36386.973,0.0,-0.1170501755351473,0.0,0.0,0.0,0.0,-2.3858511718151774,-5.416447061136704,-3.258432773682277,0.0023927734938483576,0.00949787652316743,-0.7646959798546172
11706,1.0,300.04292000000004,36365.717000000004,0.0,-0.11706017152256654,0.0,0.0,0.0,0.0,-2.3988619110492375,-5.392072316731104,-3.2633354856161367,-0.001145501833527229,0.008445405436971623,-0.7572879969160062
11707,1.0,299.74555,36401.344,0.0,-0.11707016750998589,0.0,0.0,0.0,0.0,-2.3781729652073977,-5.426005758605075,-3.260920809302827,0.014568727786571487,-0.003123293682670087,-0.7649398894186893
11708,1.0,299.40148999999997,36595.151,0.0,-0.1170801964874627,0.0,0.0,0.0,0.0,-2.4093703278363376,-5.439818586618295,-3.2748231072998766,0.02472307141897718,0.01927518634831278,-0.7571863274009724
11709,1.0,300.7691,36678.983,0.0,-0.11709019247488206,0.0,0.0,0.0,0.0,-2.399590133896108,-5.436826965698045,-3.313077655550307,0.005383763463261085,-0.015559094646313085,-0.7520222678688192
11710,1.0,299.95026,36484.414,0.0,-0.11710018846230141,0.0,0.0,0.0,0.0,-2.3856075864911377,-5.435683411635185,-3.2690599433810967,-0.000986337670718949,-0.033639347045695066,-0.7689297947349623
11711,1.0,300.10497999999995,36265.585,0.0,-0.11711018444972066,0.0,0.0,0.0,0.0,-2.3693930517658877,-5.390952878020625,-3.263486561206047,-0.027523784874636078,-0.024545660445718077,-0.7456106542835423
11712,1.0,300.31743,36289.196,0.0,-0.1171201804371399,0.0,0.0,0.0,0.0,-2.3790902605229274,-5.409682502144095,-3.2422366801088467,-0.015784275295536686,0.013012823489515688,-0.7815675160772083
11713,1.0,299.98932,36424.296,0.0,-0.11713017642455925,0.0,0.0,0.0,0.0,-2.384005739408048,-5.408721333099235,-3.279349396821587,-0.022924677121239478,0.013091735407303686,-0.7496292953726512
11714,1.0,300.10946,36516.909,0.0,-0.1171401724119785,0.0,0.0,0.0,0.0,-2.4243566007903676,-5.409762852877025,-3.2661092577648865,-0.012334060419776988,0.015551100103024088,-0.7819123960137453
11715,1.0,300.14833,36445.265,0.0,-0.11715016839939785,0.0,0.0,0.0,0.0,-2.3787427157386274,-5.425978806152415,-3.2737289998418966,0.004441604712802256,-0.004590040076926686,-0.7523516146813233
11716,1.0,299.84179,36474.03,0.0,-0.11716019737687466,0.0,0.0,0.0,0.0,-2.398758154238998,-5.414218417541755,-3.2742175890401173,0.016839101073639885,0.0033545310343664372,-0.7696108001271723
11717,1.0,300.06731,36727.535,0.0,-0.11717019336429402,0.0,0.0,0.0,0.0,-2.423385299244508,-5.431439920216385,-3.3094283339901467,0.0004420359593980526,-0.0042706995144602255,-0.7284683877667324
11718,1.0,299.68903,36766.919,0.0,-0.11718018935171337,0.0,0.0,0.0,0.0,-2.4342147136632875,-5.446226988200754,-3.295783604168517,-0.0058358935924078545,-0.021047861318762177,-0.7597757893565322
11719,1.0,299.3672,36448.748999999996,0.0,-0.11719018533913261,0.0,0.0,0.0,0.0,-2.3974459953594978,-5.399359712775315,-3.282703659952627,-0.0004932238345749024,-0.0006069080538621614,-0.7335728377955023
11720,1.0,299.63704,36289.88,0.0,-0.11720018132655174,0.0,0.0,0.0,0.0,-2.3749593411902374,-5.4126047154324946,-3.243653305073657,0.004585228253526795,0.012311433531793887,-0.7658643990749313
11721,1.0,299.7499,36406.102,0.0,-0.11721017731397121,0.0,0.0,0.0,0.0,-2.3496580808931977,-5.4215197964373445,-3.295368070302507,0.018629033719792482,0.004622211476876756,-0.7628024079352362
11722,1.0,300.40359,36455.896,0.0,-0.11722017330139034,0.0,0.0,0.0,0.0,-2.390165286765948,-5.418172524731995,-3.273344167453917,-0.009468275130771002,-0.008596964752479362,-0.7758943692973123
11723,1.0,300.1936,36478.141,0.0,-0.11723016928880992,0.0,0.0,0.0,0.0,-2.369523963678808,-5.441526217011824,-3.2773937228035765,0.006586004363963025,-0.015044400072516685,-0.7702961016998062
11724,1.0,299.65107,36430.091,0.0,-0.11724019826628651,0.0,0.0,0.0,0.0,-2.3952709526948377,-5.412484239995604,-3.2660829132622866,-0.0016131992332353686,0.0062728161547787546,-0.7607726552024153
11725,1.0,300.11732,36567.282,0.0,-0.11725019425370597,0.0,0.0,0.0,0.0,-2.397367873776788,-5.452201212115365,-3.265971759726317,-0.006121127447233244,0.0014972846376954886,-0.7683788298605863
11726,1.0,300.66887,36802.995,0.0,-0.11726019024112533,0.0,0.0,0.0,0.0,-2.4382150250580876,-5.450442209941765,-3.2985341728899766,-0.015083724308897685,-0.003509863490596557,-0.7492963312572902
11727,1.0,300.27299,36661.095,0.0,-0.11727018622854457,0.0,0.0,0.0,0.0,-2.4056340694175975,-5.434983559791115,-3.303439721924117,-0.011681578017881989,-0.005188523037267355,-0.7696856387795583
11728,1.0,300.06344,36342.254,0.0,-0.1172801822159637,0.0,0.0,0.0,0.0,-2.365080456690268,-5.4376182127011345,-3.244439181851217,-0.0013954246316426888,0.01006561210524857,-0.7428652430050914
11729,1.0,299.83214,36334.896,0.0,-0.11729017820338306,0.0,0.0,0.0,0.0,-2.3731801753396478,-5.404385737246345,-3.2673353917108967,0.011195640495173688,0.004806113228951445,-0.7701814119209872
11730,1.0,299.76243999999997,36550.791,0.0,-0.11730017419080252,0.0,0.0,0.0,0.0,-2.3909822703215777,-5.436594728775125,-3.282950791652017,0.01022090707122499,0.004839650692686335,-0.7527243792606123
11731,1.0,299.9162,36489.726,0.0,-0.11731017017822187,0.0,0.0,0.0,0.0,-2.4139621746395177,-5.416922174108595,-3.261081308118667,0.014459927017333686,-0.004746295806647925,-0.7646896774389953
11732,1.0,300.01122999999995,36462.376000000004,0.0,-0.11732016616564112,0.0,0.0,0.0,0.0,-2.376553994197618,-5.422537302187765,-3.2845605420858868,0.006833613000175093,0.007998905533330514,-0.7525361173920323
11733,1.0,299.64787,36443.471,0.0,-0.11733019514311782,0.0,0.0,0.0,0.0,-2.376995163291158,-5.433387285583575,-3.2675226403293767,0.01091757427023069,-0.0068733141655932944,-0.7758171495071912
11734,1.0,299.83941,36592.212,0.0,-0.11734019113053729,0.0,0.0,0.0,0.0,-2.3936659645364378,-5.432223061218674,-3.2972298160362468,-0.007321431013743983,-0.012528466636963387,-0.7555918162486063
11735,1.0,300.43507,36737.066,0.0,-0.11735018711795642,0.0,0.0,0.0,0.0,-2.4143571395284975,-5.449893737662635,-3.302900064920857,-0.005620897322589375,-0.008795703525768353,-0.7578463078536073
11736,1.0,299.84872,36619.922999999995,0.0,-0.11736018310537566,0.0,0.0,0.0,0.0,-2.4129692908665277,-5.435990933040535,-3.282581765965597,-0.003382463907823197,0.00086194137137449,-0.7498933280837093
11737,1.0,300.08164,36432.859,0.0,-0.11737017909279501,0.0,0.0,0.0,0.0,-2.3954747172899475,-5.419681152805886,-3.259523537414927,-0.008328686726152381,0.003162722993086457,-0.7578970412861142
11738,1.0,300.32092,36463.532999999996,0.0,-0.11738017508021448,0.0,0.0,0.0,0.0,-2.385147773595758,-5.436885632878836,-3.2619703337564068,0.014582164496147586,-0.0012867218436895588,-0.7736158839299432
11739,1.0,300.28032,36680.964,0.0,-0.11739017106763383,0.0,0.0,0.0,0.0,-2.405231910452908,-5.438561548544236,-3.3063037746567767,0.0009030197361961091,-0.008676099787939382,-0.7751676764580933
11740,1.0,300.36283,36618.046,0.0,-0.11740016705505296,0.0,0.0,0.0,0.0,-2.4072948876565077,-5.439153083952615,-3.284523862432267,0.01063380446047479,0.00980170260540273,-0.7762914012164962
11741,1.0,300.61872,36407.047999999995,0.0,-0.11741019603252978,0.0,0.0,0.0,0.0,-2.348912126169578,-5.450929279264836,-3.266992102577017,-0.029282470914204873,-0.014304282682722786,-0.7800997118498473
11742,1.0,300.38448999999997,36481.091,0.0,-0.11742019201994924,0.0,0.0,0.0,0.0,-2.4054084186203277,-5.423263903834474,-3.2606685100279265,-0.003705145763819416,0.000960472739391279,-0.7521347284974182
11743,1.0,300.18375,36739.016,0.0,-0.11743018800736837,0.0,0.0,0.0,0.0,-2.406437070121848,-5.4544833553155945,-3.3068228626830067,-0.015749646460119088,0.00024251000223887375,-0.7454006987303212
11744,1.0,300.16992,36833.04,0.0,-0.11744018399478762,0.0,0.0,0.0,0.0,-2.435434970758718,-5.456631344202585,-3.304258225354897,0.01852437613021358,0.017470100546914683,-0.7411339633542273
11745,1.0,300.2824,36823.94,0.0,-0.11745017998220719,0.0,0.0,0.0,0.0,-2.4133481450789183,-5.454106426278394,-3.326103796185887,-0.008706299808494892,0.012632800999760387,-0.7454229598350183
11746,1.0,299.34309,36664.201,0.0,-0.11746017596962632,0.0,0.0,0.0,0.0,-2.414208394413818,-5.452755763895095,-3.278037339267097,0.013747319367754786,0.01079180257506799,-0.7628183260943073
11747,1.0,299.35404,36613.393,0.0,-0.11747017195704579,0.0,0.0,0.0,0.0,-2.3861738919720277,-5.434483014241715,-3.308900329363037,0.004710120751577725,0.007582138744598832,-0.7563859104844772
11748,1.0,300.61122,36709.929,0.0,-0.11748016794446492,0.0,0.0,0.0,0.0,-2.4329290006113977,-5.456240229663985,-3.2697325387974767,-0.005129601632027266,0.00098387386190829,-0.7747929867036143
11749,1.0,300.31977,36590.382000000005,0.0,-0.11749019692194174,0.0,0.0,0.0,0.0,-2.3954648887639776,-5.437767971065915,-3.2893295050065467,-0.014342378859982586,-0.01965055700685898,-0.7731162807031362
11750,1.0,300.42906,36361.045,0.0,-0.11750019290936109,0.0,0.0,0.0,0.0,-2.367671235870958,-5.4243584165924945,-3.260820193567897,-0.012267600332467888,-0.018570103093976484,-0.7877622536110812
11751,1.0,300.65672,36399.554,0.0,-0.11751018889678033,0.0,0.0,0.0,0.0,-2.3550377296491276,-5.435856677402286,-3.273661213410207,0.001116038952419469,0.004303953673467155,-0.7667283771701993
11752,1.0,300.03097,36746.096,0.0,-0.11752018488419969,0.0,0.0,0.0,0.0,-2.407365916488518,-5.447084805735415,-3.315445013083947,0.008523167721196163,0.01055983517667459,-0.7694490144837053
11753,1.0,299.56531,36871.152,0.0,-0.11753018087161915,0.0,0.0,0.0,0.0,-2.4188805919499274,-5.4646684439957856,-3.3243604993888365,0.008687186567883561,0.007354288991961813,-0.7391686026652613
11754,1.0,300.01697,36708.858,0.0,-0.11754017685903828,0.0,0.0,0.0,0.0,-2.420479703257748,-5.4527152338910945,-3.2853811733418765,0.005368728959602295,-0.007475191919069002,-0.7577686928959473
11755,1.0,299.72486000000004,36689.584,0.0,-0.11755017284645763,0.0,0.0,0.0,0.0,-2.417815970069858,-5.448431415118315,-3.2864700118993366,0.010824117147257189,0.004305908840860116,-0.7432198602750892
11756,1.0,300.51399,36781.861000000004,0.0,-0.11756016883387688,0.0,0.0,0.0,0.0,-2.408595292834848,-5.457796277842554,-3.3143758315784266,0.011535187696434388,-0.004454583433333156,-0.7654451161835513
11757,1.0,300.16893,36790.655,0.0,-0.1175701978113537,0.0,0.0,0.0,0.0,-2.424683880572668,-5.452941695288445,-3.305814678833507,-0.00029619889277005473,-0.009324883725644372,-0.7650280725748922
11758,1.0,299.85149,36598.375,0.0,-0.11758019379877305,0.0,0.0,0.0,0.0,-2.3866403923180677,-5.432467355817785,-3.305884491765397,-0.013627069885637087,-0.009020128290417352,-0.7785097907204342
11759,1.0,299.93334,36359.897000000004,0.0,-0.11759018978619229,0.0,0.0,0.0,0.0,-2.3750820457773476,-5.424874262218404,-3.252544574701157,-0.003340723981878787,0.004157431730831566,-0.7779606699612402
11760,1.0,300.72676,36384.488,0.0,-0.11760018577361164,0.0,0.0,0.0,0.0,-2.377276441518918,-5.409619579312885,-3.2730796078528073,-0.011475545769048188,0.0044518006432585164,-0.7594574768376173
11761,1.0,300.44763,36899.192,0.0,-0.117610181761031,0.0,0.0,0.0,0.0,-2.4378524841723075,-5.457055895994485,-3.3215247163339674,-0.0068427926407810535,0.008963613455489771,-0.7700453324325572
11762,1.0,300.09199,37059.812000000005,0.0,-0.11762017774845024,0.0,0.0,0.0,0.0,-2.426142251441598,-5.4810555352130645,-3.358059475189667,-0.009250601246238261,-0.0016121187033287286,-0.7519196256336893
11763,1.0,299.77008,36782.153,0.0,-0.11763017373586959,0.0,0.0,0.0,0.0,-2.4074923701009974,-5.459378569198715,-3.313985122339867,-0.014551494428870685,0.014499076974697487,-0.7634034273645522
11764,1.0,301.03396000000004,36822.784,0.0,-0.11764016972328883,0.0,0.0,0.0,0.0,-2.388198669646858,-5.488363601559315,-3.3166444985523267,0.0008171017208566611,-0.0057516941302980145,-0.7459401632160624
11765,1.0,300.85757,36888.034,0.0,-0.11765019870076565,0.0,0.0,0.0,0.0,-2.4362609722402375,-5.4599432534794445,-3.316836914746317,-0.004887695364727975,-0.01027788111109789,-0.7599010574663954
11766,1.0,300.33497,36885.501000000004,0.0,-0.117660194688185,0.0,0.0,0.0,0.0,-2.4324704036161373,-5.474244569365874,-3.305556401383017,-0.0023319781838733278,-0.012905843530707587,-0.7538310510198323
11767,1.0,299.82556,36587.971,0.0,-0.11767019067560414,0.0,0.0,0.0,0.0,-2.3886936423207077,-5.451360011882345,-3.281775826836057,-0.002129744407014408,-0.012334002664521289,-0.7856865905162294
11768,1.0,299.75543999999996,36362.953,0.0,-0.1176801866630236,0.0,0.0,0.0,0.0,-2.3505152904777975,-5.435233731240805,-3.2676807073449767,0.012177557862331387,0.003404424381215527,-0.7657689610480123
11769,1.0,299.9061,36469.137,0.0,-0.11769018265044295,0.0,0.0,0.0,0.0,-2.375470323215668,-5.428689148844904,-3.2815473389385073,-0.0001912031512352818,0.003992762174929947,-0.7920530739420522
11770,1.0,300.01783,36930.507000000005,0.0,-0.1177001786378622,0.0,0.0,0.0,0.0,-2.416752057464858,-5.476450921458625,-3.3327490956417263,0.013560543937071488,-0.007587853475162833,-0.7750339173123922
11771,1.0,299.53812999999997,36911.613,0.0,-0.11771017462528155,0.0,0.0,0.0,0.0,-2.440763551709608,-5.4502193962447745,-3.3292256197439865,-0.020656844052171778,0.015121608716886586,-0.7660712844803492
11772,1.0,299.77814,36718.742999999995,0.0,-0.11772017061270079,0.0,0.0,0.0,0.0,-2.3994524332075176,-5.461597586917716,-3.300531187512067,-0.003767931806265916,0.00932601116903064,-0.7578473413687092
11773,1.0,299.92766,36766.644,0.0,-0.11773016660012015,0.0,0.0,0.0,0.0,-2.397452480160138,-5.466862029137275,-3.3118271022768866,-0.02323955573556558,0.0021639486906401078,-0.7571052876579742
11774,1.0,300.23612,36996.597,0.0,-0.11774019557759696,0.0,0.0,0.0,0.0,-2.430451705441908,-5.4763112955948445,-3.339278580611137,-0.014652186157558186,0.001111837612204829,-0.7662798721459353
11775,1.0,300.32422,36962.456,0.0,-0.1177501915650161,0.0,0.0,0.0,0.0,-2.4307102868674275,-5.491002307469735,-3.313950975811497,0.004240678129897346,0.005112807518244816,-0.7557246938667203
11776,1.0,300.22937,36649.596,0.0,-0.11776018755243556,0.0,0.0,0.0,0.0,-2.3786422013287076,-5.453160455985035,-3.3087593862741267,0.008351397105943723,0.0019370596004228981,-0.7683666708593863
11777,1.0,300.53459,36649.251000000004,0.0,-0.11777018353985491,0.0,0.0,0.0,0.0,-2.4020967119934875,-5.458716916883415,-3.279643442000607,0.012188566824667887,-0.007466349792071353,-0.7505036187514403
11778,1.0,300.78548,36905.812999999995,0.0,-0.11778017952727404,0.0,0.0,0.0,0.0,-2.4332743162454777,-5.461473869080505,-3.3236973271983867,0.024030425809618377,-0.016178422491685985,-0.7649281661150323
11779,1.0,300.30347,37048.551,0.0,-0.11779017551469351,0.0,0.0,0.0,0.0,-2.4376743548047273,-5.474161280207654,-3.3499986653441267,0.016780189699575784,-0.0017615756262039785,-0.7642426112298732
11780,1.0,299.75242000000003,36865.475,0.0,-0.11780017150211264,0.0,0.0,0.0,0.0,-2.4195686900928375,-5.464167594471355,-3.322447685850057,0.01074121505057539,-0.02262587979925048,-0.7816986306401482
11781,1.0,299.79011,36747.123999999996,0.0,-0.1178101674895321,0.0,0.0,0.0,0.0,-2.4072537497024475,-5.4402464821355245,-3.3227079898007466,-0.006928678455032322,-0.0011932546895400689,-0.7623974827977733
11782,1.0,300.02038999999996,36818.414,0.0,-0.11782019646700881,0.0,0.0,0.0,0.0,-2.4049120273963376,-5.473457274038175,-3.313509198767897,-0.01046093386091379,0.00014766707736860586,-0.7726758411496683
11783,1.0,300.04995,36962.322,0.0,-0.11783019245442827,0.0,0.0,0.0,0.0,-2.4456339409652776,-5.4707218027432045,-3.319267296436177,-0.0047041578760642355,0.02158878792439748,-0.7500845993050863
11784,1.0,299.9036,36954.345,0.0,-0.1178401884418474,0.0,0.0,0.0,0.0,-2.4143782151305775,-5.485696220671065,-3.3331236942036973,-0.012251435953622589,0.019939590650884378,-0.7712898973978862
11785,1.0,299.33927,36742.914,0.0,-0.11785018442926687,0.0,0.0,0.0,0.0,-2.3914706568697777,-5.488373835385325,-3.289083893182307,-0.01002742007452931,0.00017723922736714986,-0.7675744916662043
11786,1.0,300.00118,36713.437999999995,0.0,-0.117860180416686,0.0,0.0,0.0,0.0,-2.3941822154623873,-5.462764243082854,-3.303021958907887,-0.008332266133455642,-0.015714555582655883,-0.7853763637331123
11787,1.0,300.35528,36943.607,0.0,-0.11787017640410546,0.0,0.0,0.0,0.0,-2.4219887366316777,-5.487872884535886,-3.3200725262906468,0.002160482767348048,-0.007653932175134293,-0.7591961191068233
11788,1.0,300.72811,36879.789,0.0,-0.11788017239152482,0.0,0.0,0.0,0.0,-2.4068565556632477,-5.473040220297015,-3.330638090383387,0.005618778008680214,-0.004720077048385335,-0.7826843912649353
11789,1.0,300.43332999999996,36773.657999999996,0.0,-0.11789016837894395,0.0,0.0,0.0,0.0,-2.424947224273658,-5.463905973295535,-3.2894205961905367,-0.0017479696025361684,0.006800818856713562,-0.7536093012354472
11790,1.0,300.40323,36842.54,0.0,-0.11790019735642077,0.0,0.0,0.0,0.0,-2.399324763694918,-5.469904211237515,-3.329983226843757,0.008254506990306413,-0.009187971041657143,-0.7698101976143512
11791,1.0,300.05568999999997,36908.705,0.0,-0.11791019334384023,0.0,0.0,0.0,0.0,-2.4370847445715373,-5.469047204302935,-3.313192760761667,0.013675198252136986,-0.00012905695596192987,-0.7530822490634314
11792,1.0,300.33081,36936.589,0.0,-0.11792018933125936,0.0,0.0,0.0,0.0,-2.417190186808098,-5.472992293567286,-3.3376181676722667,0.00935642468138222,0.011137545800690188,-0.7760631666314713
11793,1.0,299.43608,36926.703,0.0,-0.11793018531867872,0.0,0.0,0.0,0.0,-2.418589687846218,-5.484949657997385,-3.3212563063824767,0.012700284469670487,-0.007797210805524793,-0.7619670541552933
11794,1.0,299.22721,36877.787000000004,0.0,-0.11794018130609796,0.0,0.0,0.0,0.0,-2.4177747307907875,-5.464701475949044,-3.327450101593757,-0.012209507664484589,0.005780646839980425,-0.7535658936011632
11795,1.0,299.68584,36907.687999999995,0.0,-0.11795017729351731,0.0,0.0,0.0,0.0,-2.4395001301599177,-5.485749517626325,-3.293765919244387,-0.02034095725399618,0.016298601046296685,-0.7605238212428572
11796,1.0,299.9692,36930.656,0.0,-0.11796017328093678,0.0,0.0,0.0,0.0,-2.411389937935658,-5.4815031891072445,-3.3331042398017767,-0.01106147706268279,0.009634822137782911,-0.7563685433777633
11797,1.0,299.98591,36910.951,0.0,-0.1179701692683559,0.0,0.0,0.0,0.0,-2.428606779659827,-5.487644700613365,-3.303755957280327,-0.013107177338827686,0.005156285269435735,-0.7865101601975093
11798,1.0,300.09875,36837.14,0.0,-0.11798019824583295,0.0,0.0,0.0,0.0,-2.401106260020738,-5.492268566119704,-3.304195809148737,0.003579318846526267,-0.016641184958107087,-0.7669889850959193
11799,1.0,299.95187999999996,36798.851,0.0,-0.11799019423325208,0.0,0.0,0.0,0.0,-2.402231676906808,-5.482646641845095,-3.301053517938617,0.017752183295254083,-0.01014570060905269,-0.7995473148616762
11800,1.0,299.95512,36895.945,0.0,-0.11800019022067132,0.0,0.0,0.0,0.0,-2.4281659145413177,-5.485538862930535,-3.301741312106497,0.010836644971493592,0.01133157914183979,-0.7512098236736373
11801,1.0,300.10363,36878.199,0.0,-0.11801018620809067,0.0,0.0,0.0,0.0,-2.4220669595393978,-5.483672760221365,-3.304311927610197,0.017063597779045984,0.0057365839368567545,-0.7855892475791223
11802,1.0,299.33794,36901.466,0.0,-0.11802018219550992,0.0,0.0,0.0,0.0,-2.4077604760774576,-5.497533008339265,-3.3118307499772466,0.00021432873052009877,0.004174770770517796,-0.7417554504355633
11803,1.0,299.29861,36929.277,0.0,-0.11803017818292927,0.0,0.0,0.0,0.0,-2.420792392238608,-5.492476991665274,-3.3123088013744266,-0.01165072556558709,-0.003055573922836667,-0.7832282329911082
11804,1.0,300.29531000000003,37064.407,0.0,-0.11804017417034862,0.0,0.0,0.0,0.0,-2.4210443875384775,-5.506141986488904,-3.3394677544048066,-0.007196034221118283,-0.007598258236464702,-0.7635337211949114
11805,1.0,300.20902,36931.511,0.0,-0.11805017015776786,0.0,0.0,0.0,0.0,-2.412629244132968,-5.492244754742354,-3.321382962644977,-0.01081726960308139,-0.016312708527438984,-0.7888492176558562
11806,1.0,299.70676000000003,36957.922,0.0,-0.11806019913524479,0.0,0.0,0.0,0.0,-2.421138923772808,-5.495182774732315,-3.317963851507537,-0.016903050327201186,-0.01025714494780139,-0.7493555151956313
11807,1.0,300.18221,36952.234,0.0,-0.11807019512266403,0.0,0.0,0.0,0.0,-2.4398048144649875,-5.479994662358365,-3.312756860568647,-0.01818795784526168,-0.0039579517650944265,-0.7748922142859073
11808,1.0,299.86397,36797.851,0.0,-0.11808019111008328,0.0,0.0,0.0,0.0,-2.4045517156607774,-5.473360711303645,-3.3077153333710867,-0.013337774823085888,0.003330895962533837,-0.7592810193327023
11809,1.0,299.91503,36836.657999999996,0.0,-0.11809018709750263,0.0,0.0,0.0,0.0,-2.4313028355259076,-5.486556571330975,-3.2795649151178567,-0.009186194003631762,-0.01828117685446168,-0.7771465235058903
11810,1.0,299.66247999999996,36955.296,0.0,-0.11810018308492187,0.0,0.0,0.0,0.0,-2.415825034948368,-5.4785438908651845,-3.3391182844453167,-0.005960501063205654,-0.011755158213643788,-0.7568039774757372
11811,1.0,299.36329,36938.757000000005,0.0,-0.11811017907234145,0.0,0.0,0.0,0.0,-2.4210775208167474,-5.506052820480105,-3.301329324615837,0.012863458265774487,-0.02824906422996557,-0.7729171669259853
11812,1.0,299.28691000000003,36996.794,0.0,-0.11812017505976058,0.0,0.0,0.0,0.0,-2.4291964912180277,-5.493449306461235,-3.3234556670495365,-0.004193217393888336,0.004587516780202655,-0.7505842227968953
11813,1.0,299.95634,37144.216,0.0,-0.11813017104717982,0.0,0.0,0.0,0.0,-2.4510403395238476,-5.503016819205475,-3.336856912872137,0.007322271099401894,0.0030631240546318073,-0.7463249854715412
11814,1.0,299.61437,36975.003,0.0,-0.11814016703459918,0.0,0.0,0.0,0.0,-2.4156423459553378,-5.491168885786174,-3.332666313108557,0.004533368796183666,0.011306029027318188,-0.7560101568173934
11815,1.0,300.64027000000004,37011.877,0.0,-0.11815019601207599,0.0,0.0,0.0,0.0,-2.4287562340495774,-5.505546904705175,-3.3163831813515365,0.004307579994250046,0.01837226094570098,-0.7637162582004263
11816,1.0,300.52942,37076.559,0.0,-0.11816019199949512,0.0,0.0,0.0,0.0,-2.4199944577848576,-5.498374512547315,-3.3519791639895873,-0.007338104753414554,0.0024490378533512176,-0.7764179358889843
11817,1.0,300.18636000000004,36971.887,0.0,-0.11817018798691459,0.0,0.0,0.0,0.0,-2.4155100154922775,-5.500585221615495,-3.322435222873827,-0.004139503283562166,-0.021641315822831582,-0.7653894887530612
11818,1.0,299.82812,36884.092000000004,0.0,-0.11818018397433394,0.0,0.0,0.0,0.0,-2.4149957910665276,-5.485202463897335,-3.3116447172588868,-0.016844861400458384,-0.0063169540384098236,-0.7651668371760872
11819,1.0,300.35249,36952.547999999995,0.0,-0.1181901799617533,0.0,0.0,0.0,0.0,-2.4309112143622578,-5.496976024759295,-3.3047646477548764,0.01232378403726279,-0.012320419033680688,-0.7660226383430483
11820,1.0,299.90822000000003,36928.977,0.0,-0.11820017594917254,0.0,0.0,0.0,0.0,-2.4359854695380476,-5.499577848366075,-3.2899234722151673,0.0025527481554116277,0.005053997671840735,-0.7698844080516752
11821,1.0,300.28808,36986.531,0.0,-0.11821017193659178,0.0,0.0,0.0,0.0,-2.437009460089108,-5.496646515826774,-3.309325995730047,0.013173286841602188,-0.005663270023221235,-0.7595895539881523
11822,1.0,299.15609,37100.422,0.0,-0.11822016792401113,0.0,0.0,0.0,0.0,-2.424445665474158,-5.523158711318325,-3.329997513670167,0.007794831390314962,0.010248394519937792,-0.7717887204221162
11823,1.0,299.59756,37111.012,0.0,-0.11823019690148795,0.0,0.0,0.0,0.0,-2.4412679476093877,-5.5061859615432445,-3.3333671782027268,0.009734533648323673,0.014095329233850687,-0.7474481529423893
11824,1.0,300.05274,37013.941,0.0,-0.11824019288890708,0.0,0.0,0.0,0.0,-2.4132537101695974,-5.503627910340786,-3.3344321040578264,0.006643215200384295,0.01999105970296398,-0.7668139765386472
11825,1.0,300.00067,37007.811,0.0,-0.11825018887632655,0.0,0.0,0.0,0.0,-2.428841955008038,-5.502715782600765,-3.317892822675527,-0.009949328787997301,0.002894189222434237,-0.7572678737690203
11826,1.0,299.62637,37052.034,0.0,-0.1182601848637459,0.0,0.0,0.0,0.0,-2.443508040930468,-5.493046438221475,-3.326338667559067,-0.02310629409566368,0.015143450336042185,-0.7744607217308223
11827,1.0,300.13285,37030.459,0.0,-0.11827018085116525,0.0,0.0,0.0,0.0,-2.4225987131918774,-5.521914440195525,-3.311821732051357,-0.0047029476501447955,0.01089445696919919,-0.7978050921097322
11828,1.0,299.6258,36921.144,0.0,-0.1182801768385845,0.0,0.0,0.0,0.0,-2.401708029255128,-5.504461612523065,-3.316936213256117,-0.006606169358178154,0.015672460107251384,-0.7914606975360893
11829,1.0,300.47997999999995,37029.775,0.0,-0.11829017282600363,0.0,0.0,0.0,0.0,-2.424303405160118,-5.510143716433845,-3.3216799462492865,0.016115015326928186,-0.010884538263970291,-0.7666520591726673
11830,1.0,300.08961,37052.995,0.0,-0.11830016881342309,0.0,0.0,0.0,0.0,-2.4311347373343177,-5.515260832088865,-3.316789595966647,-0.0004258578206163945,-0.005657080686310395,-0.7618870681923993
11831,1.0,299.81619,37039.123999999996,0.0,-0.1183101977908998,0.0,0.0,0.0,0.0,-2.4371979246077076,-5.503278035081254,-3.3184927680597367,0.014038069457449587,-0.018825594106691483,-0.7603376162719803
11832,1.0,300.16441000000003,37120.43,0.0,-0.11832019377831904,0.0,0.0,0.0,0.0,-2.447237307923518,-5.523288204681104,-3.313158208933257,0.008794759278000162,-0.022711239027424775,-0.7639025037013073
11833,1.0,300.69914,37034.907,0.0,-0.11833018976573839,0.0,0.0,0.0,0.0,-2.4179126341293977,-5.514057901570145,-3.325716430672657,-0.0045062765150098655,-0.015475539003316786,-0.7806328637874653
11834,1.0,299.7738,37071.015,0.0,-0.11834018575315786,0.0,0.0,0.0,0.0,-2.4209060788998276,-5.520497612580694,-3.3272590026248965,-0.003085884691628107,-0.006437701330301655,-0.7702078374835952
11835,1.0,300.0542,37144.676,0.0,-0.11835018174057721,0.0,0.0,0.0,0.0,-2.435877153102358,-5.522966092474315,-3.332210755863597,0.003435959865402837,0.0080087157194737,-0.7847888610601302
11836,1.0,299.21628,37005.328,0.0,-0.11836017772799645,0.0,0.0,0.0,0.0,-2.4080180442528776,-5.498960576405154,-3.3417170683017967,-0.006101136124085254,0.010229061708029792,-0.7525787549562403
11837,1.0,299.26187000000004,36953.225,0.0,-0.11837017371541558,0.0,0.0,0.0,0.0,-2.422647146546658,-5.501613974442025,-3.308596455658047,0.014110019333800487,-0.016238244777589984,-0.7741375456114272
11838,1.0,299.62183,37176.166,0.0,-0.11838016970283494,0.0,0.0,0.0,0.0,-2.4406071058941676,-5.509356927731195,-3.3506622428346167,-0.002039295420937788,0.0006149333695566984,-0.7581596554470323
11839,1.0,300.2846,37210.789,0.0,-0.11839019868031175,0.0,0.0,0.0,0.0,-2.463699987598258,-5.504673280468954,-3.3427774345314467,0.005367705982301334,-0.01127797010554899,-0.7769475718487553
11840,1.0,299.97238,37060.544,0.0,-0.118400194667731,0.0,0.0,0.0,0.0,-2.415635354529648,-5.512051362397115,-3.3377933586145567,-0.008610894813529153,-0.005026953722696705,-0.7591409679038803
11841,1.0,300.86664,37113.887,0.0,-0.11841019065515057,0.0,0.0,0.0,0.0,-2.448665281289448,-5.503822353034975,-3.329207178592167,-0.01125659559468949,0.013306049962454885,-0.7615330690049622
11842,1.0,300.53316,37200.181000000004,0.0,-0.1184201866425697,0.0,0.0,0.0,0.0,-2.4309643086674977,-5.521748469829145,-3.3552133569837763,0.0011025265530608989,0.013733025448594088,-0.7552143907188573
11843,1.0,300.10146000000003,37224.935,0.0,-0.11843018262998917,0.0,0.0,0.0,0.0,-2.4666089273103475,-5.526036544252345,-3.3228053631353567,-0.003850718291111306,0.006370255553295274,-0.7594311526000193
11844,1.0,300.54632999999995,37210.415,0.0,-0.1184401786174083,0.0,0.0,0.0,0.0,-2.4268454470109977,-5.528373504282985,-3.3558180646434566,-0.0026846808164823674,0.009141010952522543,-0.7777496606279152
11845,1.0,300.10082,37165.771,0.0,-0.11845017460482754,0.0,0.0,0.0,0.0,-2.4198499683205976,-5.549254055718735,-3.3283622293337767,0.014772008048133684,-0.007962649215602293,-0.7824011574644822
11846,1.0,299.65162999999995,37088.295,0.0,-0.1184601705922469,0.0,0.0,0.0,0.0,-2.4033379433659876,-5.519726731904615,-3.3508507073532168,0.022523995475195277,0.018732370031240984,-0.7832593296366773
11847,1.0,299.61107999999996,37191.138,0.0,-0.11847019956972371,0.0,0.0,0.0,0.0,-2.4384822191094577,-5.524994619174516,-3.341700552325167,0.014904131808173286,2.960970206050007e-05,-0.7588668432218263
11848,1.0,298.86825,37166.771,0.0,-0.11848019555714306,0.0,0.0,0.0,0.0,-2.4273572396365077,-5.514299561718995,-3.3561137310226363,0.013674818283349486,-0.010090746584579152,-0.7606084782887123
11849,1.0,299.4618,37031.093,0.0,-0.11849019154456253,0.0,0.0,0.0,0.0,-2.434571580348508,-5.493190319735675,-3.328765705523597,-0.0054133136865274645,-0.015552215691384184,-0.7396091030137353
11850,1.0,300.26457999999997,37035.237,0.0,-0.11850018753198166,0.0,0.0,0.0,0.0,-2.4052870312583474,-5.5191679244744645,-3.3333322210742766,0.0002804667461524127,-0.01077486812614669,-0.7820341988082662
11851,1.0,300.0076,37290.072,0.0,-0.11851018351940112,0.0,0.0,0.0,0.0,-2.4589502764294977,-5.515693996506615,-3.3606063806410265,-0.014941756824136586,-0.014224968504645087,-0.7679063918689603
11852,1.0,300.18564,37356.436,0.0,-0.11852017950682026,0.0,0.0,0.0,0.0,-2.4603276886154375,-5.530954758912735,-3.364141204939887,-0.008192075180094871,0.005042510354132026,-0.7840590778081062
11853,1.0,299.99102999999997,37177.998,0.0,-0.1185301754942395,0.0,0.0,0.0,0.0,-2.424215556376448,-5.529818196275564,-3.347149304737917,-0.011521810768614188,0.01852441362046728,-0.7808178933882263
11854,1.0,299.89546,37161.138999999996,0.0,-0.11854017148165907,0.0,0.0,0.0,0.0,-2.4351244096030675,-5.517848571519255,-3.3430852599118266,-0.016502956366214985,0.023592762561424376,-0.7820485160321793
11855,1.0,300.00417000000004,37259.689,0.0,-0.1185501674690782,0.0,0.0,0.0,0.0,-2.4531040260025176,-5.5276857101151045,-3.3452253454480365,-0.014400612369729787,0.004757758806354236,-0.7692401127105882
11856,1.0,299.77621,37159.825,0.0,-0.11856019644655502,0.0,0.0,0.0,0.0,-2.428464316695768,-5.523849545236504,-3.343345057237467,-0.007734612416996813,-0.002414685533885908,-0.7789972248135402
11857,1.0,299.69735,37165.193,0.0,-0.11857019243397438,0.0,0.0,0.0,0.0,-2.4229545666269976,-5.517687870053394,-3.356648119125377,0.01118698125981909,-0.008085513592253062,-0.7628307890705373
11858,1.0,299.8724,37221.347,0.0,-0.11858018842139362,0.0,0.0,0.0,0.0,-2.4363611826751277,-5.5344255458052745,-3.343573545135017,0.02550336012223568,-0.005651982923732285,-0.7734994310959502
11859,1.0,299.53359,37233.758,0.0,-0.11859018440881297,0.0,0.0,0.0,0.0,-2.4285263276018876,-5.531081719150265,-3.358524759635587,0.004787317338271435,-0.008153433266331212,-0.7657967544982552
11860,1.0,300.1136,37354.363,0.0,-0.11860018039623221,0.0,0.0,0.0,0.0,-2.452263535044568,-5.5488157237254745,-3.3537143547858372,0.007291637306478573,-0.01127466691022299,-0.7866005319739282
11861,1.0,299.87855,37411.227999999996,0.0,-0.11861017638365157,0.0,0.0,0.0,0.0,-2.4607596371330676,-5.548143026984086,-3.363176489519677,-0.011774597416812289,0.0038278732503816766,-0.7784557439601003
11862,1.0,299.36709,37201.324,0.0,-0.11862017237107092,0.0,0.0,0.0,0.0,-2.4269880113000677,-5.543377610438775,-3.337908159850887,-0.008592392056103073,-0.006728592464410373,-0.7960842489348982
11863,1.0,300.03004,37095.652,0.0,-0.11863016835849016,0.0,0.0,0.0,0.0,-2.4281817212428773,-5.522754525853435,-3.3252157837982463,-0.006307026315255034,-0.021347454042079682,-0.7810521568113462
11864,1.0,300.39265,37152.984,0.0,-0.11864019733596698,0.0,0.0,0.0,0.0,-2.4162057130109376,-5.520955398975874,-3.3564182126776867,-0.014725158403259985,-0.010605129482644792,-0.7946093316918352
11865,1.0,299.77988999999997,37155.404,0.0,-0.11865019332338633,0.0,0.0,0.0,0.0,-2.4387787974137276,-5.507851643382635,-3.347684706090757,-0.0015351711735095987,0.01307291732644649,-0.7767038041396972
11866,1.0,300.11713,37223.068999999996,0.0,-0.11866018931080557,0.0,0.0,0.0,0.0,-2.4304493749666776,-5.525965211445304,-3.3584688282300674,-0.01219709433750949,0.012070209080486888,-0.7853610433916003
11867,1.0,299.81882,37312.547999999995,0.0,-0.11867018529822493,0.0,0.0,0.0,0.0,-2.4752534705384974,-5.519357300918155,-3.347472126219776,-0.013749681253737886,0.028381713866807073,-0.7623656667446332
11868,1.0,299.8121,37395.376000000004,0.0,-0.11868018128564417,0.0,0.0,0.0,0.0,-2.4419569576773874,-5.549948436012264,-3.375355147771617,0.0014547988583524685,0.0001982882721620288,-0.7679088743317053
11869,1.0,299.79972999999995,37479.39,0.0,-0.11869017727306352,0.0,0.0,0.0,0.0,-2.4847951454051875,-5.553366331249585,-3.3546372229769172,0.010628533533454592,0.018664880481830282,-0.7635822356096993
11870,1.0,299.96473,37512.321,0.0,-0.11870017326048288,0.0,0.0,0.0,0.0,-2.4380274724645776,-5.567367319806374,-3.397414210398676,0.011161526390806888,-0.006490750647237214,-0.7698454688503322
11871,1.0,300.17206,37397.611000000004,0.0,-0.11871016924790212,0.0,0.0,0.0,0.0,-2.4586862234534372,-5.557434429076075,-3.3518191717987964,0.020599564010768682,-0.00960945765067963,-0.7710838529900512
11872,1.0,300.37212,37191.872,0.0,-0.11872019822537894,0.0,0.0,0.0,0.0,-2.4146327435556976,-5.5387832305103455,-3.351984331565097,-0.004508902960594076,0.008468797632755253,-0.7709164539410303
11873,1.0,300.1574,37169.449,0.0,-0.11873019421279829,0.0,0.0,0.0,0.0,-2.446157081991908,-5.522284377807035,-3.330143016384527,-0.01100429733303959,0.014204346838609886,-0.7655176446257093
11874,1.0,300.09713999999997,37301.524,0.0,-0.11874019020021753,0.0,0.0,0.0,0.0,-2.434285235870248,-5.535070378168915,-3.369376161581537,-0.009192712849475121,0.0017264373286360985,-0.7561562269518093
11875,1.0,300.15859,37312.209,0.0,-0.11875018618763689,0.0,0.0,0.0,0.0,-2.458269068387268,-5.519785297760395,-3.363925483993597,-0.023199007493063774,-0.012927486552843589,-0.7639885488997993
11876,1.0,300.017,37356.117,0.0,-0.11876018217505602,0.0,0.0,0.0,0.0,-2.4187367104357276,-5.540686823473215,-3.3959032518495564,0.004136482886339076,-0.02189009506688418,-0.7726666104412573
11877,1.0,299.56933,37534.145,0.0,-0.11877017816247548,0.0,0.0,0.0,0.0,-2.4693195739778675,-5.557997897456685,-3.3821252796397765,-0.009895027296588161,-0.0012310620905213688,-0.7665770280027623
11878,1.0,299.15805,37424.405,0.0,-0.11878017414989483,0.0,0.0,0.0,0.0,-2.4445672925850075,-5.554285045115255,-3.377232294906876,0.013543992496687987,-0.0058897618180742345,-0.7691680199659733
11879,1.0,299.25327000000004,37319.591,0.0,-0.11879017013731408,0.0,0.0,0.0,0.0,-2.4577731837883277,-5.552156611955194,-3.334293998069197,-0.005245194723310415,-0.004299961164098126,-0.7783368795908692
11880,1.0,299.82482000000005,37268.6,0.0,-0.11880019911479078,0.0,0.0,0.0,0.0,-2.443619903741508,-5.546797126876254,-3.338306772440227,0.02036685795305238,0.002084501270174258,-0.7862750456443052
11881,1.0,300.43425,37221.308,0.0,-0.11881019510221025,0.0,0.0,0.0,0.0,-2.457498896986258,-5.541139442292885,-3.3157099779850965,0.01939273653216408,0.00010470552644113089,-0.7716013502136243
11882,1.0,299.86972000000003,37192.958,0.0,-0.11882019108962938,0.0,0.0,0.0,0.0,-2.412930686037718,-5.5408976808190245,-3.351902156981987,0.024920514346713274,0.0028869720446219574,-0.7975153329786352
11883,1.0,299.70375,37299.829,0.0,-0.11883018707704884,0.0,0.0,0.0,0.0,-2.4460035746017574,-5.536626426347485,-3.3555867396456263,-0.0003854545539389026,-0.009833603670226121,-0.7583380178621353
11884,1.0,300.18622999999997,37339.612,0.0,-0.1188401830644682,0.0,0.0,0.0,0.0,-2.440203731029358,-5.553623899425005,-3.356481946108977,0.0005092864020501545,-0.0035538822160158666,-0.7905879446949553
11885,1.0,300.05875,37395.545,0.0,-0.11885017905188744,0.0,0.0,0.0,0.0,-2.4642778441302875,-5.545674040465415,-3.357360129970647,-0.022839014931285276,0.02106320901802688,-0.7481128855379933
11886,1.0,299.79849,37464.331,0.0,-0.11886017503930679,0.0,0.0,0.0,0.0,-2.4735595190213178,-5.557663727573704,-3.3569977917348868,-0.007746527123597702,0.003097801830029237,-0.7812668949050392
11887,1.0,299.71882,37498.942,0.0,-0.11887017102672592,0.0,0.0,0.0,0.0,-2.470375380582068,-5.555692956129204,-3.3726738853569964,-0.02141744327948708,0.010484313593721189,-0.7523369225548733
11888,1.0,299.16098,37392.791,0.0,-0.11888020000420274,0.0,0.0,0.0,0.0,-2.4297878239763877,-5.568380975206415,-3.3683059668259174,0.01038662311182989,0.00022583474269315376,-0.7974743976745953
11889,1.0,299.65457000000004,37291.623,0.0,-0.1188901959916222,0.0,0.0,0.0,0.0,-2.4296978473675077,-5.551727703187865,-3.3542964669682864,0.022993413981523277,0.007236103500297812,-0.7643578684287482
11890,1.0,299.9988,37323.951,0.0,-0.11890019197904134,0.0,0.0,0.0,0.0,-2.453036138245818,-5.552802660218954,-3.339710427803757,0.009023109474861572,-0.005736365480135194,-0.7805619666779683
11891,1.0,300.38184,37322.278,0.0,-0.11891018796646069,0.0,0.0,0.0,0.0,-2.4575179460881373,-5.550460127312765,-3.337062501317426,0.01120869520946209,-0.0056381106179381945,-0.7724587928457473
11892,1.0,300.15772000000004,37274.095,0.0,-0.11892018395388015,0.0,0.0,0.0,0.0,-2.4529836518906376,-5.551068482672804,-3.3263421126094066,0.004764600575004465,0.0006720383517400212,-0.7826724045162522
11893,1.0,300.32165,37491.065,0.0,-0.11893017994129929,0.0,0.0,0.0,0.0,-2.4634696758505275,-5.567205199790375,-3.3656728337910473,0.01129399161613019,0.024973577241200178,-0.7706156098538393
11894,1.0,300.9296,37524.863,0.0,-0.11894017592871875,0.0,0.0,0.0,0.0,-2.454403113955727,-5.571286368543155,-3.380931974997007,0.009355098134351302,-0.008399843734300033,-0.7827955245359033
11895,1.0,300.98165,37464.823,0.0,-0.11895017191613788,0.0,0.0,0.0,0.0,-2.4675998859081476,-5.566816517052015,-3.3539541910845068,-0.009792586596903052,-0.008719839261631132,-0.7743222712371582
11896,1.0,300.33052999999995,37430.917,0.0,-0.1189602008936147,0.0,0.0,0.0,0.0,-2.4395174567366276,-5.562684483144214,-3.375862076796647,-0.016124088981573685,-0.0036325529802800666,-0.7771933255280092
11897,1.0,299.87316,37390.138999999996,0.0,-0.11897019688103405,0.0,0.0,0.0,0.0,-2.4675037284736576,-5.560332932312136,-3.337831963443367,-0.0074514164107725425,0.007356433738448484,-0.7748006063443663
11898,1.0,300.10895,37372.692,0.0,-0.1189801928684533,0.0,0.0,0.0,0.0,-2.453171913759218,-5.560603976713885,-3.3465892814076468,-0.017571999056471284,0.010377958810224791,-0.7684042523055953
11899,1.0,299.97123,37448.809,0.0,-0.11899018885587287,0.0,0.0,0.0,0.0,-2.4839350987203077,-5.549773346394985,-3.3497943941239674,-0.007612305631876072,-0.0003230963563471277,-0.7687874837584173
11900,1.0,299.9757,37392.177,0.0,-0.11900018484329211,0.0,0.0,0.0,0.0,-2.4340652592735377,-5.570256095841475,-3.361966770225287,-0.004515441260839356,0.008455914867008823,-0.7812242066783263
11901,1.0,299.66082,37354.123,0.0,-0.11901018083071124,0.0,0.0,0.0,0.0,-2.447274595527198,-5.560094413238595,-3.3473516507828864,-0.01136011023815559,0.003851627480426036,-0.7685660784790662
11902,1.0,299.47769,37491.446,0.0,-0.1190201768181306,0.0,0.0,0.0,0.0,-2.425158486919508,-5.587728175265835,-3.383576659083017,-0.004075565986352046,-0.02231138216696198,-0.7843141027257752
11903,1.0,299.80426,37540.393,0.0,-0.11903017280554984,0.0,0.0,0.0,0.0,-2.4817193234016273,-5.575312619140515,-3.3543101458446367,-0.006021438430844704,-0.014973253703495087,-0.7669268627322883
11904,1.0,300.65761000000003,37445.862,0.0,-0.11904016879296919,0.0,0.0,0.0,0.0,-2.451511095520308,-5.5674673275912445,-3.3636285003892863,0.023368612387552477,-0.001947703792723398,-0.7791386238649952
11905,1.0,300.7953,37297.281,0.0,-0.11905019777044601,0.0,0.0,0.0,0.0,-2.437192757032198,-5.560527678981354,-3.339721674879867,0.009409804723150422,0.001748432556506858,-0.7827971254710613
11906,1.0,300.91979,37395.47,0.0,-0.11906019375786536,0.0,0.0,0.0,0.0,-2.423343350690368,-5.572117436275175,-3.3718282268235367,-0.006856918056450123,-0.014297201077773885,-0.7779784525004952
11907,1.0,300.72328,37554.282999999996,0.0,-0.11907018974528483,0.0,0.0,0.0,0.0,-2.4684631749933477,-5.576335292466444,-3.3707656314436667,-0.013014922943722886,-0.028663503785867572,-0.7798329534960202
11908,1.0,300.01898,37564.016,0.0,-0.11908018573270396,0.0,0.0,0.0,0.0,-2.449381851760168,-5.581559609982045,-3.3875813274532467,-0.004171306671075916,-0.005625413682260104,-0.7552812449604553
11909,1.0,300.16972000000004,37474.64,0.0,-0.1190901817201232,0.0,0.0,0.0,0.0,-2.473671179182338,-5.552060049220665,-3.365623589836187,-0.0074568468233584834,-0.0013684318516287086,-0.7585082033489313
11910,1.0,300.73557999999997,37483.715,0.0,-0.11910017770754255,0.0,0.0,0.0,0.0,-2.4622246954526577,-5.560920617370135,-3.3709680788136467,0.0015052833353098986,-0.00037005703316678564,-0.7509018159082393
11911,1.0,300.06416,37557.837999999996,0.0,-0.1191101736949618,0.0,0.0,0.0,0.0,-2.4635185145053478,-5.570983204113235,-3.382143214166547,-0.005048459246794135,0.0025209594600243274,-0.7872762279356142
11912,1.0,299.86397999999997,37520.424,0.0,-0.11912016968238115,0.0,0.0,0.0,0.0,-2.469329098528808,-5.565463929493524,-3.3704788816653672,0.017541519480213184,0.015109814485722586,-0.7659355798944563
11913,1.0,299.75468,37310.892,0.0,-0.11913019865985797,0.0,0.0,0.0,0.0,-2.4375828583206975,-5.560290375807935,-3.3437062808981173,-0.001274291190137749,0.016515617939464586,-0.7959573596248752
11914,1.0,299.8843,37353.88,0.0,-0.11914019464727732,0.0,0.0,0.0,0.0,-2.439859631295398,-5.567983173217154,-3.3468041917538565,-0.0006983199821713164,0.0025373225372142373,-0.7727934997512802
11915,1.0,299.99166,37606.54,0.0,-0.11915019063469667,0.0,0.0,0.0,0.0,-2.4781435637987275,-5.582370108737035,-3.370935350835417,-0.0034176620884719864,-0.02245459290959578,-0.7762259655250382
11916,1.0,300.15706,37642.64,0.0,-0.11916018662211592,0.0,0.0,0.0,0.0,-2.4863540306840375,-5.591115774325164,-3.3649528182699866,0.0007581636273874243,0.016807505909021685,-0.7634609799702322
11917,1.0,299.92694,37494.545,0.0,-0.11917018260953516,0.0,0.0,0.0,0.0,-2.4503386638295974,-5.585512501272165,-3.3615542761095765,0.009418920022375031,-0.003190290184582127,-0.7700619193366942
11918,1.0,300.75338999999997,37597.821,0.0,-0.11918017859695451,0.0,0.0,0.0,0.0,-2.4689530814166973,-5.596794331860594,-3.3630512518073172,-0.0062900756543321345,0.007945240362984173,-0.7850166802126142
11919,1.0,300.97274,37658.955,0.0,-0.11919017458437386,0.0,0.0,0.0,0.0,-2.457060261017968,-5.595087613392154,-3.3952338988334967,-0.00014498437613884383,0.008146560998852971,-0.7758483373452691
11920,1.0,300.60949,37530.375,0.0,-0.11920017057179333,0.0,0.0,0.0,0.0,-2.450431072238718,-5.579189617998145,-3.378676074974367,0.01330615331396509,0.004266788571724246,-0.7771211922533903
11921,1.0,300.06622000000004,37391.664,0.0,-0.11921019954926992,0.0,0.0,0.0,0.0,-2.447934829292358,-5.562287897055075,-3.3559093584774673,0.02175025135433268,-0.0015418692632956485,-0.7678782539136833
11922,1.0,299.67814,37373.995,0.0,-0.11922019553668928,0.0,0.0,0.0,0.0,-2.441629171270038,-5.563853267134565,-3.3552788129402367,-0.002002832501514178,-0.002189555851142338,-0.7945219794007142
11923,1.0,300.19813999999997,37478.268,0.0,-0.11923019152410863,0.0,0.0,0.0,0.0,-2.4513248601519275,-5.580289804956724,-3.360843075864387,0.007019818680327164,-0.015761850044323487,-0.7931722796050092
11924,1.0,300.58589,37582.445,0.0,-0.11924018751152787,0.0,0.0,0.0,0.0,-2.4689792232692778,-5.586207793490785,-3.3689379309132867,-0.025537845076139078,0.009270425889744803,-0.7967676253323422
11925,1.0,299.57334,37643.71,0.0,-0.119250183498947,0.0,0.0,0.0,0.0,-2.4732434863151274,-5.595848057592204,-3.3736564339789674,-0.0034211967101208268,0.006933734573031323,-0.7828296507992712
11926,1.0,299.73546,37632.509,0.0,-0.11926017948636647,0.0,0.0,0.0,0.0,-2.4720462299969674,-5.584149679887664,-3.3831472436906367,-0.025775854484878773,0.009320150429127231,-0.7697874096196022
11927,1.0,300.47477000000003,37748.906,0.0,-0.11927017547378582,0.0,0.0,0.0,0.0,-2.502130942691098,-5.590944028433214,-3.3816498626928566,-0.0017330348026872184,-0.015937052132364585,-0.7604914479021623
11928,1.0,299.70695,37710.998,0.0,-0.11928017146120518,0.0,0.0,0.0,0.0,-2.4770446940652775,-5.584743140471235,-3.4014138125184066,-0.007012327519687843,-0.018337286591999284,-0.7507997714906682
11929,1.0,299.5501,37663.359,0.0,-0.11929020043868199,0.0,0.0,0.0,0.0,-2.471751779517908,-5.585755478646145,-3.391213423761707,0.017206528864652182,-0.005333753288675465,-0.7661774426933262
11930,1.0,299.72592000000003,37546.745,0.0,-0.11930019642610123,0.0,0.0,0.0,0.0,-2.4593006583140777,-5.565111217133715,-3.3888611636545565,0.014276649325995587,0.0037303795416597963,-0.7661318261738242
11931,1.0,299.00366,37567.875,0.0,-0.11931019241352059,0.0,0.0,0.0,0.0,-2.4559212665805576,-5.580222829125115,-3.383551834455567,0.01097804098319829,0.0027239753646354373,-0.7880111382331443
11932,1.0,299.99467000000004,37589.217000000004,0.0,-0.11932018840093983,0.0,0.0,0.0,0.0,-2.4644552642227975,-5.573464856258155,-3.3882631434455366,-0.001209808663048819,0.013156186219664488,-0.7699183924600294
11933,1.0,300.31762000000003,37556.552,0.0,-0.11933018438835896,0.0,0.0,0.0,0.0,-2.4654101511170374,-5.5762522059582444,-3.374591663821267,0.011999899656047888,-0.003060182994891547,-0.7902420312433163
11934,1.0,300.20443,37662.972,0.0,-0.11934018037577843,0.0,0.0,0.0,0.0,-2.471637383581618,-5.597096280390395,-3.3798693796171366,-0.007979890780628903,0.01155502409364209,-0.7806338669050643
11935,1.0,300.06111,37668.668,0.0,-0.11935017636319778,0.0,0.0,0.0,0.0,-2.4798650757186276,-5.588936982635135,-3.381532325681257,9.41923068485569e-05,-0.013463187827713188,-0.7999838837997623
11936,1.0,300.1239,37676.342000000004,0.0,-0.11936017235061713,0.0,0.0,0.0,0.0,-2.4540441194452978,-5.606227791616604,-3.3923954813283665,-0.016056974334699985,0.0029074377714667678,-0.7729198824362532
11937,1.0,300.13735,37599.076,0.0,-0.11937020132809395,0.0,0.0,0.0,0.0,-2.4390201535875478,-5.598738657477485,-3.391421444007237,-3.583211145460406e-05,0.007416957497396712,-0.8074390943255342
11938,1.0,299.7672,37611.011,0.0,-0.11938019731551319,0.0,0.0,0.0,0.0,-2.4620428170597077,-5.589369336452804,-3.381396144867817,0.02191505141684718,0.005623228608419454,-0.7601752328109543
11939,1.0,299.52831000000003,37508.361000000004,0.0,-0.11939019330293255,0.0,0.0,0.0,0.0,-2.450453059765888,-5.579899095718165,-3.3712530047417673,0.018584343310881882,-0.0036740642156769063,-0.8022938407152372
11940,1.0,298.98315,37529.678,0.0,-0.11940018929035168,0.0,0.0,0.0,0.0,-2.4458756011141274,-5.584372594909665,-3.377836597266517,0.02059513205483128,-0.013127178895801688,-0.7650818964202042
11941,1.0,299.46949,37614.611000000004,0.0,-0.11941018527777092,0.0,0.0,0.0,0.0,-2.453416107033318,-5.593826623642704,-3.386659776487297,0.01755110482615918,-0.01325576134674179,-0.8074379189554183
11942,1.0,299.78314,37708.163,0.0,-0.1194201812651905,0.0,0.0,0.0,0.0,-2.4738220521222276,-5.592178977655095,-3.3963390507175673,0.006201648406180044,0.006971813930339463,-0.7665502782001223
11943,1.0,300.11247000000003,37735.015,0.0,-0.11943017725260974,0.0,0.0,0.0,0.0,-2.4751926755324978,-5.601190317419444,-3.394119222398487,-0.0036528959012127565,-0.0004762324106004796,-0.7939590987051622
11944,1.0,299.40872,37782.067,0.0,-0.11944017324002909,0.0,0.0,0.0,0.0,-2.5148023444666676,-5.589623763552915,-3.3803788417674165,-0.028234411620269472,0.008401331590746871,-0.7603393691946533
11945,1.0,299.87382,37833.102,0.0,-0.11945016922744833,0.0,0.0,0.0,0.0,-2.496532735888598,-5.6007531000012944,-3.403032580878167,-0.023193613962781478,0.019386134194512482,-0.7712815887470662
11946,1.0,300.03508,37918.733,0.0,-0.11946019820492504,0.0,0.0,0.0,0.0,-2.5049646992457677,-5.6113728729743855,-3.4100104290168263,-0.015308321326063684,0.006351963653215003,-0.7631087235729673
11947,1.0,300.45772999999997,37881.001000000004,0.0,-0.1194701941923445,0.0,0.0,0.0,0.0,-2.4915974986265277,-5.603717059193815,-3.4195638575846767,-0.004197621080147946,-0.009931167394529912,-0.7715048482741003
11948,1.0,299.89541,37659.781,0.0,-0.11948019017976363,0.0,0.0,0.0,0.0,-2.458537579663768,-5.587289640622554,-3.4018058389820967,-0.00013906841410498384,-0.023737382734947274,-0.7738588106414183
11949,1.0,299.79299,37592.017,0.0,-0.1194901861671831,0.0,0.0,0.0,0.0,-2.4448784616907178,-5.594072235466944,-3.3880836968528265,0.006541820377452404,-0.01007287528461539,-0.7824121512280673
11950,1.0,299.834,37735.757000000005,0.0,-0.11950018215460245,0.0,0.0,0.0,0.0,-2.4811900015493875,-5.593167200477625,-3.396370562795677,0.0008901019829237262,0.006516444541948004,-0.7911942532897933
11951,1.0,299.6361,37763.26,0.0,-0.11951017814202158,0.0,0.0,0.0,0.0,-2.476316977843458,-5.6136327246724145,-3.389138388881917,0.008243836048203274,-0.0031900296779814167,-0.7901501902542523
11952,1.0,299.76948,37491.72,0.0,-0.11952017412944105,0.0,0.0,0.0,0.0,-2.4385230530884874,-5.597918634171554,-3.360105125816557,-0.00015937428048151686,-0.004693706707907785,-0.7995111215681042
11953,1.0,299.50579,37438.786,0.0,-0.11953017011686018,0.0,0.0,0.0,0.0,-2.424416078571238,-5.594345002393865,-3.361695016548467,0.005547033619449595,-0.01937004884917498,-0.7920496998192192
11954,1.0,298.88948999999997,37774.623999999996,0.0,-0.119540199094337,0.0,0.0,0.0,0.0,-2.4681321461856776,-5.615209645803045,-3.3992006716499863,-0.012921701908022687,-0.0074667045309313625,-0.8032479676719022
11955,1.0,299.42599,37928.704,0.0,-0.11955019508175635,0.0,0.0,0.0,0.0,-2.4894064466102876,-5.613125896972394,-3.4268466940034363,-0.023721465589126377,-0.0017619528592162082,-0.7767769405319153
11956,1.0,300.02491000000003,37639.137,0.0,-0.11956019106917559,0.0,0.0,0.0,0.0,-2.458725942857358,-5.595587956291535,-3.387044000925217,-0.015421875251520587,0.007858870316510114,-0.7898330531054533
11957,1.0,300.21797000000004,37546.606,0.0,-0.11957018705659495,0.0,0.0,0.0,0.0,-2.435686155458508,-5.594163326650935,-3.3833812031387267,-0.00901375606186346,0.028546393352559676,-0.7774576520815962
11958,1.0,299.91288,37699.979,0.0,-0.11958018304401441,0.0,0.0,0.0,0.0,-2.4717783266705275,-5.596967293652664,-3.391106525876157,0.008114942732132492,0.00955179247291352,-0.7801121545610753
11959,1.0,300.1077,37988.279,0.0,-0.11959017903143354,0.0,0.0,0.0,0.0,-2.4965325332385775,-5.617616418765574,-3.4333393979942164,0.009732242284547532,-0.008350932226797841,-0.7753557762066572
11960,1.0,300.34474,37922.973,0.0,-0.1196001750188529,0.0,0.0,0.0,0.0,-2.5122267640374774,-5.604233918069824,-3.4111759706068567,-0.002469386853784508,-0.006806992690897874,-0.7728855231253622
11961,1.0,300.492,37571.913,0.0,-0.11961017100627214,0.0,0.0,0.0,0.0,-2.4578836280492276,-5.586117918206915,-3.3769217337512267,0.02103431315167508,-0.005194254283807985,-0.7697765475785303
11962,1.0,300.74926,37649.684,0.0,-0.11962019998374895,0.0,0.0,0.0,0.0,-2.4754027222782273,-5.596422063773854,-3.3727391386634364,-0.0042838197860300955,-0.005157133967719495,-0.7873359083665042
11963,1.0,300.52513,38065.279,0.0,-0.11963019597116831,0.0,0.0,0.0,0.0,-2.516608260119898,-5.616376200643175,-3.4379099665452966,-0.004093096327657156,0.012215927617118188,-0.7680035422885483
11964,1.0,299.89322000000004,38115.848,0.0,-0.11964019195858755,0.0,0.0,0.0,0.0,-2.5256038945076975,-5.632111873371165,-3.4285502713965665,0.003153154973717167,-0.0057034771044143645,-0.7793332692092053
11965,1.0,299.88214,37773.138999999996,0.0,-0.1196501879460069,0.0,0.0,0.0,0.0,-2.4681059030080874,-5.608399794530965,-3.4055853631801067,-0.0077854496063140535,0.02045439060269118,-0.7758677613496863
11966,1.0,299.38153,37649.985,0.0,-0.11966018393342626,0.0,0.0,0.0,0.0,-2.4512455226690975,-5.605354066055375,-3.388055832475077,-0.005872512552346864,-0.005061324584638845,-0.7816105082789513
11967,1.0,299.29176,37869.203,0.0,-0.1196701799208455,0.0,0.0,0.0,0.0,-2.489771925921358,-5.610003161489204,-3.411517030590517,-0.00028988145064907174,-0.006011336226022694,-0.7921244776765992
11968,1.0,300.03567000000004,37966.491,0.0,-0.11968017590826485,0.0,0.0,0.0,0.0,-2.495290187290968,-5.620495771574745,-3.425079180528997,-0.00026434714282903176,0.001889961202649648,-0.7855872210789223
11969,1.0,299.79073,37690.835,0.0,-0.1196901718956841,0.0,0.0,0.0,0.0,-2.4567495985373076,-5.617948460823345,-3.3823746404893864,0.0050777958769394355,0.0021540048568087283,-0.8096880130549852
11970,1.0,300.00593,37537.059,0.0,-0.11970020087316091,0.0,0.0,0.0,0.0,-2.4590576809400977,-5.596003895457585,-3.3552669579140666,0.015861507244658884,-0.005615729139129314,-0.7835623927415872
11971,1.0,300.38607,37671.473,0.0,-0.11971019686058026,0.0,0.0,0.0,0.0,-2.4656977114954177,-5.612284494089354,-3.3732049297344067,0.01362034393147329,0.006378901515073564,-0.8005350715891603
11972,1.0,300.3556,37947.372,0.0,-0.11972019284799962,0.0,0.0,0.0,0.0,-2.5103086815981777,-5.636866650790425,-3.3878782097325466,0.027091660051488674,-0.006874992918358974,-0.7693921306230912
11973,1.0,299.98226,37930.598,0.0,-0.11973018883541886,0.0,0.0,0.0,0.0,-2.492354295126218,-5.624504492945375,-3.413095775571327,0.007220691155676733,0.0042257020907693265,-0.7836589352111153
11974,1.0,299.74552,37756.881,0.0,-0.11974018482283821,0.0,0.0,0.0,0.0,-2.4736287240031474,-5.626331889500724,-3.3771882185275266,0.0004268479888791166,-0.005197341656862685,-0.7735210538530842
11975,1.0,299.70839,37700.446,0.0,-0.11975018081025746,0.0,0.0,0.0,0.0,-2.4632136275502576,-5.6192149221233345,-3.3775655528647666,-0.020701389566318083,0.012431077090351789,-0.7839044761078482
11976,1.0,300.63973,38053.339,0.0,-0.11976017679767681,0.0,0.0,0.0,0.0,-2.5224470124961376,-5.634835692289985,-3.4099822606640466,-0.016452873440272183,0.0059884749732914645,-0.7644704709123613
11977,1.0,300.28874,38094.308,0.0,-0.11977017278509605,0.0,0.0,0.0,0.0,-2.5122928279439978,-5.636649511293995,-3.4307761792162466,-0.01934986592043308,0.0051768157429619354,-0.7822626968383173
11978,1.0,300.39012,37834.229,0.0,-0.11978020176257276,0.0,0.0,0.0,0.0,-2.4772373129092875,-5.625080322977205,-3.398343056765347,-0.002911110296454217,-0.01906628153544548,-0.7680578828914113
11979,1.0,300.50424,37706.019,0.0,-0.11979019774999222,0.0,0.0,0.0,0.0,-2.4614046721467275,-5.621866698960044,-3.3784169869237966,0.007756749905181612,-0.013815612424494786,-0.7710621593054103
11980,1.0,300.36395,37894.236000000004,0.0,-0.11980019373741158,0.0,0.0,0.0,0.0,-2.4845850986594575,-5.630367765974035,-3.403948660293577,0.016216282581672483,-0.013728122331360186,-0.7790708982283112
11981,1.0,300.12295,37969.308,0.0,-0.11981018972483082,0.0,0.0,0.0,0.0,-2.501659376094558,-5.623667244387745,-3.416394917896927,0.01240805908783009,-0.003921846016331066,-0.7719310820611662
11982,1.0,299.80191,37864.867999999995,0.0,-0.11982018571225017,0.0,0.0,0.0,0.0,-2.4760738991444677,-5.634780571484545,-3.399119915617017,0.014893888862912387,-0.012013479233888088,-0.7928105999818142
11983,1.0,299.85227000000003,37730.127,0.0,-0.11983018169966941,0.0,0.0,0.0,0.0,-2.4709799869167375,-5.609157401630735,-3.3888791995063365,-0.0002119623558390558,0.013777475717230986,-0.7682165375920692
11984,1.0,299.89575,37639.186,0.0,-0.11984017768708877,0.0,0.0,0.0,0.0,-2.4524765202155874,-5.614139653697445,-3.374756519612537,0.01042184571180609,0.006768255531624813,-0.7977492417642202
11985,1.0,300.31695,37904.123999999996,0.0,-0.11985017367450812,0.0,0.0,0.0,0.0,-2.480622784143408,-5.645307530748474,-3.3959768138068167,-0.004935764456097025,0.006645773251586755,-0.7636413688855352
11986,1.0,299.85322,38011.826,0.0,-0.11986016966192736,0.0,0.0,0.0,0.0,-2.4924396107846376,-5.643814709376144,-3.418391729868997,-0.00029722838526915774,-3.996341075608156e-05,-0.7936333185330102
11987,1.0,299.64236,37905.003,0.0,-0.11987019863940418,0.0,0.0,0.0,0.0,-2.4666096365854178,-5.649761372888035,-3.4058035159266367,-0.005161341995384795,0.013541283065920588,-0.7657549579316303
11988,1.0,299.17651,37689.136,0.0,-0.11988019462682353,0.0,0.0,0.0,0.0,-2.4538505886761977,-5.623087361355515,-3.379618296242357,0.013377504359506886,0.016408909531683284,-0.8006725088327242
11989,1.0,299.28826000000004,37893.508,0.0,-0.11989019061424266,0.0,0.0,0.0,0.0,-2.480209986052668,-5.636806463734485,-3.4016637813180766,-0.006487769158817964,0.017835038782431284,-0.7668698572816622
11990,1.0,299.44768999999997,37985.554,0.0,-0.11990018660166213,0.0,0.0,0.0,0.0,-2.530245694540808,-5.623429231939254,-3.392984888911537,0.0021878295769469677,-0.01327637389352609,-0.7952029138654172
11991,1.0,300.28201,37976.227999999996,0.0,-0.11991018258908126,0.0,0.0,0.0,0.0,-2.4983572953436677,-5.623122419808975,-3.4223454317591964,-0.01175768931239359,-0.0015388336673210585,-0.7678049250039463
11992,1.0,300.18545,37698.558,0.0,-0.11992017857650072,0.0,0.0,0.0,0.0,-2.4796761045749776,-5.615401758022004,-3.3643424364097467,-0.006293884461458035,-0.003830197646111076,-0.8036384337304382
11993,1.0,299.80926,37782.307,0.0,-0.11993017456392008,0.0,0.0,0.0,0.0,-2.4552902144182776,-5.620213986721935,-3.4093737026539865,-0.011922888595447488,-0.01059898310753819,-0.7762929818866522
11994,1.0,300.14395,38086.744,0.0,-0.11994017055133932,0.0,0.0,0.0,0.0,-2.5232061394710574,-5.635052021186335,-3.4191609893449164,-0.01015326452104919,-0.017835768322503283,-0.7778971594449723
11995,1.0,299.94299,38164.402,0.0,-0.11995019952881625,0.0,0.0,0.0,0.0,-2.5111920330353574,-5.656396539842874,-3.4334365686788066,0.0026064364278602474,0.004646815722430006,-0.7650574466952913
11996,1.0,299.93467999999996,37938.205,0.0,-0.11996019551623549,0.0,0.0,0.0,0.0,-2.5108966706312077,-5.638728295199154,-3.382642037190777,0.013683824050238288,0.005752423467719994,-0.7822356937231523
11997,1.0,300.18124,37802.284,0.0,-0.11997019150365462,0.0,0.0,0.0,0.0,-2.4622569168058375,-5.637143977342794,-3.391549417494867,0.0031977763802959573,0.003873126621047836,-0.7693489155063262
11998,1.0,300.99359,37998.28,0.0,-0.11998018749107398,0.0,0.0,0.0,0.0,-2.4980809820413974,-5.649357491398175,-3.403089728183807,-0.0014711796674191286,-0.020815777396607282,-0.7805028941971383
11999,1.0,300.98975,38226.14,0.0,-0.11999018347849322,0.0,0.0,0.0,0.0,-2.5166299436720374,-5.6501733603786946,-3.4529888505584667,-0.009934582047366912,-0.00019063739290944582,-0.7694781048940762
12000,1.0,300.63925,38087.772000000004,0.0,-0.12000017946591257,0.0,0.0,0.0,0.0,-2.4924244120331376,-5.6661438031548546,-3.419163522470167,-0.008328852291218722,0.0029410320785322676,-0.7861135133133632
12001,1.0,300.0569,37746.193999999996,0.0,-0.12001017545333204,0.0,0.0,0.0,0.0,-2.465185006944818,-5.6082859052197245,-3.4004297440212867,-0.005546561242252974,0.01133229145666009,-0.7846114105701173
12002,1.0,300.18181,37921.464,0.0,-0.12002017144075117,0.0,0.0,0.0,0.0,-2.4986690723994376,-5.640381007437265,-3.388128178532217,-0.0016005440434613985,0.005234162962846665,-0.7865015070416552
12003,1.0,299.85123,38072.053,0.0,-0.1200302004182282,0.0,0.0,0.0,0.0,-2.5107107392378576,-5.650554849041344,-3.4116877632323668,-2.200483854795848e-05,0.017524893059322283,-0.8019040130042642
12004,1.0,300.24028,38054.64,0.0,-0.12004019640564734,0.0,0.0,0.0,0.0,-2.4987273342801877,-5.657765035427935,-3.411167864606057,0.0062479144189961444,0.0013819230740601887,-0.7928123022419823
12005,1.0,300.17865,37875.367,0.0,-0.12005019239306658,0.0,0.0,0.0,0.0,-2.4707855442225477,-5.654547358410374,-3.387832714803057,-0.001045605100868189,-0.023793020297938276,-0.8013322359728342
12006,1.0,299.95512,37883.234,0.0,-0.12006018838048593,0.0,0.0,0.0,0.0,-2.4754798306108374,-5.634861834142566,-3.405215628218617,0.004773260620959146,-0.029696902364106076,-0.7622224235779962
12007,1.0,299.873,38115.161,0.0,-0.12007018436790518,0.0,0.0,0.0,0.0,-2.525863387858308,-5.645472386539744,-3.4147213327067565,0.0004285299739126155,-0.007867076629070014,-0.7866655623653462
12008,1.0,299.76955,38211.742,0.0,-0.12008018035532475,0.0,0.0,0.0,0.0,-2.521923871469508,-5.6644729537399545,-3.4290184942677766,0.008351548485508661,0.011999022181461289,-0.7516652187985813
12009,1.0,299.63164,38058.617,0.0,-0.12009017634274388,0.0,0.0,0.0,0.0,-2.498592875991918,-5.651034926938725,-3.419241340077847,-0.013754396919703286,0.0033342729224671167,-0.7889775559135223
12010,1.0,299.39437999999996,37888.509,0.0,-0.12010017233016312,0.0,0.0,0.0,0.0,-2.4641559501432577,-5.636537952457985,-3.4164666560040065,-0.0018558879322618782,-0.0007492284029705863,-0.7546438701175513
12011,1.0,299.36076,37958.948,0.0,-0.12011020130764016,0.0,0.0,0.0,0.0,-2.4906567972336875,-5.644029721047365,-3.403885940112387,0.008640818926082431,0.006168751012533323,-0.7918693615664213
12012,1.0,299.73397,38103.061,0.0,-0.1201201972950593,0.0,0.0,0.0,0.0,-2.502551137507568,-5.647548029369594,-3.4322798423646463,0.018715595675835483,0.016780046831311683,-0.7679636708971133
12013,1.0,299.88937000000004,38051.182,0.0,-0.12013019328247854,0.0,0.0,0.0,0.0,-2.5105439582713975,-5.654715760576995,-3.401349369812047,0.0005035013113992105,-0.008642296447378251,-0.7965558459289412
12014,1.0,299.5667,37938.725,0.0,-0.12014018926989789,0.0,0.0,0.0,0.0,-2.4911691978092576,-5.649115527274295,-3.3921404462781966,-0.011850583068311488,0.01055534242573119,-0.7941885187928043
12015,1.0,300.36195,38009.656,0.0,-0.12015018525731724,0.0,0.0,0.0,0.0,-2.506843771556218,-5.653217467654125,-3.3939250836793264,-0.027370156907724177,0.001981470656280928,-0.7897618216234233
12016,1.0,300.24312000000003,38152.201,0.0,-0.12016018124473671,0.0,0.0,0.0,0.0,-2.5100956964271575,-5.659258160775295,-3.427962485013557,-0.0070001279884838435,0.007362344026281783,-0.7933782530853373
12017,1.0,300.2527,38080.466,0.0,-0.12017017723215584,0.0,0.0,0.0,0.0,-2.4821012173643178,-5.653753375632015,-3.4396559991176168,-0.018764120223124483,-0.015362998327959882,-0.7614814743098703
12018,1.0,300.21839,37960.528,0.0,-0.12018017321957508,0.0,0.0,0.0,0.0,-2.4631910320730275,-5.661701005441385,-3.414160600101417,0.008647003196742772,-0.02840696608579927,-0.7847493949687352
12019,1.0,299.9028,38007.413,0.0,-0.12019020219705201,0.0,0.0,0.0,0.0,-2.4833889569164076,-5.646801264045894,-3.4231141846100672,0.017491307871507683,-0.028614734032054372,-0.7570955401920122
12020,1.0,299.84775,38067.2,0.0,-0.12020019818447125,0.0,0.0,0.0,0.0,-2.506432392015618,-5.648290640367885,-3.416755128307477,0.024499300200642678,0.008545399137665232,-0.7929916475096823
12021,1.0,299.92762999999997,38065.962,0.0,-0.1202101941718905,0.0,0.0,0.0,0.0,-2.4899011153091077,-5.659445814693815,-3.421755010925927,0.013340220808827288,0.008072831247376414,-0.7783823846528602
12022,1.0,299.16037,38077.562000000005,0.0,-0.12022019015930985,0.0,0.0,0.0,0.0,-2.499537731710168,-5.655006766005715,-3.4200836548859765,-0.013810153032955987,0.017095959973989883,-0.8059850196370283
12023,1.0,299.30142,38169.17,0.0,-0.1202301861467292,0.0,0.0,0.0,0.0,-2.4959312706292374,-5.6583756199381945,-3.4481676039326468,-0.013505264051365788,0.02109465523488038,-0.7864747775040172
12024,1.0,300.06916,38140.295,0.0,-0.12024018213414855,0.0,0.0,0.0,0.0,-2.5242825150522874,-5.647456330235545,-3.4219585728710165,-0.011171371128778489,0.013320455339126588,-0.7935370699060112
12025,1.0,299.77441,38142.301,0.0,-0.1202501781215678,0.0,0.0,0.0,0.0,-2.5107456963663077,-5.651448130329504,-3.4321130613981863,0.0030559130576451373,0.0013095473286922586,-0.7717864608743933
12026,1.0,299.58954,38142.469,0.0,-0.12026017410898704,0.0,0.0,0.0,0.0,-2.5183076831876177,-5.662736141743545,-3.4133144349429063,-0.011827201309003887,-0.013521672623485187,-0.7887202005206232
12027,1.0,300.09936,38190.856,0.0,-0.12027017009640639,0.0,0.0,0.0,0.0,-2.500850397214718,-5.672254613182944,-3.435961486602997,0.01129694017392119,-0.01985330328561848,-0.7764775859223713
12028,1.0,300.08187999999996,38160.157999999996,0.0,-0.12028019907388321,0.0,0.0,0.0,0.0,-2.512670770231298,-5.6638624705547045,-3.4232017294187065,0.009860001773756412,0.00904371796864547,-0.7832257201308603
12029,1.0,300.18127000000004,38185.582,0.0,-0.12029019506130234,0.0,0.0,0.0,0.0,-2.480509806757258,-5.675312804634764,-3.451640923950437,0.02103805508429438,-0.015877870220523786,-0.7645603461962313
12030,1.0,300.4757,38051.095,0.0,-0.1203001910487218,0.0,0.0,0.0,0.0,-2.4849066029161877,-5.667962485759344,-3.4137134528322868,0.008098547332264392,-0.01054764375147139,-0.7838202851570393
12031,1.0,300.03157000000004,38107.877,0.0,-0.12031018703614116,0.0,0.0,0.0,0.0,-2.4759358944808474,-5.678363802010874,-3.429543459144587,0.001156499954087659,-0.016395147568825087,-0.7849072492018142
12032,1.0,300.09294,38280.117,0.0,-0.12032018302356051,0.0,0.0,0.0,0.0,-2.5181584314478878,-5.689351587420285,-3.4286896946103265,-0.004179785446587706,0.01117306021669519,-0.8151160546356913
12033,1.0,299.74045,38176.049,0.0,-0.12033017901097975,0.0,0.0,0.0,0.0,-2.5041395083643274,-5.6631898751383245,-3.437236256553807,0.0055733146925933345,0.006489467669960594,-0.7988542011307712
12034,1.0,299.72019,38020.06,0.0,-0.12034017499839889,0.0,0.0,0.0,0.0,-2.4820765953868875,-5.662594185404535,-3.412477996985357,-0.011759284168050988,0.02146334249576698,-0.8221847507783172
12035,1.0,299.92326,38086.837999999996,0.0,-0.12035017098581835,0.0,0.0,0.0,0.0,-2.4919185975832177,-5.658027872503874,-3.4275011522430265,-0.007740942798321572,0.019199053775549084,-0.7928639475995793
12036,1.0,299.63144,38168.716,0.0,-0.12036019996329517,0.0,0.0,0.0,0.0,-2.5080070839960276,-5.662136095034325,-3.4321933108061073,-0.007767199148162873,0.006001116281539064,-0.7838837348783013
12037,1.0,299.18697000000003,38098.507000000005,0.0,-0.12037019595071452,0.0,0.0,0.0,0.0,-2.502113109489337,-5.658190701794945,-3.4206910983209267,0.01059719978736219,-0.014288888373953488,-0.7764713240367532
12038,1.0,299.58912000000004,38202.261,0.0,-0.12038019193813387,0.0,0.0,0.0,0.0,-2.4962533828360276,-5.677025197303765,-3.4392547520780172,-0.009245500443909852,-0.012189027853463387,-0.7677307246991233
12039,1.0,299.77957000000004,38312.465,0.0,-0.12039018792555312,0.0,0.0,0.0,0.0,-2.5219893274259677,-5.676478244899785,-3.4475651254231865,0.01129677197440459,-0.02603280457773777,-0.7960553003795413
12040,1.0,300.05043,38374.562000000005,0.0,-0.12040018391297247,0.0,0.0,0.0,0.0,-2.5185075974323476,-5.690551680838724,-3.455849559565797,-0.005259129546635675,0.01134640299080279,-0.7738646874919982
12041,1.0,300.28411,38276.041,0.0,-0.12041017990039171,0.0,0.0,0.0,0.0,-2.5290955543522977,-5.669475369483654,-3.4363896860952567,0.0036150848525310962,0.01126051079307589,-0.7992475245545893
12042,1.0,300.23098999999996,38213.812000000005,0.0,-0.12042017588781084,0.0,0.0,0.0,0.0,-2.5052591497248273,-5.673369897568015,-3.4374156018215065,0.005780052872771805,0.01162339517063979,-0.7659989890857143
12043,1.0,300.46139,38124.206,0.0,-0.12043017187523031,0.0,0.0,0.0,0.0,-2.4908427286270376,-5.674840123463115,-3.423123911811026,-0.008167021152822232,0.013062569003175187,-0.7966178264375583
12044,1.0,300.53741,38187.762,0.0,-0.12044020085270701,0.0,0.0,0.0,0.0,-2.4942253627608775,-5.676939375020295,-3.4369613618016763,-0.0049003799387548445,0.004183489787628296,-0.7676218205783752
12045,1.0,300.21876000000003,38306.815,0.0,-0.12045019684012648,0.0,0.0,0.0,0.0,-2.507121807383658,-5.690990418132024,-3.4462031146387666,-0.006324677131997034,-0.020680702039026378,-0.8008257122478442
12046,1.0,299.79175,38237.394,0.0,-0.12046019282754583,0.0,0.0,0.0,0.0,-2.5138995386275678,-5.670816912616054,-3.4384966383531967,-0.00975492449598609,-0.01026822179789459,-0.7654345378525073
12047,1.0,299.63817,38242.433,0.0,-0.12047018881496496,0.0,0.0,0.0,0.0,-2.504103841960808,-5.691745998731595,-3.4288946751055573,-0.0026670612078434474,-0.01087973343199609,-0.8050575208929913
12048,1.0,299.39617000000004,38288.642,0.0,-0.12048018480238443,0.0,0.0,0.0,0.0,-2.5136774342056474,-5.679834230555994,-3.445279334522597,-0.010968864990292688,0.011309475090908289,-0.7827359251650212
12049,1.0,299.17051000000004,38183.153,0.0,-0.12049018078980356,0.0,0.0,0.0,0.0,-2.4987236865798272,-5.677535774029154,-3.4304656180605964,-0.0024486376195617175,-0.0009487055417399472,-0.8011297176753472
12050,1.0,300.08191,38151.755,0.0,-0.1205001767772228,0.0,0.0,0.0,0.0,-2.4993971939212978,-5.668891636101045,-3.428891939330287,0.0064722697760132945,-0.010110783503981641,-0.8039932333854543
12051,1.0,300.19175,38134.164,0.0,-0.12051017276464238,0.0,0.0,0.0,0.0,-2.4972852767378675,-5.659022073501994,-3.4355262956850465,0.014000785906769989,-0.005796729753517684,-0.7922891916128553
12052,1.0,299.6856,38199.032999999996,0.0,-0.12052020174211897,0.0,0.0,0.0,0.0,-2.5017973807581777,-5.6904812599567745,-3.419273561431026,-0.005583697365043025,0.006420279102782214,-0.8062418177423722
12053,1.0,299.7461,38326.762,0.0,-0.12053019772953832,0.0,0.0,0.0,0.0,-2.5079686818172373,-5.690316100190474,-3.4520938467451363,-0.0013253561580774688,-0.008654968457103882,-0.7771423489154782
12054,1.0,300.14134,38502.369,0.0,-0.12054019371695779,0.0,0.0,0.0,0.0,-2.5400787801362577,-5.700349201355665,-3.4633306890291267,-0.0033802511722548167,0.0012422386444244087,-0.7865584820947782
12055,1.0,299.35275,38421.102999999996,0.0,-0.12055018970437692,0.0,0.0,0.0,0.0,-2.5197732481322577,-5.702184703911815,-3.4570981876640268,0.008584437333543003,0.019891731808911083,-0.7500421035958923
12056,1.0,299.62931000000003,38323.812000000005,0.0,-0.12056018569179638,0.0,0.0,0.0,0.0,-2.502604231812808,-5.688409568802315,-3.4584682031242364,0.0025526799636798976,0.009207629613472292,-0.7749088619850503
12057,1.0,300.37102999999996,38411.943,0.0,-0.12057018167921552,0.0,0.0,0.0,0.0,-2.5104505366121774,-5.696061937532544,-3.469758950313547,-0.0009057055683686801,-0.010693394712105888,-0.7499846320502203
12058,1.0,300.61646,38369.922,0.0,-0.12058017766663487,0.0,0.0,0.0,0.0,-2.530931259558468,-5.684247137391515,-3.4483195914476465,-0.0052994229567373255,-0.015773618944234985,-0.7893062542459622
12059,1.0,300.72001,38277.047999999995,0.0,-0.12059017365405433,0.0,0.0,0.0,0.0,-2.5221252042643774,-5.677615516812025,-3.435526093035026,0.0062593144958712444,-0.001978569518594608,-0.7736054271889112
12060,1.0,301.07476,38220.167,0.0,-0.12060020263153115,0.0,0.0,0.0,0.0,-2.5180771687898678,-5.686766077140115,-3.413133164500017,-0.001298265802078859,-0.004634193665934306,-0.8198231991677501
12061,1.0,300.78487,38352.222,0.0,-0.12061019861895028,0.0,0.0,0.0,0.0,-2.513244168462888,-5.697654969339765,-3.4472184925639766,-0.016285910088794184,-0.005342918338479985,-0.7826831449673123
12062,1.0,300.83145,38441.693,0.0,-0.12062019460636964,0.0,0.0,0.0,0.0,-2.5296001529020975,-5.703145568981645,-3.452568959717027,-0.0037866201911103165,-0.02223263642219038,-0.8075818004696182
12063,1.0,300.21821,38394.233,0.0,-0.12063019059378888,0.0,0.0,0.0,0.0,-2.511635532604127,-5.712073518262764,-3.4471790771350865,0.02928784721923547,0.007199133753174182,-0.7843728408340722
12064,1.0,300.173,38211.258,0.0,-0.12064018658120823,0.0,0.0,0.0,0.0,-2.5011944969486777,-5.684810605772125,-3.4292631941669267,0.022473448480706683,0.007202533004609663,-0.8057624187225592
12065,1.0,300.17611,38205.951,0.0,-0.12065018256862747,0.0,0.0,0.0,0.0,-2.4861043658593975,-5.708282746988645,-3.4192678872304665,0.017297234000354083,-0.0002584972447016918,-0.7923033973792573
12066,1.0,299.65958,38206.557,0.0,-0.12066017855604683,0.0,0.0,0.0,0.0,-2.4999767729784974,-5.685186521559224,-3.4286760157339766,-0.014250441612159088,7.493588285234583e-06,-0.7992998791872562
12067,1.0,299.56548,38370.854,0.0,-0.12067017454346629,0.0,0.0,0.0,0.0,-2.516794596813287,-5.703399692106724,-3.4435873081806068,-0.01102168875775599,0.02693051478208487,-0.7770542164217803
12068,1.0,299.90165,38327.525,0.0,-0.120680203520943,0.0,0.0,0.0,0.0,-2.507699359940658,-5.692803223885935,-3.4501079778741466,-0.02077176282551338,-0.0015869503814448084,-0.7977709658463642
12069,1.0,300.01394,38148.907,0.0,-0.12069019950836224,0.0,0.0,0.0,0.0,-2.4945533518182477,-5.677201908121204,-3.4245596872027266,-0.025760230168336774,-0.012784787501510289,-0.7858344541033222
12070,1.0,300.33117999999996,38308.369,0.0,-0.12070019549578159,0.0,0.0,0.0,0.0,-2.502177248220668,-5.710073869190414,-3.4325364986149767,-0.004866923028402905,-0.015851135616635287,-0.7847443388507362
12071,1.0,300.27767,38505.268,0.0,-0.12071019148320083,0.0,0.0,0.0,0.0,-2.554374320497118,-5.703812084897424,-3.4464534887384763,0.009665436071004271,0.013221165948577489,-0.7906785292538953
12072,1.0,300.29506000000003,38464.326,0.0,-0.12072018747062019,0.0,0.0,0.0,0.0,-2.5363088818141972,-5.703752201816514,-3.452133566149057,0.008927062585957482,0.007885518692815102,-0.7897457008143323
12073,1.0,300.86779,38355.553,0.0,-0.12073018345803954,0.0,0.0,0.0,0.0,-2.5214231232700874,-5.706925295829675,-3.430781853416807,-0.0014570420927488585,-0.007945576356717332,-0.7940568570748102
12074,1.0,300.23271,38427.289,0.0,-0.12074017944545878,0.0,0.0,0.0,0.0,-2.5146231005239774,-5.702378032030894,-3.463935396688807,-0.007360223800447534,0.0013670678143440887,-0.7619726168983423
12075,1.0,300.08286,38442.025,0.0,-0.12075017543287814,0.0,0.0,0.0,0.0,-2.5330617192187277,-5.692546466310595,-3.459807517106417,0.003289093620383267,0.027249238680540477,-0.7828603016147963
12076,1.0,300.33444,38406.953,0.0,-0.12076017142029738,0.0,0.0,0.0,0.0,-2.5141242774997474,-5.690849576368124,-3.469780735190697,0.004849171393275955,-0.010441739864269491,-0.7693121142626943
12077,1.0,300.30987000000005,38275.276,0.0,-0.1207702003977742,0.0,0.0,0.0,0.0,-2.509913007434127,-5.689912117375604,-3.434902944223526,-0.012128648280004387,-0.016495887933517382,-0.7944649942150903
12078,1.0,299.79507,38362.427,0.0,-0.12078019638519355,0.0,0.0,0.0,0.0,-2.517646030872318,-5.704779840067935,-3.4387938246075263,-0.0006258591237949864,-0.005966029254426244,-0.7746837380778323
12079,1.0,299.44509,38463.137,0.0,-0.12079019237261279,0.0,0.0,0.0,0.0,-2.5367603860587575,-5.708235428208974,-3.446837409201367,0.012580803031128589,0.025171270441710976,-0.8104116864089063
12080,1.0,299.49395,38452.695,0.0,-0.12080018836003215,0.0,0.0,0.0,0.0,-2.5239736764218077,-5.719425762313374,-3.445259576145647,0.002263910372630558,-0.0014161623148143385,-0.7766448836463822
12081,1.0,300.18334,38330.471,0.0,-0.1208101843474515,0.0,0.0,0.0,0.0,-2.512133747678298,-5.715866113387065,-3.4235063123987666,-0.0037350008740408866,-0.012122412738888989,-0.8027317876734592
12082,1.0,300.5252,38268.684,0.0,-0.12082018033487074,0.0,0.0,0.0,0.0,-2.4821587699699976,-5.720558373275154,-3.430007122390347,0.018253124012193086,-0.01123675413123129,-0.7736370709895343
12083,1.0,300.35759,38371.378,0.0,-0.1208301763222901,0.0,0.0,0.0,0.0,-2.5097312303661874,-5.718047742177374,-3.4361617048227564,0.010309749853243089,0.01220925840495999,-0.7995583896852692
12084,1.0,300.36902000000003,38552.937000000005,0.0,-0.12084017230970934,0.0,0.0,0.0,0.0,-2.5315459983941375,-5.716284889653394,-3.4712990904655467,-0.001748984169861298,-0.0017120628560924488,-0.7806574654998933
12085,1.0,299.65126000000004,38463.383,0.0,-0.12085020128718615,0.0,0.0,0.0,0.0,-2.5229219228180075,-5.714391226541505,-3.454594953291976,-0.008422070185843612,-0.006365977814023094,-0.8027358102763562
12086,1.0,299.64486,38304.856,0.0,-0.12086019727460551,0.0,0.0,0.0,0.0,-2.5114317680090177,-5.697345117459185,-3.434942866277467,0.009950561406743951,0.018021919591124983,-0.7944863940572022
12087,1.0,299.35122,38391.047999999995,0.0,-0.12087019326202464,0.0,0.0,0.0,0.0,-2.5189250564735475,-5.707681585704314,-3.4433134266785768,-0.004168399352563986,0.022013026622016582,-0.7945935553877782
12088,1.0,299.96375,38451.436,0.0,-0.1208801892494441,0.0,0.0,0.0,0.0,-2.5232567006510473,-5.706664181278904,-3.4583555297131174,0.01011622577159375,-0.03483250983345106,-0.7949812147435372
12089,1.0,300.08172,38347.137,0.0,-0.12089018523686346,0.0,0.0,0.0,0.0,-2.5134140905046576,-5.695476785599795,-3.4476812438846465,-0.016598622374406485,-0.03379975568227617,-0.7743033741227933
12090,1.0,299.99208,38403.892,0.0,-0.1209001812242827,0.0,0.0,0.0,0.0,-2.523428041242958,-5.711833681964095,-3.438562499609697,0.005790446690972594,-0.016548819105491285,-0.7872470159352312
12091,1.0,300.22572,38601.945,0.0,-0.12091017721170205,0.0,0.0,0.0,0.0,-2.5496921931100274,-5.725215980009825,-3.4591191149884764,0.003911690615878806,0.016439258398678484,-0.7617641609552692
12092,1.0,299.85200000000003,38604.102,0.0,-0.1209201731991213,0.0,0.0,0.0,0.0,-2.5643636492579875,-5.719413805962195,-3.4509056083528673,-0.026582117854450773,0.0002525187651366618,-0.7799696206695083
12093,1.0,299.99593,38642.894,0.0,-0.120930202176598,0.0,0.0,0.0,0.0,-2.557326829963508,-5.716405770390324,-3.472742059932957,-0.02091222462062588,0.0016401370950939282,-0.7602770137834993
12094,1.0,299.94538,38595.18,0.0,-0.12094019816401747,0.0,0.0,0.0,0.0,-2.533273792464658,-5.719282184774204,-3.479415122441537,-0.002438204385932038,0.016957506440575584,-0.7765425149887794
12095,1.0,299.6901,38465.881,0.0,-0.1209501941514366,0.0,0.0,0.0,0.0,-2.5108437789759877,-5.712278701408015,-3.469544951892426,0.001086382844517639,0.030302005191325074,-0.7943016582989703
12096,1.0,299.4541,38375.842000000004,0.0,-0.12096019013885617,0.0,0.0,0.0,0.0,-2.5121626253061478,-5.704132778554074,-3.4490024206900367,0.006108927713379224,-0.02222188178562898,-0.8062649401096542
12097,1.0,299.37432,38383.962999999996,0.0,-0.12097018612627541,0.0,0.0,0.0,0.0,-2.5297451489914073,-5.7010681023016145,-3.436953053150857,0.007198250908362054,-0.01096080053274679,-0.8037192809559173
12098,1.0,299.11285,38292.631,0.0,-0.12098018211369455,0.0,0.0,0.0,0.0,-2.5262484228963076,-5.704740323314034,-3.4090148094685673,0.015780952848458783,0.0076294773839707935,-0.8129717945090692
12099,1.0,299.86262,38250.703,0.0,-0.12099017810111401,0.0,0.0,0.0,0.0,-2.5052014957941378,-5.703422996859024,-3.4186342006179267,0.01107867394337999,0.015427231291549185,-0.8118975872830533
12100,1.0,299.99461,38387.617999999995,0.0,-0.12100017408853314,0.0,0.0,0.0,0.0,-2.495413094528098,-5.722717203938214,-3.450747034712217,-0.013734276812467588,-0.014202849254962086,-0.7999317014196122
12101,1.0,299.67114,38545.123999999996,0.0,-0.12101020306600996,0.0,0.0,0.0,0.0,-2.5034417843454677,-5.7409691819645445,-3.472344257943697,-0.017516560090499882,-0.01850715391826388,-0.7853919475196502
12102,1.0,299.73863,38592.236000000004,0.0,-0.12102019905342931,0.0,0.0,0.0,0.0,-2.5130677616204773,-5.734894139664985,-3.483114295906617,-0.017565278168557984,-0.001909869641939458,-0.7851075079515782
12103,1.0,300.10807,38623.582,0.0,-0.12103019504084878,0.0,0.0,0.0,0.0,-2.5389473850745974,-5.739510405795574,-3.4621466049622667,-0.004931370902338415,0.01094159133735099,-0.7862019092520873
12104,1.0,300.09577,38468.044,0.0,-0.12104019102826813,0.0,0.0,0.0,0.0,-2.5348324750934874,-5.714206409723265,-3.444285842799547,-0.015003784955508285,-0.01090157707765189,-0.7914179890443742
12105,1.0,300.30007,38490.644,0.0,-0.12105018701568737,0.0,0.0,0.0,0.0,-2.5302126625875476,-5.722604733177114,-3.4473774715046672,-0.001006311110002674,-0.0005156846407341115,-0.7927067215815622
12106,1.0,300.10562999999996,38640.393,0.0,-0.1210601830031065,0.0,0.0,0.0,0.0,-2.5262946271008677,-5.728264849560724,-3.4911549420751666,0.015836831564973584,0.013647483835401786,-0.7976445223663853
12107,1.0,299.47638,38643.977,0.0,-0.12107017899052586,0.0,0.0,0.0,0.0,-2.5311143538515375,-5.730402199321665,-3.485287514721097,0.01993323554625718,0.018017600105948682,-0.7911118861891643
12108,1.0,299.47104,38529.432,0.0,-0.1210801749779451,0.0,0.0,0.0,0.0,-2.5230178776024776,-5.722730984139575,-3.4662363863408965,0.005391920531866125,-0.01070923586416929,-0.7830843818744113
12109,1.0,299.78677000000005,38513.462,0.0,-0.12109020395542192,0.0,0.0,0.0,0.0,-2.553742457734758,-5.711537610284874,-3.441850800159226,-7.278982015379592e-05,-0.014485571364114588,-0.7847755874838203
12110,1.0,299.69929,38580.291,0.0,-0.12110019994284127,0.0,0.0,0.0,0.0,-2.5489413747859273,-5.7180865496562046,-3.4604170883665764,0.012854977362437488,0.02154412588648968,-0.7675367480999793
12111,1.0,299.94279,38677.699,0.0,-0.12111019593026062,0.0,0.0,0.0,0.0,-2.5478852642066974,-5.743964247935135,-3.4652053030391365,0.004273970488433046,0.016551470781002983,-0.8013954931765772
12112,1.0,300.08917,38628.334,0.0,-0.12112019191768009,0.0,0.0,0.0,0.0,-2.5129402947578976,-5.731586486038545,-3.497522307028577,-0.01058264039667529,-0.01104232663579279,-0.7757395649470342
12113,1.0,300.06322,38436.452000000005,0.0,-0.12113018790509922,0.0,0.0,0.0,0.0,-2.4923592600517077,-5.718942138040645,-3.472420251701197,-0.00951026208708979,-0.005819873601701805,-0.7972868754785882
12114,1.0,300.36767000000003,38547.8,0.0,-0.12114018389251846,0.0,0.0,0.0,0.0,-2.5041436626897373,-5.745725479258954,-3.467699620810307,0.02221917539461188,0.004803437336762356,-0.7839713202169453
12115,1.0,300.45754,38704.141,0.0,-0.12115017987993781,0.0,0.0,0.0,0.0,-2.554926643126627,-5.735006306451054,-3.475159674671557,0.011857528897746989,0.009595352196037531,-0.8159938737273252
12116,1.0,300.32158,38670.392,0.0,-0.12116017586735728,0.0,0.0,0.0,0.0,-2.544352263758018,-5.748960584178235,-3.4615208217005065,0.0009162483242016691,-0.014946687299123185,-0.7970793719906092
12117,1.0,300.17798999999997,38504.229,0.0,-0.12117017185477663,0.0,0.0,0.0,0.0,-2.5115362340943275,-5.743725222236544,-3.4490628103959966,0.005190731922485355,-0.008265701681386243,-0.8093673092658342
12118,1.0,299.53044,38605.206,0.0,-0.12118020083225323,0.0,0.0,0.0,0.0,-2.516493458883568,-5.737827904004525,-3.4806971877930666,0.008548102894232072,0.02845475805326597,-0.7922181729133463
12119,1.0,299.33011,38710.703,0.0,-0.12119019681967258,0.0,0.0,0.0,0.0,-2.5254355936660877,-5.749270942683864,-3.492380366746107,-0.0017383883095905682,0.004508577707311976,-0.7882242652591783
12120,1.0,300.00408999999996,38676.165,0.0,-0.12120019280709204,0.0,0.0,0.0,0.0,-2.5458240095282676,-5.731535316908494,-3.4792292923731964,0.0018721614381429486,-0.018873251311894882,-0.7802592176805893
12121,1.0,299.37241,38605.849,0.0,-0.12121018879451118,0.0,0.0,0.0,0.0,-2.5498541104760077,-5.734776906628415,-3.4505830908460364,-0.0042925543058671255,-0.006869501102816973,-0.7749917357107293
12122,1.0,300.47776,38612.481,0.0,-0.12122018478193042,0.0,0.0,0.0,0.0,-2.5559126367989378,-5.7292519578081444,-3.4520654757423364,0.017023259279314883,0.015145600452754385,-0.7898889743784723
12123,1.0,300.12789,38630.019,0.0,-0.12123018076934977,0.0,0.0,0.0,0.0,-2.536521866985218,-5.736173773216274,-3.469865442899057,-1.4316250179653886e-05,-0.0030534858170305876,-0.7973974007994963
12124,1.0,300.15246,38744.187000000005,0.0,-0.12124017675676912,0.0,0.0,0.0,0.0,-2.5311340109034774,-5.751910864494405,-3.4942204289277066,-0.02371043838828808,0.0032670496551826973,-0.8054852137602012
12125,1.0,300.01853,38771.119,0.0,-0.12125017274418859,0.0,0.0,0.0,0.0,-2.545658241811908,-5.746892236749104,-3.4929016839225566,-0.004486486524656746,0.007508599990766122,-0.7980011256065793
12126,1.0,299.85232,38621.605,0.0,-0.1212602017216653,0.0,0.0,0.0,0.0,-2.5393432618886678,-5.734020211453735,-3.466639963855726,-0.003200624322352027,0.022618335139005876,-0.7966008342333812
12127,1.0,299.74596,38636.149,0.0,-0.12127019770908454,0.0,0.0,0.0,0.0,-2.5485889664011476,-5.739680631812374,-3.4561549531459366,0.0033872902206995167,0.00028882085137189867,-0.7863067502399342
12128,1.0,300.17367,38687.632000000005,0.0,-0.12128019369650389,0.0,0.0,0.0,0.0,-2.5399484761733975,-5.735825012531854,-3.4843007104487067,-0.002981315964082977,-0.024309724146682976,-0.7891281552758852
12129,1.0,300.0082,38654.108,0.0,-0.12129018968392313,0.0,0.0,0.0,0.0,-2.5125391490433078,-5.745058355393115,-3.4922862358118167,0.014090342016858486,-0.00041417537120342664,-0.7785383643732543
12130,1.0,301.14356000000004,38694.581,0.0,-0.12130018567134238,0.0,0.0,0.0,0.0,-2.512275298717268,-5.745487162835435,-3.5044240600847263,-0.014400574879476087,0.01145708333897609,-0.8086253062176043
12131,1.0,301.10202999999996,38694.016,0.0,-0.12131018165876173,0.0,0.0,0.0,0.0,-2.5332021556825874,-5.742284988544404,-3.4865273275434565,-0.005037607439548145,-0.0002601675976240427,-0.7809120851175223
12132,1.0,300.4029,38589.672999999995,0.0,-0.12132017764618108,0.0,0.0,0.0,0.0,-2.5400877980621477,-5.743202689159975,-3.447006520643057,-0.026793357195548474,-0.006286788164382683,-0.8171437200733063
12133,1.0,299.84475,38662.633,0.0,-0.12133017363360044,0.0,0.0,0.0,0.0,-2.543302435329408,-5.754607325660524,-3.454565366389057,0.007919226179916772,0.014399500834370086,-0.7918579726352972
12134,1.0,299.77225,38727.062000000005,0.0,-0.12134020261107725,0.0,0.0,0.0,0.0,-2.5446970727670477,-5.760881876904774,-3.4664808835900263,0.014628376806708384,0.0072882830433475335,-0.8241642969686832
12135,1.0,300.09481,38824.032,0.0,-0.1213501985984965,0.0,0.0,0.0,0.0,-2.5264758975437576,-5.770001026479765,-3.5050592665724163,0.014223703968520286,-0.016257030434443983,-0.7883842067874632
12136,1.0,300.20864,38720.823,0.0,-0.12136019458591585,0.0,0.0,0.0,0.0,-2.5282411818679775,-5.746556344340954,-3.4953658068407463,0.004473421576542336,-0.022280951226708683,-0.7907084302643462
12137,1.0,299.58583,38681.285,0.0,-0.12137019057333509,0.0,0.0,0.0,0.0,-2.5329447901571873,-5.749521418108585,-3.4756786613727764,0.028197773509903577,0.005817934848960464,-0.7727749775394523
12138,1.0,300.08425,38845.891,0.0,-0.12138018656075422,0.0,0.0,0.0,0.0,-2.5787985115075975,-5.739079267878025,-3.4903030013910863,0.009717172722435281,0.024110938662564377,-0.7685519031101673
12139,1.0,300.45549,38791.863,0.0,-0.1213901825481738,0.0,0.0,0.0,0.0,-2.5738374363679775,-5.734143321340885,-3.4837768601470067,-0.0025728525572707777,-0.0023000652640237677,-0.7750613966551043
12140,1.0,299.77496,38593.784,0.0,-0.12140017853559304,0.0,0.0,0.0,0.0,-2.530465873787538,-5.730487312330065,-3.4705934630959066,-0.023016931516344277,-0.013088878042021686,-0.7848319545868833
12141,1.0,299.57684,38726.461,0.0,-0.12141017452301239,0.0,0.0,0.0,0.0,-2.536275140585868,-5.734496641650754,-3.501105564682217,-0.0018949695965689382,0.016475838753788684,-0.8021318220242473
12142,1.0,299.52873999999997,38884.092000000004,0.0,-0.12142020350048921,0.0,0.0,0.0,0.0,-2.5548681785958576,-5.766815266840354,-3.4981094854615264,-0.0002026034814229068,0.008967826752055591,-0.8138438684726362
12143,1.0,300.11846,38795.43,0.0,-0.12143019948790845,0.0,0.0,0.0,0.0,-2.5574700022026375,-5.764007550813254,-3.4713646477470173,0.006176439756942144,-0.01807602106696438,-0.8188691026085883
12144,1.0,300.3632,38755.057,0.0,-0.1214401954753278,0.0,0.0,0.0,0.0,-2.557115162017618,-5.771057035733985,-3.4523975178001067,0.0005876427244108215,-0.007447580955169013,-0.8115426457730232
12145,1.0,300.38776,38732.102,0.0,-0.12145019146274694,0.0,0.0,0.0,0.0,-2.5482367606663874,-5.766314214665904,-3.4590407907557466,0.013800451163248486,0.010885993291113888,-0.7908595159867573
12146,1.0,300.44092,38804.367999999995,0.0,-0.1214601874501664,0.0,0.0,0.0,0.0,-2.5197321101781975,-5.783311485093404,-3.492515230334417,0.01079333663571939,0.006057567484360364,-0.8062274802534573
12147,1.0,300.08194,38825.797,0.0,-0.12147018343758575,0.0,0.0,0.0,0.0,-2.5179894213312077,-5.765914588826465,-3.5181687976912266,-0.017135775636669383,-0.023120725816837977,-0.7776575460613242
12148,1.0,300.00984,38822.539,0.0,-0.121480179425005,0.0,0.0,0.0,0.0,-2.5321755306812674,-5.774452842119125,-3.494454084400767,-0.009158802205728402,-0.005024249864804855,-0.7876012076401873
12149,1.0,299.90722,38646.769,0.0,-0.12149017541242435,0.0,0.0,0.0,0.0,-2.5393801441923074,-5.7492164298284845,-3.459056293482276,0.002149087047448378,0.015815643492132485,-0.7808254724989743
12150,1.0,299.17062000000004,38655.854,0.0,-0.12150020438990117,0.0,0.0,0.0,0.0,-2.5466640951861774,-5.760581549575135,-3.4431686332392863,-7.838316234256583e-05,0.014784240003340885,-0.8043442333525953
12151,1.0,299.36852999999996,38876.804,0.0,-0.1215102003773203,0.0,0.0,0.0,0.0,-2.572550406090958,-5.767747051632315,-3.4772801031558265,-0.013362464688272587,-0.005371626145613225,-0.7845048875871042
12152,1.0,299.45784,38858.695,0.0,-0.12152019636473976,0.0,0.0,0.0,0.0,-2.541381921089868,-5.768040792836304,-3.502650264459667,0.01105976264351359,0.004833647996443915,-0.8008086592486613
12153,1.0,300.14591,38714.234,0.0,-0.1215301923521589,0.0,0.0,0.0,0.0,-2.5356739793015373,-5.752770303229224,-3.4797160577212365,0.015452493643042383,0.018080382095394785,-0.8024124112419393
12154,1.0,300.51499,38871.758,0.0,-0.12154018833957836,0.0,0.0,0.0,0.0,-2.5613167048822776,-5.756349102582424,-3.498377996738027,0.0009007610294706922,-0.004690029521969875,-0.7863628538979712
12155,1.0,300.59212,39005.316,0.0,-0.12155018432699771,0.0,0.0,0.0,0.0,-2.6068959367805977,-5.7622332485631444,-3.4875129159157265,-0.014888511544631684,-0.012734287116526289,-0.7997226881889843
12156,1.0,300.22561,38856.651,0.0,-0.12156018031441684,0.0,0.0,0.0,0.0,-2.5887919945938775,-5.754262617976504,-3.4683969395291268,-0.012729348535538886,0.009392587374801201,-0.7700102131840912
12157,1.0,300.63779,38868.166,0.0,-0.12157017630183631,0.0,0.0,0.0,0.0,-2.560455948922327,-5.763878462750514,-3.4906176155471367,0.008661577583531152,0.025915269592637975,-0.7837480708224123
12158,1.0,300.53732,38827.047,0.0,-0.12158017228925544,0.0,0.0,0.0,0.0,-2.5291975886373677,-5.768107971317935,-3.5051471153560865,-0.0012495066873917087,-0.008931819896501991,-0.7787164532108303
12159,1.0,300.74682,38735.617999999995,0.0,-0.12159020126673226,0.0,0.0,0.0,0.0,-2.503816180257418,-5.769184042924135,-3.501660420436976,-0.004193100870126837,-0.02659509252198127,-0.7807397819380173
12160,1.0,299.77464,38741.661,0.0,-0.12160019725415161,0.0,0.0,0.0,0.0,-2.5229536375461374,-5.7808975180551645,-3.472646307798507,0.012304394483349187,-0.006958923565217284,-0.8080043662913222
12161,1.0,299.51207,38822.936,0.0,-0.12161019324157085,0.0,0.0,0.0,0.0,-2.5520251001402676,-5.777741953268735,-3.471436183204076,0.018042982020953682,0.011331086702291188,-0.8033479247942672
12162,1.0,300.04128,38764.587999999996,0.0,-0.1216201892289902,0.0,0.0,0.0,0.0,-2.5565752010393274,-5.782055257619424,-3.4448364429038865,-0.008948131196611793,-0.007793889675672023,-0.8209704414609742
12163,1.0,300.04897,38797.02,0.0,-0.12163018521640967,0.0,0.0,0.0,0.0,-2.5436409621878178,-5.789196340349195,-3.4604878132235566,-0.010774692833879388,-0.015222116034055884,-0.7888337047968252
12164,1.0,299.91532,38937.222,0.0,-0.1216401812038288,0.0,0.0,0.0,0.0,-2.5335691548688075,-5.786345155892804,-3.5160288134800264,-0.003957127486138076,0.02049244624994698,-0.7913823935683613
12165,1.0,300.09448,38990.476,0.0,-0.12165017719124827,0.0,0.0,0.0,0.0,-2.5433423573833474,-5.784094220795654,-3.5246946349602766,0.007523505710337203,0.017493107403685284,-0.7707426207538742
12166,1.0,300.47801,38926.818999999996,0.0,-0.1216601731786674,0.0,0.0,0.0,0.0,-2.554617804496148,-5.766245718959144,-3.511917551199277,0.004923838705070045,-0.02152122542097958,-0.7971981958298362
12167,1.0,300.38919,38909.36,0.0,-0.12167020215614421,0.0,0.0,0.0,0.0,-2.5885817451981272,-5.751343444438404,-3.4875486836442566,-0.005133839449245505,-0.01151817218750509,-0.7714445700256513
12168,1.0,300.77504,38976.401,0.0,-0.12168019814356357,0.0,0.0,0.0,0.0,-2.5875351591698377,-5.7843913057249745,-3.475926097047197,0.00989650846558434,0.008619890954542003,-0.7963007095537612
12169,1.0,300.59798,38891.916,0.0,-0.12169019413098303,0.0,0.0,0.0,0.0,-2.5703767819764374,-5.7603881201310445,-3.4914064307499864,0.01059103416050369,0.016421238758900083,-0.7799156347041802
12170,1.0,300.1848,38907.166,0.0,-0.12170019011840216,0.0,0.0,0.0,0.0,-2.5581343902932074,-5.778624595430845,-3.490047966340917,-0.02380761920537908,-0.013932772507057588,-0.7923404823329172
12171,1.0,300.0204,38967.328,0.0,-0.12171018610582152,0.0,0.0,0.0,0.0,-2.5595983340376876,-5.773962631720744,-3.5115336307363862,-0.0059608527623153645,-0.015307845098516687,-0.7933394760040102
12172,1.0,300.05316,38835.094,0.0,-0.12172018209324076,0.0,0.0,0.0,0.0,-2.5658605236307177,-5.757928962138345,-3.481109479258757,0.014076738121015887,0.014336472625149687,-0.7874043432782583
12173,1.0,299.77521,38914.105,0.0,-0.12173017808066011,0.0,0.0,0.0,0.0,-2.5531238685487074,-5.7990016628919046,-3.4767907033575263,0.011519809599666688,0.025191345965942274,-0.8159680966447812
12174,1.0,300.54652000000004,39099.155,0.0,-0.12174017406807935,0.0,0.0,0.0,0.0,-2.6110991008454176,-5.783095054872045,-3.4909725570571672,0.004141960111079636,-0.017430424712748985,-0.7901238254866503
12175,1.0,299.85312000000005,39026.883,0.0,-0.12175020304555617,0.0,0.0,0.0,0.0,-2.5591243356409077,-5.796176113663044,-3.507897380102517,-0.003000040217980917,0.005061489136455086,-0.8028348250761282
12176,1.0,299.17111,38885.252,0.0,-0.12176019903297552,0.0,0.0,0.0,0.0,-2.530977362438018,-5.800649916829574,-3.488518262664947,0.013321235541703587,0.017108586083485984,-0.7901995355341223
12177,1.0,300.00182,38797.577000000005,0.0,-0.12177019502039488,0.0,0.0,0.0,0.0,-2.5203172621109475,-5.770825710736154,-3.502351760980207,0.004016759686323317,0.006583140412555374,-0.8161716383248692
12178,1.0,299.84892,38793.722,0.0,-0.12178019100781412,0.0,0.0,0.0,0.0,-2.518927386948777,-5.801391109277724,-3.4720043125351467,-0.012556690718498888,-0.033930041406634366,-0.8019246529088012
12179,1.0,300.22472999999997,38805.982,0.0,-0.12179018699523347,0.0,0.0,0.0,0.0,-2.541085545435618,-5.790812879558735,-3.4641512189601067,-0.0015472525597519386,-0.014888454802626086,-0.8284882505779242
12180,1.0,300.63916,38845.12,0.0,-0.12180018298265272,0.0,0.0,0.0,0.0,-2.548914118358238,-5.775438734466424,-3.4835935632039168,0.012920287410883089,0.014852000090528287,-0.7893972846349463
12181,1.0,300.10739,38850.699,0.0,-0.12181017897007207,0.0,0.0,0.0,0.0,-2.5441315778862377,-5.790528460255665,-3.4749822545790465,-0.0006160892042107703,-0.005133780275439665,-0.8118175810551572
12182,1.0,300.14144,39089.826,0.0,-0.12182017495749142,0.0,0.0,0.0,0.0,-2.5621794873424273,-5.784500432760744,-3.5356512122666066,-0.021867699199923877,-0.03126368390098537,-0.7826586344473933
12183,1.0,300.32947,39218.216,0.0,-0.12183020393496802,0.0,0.0,0.0,0.0,-2.5931217135961875,-5.801921444380065,-3.5263151258452066,-0.0028283861264899774,0.007691153309607732,-0.7946014384735562
12184,1.0,299.24875,39094.221,0.0,-0.12184019992238748,0.0,0.0,0.0,0.0,-2.580530257253508,-5.794274141900335,-3.508862703472787,0.013525380105601089,0.02044840533435048,-0.7833055439737382
12185,1.0,300.09915,38993.613,0.0,-0.12185019590980684,0.0,0.0,0.0,0.0,-2.5863201709749273,-5.7785939952778245,-3.488170515230626,-0.01922951308680518,0.005299585684703385,-0.7913659383867372
12186,1.0,299.47749,38988.832,0.0,-0.12186019189722608,0.0,0.0,0.0,0.0,-2.569537405593598,-5.785660502800235,-3.496433367146107,-0.017249594020402385,-0.02619365296486227,-0.7794805552437413
12187,1.0,299.35992999999996,39011.979,0.0,-0.12187018788464543,0.0,0.0,0.0,0.0,-2.5695367976435377,-5.7678918450716035,-3.5212388441692166,-0.0099225394686034,0.015295517897800088,-0.7768975071613143
12188,1.0,300.39027999999996,38926.635,0.0,-0.12188018387206467,0.0,0.0,0.0,0.0,-2.5456348357345977,-5.771951228947235,-3.5151390785672167,0.0073183564076405435,0.03161623211427917,-0.7839471947320643
12189,1.0,300.20361,38815.931000000004,0.0,-0.12189017985948403,0.0,0.0,0.0,0.0,-2.5274736449172273,-5.786135109147074,-3.4854649348136073,-0.0016782713705574884,0.0017446160486801986,-0.8101620418492683
12190,1.0,299.81055,38883.102999999996,0.0,-0.12190017584690338,0.0,0.0,0.0,0.0,-2.547358982104758,-5.778210784090004,-3.4939225333983064,0.001079378854526399,-0.016341389584769585,-0.7895816860206453
12191,1.0,299.75962999999996,39089.206,0.0,-0.1219102048243802,0.0,0.0,0.0,0.0,-2.567172783835227,-5.824830826491045,-3.4901389561998966,0.006977216478547654,5.597130325593754e-05,-0.8160727755126123
12192,1.0,299.37393,39193.031,0.0,-0.12192020081179955,0.0,0.0,0.0,0.0,-2.5763256746385474,-5.818654459181485,-3.5187226401958864,0.020025018780065483,-0.005904798044258194,-0.7864726598113083
12193,1.0,300.30245,39092.197,0.0,-0.12193019679921879,0.0,0.0,0.0,0.0,-2.564107195657677,-5.806125115069935,-3.5128195464382967,-0.02088929173111258,-0.027529173338667872,-0.8137057928815092
12194,1.0,301.01198999999997,38918.511,0.0,-0.12194019278663792,0.0,0.0,0.0,0.0,-2.5381846103993175,-5.808002870155255,-3.484067966900737,-0.014956942403385286,-0.03993080031486316,-0.8020376302949512
12195,1.0,300.51432,39014.615,0.0,-0.12195018877405739,0.0,0.0,0.0,0.0,-2.5606993315963473,-5.787561157337814,-3.511208174804267,-0.0022990854511770677,0.02028542810876588,-0.8213295980914203
12196,1.0,300.62404,39170.679,0.0,-0.12196018476147652,0.0,0.0,0.0,0.0,-2.588679422507768,-5.809634405466274,-3.5085945974963266,0.01094574566276099,0.02940435375548377,-0.8066364887888233
12197,1.0,300.00969,39006.484,0.0,-0.12197018074889598,0.0,0.0,0.0,0.0,-2.5653133685767178,-5.7882779304585545,-3.503405946384247,-0.004738455783999175,-0.006198362942730794,-0.8061864537569082
12198,1.0,299.49679,38969.74,0.0,-0.12198017673631534,0.0,0.0,0.0,0.0,-2.5652658471470273,-5.767843817016865,-3.512718221428297,0.006841893583967323,-0.015410273537875585,-0.7829557903042202
12199,1.0,299.23774,39149.88,0.0,-0.12199017272373458,0.0,0.0,0.0,0.0,-2.5731108347212674,-5.7926293330130045,-3.5348456784371067,0.023861103611907578,0.03337742493459537,-0.7718470127003692
12200,1.0,299.99889,39364.447,0.0,-0.12200020170121151,0.0,0.0,0.0,0.0,-2.621110214483437,-5.784212669732344,-3.560486073542617,0.011804717289284887,0.014323030849323088,-0.7766363014180353
12201,1.0,299.90721,39369.004,0.0,-0.12201019768863075,0.0,0.0,0.0,0.0,-2.6066020942515977,-5.818403375806704,-3.5421887019118072,-0.015824066640213786,-0.018839947807608084,-0.7849720566782102
12202,1.0,300.5343,39159.962,0.0,-0.12202019367604988,0.0,0.0,0.0,0.0,-2.6019546200179273,-5.803905996025924,-3.497789906379986,-0.008683928360862,-0.007938977261466054,-0.7870301500163283
12203,1.0,299.98011,39097.453,0.0,-0.12203018966346935,0.0,0.0,0.0,0.0,-2.5790259861550475,-5.801202340784095,-3.504421121659436,0.0077625817674571735,0.036378463001274765,-0.7754586109593062
12204,1.0,300.50288,39180.421,0.0,-0.12204018565088848,0.0,0.0,0.0,0.0,-2.583586320880118,-5.820610335849515,-3.5056727895079667,0.0005925686397719714,-0.009336087029350052,-0.8002666515051692
12205,1.0,300.1849,39148.756,0.0,-0.12205018163830805,0.0,0.0,0.0,0.0,-2.5527711561888977,-5.815680164837945,-3.5317929585358265,-0.016724891575368286,-0.02884954359697827,-0.8005428330849262
12206,1.0,299.49111,38897.591,0.0,-0.1220601776257273,0.0,0.0,0.0,0.0,-2.5259262093645076,-5.802239098286415,-3.4957310835017967,0.0005942864431965054,-0.012870646261983887,-0.8131509776567533
12207,1.0,299.64502999999996,38770.841,0.0,-0.12207017361314643,0.0,0.0,0.0,0.0,-2.514786537765108,-5.810845948610845,-3.4597351710492767,0.01996978753036458,0.03474230017704807,-0.8326758004587032
12208,1.0,299.78873,38978.252,0.0,-0.12208020259062347,0.0,0.0,0.0,0.0,-2.5530667212430678,-5.799561382247144,-3.4957873188823467,0.001113957534064049,0.007627047914206023,-0.8171678962206922
12209,1.0,300.02808,39218.489,0.0,-0.1220901985780426,0.0,0.0,0.0,0.0,-2.5738218323164377,-5.832582899031115,-3.515036638982107,-0.014433707144495987,-0.02642430921762627,-0.8193084377194473
12210,1.0,299.5687,39059.122,0.0,-0.12210019456546184,0.0,0.0,0.0,0.0,-2.5410781487098872,-5.809729347000645,-3.5221901846881067,0.001906551551836988,0.0007542441936156063,-0.7938155414309943
12211,1.0,300.06426,38948.727,0.0,-0.12211019055288119,0.0,0.0,0.0,0.0,-2.5204678310758077,-5.795190018665724,-3.5237827098702765,0.011385822472693189,0.01362158820259609,-0.8030518936450511
12212,1.0,299.54299,39219.937999999995,0.0,-0.12212018654030066,0.0,0.0,0.0,0.0,-2.5607758319788974,-5.8407877930408745,-3.5203181038033464,0.005050905333860545,-0.01201087011488059,-0.7990466578547653
12213,1.0,300.12906,39335.672999999995,0.0,-0.12213018252772001,0.0,0.0,0.0,0.0,-2.6042240975919078,-5.819835604823054,-3.533002677830217,-0.02974740882859067,-0.014812351614115286,-0.8077355611722933
12214,1.0,300.08239,39192.279,0.0,-0.12214017851513925,0.0,0.0,0.0,0.0,-2.5875156034429074,-5.829974793273715,-3.4959838894017468,0.00813609402399496,0.015086903887711486,-0.8037998647363702
12215,1.0,300.40689,39042.413,0.0,-0.12215017450255838,0.0,0.0,0.0,0.0,-2.5709354880815773,-5.804320719291854,-3.4926624555739463,0.008427805181409611,0.04239875635818146,-0.7975996657844582
12216,1.0,300.42947999999996,39142.473,0.0,-0.12216020348003542,0.0,0.0,0.0,0.0,-2.564439440365468,-5.801520805290524,-3.532374158793186,-0.014345432795783986,0.003908216485260936,-0.7763101260783443
12217,1.0,300.65401,39209.818999999996,0.0,-0.12217019946745455,0.0,0.0,0.0,0.0,-2.5715568130428976,-5.813623571109974,-3.5336253200166667,-0.0071360386694471825,-0.03267262843003737,-0.7954521835225182
12218,1.0,299.49326,39298.625,0.0,-0.1221801954548738,0.0,0.0,0.0,0.0,-2.591203529831877,-5.810994997700554,-3.5436021858013067,0.0005086970045994855,0.011714361724867488,-0.7742226180898233
12219,1.0,300.31942999999995,39309.439,0.0,-0.12219019144229315,0.0,0.0,0.0,0.0,-2.6115305427379973,-5.820490569687694,-3.5170666855574564,0.024674269241160774,0.025990715181833872,-0.8006443810099482
12220,1.0,300.29143999999997,39192.142,0.0,-0.1222001874297125,0.0,0.0,0.0,0.0,-2.5877822908692276,-5.806552098662074,-3.519098049357937,0.009046423853037522,-0.015488899719135385,-0.7876383837863562
12221,1.0,299.96013,39247.733,0.0,-0.12221018341713197,0.0,0.0,0.0,0.0,-2.592012407386708,-5.805835122891315,-3.5324832858289565,0.0028433018772370472,-0.016987013296737682,-0.7924892173150963
12222,1.0,299.75165,39347.379,0.0,-0.1222201794045511,0.0,0.0,0.0,0.0,-2.5818570069344475,-5.824419852250485,-3.5543439540864368,0.006884794694526333,0.008994523865690392,-0.7938738742392513
12223,1.0,299.74202,39165.314,0.0,-0.12223017539197034,0.0,0.0,0.0,0.0,-2.5642827919000077,-5.815742277069074,-3.5252525304653366,-0.0001378263417349009,0.0052261379207296545,-0.8058031311115772
12224,1.0,299.7804,39010.441,0.0,-0.12224020436944727,0.0,0.0,0.0,0.0,-2.5488389352008176,-5.813117959310075,-3.4962430787773267,-0.015794214265767586,-0.02355483458368118,-0.8300495879220162
12225,1.0,300.23987999999997,39086.823,0.0,-0.12225020035686651,0.0,0.0,0.0,0.0,-2.5652629087217376,-5.8227764619132945,-3.493378823394646,-0.01173102968901249,-0.03102162047859557,-0.8310966096478491
12226,1.0,299.88018999999997,39071.407,0.0,-0.12226019634428575,0.0,0.0,0.0,0.0,-2.5679611937380376,-5.810489081925624,-3.4982818393035364,0.0014369688989927887,0.03915036165058986,-0.8263297542873972
12227,1.0,299.97681,39085.549,0.0,-0.12227019233170533,0.0,0.0,0.0,0.0,-2.5346998406553976,-5.838863225800935,-3.5074680660351465,0.015982798347879384,0.02435446116509818,-0.7974760999347632
12228,1.0,300.60562000000004,39184.858,0.0,-0.12228018831912446,0.0,0.0,0.0,0.0,-2.5544508208796675,-5.832011121999685,-3.524756544541386,0.006149403508498874,-0.0024575334488146677,-0.8061261653759583
12229,1.0,300.1658,39184.216,0.0,-0.12229018430654393,0.0,0.0,0.0,0.0,-2.5569249749738474,-5.830997973224695,-3.523100184602917,0.005010195275317776,-0.004813678154198046,-0.7791890837199752
12230,1.0,299.65821,39301.751000000004,0.0,-0.12230018029396306,0.0,0.0,0.0,0.0,-2.5932378320576475,-5.845766296082215,-3.507746912462667,0.019578882734535282,0.01967610712138058,-0.8058823774018983
12231,1.0,300.00304,39465.291,0.0,-0.1223101762813823,0.0,0.0,0.0,0.0,-2.620135265237218,-5.833487934020434,-3.5428397151010564,-0.0023314452143207275,0.01348625851924009,-0.7716014515386344
12232,1.0,299.50383999999997,39435.445,0.0,-0.12232020525885923,0.0,0.0,0.0,0.0,-2.621047696952268,-5.848374300514604,-3.5179686807964767,-0.02131024243215718,-0.017571307006652985,-0.7960970969461661
12233,1.0,300.36407,39288.49,0.0,-0.12233020124627847,0.0,0.0,0.0,0.0,-2.5831559935626474,-5.821195690432285,-3.538368242409757,0.0012911446803760588,-0.008674854300916463,-0.7746512634121273
12234,1.0,300.57675,39248.388,0.0,-0.12234019723369782,0.0,0.0,0.0,0.0,-2.5874805449894476,-5.809259300279255,-3.533789973157917,-0.008116917353927371,0.03586218471757206,-0.7871429956799653
12235,1.0,300.44915,39303.418,0.0,-0.12235019322111718,0.0,0.0,0.0,0.0,-2.5871373571805774,-5.824313157014954,-3.5358071514569964,0.01129739410996599,-0.0016855752825783283,-0.7822385612209353
12236,1.0,300.56928,39254.685,0.0,-0.12236018920853642,0.0,0.0,0.0,0.0,-2.5870444421464076,-5.826677778773324,-3.5187217282707968,-0.026723369984641275,-0.02790431196294118,-0.8147683375988742
12237,1.0,300.6419,39254.717000000004,0.0,-0.12237018519595577,0.0,0.0,0.0,0.0,-2.587568799073158,-5.832874309759874,-3.512010668883467,0.0022708400913894677,-0.017228961208616084,-0.8090853318955051
12238,1.0,300.26018999999997,39236.649,0.0,-0.12238018118337501,0.0,0.0,0.0,0.0,-2.5779033050442473,-5.836500225242725,-3.5125580265874863,0.0072240399472572325,0.006804796977931174,-0.8159962852625633
12239,1.0,300.27664,39282.492999999995,0.0,-0.12239017717079415,0.0,0.0,0.0,0.0,-2.5688333994241175,-5.839593069847965,-3.5324705188776964,-0.0015259756248770687,-0.003298125225149617,-0.7810979354508643
12240,1.0,299.67503,39181.178,0.0,-0.12240020614827118,0.0,0.0,0.0,0.0,-2.5402449531526576,-5.851481938571304,-3.518372866261367,-0.025982708479543676,-0.02202641976183838,-0.8149570858275021
12241,1.0,299.89108999999996,39249.367999999995,0.0,-0.12241020213569043,0.0,0.0,0.0,0.0,-2.5653199547023675,-5.8366036780779345,-3.5289040811757166,-0.0006735379213580173,0.0004502175891855166,-0.8018769186965902
12242,1.0,300.41726,39221.079,0.0,-0.12242019812310978,0.0,0.0,0.0,0.0,-2.5591241329908874,-5.846741346653444,-3.5163631860130264,0.0034707331902846966,0.04738615269564916,-0.8149242970542662
12243,1.0,299.72449,39214.984,0.0,-0.12243019411052913,0.0,0.0,0.0,0.0,-2.5943007314125475,-5.838551752720194,-3.487523453716767,0.005471644468284265,0.015007364768111587,-0.8069429564140691
12244,1.0,299.51676000000003,39326.337999999996,0.0,-0.12244019009794838,0.0,0.0,0.0,0.0,-2.5885059540906474,-5.827575923661964,-3.5381429969125264,-0.012586473178688187,-0.006837417146350534,-0.8086824839207473
12245,1.0,299.69493,39246.96,0.0,-0.12245018608536773,0.0,0.0,0.0,0.0,-2.5825682071796376,-5.824846835842624,-3.522680699061517,-0.000978935969930958,-0.01291112762997909,-0.7954316449429912
12246,1.0,299.36177999999995,39220.047,0.0,-0.12246018207278697,0.0,0.0,0.0,0.0,-2.5514766278611374,-5.821718527483885,-3.548719706756367,-0.0025516330736765776,0.005377403292383385,-0.7961598373923582
12247,1.0,299.83024,39380.415,0.0,-0.12247017806020633,0.0,0.0,0.0,0.0,-2.6016120401591176,-5.832357552208874,-3.5366932386694465,-0.007903771886741554,-0.016985516726339984,-0.8039668990153552
12248,1.0,299.92007,39480.131,0.0,-0.12248017404762568,0.0,0.0,0.0,0.0,-2.6111882668542177,-5.8517221801700146,-3.5380634567796765,-0.00951401486148516,-0.01059963564060259,-0.8031754189647422
12249,1.0,300.22555,39443.047999999995,0.0,-0.12249020302510227,0.0,0.0,0.0,0.0,-2.629351281521768,-5.840375400250174,-3.5199748146694665,0.005513830629572714,-0.0017250484667240282,-0.8033383191833192
12250,1.0,300.30589,39406.457,0.0,-0.12250019901252174,0.0,0.0,0.0,0.0,-2.6048791637815576,-5.851432187991394,-3.5222676983207566,0.020671833060901083,0.015176597799813587,-0.7761093100410252
12251,1.0,301.10077,39336.114,0.0,-0.12251019499994109,0.0,0.0,0.0,0.0,-2.5961268107427675,-5.837257832342495,-3.5238117901481467,0.007568490164426823,-0.00978429699518493,-0.7887512566361883
12252,1.0,300.11222999999995,39384.741,0.0,-0.12252019098736033,0.0,0.0,0.0,0.0,-2.5770095171310374,-5.848641190590945,-3.546327017970227,-0.0032690752434576067,-0.01721824203580818,-0.7824101044628653
12253,1.0,299.38812,39383.011,0.0,-0.12253018697477969,0.0,0.0,0.0,0.0,-2.5704633135349777,-5.860830791943965,-3.540157743411367,0.010951720798600689,0.0018059227459806984,-0.8325916601703993
12254,1.0,300.12231,39317.207,0.0,-0.12254018296219882,0.0,0.0,0.0,0.0,-2.5816432111633474,-5.843422141975864,-3.5263839255269964,-0.001123801461435569,0.03170483374277347,-0.8157322221540022
12255,1.0,299.98211000000003,39159.0,0.0,-0.12255017894961828,0.0,0.0,0.0,0.0,-2.5679140776083877,-5.824518745460245,-3.5109253767013566,0.0006054052215788434,0.008364851142096532,-0.8196703909201692
12256,1.0,299.27053,39185.366,0.0,-0.12256017493703764,0.0,0.0,0.0,0.0,-2.5577424651545275,-5.841703163181215,-3.511927177075227,-0.0010871735848956789,0.0022694651110037674,-0.8182038836529363
12257,1.0,299.5202,39424.451,0.0,-0.12257020391451445,0.0,0.0,0.0,0.0,-2.5764562825764377,-5.851155368064074,-3.5564371261430168,0.016957050478030585,0.01225993205571109,-0.8093380364704452
12258,1.0,299.89804,39412.789,0.0,-0.12258019990193358,0.0,0.0,0.0,0.0,-2.5664881307426577,-5.860557315741974,-3.5534582721740264,0.012458713486829288,-0.007909052135662674,-0.8156818737565332
12259,1.0,300.03434,39366.902,0.0,-0.12259019588935305,0.0,0.0,0.0,0.0,-2.5803454404352677,-5.857907768055485,-3.5283021092913067,-8.484855620340053e-05,-0.01763511845820068,-0.8009188501970362
12260,1.0,300.92643,39508.05,0.0,-0.12260019187677218,0.0,0.0,0.0,0.0,-2.6137963726116173,-5.857975149187135,-3.5376890608677267,-0.016423940083666683,-0.01161960865501609,-0.8117227712433003
12261,1.0,299.91512,39452.122,0.0,-0.12261018786419164,0.0,0.0,0.0,0.0,-2.6170393808816774,-5.855536864146495,-3.519883723485476,-0.0004598924152478476,-0.0021948084383357283,-0.7770751603013473
12262,1.0,300.45763999999997,39401.485,0.0,-0.12262018385161078,0.0,0.0,0.0,0.0,-2.581276515952158,-5.857016513267524,-3.5387746570248666,-0.005620557377180825,0.01038218406314179,-0.7982426033704112
12263,1.0,299.94967,39370.621,0.0,-0.12263017983903024,0.0,0.0,0.0,0.0,-2.5859495240883477,-5.851610418683985,-3.5301255541712666,0.006010411432656425,-0.015159079718834683,-0.7738125456418523
12264,1.0,299.3514,39361.896,0.0,-0.1226401758264496,0.0,0.0,0.0,0.0,-2.5792585270529975,-5.852766334398065,-3.533008757330817,0.012637034358678186,-0.01766426155757688,-0.8157994411656362
12265,1.0,299.75955,39362.011,0.0,-0.12265020480392641,0.0,0.0,0.0,0.0,-2.6010151345252077,-5.846078579763035,-3.517974658972067,0.018006442195847485,0.018457198661833683,-0.7874868522339012
12266,1.0,299.72577,39429.324,0.0,-0.12266020079134554,0.0,0.0,0.0,0.0,-2.6014174961399177,-5.869758943875104,-3.514353303114667,0.009231103781189012,0.017325866421679884,-0.8175847878418362
12267,1.0,299.56805,39533.15,0.0,-0.122670196778765,0.0,0.0,0.0,0.0,-2.6162343536772275,-5.857149958305694,-3.543706043936557,-0.015112356730223485,0.0048760934484329554,-0.7760934932069643
12268,1.0,300.40718,39528.803,0.0,-0.12268019276618414,0.0,0.0,0.0,0.0,-2.5939638257542974,-5.854527971021924,-3.567277179687847,-0.025066225790593876,0.005983414599642045,-0.8103769623279793
12269,1.0,299.79911,39408.858,0.0,-0.12269018875360349,0.0,0.0,0.0,0.0,-2.5678992841569275,-5.860555289241774,-3.550854320742036,-0.01121382225496809,0.01140432036651879,-0.7967258794282223
12270,1.0,299.87023999999997,39450.757000000005,0.0,-0.12270018474102296,0.0,0.0,0.0,0.0,-2.5883295472482377,-5.846342632739095,-3.557373065260386,-0.01123817268137129,-0.0070209756092913436,-0.8189938235633972
12271,1.0,300.72326,39506.385,0.0,-0.12271018072844209,0.0,0.0,0.0,0.0,-2.599245797200587,-5.863938936625715,-3.545769831740236,-0.007707048873201503,-0.016923291011198785,-0.8180854448487472
12272,1.0,300.13743999999997,39273.768,0.0,-0.12272017671586155,0.0,0.0,0.0,0.0,-2.585437427487808,-5.838544153344444,-3.514263123855767,0.002947231547944107,-0.0027629103103280176,-0.8204987938044261
12273,1.0,300.46452999999997,39284.395,0.0,-0.12273020569333826,0.0,0.0,0.0,0.0,-2.586035549021837,-5.831067887481595,-3.5243716108283962,0.006908068340048264,0.03215201343590667,-0.7849050707140992
12274,1.0,300.59604,39351.294,0.0,-0.1227402016807575,0.0,0.0,0.0,0.0,-2.576295682435587,-5.854306879850104,-3.5312081105781066,-0.0019941907953863083,0.003288218577596907,-0.7976122199531973
12275,1.0,299.80946,39421.787000000004,0.0,-0.12275019766817685,0.0,0.0,0.0,0.0,-2.5748225181151976,-5.854575492451615,-3.5538407740867766,-0.015034616129551086,-0.004721052402931595,-0.7868769668662102
12276,1.0,299.7381,39660.099,0.0,-0.1227601936555961,0.0,0.0,0.0,0.0,-2.6080847831229272,-5.875592832650864,-3.5720022688791766,-0.0042605403649825955,-0.01760697543667318,-0.8003336779992842
12277,1.0,300.07574,39713.195,0.0,-0.12277018964301545,0.0,0.0,0.0,0.0,-2.644416993283637,-5.869946901768654,-3.5574556451435364,-0.004238474716229886,-0.003248138760616337,-0.7899773804496972
12278,1.0,299.46991,39474.996,0.0,-0.1227801856304348,0.0,0.0,0.0,0.0,-2.5978303881358977,-5.856643434580704,-3.5449391693082566,0.0003223438357628597,-0.011510120902210489,-0.7861799723874222
12279,1.0,299.84367000000003,39576.593,0.0,-0.12279018161785404,0.0,0.0,0.0,0.0,-2.6072020396358075,-5.872774274847694,-3.550319628664267,-0.0016314942743909484,-0.004847152695101725,-0.7818138473090191
12280,1.0,299.87795,39756.066,0.0,-0.1228001776052734,0.0,0.0,0.0,0.0,-2.6048860538822374,-5.876052949521274,-3.6039123516284564,0.007340383147589414,0.019904888861459583,-0.7911243592978953
12281,1.0,299.98632000000003,39534.973,0.0,-0.12281020658275021,0.0,0.0,0.0,0.0,-2.5867277001651474,-5.859682678255655,-3.5712343266283866,0.008068713398970011,0.01853459881047248,-0.7928558719962823
12282,1.0,300.11714,39354.282,0.0,-0.12282020257016946,0.0,0.0,0.0,0.0,-2.5613613892116875,-5.865599957514644,-3.5357576035271068,0.015589038213268286,0.0054677104234460054,-0.8182798571454342
12283,1.0,299.89841,39435.091,0.0,-0.12283019855758881,0.0,0.0,0.0,0.0,-2.6093464821474472,-5.844270941584635,-3.533665647370647,-0.007952312544707142,-0.0012214431046720488,-0.8158277108434262
12284,1.0,299.87791,39530.178,0.0,-0.12284019454500805,0.0,0.0,0.0,0.0,-2.6036899121391874,-5.885502317303854,-3.526994712687276,0.013522814556347887,-0.01795503393877388,-0.8298998599547392
12285,1.0,300.36095,39433.608,0.0,-0.1228501905324274,0.0,0.0,0.0,0.0,-2.589952773908437,-5.864993324679774,-3.531885974895007,-0.014225920959739086,-0.002047034422551568,-0.8136203252355743
12286,1.0,300.49309,39454.843,0.0,-0.12286018651984676,0.0,0.0,0.0,0.0,-2.5645586999022374,-5.870362131659635,-3.5583662530084066,-0.006613872693388414,-0.007971609892861642,-0.8002593561044492
12287,1.0,300.13387,39432.641,0.0,-0.122870182507266,0.0,0.0,0.0,0.0,-2.5632140156945273,-5.886054234633324,-3.5372700819513767,-0.007515685547390413,-0.012160287014376887,-0.8297880579387052
12288,1.0,299.94602000000003,39512.419,0.0,-0.12288017849468535,0.0,0.0,0.0,0.0,-2.5932550573093476,-5.880210112031554,-3.5373235815566564,0.004018347550555026,0.01888012114757288,-0.8053644546132833
12289,1.0,300.16843,39685.457,0.0,-0.1228901744821046,0.0,0.0,0.0,0.0,-2.6282684211398974,-5.891762379071674,-3.5433572832521367,0.0053760476650745945,0.016069646040450587,-0.8311526423783792
12290,1.0,300.08786000000003,39579.995,0.0,-0.12290020345958141,0.0,0.0,0.0,0.0,-2.6222624824971574,-5.875356238752515,-3.5337112436251465,-0.001201257136179849,-0.018136070320890783,-0.7873211554450482
12291,1.0,299.71684,39351.087999999996,0.0,-0.12291019944700077,0.0,0.0,0.0,0.0,-2.5774784492773177,-5.858711275384785,-3.5255584306705265,-0.011839951035012189,-0.00942919721548931,-0.8186508384045472
12292,1.0,299.60082,39548.906,0.0,-0.1229201954344199,0.0,0.0,0.0,0.0,-2.5794188232188175,-5.871146083262004,-3.571314981336347,0.007855854884212511,-0.008679259709701242,-0.7926524823037092
12293,1.0,299.87126,39756.32,0.0,-0.12293019142183947,0.0,0.0,0.0,0.0,-2.606371275878818,-5.880185186079094,-3.5983720014066667,0.00920519842118235,0.013742340256763387,-0.8146334740105642
12294,1.0,300.19535,39582.096,0.0,-0.12294018740925872,0.0,0.0,0.0,0.0,-2.602200839792227,-5.869340572908815,-3.560427507686837,-0.007809387335951523,-0.00035719150280455665,-0.7933021478703263
12295,1.0,299.60794,39574.331,0.0,-0.12295018339667796,0.0,0.0,0.0,0.0,-2.610070145368868,-5.882308451663644,-3.5372299572474164,0.004659050920037526,0.0026366261132647374,-0.8089354012782082
12296,1.0,299.42998,39731.633,0.0,-0.12296017938409731,0.0,0.0,0.0,0.0,-2.6376341957892273,-5.879536098065034,-3.560254039269717,-0.004904049120016965,0.0026359462224476377,-0.7918699492514792
12297,1.0,300.53983,39753.337999999996,0.0,-0.12297017537151655,0.0,0.0,0.0,0.0,-2.6120072769100475,-5.904108628890154,-3.567906205349926,-0.002007919726291248,0.004283093387033405,-0.7925525555788472
12298,1.0,300.54845,39689.885,0.0,-0.12298020434899326,0.0,0.0,0.0,0.0,-2.588026281493308,-5.895412105931874,-3.5812957987963765,-0.01851223334101518,-0.015165871534254985,-0.8030775390050823
12299,1.0,300.23106,39638.846,0.0,-0.12299020033641272,0.0,0.0,0.0,0.0,-2.6017477143475074,-5.882871920044255,-3.564599767623607,-0.008189776926218053,0.0016983240966615386,-0.8018306232995213
12300,1.0,300.21497999999997,39529.349,0.0,-0.12300019632383208,0.0,0.0,0.0,0.0,-2.5978158986594675,-5.878663081778874,-3.539455966392107,3.965962013759976e-05,0.01747501987615018,-0.8313284919332342
12301,1.0,300.07391,39467.845,0.0,-0.12301019231125143,0.0,0.0,0.0,0.0,-2.608483497037277,-5.858645616778304,-3.5301104567447763,0.012111515234063489,0.02259371924107648,-0.8067998247049432
12302,1.0,300.26389,39647.157999999996,0.0,-0.12302018829867067,0.0,0.0,0.0,0.0,-2.6125337616620077,-5.878743432511804,-3.5604689496159265,0.004546537805083345,-0.004687675134037516,-0.8135334795695032
12303,1.0,300.5461,39608.677,0.0,-0.1230301842860898,0.0,0.0,0.0,0.0,-2.5875798434992476,-5.871272131574444,-3.5811967029365968,-0.0044511859044228455,-0.008742647116082091,-0.8010648696689472
12304,1.0,299.70331,39454.568999999996,0.0,-0.12304018027350927,0.0,0.0,0.0,0.0,-2.5607579987771376,-5.876040385220034,-3.5564056140649067,-0.007029368258544634,-0.006882199355720192,-0.8106829435931772
12305,1.0,299.98729,39750.257000000005,0.0,-0.1230501762609284,0.0,0.0,0.0,0.0,-2.607646552454677,-5.9107140062920545,-3.564725106660976,-0.00936067790000198,-0.0037357398373388164,-0.8163092072909461
12306,1.0,299.92385,39913.937000000005,0.0,-0.12306020523840522,0.0,0.0,0.0,0.0,-2.6483525579970477,-5.893696268212534,-3.5907913707835166,-0.011198103706166791,0.00989213365695258,-0.7925194830955833
12307,1.0,300.08217,39793.614,0.0,-0.12307020122582457,0.0,0.0,0.0,0.0,-2.6289484132820076,-5.918066351667674,-3.5492502445087264,-0.0011921437621304288,-0.0008216415575322084,-0.8139435925474783
12308,1.0,300.36518,39669.559,0.0,-0.12308019721324404,0.0,0.0,0.0,0.0,-2.6101591087276477,-5.884381054743194,-3.5640153249659265,0.01841300677197228,-0.008323054575471533,-0.7996330358201362
12309,1.0,300.33371,39670.475,0.0,-0.12309019320066339,0.0,0.0,0.0,0.0,-2.5903879648263874,-5.8914398615648444,-3.5770060018480065,0.013600715250536088,0.001022283528616529,-0.7958995131766662
12310,1.0,299.76565,39582.291,0.0,-0.12310018918808263,0.0,0.0,0.0,0.0,-2.5777243650765875,-5.879939776904874,-3.5743638508872464,0.03113264634505297,-0.023624700204576375,-0.7911335697413042
12311,1.0,300.29782,39735.279,0.0,-0.12311018517550176,0.0,0.0,0.0,0.0,-2.6184525607961477,-5.893620781080085,-3.5664591828821166,0.009516124954818411,0.0037435375061333864,-0.8138750968407182
12312,1.0,300.52648,39753.9,0.0,-0.12312018116292123,0.0,0.0,0.0,0.0,-2.6328929959213077,-5.888883938187595,-3.5624160110080867,0.008795020088575902,0.018154452704204984,-0.8055593634025192
12313,1.0,300.80442999999997,39551.37,0.0,-0.12313017715034058,0.0,0.0,0.0,0.0,-2.5963028122851375,-5.887156346767094,-3.5391697232388566,0.0028067643826060777,0.0014896748254694585,-0.8114465997960443
12314,1.0,300.65156,39638.883,0.0,-0.12314020612781718,0.0,0.0,0.0,0.0,-2.5956583852215376,-5.881703744003965,-3.5718685198659763,-0.012152889275396789,-0.008305458879534973,-0.7929205882801692
12315,1.0,299.96303,39958.39,0.0,-0.12315020211523653,0.0,0.0,0.0,0.0,-2.621390276811077,-5.912079259476794,-3.6128833640388267,-0.011425840785392688,-0.01819612768081798,-0.8057029814716932
12316,1.0,300.22776,39933.791,0.0,-0.123160198102656,0.0,0.0,0.0,0.0,-2.6267538148904177,-5.908921972165194,-3.603199428858096,0.0027296632440717873,-0.007523797931666043,-0.7980080663697642
12317,1.0,300.62219,39508.282999999996,0.0,-0.12317019409007535,0.0,0.0,0.0,0.0,-2.5915012227112575,-5.885958077198835,-3.5320722102633866,-0.012863015475480789,0.005453242833218165,-0.8301788685022752
12318,1.0,300.24082999999996,39499.245,0.0,-0.12318019007749448,0.0,0.0,0.0,0.0,-2.6008349786574274,-5.889540118952354,-3.516409187567567,0.011691170456578689,0.0017240276172482785,-0.8032930269038493
12319,1.0,299.90198,39726.166,0.0,-0.12319018606491372,0.0,0.0,0.0,0.0,-2.6378771731632074,-5.892982129542054,-3.544903198929706,0.0019242961955382482,0.00985260525067643,-0.8154793959890502
12320,1.0,300.23642,39849.512,0.0,-0.12320018205233307,0.0,0.0,0.0,0.0,-2.6144187108230375,-5.921461347452735,-3.5773765474095764,0.01047153347020989,0.02613351150517677,-0.7995933873437232
12321,1.0,300.29995,39694.553,0.0,-0.12321017803975254,0.0,0.0,0.0,0.0,-2.6005776131320273,-5.906271816528644,-3.559303408025896,-0.0012387678575318686,-0.0041884545104682765,-0.8264465617589253
12322,1.0,299.89529,39630.036,0.0,-0.12322020701722913,0.0,0.0,0.0,0.0,-2.5849071937104773,-5.897155808028965,-3.564478278936617,-0.001865581999943608,-0.005245753125440526,-0.7925693552655052
12323,1.0,299.56995,39679.623999999996,0.0,-0.12323020300464871,0.0,0.0,0.0,0.0,-2.6167669179297874,-5.902840951690044,-3.542007127493886,0.0027911902219440276,0.0034173602412671967,-0.8353008477577751
12324,1.0,299.22835,39990.896,0.0,-0.12324019899206784,0.0,0.0,0.0,0.0,-2.6613478958295875,-5.910966609541984,-3.5839194072803067,0.0076247353735027935,0.018396596173352684,-0.7922536467993473
12325,1.0,299.46335,39915.631,0.0,-0.1232501949794873,0.0,0.0,0.0,0.0,-2.6505567822645872,-5.902988278254584,-3.5798101714997568,-0.01925857309967318,0.003858889342567726,-0.8167858097404832
12326,1.0,300.17161,39543.397000000004,0.0,-0.12326019096690644,0.0,0.0,0.0,0.0,-2.5843384564293475,-5.878088974272215,-3.557777960000347,-0.029114747625151875,-0.0008731059182638451,-0.7888314047190982
12327,1.0,300.00072,39501.554,0.0,-0.12327018695432568,0.0,0.0,0.0,0.0,-2.5631811863912874,-5.883356152267044,-3.560948926188297,-0.03122420261083887,0.0027139739781983775,-0.8161910217992822
12328,1.0,300.07229,39845.712999999996,0.0,-0.12328018294174503,0.0,0.0,0.0,0.0,-2.630833159793018,-5.904891668567435,-3.5763769761859265,-0.025358296145168976,0.0015536852793367984,-0.8020424634979283
12329,1.0,300.43482,39922.481,0.0,-0.12329017892916438,0.0,0.0,0.0,0.0,-2.6351413978932077,-5.924888057965925,-3.575407903790287,-0.004041452287285286,-0.03020199943295527,-0.8153838262396182
12330,1.0,300.39805,39675.465,0.0,-0.12330017491658385,0.0,0.0,0.0,0.0,-2.6043460929039477,-5.917698035256325,-3.538306636803676,-0.005774026061177005,-0.013105554112167487,-0.8074387599530012
12331,1.0,300.08207000000004,39706.722,0.0,-0.12331020389406055,0.0,0.0,0.0,0.0,-2.6014443472675675,-5.926788915153524,-3.5416186474055467,0.020300791006782084,-0.0003282517931209297,-0.8136785668513222
12332,1.0,299.98212,39936.856,0.0,-0.1233201998814798,0.0,0.0,0.0,0.0,-2.6191191780369376,-5.920448198677745,-3.6002395226659765,0.011449089808937189,0.02123724688170308,-0.7967846378015213
12333,1.0,299.78862000000004,39981.972,0.0,-0.12333019586889915,0.0,0.0,0.0,0.0,-2.6172144704989577,-5.937243832335345,-3.5990630379748665,0.010092065126934282,0.0016330094885904883,-0.8126888849486482
12334,1.0,299.60098,39894.501000000004,0.0,-0.12334019185631839,0.0,0.0,0.0,0.0,-2.6089021719785976,-5.9225557588857445,-3.5954742074456765,0.0062950696601000045,0.01853882102363918,-0.8053753774493613
12335,1.0,299.97095,39661.089,0.0,-0.12335018784373764,0.0,0.0,0.0,0.0,-2.6134941201067874,-5.881429659851914,-3.5610569386489566,0.009070060647395291,0.013069294957338988,-0.8031474228644793
12336,1.0,300.09841,39587.386,0.0,-0.12336018383115721,0.0,0.0,0.0,0.0,-2.592538588163637,-5.8900496824276445,-3.5509884750552763,0.007443538289920034,-0.012228780694636688,-0.8056314561471342
12337,1.0,300.10969,39820.087,0.0,-0.12337017981857634,0.0,0.0,0.0,0.0,-2.6297433079854575,-5.891989245769064,-3.582579687998087,-0.004800574702579836,-0.027327217394986374,-0.7926819982791222
12338,1.0,299.16511,39850.812999999995,0.0,-0.1233801758059957,0.0,0.0,0.0,0.0,-2.6102012599318076,-5.902436158275094,-3.6010146589924767,-0.004995048098247865,-0.006357760761012134,-0.8044820860287002
12339,1.0,299.63785,39687.26,0.0,-0.12339020478347251,0.0,0.0,0.0,0.0,-2.5892775440417974,-5.909385432760935,-3.5652730723150565,0.005029821524454735,-0.010704525264454388,-0.8119053893088233
12340,1.0,299.35564,39746.561,0.0,-0.12340020077089175,0.0,0.0,0.0,0.0,-2.6205306354262374,-5.897638115076564,-3.5637934231940265,0.003934884822592896,0.007552374725561353,-0.8118744649157712
12341,1.0,299.02932000000004,40005.046,0.0,-0.12341019675831111,0.0,0.0,0.0,0.0,-2.6547597436793873,-5.932622297304235,-3.573152915692736,0.014991437489789686,-0.00984505106588089,-0.8136904522749953
12342,1.0,299.31518,39927.651,0.0,-0.12342019274573035,0.0,0.0,0.0,0.0,-2.6450060968917777,-5.927818275930115,-3.5641844364076167,0.024174556583342978,0.005861882646872775,-0.8130310392424162
12343,1.0,300.26596,39841.267,0.0,-0.1234301887331497,0.0,0.0,0.0,0.0,-2.6047415644179774,-5.933163474182645,-3.572845090312357,0.0011020865998674788,0.008711361195394413,-0.8009107441962362
12344,1.0,299.91131,39858.282,0.0,-0.12344018472056906,0.0,0.0,0.0,0.0,-2.598985391924887,-5.927386732712524,-3.589550443386047,-0.0006880421811069763,0.006073244084607524,-0.8020894073750612
12345,1.0,300.37887,39827.117,0.0,-0.1234501807079883,0.0,0.0,0.0,0.0,-2.6084087191798977,-5.9084504055686535,-3.589589757489926,-0.017417340614207685,0.0021243490528819278,-0.7936576871979152
12346,1.0,299.73087000000004,39791.464,0.0,-0.12346017669540765,0.0,0.0,0.0,0.0,-2.6102689450384875,-5.920902438697574,-3.564440079407847,0.0030466617802571067,0.029208860320940076,-0.8143885714613942
12347,1.0,300.01177,39978.771,0.0,-0.12347020567288447,0.0,0.0,0.0,0.0,-2.6479342883557675,-5.932824035399144,-3.5717898916582165,0.01164646180916629,-0.0004668443545814505,-0.8206286620697433
12348,1.0,299.96282,39879.284,0.0,-0.12348020166030371,0.0,0.0,0.0,0.0,-2.6365841647105976,-5.915964465660235,-3.5697580212326865,0.01684270115124518,0.009635290259329111,-0.8103279210231392
12349,1.0,299.89565,39754.696,0.0,-0.12349019764772307,0.0,0.0,0.0,0.0,-2.587382969004818,-5.944914236917354,-3.5521376019936866,0.004956542162647625,-0.024219984638326374,-0.8340250746893663
12350,1.0,299.24414,39926.529,0.0,-0.12350019363514231,0.0,0.0,0.0,0.0,-2.6109279629035274,-5.922103748016134,-3.6036360383261865,0.0016441123792112584,0.0006656381676158722,-0.8075678074857372
12351,1.0,299.92593999999997,40045.553,0.0,-0.12351018962256166,0.0,0.0,0.0,0.0,-2.6431501266836075,-5.929100138631624,-3.6005980105513564,-0.01898887429405598,0.004003002485740586,-0.8194429770677253
12352,1.0,299.51566,39750.093,0.0,-0.12352018560998101,0.0,0.0,0.0,0.0,-2.5999996552749876,-5.925531978404474,-3.5575039771733064,-0.018942393472218683,0.023141133687102078,-0.8071147732335263
12353,1.0,299.2033,39699.089,0.0,-0.12353018159740026,0.0,0.0,0.0,0.0,-2.6251574393578676,-5.899113508547175,-3.5432609231676264,-0.03157345877455777,0.00013367591733778588,-0.8111828203975112
12354,1.0,299.94583,40069.6,0.0,-0.12354017758481961,0.0,0.0,0.0,0.0,-2.649357398121218,-5.940445905301365,-3.5903547613154263,-0.001118487572611129,0.0073858662220532435,-0.8045017228156383
12355,1.0,300.83137999999997,40030.905,0.0,-0.12355020656229643,0.0,0.0,0.0,0.0,-2.6262128406620273,-5.934275313517374,-3.607907394122736,0.006479534272605244,-0.006837466694280424,-0.8086167847842632
12356,1.0,299.82802000000004,39884.476,0.0,-0.12356020254971556,0.0,0.0,0.0,0.0,-2.6015422272272275,-5.9376090076713846,-3.5847334524106467,0.011558961583530689,-0.005094755049163175,-0.8074300358696402
12357,1.0,299.7267,39912.462,0.0,-0.12357019853713502,0.0,0.0,0.0,0.0,-2.6141741122488975,-5.931730738541244,-3.586486881708697,0.008075699454434482,-0.010844057909225189,-0.8138289736961661
12358,1.0,299.82088999999996,39863.914,0.0,-0.12358019452455415,0.0,0.0,0.0,0.0,-2.6236151713806577,-5.913821846998774,-3.5801973343629663,0.01038681360284869,0.029329004425047375,-0.8113855717425212
12359,1.0,300.28548,39908.761,0.0,-0.12359019051197362,0.0,0.0,0.0,0.0,-2.6231914301888373,-5.939906146973094,-3.5681694477259067,0.01003138613807073,0.009119499855549561,-0.8282917813835342
12360,1.0,300.69457,40093.64,0.0,-0.12360018649939297,0.0,0.0,0.0,0.0,-2.6421215765070976,-5.9363085011680345,-3.609035141484037,-0.008515600060174293,0.002251811862461528,-0.8163023374552683
12361,1.0,299.73255,39993.415,0.0,-0.12361018248681221,0.0,0.0,0.0,0.0,-2.6173027245826677,-5.940181345700254,-3.5995155554695266,-0.017786492956890183,-0.016439868375238684,-0.8099673053125492
12362,1.0,299.25192000000004,39840.364,0.0,-0.12362017847423157,0.0,0.0,0.0,0.0,-2.5940889621416474,-5.9301582757110545,-3.5862287055832165,0.00021645237100718584,0.0028969816383848275,-0.8038375171100862
12363,1.0,299.83012,40081.443,0.0,-0.12363020745170838,0.0,0.0,0.0,0.0,-2.6532021756256676,-5.914947973159914,-3.615607689582696,0.0068759914763325235,0.0035382441192725062,-0.7812894397197643
12364,1.0,300.07692000000003,40160.268,0.0,-0.12364020343912752,0.0,0.0,0.0,0.0,-2.651045168812787,-5.945885639788224,-3.6107876588569963,0.014718871186389485,0.0006534613230816113,-0.7938213574865682
12365,1.0,300.32081,39921.01,0.0,-0.12365019942654698,0.0,0.0,0.0,0.0,-2.6392547879991675,-5.926652936990104,-3.5690822847409964,0.012029537221472887,-0.009881977344575231,-0.8129485302867732
12366,1.0,300.00569,39776.833,0.0,-0.12366019541396633,0.0,0.0,0.0,0.0,-2.6064721955887773,-5.912087264152585,-3.572604443413607,-0.007078035572772722,0.005821095378672384,-0.8246175541359162
12367,1.0,300.06869,39924.087999999996,0.0,-0.12367019140138547,0.0,0.0,0.0,0.0,-2.6293771193993174,-5.931528189846254,-3.5750205382770566,0.0041709234598880955,-0.026961882978680674,-0.8236352588264713
12368,1.0,300.44096,39893.975,0.0,-0.12368018738880493,0.0,0.0,0.0,0.0,-2.6167063255738077,-5.922955486050194,-3.5871105371452465,-0.009039362614415632,-0.02135394694872048,-0.8437056458797643
12369,1.0,300.5369,39945.45,0.0,-0.12369018337622406,0.0,0.0,0.0,0.0,-2.6175087183279975,-5.935574908095635,-3.5893358370148665,0.01058145692055849,-0.01021266225516129,-0.8106445211493852
12370,1.0,300.32683,40020.539,0.0,-0.12370017936364353,0.0,0.0,0.0,0.0,-2.6188836987136974,-5.9496995131646235,-3.5966615339128567,0.01079553437518629,0.004299875848439706,-0.8451104056859031
12371,1.0,300.69018,40015.402,0.0,-0.12371017535106266,0.0,0.0,0.0,0.0,-2.6267553347655674,-5.924749445352244,-3.6121782432942364,0.008138509206933322,0.010832794621113591,-0.7903840787748352
12372,1.0,300.20409,40174.018,0.0,-0.12372020432853947,0.0,0.0,0.0,0.0,-2.6260175873677576,-5.975849573070435,-3.6100312676573467,-0.005924520248179624,0.007124174321376264,-0.8424021198911161
12373,1.0,299.87645,40238.84,0.0,-0.12373020031595883,0.0,0.0,0.0,0.0,-2.661080093828158,-5.943104673563765,-3.6274179300982765,-0.0019214755099098682,-0.003062737803693687,-0.7792334944718583
12374,1.0,300.13952,39957.686,0.0,-0.12374019630337829,0.0,0.0,0.0,0.0,-2.6258623574524376,-5.9348904576530845,-3.5853860868000567,-0.02205492451365158,0.004388797359990576,-0.8093218649988493
12375,1.0,299.7437,39846.348,0.0,-0.12375019229079742,0.0,0.0,0.0,0.0,-2.6131937927771474,-5.932746217791465,-3.566354716796807,-0.03263759834758017,-0.008682515383597551,-0.7787724758088592
12376,1.0,299.42172999999997,40161.128,0.0,-0.12376018827821678,0.0,0.0,0.0,0.0,-2.6606428764100074,-5.941626848292914,-3.6057102626058963,-0.030414438462171373,0.0026537298762777475,-0.8123727205199452
12377,1.0,299.79181,40304.68,0.0,-0.12377018426563602,0.0,0.0,0.0,0.0,-2.666726936635458,-5.971460882912305,-3.613428391267617,-0.02003327474188028,0.015926742312597084,-0.8040821764792323
12378,1.0,299.61868,39998.136,0.0,-0.12378018025305537,0.0,0.0,0.0,0.0,-2.6143479859660577,-5.950721578540494,-3.5933650260375165,-0.001235345605319119,0.01891160890768048,-0.8379003408893252
12379,1.0,299.95931,40045.127,0.0,-0.12379017624047484,0.0,0.0,0.0,0.0,-2.6369052636672876,-5.938601688794353,-3.5972116273921464,0.0017399441551191183,0.002870422630738657,-0.7988778706531072
12380,1.0,300.0969,40094.246,0.0,-0.12380020521795143,0.0,0.0,0.0,0.0,-2.6318255369409576,-5.946362677935304,-3.609461415801107,0.02149026252442378,-0.006482446454717654,-0.8152170250081562
12381,1.0,300.52655,40052.962999999996,0.0,-0.123810201205371,0.0,0.0,0.0,0.0,-2.6346725670719375,-5.940143348821504,-3.600284713620437,0.006305777788481813,-0.002046267696200898,-0.7966112301794073
12382,1.0,300.82624,40130.867999999995,0.0,-0.12382019719279014,0.0,0.0,0.0,0.0,-2.6390100881000174,-5.957197057279574,-3.6025746588464367,0.01003063998069709,-0.005019895827800145,-0.8309916572024912
12383,1.0,301.08185,40069.714,0.0,-0.12383019318020938,0.0,0.0,0.0,0.0,-2.630628483272818,-5.956680603703604,-3.5928832256149668,-0.01032301633680239,-0.0023860623331360175,-0.8136247126085072
12384,1.0,300.50545,39861.116,0.0,-0.12384018916762873,0.0,0.0,0.0,0.0,-2.595488463179768,-5.951015522394504,-3.5702799463591965,-0.016109154688349784,0.008929633201461182,-0.8316460850445782
12385,1.0,300.20077000000003,40011.326,0.0,-0.12385018515504798,0.0,0.0,0.0,0.0,-2.6172800277804273,-5.961894282093154,-3.5832696099911763,-0.013112725896375289,0.006592017800656503,-0.8196859341767032
12386,1.0,300.15319,40208.587,0.0,-0.12386018114246733,0.0,0.0,0.0,0.0,-2.641180976439268,-5.965667017515495,-3.615558546952847,-0.007793111803570252,0.014166680279392486,-0.8212013814237662
12387,1.0,300.25196,40018.445,0.0,-0.12387017712988668,0.0,0.0,0.0,0.0,-2.6143711893933474,-5.963266121403545,-3.5869708099564566,-0.0027836639015262374,-0.004177576460044696,-0.8056623704076853
12388,1.0,299.81141,39906.441,0.0,-0.1238802061073635,0.0,0.0,0.0,0.0,-2.6047893898226975,-5.962087508887224,-3.5636846001332865,0.01695146544347938,-0.01192631642053579,-0.8358519544871652
12389,1.0,300.01824,40149.859,0.0,-0.12389020209478296,0.0,0.0,0.0,0.0,-2.6522069613774475,-5.941988173278574,-3.610359459364737,0.021413905010137877,-0.007648058870929642,-0.8135067297668632
12390,1.0,300.01299,40202.49,0.0,-0.1239001980822021,0.0,0.0,0.0,0.0,-2.6428572974047078,-5.964744453299445,-3.612951555770557,0.015772422295866884,-0.012140977507221188,-0.8236963274099982
12391,1.0,300.12699,40106.816,0.0,-0.12391019406962134,0.0,0.0,0.0,0.0,-2.6504294167270177,-5.939978391705225,-3.601062889697237,0.017759026786429485,-0.016812057428470882,-0.8073802751572293
12392,1.0,300.17064,40249.972,0.0,-0.12392019005704069,0.0,0.0,0.0,0.0,-2.6530922379898176,-5.947142779187295,-3.634751530347047,0.00864475803717119,0.004489752229729045,-0.8054664281033472
12393,1.0,300.32531,40267.659,0.0,-0.12393018604445993,0.0,0.0,0.0,0.0,-2.6718779961688273,-5.955765740188315,-3.6127190148726065,0.03546272505114847,0.02118539684758588,-0.8012720590493952
12394,1.0,300.41548,40188.284,0.0,-0.12394018203187929,0.0,0.0,0.0,0.0,-2.639658568164018,-5.957103838270374,-3.6194723267891065,0.006371601453403103,0.01894646471112048,-0.8161017139354683
12395,1.0,300.45817999999997,40289.335,0.0,-0.12395017801929864,0.0,0.0,0.0,0.0,-2.6615679737513074,-5.968947313389235,-3.6164365281644963,-0.004531463278045605,0.005969805232248905,-0.8059304662516442
12396,1.0,300.04477,40210.863,0.0,-0.12396020699677546,0.0,0.0,0.0,0.0,-2.642437811863308,-5.968358412431114,-3.6123022651064765,-0.021763783309418184,-0.008747699890355762,-0.8131299020546733
12397,1.0,299.90635,39936.278,0.0,-0.12397020298419481,0.0,0.0,0.0,0.0,-2.6181849614447374,-5.9395919381170845,-3.5818543022514966,-0.00996033511588354,0.02316777203223108,-0.8015369124930343
12398,1.0,299.75085,40027.947,0.0,-0.12398019897161405,0.0,0.0,0.0,0.0,-2.6107793191138575,-5.968792590098965,-3.5879245822755865,-0.02442489724579968,-0.0004865504072962866,-0.8139051498386842
12399,1.0,300.00744,40267.833,0.0,-0.1239901949590333,0.0,0.0,0.0,0.0,-2.6518226356145176,-5.9630597223581745,-3.625533284912276,0.0015569085292299087,-0.014017252234145088,-0.7989579579410112
12400,1.0,299.85668,40189.742999999995,0.0,-0.12400019094645265,0.0,0.0,0.0,0.0,-2.6385334552529773,-5.979516423857325,-3.5986285563319864,0.014785567360971886,-0.016593648329665586,-0.8392910975790822
12401,1.0,299.16092000000003,40078.419,0.0,-0.124010186933872,0.0,0.0,0.0,0.0,-2.6181929661205277,-5.970012847194394,-3.5946328045626363,0.03394346899695957,0.0013576483374394587,-0.8304268715967512
12402,1.0,299.51498,40100.296,0.0,-0.12402018292129136,0.0,0.0,0.0,0.0,-2.6424859412430575,-5.954570713020375,-3.592432126670446,0.01324625503430359,-0.01066024319533409,-0.8209816378745792
12403,1.0,299.82655,40060.409,0.0,-0.1240301789087106,0.0,0.0,0.0,0.0,-2.6163025454089577,-5.9679791529186845,-3.593082430584626,-0.0026714655020531174,-0.004345857137977706,-0.8152989158812382
12404,1.0,299.6252,40130.757000000005,0.0,-0.12404020788618741,0.0,0.0,0.0,0.0,-2.629225334534337,-5.974881716574914,-3.594641113213456,-0.010164660544923891,0.024431895764240374,-0.8324416991555992
12405,1.0,300.14505,40303.504,0.0,-0.12405020387360677,0.0,0.0,0.0,0.0,-2.6685706465174177,-5.968712138041024,-3.6139761542716764,-0.01928377870916078,0.03380742902528347,-0.8038287119667172
12406,1.0,300.22924,40081.97,0.0,-0.12406019986102601,0.0,0.0,0.0,0.0,-2.637330018109208,-5.963175739494624,-3.5834123769302666,-0.03374450822057367,-0.013670841276706988,-0.8157042767162442
12407,1.0,300.38332,40086.123999999996,0.0,-0.12407019584844514,0.0,0.0,0.0,0.0,-2.6278732536008973,-5.963036012305834,-3.5942715809019865,-0.03263420497299527,-0.03236194771087557,-0.8027482428550832
12408,1.0,300.76257999999996,40476.62,0.0,-0.1240801918358646,0.0,0.0,0.0,0.0,-2.6794908481451576,-5.987583009228435,-3.6368079214249964,0.002372395413137198,-0.013746588814432687,-0.8094940871183463
12409,1.0,300.13509,40526.538,0.0,-0.12409018782328396,0.0,0.0,0.0,0.0,-2.6673168508436773,-6.003746982773695,-3.6479915680787363,0.013487131940826288,0.013998139297508786,-0.7859440168366353
12410,1.0,299.92262999999997,40157.554,0.0,-0.12410018381070331,0.0,0.0,0.0,0.0,-2.6342560199558274,-5.966069277805194,-3.6065684854405964,-0.002855189732710287,0.011839815259498789,-0.8100184136475932
12411,1.0,299.43207,40160.596,0.0,-0.12411017979812256,0.0,0.0,0.0,0.0,-2.6489129866273577,-5.969200423264214,-3.5897048627012866,-0.005828937225171314,-0.0008602521618677783,-0.7904629704276213
12412,1.0,299.214,40305.011,0.0,-0.12412020877559937,0.0,0.0,0.0,0.0,-2.6651630864311175,-5.969441475463004,-3.617112365981197,-0.003002954831893567,5.905000592953184e-05,-0.8342180177734081
12413,1.0,299.11366,40127.824,0.0,-0.12413020476301873,0.0,0.0,0.0,0.0,-2.6279482341082976,-5.961818490985674,-3.6080897791407365,0.0099683555983751,-0.01209474898465879,-0.8132986588588282
12414,1.0,299.5301,40089.031,0.0,-0.12414020075043797,0.0,0.0,0.0,0.0,-2.6295040796368476,-5.966840766431335,-3.5897195548277363,0.018561638402641082,-0.04318081622261476,-0.8385428225127332
12415,1.0,299.66352,40270.87,0.0,-0.1241501967378571,0.0,0.0,0.0,0.0,-2.652319128163518,-5.961692949298285,-3.627326838914286,0.011875479636518589,-0.0015177612063163686,-0.8044517493207063
12416,1.0,300.15857,40234.058,0.0,-0.12416019272527645,0.0,0.0,0.0,0.0,-2.6495800091681874,-5.987601957005304,-3.5929672240482566,0.02596052235535408,0.03605977963282316,-0.8365697307255041
12417,1.0,300.15341,40241.196,0.0,-0.12417018871269592,0.0,0.0,0.0,0.0,-2.6405926834312075,-5.990746983990694,-3.600979093913967,0.014316628121941186,0.027241871339063372,-0.8287230712885991
12418,1.0,300.30228999999997,40361.836,0.0,-0.12418018470011527,0.0,0.0,0.0,0.0,-2.6559392681207976,-5.982590320685694,-3.6304608214735863,-0.006420123366241843,-0.013900800413402185,-0.8054895707356312
12419,1.0,299.30579,40169.608,0.0,-0.12419018068753451,0.0,0.0,0.0,0.0,-2.6215678995536074,-5.984466049270814,-3.6045237467387965,-0.016597379116533785,-0.029762433301073473,-0.8200202155171943
12420,1.0,299.12889,40174.495,0.0,-0.12420017667495364,0.0,0.0,0.0,0.0,-2.6178031688070575,-5.976251529385104,-3.6179885233426665,0.0016849568960422983,-0.00987643040822779,-0.7989372977714722
12421,1.0,299.74877000000004,40456.885,0.0,-0.12421020565243068,0.0,0.0,0.0,0.0,-2.6674610363329077,-5.991648472604664,-3.638773322643967,-0.024238793599932678,-0.005339600045727495,-0.8171986280962252
12422,1.0,300.33505,40341.203,0.0,-0.12422020163984981,0.0,0.0,0.0,0.0,-2.660620686232818,-5.989519431494545,-3.6125781731087065,-0.0035274425692314766,-0.012841930754149886,-0.7877994601547533
12423,1.0,300.43045,40148.31,0.0,-0.12423019762726906,0.0,0.0,0.0,0.0,-2.6418086848762177,-5.965765201450185,-3.596509749047877,-0.012688868180793789,0.02177532828105758,-0.8148319190426493
12424,1.0,300.66362999999996,40409.92,0.0,-0.12424019361468863,0.0,0.0,0.0,0.0,-2.6615676697762773,-5.996416016975184,-3.625623058871137,0.02183900497034198,0.03150607966940797,-0.8119377221195142
12425,1.0,300.20217,40533.347,0.0,-0.12425018960210776,0.0,0.0,0.0,0.0,-2.6770931944335272,-6.003191519068874,-3.6408406568229967,0.019098835234658284,-0.0015535574071741784,-0.8194217494781303
12426,1.0,300.19494,40314.657,0.0,-0.12426018558952723,0.0,0.0,0.0,0.0,-2.6405055439226075,-5.9890924479024035,-3.6250510791896864,0.004367176325381746,-0.025738949889736577,-0.8205355646505552
12427,1.0,300.25625,40325.32,0.0,-0.12427018157694636,0.0,0.0,0.0,0.0,-2.6582650824003373,-5.989359337978744,-3.610265835055497,0.0021767621500796983,-0.006031969747084064,-0.8155999423534472
12428,1.0,300.62473,40381.953,0.0,-0.1242801775643656,0.0,0.0,0.0,0.0,-2.6787521888222576,-5.978077406065304,-3.6182756784210066,-0.023064250296014274,0.017825478767737782,-0.8035801211871832
12429,1.0,300.59725,40166.835,0.0,-0.12429020654184253,0.0,0.0,0.0,0.0,-2.640843462830958,-5.975838528644344,-3.5930326800047165,-0.03103760551217317,0.011708073494746887,-0.8126740205696813
12430,1.0,299.99394,40286.422,0.0,-0.12430020252926177,0.0,0.0,0.0,0.0,-2.6208107990788876,-6.001234527825734,-3.624020907813017,-0.03742702284075956,-0.01232318621970379,-0.8140395574644492
12431,1.0,299.28884,40455.782999999996,0.0,-0.12431019851668113,0.0,0.0,0.0,0.0,-2.6599644041430475,-5.980918964645744,-3.6566643809846764,-0.0012785676121847987,0.00869899772032423,-0.7969032387257262
12432,1.0,299.46127,40397.186,0.0,-0.12432019450410059,0.0,0.0,0.0,0.0,-2.6381339307385474,-6.005958705091974,-3.6356432917600565,0.013885806338422386,0.009625724266460021,-0.8303251108892081
12433,1.0,299.46251,40269.422999999995,0.0,-0.12433019049151972,0.0,0.0,0.0,0.0,-2.658367927285487,-5.987287849474304,-3.5952434903979062,-0.008006425368947663,-0.012789195139445288,-0.8231751622210631
12434,1.0,299.96337,40304.081,0.0,-0.12434018647893919,0.0,0.0,0.0,0.0,-2.6654916834385474,-5.983439424269494,-3.6025030220643672,-0.024516608538850876,-0.021527724407120977,-0.8299526198874462
12435,1.0,299.82047,40269.388999999996,0.0,-0.12435018246635832,0.0,0.0,0.0,0.0,-2.6498375773436074,-6.010837301673454,-3.5802138503395966,0.008492983912642253,0.014588416249264586,-0.8421512898288612
12436,1.0,299.98577,40297.373999999996,0.0,-0.12436017845377756,0.0,0.0,0.0,0.0,-2.6517019575276075,-5.997501714457335,-3.6001917985862666,0.02021736911279898,0.03696629700703947,-0.8386037492412463
12437,1.0,300.36847,40477.651,0.0,-0.12437020743125449,0.0,0.0,0.0,0.0,-2.6622523228688473,-6.0114415027080845,-3.6305012501525766,0.0015625437196610586,-0.007522887729101212,-0.8355752966798612
12438,1.0,300.41348999999997,40370.395,0.0,-0.12438020341867373,0.0,0.0,0.0,0.0,-2.658755900748777,-5.9909545989361845,-3.621881430226867,0.007096685454113323,-0.028622914000111674,-0.8066109751513053
12439,1.0,299.95662999999996,40336.096,0.0,-0.12439019940609308,0.0,0.0,0.0,0.0,-2.6426445148837074,-5.988044341998965,-3.630477337450217,0.014229945589136287,0.005438952663082835,-0.8084651924368023
12440,1.0,300.54265,40701.794,0.0,-0.12440019539351244,0.0,0.0,0.0,0.0,-2.7012636676189676,-6.019588033512084,-3.651477249747747,0.03168158674572917,0.013636401919058088,-0.8037343986474093
12441,1.0,299.61888999999996,40577.612,0.0,-0.12441019138093168,0.0,0.0,0.0,0.0,-2.6766011601849677,-5.986453235366935,-3.6715265308014566,-0.014019117627579188,-0.013060947803015189,-0.7987345362939613
12442,1.0,299.26178,40208.66,0.0,-0.12442018736835103,0.0,0.0,0.0,0.0,-2.6356711250454876,-5.977731381156154,-3.609026123558147,-0.02807089737213187,-0.006266244315955165,-0.7975419713237643
12443,1.0,299.35906,40336.329,0.0,-0.12443018335577027,0.0,0.0,0.0,0.0,-2.6333910083454577,-5.993169968954824,-3.6346757392395665,-0.01035379887484039,0.01799785287474978,-0.8058528512939842
12444,1.0,299.67692,40540.52,0.0,-0.12444017934318963,0.0,0.0,0.0,0.0,-2.6844436146339574,-5.984209798320524,-3.654652370261107,0.024353453994498776,0.027042469798883972,-0.8163499298124652
12445,1.0,299.67021,40379.445,0.0,-0.12445020832066644,0.0,0.0,0.0,0.0,-2.6499278579275174,-6.016663996373504,-3.607751150957317,0.013457811522682588,-0.024562275720857875,-0.8283341149727123
12446,1.0,299.23654,40294.193,0.0,-0.12446020430808569,0.0,0.0,0.0,0.0,-2.6461297912526773,-5.992977552760834,-3.6093212833122763,0.034616999643181864,-0.024859255272167476,-0.8311667974822762
12447,1.0,299.96585,40494.722,0.0,-0.12447020029550504,0.0,0.0,0.0,0.0,-2.6633214030493577,-6.002762002351485,-3.643300828065797,0.024935988702240477,0.008070434809564903,-0.8210684531431472
12448,1.0,299.75367,40464.462999999996,0.0,-0.1244801962829244,0.0,0.0,0.0,0.0,-2.6481714902041773,-6.016927036099465,-3.6350878280552363,0.040071353302484666,0.021872981272695182,-0.8275013652455262
12449,1.0,300.55859,40426.851,0.0,-0.12449019227034364,0.0,0.0,0.0,0.0,-2.6486528853266873,-5.992466773385424,-3.647633485493396,0.004685614892609186,-0.006353463162037994,-0.8163226125897692
12450,1.0,299.89308,40503.016,0.0,-0.12450018825776299,0.0,0.0,0.0,0.0,-2.6562655346529973,-5.995667934426354,-3.659971933286107,-0.01134377664654359,-0.001987515807702538,-0.8089068782878932
12451,1.0,299.75631,40315.443999999996,0.0,-0.12451018424518223,0.0,0.0,0.0,0.0,-2.6329563240525578,-5.993258324363545,-3.6286736509472064,-0.019008442179987182,0.004977185106934925,-0.8176646724797202
12452,1.0,299.418,40244.984,0.0,-0.12452018023260158,0.0,0.0,0.0,0.0,-2.6229395362139774,-5.997965580353115,-3.6125650008574066,-0.011672812391266888,0.007555595847629252,-0.8346926646502522
12453,1.0,299.97769,40554.782999999996,0.0,-0.1245302092100784,0.0,0.0,0.0,0.0,-2.658461956894768,-6.023766068974425,-3.6454132518742766,-0.02208859988072508,-0.03155755581423827,-0.8294106526739583
12454,1.0,299.35541,40465.651,0.0,-0.12454020519749776,0.0,0.0,0.0,0.0,-2.6671463208518476,-5.991466492886704,-3.6419346629559666,-0.018734194894671083,-0.00987797784378051,-0.8045542395683212
12455,1.0,299.43525,40326.28,0.0,-0.124550201184917,0.0,0.0,0.0,0.0,-2.624807665423347,-6.016239241931585,-3.617135366758467,0.0014021085359273385,0.03113619069390277,-0.8264025157770782
12456,1.0,298.8243,40608.246,0.0,-0.12456019717233635,0.0,0.0,0.0,0.0,-2.6766701625167775,-6.016234175681085,-3.6509884578995067,-0.008622197517069642,0.03779133691421457,-0.8076007381139872
12457,1.0,299.48736,40748.557,0.0,-0.1245701931597556,0.0,0.0,0.0,0.0,-2.6961388512631874,-6.020875874389184,-3.6695290095543167,-0.01067823750385999,-0.00986948103241694,-0.8107669116289642
12458,1.0,300.18372999999997,40501.982,0.0,-0.12458018914717495,0.0,0.0,0.0,0.0,-2.6810713156511374,-6.0109609181856545,-3.619558959672657,-0.0001271821190368979,-0.022895390140349078,-0.7985269416134732
12459,1.0,299.85118,40486.759,0.0,-0.12459018513459419,0.0,0.0,0.0,0.0,-2.6854288990311974,-5.989666859384094,-3.6318679218874563,0.004213417345231916,-0.005764938626330145,-0.8245860623228082
12460,1.0,299.49699,40557.734,0.0,-0.12460018112201354,0.0,0.0,0.0,0.0,-2.6908192882381874,-6.004610069208874,-3.633109254584967,-0.00952469684801439,0.0003522821844800446,-0.8100428127100012
12461,1.0,300.07221,40390.376000000004,0.0,-0.1246101771094329,0.0,0.0,0.0,0.0,-2.6327854900856975,-6.016511096933415,-3.628369371942177,-0.002979365153665447,-0.017157523023565685,-0.8449679933843482
12462,1.0,300.13886,40362.012,0.0,-0.12462020608690971,0.0,0.0,0.0,0.0,-2.6373200882582273,-6.002713568996704,-3.629010049980406,-0.0037179724968353163,0.02108511041893838,-0.8253548354386802
12463,1.0,300.07122000000004,40492.164,0.0,-0.12463020207432884,0.0,0.0,0.0,0.0,-2.6581657838905373,-6.019781665606194,-3.630659215843167,0.008385924312376293,0.01986563859233588,-0.8502766335732702
12464,1.0,299.78103,40355.36,0.0,-0.12464019806174831,0.0,0.0,0.0,0.0,-2.649216556357318,-6.008095750877884,-3.6097094594255865,-0.008123667930068603,0.00032615615886660674,-0.8279427673865892
12465,1.0,299.82206,40349.677,0.0,-0.12465019404916744,0.0,0.0,0.0,0.0,-2.643347710453108,-6.013494043435654,-3.6084526240015466,-0.03346644402213087,-0.029865981381792868,-0.8356351797607712
12466,1.0,300.49692000000005,40776.457,0.0,-0.1246601900365869,0.0,0.0,0.0,0.0,-2.6926013925140677,-6.037392154994214,-3.665031192360417,-0.005621352271884275,-0.012886381022786787,-0.8138073306740302
12467,1.0,300.11409,40709.407,0.0,-0.12467018602400626,0.0,0.0,0.0,0.0,-2.6770850884327273,-6.017277215334024,-3.6802810116654565,0.014056940227311987,0.012651018223308289,-0.8198726660376322
12468,1.0,300.80476,40448.422,0.0,-0.1246801820114255,0.0,0.0,0.0,0.0,-2.654961177799268,-6.0236881500417345,-3.616661064386656,0.008278024727777432,0.02302470517111148,-0.8330248651181531
12469,1.0,300.47733,40534.116,0.0,-0.12469017799884485,0.0,0.0,0.0,0.0,-2.6661465469781773,-6.0158474181179145,-3.6393652633523867,0.004730897850178266,-0.008203792606901293,-0.8203160136188872
12470,1.0,300.31286,40717.592000000004,0.0,-0.12470020697632167,0.0,0.0,0.0,0.0,-2.7169273995898573,-6.013386436275034,-3.6468174138628564,0.015485444536294383,0.008311832425313992,-0.8133970251785362
12471,1.0,299.79418,40617.66,0.0,-0.1247102029637408,0.0,0.0,0.0,0.0,-2.6725207007072576,-6.037286776983815,-3.6369468380137064,0.02599051455831408,0.0033567528891857165,-0.8209346737324442
12472,1.0,300.0553,40622.942,0.0,-0.12472019895116027,0.0,0.0,0.0,0.0,-2.685298392418318,-6.011007831665284,-3.6520536877296363,0.013303543181707487,-0.013431652444850888,-0.8049355053159493
12473,1.0,299.35636,40687.181000000004,0.0,-0.1247301949385794,0.0,0.0,0.0,0.0,-2.6506505078988374,-6.042907883238574,-3.6743286739530063,-0.017836401603815784,-0.028466485409923373,-0.8077253881412892
12474,1.0,299.82462000000004,40567.951,0.0,-0.12474019092599875,0.0,0.0,0.0,0.0,-2.6642293764639677,-6.028999607065935,-3.638415037408607,-0.015567781239420384,-0.0004318742869276737,-0.7995603249929601
12475,1.0,299.75338999999997,40689.977999999996,0.0,-0.12475018691341822,0.0,0.0,0.0,0.0,-2.6846710892814074,-6.018088929989135,-3.6659772639787866,-0.003175616499283947,0.012972123259498888,-0.8048564110131432
12476,1.0,299.85277,40762.572,0.0,-0.12476018290083735,0.0,0.0,0.0,0.0,-2.7240632134191074,-6.019515180829894,-3.647225551003136,-0.015565748659719787,0.012515332889167187,-0.7813546423636992
12477,1.0,299.79154,40425.951,0.0,-0.12477017888825681,0.0,0.0,0.0,0.0,-2.654761668854577,-6.0079949324929345,-3.6257230666560067,-0.01243232034822449,-0.017450673502747382,-0.8019642304577073
12478,1.0,299.97011000000003,40342.982,0.0,-0.12478020786573352,0.0,0.0,0.0,0.0,-2.6306821855281175,-6.010771643066974,-3.6218052338193463,0.0019222678714880682,0.005450153231013245,-0.8186193161939361
12479,1.0,299.84247,40741.907,0.0,-0.12479020385315276,0.0,0.0,0.0,0.0,-2.665073920422318,-6.051304078867214,-3.6681444032926667,0.016084353365652088,0.008346286069789302,-0.8448977447549151
12480,1.0,299.67319,40654.437000000005,0.0,-0.12480019984057211,0.0,0.0,0.0,0.0,-2.6903010108120373,-6.019032265832235,-3.648600328738817,0.0015636080375660986,0.0028520263658980876,-0.8329985712780581
12481,1.0,299.82638,40279.509,0.0,-0.12481019582799135,0.0,0.0,0.0,0.0,-2.630680868302987,-6.030140222703504,-3.583143764328757,-0.011848575819863387,-0.017344194089488684,-0.8477479666237102
12482,1.0,299.33194,40445.876000000004,0.0,-0.12482019181541071,0.0,0.0,0.0,0.0,-2.673658580569558,-6.016151899772964,-3.6047258901337464,-0.003691205772918647,0.009131358225444891,-0.8307865753822513
12483,1.0,299.55416,40776.824,0.0,-0.12483018780283017,0.0,0.0,0.0,0.0,-2.689777059185327,-6.026604891779594,-3.678754246414776,0.006476014039107823,-0.0032907126927180564,-0.8083711628275222
12484,1.0,299.44377000000003,40860.725,0.0,-0.1248401837902493,0.0,0.0,0.0,0.0,-2.6897046118031773,-6.057226221726684,-3.673709375491886,0.002621941282215457,-0.017166045470156783,-0.8185886451134091
12485,1.0,299.47587000000004,40746.779,0.0,-0.12485017977766866,0.0,0.0,0.0,0.0,-2.663993390515677,-6.026732459967184,-3.6952774171204865,-0.004645743095874146,-0.011451286535153989,-0.7925267582313013
12486,1.0,299.78829,40609.864,0.0,-0.12486020875514547,0.0,0.0,0.0,0.0,-2.6814165299602073,-6.029870596851895,-3.633097399558796,-0.009908258113743941,0.02473092410725218,-0.8066574731983942
12487,1.0,300.10717999999997,40508.651,0.0,-0.12487020474256472,0.0,0.0,0.0,0.0,-2.660966204516918,-6.024252226372404,-3.6283998707701866,-0.018005673139021586,0.023274773269291275,-0.8060421061476623
12488,1.0,300.31691,40758.885,0.0,-0.12488020072998407,0.0,0.0,0.0,0.0,-2.7134056462172875,-6.033594594944424,-3.6426830494798264,-0.027624775512103072,0.015612278117561884,-0.8067909283690653
12489,1.0,299.82822999999996,40840.619,0.0,-0.12489019671740331,0.0,0.0,0.0,0.0,-2.692283839932727,-6.058509908278374,-3.663734738857467,-0.008600592086512352,-0.001986012245879148,-0.8248997848187701
12490,1.0,299.75661,40480.079,0.0,-0.12490019270482289,0.0,0.0,0.0,0.0,-2.6273533549745873,-6.037803433209804,-3.639776541567976,0.01075957007613689,0.010673506639143092,-0.8292048615786481
12491,1.0,299.88272,40542.43,0.0,-0.12491018869224202,0.0,0.0,0.0,0.0,-2.6310905253184176,-6.057603049438874,-3.6351930034156172,0.008981478068002872,-0.0022548599214123476,-0.8350954518300042
12492,1.0,299.48927000000003,40949.487,0.0,-0.12492018467966126,0.0,0.0,0.0,0.0,-2.7284826050552677,-6.059448887146044,-3.6596901484332967,0.014441098803975486,-0.013590890777566488,-0.8102088438713873
12493,1.0,298.562,40860.303,0.0,-0.12493018066708061,0.0,0.0,0.0,0.0,-2.7159505251684477,-6.053809137089444,-3.6507522693011967,0.016960102387331786,0.0018196398218594681,-0.8269125453474142
12494,1.0,299.58248,40545.275,0.0,-0.12494020964455743,0.0,0.0,0.0,0.0,-2.6789804740697876,-6.0452452485692545,-3.6005253605191867,0.02260693404888068,0.00818757209400045,-0.8274839981388122
12495,1.0,300.07357,40597.012,0.0,-0.12495020563197667,0.0,0.0,0.0,0.0,-2.6602836792495577,-6.0256812129884345,-3.654512845722336,0.01067883734791919,-0.02074670616379048,-0.8333039952557012
12496,1.0,300.47149,40678.852,0.0,-0.12496020161939603,0.0,0.0,0.0,0.0,-2.667180771355248,-6.039904711267185,-3.658269673118107,0.009270578687859882,-0.021479542338365777,-0.8229450429908521
12497,1.0,300.33274,40494.578,0.0,-0.12497019760681538,0.0,0.0,0.0,0.0,-2.6317788261113475,-6.041679824117374,-3.635881912158607,0.006138897422187004,-0.022187327930718776,-0.8378391507157862
12498,1.0,300.42195,40512.413,0.0,-0.12498019359423485,0.0,0.0,0.0,0.0,-2.6755696715831676,-6.029428718483285,-3.6097633643309064,0.02111669747755578,0.004013954503421466,-0.8366279115462463
12499,1.0,299.63719,40587.454,0.0,-0.12499018958165398,0.0,0.0,0.0,0.0,-2.6574473895696373,-6.050586495146394,-3.6295386625575765,-0.0003259644215501837,0.008983328566660502,-0.8279737525746472
12500,1.0,299.73244,40739.294,0.0,-0.12500018556907322,0.0,0.0,0.0,0.0,-2.6930788359611872,-6.0586169074889344,-3.632032473703697,-0.006766356092987353,0.014109508655750088,-0.8317779392800912
12501,1.0,299.17073999999997,41046.928,0.0,-0.12501018155649257,0.0,0.0,0.0,0.0,-2.7024829114642976,-6.0765306626318845,-3.6982275961116464,0.004214463424635155,0.019783597758239083,-0.8205465482816393
12502,1.0,299.047,40984.782,0.0,-0.12502017754391181,0.0,0.0,0.0,0.0,-2.700256091719527,-6.0540383342620645,-3.704056013336867,-0.009087612064302482,0.018444409419071484,-0.8169723896138972
12503,1.0,299.45324,40605.846,0.0,-0.12503020652138852,0.0,0.0,0.0,0.0,-2.6552911933568373,-6.032166216278454,-3.655705947715086,0.006490403102452915,-0.011197545405361688,-0.7898614545057563
12504,1.0,299.5818,40699.857,0.0,-0.12504020250880798,0.0,0.0,0.0,0.0,-2.6986374246847773,-6.036111812167854,-3.6369910157180665,-0.018646000592716983,-0.024652217879234477,-0.7966019792059943
12505,1.0,299.54008,40987.068,0.0,-0.12505019849622734,0.0,0.0,0.0,0.0,-2.739829587625127,-6.044179613439085,-3.675035922522807,0.01986095332387348,-0.002152723804707298,-0.8011027854876892
12506,1.0,300.13561,40837.362,0.0,-0.1250601944836467,0.0,0.0,0.0,0.0,-2.7099175327480376,-6.050888443676195,-3.6527324639716268,3.747776843226776e-06,-0.0003463356020281627,-0.8162765603727242
12507,1.0,299.93714,40598.366,0.0,-0.12507019047106593,0.0,0.0,0.0,0.0,-2.6419553021656874,-6.049933962081994,-3.6490003598782965,0.016020500370850285,0.002129664765556548,-0.8261892468960302
12508,1.0,300.43072,40717.054,0.0,-0.12508018645848518,0.0,0.0,0.0,0.0,-2.6551068831636475,-6.055899674695764,-3.6659610519771864,-0.006922914277863443,-0.007635965325686102,-0.8263126202282063
12509,1.0,300.82794,40756.539,0.0,-0.12509018244590453,0.0,0.0,0.0,0.0,-2.6625685582250576,-6.057850586438304,-3.668551121882807,-0.008309221786431342,0.013096367986760886,-0.8308343197269633
12510,1.0,300.0949,40742.254,0.0,-0.12510017843332388,0.0,0.0,0.0,0.0,-2.6819293358358176,-6.051578669644314,-3.6511198764374764,-0.017234573600919983,-0.013847773995918886,-0.8184043653177222
12511,1.0,299.61726,40934.842000000004,0.0,-0.12511020741080048,0.0,0.0,0.0,0.0,-2.6931426707174873,-6.055616876592853,-3.6944103790099163,-0.033757468702602766,-0.025539221069774874,-0.8091857652454172
12512,1.0,299.86057999999997,40843.024,0.0,-0.12512020339821983,0.0,0.0,0.0,0.0,-2.7073984916744274,-6.0579113814443035,-3.6499494712469667,-0.025840767339285177,-0.010748037263498688,-0.8208965451311812
12513,1.0,299.71286000000003,40727.307,0.0,-0.1251301993856393,0.0,0.0,0.0,0.0,-2.6505730955911972,-6.066199868587314,-3.663311402965686,-0.010693891204654889,0.022713546197902477,-0.8383528989139891
12514,1.0,300.09445,40879.446,0.0,-0.12514019537305865,0.0,0.0,0.0,0.0,-2.694010620753147,-6.064959954439945,-3.6673601477152666,0.011565401801166289,0.03035400822620737,-0.8369600853265292
12515,1.0,299.69768999999997,40728.837,0.0,-0.1251501913604779,0.0,0.0,0.0,0.0,-2.6790893984555373,-6.055112885993115,-3.6463472658164564,0.007489380865519342,-0.0007486174131602863,-0.8198542755483172
12516,1.0,299.75056,40509.995,0.0,-0.12516018734789702,0.0,0.0,0.0,0.0,-2.659728316869747,-6.051300329841844,-3.602998298713246,0.028096552864663872,-0.016797912457074883,-0.8363705662858482
12517,1.0,300.46211,40697.314,0.0,-0.1251701833353165,0.0,0.0,0.0,0.0,-2.6706654397741576,-6.056000087780674,-3.644301615189567,0.010786350276279888,-0.0017349970628308784,-0.8390160001769322
12518,1.0,300.39033,40911.771,0.0,-0.12518017932273584,0.0,0.0,0.0,0.0,-2.7023171437479374,-6.064302456450053,-3.6695372168801264,0.013843333933980686,-0.01164252026627729,-0.8266672881607092
12519,1.0,300.54677999999996,40865.48,0.0,-0.12519020830021266,0.0,0.0,0.0,0.0,-2.6555968909120073,-6.075201075850664,-3.6912873395516965,-0.015628623868175085,-0.0005711977867453325,-0.8161814668508393
12520,1.0,300.52365,40946.119,0.0,-0.125200204287632,0.0,0.0,0.0,0.0,-2.6814377068872974,-6.075391668194474,-3.6897682750017764,-0.005362574579819905,0.011689186512882888,-0.8119307914888302
12521,1.0,300.14124,41151.654,0.0,-0.12521020027505125,0.0,0.0,0.0,0.0,-2.7290264163839373,-6.080263172025254,-3.699785772115426,-0.004763207052141936,0.015228268488663087,-0.7955031601350493
12522,1.0,299.88828,41023.042,0.0,-0.1252201962624706,0.0,0.0,0.0,0.0,-2.7191697220611575,-6.079454699770464,-3.671356000809626,-0.012160579843655789,-0.009549867095073501,-0.7933968158271693
12523,1.0,299.80654,40888.601,0.0,-0.12523019224988974,0.0,0.0,0.0,0.0,-2.7008647510545973,-6.069497997662814,-3.6587508655905965,-0.012775810105624287,-0.03990609119792456,-0.8051887773109453
12524,1.0,299.96182999999996,40963.415,0.0,-0.12524018823730898,0.0,0.0,0.0,0.0,-2.7085129654594176,-6.066954334611774,-3.6763881047812568,0.004143645044670926,-0.01821471170090208,-0.8304864101726273
12525,1.0,299.74862,40677.942,0.0,-0.12525018422472833,0.0,0.0,0.0,0.0,-2.6480099781382376,-6.057605075939073,-3.6594635857109363,0.009176904526714961,0.014114277010720686,-0.8496916741580391
12526,1.0,299.41585,40433.461,0.0,-0.1252601802121478,0.0,0.0,0.0,0.0,-2.6421476170346674,-6.033221414932594,-3.6153934885115566,0.008613598266120962,-0.0037775566689658164,-0.8520007292809252
12527,1.0,299.90269,40752.679,0.0,-0.1252702091896245,0.0,0.0,0.0,0.0,-2.6881986181795474,-6.035033410086424,-3.6645647933393866,-0.00918912189112072,-0.009013038883442681,-0.8265021689244132
12528,1.0,300.1911,40932.018,0.0,-0.12528020517704397,0.0,0.0,0.0,0.0,-2.7176303925092373,-6.067367538002554,-3.657313468998736,0.017600617292295683,-0.0011751602719042888,-0.8430965407146501
12529,1.0,300.05983,40851.348,0.0,-0.1252902011644631,0.0,0.0,0.0,0.0,-2.682173123809877,-6.076484154452294,-3.659132556903267,0.016685234992954483,0.006332080646502704,-0.8472674226312843
12530,1.0,300.69616,41075.962999999996,0.0,-0.12530019715188256,0.0,0.0,0.0,0.0,-2.7060722486185376,-6.098928353442364,-3.6810663818179665,0.0060516676330030945,-0.002881331889265317,-0.8319626345083192
12531,1.0,300.08896,41062.772000000004,0.0,-0.1253101931393017,0.0,0.0,0.0,0.0,-2.6744383778465175,-6.097471502448585,-3.710147571613057,-0.016377166432550487,-0.006728139744265693,-0.8174672305652343
12532,1.0,300.19548,40982.572,0.0,-0.12532018912672094,0.0,0.0,0.0,0.0,-2.6882866696132375,-6.0929015418475645,-3.6764904430413563,-0.018087009764298882,0.018975100172196585,-0.8150235246365592
12533,1.0,299.95912000000004,40998.974,0.0,-0.1253301851141405,0.0,0.0,0.0,0.0,-2.6809012922843576,-6.086779383418354,-3.6949837772415064,-0.0059280762494055735,0.026415164635473776,-0.8159388947768992
12534,1.0,299.34074,40814.373999999996,0.0,-0.12534018110155964,0.0,0.0,0.0,0.0,-2.6859472777823576,-6.0606409758886945,-3.6599624087351663,-0.015158559921533386,0.0029182161180805076,-0.8080388573247262
12535,1.0,300.17451,40671.671,0.0,-0.12535021007903646,0.0,0.0,0.0,0.0,-2.6592307097456374,-6.052850501169835,-3.6510912014596464,-0.01008874835405694,-0.008413348635607863,-0.8098269600411983
12536,1.0,300.06389,40886.837999999996,0.0,-0.12536020606645593,0.0,0.0,0.0,0.0,-2.6863921959012673,-6.067149283931014,-3.675036327822847,0.014483923819451986,-0.0002489067717101858,-0.8343367605526273
12537,1.0,299.42505,41093.13,0.0,-0.12537020205387506,0.0,0.0,0.0,0.0,-2.7088752023701677,-6.066478512364815,-3.7159318111339164,0.030940159223555967,0.026087645726150178,-0.8244276811996772
12538,1.0,300.60412,41018.396,0.0,-0.1253801980412944,0.0,0.0,0.0,0.0,-2.723317562670518,-6.0651314976818735,-3.6801189929744664,0.016943284462171984,-0.022488095010902178,-0.8263619047130702
12539,1.0,300.6652,40947.518,0.0,-0.12539019402871365,0.0,0.0,0.0,0.0,-2.6987111892920574,-6.071675370802703,-3.6766363510557567,0.016993769648404485,-0.016913430061225584,-0.8160585596137092
12540,1.0,300.39654,41204.596,0.0,-0.125400190016133,0.0,0.0,0.0,0.0,-2.7523318779590076,-6.084317996275434,-3.6885184310034265,0.0026038666229566275,0.003367579871804257,-0.8251139554924072
12541,1.0,300.4595,41157.452000000005,0.0,-0.12541018600355247,0.0,0.0,0.0,0.0,-2.732386759015577,-6.096226015425665,-3.6822249319823066,0.02257081066956558,0.017075464964217184,-0.8203367548484343
12542,1.0,299.98429,40729.655,0.0,-0.1254201819909716,0.0,0.0,0.0,0.0,-2.669408097725068,-6.066175145284874,-3.6452148575046968,-0.01734273703584488,-0.005932679647259895,-0.8358050410075352
12543,1.0,300.08909,40763.276,0.0,-0.12543021096844842,0.0,0.0,0.0,0.0,-2.643305356598927,-6.079537279653614,-3.6681754087457263,-0.017186694493944683,0.005775756185722755,-0.8201780494852713
12544,1.0,299.62807999999995,40930.018,0.0,-0.12544020695586777,0.0,0.0,0.0,0.0,-2.6948049075065375,-6.075533219233444,-3.6713652213855363,-0.001037130682331829,0.021573835392671777,-0.8246686523384592
12545,1.0,299.07965,40973.22,0.0,-0.12545020294328701,0.0,0.0,0.0,0.0,-2.6722647537319975,-6.088918151729435,-3.6936529745601665,-0.012197186543268589,0.031452538520873874,-0.8244718487715362
12546,1.0,299.87532000000004,41075.623999999996,0.0,-0.12546019893070637,0.0,0.0,0.0,0.0,-2.709634531995108,-6.0987381663985945,-3.677591339275007,0.003311036868523897,-0.013135498692372788,-0.8207756339967482
12547,1.0,299.96261,41028.339,0.0,-0.1254701949181256,0.0,0.0,0.0,0.0,-2.6916589685960575,-6.087332415322934,-3.6925989918061464,-0.00087857670886627,-0.013112924493394887,-0.8231752331485702
12548,1.0,299.7767,40886.307,0.0,-0.12548019090554496,0.0,0.0,0.0,0.0,-2.6595153316987274,-6.095902484668734,-3.672998479221726,0.008201759013950592,0.008633484312583562,-0.8445777097108301
12549,1.0,299.67824,41047.347,0.0,-0.12549018689296432,0.0,0.0,0.0,0.0,-2.6966977600183473,-6.103182585312224,-3.6774881904148264,0.01184220855623499,-0.004949413340244065,-0.8439759911389452
12550,1.0,299.50163,41168.535,0.0,-0.12550018288038356,0.0,0.0,0.0,0.0,-2.7406000630011675,-6.094546249409884,-3.6790604505949966,0.01671410147505338,-0.017335143739595483,-0.8167062392101302
12551,1.0,299.89615,40964.448,0.0,-0.1255101788678029,0.0,0.0,0.0,0.0,-2.702038905270477,-6.100459779643503,-3.6496708274694667,0.014677384674295087,-0.00938677648680271,-0.8335867021661022
12552,1.0,300.22155,40856.638,0.0,-0.12552020784527973,0.0,0.0,0.0,0.0,-2.704984018011137,-6.079265222001765,-3.635148420411217,0.025066040365825576,0.02093894199926268,-0.8285330362323442
12553,1.0,300.14399,41199.761,0.0,-0.12553020383269897,0.0,0.0,0.0,0.0,-2.7174408134155272,-6.106404923280245,-3.699852950597056,-0.004117075397898706,0.012424310606183988,-0.8170690536734372
12554,1.0,299.74638999999996,41227.87,0.0,-0.12554019982011833,0.0,0.0,0.0,0.0,-2.7132266049246176,-6.0977560230766645,-3.721260493409817,-0.007389458092332733,-0.019167420107427082,-0.8090801237899913
12555,1.0,299.64595,40954.142,0.0,-0.12555019580753768,0.0,0.0,0.0,0.0,-2.6763044805556873,-6.073535697986304,-3.6991963645322565,-0.013354885577524588,-0.01050143245416069,-0.8219140914116052
12556,1.0,299.64829,41009.848,0.0,-0.12556019179495692,0.0,0.0,0.0,0.0,-2.6931333488165676,-6.091020139061885,-3.681816085566957,0.0017403884652879686,0.005943085320486855,-0.8151788862743923
12557,1.0,299.76038,41047.076,0.0,-0.12557018778237627,0.0,0.0,0.0,0.0,-2.700048375449027,-6.077437014846335,-3.6998006668918966,-0.016405513117348086,-0.008047802652681282,-0.8302751677917792
12558,1.0,299.62768,40959.698,0.0,-0.12558018376979552,0.0,0.0,0.0,0.0,-2.7133171894835573,-6.094056444311544,-3.6433517945458265,-0.017756338633914185,-0.015565777030722587,-0.8244352704429262
12559,1.0,299.67736,40987.0,0.0,-0.12559017975721487,0.0,0.0,0.0,0.0,-2.684649304404257,-6.098806864755375,-3.6755681828003364,-0.01050307797232309,0.0007487120304546243,-0.8449439894894792
12560,1.0,298.79273,41007.148,0.0,-0.1256002087346917,0.0,0.0,0.0,0.0,-2.695993753848868,-6.083770435921394,-3.685384955069176,0.007639951755554534,0.02052291265395378,-0.8308554662565502
12561,1.0,299.56602999999996,40961.689,0.0,-0.12561020472211082,0.0,0.0,0.0,0.0,-2.6741082609639375,-6.102361244781164,-3.6748612382055668,-0.0052015271903757656,-0.0016377537282087082,-0.8550024320396702
12562,1.0,299.86332000000004,41170.68,0.0,-0.12562020070953028,0.0,0.0,0.0,0.0,-2.7233123950950073,-6.095548556408803,-3.695997533966557,-0.0015656416305167985,-0.011803947219208888,-0.8181087698660492
12563,1.0,299.6678,41224.58,0.0,-0.12563019669694964,0.0,0.0,0.0,0.0,-2.727246034633227,-6.105734354364064,-3.6982625532400966,0.004909062580186755,0.008988744895070051,-0.8314599915312123
12564,1.0,300.41789,40927.957,0.0,-0.12564019268436888,0.0,0.0,0.0,0.0,-2.6988042056512374,-6.086292212770274,-3.6559806398171966,0.0033965171800851473,0.028001304315513575,-0.8154349041771591
12565,1.0,300.35275,40901.818,0.0,-0.12565018867178823,0.0,0.0,0.0,0.0,-2.6624042090588373,-6.079841457333634,-3.6908856872120563,-0.004450980923927616,0.005193125320546566,-0.8359384759132041
12566,1.0,299.52454,41205.793,0.0,-0.12566018465920747,0.0,0.0,0.0,0.0,-2.7105227470327677,-6.106352842225104,-3.7086565740909063,-0.01942148345075118,-0.008244707139314243,-0.8100575149689523
12567,1.0,299.41311,41155.614,0.0,-0.12567018064662683,0.0,0.0,0.0,0.0,-2.700574758875977,-6.099851018983424,-3.7098533237840168,0.0053877064247002246,-0.006632831818659534,-0.8286262856390473
12568,1.0,299.38385,41057.62,0.0,-0.12568020962410364,0.0,0.0,0.0,0.0,-2.6962032939695475,-6.103804315573584,-3.6804837630104665,-0.001215429161353519,-0.0022588413863552878,-0.8255971947300992
12569,1.0,299.87318999999997,41199.16,0.0,-0.12569020561152278,0.0,0.0,0.0,0.0,-2.721853314951008,-6.124631367404054,-3.6770311132947167,-0.0005110752444391995,-0.026858785794255775,-0.8260727636645342
12570,1.0,299.84769,41168.939,0.0,-0.12570020159894224,0.0,0.0,0.0,0.0,-2.742851504723368,-6.097965968497384,-3.6735119943724066,-0.019835726436133783,-0.02455309364845168,-0.8250937208879102
12571,1.0,300.28555,41010.888999999996,0.0,-0.1257101975863616,0.0,0.0,0.0,0.0,-2.6723650654918973,-6.1162444936763345,-3.677676553608417,0.013089460660829187,0.015853440760612788,-0.8462979550681052
12572,1.0,300.23946,41043.039,0.0,-0.12572019357378073,0.0,0.0,0.0,0.0,-2.698245296896077,-6.096519655304644,-3.6812939577904262,0.01229893914481079,0.027303323944378274,-0.8389000134379853
12573,1.0,300.55433,41145.722,0.0,-0.1257301895612002,0.0,0.0,0.0,0.0,-2.693861571663437,-6.101792406175024,-3.7116180001581762,0.011964832083336988,-0.0021926061392433783,-0.8341522274444152
12574,1.0,300.26304,41101.462999999996,0.0,-0.12574018554861932,0.0,0.0,0.0,0.0,-2.7053606430733077,-6.120408444962285,-3.668049360433286,-0.0046600188778580555,-0.006474257874034504,-0.8472214109442432
12575,1.0,299.88457,41099.615,0.0,-0.12575018153603879,0.0,0.0,0.0,0.0,-2.7191666823108576,-6.104246700567244,-3.669843218410326,0.018276020424702784,-0.004249372119730376,-0.8237213141574642
12576,1.0,299.59575,41170.846,0.0,-0.1257602105135155,0.0,0.0,0.0,0.0,-2.7330134542024274,-6.107619100875074,-3.674276795547886,0.003499661683289716,0.008539964469428871,-0.8299743946320952
12577,1.0,300.09359,41118.952000000005,0.0,-0.12577020650093473,0.0,0.0,0.0,0.0,-2.6813748853810977,-6.1256854514830845,-3.692074432229376,0.00025773381141384676,-0.014464816962316286,-0.8343740481563073
12578,1.0,299.67488,41090.085,0.0,-0.1257802024883543,0.0,0.0,0.0,0.0,-2.6932305195011574,-6.107505211563835,-3.689624089512546,-0.013027044454669186,-0.0033186415131744164,-0.8250789375689512
12579,1.0,299.51251,41275.036,0.0,-0.12579019847577355,0.0,0.0,0.0,0.0,-2.707343776169027,-6.122974399515524,-3.7162622319915264,-0.015118278163807883,0.016455393393270883,-0.8205495171044322
12580,1.0,299.64592000000005,41142.405,0.0,-0.12580019446319268,0.0,0.0,0.0,0.0,-2.719757711094187,-6.106308056570684,-3.680198127807276,-0.021739166398238682,-0.0013799970882701087,-0.8063532752533722
12581,1.0,299.65834,41112.471,0.0,-0.12581019045061215,0.0,0.0,0.0,0.0,-2.7187881320734975,-6.1144012904194245,-3.6639751831061966,-0.023633210492166275,-0.02718087469629347,-0.8153291309992202
12582,1.0,299.86595,41266.979,0.0,-0.12582018643803128,0.0,0.0,0.0,0.0,-2.7347342568472577,-6.107233153911984,-3.7021636674501064,-0.001978127437575978,-0.006427391206559124,-0.8173765852112882
12583,1.0,299.56068999999997,41282.782,0.0,-0.12583018242545063,0.0,0.0,0.0,0.0,-2.7037174553861374,-6.118174127166774,-3.7270434157055465,0.02029473785068468,0.011368994415032389,-0.8191722163760032
12584,1.0,299.97724,41208.848,0.0,-0.12584021140292745,0.0,0.0,0.0,0.0,-2.7076562624998677,-6.116624462463835,-3.7021801834267363,0.023506653528176078,0.007808902799753702,-0.8323600514625411
12585,1.0,299.58606000000003,41380.957,0.0,-0.1258502073903469,0.0,0.0,0.0,0.0,-2.7263475857695574,-6.119464906469164,-3.7329650519399666,0.010659237037984791,-0.013443252131995686,-0.8161786500155612
12586,1.0,300.58371,41344.932,0.0,-0.12586020337776627,0.0,0.0,0.0,0.0,-2.749556281960077,-6.125441359533994,-3.6928293035538764,0.017319437349795384,0.003990625534444076,-0.8312161934246513
12587,1.0,300.29138,40983.098,0.0,-0.1258701993651854,0.0,0.0,0.0,0.0,-2.700719856290297,-6.108874011123924,-3.648244475303697,0.008219618053588142,0.015074825946519486,-0.8199373519240163
12588,1.0,300.50511,41211.557,0.0,-0.12588019535260464,0.0,0.0,0.0,0.0,-2.7285057071575474,-6.118646707013415,-3.680131962575746,0.0016972753828080386,0.013657158347356587,-0.8237534645831373
12589,1.0,300.3016,41347.333,0.0,-0.125890191340024,0.0,0.0,0.0,0.0,-2.7211609611576772,-6.125600946424744,-3.721794780187546,-0.018061874069068184,-0.008767567090366501,-0.8316767561251052
12590,1.0,300.01037,41098.827000000005,0.0,-0.12590018732744324,0.0,0.0,0.0,0.0,-2.6958971911143372,-6.113444681000014,-3.6836753995004567,-0.014687662070059386,0.015884994381976884,-0.8212021514938422
12591,1.0,299.81388,41082.292,0.0,-0.1259101833148628,0.0,0.0,0.0,0.0,-2.6693781055221075,-6.118142412438644,-3.7004705265330062,-0.016633423462341083,0.012658206219517687,-0.8429331237385222
12592,1.0,299.83142999999995,41378.443,0.0,-0.12592017930228205,0.0,0.0,0.0,0.0,-2.7457017772546672,-6.126219231635765,-3.7060925447128565,-0.014232569906895287,0.015300002542742684,-0.8034504555718862
12593,1.0,299.50245,41298.627,0.0,-0.12593020827975876,0.0,0.0,0.0,0.0,-2.7371153945822577,-6.115416465694614,-3.7012195210069265,-0.005648703945083675,-0.017322315993329486,-0.8441725515258443
12594,1.0,299.65053,41129.117999999995,0.0,-0.12594020426717822,0.0,0.0,0.0,0.0,-2.7054060366777875,-6.1224280550616035,-3.6743908875091464,0.014730927849329386,0.006095265150355834,-0.8227076587574242
12595,1.0,299.6965,41122.242999999995,0.0,-0.12595020025459736,0.0,0.0,0.0,0.0,-2.6852863347421274,-6.116202849097224,-3.6986457644279165,0.02580054232356527,-0.008674458525427402,-0.8529143161010893
12596,1.0,299.191,41217.454,0.0,-0.1259601962420166,0.0,0.0,0.0,0.0,-2.717965170342277,-6.118375054661604,-3.692736489844717,0.015191905982324384,-0.01828591683842948,-0.8080902797673012
12597,1.0,299.76945,41342.715,0.0,-0.12597019222943595,0.0,0.0,0.0,0.0,-2.7100381095099375,-6.145642628102704,-3.711472294793796,0.008337028712900672,-0.023002921307211578,-0.8454538062772942
12598,1.0,299.76717,41440.207,0.0,-0.1259801882168553,0.0,0.0,0.0,0.0,-2.7636007389461574,-6.1284540560563245,-3.7047333710287167,0.0019034903206348681,0.013454990634404185,-0.7933119257337913
12599,1.0,300.25948,41285.193999999996,0.0,-0.12599018420427477,0.0,0.0,0.0,0.0,-2.706754165935837,-6.141187468738014,-3.701726450031957,0.0023953114826988377,0.015529005171343487,-0.8277537253154322
12600,1.0,300.01055,41233.665,0.0,-0.1260001801916939,0.0,0.0,0.0,0.0,-2.6957758037523574,-6.132517695582374,-3.705711157375217,-0.03053461701678207,-0.009961313611505112,-0.8221744561573012
12601,1.0,299.82769,41598.559,0.0,-0.12601020916917072,0.0,0.0,0.0,0.0,-2.735995043946687,-6.156980491421664,-3.751947785938417,-0.013528944719452886,-0.019245698743902584,-0.8275356941589141
12602,1.0,299.98534,41602.058,0.0,-0.12602020515659007,0.0,0.0,0.0,0.0,-2.7517799606295372,-6.156602346484344,-3.7376046228228565,-0.018009196209619282,0.006877984944579263,-0.8257668330618412
12603,1.0,301.01097000000004,41103.3,0.0,-0.1260302011440093,0.0,0.0,0.0,0.0,-2.6891953523029177,-6.127358732698224,-3.677822765597847,0.01191437729460749,-0.0012028733714143588,-0.8288813409542192
12604,1.0,300.87039,41008.05,0.0,-0.12604019713142856,0.0,0.0,0.0,0.0,-2.7023607135022374,-6.120878086383635,-3.642184429105617,0.002162472891869458,-0.015190931235728187,-0.8311422970948582
12605,1.0,300.388,41432.806000000004,0.0,-0.1260501931188479,0.0,0.0,0.0,0.0,-2.740872019328007,-6.141071046301524,-3.712595279879626,0.01991955464340698,0.0024393652665716074,-0.8329790864786353
12606,1.0,299.73451,41505.577000000005,0.0,-0.12606018910626726,0.0,0.0,0.0,0.0,-2.7379740227169975,-6.157809532653484,-3.7208752557217966,0.027516362817653572,0.01689693738934788,-0.8646683212361191
12607,1.0,300.07597999999996,41200.101,0.0,-0.12607018509368662,0.0,0.0,0.0,0.0,-2.6983175416282075,-6.1328273448129345,-3.6926571523618863,0.024149170615337577,0.01130214929268529,-0.8378575310726002
12608,1.0,299.40712,41155.649,0.0,-0.12608018108110586,0.0,0.0,0.0,0.0,-2.690993465930377,-6.128563689717144,-3.690732483796936,-0.006087215891561433,-0.012228401739099289,-0.8469090664684172
12609,1.0,299.78907999999996,41291.328,0.0,-0.12609021005858267,0.0,0.0,0.0,0.0,-2.7097530822568077,-6.129253409060214,-3.7125261762228066,0.0032995201665622863,-0.014300903493639288,-0.8194942576552862
12610,1.0,299.80212,41383.734,0.0,-0.12610020604600203,0.0,0.0,0.0,0.0,-2.7463136789900573,-6.142266478769503,-3.6910415250774364,-0.007469422067699563,0.02181162796589008,-0.8384885021748723
12611,1.0,300.17829,41413.143,0.0,-0.12611020203342127,0.0,0.0,0.0,0.0,-2.7075210949365274,-6.142541576171654,-3.7384987147110964,-0.025190127026071978,0.008736412385566772,-0.8150711676562612
12612,1.0,300.48693,41251.373,0.0,-0.1261201980208404,0.0,0.0,0.0,0.0,-2.707788592962927,-6.1314387868758935,-3.7001600667023666,-0.03312055894149467,-0.011617220424530388,-0.8284490377990542
12613,1.0,300.20996,41318.948,0.0,-0.12613019400825987,0.0,0.0,0.0,0.0,-2.6984533171416074,-6.142021170920294,-3.7194540711315365,-0.01915410093486258,0.013707528023077687,-0.8333596024211892
12614,1.0,300.04385,41636.759,0.0,-0.12614018999567922,0.0,0.0,0.0,0.0,-2.7604486192100675,-6.157252346423494,-3.7388341004941963,0.013393204669806386,0.017459167578335683,-0.8294772941330353
12615,1.0,300.40693999999996,41632.184,0.0,-0.12615018598309857,0.0,0.0,0.0,0.0,-2.7488335306637475,-6.158428425814565,-3.7478824238871966,0.004833105097040336,0.0002356964830014318,-0.8141021357906253
12616,1.0,300.24906,41179.645,0.0,-0.12616018197051782,0.0,0.0,0.0,0.0,-2.719621935580787,-6.1187229034209345,-3.6792390865876263,0.005103491798150425,-0.029723702829251075,-0.8129014040246222
12617,1.0,300.43734,41266.086,0.0,-0.12617021094799463,0.0,0.0,0.0,0.0,-2.6864136768033875,-6.131964359702764,-3.7254817946514263,0.0023620782979689777,0.0033364936627112867,-0.8218839269561282
12618,1.0,300.02537,41551.08,0.0,-0.12618020693541399,0.0,0.0,0.0,0.0,-2.7450507640654176,-6.147779065938554,-3.7376608582034065,0.01081175954903759,0.030116967484563266,-0.8340695057062513
12619,1.0,299.76122999999995,41521.328,0.0,-0.12619020292283323,0.0,0.0,0.0,0.0,-2.735261146899257,-6.1495359402869445,-3.736650039903646,-0.005903024957908204,0.008615463456905042,-0.8309983953156561
12620,1.0,300.18297,41392.584,0.0,-0.12620019891025236,0.0,0.0,0.0,0.0,-2.713324383559268,-6.156521185151335,-3.712466495791917,-0.007301819558058483,-0.015491185611360985,-0.8344833981070992
12621,1.0,300.35485,41398.009,0.0,-0.12621019489767193,0.0,0.0,0.0,0.0,-2.731126681191218,-6.150695706351404,-3.7021385388476262,-0.006242920919853324,-0.006761930317875564,-0.8239386360389123
12622,1.0,299.96049,41472.501000000004,0.0,-0.12622019088509118,0.0,0.0,0.0,0.0,-2.7248201112438077,-6.167859352445324,-3.7139252719608864,0.02250497981056858,0.00028287417772750775,-0.8342739086489241
12623,1.0,300.08715,41523.678,0.0,-0.12623018687251053,0.0,0.0,0.0,0.0,-2.700882280281327,-6.179764635820284,-3.7415142483337065,-0.021208803938145983,-0.014031885592089288,-0.8348979085905083
12624,1.0,300.17168,41538.887,0.0,-0.12624018285992977,0.0,0.0,0.0,0.0,-2.7186259107324875,-6.161554910323123,-3.746603499610976,-0.013440543714478387,-0.015860844579093484,-0.8422327956669052
12625,1.0,300.42631,41330.906,0.0,-0.12625021183740648,0.0,0.0,0.0,0.0,-2.7098284680642473,-6.143578738974014,-3.710156082913896,-0.02768763957480727,0.02269219904479568,-0.8540164181023582
12626,1.0,299.92576,41217.888999999996,0.0,-0.12626020782482594,0.0,0.0,0.0,0.0,-2.7003332000521376,-6.139360680132724,-3.689515063801786,0.020176829989548083,0.02165786624996498,-0.8492104512880463
12627,1.0,300.03495,41364.305,0.0,-0.12627020381224507,0.0,0.0,0.0,0.0,-2.7399752929895076,-6.1201384138106345,-3.713602045178986,0.009185619896125102,-0.016410877263377484,-0.8324559353195042
12628,1.0,299.7844,41514.145,0.0,-0.12628019979966454,0.0,0.0,0.0,0.0,-2.7448105224667074,-6.146425262479944,-3.728027585527676,0.006494667973448823,-0.01961361796121338,-0.8147911458586252
12629,1.0,299.87248,41436.044,0.0,-0.1262901957870839,0.0,0.0,0.0,0.0,-2.7026550626562873,-6.146886088625424,-3.745981465374587,0.016767418695315384,0.005400109720499335,-0.8424500162233431
12630,1.0,299.45824,41528.535,0.0,-0.12630019177450313,0.0,0.0,0.0,0.0,-2.729859814591187,-6.158061629278364,-3.7357163299364964,0.01732895683448488,0.019663949133430683,-0.8266405586230713
12631,1.0,299.57743999999997,41639.19,0.0,-0.1263101877619225,0.0,0.0,0.0,0.0,-2.7426832038817572,-6.170588541589674,-3.7440023852792668,-0.017249317403125086,0.0034831042647306266,-0.8408986087302311
12632,1.0,299.55814,41599.56,0.0,-0.12632018374934162,0.0,0.0,0.0,0.0,-2.7522230548982676,-6.178829709953014,-3.7141747341355065,-0.011945206442150089,-0.018820363709675283,-0.8209407633655452
12633,1.0,300.15652,41571.06,0.0,-0.12633017973676086,0.0,0.0,0.0,0.0,-2.7634319314794973,-6.165536375266065,-3.7075958025612166,-0.006884826915879514,0.015195802942208986,-0.8256905657268142
12634,1.0,299.53163,41456.284,0.0,-0.1263402087142379,0.0,0.0,0.0,0.0,-2.7304163928711174,-6.155856999710784,-3.7154016786815967,0.011805958520657389,0.00032918548282307765,-0.8194050004539772
12635,1.0,299.94449,41309.105,0.0,-0.12635020470165703,0.0,0.0,0.0,0.0,-2.6875572308662474,-6.152627265017035,-3.716751935764857,0.00045439546252784053,-0.005617575584786545,-0.8254388845344752
12636,1.0,300.5566,41351.301,0.0,-0.12636020068907639,0.0,0.0,0.0,0.0,-2.6981166141333772,-6.150377951120044,-3.721268396760596,-0.002417834309896668,-0.001136856783674029,-0.8512191689487911
12637,1.0,300.84614,41652.386,0.0,-0.12637019667649585,0.0,0.0,0.0,0.0,-2.736525784349068,-6.180488805666754,-3.7442705925807367,0.008037474898387012,0.024258048391582975,-0.8371883300440552
12638,1.0,300.85778999999997,41519.418,0.0,-0.12638019266391498,0.0,0.0,0.0,0.0,-2.7297618333065174,-6.169384293845824,-3.7217200023301666,-0.008266767316516412,0.015430418976363786,-0.8759708221265892
12639,1.0,300.19413,41266.873999999996,0.0,-0.12639018865133445,0.0,0.0,0.0,0.0,-2.7091303387453474,-6.155487568724324,-3.6794813546865366,0.0013178917472407886,-0.0012081154208067088,-0.8278950129093763
12640,1.0,300.10251,41466.146,0.0,-0.12640018463875358,0.0,0.0,0.0,0.0,-2.7227038370849472,-6.163646967804594,-3.7183223720948466,0.012054463173932889,-0.016678227355262882,-0.8626477181517013
12641,1.0,300.26392999999996,41658.266,0.0,-0.12641018062617304,0.0,0.0,0.0,0.0,-2.742288340317787,-6.178349429405615,-3.7424349886995762,0.011812350102288188,0.02180194433468438,-0.8171189157108583
12642,1.0,299.79346,41529.098,0.0,-0.12642020960364975,0.0,0.0,0.0,0.0,-2.717618638808077,-6.178383271958953,-3.7278070009809063,0.013302348559839588,-0.020977764676844177,-0.8655693437550431
12643,1.0,299.92312999999996,41544.85,0.0,-0.126430205591069,0.0,0.0,0.0,0.0,-2.7268148967156773,-6.167701386754734,-3.734080640300067,-0.0042077416247967665,-0.015388532230479883,-0.8107144455387862
12644,1.0,300.08002999999997,41541.916,0.0,-0.12644020157848834,0.0,0.0,0.0,0.0,-2.7450090181612974,-6.161340202626935,-3.721355840244226,-0.00909221556348181,-0.00967532508800524,-0.8303316666173552
12645,1.0,299.84077,41541.127,0.0,-0.1264501975659078,0.0,0.0,0.0,0.0,-2.7484352220494372,-6.159721332942165,-3.719308669742186,0.008007815446759853,0.014275266239609086,-0.7950331134136592
12646,1.0,300.06112,41707.284,0.0,-0.12646019355332694,0.0,0.0,0.0,0.0,-2.7414130948814073,-6.174820076657294,-3.761739733579806,-0.004692272959016286,0.006339213623231674,-0.8153102642823582
12647,1.0,299.78927999999996,41710.792,0.0,-0.1264701895407463,0.0,0.0,0.0,0.0,-2.732614841613087,-6.178429881463554,-3.7679944251220965,-0.02241618161155488,-0.016829221885164884,-0.8049095154508842
12648,1.0,300.08031,41447.508,0.0,-0.12648018552816553,0.0,0.0,0.0,0.0,-2.7106365350189976,-6.158098916882044,-3.7302720358241865,-0.002904862393687597,-0.016122440423660983,-0.8265127979179622
12649,1.0,300.58672,41574.479,0.0,-0.1264901815155849,0.0,0.0,0.0,0.0,-2.7373269612031375,-6.169911386547844,-3.7303650521833664,-0.0034711058636714767,0.014561211497329685,-0.8323625643227892
12650,1.0,300.67731000000003,41735.097,0.0,-0.1265002104930617,0.0,0.0,0.0,0.0,-2.7840864268179373,-6.179910746484704,-3.7224300880002468,0.021903492259706378,-0.004872869894564816,-0.8274430527022713
12651,1.0,300.38885,41617.254,0.0,-0.12651020648048106,0.0,0.0,0.0,0.0,-2.7577896482976474,-6.166084847545194,-3.7267315373247665,-0.0006200016364243974,-0.002187667659580988,-0.8353863559337141
12652,1.0,299.49332000000004,41458.087,0.0,-0.1265202024679003,0.0,0.0,0.0,0.0,-2.7129151318438773,-6.165890202200984,-3.7234180068477465,0.03043479566993047,0.0042112858723215565,-0.8530785943398022
12653,1.0,299.35875,41572.925,0.0,-0.12653019845531965,0.0,0.0,0.0,0.0,-2.7358973666370474,-6.166783179514114,-3.7344506792365864,0.011143346657512689,0.009666396226799032,-0.8478084171246761
12654,1.0,300.0585,41601.508,0.0,-0.1265401944427389,0.0,0.0,0.0,0.0,-2.7369706011429678,-6.171589734013485,-3.737259307188776,0.0043509672622070355,-0.001254878128821829,-0.8603639740163131
12655,1.0,299.93048,41460.226,0.0,-0.12655019043015825,0.0,0.0,0.0,0.0,-2.7203811638807176,-6.173038782981494,-3.7094534952945564,-0.013319811925313087,-0.02161128916936818,-0.8476284132444111
12656,1.0,300.33071,41548.377,0.0,-0.1265601864175775,0.0,0.0,0.0,0.0,-2.736277943374607,-6.175489024373315,-3.7179022786033866,-0.002316564724677138,0.014287691725585385,-0.8348501845107983
12657,1.0,300.09598,41585.45,0.0,-0.12657018240499684,0.0,0.0,0.0,0.0,-2.7504227121205873,-6.178395937585203,-3.712119761607696,-0.002495589805345538,0.03351077776700626,-0.8148593781203592
12658,1.0,300.18178,41554.457,0.0,-0.12658021138247366,0.0,0.0,0.0,0.0,-2.699708227390458,-6.1870774644420035,-3.744731722701246,0.0013766655219413088,0.008962389753344003,-0.8397905285533721
12659,1.0,300.75279,41713.171,0.0,-0.12659020736989302,0.0,0.0,0.0,0.0,-2.7387647630950376,-6.190955780524764,-3.750041963825326,-0.012600985959870487,-0.007611611960857613,-0.8341840536300562
12660,1.0,300.4271,41775.375,0.0,-0.12660020335731226,0.0,0.0,0.0,0.0,-2.7349437969679373,-6.207339122716673,-3.7563878478766166,0.014448342528940384,-0.013568389532595787,-0.8491144762385742
12661,1.0,300.16404,41578.659,0.0,-0.1266101993447316,0.0,0.0,0.0,0.0,-2.7518508881365373,-6.177401635262074,-3.7096215934861463,0.010870986043882789,-0.0007658740857458872,-0.8433661969637631
12662,1.0,299.73353,41630.102,0.0,-0.12662019533215085,0.0,0.0,0.0,0.0,-2.762365283099227,-6.173920006593464,-3.7182262146603566,-0.0057094537601292145,-0.001045979699430159,-0.8256295376732913
12663,1.0,299.36142,41751.024,0.0,-0.1266301913195702,0.0,0.0,0.0,0.0,-2.7763598881803873,-6.1768675511343645,-3.7380414349409667,-0.01695378173320798,0.0007370375654524444,-0.8255721066576232
12664,1.0,299.69937000000004,41597.666,0.0,-0.12664018730698956,0.0,0.0,0.0,0.0,-2.713619948613437,-6.179667870435734,-3.7513641538808167,-0.007037064399679183,0.01862921509156038,-0.8215254694682512
12665,1.0,299.70992,41540.48,0.0,-0.1266501832944088,0.0,0.0,0.0,0.0,-2.724476923434937,-6.180328914800974,-3.722462714653467,0.002025420278043418,0.016481282946575984,-0.8467487500375951
12666,1.0,299.65013,41673.375,0.0,-0.12666021227188562,0.0,0.0,0.0,0.0,-2.7420291509422077,-6.178829304652973,-3.746807061556067,0.007739136072068263,-0.013787488654719187,-0.8274964915125452
12667,1.0,299.91938999999996,41594.706,0.0,-0.12667020825930497,0.0,0.0,0.0,0.0,-2.745907264374947,-6.184018563715115,-3.7138260747760965,-0.0008307109058647833,-0.021172766685089377,-0.8409108487914392
12668,1.0,300.43192,41540.628,0.0,-0.12668020424672422,0.0,0.0,0.0,0.0,-2.7296087312164072,-6.195632233711294,-3.7020725762661164,0.011251667146203091,-0.003725366892090086,-0.8277542724704863
12669,1.0,300.43761,41711.697,0.0,-0.12669020023414357,0.0,0.0,0.0,0.0,-2.7468423928922374,-6.182684721283474,-3.749787131425176,-0.008471267632524022,0.008928985228022232,-0.8213888225597652
12670,1.0,300.1312,41741.215,0.0,-0.1267001962215627,0.0,0.0,0.0,0.0,-2.7404452383858873,-6.190646536594245,-3.7571953068813064,-0.026568067115314075,0.007300919082694613,-0.8341030848145652
12671,1.0,300.34292999999997,41579.966,0.0,-0.12671019220898216,0.0,0.0,0.0,0.0,-2.7234041955540675,-6.190459794600814,-3.725407320769076,-0.024617921389849678,-0.003143815442245427,-0.8429573201509102
12672,1.0,300.24239,41637.778,0.0,-0.12672018819640152,0.0,0.0,0.0,0.0,-2.7211050297521573,-6.202239840263415,-3.733499744017736,-0.012633424148571886,0.008297921919991132,-0.8598679171648561
12673,1.0,300.15412000000003,41758.096,0.0,-0.12673018418382076,0.0,0.0,0.0,0.0,-2.765397535348487,-6.199334649576694,-3.7286862994176864,0.017212496907741185,0.002283251695839398,-0.8219101701337183
12674,1.0,299.97862000000003,41641.611000000004,0.0,-0.1267401801712401,0.0,0.0,0.0,0.0,-2.7306936180984773,-6.192157089843324,-3.7351592450315168,0.011956481889262889,-0.017871083128238582,-0.8415152322110871
12675,1.0,299.59352,41657.653,0.0,-0.12675020914871693,0.0,0.0,0.0,0.0,-2.723484343636977,-6.2028980475283735,-3.736503929239226,0.03303209916801437,-0.01995557467121188,-0.8179923170320562
12676,1.0,300.14763999999997,41739.114,0.0,-0.12676020513613606,0.0,0.0,0.0,0.0,-2.7221949828847274,-6.199118928630404,-3.766334620133286,0.025031457126662476,-0.0038721265431991363,-0.8489312704879932
12677,1.0,300.42052,41749.186,0.0,-0.12677020112355553,0.0,0.0,0.0,0.0,-2.7394311776858076,-6.207018834360064,-3.7442599534546863,0.03549423206300797,0.005680497504071454,-0.8198969131125252
12678,1.0,299.85548,41837.227,0.0,-0.12678019711097466,0.0,0.0,0.0,0.0,-2.7636212065981773,-6.210316963435564,-3.7435340610830465,-0.0009973085753816932,-0.004448264096434486,-0.8512036560897602
12679,1.0,299.73581,41892.955,0.0,-0.12679019309839412,0.0,0.0,0.0,0.0,-2.8138736492827072,-6.186263115336635,-3.734275386969286,-0.006279515055164884,-0.0073837838917727334,-0.8055295637170783
12680,1.0,299.81662,41672.038,0.0,-0.12680018908581348,0.0,0.0,0.0,0.0,-2.7635214014633274,-6.184268025889734,-3.7194697765080864,-0.02330104076488368,0.02116794057486308,-0.8362809139170002
12681,1.0,299.93964,41747.013999999996,0.0,-0.1268101850732326,0.0,0.0,0.0,0.0,-2.7453302184429975,-6.192543746081484,-3.7521759698609363,-0.011729707397631989,0.017237558635714585,-0.8217065676586243
12682,1.0,300.67229,41944.242999999995,0.0,-0.12682018106065207,0.0,0.0,0.0,0.0,-2.7742141284436173,-6.197772217922494,-3.778016279211176,-0.026939508389972475,0.015902853928239483,-0.8414502930121781
12683,1.0,300.31372000000005,41737.16,0.0,-0.1268302100381289,0.0,0.0,0.0,0.0,-2.738899728008357,-6.197166699662735,-3.7509879341186863,-0.0030746305227674067,-0.01038096613652159,-0.8499714325106492
12684,1.0,300.3349,41439.476,0.0,-0.12684020602554802,0.0,0.0,0.0,0.0,-2.7121065582640775,-6.188013707534404,-3.6964455931607767,0.0023611786332051877,0.0067037549686841036,-0.8544357111262392
12685,1.0,300.23339,41698.526,0.0,-0.12685020201296737,0.0,0.0,0.0,0.0,-2.7652073483047177,-6.185387160625184,-3.724716284200876,0.018263721594988982,-0.008897806002570082,-0.8352658500993211
12686,1.0,299.7569,41987.56,0.0,-0.12686019800038661,0.0,0.0,0.0,0.0,-2.7830156241122577,-6.2072528951331645,-3.7729012913813667,0.017184911173768684,-0.022991970100130776,-0.8282097486554382
12687,1.0,299.49065,41882.855,0.0,-0.1268701939878062,0.0,0.0,0.0,0.0,-2.7430782700957477,-6.218452956438524,-3.769811081226386,0.014762158243911586,-0.024316740903625476,-0.8311624709043491
12688,1.0,299.96394,41834.94,0.0,-0.12688018997522543,0.0,0.0,0.0,0.0,-2.733722222647377,-6.218792901847074,-3.764262017053736,0.010341332858860089,0.005549176035461035,-0.8273931096048422
12689,1.0,299.71292,41916.523,0.0,-0.12689018596264456,0.0,0.0,0.0,0.0,-2.7502385032524077,-6.220616752027074,-3.7707209798161863,0.006414804816466943,0.009070120834451231,-0.8274462647050882
12690,1.0,300.25704,41867.34,0.0,-0.12690018195006403,0.0,0.0,0.0,0.0,-2.756678518237987,-6.227440282175504,-3.742507132106696,-0.016598494704893885,0.01939653723328918,-0.8319166836162842
12691,1.0,299.88676,41804.128,0.0,-0.12691021092754073,0.0,0.0,0.0,0.0,-2.7737256405704076,-6.203482388861045,-3.7302029321673666,-0.0014656397224973787,-0.002239132759985198,-0.8348769545784402
12692,1.0,300.42453,41848.333,0.0,-0.12692020691495998,0.0,0.0,0.0,0.0,-2.751544785281327,-6.211853151912174,-3.757450443256486,-0.004504883701422405,0.017098830511523184,-0.8199304111608312
12693,1.0,300.83248,41640.75,0.0,-0.12693020290237933,0.0,0.0,0.0,0.0,-2.7252402047352677,-6.199041921622803,-3.7334661041144166,-0.00038634872688715063,0.0015189269505564186,-0.8424342297867852
12694,1.0,301.07166,41689.911,0.0,-0.12694019888979868,0.0,0.0,0.0,0.0,-2.7111918973988076,-6.208887064894444,-3.7526128833040566,-0.005548907220209505,-0.016502661510435883,-0.8443604587568893
12695,1.0,300.7714,41951.317,0.0,-0.12695019487721815,0.0,0.0,0.0,0.0,-2.7694429363727373,-6.212992855624654,-3.7697169502920964,-0.004027207004129387,-0.022682187120557577,-0.8579192751025402
12696,1.0,300.25857,41868.899,0.0,-0.12696019086463728,0.0,0.0,0.0,0.0,-2.7666088758430374,-6.210342902638123,-3.750147949785786,0.01003714747813933,0.002996669540198257,-0.8426920918047343
12697,1.0,300.40581000000003,41770.832,0.0,-0.12697018685205652,0.0,0.0,0.0,0.0,-2.766979928029657,-6.207291297311953,-3.723018786308346,0.009365762186353762,6.072768566335594e-05,-0.8499305985316192
12698,1.0,300.22309,41987.922999999995,0.0,-0.12698018283947587,0.0,0.0,0.0,0.0,-2.765966981904687,-6.217498778819354,-3.7798145954886566,0.0036386642969332065,-0.006431638143028264,-0.8328564730840342
12699,1.0,299.5506,41921.581,0.0,-0.1269902118169527,0.0,0.0,0.0,0.0,-2.7509301477706676,-6.2179971965435445,-3.7741863964831963,0.007987792307558722,-0.018348050347811583,-0.8419701612409851
12700,1.0,300.13696,41734.825,0.0,-0.12700020780437193,0.0,0.0,0.0,0.0,-2.6961788746421376,-6.219118256454184,-3.771047550323417,-0.0008830928658869801,0.0025925690869916477,-0.8386539152536973
12701,1.0,300.04848,41778.492,0.0,-0.1270102037917913,0.0,0.0,0.0,0.0,-2.7386077093295373,-6.212082855709844,-3.7489276926903563,-0.001188557870026529,0.013714912589806486,-0.8469097757434871
12702,1.0,299.68502,41829.092000000004,0.0,-0.12702019977921064,0.0,0.0,0.0,0.0,-2.7700785481604675,-6.209022739082835,-3.735898309654457,-0.01888219020427708,0.008155743172584181,-0.8294750143203102
12703,1.0,300.1073,41795.138,0.0,-0.1270301957666301,0.0,0.0,0.0,0.0,-2.760736078263437,-6.212494032600424,-3.731448317865276,-0.0016676380200330585,0.01182450302398759,-0.8387282067510293
12704,1.0,299.43446,41962.89599999999,0.0,-0.12704019175404924,0.0,0.0,0.0,0.0,-2.7648141059409075,-6.217524312721873,-3.7733341518240864,0.00093899995340458,0.00896761893446008,-0.8163880482812272
12705,1.0,299.55893,42110.888,0.0,-0.12705018774146848,0.0,0.0,0.0,0.0,-2.777008773544427,-6.223770290313304,-3.7998794805939067,0.012761661081227888,-0.002103461510020488,-0.8247559742320772
12706,1.0,299.5059,41918.893,0.0,-0.12706018372888783,0.0,0.0,0.0,0.0,-2.736467725118337,-6.226520251084704,-3.7793086797137265,-0.0023879993633521878,-0.029243038260063175,-0.8463003564708422
12707,1.0,299.47145,41926.29,0.0,-0.12707021270636465,0.0,0.0,0.0,0.0,-2.763594051495497,-6.210944266572474,-3.7700069424707165,0.02078310616038288,-0.02173836086440918,-0.8464723962053211
12708,1.0,299.96045,42051.627,0.0,-0.12708020869378378,0.0,0.0,0.0,0.0,-2.789176995320337,-6.224758310485814,-3.7687093743926567,0.016716652838805184,0.0015500172126497887,-0.8342166397532723
12709,1.0,299.9644,41870.182,0.0,-0.12709020468120336,0.0,0.0,0.0,0.0,-2.7665721961894176,-6.219005887018094,-3.7419117463479368,0.017165471970600185,0.0036293931598432166,-0.8462262169610252
12710,1.0,300.1794,41735.034,0.0,-0.1271002006686226,0.0,0.0,0.0,0.0,-2.7332493388257073,-6.207784952760674,-3.7453738192896164,-0.007824258605019202,0.0015189272545314486,-0.8543327142535742
12711,1.0,300.4617,41889.377,0.0,-0.12711019665604195,0.0,0.0,0.0,0.0,-2.7442474593861372,-6.225762947959964,-3.7633143242352065,-0.01040091500449039,0.006960852286782633,-0.8394830882080301
12712,1.0,300.22736000000003,41809.16,0.0,-0.1271201926434612,0.0,0.0,0.0,0.0,-2.7215487319709477,-6.214671912365365,-3.7727199196134666,-0.011109144400387188,0.015088613240630185,-0.8458514968090431
12713,1.0,300.33286,41906.698,0.0,-0.12713018863088044,0.0,0.0,0.0,0.0,-2.7449129620518176,-6.243749353135085,-3.749927365239017,-0.008895553344947762,0.01956066044473688,-0.8377823479151801
12714,1.0,299.96342999999996,42152.365,0.0,-0.1271401846182998,0.0,0.0,0.0,0.0,-2.7888982502178274,-6.251710155195753,-3.772658010032357,-0.023952039768632277,0.005911307162900594,-0.8525485226824883
12715,1.0,299.88514,42136.343,0.0,-0.1271502135957766,0.0,0.0,0.0,0.0,-2.7903288580340173,-6.244803031914073,-3.7732641362421764,-0.0028936997213109272,-0.01079282291791869,-0.8254185992674732
12716,1.0,300.21361,41864.43,0.0,-0.12716020958319596,0.0,0.0,0.0,0.0,-2.7461505457239577,-6.230937920195694,-3.7486530005882464,-0.015334316257379185,-0.006816425846678854,-0.8449717322772171
12717,1.0,299.25451,41914.593,0.0,-0.1271702055706153,0.0,0.0,0.0,0.0,-2.7442818085645273,-6.229534670132204,-3.7671732872410564,-0.006265693614525814,-0.011047930922095888,-0.8400930039732242
12718,1.0,299.23488,42028.185999999994,0.0,-0.12718020155803456,0.0,0.0,0.0,0.0,-2.7562926725999075,-6.241283811666754,-3.7779425146038963,-0.003195120753108867,-0.024513177674012274,-0.8554287266217423
12719,1.0,299.71213,41783.456,0.0,-0.1271901975454539,0.0,0.0,0.0,0.0,-2.744975378257977,-6.211830151134904,-3.7443217617107862,0.0037055161067309664,-0.004139444109756326,-0.8470349425283402
12720,1.0,299.86239,41810.029,0.0,-0.12720019353287315,0.0,0.0,0.0,0.0,-2.7504462195229076,-6.207077501540853,-3.751681301162116,0.020347801758421682,-0.002237041614428818,-0.8255538884208252
12721,1.0,299.73222999999996,42098.816,0.0,-0.12721018952029228,0.0,0.0,0.0,0.0,-2.796592364852177,-6.225599814693864,-3.774796778343436,0.009232984272049601,0.007205923846069312,-0.8275589381162082
12722,1.0,299.68996,42019.049000000006,0.0,-0.12722018550771175,0.0,0.0,0.0,0.0,-2.7737551261483175,-6.215998662046303,-3.782987993476846,0.003766589351208427,0.0023968674295523976,-0.8217011366380882
12723,1.0,299.66254,41928.225,0.0,-0.1272301814951311,0.0,0.0,0.0,0.0,-2.755690092765437,-6.229855667763885,-3.759587489042396,0.002213601593240468,0.004331763842336806,-0.8507614028186131
12724,1.0,300.15387999999996,42117.612,0.0,-0.12724021047260792,0.0,0.0,0.0,0.0,-2.772443068593827,-6.243952104480094,-3.786307096829417,0.0024167129460109975,0.02065947039643098,-0.8196751227981361
12725,1.0,300.15442,42074.861,0.0,-0.12725020646002727,0.0,0.0,0.0,0.0,-2.779047635395647,-6.241350280873315,-3.769309421101876,-0.01068348816587819,0.01049041335932319,-0.8555274678439873
12726,1.0,299.92651,42012.385,0.0,-0.1272602024474465,0.0,0.0,0.0,0.0,-2.7501724393458873,-6.255230895318224,-3.765312757407436,0.00034997162974701064,-0.01154258644866459,-0.8471825426704073
12727,1.0,300.41269,42105.06,0.0,-0.12727019843486587,0.0,0.0,0.0,0.0,-2.777372023705277,-6.246472969403884,-3.7750417822176168,-0.008473449261314332,-0.006873521476563753,-0.8498349071921751
12728,1.0,300.2226,41963.718,0.0,-0.1272801944222851,0.0,0.0,0.0,0.0,-2.746616438119937,-6.238050631922664,-3.771255367918926,0.01164527934629959,-0.004434633146814216,-0.8299395084311523
12729,1.0,300.32125,41838.127,0.0,-0.12729019040970446,0.0,0.0,0.0,0.0,-2.7320949429867776,-6.240838893547845,-3.7448119721091664,-0.007948916636996994,-0.004728656439632055,-0.8690815421791702
12730,1.0,299.83181,42140.342000000004,0.0,-0.12730018639712382,0.0,0.0,0.0,0.0,-2.7752345726193273,-6.244090615768764,-3.7902865352721564,0.006128355061521555,-0.009406323803756882,-0.8455250073618211
12731,1.0,299.4432,42239.594000000005,0.0,-0.12731018238454306,0.0,0.0,0.0,0.0,-2.8144605237406273,-6.248658549869584,-3.7766628810526064,0.006192766661103484,-0.004798955326270016,-0.8410897684940971
12732,1.0,299.675,42000.84,0.0,-0.12732021136201987,0.0,0.0,0.0,0.0,-2.7584837246161475,-6.245816585989103,-3.762906085769916,0.025244344012422773,-0.002934582842970777,-0.8257035251955932
12733,1.0,299.63382,41930.453,0.0,-0.12733020734943923,0.0,0.0,0.0,0.0,-2.764845314043987,-6.230101076938103,-3.7508642162814767,0.012931180862708187,-0.007542349325096924,-0.8210674398930472
12734,1.0,299.64825,42033.505,0.0,-0.12734020333685836,0.0,0.0,0.0,0.0,-2.7535014725494373,-6.236781840147445,-3.7868525293582462,0.008535684298356452,-0.009297164647958711,-0.8230758130487582
12735,1.0,299.9087,41922.076,0.0,-0.12735019932427782,0.0,0.0,0.0,0.0,-2.746837630616768,-6.233729728196224,-3.7626969509492763,0.006503723693567554,0.011107858586010289,-0.8453542747199712
12736,1.0,299.87975,42014.425,0.0,-0.12736019531169718,0.0,0.0,0.0,0.0,-2.7551787054399677,-6.241459103934053,-3.7746982904337165,-0.001016552180750889,0.003648789299882466,-0.8456860432002142
12737,1.0,299.69333,42227.144,0.0,-0.12737019129911642,0.0,0.0,0.0,0.0,-2.8136528620859176,-6.254345314730824,-3.7679992887225766,-0.016990473545829183,-0.003324761037153367,-0.8610010144866842
12738,1.0,299.7921,42084.117,0.0,-0.12738018728653577,0.0,0.0,0.0,0.0,-2.7639765534082477,-6.248467957525774,-3.7800764193144962,-0.012054063953393488,-0.017455943416517482,-0.8355622460185733
12739,1.0,299.57321,41848.677,0.0,-0.12739018327395502,0.0,0.0,0.0,0.0,-2.7385833913271376,-6.2491318389912935,-3.733237616216867,-0.007035542295378963,0.007878603260882602,-0.8381909612830073
12740,1.0,300.27973,42159.394,0.0,-0.12740021225143172,0.0,0.0,0.0,0.0,-2.770262655703637,-6.2509699759977035,-3.794170525555476,-0.015405624746416787,0.007936221930469124,-0.8176622001494762
12741,1.0,300.48756000000003,42306.832,0.0,-0.12741020823885119,0.0,0.0,0.0,0.0,-2.7891443686671176,-6.265565337063154,-3.8055108206746766,-0.002496107880121668,0.0025879723765879874,-0.8378885871881652
12742,1.0,300.55978999999996,42010.052,0.0,-0.12742020422627032,0.0,0.0,0.0,0.0,-2.7594592818124273,-6.260676405330654,-3.7498711298584664,0.002970001101541287,-0.004644514023502845,-0.8584730872096973
12743,1.0,299.91459,42102.426,0.0,-0.12743020021368967,0.0,0.0,0.0,0.0,-2.779090597199887,-6.2625218377377845,-3.7564736701600863,0.01125604033363469,0.009197705538017862,-0.8492876406806643
12744,1.0,299.7383,42111.331,0.0,-0.1274401962011089,0.0,0.0,0.0,0.0,-2.7704473711968673,-6.263255329485173,-3.767090504707886,0.0065420207983221835,4.132687758089526e-05,-0.8472789331524201
12745,1.0,299.49933,41983.293,0.0,-0.12745019218852827,0.0,0.0,0.0,0.0,-2.7512398983262374,-6.264146685598145,-3.746486063924386,0.0008609828165148883,0.00956244588578993,-0.8367916223649032
12746,1.0,300.70022,42074.112,0.0,-0.12746018817594773,0.0,0.0,0.0,0.0,-2.7616750571311073,-6.243694941604714,-3.7841095600125363,-0.00031039721178381966,0.0026393034240039673,-0.8389046439909422
12747,1.0,300.07093,42140.475999999995,0.0,-0.12747018416336686,0.0,0.0,0.0,0.0,-2.7659820793311773,-6.261377574399853,-3.7822928025832363,0.0045650519109105454,0.007128358638989223,-0.8273037916085272
12748,1.0,299.08527999999995,42059.898,0.0,-0.12748021314084368,0.0,0.0,0.0,0.0,-2.7753709560827873,-6.256046561648724,-3.7537413399404262,-0.004273965726157576,-0.0051225666365829646,-0.8595383575698312
12749,1.0,299.36097,42288.113,0.0,-0.12749020912826303,0.0,0.0,0.0,0.0,-2.8078869623918674,-6.254585151029493,-3.7920584057220266,-0.014049327679310686,-0.01886961881028638,-0.8299210267493282
12750,1.0,299.58928,42374.309,0.0,-0.12750020511568227,0.0,0.0,0.0,0.0,-2.7993750536018074,-6.275850129553184,-3.805506565024256,-0.005568748987642735,-0.024875029549724273,-0.8267175453656691
12751,1.0,299.87112,41912.229,0.0,-0.12751020110310163,0.0,0.0,0.0,0.0,-2.739676586860027,-6.235948441940193,-3.7646459375166264,0.0014868411702397984,0.007539216862412773,-0.8011397083213332
12752,1.0,300.20937000000004,41909.075,0.0,-0.1275201970905211,0.0,0.0,0.0,0.0,-2.7150676803563174,-6.246149134671924,-3.7780955153689963,0.004030121415392016,0.0066057111664829336,-0.8366369902671422
12753,1.0,299.87532000000004,42344.392,0.0,-0.12753019307794022,0.0,0.0,0.0,0.0,-2.7975073296924773,-6.266494892704894,-3.807635606134376,5.476724802960655e-05,-0.007779586434610403,-0.8456335163150301
12754,1.0,300.04836,42344.183,0.0,-0.12754018906535958,0.0,0.0,0.0,0.0,-2.8224620584553177,-6.265673146873794,-3.7834390924213666,0.004153445706263176,-0.004328966461460726,-0.8719151467463252
12755,1.0,300.51013,42016.462,0.0,-0.12755018505277882,0.0,0.0,0.0,0.0,-2.7696604811692076,-6.270640706814054,-3.7316542102855963,0.007861585218828052,0.017827730209459984,-0.8722049565399271
12756,1.0,300.30709,42035.837,0.0,-0.12756021403025564,0.0,0.0,0.0,0.0,-2.7752970901504974,-6.242323000969314,-3.7602247220302867,0.016578450591415685,0.009364224072701962,-0.8480787117213522
12757,1.0,300.0707,42193.575,0.0,-0.127570210017675,0.0,0.0,0.0,0.0,-2.7710949393357773,-6.2648402552915945,-3.7898579304798568,-0.0016047977687062083,-0.0012116553113560688,-0.8389219705676522
12758,1.0,299.82514,42171.579000000005,0.0,-0.12758020600509423,0.0,0.0,0.0,0.0,-2.7421036248245576,-6.276423933084814,-3.8005793324379757,0.003109028742462247,-0.006122208990389984,-0.8232068972141953
12759,1.0,299.94709,42254.301,0.0,-0.12759020199251359,0.0,0.0,0.0,0.0,-2.7702916346564974,-6.2680654303598935,-3.8058953490876264,0.011020314790620388,-0.0034534462316536067,-0.8314519260604162
12760,1.0,299.97254,42243.317,0.0,-0.12760019797993294,0.0,0.0,0.0,0.0,-2.779737152088697,-6.270972647546814,-3.7902036514139765,0.001955911726483458,-0.008756019889576881,-0.8225236221417612
12761,1.0,299.43829,42044.331,0.0,-0.12761019396735218,0.0,0.0,0.0,0.0,-2.7723440740590575,-6.254496491645744,-3.7535863126751265,-0.014326264130392187,-0.02668990436033847,-0.8447644314392582
12762,1.0,299.51209,42166.565,0.0,-0.12762018995477153,0.0,0.0,0.0,0.0,-2.7694525622486874,-6.262207527556765,-3.7859228723914966,-0.013721787491734985,-0.015053821271946485,-0.8275931049095802
12763,1.0,299.60727,42309.990999999995,0.0,-0.12763018594219078,0.0,0.0,0.0,0.0,-2.798721405962297,-6.265682164799684,-3.7967773140877465,-0.01157198792681629,0.011772688453623888,-0.8293000057630382
12764,1.0,300.01398,42122.051,0.0,-0.12764018192961013,0.0,0.0,0.0,0.0,-2.735817623854177,-6.266212499902024,-3.8020215926303162,-0.001058029168294349,-0.006507509803891213,-0.8460308927392481
12765,1.0,300.2083,42149.477999999996,0.0,-0.12765021090708695,0.0,0.0,0.0,0.0,-2.7749451883907676,-6.2731870043153535,-3.7642566468282066,-0.00014067502346354384,-0.009226250515860032,-0.8550820633650292
12766,1.0,299.94788,42489.69,0.0,-0.1276602068945062,0.0,0.0,0.0,0.0,-2.8234920271819672,-6.283337743817153,-3.808974920116557,0.00931083197325757,0.002068651708135028,-0.8453327026253421
12767,1.0,299.8647,42363.757000000005,0.0,-0.12767020288192554,0.0,0.0,0.0,0.0,-2.828311145982577,-6.273860815631854,-3.7753522420482564,0.016675995165292584,0.01117716185309999,-0.8443514306984982
12768,1.0,300.57063,42211.91,0.0,-0.12768019886934467,0.0,0.0,0.0,0.0,-2.773336248556977,-6.287167930520164,-3.770862530855157,-0.0037926244072278865,-7.903622837651842e-06,-0.8403908589726202
12769,1.0,300.70149,42304.209,0.0,-0.12769019485676414,0.0,0.0,0.0,0.0,-2.7973775323546675,-6.263619896871154,-3.7984257706754367,-0.024283738334618374,-0.006908958480261113,-0.8268374736475053
12770,1.0,299.9017,42319.207,0.0,-0.1277001908441835,0.0,0.0,0.0,0.0,-2.763883131749027,-6.285472763102865,-3.8146264238743166,-0.013885690827910987,0.0038426431944393563,-0.8361370324028002
12771,1.0,298.98622,42162.413,0.0,-0.12771018683160273,0.0,0.0,0.0,0.0,-2.769999312002647,-6.2792275961115145,-3.767093949758226,-0.00844741866359531,0.024985424161369375,-0.8568853850980032
12772,1.0,299.2307,42311.739,0.0,-0.1277201828190221,0.0,0.0,0.0,0.0,-2.7933674937589075,-6.277086396000194,-3.7912583434430664,-0.011818993983193887,0.005031800503225045,-0.8544278787029662
12773,1.0,299.47758999999996,42306.369000000006,0.0,-0.1277302117964989,0.0,0.0,0.0,0.0,-2.7967925830719373,-6.288914875017574,-3.7743722265515367,-0.014827654730375586,-0.004453745678150475,-0.8607108804530501
12774,1.0,299.90936,42025.332,0.0,-0.12774020778391804,0.0,0.0,0.0,0.0,-2.7518898982653877,-6.264554012138344,-3.7582076450562165,-0.007494888082462864,0.0037694999121206762,-0.8428098213338531
12775,1.0,300.05432,42187.475999999995,0.0,-0.1277502037713376,0.0,0.0,0.0,0.0,-2.7679434275497474,-6.272962569418204,-3.783033285756317,0.013614416418388288,0.013503820169973289,-0.8608059841074363
12776,1.0,300.00957999999997,42497.405999999995,0.0,-0.12776019975875685,0.0,0.0,0.0,0.0,-2.8058456687404076,-6.293168802912404,-3.8191356907943463,0.005057600181246276,-0.016170287106633086,-0.8420414433855202
12777,1.0,300.4763,42356.032,0.0,-0.1277701957461761,0.0,0.0,0.0,0.0,-2.797844843300787,-6.289861959886045,-3.7874693960191266,0.02137112052466538,-0.023492982757826877,-0.8639520750054311
12778,1.0,300.49647999999996,42236.53599999999,0.0,-0.12778019173359545,0.0,0.0,0.0,0.0,-2.7693453603881073,-6.2857374240289845,-3.7837695132789766,0.012497377084145089,-0.0011655037958012689,-0.8511884066757552
12779,1.0,299.83241,42286.57,0.0,-0.12779018772101458,0.0,0.0,0.0,0.0,-2.777618750104627,-6.280734906960274,-3.7957076259571765,0.024478110101301378,0.008328377279571841,-0.8446007611506052
12780,1.0,300.24205,42296.514,0.0,-0.12780018370843405,0.0,0.0,0.0,0.0,-2.7777522964678076,-6.280062818168943,-3.7992690987336664,0.0015409221784271785,-0.013359514103981387,-0.8298421350965423
12781,1.0,299.55501,42362.344000000005,0.0,-0.12781021268591086,0.0,0.0,0.0,0.0,-2.7827627168872975,-6.288105288187674,-3.8062267831953362,0.011947229902599788,-0.007272090496149452,-0.8341064994674021
12782,1.0,299.63613,42418.475,0.0,-0.12782020867333022,0.0,0.0,0.0,0.0,-2.8000913200974975,-6.2687842299808345,-3.825281559275896,0.015169522274365287,0.017809063102867683,-0.8377064149526863
12783,1.0,299.82915,42198.819,0.0,-0.12783020466074957,0.0,0.0,0.0,0.0,-2.769781260581127,-6.281008991112324,-3.7765971211211165,0.0031863783299210567,0.017488263054957185,-0.8505235930201432
12784,1.0,299.67348,42090.162000000004,0.0,-0.1278402006481688,0.0,0.0,0.0,0.0,-2.7386243266311774,-6.276109116278744,-3.7796249150699364,-0.025110031632167178,-0.003693482545893346,-0.8577261597659812
12785,1.0,299.43262000000004,42517.82,0.0,-0.12785019663558794,0.0,0.0,0.0,0.0,-2.8223682314960574,-6.291916932413854,-3.8100703447996667,-0.014862246075539485,-0.021455752239267878,-0.8277908913291002
12786,1.0,299.84142,42615.468,0.0,-0.1278601926230074,0.0,0.0,0.0,0.0,-2.828527272228907,-6.292581117854404,-3.832929875005726,-0.0013904019508969886,0.018709894117522784,-0.8263440715113102
12787,1.0,299.81286,42206.863,0.0,-0.12787018861042654,0.0,0.0,0.0,0.0,-2.7698874491916072,-6.277245172290864,-3.7826998251484065,0.014583766444555685,0.011663488463846688,-0.8404850000394112
12788,1.0,300.11787999999996,42233.532,0.0,-0.1278801845978461,0.0,0.0,0.0,0.0,-2.7678952981699974,-6.275139334608034,-3.7949047265779368,0.008407669976747422,-0.005447429108119395,-0.8441655398351521
12789,1.0,299.62434,42476.053,0.0,-0.1278902135753227,0.0,0.0,0.0,0.0,-2.8050638449632475,-6.289155521916324,-3.817440219402017,0.015807929619121183,0.011208951561737387,-0.8537459715181672
12790,1.0,300.27415,42354.7,0.0,-0.12790020956274217,0.0,0.0,0.0,0.0,-2.772316716306358,-6.285774205007614,-3.816680079176996,0.016003065376379584,0.02083061644432178,-0.8448873386763882
12791,1.0,300.20908,42225.990999999995,0.0,-0.12791020555016153,0.0,0.0,0.0,0.0,-2.7672556333818674,-6.286877938341544,-3.781513410606317,-0.006532878749294933,0.0007565185854525713,-0.8526195008519931
12792,1.0,300.01342999999997,42296.79,0.0,-0.12792020153758066,0.0,0.0,0.0,0.0,-2.7805157334655375,-6.275472693890935,-3.8011794804722063,-0.02950723917063777,-0.021944981811551082,-0.8184019740474863
12793,1.0,299.82923999999997,42380.126,0.0,-0.1279301975249999,0.0,0.0,0.0,0.0,-2.7890714146599174,-6.298924975405495,-3.7945035808633465,2.4812411706794378e-05,-0.012401047397138088,-0.8613001968437112
12794,1.0,299.25464,42544.48,0.0,-0.12794019351241925,0.0,0.0,0.0,0.0,-2.8004323800811575,-6.3148143581736536,-3.817212947404587,0.002063258279177738,0.017912195751046085,-0.8426146187020882
12795,1.0,298.99307999999996,42560.397000000004,0.0,-0.12795018949983872,0.0,0.0,0.0,0.0,-2.8114447874679973,-6.304244943730534,-3.821608021038346,-0.0001967871725363818,0.004440800192222856,-0.8678444448670781
12796,1.0,299.71107,42275.422999999995,0.0,-0.12796018548725807,0.0,0.0,0.0,0.0,-2.7518887836902772,-6.295493198641804,-3.803290992355596,-0.016431570870169783,-0.005009360053260345,-0.8245648347332132
12797,1.0,299.55811,42186.90900000001,0.0,-0.12797021446473467,0.0,0.0,0.0,0.0,-2.7670226871838772,-6.285643191769685,-3.7711011512537063,-0.01085121246818129,0.00927670854698985,-0.8404728917007163
12798,1.0,299.79488,42640.347,0.0,-0.12798021045215402,0.0,0.0,0.0,0.0,-2.8303196103307973,-6.293250166895434,-3.838031082634176,0.00894807475858122,0.027537361412725975,-0.8177056989762692
12799,1.0,299.84497000000005,42541.224,0.0,-0.12799020643957348,0.0,0.0,0.0,0.0,-2.832274980373777,-6.282438889653444,-3.8167557689594664,-0.002141187141718718,0.004260712414849576,-0.8418764457392361
12800,1.0,299.87692999999996,42166.674000000006,0.0,-0.12800020242699262,0.0,0.0,0.0,0.0,-2.759752719041387,-6.281648149275404,-3.7762152271584264,-0.01116075328098059,-0.006191990714176904,-0.8501850256317293
12801,1.0,299.73654,42314.797999999995,0.0,-0.12801019841441186,0.0,0.0,0.0,0.0,-2.7974469399865174,-6.286988787902485,-3.7782060609549064,0.006588064605391354,0.005317931388363965,-0.8704092747127072
12802,1.0,300.15766,42637.225,0.0,-0.1280201944018312,0.0,0.0,0.0,0.0,-2.8199910454364474,-6.300491460060094,-3.8401693443202065,0.015884492823177384,0.026473227919204177,-0.8537790440014312
12803,1.0,300.01601,42504.301,0.0,-0.12803019038925056,0.0,0.0,0.0,0.0,-2.8108315685074774,-6.305252924930014,-3.8041617794915368,0.012383723860178388,-0.01054861039206679,-0.8488092751759532
12804,1.0,300.60253,42492.93,0.0,-0.12804018637667003,0.0,0.0,0.0,0.0,-2.7881735737463074,-6.301243291634294,-3.8273728061572863,-0.010165775120033891,-0.02052555419696448,-0.8284387533105392
12805,1.0,299.74917,42505.009000000005,0.0,-0.12805018236408916,0.0,0.0,0.0,0.0,-2.7983495431755974,-6.321435542277114,-3.8006764017975567,0.0026489727683832575,-0.02295441195867408,-0.8523333286262501
12806,1.0,299.57032000000004,42411.736,0.0,-0.12806021134156598,0.0,0.0,0.0,0.0,-2.7764522965895075,-6.316574170947335,-3.7990823567402363,0.004144265559032166,-0.005035748936214725,-0.8551077897850682
12807,1.0,299.14432999999997,42543.624,0.0,-0.12807020732898533,0.0,0.0,0.0,0.0,-2.7953885224083677,-6.327557092756264,-3.8092536652190665,-0.006153521964855334,-0.010859270846226591,-0.8591026904243341
12808,1.0,299.29716,42506.217000000004,0.0,-0.12808020331640457,0.0,0.0,0.0,0.0,-2.789714017873337,-6.302750095858004,-3.8283644740301566,-0.005049924305113725,-0.005581070818133805,-0.8263528665221782
12809,1.0,299.80585,42244.914000000004,0.0,-0.12809019930382382,0.0,0.0,0.0,0.0,-2.765161144100157,-6.288887618589884,-3.7873502378073667,-0.004197725343583236,0.017962093252220583,-0.8410364310088333
12810,1.0,299.61552,42229.564000000006,0.0,-0.12810019529124317,0.0,0.0,0.0,0.0,-2.7621787437558174,-6.286623612566443,-3.7879305261396365,0.03070046883290037,0.026439609294136274,-0.8511062016951423
12811,1.0,300.10894,42646.513,0.0,-0.12811019127866252,0.0,0.0,0.0,0.0,-2.8266931882228974,-6.308093774235385,-3.828688106112096,0.02189714222132968,-0.004774219966153825,-0.8658550904157443
12812,1.0,300.18692000000004,42662.465,0.0,-0.128120187266082,0.0,0.0,0.0,0.0,-2.8236668128242175,-6.322949844551564,-3.8217075221981665,0.007137953408161153,-0.008516595375747523,-0.8688672904455252
12813,1.0,299.91385,42361.859000000004,0.0,-0.12813018325350112,0.0,0.0,0.0,0.0,-2.7651579016998373,-6.315837842099665,-3.795951616581257,0.0006259617558976153,-0.0070078370992196735,-0.8763657768830682
12814,1.0,299.91882000000004,42464.053,0.0,-0.12814021223097793,0.0,0.0,0.0,0.0,-2.7960126844699675,-6.306394756467704,-3.805604546308926,-0.0018417860239951281,0.00952014087026475,-0.8476998676414631
12815,1.0,300.77646,42578.897000000004,0.0,-0.1281502082183973,0.0,0.0,0.0,0.0,-2.8244031416718873,-6.298510758764614,-3.820007693830406,-0.013956441016143488,-0.006442806489605494,-0.8003932672376652
12816,1.0,300.18266,42515.41,0.0,-0.12816020420581653,0.0,0.0,0.0,0.0,-2.7876494194695773,-6.3187852853155535,-3.817188224102146,-0.006939088687884734,-0.0040806257520514064,-0.8242063975103383
12817,1.0,300.30027,42657.709,0.0,-0.12817020019323566,0.0,0.0,0.0,0.0,-2.8373337328230375,-6.304907913270964,-3.8246367269122565,-0.007391334124892883,0.00900827660797268,-0.8265808376621773
12818,1.0,299.33513,42633.95,0.0,-0.12818019618065524,0.0,0.0,0.0,0.0,-2.8052010390267874,-6.324978776551804,-3.8294765160149065,-0.005463703627250564,0.006463010797924504,-0.8707533845791682
12819,1.0,299.28508,42355.695999999996,0.0,-0.12819019216807448,0.0,0.0,0.0,0.0,-2.7815404332916676,-6.293933401437864,-3.7996002288663466,0.0006395311607068115,-0.010591849826834188,-0.8389238957428421
12820,1.0,299.98172999999997,42538.17,0.0,-0.12820018815549383,0.0,0.0,0.0,0.0,-2.8022965576151373,-6.2999363003303035,-3.8283087452746565,-0.005534000487388325,0.005529985382542064,-0.8385052613315263
12821,1.0,299.96103,42683.635,0.0,-0.12821018414291308,0.0,0.0,0.0,0.0,-2.832844021629937,-6.310377741285794,-3.8315372640682863,-0.0006594181089620003,0.0008681090044681881,-0.8223803688426232
12822,1.0,299.28021,42408.869000000006,0.0,-0.1282202131203899,0.0,0.0,0.0,0.0,-2.784727611481218,-6.309926541016264,-3.796582972718567,-0.012812410725736488,0.004496397731834905,-0.8619098795613822
12823,1.0,299.757,42455.084,0.0,-0.12823020910780925,0.0,0.0,0.0,0.0,-2.8072160895006575,-6.320720289031524,-3.7773489526953163,-0.012171339546467689,-0.01036002833645519,-0.8470722199995191
12824,1.0,299.79381,42661.14,0.0,-0.1282402050952285,0.0,0.0,0.0,0.0,-2.8112523712740076,-6.3197860724393236,-3.8368828676208566,0.012418319258342688,-0.0038171671485000666,-0.8669796764367322
12825,1.0,300.41688999999997,42646.847,0.0,-0.12825020108264784,0.0,0.0,0.0,0.0,-2.800832512545647,-6.337226741110584,-3.825517443899176,0.017004957956008683,0.002201578063578838,-0.8502147543896631
12826,1.0,300.78405,42556.349,0.0,-0.1282601970700672,0.0,0.0,0.0,0.0,-2.7790445956453476,-6.335834332823164,-3.821188434171936,0.0074145084719050135,0.01077910148506449,-0.8606943746089212
12827,1.0,300.33583,42585.08,0.0,-0.12827019305748644,0.0,0.0,0.0,0.0,-2.7944912894448177,-6.327794294604674,-3.822515285177886,-0.010309027405921791,0.007500914995382674,-0.8270724362131942
12828,1.0,299.83887000000004,42556.507000000005,0.0,-0.1282801890449058,0.0,0.0,0.0,0.0,-2.7938009621516873,-6.325052034534035,-3.8172623940094663,-0.001765957122286398,0.009781371843471241,-0.8406328129639992
12829,1.0,300.33929,42586.324,0.0,-0.12829018503232503,0.0,0.0,0.0,0.0,-2.8092901111303474,-6.337235252411424,-3.798653650622926,0.003319014794511257,0.02331509657027088,-0.8566999501972022
12830,1.0,299.43847999999997,42675.059,0.0,-0.12830021400980185,0.0,0.0,0.0,0.0,-2.8030231592618473,-6.335800490269824,-3.8333286902450863,0.006119071765430364,0.007148841084460683,-0.8590228159189512
12831,1.0,299.59219,42627.002,0.0,-0.1283102099972212,0.0,0.0,0.0,0.0,-2.8061409298195477,-6.330556313052264,-3.8208469688882363,0.0035476393794997467,-0.013501677146011788,-0.8381778903567172
12832,1.0,299.6365,42477.788,0.0,-0.12832020598464033,0.0,0.0,0.0,0.0,-2.7887943920825773,-6.311467998393393,-3.811924288507636,0.003714844289801587,-0.016050315255042785,-0.8281329848278622
12833,1.0,299.67478,42642.89599999999,0.0,-0.1283302019720598,0.0,0.0,0.0,0.0,-2.8345182147701675,-6.307735691650044,-3.8201215831416464,0.02348460115299968,-0.0013306345831484087,-0.8193077284443772
12834,1.0,299.75021,42843.028,0.0,-0.12834019795947915,0.0,0.0,0.0,0.0,-2.8470355012055273,-6.3336383158814336,-3.8425369045038664,0.027949469480147874,-0.007580370420524313,-0.8389592581713321
12835,1.0,300.12716,42591.949,0.0,-0.1283501939468984,0.0,0.0,0.0,0.0,-2.817366525027427,-6.316835488148123,-3.8126868605328963,-0.006199328063451044,0.003115520129227897,-0.8457146877805413
12836,1.0,299.88247,42581.582,0.0,-0.12836018993431775,0.0,0.0,0.0,0.0,-2.7827605890620872,-6.333677933960344,-3.8272990415500066,0.008039448506931793,-0.0016217063797499584,-0.8695252241329581
12837,1.0,300.19065,42769.165,0.0,-0.128370185921737,0.0,0.0,0.0,0.0,-2.8355465622966576,-6.321017171310824,-3.8441945816674665,-0.013582940817281888,-0.004510041144431405,-0.8478198972483092
12838,1.0,300.48068,42634.949,0.0,-0.1283802148992137,0.0,0.0,0.0,0.0,-2.8063800568431474,-6.331068308327794,-3.8225117388025365,-0.0024288225006061175,-0.009319354014548632,-0.8629175466533311
12839,1.0,300.11883,42520.744000000006,0.0,-0.12839021088663316,0.0,0.0,0.0,0.0,-2.7988027699453273,-6.331839999603953,-3.7946016634730264,0.0017725001848071483,-0.006421531378580804,-0.8373589917583983
12840,1.0,300.02226,42673.401,0.0,-0.1284002068740523,0.0,0.0,0.0,0.0,-2.7998889740525272,-6.343269663381974,-3.8284897117425163,0.025266473394606772,0.022964923415211478,-0.8490528706324941
12841,1.0,300.41992999999997,42627.002,0.0,-0.12841020286147165,0.0,0.0,0.0,0.0,-2.7964983352428976,-6.339326195317784,-3.8217195798743564,0.0007420950412065783,0.018369726807200882,-0.8479771435313282
12842,1.0,300.22556000000003,42498.848,0.0,-0.1284201988488911,0.0,0.0,0.0,0.0,-2.7530994149097574,-6.344193950123194,-3.8212951294074666,0.010850042164315789,-0.011437928859085688,-0.8730803843613253
12843,1.0,299.2058,42605.913,0.0,-0.12843019483631024,0.0,0.0,0.0,0.0,-2.7929661453942973,-6.332655057984394,-3.8255124789736863,-0.020316025222035582,-0.004665480903847115,-0.8352629724690372
12844,1.0,299.55908999999997,42731.596,0.0,-0.1284401908237297,0.0,0.0,0.0,0.0,-2.8273195794347177,-6.3407124227795935,-3.8213060725085466,-0.0078096618254036125,0.005301798622921784,-0.8549909012535323
12845,1.0,299.53872,42770.94,0.0,-0.12845018681114884,0.0,0.0,0.0,0.0,-2.8400974737957974,-6.343935976647734,-3.8172643191846563,-0.028650882742621973,-0.0004089721495549086,-0.8560371833067921
12846,1.0,299.63205,42727.96,0.0,-0.1284601827985683,0.0,0.0,0.0,0.0,-2.834172797811077,-6.331756102495674,-3.822304022532036,-0.01860761766567888,-0.008669226709861061,-0.8557107445220752
12847,1.0,299.84641,42657.675,0.0,-0.128470211776045,0.0,0.0,0.0,0.0,-2.808475356724937,-6.332607536554704,-3.8257850432505864,0.002920043413310847,0.003074639439368287,-0.8467880844064772
12848,1.0,299.65127,42589.269,0.0,-0.12848020776346447,0.0,0.0,0.0,0.0,-2.7755486801503273,-6.3318527665552145,-3.8386726725974962,0.015248541596663886,-0.0037389944979850267,-0.8551075162075411
12849,1.0,299.66525,42828.387,0.0,-0.1284902037508836,0.0,0.0,0.0,0.0,-2.8326374199345477,-6.3441652751453645,-3.841957426771676,-0.0028767969871177574,-0.000873802841815126,-0.8438446536609833
12850,1.0,300.13093,42879.174000000006,0.0,-0.12850019973830307,0.0,0.0,0.0,0.0,-2.8441204819928374,-6.341296865437274,-3.8487809569201064,-0.003194710792118407,-0.015865945280096886,-0.8307780640814112
12851,1.0,300.17042999999995,42499.888,0.0,-0.1285101957257222,0.0,0.0,0.0,0.0,-2.8133036961014573,-6.3192604996124535,-3.7863404327577066,0.0026144848760545672,0.013827535338421487,-0.8305722121910952
12852,1.0,300.51307,42518.28400000001,0.0,-0.12852019171314155,0.0,0.0,0.0,0.0,-2.788481500451697,-6.333599508402604,-3.8024154429441865,0.009317614061476912,0.005852193645441544,-0.8471258817248151
12853,1.0,300.33678,42877.76,0.0,-0.1285301877005608,0.0,0.0,0.0,0.0,-2.825192362174777,-6.339324270142594,-3.869251851340426,-0.016496768447854283,-0.008909952743443871,-0.8378958521913823
12854,1.0,300.17615,42811.981,0.0,-0.12854018368798015,0.0,0.0,0.0,0.0,-2.7944821701939175,-6.350503559820903,-3.868787478819596,0.0007779176676269963,-0.021812128511439478,-0.8519657620199741
12855,1.0,299.94437999999997,42647.598,0.0,-0.12855021266545696,0.0,0.0,0.0,0.0,-2.7906221939379674,-6.345640769940984,-3.8275419175989764,0.003163360327399357,0.009877256612359329,-0.8440389848976622
12856,1.0,299.69899,42873.884000000005,0.0,-0.12856020865287632,0.0,0.0,0.0,0.0,-2.8116110618094075,-6.372986160989764,-3.847992952317336,0.017702822816632584,0.010258513848686491,-0.8570007942843931
12857,1.0,299.9512,42957.46,0.0,-0.12857020464029556,0.0,0.0,0.0,0.0,-2.849208416044977,-6.372175358259744,-3.8366114179190665,0.0003299938334878557,-0.005179751533801675,-0.8473654140484552
12858,1.0,300.1299,42747.989,0.0,-0.1285802006277149,0.0,0.0,0.0,0.0,-2.8110866035576474,-6.366683137417703,-3.8165514977393067,-0.01166254006175309,0.0017663922118793382,-0.8711980493855531
12859,1.0,299.93709,42627.094000000005,0.0,-0.12859019661513416,0.0,0.0,0.0,0.0,-2.782572732493547,-6.335437746734024,-3.839561900885256,-0.007515551089102143,0.0015265691867856486,-0.8381348677574711
12860,1.0,300.53448,42538.628,0.0,-0.1286001926025535,0.0,0.0,0.0,0.0,-2.7659667792546676,-6.333202719663444,-3.8315112235407165,0.010076988168096301,-0.005347033653761136,-0.8585404987388501
12861,1.0,300.18928999999997,42598.09099999999,0.0,-0.12861018858997297,0.0,0.0,0.0,0.0,-2.7965862853515775,-6.330965260792624,-3.8212044435235164,-0.0084395597944947,-0.008108732927569633,-0.8451532965626362
12862,1.0,299.62675,42899.39,0.0,-0.1286201845773921,0.0,0.0,0.0,0.0,-2.867221976322777,-6.3419704741037535,-3.8311510131301665,0.008259713981245302,-0.008539455108603601,-0.8472155644911662
12863,1.0,299.6431,42816.634000000005,0.0,-0.12863021355486892,0.0,0.0,0.0,0.0,-2.8573650793499774,-6.3352011528356735,-3.8226212711383463,0.01090140482513489,0.013946871882199088,-0.8347969787480471
12864,1.0,299.83115,42466.662000000004,0.0,-0.12864020954228828,0.0,0.0,0.0,0.0,-2.7946862387640574,-6.333504060243184,-3.7806146577676167,0.007653722736338622,0.0038286586205341865,-0.8615757502084063
12865,1.0,299.61457,42839.617,0.0,-0.12865020552970752,0.0,0.0,0.0,0.0,-2.8019739387832976,-6.367222693095954,-3.8529772308842465,-0.002317384849308078,-0.02485637764188348,-0.8439850698598412
12866,1.0,299.7058,43297.77,0.0,-0.12866020151712687,0.0,0.0,0.0,0.0,-2.872334633677357,-6.382571304285744,-3.9065350980449964,-0.012564145199484589,-0.01805421896456268,-0.8585051869728652
12867,1.0,300.15914,42961.48,0.0,-0.1286701975045461,0.0,0.0,0.0,0.0,-2.8433556808173575,-6.366905849789684,-3.848955539912336,-0.00943171382476268,0.011741965697341789,-0.8304144592830263
12868,1.0,300.17107999999996,42655.844000000005,0.0,-0.12868019349196547,0.0,0.0,0.0,0.0,-2.815030071621837,-6.3543745805029435,-3.796906908775536,0.007874456534848353,-0.006370824391901415,-0.8533360915877152
12869,1.0,300.40837,42828.612,0.0,-0.12869018947938482,0.0,0.0,0.0,0.0,-2.8444893050292372,-6.354370932802585,-3.8199682784015168,-0.001024530613363299,-0.005619077120109735,-0.8322452704912132
12870,1.0,300.28407000000004,42832.577000000005,0.0,-0.12870018546680406,0.0,0.0,0.0,0.0,-2.822866041270187,-6.361842841690003,-3.835325096917116,0.01126155444067889,0.007834565081061373,-0.8674684885499742
12871,1.0,300.23239,42767.169,0.0,-0.128710214444281,0.0,0.0,0.0,0.0,-2.7949241498875375,-6.354130792528884,-3.8510965373736363,0.01227177188312959,0.018798903072557282,-0.8503906748720252
12872,1.0,300.33186,42802.322,0.0,-0.12872021043170023,0.0,0.0,0.0,0.0,-2.7928857946613674,-6.349477846744674,-3.8684733712885966,0.001110157643539029,0.001927480030002468,-0.8680847776582972
12873,1.0,300.77943,42731.22,0.0,-0.12873020641911948,0.0,0.0,0.0,0.0,-2.8008132607937473,-6.353861166677273,-3.8345494539655665,-0.008274693668073681,-0.007865702560609403,-0.8491405370311462
12874,1.0,300.22438999999997,42709.731,0.0,-0.12874020240653883,0.0,0.0,0.0,0.0,-2.797860143377297,-6.371970985714574,-3.8128606329250463,0.002295317883330238,-0.0028506374026610075,-0.8704139964581732
12875,1.0,300.26538999999997,42981.32,0.0,-0.12875019839395807,0.0,0.0,0.0,0.0,-2.851397542886027,-6.370727626516865,-3.8431229683617065,-0.018297663446838783,0.005244294653246585,-0.8432804253427981
12876,1.0,299.91637000000003,43034.731,0.0,-0.12876019438137742,0.0,0.0,0.0,0.0,-2.837989812262787,-6.392480484963704,-3.8510132482154162,-0.015166981043114487,-0.01178773420435879,-0.8584158993740532
12877,1.0,299.33227999999997,42747.03599999999,0.0,-0.12877019036879678,0.0,0.0,0.0,0.0,-2.8089377027455673,-6.350590496679484,-3.8345034524110257,-0.009406700935444101,-0.022766953597423378,-0.8542489488678072
12878,1.0,299.72821,42843.257000000005,0.0,-0.12878018635621602,0.0,0.0,0.0,0.0,-2.8080007503780973,-6.356556513268284,-3.8587231695513267,0.0048083683183740055,0.013287079894082685,-0.8540866262017871
12879,1.0,300.01504,42961.473,0.0,-0.12879021533369295,0.0,0.0,0.0,0.0,-2.834608799329107,-6.354582499423464,-3.8700238465916166,0.0015614582248289284,0.014686948741988988,-0.8401871045100112
12880,1.0,299.84132999999997,42806.745,0.0,-0.1288002113211122,0.0,0.0,0.0,0.0,-2.8189224718809873,-6.345502866602374,-3.8477561557689666,-0.001107716926698149,-0.008157276017335461,-0.8385193049779123
12881,1.0,300.3576,42846.974,0.0,-0.12881020730853132,0.0,0.0,0.0,0.0,-2.8299231255666673,-6.364990300475634,-3.8294968823419167,-0.011607258149547188,-0.008530796785174091,-0.8546928030741121
12882,1.0,300.35299,42934.444,0.0,-0.12882020329595079,0.0,0.0,0.0,0.0,-2.8354493916120673,-6.361381508919473,-3.8541681037267765,0.014290039426067087,0.002132704414531538,-0.8440036022041703
12883,1.0,300.2981,42905.675,0.0,-0.12883019928337014,0.0,0.0,0.0,0.0,-2.8128806641847075,-6.379211468279154,-3.850161814156386,0.026404747411195677,0.002242753811867568,-0.8752431768322761
12884,1.0,300.26186,43025.437999999995,0.0,-0.1288401952707895,0.0,0.0,0.0,0.0,-2.813815387401957,-6.398780874085504,-3.8660626466506764,-0.0017991802758402682,-0.015433458726663787,-0.8577946554727411
12885,1.0,299.84659,43119.372,0.0,-0.12885019125820873,0.0,0.0,0.0,0.0,-2.843167114973747,-6.388748178220353,-3.875297002762036,0.01859060823625018,-0.016059913773240085,-0.8481752237933772
12886,1.0,300.08721,42848.051,0.0,-0.12886018724562798,0.0,0.0,0.0,0.0,-2.8177428461145677,-6.378951164328464,-3.8280434763984763,0.018881580227716882,0.015225737389913287,-0.8409029961031643
12887,1.0,299.9458,42662.780999999995,0.0,-0.1288702162231049,0.0,0.0,0.0,0.0,-2.7934475405168073,-6.355419444006064,-3.8195533524855665,0.005796250182245354,0.015912931713734087,-0.8459466511259343
12888,1.0,299.38672,42939.117,0.0,-0.12888021221052415,0.0,0.0,0.0,0.0,-2.8250819179138773,-6.372249933467104,-3.8550874255425067,-0.008206731842791373,-0.020268077214053482,-0.8461584305293353
12889,1.0,299.74001,43055.572,0.0,-0.12889020819794328,0.0,0.0,0.0,0.0,-2.832350264856207,-6.374502793739444,-3.880965630446486,-0.017163633934918786,-0.01115305663322099,-0.8576783850237663
12890,1.0,300.41142,42798.16,0.0,-0.12890020418536263,0.0,0.0,0.0,0.0,-2.8006837674309675,-6.362756894605214,-3.846131206583596,-0.010815845986690888,0.00898706056942882,-0.8639592792136421
12891,1.0,299.53404,42649.163,0.0,-0.1289102001727821,0.0,0.0,0.0,0.0,-2.7921757089912873,-6.349879803059344,-3.822224989024236,0.013365185264791088,0.002535289552213598,-0.8645145909309473
12892,1.0,300.0281,42904.82,0.0,-0.12892019616020145,0.0,0.0,0.0,0.0,-2.8332203427170772,-6.361114922818164,-3.8476586811093463,-0.003090863599969487,0.0012886630282311388,-0.8519124144022091
12893,1.0,299.98294,43025.682,0.0,-0.1289301921476207,0.0,0.0,0.0,0.0,-2.836765806141987,-6.388589097954653,-3.8533778699737864,0.009007095462331112,0.005885690781822454,-0.8653027677862342
12894,1.0,299.59854,43114.420999999995,0.0,-0.12894018813503982,0.0,0.0,0.0,0.0,-2.8424417292271573,-6.401927623596064,-3.8613379627593862,0.011915929593760689,0.014809869151370288,-0.8625813806676541
12895,1.0,299.92839,43092.77099999999,0.0,-0.1289501841224593,0.0,0.0,0.0,0.0,-2.8454383150728972,-6.377806698340514,-3.875881344094706,-0.01031461953322369,0.002308752465081128,-0.8560549151835423
12896,1.0,300.49262999999996,42946.666,0.0,-0.128960213099936,0.0,0.0,0.0,0.0,-2.8233509827680474,-6.385754834774935,-3.845608369531996,-0.024434602155257477,-0.023669977285294876,-0.8401868511974863
12897,1.0,300.64699,43109.106,0.0,-0.12897020908735524,0.0,0.0,0.0,0.0,-2.852104892780837,-6.389467484466344,-3.8625192097259666,-0.016724608878590383,-0.016229794271755985,-0.8465805302559931
12898,1.0,300.32108,43314.030999999995,0.0,-0.1289802050747746,0.0,0.0,0.0,0.0,-2.896866229198437,-6.381525224882504,-3.8879923172399664,-0.006570091372467534,0.005460741390583215,-0.8148099517804812
12899,1.0,300.45055,43041.692,0.0,-0.12899020106219405,0.0,0.0,0.0,0.0,-2.826251715154327,-6.3911179675542344,-3.8662300355671966,0.0007915469048545972,-0.005501557029786405,-0.8455903923907742
12900,1.0,300.12613,42807.87,0.0,-0.1290001970496134,0.0,0.0,0.0,0.0,-2.8050416547860575,-6.359116692295954,-3.8483651190790664,-0.0002920077762489237,-0.00935923655173473,-0.8359167923610642
12901,1.0,299.8275,43120.744000000006,0.0,-0.12901019303703254,0.0,0.0,0.0,0.0,-2.824275370834277,-6.404294778479684,-3.879059301708346,0.0014348144253051587,0.006928334456623373,-0.8671235883484352
12902,1.0,299.74633,43140.327000000005,0.0,-0.12902018902445178,0.0,0.0,0.0,0.0,-2.851083739330057,-6.392107507601894,-3.870390744452826,0.016096056404307085,0.029334634042602968,-0.8567313609503022
12903,1.0,299.8047,42881.238,0.0,-0.12903018501187113,0.0,0.0,0.0,0.0,-2.8094747252985677,-6.392166478757714,-3.833184504755857,0.0069428265675036335,0.002301087430724648,-0.8792025427905351
12904,1.0,299.79831,42797.297999999995,0.0,-0.12904021398934795,0.0,0.0,0.0,0.0,-2.8263380440628474,-6.373163682407284,-3.8098080143487763,-0.002844440466374417,-0.0038399712539256563,-0.8492645689758871
12905,1.0,300.25602000000003,42967.62,0.0,-0.1290502099767672,0.0,0.0,0.0,0.0,-2.8324262586137072,-6.378308865090074,-3.850348353499797,-0.002305591530069168,-0.00900219275039725,-0.8550245208918502
12906,1.0,300.35697000000005,43118.780999999995,0.0,-0.12906020596418677,0.0,0.0,0.0,0.0,-2.8293990726149474,-6.4096235620805935,-3.8680100120178667,0.0004911117147414526,0.011929937776393187,-0.8590419967433442
12907,1.0,300.17413999999997,43081.414000000004,0.0,-0.1290702019516059,0.0,0.0,0.0,0.0,-2.8201708973291972,-6.409901192607994,-3.865602023155217,-0.01136253899864529,0.006051501763961724,-0.8768970847055041
12908,1.0,300.58032000000003,42974.138,0.0,-0.12908019793902537,0.0,0.0,0.0,0.0,-2.8140972735797773,-6.391836463200144,-3.857131049669196,-0.006242942907380494,-0.0019445299894351683,-0.860094935849761
12909,1.0,300.21799,42812.305,0.0,-0.1290901939264445,0.0,0.0,0.0,0.0,-2.8113410306577573,-6.389183977088364,-3.8133466889980165,0.01007399492597589,-0.017684191173793783,-0.8680213380695362
12910,1.0,299.73306,43095.139,0.0,-0.12910018991386374,0.0,0.0,0.0,0.0,-2.8484077458159573,-6.390973883390014,-3.8604646424981963,-0.01048123331341719,0.0027644009025501277,-0.8478549354367672
12911,1.0,299.37344,43316.212999999996,0.0,-0.1291101859012831,0.0,0.0,0.0,0.0,-2.866162116718177,-6.405770070625284,-3.8951149588179166,0.008349332000914913,-0.034558863405444264,-0.8559384826145512
12912,1.0,299.4277,43061.238,0.0,-0.1291202148787599,0.0,0.0,0.0,0.0,-2.8108728077865472,-6.399125480444514,-3.8795429259810765,-0.015675184736770285,-0.026361693401196578,-0.8562572916260152
12913,1.0,299.51394,42918.640999999996,0.0,-0.12913021086617926,0.0,0.0,0.0,0.0,-2.7987428868644177,-6.387987734020303,-3.859464564649496,0.014188957596091087,0.0046569842951335655,-0.8571211886612752
12914,1.0,299.89305,43262.12,0.0,-0.12914020685359873,0.0,0.0,0.0,0.0,-2.8631815402240175,-6.409181987687014,-3.878240595627546,0.022243560271518477,0.030060879025277768,-0.8496381340227552
12915,1.0,300.30436000000003,43287.981,0.0,-0.12915020284101786,0.0,0.0,0.0,0.0,-2.887083806107987,-6.393006665740635,-3.8783749525908062,0.02002308245912438,0.017650619158230484,-0.8458070961896613
12916,1.0,300.73705,43095.678,0.0,-0.1291601988284372,0.0,0.0,0.0,0.0,-2.8571665836553874,-6.391302784372474,-3.851540847542486,-0.004383421460260016,0.0013605483605506688,-0.8321164256084972
12917,1.0,300.19102999999996,43075.39,0.0,-0.12917019481585645,0.0,0.0,0.0,0.0,-2.833382462733077,-6.390558248198994,-3.8699021552546067,0.009373406854383232,-0.009377814289668211,-0.8449932233118382
12918,1.0,299.98967000000005,43016.94,0.0,-0.1291801908032757,0.0,0.0,0.0,0.0,-2.8219853242832675,-6.379259800308923,-3.874830502415996,-0.01100554160416239,0.005903508784830954,-0.8358702233864682
12919,1.0,299.83286,43059.831,0.0,-0.12919018679069527,0.0,0.0,0.0,0.0,-2.811734576996597,-6.428077582176864,-3.849301159521446,-0.018592747207211283,-0.013383519012100487,-0.8824089119369792
12920,1.0,299.76512,43217.1,0.0,-0.12920021576817187,0.0,0.0,0.0,0.0,-2.864041080283847,-6.402374061590124,-3.8705041271390166,-0.020122923057727882,-0.013071707505827089,-0.8574939228430613
12921,1.0,299.70807,43120.494000000006,0.0,-0.12921021175559122,0.0,0.0,0.0,0.0,-2.8599089450510373,-6.406548652002123,-3.8410959615366562,-0.00919650787639966,0.013023378515807385,-0.8589329305025801
12922,1.0,300.14006,42873.117999999995,0.0,-0.12922020774301057,0.0,0.0,0.0,0.0,-2.804415162249227,-6.401733484876904,-3.8262087844424064,0.0009386322753407933,0.02199134813612708,-0.8512715843764642
12923,1.0,300.29219,42946.244000000006,0.0,-0.12923020373042982,0.0,0.0,0.0,0.0,-2.796336924501967,-6.391292347896443,-3.8669565358888964,0.0070474429178034636,-0.016475785051533385,-0.8764936389131871
12924,1.0,300.14021,43258.670999999995,0.0,-0.12924019971784917,0.0,0.0,0.0,0.0,-2.8329091736113674,-6.418690427950423,-3.8979562134233263,-0.01182276935306649,-0.006049354585674814,-0.8561600905439222
12925,1.0,299.12237999999996,43207.219000000005,0.0,-0.1292501957052684,0.0,0.0,0.0,0.0,-2.8288855574642677,-6.427641580658834,-3.8773886549434664,0.008723853353227291,-0.0015566141800758583,-0.8750531519085222
12926,1.0,299.20412000000005,43057.149000000005,0.0,-0.12926019169268776,0.0,0.0,0.0,0.0,-2.8333468976545677,-6.4100189322696135,-3.8449323290652764,0.008106282179552763,-0.0011844046591916388,-0.8597700777352002
12927,1.0,299.22726,43083.46599999999,0.0,-0.12927018768010712,0.0,0.0,0.0,0.0,-2.847216467673387,-6.414819407268385,-3.834261893587186,0.003793522045491476,-0.009365838585411302,-0.8557341911293892
12928,1.0,299.66938,43231.503,0.0,-0.1292802166575837,0.0,0.0,0.0,0.0,-2.8409381674037673,-6.411388947729824,-3.8889702049114763,0.001913019735175348,-0.016642816290768084,-0.8502879211793842
12929,1.0,299.21396,43310.83900000001,0.0,-0.12929021264500318,0.0,0.0,0.0,0.0,-2.845846553538187,-6.431253006665254,-3.888314024146716,0.007218362402971904,-0.005622226605395564,-0.8468958942171171
12930,1.0,299.73784,43293.309,0.0,-0.12930020863242253,0.0,0.0,0.0,0.0,-2.853459506839527,-6.421001651428523,-3.8856238451312164,-0.012027490456270887,0.015188750721512984,-0.8499999149709603
12931,1.0,300.19561,43054.640999999996,0.0,-0.12931020461984177,0.0,0.0,0.0,0.0,-2.8362523923163176,-6.402545908807084,-3.8487374884908165,-0.011632053392744288,0.0011557389019375489,-0.8492397139509342
12932,1.0,300.05856,42953.319,0.0,-0.12932020060726113,0.0,0.0,0.0,0.0,-2.8193988007529973,-6.403645487815603,-3.833691940405936,-0.011754154082794689,0.0074081021981477636,-0.8504372539791222
12933,1.0,299.50327999999996,43343.901,0.0,-0.12933019659468037,0.0,0.0,0.0,0.0,-2.8857997142562573,-6.407450039291084,-3.8822138532446764,-0.017411833599914182,0.01161629228743879,-0.8378279745671832
12934,1.0,299.94422000000003,43424.96,0.0,-0.12934019258209972,0.0,0.0,0.0,0.0,-2.8622437772564675,-6.419359679641474,-3.9184999605258364,-0.004211346971302586,0.0017452341312411987,-0.8548281935524741
12935,1.0,299.7394,42953.155999999995,0.0,-0.12935018856951908,0.0,0.0,0.0,0.0,-2.811276891926427,-6.393513493440654,-3.8518964983275863,-0.004494253390648276,-0.010871541304937591,-0.8726463688134912
12936,1.0,300.20441,42976.267,0.0,-0.12936018455693832,0.0,0.0,0.0,0.0,-2.812243633846837,-6.390877725955524,-3.8605907921356466,0.013316639439249989,-6.541697976840325e-05,-0.8583474441972971
12937,1.0,300.0975,43345.941,0.0,-0.12937021353441513,0.0,0.0,0.0,0.0,-2.8660220855543574,-6.428628182281204,-3.8814335493426664,0.023897809610030178,0.006070233211935374,-0.8699216177045792
12938,1.0,300.20337,43286.78400000001,0.0,-0.1293802095218345,0.0,0.0,0.0,0.0,-2.8623206829390577,-6.4175238731102935,-3.8782570102791665,0.012663610895551089,-0.001142148380996269,-0.8611672179005873
12939,1.0,300.18012000000004,43171.994000000006,0.0,-0.12939020550925362,0.0,0.0,0.0,0.0,-2.8400049640616674,-6.424863147559623,-3.858340059688516,-0.0034535115862850568,0.001244230795446019,-0.8584317466056172
12940,1.0,300.52313,43160.877,0.0,-0.12940020149667308,0.0,0.0,0.0,0.0,-2.8197377329114475,-6.417691363351824,-3.8823998859630358,0.0026265284680681775,-0.015347772218707185,-0.8520108516494241
12941,1.0,300.12834,43244.508,0.0,-0.12941019748409222,0.0,0.0,0.0,0.0,-2.843893919270477,-6.4344447444802535,-3.8669120542095063,0.0016519179513566084,-0.005089038596074006,-0.8649493562838552
12942,1.0,300.59038,43492.942,0.0,-0.12942019347151168,0.0,0.0,0.0,0.0,-2.875082770598577,-6.4566585303975845,-3.8890270482420863,-0.017741749858974382,-0.004142927055650066,-0.8661635440111862
12943,1.0,300.55368,43481.35,0.0,-0.12943018945893103,0.0,0.0,0.0,0.0,-2.8791836977283074,-6.439626100191615,-3.8984348727705664,-0.004400789580224116,0.004128265428028076,-0.8491632237008852
12944,1.0,300.26417999999995,43099.350999999995,0.0,-0.12944018544635028,0.0,0.0,0.0,0.0,-2.8188764703264475,-6.4100636165990235,-3.872186426280046,-0.00988103309680704,0.014001248962065687,-0.8366637704672852
12945,1.0,299.50065,43110.081,0.0,-0.12945021442382698,0.0,0.0,0.0,0.0,-2.821145947900427,-6.411235642989694,-3.872006473062286,0.011374780073103387,0.027536691654409872,-0.8408093717939242
12946,1.0,299.87384,43602.225999999995,0.0,-0.12946021041124645,0.0,0.0,0.0,0.0,-2.8802066750292674,-6.431668337881244,-3.9421129435062565,0.01358449818268559,0.003177236078243787,-0.8504334340262452
12947,1.0,299.59051,43428.032,0.0,-0.12947020639866558,0.0,0.0,0.0,0.0,-2.8910505789244767,-6.424826062605964,-3.8851606885105063,-0.006507930302682714,0.0006443901610313574,-0.8556526751588442
12948,1.0,299.9503,43045.742,0.0,-0.12948020238608504,0.0,0.0,0.0,0.0,-2.8275004445775673,-6.407995775794944,-3.8493344954497366,-0.0033380912541439572,-0.02222562777124868,-0.8591589967323912
12949,1.0,299.87573,43215.486,0.0,-0.1294901983735044,0.0,0.0,0.0,0.0,-2.8549895144905273,-6.415846842869785,-3.865592295954256,0.0025295671209488377,-0.013047986307735987,-0.8570988363640691
12950,1.0,299.92192,43508.52,0.0,-0.12950019436092353,0.0,0.0,0.0,0.0,-2.8766085225991573,-6.436772990560034,-3.9121223617464165,0.006644980687358534,-0.006028054548697665,-0.8510943568014732
12951,1.0,300.26443,43442.846,0.0,-0.129510190348343,0.0,0.0,0.0,0.0,-2.8682390767731576,-6.431096358199794,-3.906204981162416,0.004759995657274995,0.015917146834150086,-0.8588015626271153
12952,1.0,300.22128,43236.89599999999,0.0,-0.12952018633576212,0.0,0.0,0.0,0.0,-2.8334465001393974,-6.423039297379623,-3.8864509611878466,0.004553169628312855,0.0002690110418468227,-0.8594220364583511
12953,1.0,300.55326,43156.715,0.0,-0.12953021531323894,0.0,0.0,0.0,0.0,-2.859210309107087,-6.411629189328535,-3.8477242383908163,-0.014793893237043589,0.008756047551304613,-0.8648976703962542
12954,1.0,300.77817999999996,43193.323,0.0,-0.1295402113006583,0.0,0.0,0.0,0.0,-2.8456796712467174,-6.430182507934603,-3.8538292728933365,-0.014471293656955486,-0.013029889660949987,-0.8771521501531773
12955,1.0,300.75777,43397.675,0.0,-0.12955020728807753,0.0,0.0,0.0,0.0,-2.866766723052847,-6.446597666179653,-3.8784450694977264,-0.014153357053827587,-0.006622217719887004,-0.8717416276667002
12956,1.0,300.03047999999995,43388.359000000004,0.0,-0.1295602032754969,0.0,0.0,0.0,0.0,-2.859279615413927,-6.427849600904365,-3.901848613682476,-0.015162114402884185,-0.008469632044212602,-0.8436932740960432
12957,1.0,300.79197,43203.575,0.0,-0.12957019926291635,0.0,0.0,0.0,0.0,-2.820443360281087,-6.434894120899603,-3.8774704242265363,-0.0016478154030267183,0.004250095580301777,-0.8608424915085391
12958,1.0,300.50883,43277.899000000005,0.0,-0.12958019525033548,0.0,0.0,0.0,0.0,-2.833524520397097,-6.446647518084574,-3.8752284057302666,0.008949695148141142,-0.00909070835395806,-0.8743206126162262
12959,1.0,300.35657000000003,43650.707,0.0,-0.12959019123775495,0.0,0.0,0.0,0.0,-2.912534115494737,-6.458231297202803,-3.897959455823646,0.002908176734764697,0.013592416732217089,-0.8642338091957362
12960,1.0,299.62237000000005,43530.236,0.0,-0.12960018722517408,0.0,0.0,0.0,0.0,-2.8826525594456576,-6.452446855031924,-3.897005480854496,0.019708611171338482,-0.0003745654793542347,-0.8548117282383491
12961,1.0,299.1496,43159.998,0.0,-0.1296102162026509,0.0,0.0,0.0,0.0,-2.8222820039125476,-6.428783412196524,-3.868496270740857,-0.006704505483033174,0.011261643606687688,-0.8616859208917792
12962,1.0,300.22921,43301.53599999999,0.0,-0.12962021219007025,0.0,0.0,0.0,0.0,-2.8234720661549972,-6.437748851731344,-3.9013647867597263,-0.002124523331899128,-0.0033177279668842566,-0.8508395851963292
12963,1.0,299.90182000000004,43393.916,0.0,-0.1296302081774895,0.0,0.0,0.0,0.0,-2.8400586663169674,-6.431140637229164,-3.919467614371336,-0.004070818301683486,-0.010342981416772791,-0.8472548583300441
12964,1.0,299.55841000000004,43342.09,0.0,-0.12964020416490885,0.0,0.0,0.0,0.0,-2.846589265861487,-6.444118445834974,-3.8842051936662063,-0.0008034832240801201,-0.0023264115904739475,-0.8586290770625922
12965,1.0,299.50368,43367.845,0.0,-0.1296502001523282,0.0,0.0,0.0,0.0,-2.888211148169247,-6.433783294814974,-3.8607474406011066,-0.012427549966753687,0.0029356733027283972,-0.8538968748555602
12966,1.0,300.6235,43323.761,0.0,-0.12966019613974744,0.0,0.0,0.0,0.0,-2.869914688463527,-6.426932102938815,-3.872494758285476,0.007560752986663222,-0.021849102007588477,-0.8768682780051612
12967,1.0,300.61757,43310.818,0.0,-0.1296701921271668,0.0,0.0,0.0,0.0,-2.8552938948205675,-6.437368477643803,-3.8727448284101564,0.00810321638872519,0.0046610999143897455,-0.8512037472822691
12968,1.0,300.62464,43571.596,0.0,-0.12968018811458604,0.0,0.0,0.0,0.0,-2.872842069327437,-6.437465547003384,-3.9343695849170466,0.015265551026092587,-0.009906106071856552,-0.8590183069560062
12969,1.0,299.87932,43658.695999999996,0.0,-0.12969021709206285,0.0,0.0,0.0,0.0,-2.8792652643613574,-6.442774977527384,-3.9491130831471164,0.003433856459520247,-0.0046147808072684055,-0.8311981069103662
12970,1.0,299.90022999999997,43270.825999999994,0.0,-0.1297002130794822,0.0,0.0,0.0,0.0,-2.841692532103217,-6.426821050727853,-3.8847369473186864,-0.00965852813712251,-0.01026247869632779,-0.8709129613374171
12971,1.0,299.78525,43168.444,0.0,-0.12971020906690145,0.0,0.0,0.0,0.0,-2.841640552373087,-6.417659040673634,-3.8628293655815757,-0.007114010004323123,0.01967072777659968,-0.8372870408687972
12972,1.0,299.99232,43563.990999999995,0.0,-0.12972020505432102,0.0,0.0,0.0,0.0,-2.8821363085197076,-6.4542003856549846,-3.9060286756450164,0.01002332451762511,0.007394961256275852,-0.8666100731977553
12973,1.0,299.44364,43624.833,0.0,-0.12973020104174016,0.0,0.0,0.0,0.0,-2.8857871499550174,-6.445230994444773,-3.929841876845196,-0.002908323453379177,0.011511067277803887,-0.8339237192818633
12974,1.0,299.25827999999996,43368.707,0.0,-0.1297401970291594,0.0,0.0,0.0,0.0,-2.8327430005949674,-6.456391437671224,-3.8938695731200066,0.005923320053436175,-0.006535500432603675,-0.8708798077941452
12975,1.0,300.27925,43391.551,0.0,-0.12975019301657875,0.0,0.0,0.0,0.0,-2.8406935688296273,-6.449437603559934,-3.8998169459069665,0.0026901720240743074,0.005728651809773915,-0.8387924569398703
12976,1.0,300.37101,43504.081,0.0,-0.129760189003998,0.0,0.0,0.0,0.0,-2.8760250931915774,-6.462200299169514,-3.8859288334113167,0.0035158691252642673,-0.005387455442650455,-0.8620036254606342
12977,1.0,300.47393,43620.327000000005,0.0,-0.12977018499141735,0.0,0.0,0.0,0.0,-2.8845475397826768,-6.4872789484195845,-3.8876639228825565,-0.013058033695727587,-0.000949339299279994,-0.8651636586800051
12978,1.0,300.16337999999996,43637.015,0.0,-0.12978021396889416,0.0,0.0,0.0,0.0,-2.8830901821638473,-6.4726632210271235,-3.9088095405444663,-0.0031850936301192675,-0.007595623988854723,-0.8615760339184343
12979,1.0,300.03029,43427.958,0.0,-0.12979020995631352,0.0,0.0,0.0,0.0,-2.8545304108702174,-6.450158328356064,-3.8963262993124665,-0.018718311186103485,0.008616256831733341,-0.8590299491996551
12980,1.0,300.1032,43309.333,0.0,-0.12980020594373287,0.0,0.0,0.0,0.0,-2.8186400790781176,-6.448126356605524,-3.8981894635963465,0.008513533739245361,-0.020604882560543582,-0.8570078769025922
12981,1.0,300.31511,43534.725,0.0,-0.1298102019311521,0.0,0.0,0.0,0.0,-2.8669219529681675,-6.442381532513554,-3.9241658524350163,-0.0014802325504375785,-0.011446422934673989,-0.8650943726381672
12982,1.0,299.5587,43595.054000000004,0.0,-0.12982019791857136,0.0,0.0,0.0,0.0,-2.902103617640327,-6.454238179883714,-3.895466049977567,0.005895890967929134,-0.0014272920565627587,-0.8672740458557842
12983,1.0,299.71079,43285.759000000005,0.0,-0.1298301939059907,0.0,0.0,0.0,0.0,-2.8660004020022174,-6.4300832094248035,-3.861706380495746,0.011993926546708387,0.024063005853333774,-0.8652107140146492
12984,1.0,299.49147999999997,43234.407,0.0,-0.12984018989340984,0.0,0.0,0.0,0.0,-2.8411907706536974,-6.440238711202074,-3.8607505816764163,-0.004880881359130486,0.006376267267463583,-0.8670196491531772
12985,1.0,299.5373,43544.125,0.0,-0.12985018588082942,0.0,0.0,0.0,0.0,-2.896230820060727,-6.4468969802591936,-3.8931990042038263,-0.012461253704829986,0.004613962810462675,-0.8434752429395252
12986,1.0,299.50212999999997,43681.574,0.0,-0.12986021485830612,0.0,0.0,0.0,0.0,-2.8779098397025873,-6.474287258287403,-3.925910567782206,-0.0006798708966030334,-0.014605120690413188,-0.8580967357250541
12987,1.0,299.2766,43507.94,0.0,-0.12987021084572548,0.0,0.0,0.0,0.0,-2.8654514230980372,-6.477889159742884,-3.881986885222276,0.007784253261920982,0.015672465173501883,-0.8521488259155412
12988,1.0,300.1118,43447.416,0.0,-0.12988020683314483,0.0,0.0,0.0,0.0,-2.868966387694937,-6.453833285143753,-3.8841298078587663,-3.156794466751357e-05,0.002161511925474618,-0.8663311862402311
12989,1.0,300.09398,43578.392,0.0,-0.12989020282056407,0.0,0.0,0.0,0.0,-2.8847418811518573,-6.464316775978394,-3.8976841557714765,0.008839603498275941,-0.0026395567365289675,-0.8627557002148581
12990,1.0,299.72254,43579.644,0.0,-0.1299001988079832,0.0,0.0,0.0,0.0,-2.850961642693007,-6.471785847765534,-3.9243760005057564,0.0037091791071674762,0.016997714231043782,-0.8700757634422922
12991,1.0,300.17055,43589.709,0.0,-0.12991019479540267,0.0,0.0,0.0,0.0,-2.8725009080187673,-6.457606729841164,-3.9200754631063264,0.005006037504857435,0.023878487943873275,-0.8420076818921882
12992,1.0,299.91809,43444.574,0.0,-0.12992019078282202,0.0,0.0,0.0,0.0,-2.8224751293816075,-6.472008965437554,-3.9115815901680464,-0.007417601316510252,-0.009554626634768231,-0.8670983381559432
12993,1.0,299.88542,43292.334,0.0,-0.12993018677024137,0.0,0.0,0.0,0.0,-2.8499073559639574,-6.454416410576303,-3.8554647598797462,-0.01002561557742622,-0.01983622799493328,-0.8671968463306652
12994,1.0,300.07161,43573.392,0.0,-0.12994021574771797,0.0,0.0,0.0,0.0,-2.893978871713477,-6.465480696368265,-3.885763470994996,0.00993224762046152,-0.004658883835096035,-0.8550749604818282
12995,1.0,299.96344,43743.776,0.0,-0.12995021173513743,0.0,0.0,0.0,0.0,-2.8987937348636676,-6.483254420347394,-3.9149673653771964,0.012300950446259288,0.006275458305739515,-0.8625001484071372
12996,1.0,299.88873,43526.777,0.0,-0.1299602077225568,0.0,0.0,0.0,0.0,-2.8657323973507673,-6.4630876022820845,-3.9022334460704564,-0.0038885816234981263,-0.0027165261525502575,-0.8653852868743782
12997,1.0,300.83557,43551.555,0.0,-0.12997020370997603,0.0,0.0,0.0,0.0,-2.867965701896177,-6.465491740794353,-3.9051278963061162,0.002228634678349118,-0.014623870883513686,-0.8621149309841192
12998,1.0,299.62594,43567.62,0.0,-0.12998019969739516,0.0,0.0,0.0,0.0,-2.866118850938907,-6.456370666044173,-3.9209789782204965,0.007938637214732492,0.004002199181061306,-0.8550317251000612
12999,1.0,299.51866,43421.58,0.0,-0.1299901956848145,0.0,0.0,0.0,0.0,-2.8659452811967774,-6.4446064270831345,-3.8885244761924858,0.017700902707693082,0.023597439723885977,-0.8500968931380313
13000,1.0,299.54143999999997,43513.609000000004,0.0,-0.13000019167223398,0.0,0.0,0.0,0.0,-2.879114087446437,-6.463614087034044,-3.8843224267027763,-0.02062185753946888,-0.012561680975241386,-0.8652418005277173
13001,1.0,299.62881,43591.692,0.0,-0.13001018765965333,0.0,0.0,0.0,0.0,-2.8744670185128074,-6.456538156285704,-3.919780607327226,-0.016614212240445087,-0.02598509367027908,-0.8426385618019512
13002,1.0,299.48913999999996,43482.982,0.0,-0.13002021663713015,0.0,0.0,0.0,0.0,-2.8614470587028373,-6.457149247421014,-3.899144451815596,-0.02298810049799888,0.013935269155303985,-0.8509757862747711
13003,1.0,299.58837,43627.315,0.0,-0.13003021262454928,0.0,0.0,0.0,0.0,-2.8660804487601177,-6.479837133060134,-3.9156966014741665,0.005927053981379684,0.017395990421350586,-0.8288535677689782
13004,1.0,299.36804,43880.942,0.0,-0.13004020861196874,0.0,0.0,0.0,0.0,-2.901948387725007,-6.4907043417076435,-3.946057728795576,-0.0028914511166890076,-0.0062077381406060545,-0.8555726385334452
13005,1.0,300.44669,43775.797,0.0,-0.13005020459938788,0.0,0.0,0.0,0.0,-2.909576033152797,-6.484100180205864,-3.913072992990236,-0.003479237702349027,-0.01030568064084149,-0.8499933389778112
13006,1.0,300.73555,43506.916,0.0,-0.13006020058680712,0.0,0.0,0.0,0.0,-2.8697346339207574,-6.457701570050524,-3.897579892336186,0.012715949316216488,0.011041904110501091,-0.8598698930025511
13007,1.0,300.38069,43612.579000000005,0.0,-0.13007019657422647,0.0,0.0,0.0,0.0,-2.8702840181249774,-6.4736839691778645,-3.9131669212745064,0.005637246518252916,-0.0013998011627996186,-0.8493958963213482
13008,1.0,300.23042000000004,43684.785,0.0,-0.13008019256164594,0.0,0.0,0.0,0.0,-2.866198391071757,-6.478941217321713,-3.9339443238500764,-0.006578554847902813,-0.001980819339116648,-0.8638029245907112
13009,1.0,300.15857,43580.079000000005,0.0,-0.1300901885490653,0.0,0.0,0.0,0.0,-2.8523466542546974,-6.482457904443784,-3.9124513640538856,-0.001376391741764289,-0.019358311360016582,-0.8588642118807982
13010,1.0,300.30849,43627.627,0.0,-0.1301002175265421,0.0,0.0,0.0,0.0,-2.8534254616361676,-6.500236492023394,-3.9080472724942363,0.003542841234976207,0.02332113250111658,-0.8558364280644792
13011,1.0,300.12626,43653.87,0.0,-0.13011021351396124,0.0,0.0,0.0,0.0,-2.8955450523930475,-6.482886205261054,-3.891255083886976,-0.003512972952503437,0.0017335833762913582,-0.8556400703276001
13012,1.0,299.67408,43680.40900000001,0.0,-0.1301202095013807,0.0,0.0,0.0,0.0,-2.864340090388357,-6.5120510895144035,-3.9013625576095063,-0.010377427867172391,-0.02073857989798848,-0.8652730390283001
13013,1.0,299.1426,43770.263,0.0,-0.13013020548879983,0.0,0.0,0.0,0.0,-2.8877938917780672,-6.500324442132074,-3.916948674622736,-0.003009462734635847,-0.011625245365322388,-0.8670292243666222
13014,1.0,299.33929,43715.35,0.0,-0.13014020147621908,0.0,0.0,0.0,0.0,-2.8886343827360177,-6.472816931067294,-3.9269233112571564,-0.0097416368354997,0.02216095404386588,-0.8593232547061022
13015,1.0,300.5907,43464.107,0.0,-0.13015019746363865,0.0,0.0,0.0,0.0,-2.8480356803792373,-6.472633330149174,-3.8913342187197864,0.018942740003752883,0.005897505581963484,-0.8748628128772371
13016,1.0,300.63572,43355.655999999995,0.0,-0.13016019345105778,0.0,0.0,0.0,0.0,-2.8544389143861872,-6.452642716276253,-3.871955202607226,-0.01960168694128588,-0.0007978793329445592,-0.8868250713053202
13017,1.0,300.61805,43573.074,0.0,-0.13017018943847725,0.0,0.0,0.0,0.0,-2.898401404424947,-6.462543588303394,-3.8841814836138666,0.01919439282508908,-0.0034353167555643666,-0.8806830835716531
13018,1.0,300.18344,43641.175,0.0,-0.13018018542589638,0.0,0.0,0.0,0.0,-2.870761562897107,-6.489031668442564,-3.9060341471955566,0.01145715426648309,0.017781950556691885,-0.8726157382629681
13019,1.0,300.26283,43655.547,0.0,-0.1301902144033732,0.0,0.0,0.0,0.0,-2.8719851637178673,-6.484108286206664,-3.9141026577418563,0.021651034917790777,0.005426666397670275,-0.880688332207171
13020,1.0,300.14072000000004,43837.371,0.0,-0.13020021039079255,0.0,0.0,0.0,0.0,-2.878771203612597,-6.506160965358093,-3.940533995875426,-0.012204672435007387,-0.00982402886208116,-0.8554690438432212
13021,1.0,300.16331,43850.195999999996,0.0,-0.1302102063782118,0.0,0.0,0.0,0.0,-2.8777095201578176,-6.512579398116544,-3.939075625006496,0.007722864187387352,-0.0032316837816423567,-0.8666994722540782
13022,1.0,299.37568999999996,43818.433,0.0,-0.13022020236563114,0.0,0.0,0.0,0.0,-2.894975403186827,-6.501128456086423,-3.9236057277797363,-0.0016766945507518684,0.008254267255332752,-0.8383422293904362
13023,1.0,299.8658,43936.350999999995,0.0,-0.1302301983530505,0.0,0.0,0.0,0.0,-2.924049601556227,-6.505585641951314,-3.9259185724579964,0.004260668845095276,-0.027406327909793974,-0.8525810682757002
13024,1.0,300.37221,43814.65,0.0,-0.13024019434046974,0.0,0.0,0.0,0.0,-2.902716329975797,-6.479744319350973,-3.936099101512736,-0.00937261347955493,-0.016835678314802083,-0.8444386411346052
13025,1.0,300.2435,43486.401,0.0,-0.1302501903278891,0.0,0.0,0.0,0.0,-2.8484085564160373,-6.469870906401543,-3.9005003830994167,0.007960150439530682,0.002824283071535037,-0.8624721320418721
13026,1.0,300.54202999999995,43595.045,0.0,-0.13026018631530834,0.0,0.0,0.0,0.0,-2.8579080800785674,-6.472519744812963,-3.9213772868348062,0.003616603309130957,0.02678000762548097,-0.8637300921735231
13027,1.0,300.52345,43763.850999999995,0.0,-0.13027021529278515,0.0,0.0,0.0,0.0,-2.874535716869587,-6.488006765966414,-3.940575235154496,-0.001072129252710919,0.00048233404058266365,-0.8805674717352432
13028,1.0,300.74341,43678.615,0.0,-0.1302802112802045,0.0,0.0,0.0,0.0,-2.8993807106465974,-6.4877228532883935,-3.890104639723436,-0.02881706893127327,-0.010624359956292689,-0.8687592982498672
13029,1.0,300.32262000000003,43702.742999999995,0.0,-0.13029020726762375,0.0,0.0,0.0,0.0,-2.888369012534827,-6.4958408104395735,-3.900332892857886,-0.0028218694084718274,-0.007382866495132193,-0.8668109905600841
13030,1.0,299.89543,43866.773,0.0,-0.1303002032550431,0.0,0.0,0.0,0.0,-2.895298224668687,-6.504913451834974,-3.9341920634995264,0.00023302946688321774,0.005039487423783686,-0.8557072589417312
13031,1.0,299.53348,43936.842000000004,0.0,-0.13031019924246245,0.0,0.0,0.0,0.0,-2.886992208298947,-6.520996871997284,-3.947713683434006,0.010783560798754591,-0.002672949609474588,-0.8551857391152612
13032,1.0,300.0813,43898.070999999996,0.0,-0.1303201952298817,0.0,0.0,0.0,0.0,-2.884661125118887,-6.498039867131603,-3.961216558241636,0.0027640518378906774,-0.0003090884878221587,-0.8600875593890331
13033,1.0,299.93753,43765.837,0.0,-0.13033019121730105,0.0,0.0,0.0,0.0,-2.8598516964203875,-6.506058728423004,-3.9378111902067063,0.023872182488500978,0.00046984175102727046,-0.8510906077761031
13034,1.0,299.58217,43583.613,0.0,-0.1303401872047203,0.0,0.0,0.0,0.0,-2.875158764356077,-6.476809237786303,-3.8963621683660064,0.015580747800950086,0.024769522856561577,-0.8601630769189862
13035,1.0,299.57518,43752.622,0.0,-0.1303502161821971,0.0,0.0,0.0,0.0,-2.885128740040037,-6.496980007527003,-3.9175957361365965,0.008175488073307851,-0.007046721281082244,-0.8638032184332401
13036,1.0,299.72378,43825.733,0.0,-0.13036021216961646,0.0,0.0,0.0,0.0,-2.8883403375569974,-6.499173592668494,-3.9344144718964764,0.0013937998851073388,-0.003630067680434786,-0.8628083486900541
13037,1.0,299.60991,43693.518,0.0,-0.13037020815703582,0.0,0.0,0.0,0.0,-2.8726664730851077,-6.486956126937724,-3.922115844832696,-0.022613390478517875,0.004185121728239356,-0.8511713334115703
13038,1.0,299.98545,43684.615,0.0,-0.13038020414445506,0.0,0.0,0.0,0.0,-2.850950699591927,-6.510254495762093,-3.9178269598094166,-0.01112661992486189,0.02006830381108738,-0.8740484941693701
13039,1.0,300.78373999999997,43897.907999999996,0.0,-0.1303902001318744,0.0,0.0,0.0,0.0,-2.8852413121261473,-6.521028485400404,-3.937598103710676,-0.02169366944224848,-0.007800648155164033,-0.8660061862706561
13040,1.0,300.65657999999996,44202.267,0.0,-0.13040019611929365,0.0,0.0,0.0,0.0,-2.9486926545883074,-6.528398663977784,-3.9592942201519166,0.013267929467192687,0.005040060214065215,-0.8501153038923481
13041,1.0,300.51665,44030.454000000005,0.0,-0.130410192106713,0.0,0.0,0.0,0.0,-2.916771020787887,-6.508209047785224,-3.959178608315506,0.026671389241261178,0.008079330030867794,-0.8572351489000222
13042,1.0,300.20332,43657.187999999995,0.0,-0.13042018809413225,0.0,0.0,0.0,0.0,-2.8541042378781576,-6.493148908898903,-3.923441986563576,0.02025355936662068,0.013587078930690288,-0.8749348954893511
13043,1.0,299.79238,43683.633,0.0,-0.13043021707160896,0.0,0.0,0.0,0.0,-2.8568824683273473,-6.493198659478814,-3.928652726527836,0.0045991237627481755,-0.008597847698616502,-0.8824401808350653
13044,1.0,300.2911,43860.602999999996,0.0,-0.13044021305902842,0.0,0.0,0.0,0.0,-2.881116674944077,-6.510823030393204,-3.940588306080786,-0.007618416340579153,-0.017232353569950884,-0.8806261895785382
13045,1.0,299.91299,43759.494000000006,0.0,-0.13045020904644777,0.0,0.0,0.0,0.0,-2.8886693398644674,-6.502945720140774,-3.9101783401045562,0.0033949026673758065,0.012055338622019289,-0.8716034710155651
13046,1.0,299.91531000000003,43650.746,0.0,-0.13046020503386702,0.0,0.0,0.0,0.0,-2.9007485982815973,-6.481685605217565,-3.886302621373207,-0.008717465216646831,-0.00097915586546766,-0.8618531780857862
13047,1.0,299.86752,43680.179000000004,0.0,-0.13047020102128637,0.0,0.0,0.0,0.0,-2.8677958811794175,-6.501482384346354,-3.908405557729596,-0.008812599876485892,-0.018322886281578084,-0.8769116451094412
13048,1.0,300.18925,43923.6,0.0,-0.1304801970087055,0.0,0.0,0.0,0.0,-2.8959058707536576,-6.5157498576794435,-3.940022000599896,-0.015327458580702386,-0.013988974450354286,-0.854272344812616
13049,1.0,299.59962,44160.303,0.0,-0.13049019299612497,0.0,0.0,0.0,0.0,-2.9246651509919768,-6.526365071027084,-3.9725993085400257,0.005961235770853165,0.005713527836131295,-0.8627662278833972
13050,1.0,299.33387,43942.459,0.0,-0.1305001889835441,0.0,0.0,0.0,0.0,-2.8955982480232976,-6.517484947150684,-3.944326996299766,0.002893017702668617,0.0010088130575470972,-0.8562417179719781
13051,1.0,299.165,43607.037000000004,0.0,-0.1305102179610209,0.0,0.0,0.0,0.0,-2.866896723040677,-6.496392119818984,-3.892161436101426,-0.015180440044192785,-0.007867930900229322,-0.8896585036199581
13052,1.0,300.03489,43813.765999999996,0.0,-0.13052021394844027,0.0,0.0,0.0,0.0,-2.8934565412869273,-6.500857513009684,-3.923976779966356,-0.001102209709754629,-0.009178337465006382,-0.8505648829617182
13053,1.0,299.7014,44052.929000000004,0.0,-0.13053020993585973,0.0,0.0,0.0,0.0,-2.8947040548100476,-6.525845375050794,-3.9704409845020168,0.00039673258483945763,0.01836712376769398,-0.8711710158728851
13054,1.0,299.67845,43965.054000000004,0.0,-0.13054020592327886,0.0,0.0,0.0,0.0,-2.8903085758762472,-6.520651151063164,-3.9533188816621965,0.008258194815370372,0.016170185781623086,-0.8633887484798352
13055,1.0,300.15882,43801.755999999994,0.0,-0.13055020191069833,0.0,0.0,0.0,0.0,-2.8640203086567975,-6.524034595797084,-3.9265851896987862,-0.004816373602114066,-0.007162031878237513,-0.8794600197734461
13056,1.0,300.41637000000003,43891.692,0.0,-0.13056019789811746,0.0,0.0,0.0,0.0,-2.8750588578962177,-6.526431945533685,-3.940487589020846,-0.0076218655452445615,-0.013883462690941088,-0.8459136394376763
13057,1.0,300.10256,44029.513,0.0,-0.13057019388553692,0.0,0.0,0.0,0.0,-2.913774029642107,-6.523955866264314,-3.9461426391539565,0.005186395921332425,0.013663278377960589,-0.8612304548393281
13058,1.0,300.0791,44130.825999999994,0.0,-0.13058018987295628,0.0,0.0,0.0,0.0,-2.933620964650847,-6.540854344807064,-3.9401938478168566,-0.0020139916275154985,-0.016462513501723584,-0.8429354744787542
13059,1.0,299.95636,43879.377,0.0,-0.13059021885043287,0.0,0.0,0.0,0.0,-2.8820816943393175,-6.5104761948839736,-3.9456769494079964,-0.014449518912306485,-0.013300781061934885,-0.8610113699027061
13060,1.0,300.3501,43657.032999999996,0.0,-0.13060021483785245,0.0,0.0,0.0,0.0,-2.8650502773834474,-6.496792961558544,-3.9088045756189764,-0.016461295575103386,-0.015709643346171087,-0.8589624262129911
13061,1.0,300.06216,43832.192,0.0,-0.1306102108252717,0.0,0.0,0.0,0.0,-2.8739168237085075,-6.510171206603873,-3.9398037465283564,0.0013823875479060286,0.028609000049738476,-0.8774399841090841
13062,1.0,299.90254,44178.574,0.0,-0.13062020681269082,0.0,0.0,0.0,0.0,-2.925246249924327,-6.542430759312643,-3.9615064490952463,0.009173376288541752,0.001113271361096329,-0.8838431066585232
13063,1.0,299.4373,44054.295,0.0,-0.13063020280011017,0.0,0.0,0.0,0.0,-2.917107825121127,-6.535517860505394,-3.9387798573023063,0.0032067679616833568,0.0013238599929798088,-0.8781076551299782
13064,1.0,299.9891,43858.15900000001,0.0,-0.13064019878752942,0.0,0.0,0.0,0.0,-2.8925129014687974,-6.510229975109674,-3.9290423211912864,0.012020130207544489,-0.0005109665429684715,-0.8564929330692712
13065,1.0,299.85165,43970.4,0.0,-0.13065019477494877,0.0,0.0,0.0,0.0,-2.875957914709947,-6.534863908890854,-3.9550817341861757,-0.003602713474110137,0.03214888451959787,-0.8612380136850741
13066,1.0,299.52461,44087.189000000006,0.0,-0.13066019076236823,0.0,0.0,0.0,0.0,-2.909656991835787,-6.526316333697273,-3.9654312733575963,0.016664488697156983,0.002348830863511558,-0.8569686235937182
13067,1.0,299.59467,44035.846,0.0,-0.13067018674978736,0.0,0.0,0.0,0.0,-2.8942432286645676,-6.533484774179744,-3.9580697074060667,-0.02100246366128178,-0.011690131875226188,-0.8545736955248572
13068,1.0,299.72362999999996,43841.113,0.0,-0.1306802157272644,0.0,0.0,0.0,0.0,-2.895035184942727,-6.501558986053913,-3.930009367086726,0.01950525187626848,-0.005815939556863545,-0.8589590115601541
13069,1.0,299.95817999999997,43811.062999999995,0.0,-0.13069021171468354,0.0,0.0,0.0,0.0,-2.897262308662527,-6.507772438317135,-3.9124344427772164,-0.013596390699109288,0.006016399943397444,-0.8566757233873112
13070,1.0,300.32556,43987.974,0.0,-0.13070020770210278,0.0,0.0,0.0,0.0,-2.9032278186262768,-6.537106130037143,-3.930911970275806,0.008625969948516951,-0.027178971812605673,-0.8814519985425392
13071,1.0,300.22585,44108.255999999994,0.0,-0.13071020368952213,0.0,0.0,0.0,0.0,-2.893473563888607,-6.552144484046314,-3.9621903929127464,-0.011661023226353387,-0.013768061610551887,-0.8695490355103082
13072,1.0,299.7493,43960.062000000005,0.0,-0.13072019967694137,0.0,0.0,0.0,0.0,-2.8983005860399973,-6.537930712968524,-3.9265298662433263,0.01924078245441738,0.0056021404420382144,-0.888022874778534
13073,1.0,300.28002999999995,43852.804000000004,0.0,-0.13073019566436095,0.0,0.0,0.0,0.0,-2.867060058956797,-6.531547439988544,-3.931550013863776,0.007906548293340561,0.025433188499810275,-0.8871564040880202
13074,1.0,300.10773,43969.733,0.0,-0.13074019165178008,0.0,0.0,0.0,0.0,-2.913654770105337,-6.526754665690534,-3.925291370646096,-0.004132525131448476,-0.017380187772790982,-0.8829152127469471
13075,1.0,300.11697000000004,44236.807,0.0,-0.13075018763919932,0.0,0.0,0.0,0.0,-2.952058874070527,-6.532305959013403,-3.962519800520256,-0.01229599767977049,-0.009003926522643362,-0.8621050619281452
13076,1.0,299.86778,44185.070999999996,0.0,-0.13076021661667625,0.0,0.0,0.0,0.0,-2.937505866859257,-6.5367968861066235,-3.956855428486226,0.01214040400766459,-0.007070884357541953,-0.8601497020176662
13077,1.0,299.65746,43903.916,0.0,-0.1307702126040955,0.0,0.0,0.0,0.0,-2.8686390065876273,-6.513624261619664,-3.963430813685166,0.005454625919604665,0.02088353951029488,-0.8603716848495743
13078,1.0,299.10438,43876.403,0.0,-0.13078020859151473,0.0,0.0,0.0,0.0,-2.880281756861677,-6.527310129395353,-3.9297391332850564,0.0023568881269817477,-0.02299609808103818,-0.8574404739002862
13079,1.0,299.42973,44109.585999999996,0.0,-0.1307902045789341,0.0,0.0,0.0,0.0,-2.9075070777736074,-6.535622934540764,-3.965082715323196,-0.005652269572185575,-0.0030530461678121975,-0.8723708154487961
13080,1.0,299.30957,44205.717000000004,0.0,-0.13080020056635344,0.0,0.0,0.0,0.0,-2.943746879525197,-6.550914398424913,-3.9427728732963856,0.009281471937034961,0.008261710387917332,-0.8602189475295002
13081,1.0,300.10237,44041.765,0.0,-0.1308101965537729,0.0,0.0,0.0,0.0,-2.914312369420237,-6.540221975419653,-3.9330626949380663,0.0017775309715536481,0.015621185599190984,-0.8719104452658611
13082,1.0,300.0424,43919.345,0.0,-0.13082019254119204,0.0,0.0,0.0,0.0,-2.888504788048227,-6.535179941597044,-3.926699484310067,-0.006866327907478804,-0.01213716768684519,-0.8599631424092541
13083,1.0,300.4349,44057.502,0.0,-0.13083018852861128,0.0,0.0,0.0,0.0,-2.883973533601027,-6.547319691045144,-3.9610871662038667,-0.017218664561099883,0.00017590856654082384,-0.8676022071656712
13084,1.0,300.26909,44286.225,0.0,-0.1308402175060882,0.0,0.0,0.0,0.0,-2.930953381112577,-6.552575925938894,-3.9783772659102663,0.0037913666598787562,0.0067518978246604335,-0.8561452160324543
13085,1.0,300.27756,44196.363,0.0,-0.13085021349350745,0.0,0.0,0.0,0.0,-2.911054972998757,-6.548412683928014,-3.9751232132141165,0.0014376216347072085,0.023610219847397276,-0.8704510712793322
13086,1.0,299.49728999999996,43985.206,0.0,-0.13086020948092658,0.0,0.0,0.0,0.0,-2.913589314148877,-6.535000191029304,-3.9218147069029756,-0.0013531347135439988,-0.013826988183367486,-0.8614840409418553
13087,1.0,299.9891,43951.995,0.0,-0.13087020546834605,0.0,0.0,0.0,0.0,-2.896225247185177,-6.523737409542753,-3.9403462406318965,0.008224657351635481,-0.006778478921158784,-0.8757475727320562
13088,1.0,300.01125,44088.95,0.0,-0.1308802014557654,0.0,0.0,0.0,0.0,-2.8953723945760075,-6.548779379139203,-3.9577881252032765,0.02172983436481768,0.00022615810119756683,-0.8750034823886202
13089,1.0,300.12099,43987.395,0.0,-0.13089019744318475,0.0,0.0,0.0,0.0,-2.877876301124277,-6.5401712115896435,-3.953022303357926,0.015470207281290588,0.014158863054870987,-0.8883731249406012
13090,1.0,299.66053999999997,43887.039000000004,0.0,-0.130900193430604,0.0,0.0,0.0,0.0,-2.8727290919412876,-6.5382779537777935,-3.9295568495920663,-0.007018873824608913,-0.026670188539892673,-0.8744593772174212
13091,1.0,299.92503999999997,44000.371,0.0,-0.13091018941802324,0.0,0.0,0.0,0.0,-2.9006724018740773,-6.548881312099264,-3.925460380762776,-0.014008521058033385,-0.006142255535668425,-0.8716229862124912
13092,1.0,299.71691,44217.595,0.0,-0.13092021839550017,0.0,0.0,0.0,0.0,-2.950174228884527,-6.550414460825573,-3.940455975617726,-0.0097700372225526,-0.000842981698948316,-0.8565955955694031
13093,1.0,299.972,44443.117999999995,0.0,-0.1309302143829194,0.0,0.0,0.0,0.0,-2.957404376298087,-6.581178355061734,-3.9710154973087164,0.001948061267358678,0.012175097691088588,-0.8620390182866272
13094,1.0,300.03395,44376.560999999994,0.0,-0.13094021037033854,0.0,0.0,0.0,0.0,-2.930928151185087,-6.573120888941523,-3.9853174211452065,-0.007449741204382214,-0.01014829250280849,-0.8567612112982481
13095,1.0,300.07467,44072.874,0.0,-0.130950206357758,0.0,0.0,0.0,0.0,-2.8951470477537673,-6.542728857492064,-3.959177291090376,-0.003616262046497277,-0.0027239948190373574,-0.8665029219996802
13096,1.0,300.27212000000003,44057.107,0.0,-0.13096020234517736,0.0,0.0,0.0,0.0,-2.8971492299513675,-6.540992653445714,-3.9541184373161067,0.006631865786014194,-0.003893306814014466,-0.8622792598853372
13097,1.0,300.64086000000003,44234.59099999999,0.0,-0.1309701983325967,0.0,0.0,0.0,0.0,-2.9302525160184074,-6.546596939748814,-3.9693617718205063,-0.0002461934703274038,-0.0025964802323776475,-0.8644879931158221
13098,1.0,300.02443999999997,44116.035,0.0,-0.13098019432001595,0.0,0.0,0.0,0.0,-2.922178837896597,-6.557885863087944,-3.930108462946506,0.004359392031488496,-0.02987652019608297,-0.8714298708759323
13099,1.0,299.32117,43934.477,0.0,-0.13099019030743508,0.0,0.0,0.0,0.0,-2.8762210557609174,-6.546471904686474,-3.9322911049869167,0.006657249423544364,-0.01085637801719109,-0.8695498562428893
13100,1.0,299.05704,44018.56,0.0,-0.13100021928491212,0.0,0.0,0.0,0.0,-2.876887875651727,-6.546934250707103,-3.9567209701979564,0.008661187887542691,0.014857967120367185,-0.8808720547153032
13101,1.0,299.39474,44253.276,0.0,-0.13101021527233125,0.0,0.0,0.0,0.0,-2.9121959939363675,-6.571779345809124,-3.9679154586277665,0.006702320814492563,0.0011351867448592089,-0.8661578191481212
13102,1.0,300.11881,44426.92,0.0,-0.1310202112597505,0.0,0.0,0.0,0.0,-2.9373751575963576,-6.586240045936284,-3.9810591362749466,-0.009196582755582052,-0.0038795005721268968,-0.8678042188381082
13103,1.0,300.32488,44286.687999999995,0.0,-0.13103020724717007,0.0,0.0,0.0,0.0,-2.9246598820914573,-6.575347911336315,-3.962039621297867,-0.0013939637276485087,-5.013911370059525e-05,-0.8591075844223172
13104,1.0,300.29269,44060.08,0.0,-0.13104020323458931,0.0,0.0,0.0,0.0,-2.9240601393572674,-6.546373518101764,-3.9227303810183463,0.01139452933080249,0.01015485937670659,-0.8686715001287022
13105,1.0,299.99868,44060.850999999995,0.0,-0.13105019922200867,0.0,0.0,0.0,0.0,-2.8899980147205975,-6.547474211685394,-3.9559261768195166,-0.004393890968243276,-0.00014922364230472685,-0.8678942461094932
13106,1.0,299.67692999999997,44183.178,0.0,-0.1310601952094279,0.0,0.0,0.0,0.0,-2.916260646712517,-6.561422207261954,-3.9529000040708566,-0.006259531432717654,-0.0074201525789370434,-0.8795081896832002
13107,1.0,299.57989,44156.925,0.0,-0.13107019119684704,0.0,0.0,0.0,0.0,-2.908429743314667,-6.551911335198303,-3.962261320419746,0.007387220126836863,0.014143777787382187,-0.8723534584745831
13108,1.0,299.93965,44057.28,0.0,-0.1310801871842664,0.0,0.0,0.0,0.0,-2.8998600792689073,-6.556106494587334,-3.9363466385121666,0.012150198083131187,0.039526895520250856,-0.8812258715177222
13109,1.0,299.99034,44196.169,0.0,-0.1310902161617432,0.0,0.0,0.0,0.0,-2.915041706842217,-6.5571668608169835,-3.9623232300008566,-9.63894890279019e-06,-4.5441372129464255e-05,-0.8576676851027102
13110,1.0,299.98078,44513.59,0.0,-0.13110021214916268,0.0,0.0,0.0,0.0,-2.966099987331277,-6.577976687395753,-3.986943180930656,-0.01045682107875789,-0.0036607406861369767,-0.854208287141294
13111,1.0,300.10262,44557.037000000004,0.0,-0.13111020813658203,0.0,0.0,0.0,0.0,-2.925400162614517,-6.601304440473024,-4.0175220556985565,-0.0009176691136243901,-0.0023307926812563278,-0.8582074839609842
13112,1.0,300.189,44310.556,0.0,-0.13112020412400116,0.0,0.0,0.0,0.0,-2.931283396670147,-6.561944436363493,-3.976074857708036,0.014601190293275286,0.013738958027929588,-0.8531103090679322
13113,1.0,300.03619,44180.462999999996,0.0,-0.13113020011142063,0.0,0.0,0.0,0.0,-2.8935733690234575,-6.566810873943774,-3.969373424196656,0.002196177541870848,-0.012187653886327789,-0.8615735615881902
13114,1.0,299.58808999999997,44222.918,0.0,-0.13114019609883976,0.0,0.0,0.0,0.0,-2.906863359985077,-6.574822135859423,-3.9609772285680167,-0.007721831888185472,-0.009020821758785791,-0.8680214089970433
13115,1.0,300.21592999999996,44271.630999999994,0.0,-0.131150192086259,0.0,0.0,0.0,0.0,-2.9162388618353674,-6.571042206361374,-3.9701892931771763,0.01069004794702559,0.0064254210430646835,-0.8703948358987822
13116,1.0,299.96607,44236.91099999999,0.0,-0.13116018807367857,0.0,0.0,0.0,0.0,-2.9168968664503074,-6.573181075997464,-3.9568384058845463,0.012376773977742488,0.016218595831650785,-0.868280578107621
13117,1.0,299.89326,44038.519,0.0,-0.13117021705115517,0.0,0.0,0.0,0.0,-2.8716456236093575,-6.551950345327153,-3.9630140639190365,0.008727323025544721,-0.017406329625370986,-0.8831874831813182
13118,1.0,299.62244,44062.136,0.0,-0.13118021303857452,0.0,0.0,0.0,0.0,-2.896188466206547,-6.551133868396573,-3.946466676535936,-0.014104072568963587,-0.009235891995861572,-0.8728663859402052
13119,1.0,300.23843,44416.045,0.0,-0.131190209025994,0.0,0.0,0.0,0.0,-2.9354715646334872,-6.5768633281858735,-3.9890337185369757,0.012950103308325687,0.015221396626484885,-0.8830206110223492
13120,1.0,299.5682,44490.835,0.0,-0.13120020501341312,0.0,0.0,0.0,0.0,-2.9550300273387573,-6.577034871427803,-3.992037802433456,-0.006092152851348675,0.02002035580310528,-0.8682176451439102
13121,1.0,300.3757,44275.977999999996,0.0,-0.13121020100083247,0.0,0.0,0.0,0.0,-2.9324478236850675,-6.577304193304385,-3.9490396225148663,0.006102152413935555,-0.016997169102489985,-0.8723246416417393
13122,1.0,299.85598999999996,44272.842000000004,0.0,-0.1312201969882517,0.0,0.0,0.0,0.0,-2.9182384095827074,-6.569734303132294,-3.969865863745256,-0.0077484344655859416,-0.0041271969557976265,-0.8738862829608611
13123,1.0,300.31082999999995,44395.289000000004,0.0,-0.13123019297567107,0.0,0.0,0.0,0.0,-2.927747457796177,-6.585439477032273,-3.981872269480196,0.007989644630066534,0.0013541751187466787,-0.8830949531821861
13124,1.0,300.52353,44353.820999999996,0.0,-0.13124018896309053,0.0,0.0,0.0,0.0,-2.927953755516537,-6.588904488399244,-3.965595622523817,-0.004151796844375446,-0.005799339277825224,-0.8671349772795592
13125,1.0,300.35028,44222.106,0.0,-0.13125021794056713,0.0,0.0,0.0,0.0,-2.899764935084517,-6.574950615972103,-3.967700649606566,-0.006066923633133744,-0.022591260083083778,-0.8812242604500632
13126,1.0,299.95724,44150.445999999996,0.0,-0.13126021392798648,0.0,0.0,0.0,0.0,-2.9047972417061674,-6.562170492460804,-3.953665413196396,-0.024626321233178677,0.009309206517447152,-0.8620497182076833
13127,1.0,300.15536000000003,44189.483,0.0,-0.13127020991540583,0.0,0.0,0.0,0.0,-2.9175768585924176,-6.563203906237794,-3.951718858429286,0.0017932553972055286,0.005399848403298545,-0.8687119997351992
13128,1.0,300.22392,44420.53400000001,0.0,-0.13128020590282508,0.0,0.0,0.0,0.0,-2.9181235070213676,-6.5894822436062634,-3.9951275059633864,-0.0058131359951618545,0.0049241141064472254,-0.8603290067553622
13129,1.0,299.65876000000003,44507.07,0.0,-0.13129020189024443,0.0,0.0,0.0,0.0,-2.9326741837574075,-6.594078548709884,-4.002285104669786,0.01135221499337639,-0.01030068025159799,-0.8698672264392112
13130,1.0,299.11709,44416.564000000006,0.0,-0.13130019787766367,0.0,0.0,0.0,0.0,-2.9375479167384073,-6.587187130804753,-3.9767913268537463,0.01089081636158989,0.006422536826655035,-0.8686938321609062
13131,1.0,299.66675,44433.312000000005,0.0,-0.13131019386508302,0.0,0.0,0.0,0.0,-2.918172447001197,-6.599379569258053,-3.989065433265106,0.023071372430967182,0.015328361386541483,-0.8785226519734352
13132,1.0,299.9593,44493.413,0.0,-0.13132018985250238,0.0,0.0,0.0,0.0,-2.949966512614027,-6.590644441470964,-3.984275496067376,-0.008073117287879643,0.001032816871356089,-0.8793688779269512
13133,1.0,299.99929,44434.439000000006,0.0,-0.1313302188299792,0.0,0.0,0.0,0.0,-2.9314823989897874,-6.591433256673814,-3.984044272394556,0.00014321627497934587,-0.014526607993164587,-0.8732408933096663
13134,1.0,300.24363999999997,44161.099,0.0,-0.13134021481739844,0.0,0.0,0.0,0.0,-2.879509964260507,-6.566088021322434,-3.978273407775016,-0.008966757165250033,0.02165484271166658,-0.8874246215219911
13135,1.0,299.73773,44047.806,0.0,-0.1313502108048178,0.0,0.0,0.0,0.0,-2.873992006865927,-6.554992426102384,-3.9604486159908463,-0.0014393724295549987,0.02003191901324648,-0.8800989347565021
13136,1.0,299.9983,44209.34099999999,0.0,-0.13136020679223703,0.0,0.0,0.0,0.0,-2.918620810170447,-6.565422214681723,-3.9544928332280564,-0.015833672251161782,-0.0009389997912845642,-0.8687930394781971
13137,1.0,300.15002000000004,44512.544,0.0,-0.1313702027796564,0.0,0.0,0.0,0.0,-2.9230528674328573,-6.5986884313648435,-4.008960700303616,-0.01040911726404989,-0.020447627158273682,-0.8672439725928162
13138,1.0,299.55368,44642.901,0.0,-0.13138019876707563,0.0,0.0,0.0,0.0,-2.985982183443497,-6.595785469828344,-3.9885594161651663,0.016727000148826384,0.002345028743836318,-0.8688506326138811
13139,1.0,299.76156000000003,44486.986,0.0,-0.13139019475449498,0.0,0.0,0.0,0.0,-2.937598376593387,-6.596675508716184,-3.9886590186499964,0.02074582767595378,-0.005669266133338005,-0.8554826517920642
13140,1.0,300.34983,44321.547999999995,0.0,-0.13140019074191434,0.0,0.0,0.0,0.0,-2.8990721759911473,-6.5965477378785735,-3.9770238677516963,-0.0006110035702363574,-0.003972802566510086,-0.8638745917702843
13141,1.0,300.62699,44493.505999999994,0.0,-0.13141021971939115,0.0,0.0,0.0,0.0,-2.931795898570727,-6.596786358277123,-3.9963326656323264,-0.013259537729864487,-0.01260539967730609,-0.8776292389627621
13142,1.0,300.42145,44660.958,0.0,-0.1314202157068104,0.0,0.0,0.0,0.0,-2.972078466896307,-6.601602538652444,-4.002134941004966,-0.0008131031522520333,0.026866938404560375,-0.8755593209959771
13143,1.0,300.01412999999997,44394.747,0.0,-0.13143021169422975,0.0,0.0,0.0,0.0,-2.925933030842107,-6.589087278717284,-3.979874241608006,-0.005300644531057885,0.005649542612191444,-0.8794044632704631
13144,1.0,299.47036,44216.350999999995,0.0,-0.131440207681649,0.0,0.0,0.0,0.0,-2.9253901314385273,-6.574820919959303,-3.940455468992676,-0.010106415078825511,-0.010840962430169689,-0.8684704307788581
13145,1.0,299.98375,44485.254,0.0,-0.13145020366906834,0.0,0.0,0.0,0.0,-2.9278704663583173,-6.597474760395064,-3.997061192454226,-0.01001218150230038,-0.017262970948222586,-0.8682338267480073
13146,1.0,299.73094,44657.415,0.0,-0.1314601996564877,0.0,0.0,0.0,0.0,-2.9280434281503873,-6.620512419968704,-4.026183317553357,0.014919806787220284,0.016112286644408884,-0.8595566467341361
13147,1.0,300.05929,44587.795999999995,0.0,-0.13147019564390694,0.0,0.0,0.0,0.0,-2.942675570194467,-6.607849124193934,-4.003052033670476,0.020152587980905582,0.006003199219769634,-0.860922761181461
13148,1.0,299.13207,44481.163,0.0,-0.1314801916313263,0.0,0.0,0.0,0.0,-2.9200522285867176,-6.616444322142214,-3.984666407955956,-0.004886451498905215,-0.008250823218242853,-0.8668212446510962
13149,1.0,299.18217000000004,44434.66099999999,0.0,-0.13149018761874554,0.0,0.0,0.0,0.0,-2.932337582074187,-6.601578119325033,-3.973111607790586,-0.0016863267088524881,-0.01807313127767918,-0.8785321562593732
13150,1.0,300.11356,44518.032999999996,0.0,-0.13150021659622224,0.0,0.0,0.0,0.0,-2.9527802068167173,-6.610676395947964,-3.9689139152763064,0.0040788878254798865,0.008239739376723962,-0.8872197626167732
13151,1.0,300.68026000000003,44524.803,0.0,-0.1315102125836417,0.0,0.0,0.0,0.0,-2.941832647436277,-6.615481835872224,-3.977113844360576,0.004204662357742865,0.003301504920858167,-0.8883919916574632
13152,1.0,300.53078,44195.872,0.0,-0.13152020857106084,0.0,0.0,0.0,0.0,-2.8963989182523178,-6.578225744270334,-3.959816854553496,-0.015708212637029883,-0.007612195795565233,-0.8946198422046041
13153,1.0,300.63732000000005,44076.982,0.0,-0.1315302045584803,0.0,0.0,0.0,0.0,-2.8882280694459173,-6.586860864272553,-3.9232130933659866,-0.013331137021680789,0.01067758699729579,-0.8843534199388873
13154,1.0,299.92458,44421.585999999996,0.0,-0.13154020054589965,0.0,0.0,0.0,0.0,-2.9184025560989073,-6.5941694372438535,-3.990480943654806,-0.005679797550902375,0.015559949829397485,-0.8915686421784741
13155,1.0,299.94741,44808.094000000005,0.0,-0.1315501965333189,0.0,0.0,0.0,0.0,-2.9790303758324073,-6.622112240551594,-4.019399101508807,0.007032756262904003,0.008607697300188582,-0.8610205296836102
13156,1.0,300.23615,44693.334,0.0,-0.13156019252073825,0.0,0.0,0.0,0.0,-2.9630082573011474,-6.621728624063734,-4.000920662085126,0.002871036660299257,-0.018568335985802084,-0.8691251929934782
13157,1.0,299.83752000000004,44472.177,0.0,-0.13157018850815738,0.0,0.0,0.0,0.0,-2.909875347232337,-6.607448789079424,-4.001107100103526,0.01106245687552949,-0.014371130844820187,-0.8620720097098832
13158,1.0,299.72249,44581.68,0.0,-0.1315802174856342,0.0,0.0,0.0,0.0,-2.928272523997997,-6.621278842344344,-4.002166047783036,0.001837375447634838,0.0006560914670286864,-0.8686140691130342
13159,1.0,300.11683999999997,44801.105,0.0,-0.13159021347305355,0.0,0.0,0.0,0.0,-2.9700652402726173,-6.618050120900694,-4.030301672584806,-0.007755637255246803,-0.00030138988448986573,-0.8448105545838103
13160,1.0,300.57608,44667.305,0.0,-0.1316002094604728,0.0,0.0,0.0,0.0,-2.947906777810747,-6.629081982689454,-4.000756515568926,-0.0030083934518053174,-0.008154488262335332,-0.8818025324146341
13161,1.0,300.40119,44394.89,0.0,-0.13161020544789215,0.0,0.0,0.0,0.0,-2.937554806839087,-6.595918610891484,-3.961464703191126,0.004145131583892636,0.0026243216093503777,-0.8596732312906422
13162,1.0,300.2912,44331.879,0.0,-0.1316202014353116,0.0,0.0,0.0,0.0,-2.9354850408598177,-6.577483538572084,-3.962815568224446,0.012166157785456289,-0.0014037969145689686,-0.8813697732969241
13163,1.0,300.71331000000004,44449.164000000004,0.0,-0.13163019742273074,0.0,0.0,0.0,0.0,-2.910649875608777,-6.612416855644734,-3.988369431771416,-0.0007779880581114434,-0.0037700149471465065,-0.8792579777035062
13164,1.0,300.53286,44626.384000000005,0.0,-0.1316401934101502,0.0,0.0,0.0,0.0,-2.9660869164049872,-6.6110846344132534,-3.988134763048256,-0.0095778348243337,-0.012366201726199089,-0.8617830003838601
13165,1.0,299.7726,44712.607,0.0,-0.13165018939756934,0.0,0.0,0.0,0.0,-2.963641335963627,-6.611912561069964,-4.015962055844596,0.0008322601551351822,0.007651289010923433,-0.8694900846194902
13166,1.0,300.3531,44528.607,0.0,-0.13166021837504616,0.0,0.0,0.0,0.0,-2.942996871801177,-6.6206836592356035,-3.971904117646416,-0.00993254977164134,0.008435236762943053,-0.8697259084477642
13167,1.0,299.80089,44519.428,0.0,-0.1316702143624655,0.0,0.0,0.0,0.0,-2.9456003166081173,-6.608465484229764,-3.9787288636949665,-0.02072300320420118,-0.0006693875476234074,-0.8651243344436241
13168,1.0,299.65328,44758.154,0.0,-0.13168021034988475,0.0,0.0,0.0,0.0,-2.954563425667707,-6.634069807631714,-4.016727971595186,-0.009312888465660531,-0.033322181525893266,-0.8840412071855742
13169,1.0,300.27521,44722.901,0.0,-0.13169020633730433,0.0,0.0,0.0,0.0,-2.932941681783807,-6.633393564514973,-4.028309926863236,-0.007413310911611822,-0.009585633303728351,-0.8733241824678861
13170,1.0,300.08853,44364.597,0.0,-0.13170020232472346,0.0,0.0,0.0,0.0,-2.915951301456987,-6.605721704283974,-3.9640566982719356,0.004724097320807105,-0.007938961353439482,-0.8724367881628072
13171,1.0,300.1315,44341.384000000005,0.0,-0.1317101983121427,0.0,0.0,0.0,0.0,-2.900548278736827,-6.6022021800616235,-3.975923072843057,-0.0012483610055036387,-1.5891367725105883e-05,-0.8538332731467833
13172,1.0,300.37296000000003,44628.549000000006,0.0,-0.13172019429956205,0.0,0.0,0.0,0.0,-2.963129239363087,-6.610983613378284,-3.991851668390086,0.0011601293146208489,-0.00869165125179919,-0.8780947868537081
13173,1.0,298.79275,44780.332,0.0,-0.1317301902869813,0.0,0.0,0.0,0.0,-2.980058115408837,-6.632126596589934,-3.999918152436186,-0.0013466059378496587,0.01104103676841549,-0.8595213451006523
13174,1.0,298.99192999999997,44773.845,0.0,-0.1317402192644581,0.0,0.0,0.0,0.0,-2.953947572256927,-6.641969713361373,-4.014213490147026,0.03130429901799377,0.011789177072501187,-0.8803728770535382
13175,1.0,299.64436,44584.514,0.0,-0.13175021525187747,0.0,0.0,0.0,0.0,-2.935285227940097,-6.614073924858274,-4.003219726562026,-0.007774481477956582,0.0052799022882607845,-0.8631381514651031
13176,1.0,300.17978,44617.46400000001,0.0,-0.13176021123929682,0.0,0.0,0.0,0.0,-2.9386473944219174,-6.633230532573884,-3.9907171322531165,0.0024574755922339574,-0.007064698465681453,-0.8730879026770672
13177,1.0,300.2307,44807.094000000005,0.0,-0.13177020722671628,0.0,0.0,0.0,0.0,-2.963278187127787,-6.636350430956794,-4.020609327428246,-0.016203077906369285,0.004028937533975176,-0.8606848804554843
13178,1.0,300.19396,44704.01,0.0,-0.13178020321413542,0.0,0.0,0.0,0.0,-2.963557844155387,-6.624959270682574,-4.000385666032326,0.00884106754334543,-0.0004383045443147905,-0.8691028812262761
13179,1.0,299.54717999999997,44289.095,0.0,-0.13179019920155466,0.0,0.0,0.0,0.0,-2.9156368899509575,-6.6091970508019635,-3.937945040544916,-0.01832189228322998,-0.008347602990944272,-0.8943806847835012
13180,1.0,299.86388,44358.369000000006,0.0,-0.131800195188974,0.0,0.0,0.0,0.0,-2.9043589097129074,-6.606907916176044,-3.9725695189870867,0.005962018101255374,-0.01749596071596688,-0.8868473526750192
13181,1.0,300.05402999999995,44819.349,0.0,-0.13181019117639325,0.0,0.0,0.0,0.0,-2.969549090671677,-6.6418994951294446,-4.012514472379346,-0.001058494655390289,0.008042358054593942,-0.8876800618722012
13182,1.0,300.36341,44810.578,0.0,-0.13182022015387007,0.0,0.0,0.0,0.0,-2.972900516702437,-6.641497234839744,-4.006899141650156,0.02060318941962648,0.012029456161464887,-0.8583486094349122
13183,1.0,300.8834,44618.782999999996,0.0,-0.13183021614128942,0.0,0.0,0.0,0.0,-2.938496217506997,-6.642916190279784,-3.9815835945267066,0.004296558163637276,0.009195556941180811,-0.877452396422809
13184,1.0,301.20997,44569.614,0.0,-0.13184021212870878,0.0,0.0,0.0,0.0,-2.935826303493497,-6.644434241579603,-3.967789106340296,0.004889101451891745,-0.00919953972334888,-0.8870520595927223
13185,1.0,300.39316,44631.861,0.0,-0.13185020811612813,0.0,0.0,0.0,0.0,-2.945016988525547,-6.634148233189453,-3.987806166040826,-0.016154097396535283,0.014171136553332285,-0.8873119481108711
13186,1.0,300.11003,44779.053,0.0,-0.13186020410354737,0.0,0.0,0.0,0.0,-2.9398981503453574,-6.654969205519324,-4.0168466231818964,0.014335985251851587,0.003111382421119537,-0.8891959346843062
13187,1.0,300.02383,44651.145,0.0,-0.13187020009096662,0.0,0.0,0.0,0.0,-2.949173745735787,-6.622852723724674,-4.000806874098896,-0.007122437205404822,-0.002044447797696288,-0.8809983360752662
13188,1.0,299.10335,44440.769,0.0,-0.13188019607838597,0.0,0.0,0.0,0.0,-2.916539999765087,-6.604616147099864,-3.9877281457831257,0.00035936307002137365,-0.021515162132381183,-0.8734185768472023
13189,1.0,299.62826,44623.477999999996,0.0,-0.13189019206580532,0.0,0.0,0.0,0.0,-2.928160053236897,-6.620566020898994,-4.0156968882934265,-0.0016894463032603683,-0.0022997546015431076,-0.8602496388750293
13190,1.0,299.43777,45024.559,0.0,-0.1319001880532248,0.0,0.0,0.0,0.0,-3.0001943333211267,-6.637936673988343,-4.048210766777297,0.009649124669569461,-0.0063643177050592544,-0.8631604936298082
13191,1.0,299.84592000000004,44982.154,0.0,-0.13191021703070138,0.0,0.0,0.0,0.0,-2.9789839689778272,-6.646432370776803,-4.048035170534966,0.0017109092708535985,0.007454431133795073,-0.8636785380084352
13192,1.0,300.1745,44683.467000000004,0.0,-0.13192021301812074,0.0,0.0,0.0,0.0,-2.948962584414947,-6.632537469505484,-4.001158370558586,-0.0015472508372267684,-0.006844239055298804,-0.8734629673340832
13193,1.0,300.66823,44603.557,0.0,-0.1319302090055401,0.0,0.0,0.0,0.0,-2.9559182423764176,-6.621083386400053,-3.981366049730236,-0.0008839887816254001,0.02029387557484958,-0.8471855722882062
13194,1.0,299.90673,44816.202000000005,0.0,-0.13194020499295933,0.0,0.0,0.0,0.0,-2.976223470405387,-6.644727982783594,-4.002054894247067,-0.0016111872225117983,0.009933029545563691,-0.8570815097873591
13195,1.0,300.92657,44941.187999999995,0.0,-0.13195020098037846,0.0,0.0,0.0,0.0,-2.9758133067649073,-6.6521198449131145,-4.033065818857606,-0.006535440853497794,0.0008741768628245392,-0.8680187340167792
13196,1.0,299.84002999999996,44733.672999999995,0.0,-0.13196019696779793,0.0,0.0,0.0,0.0,-2.9546680944030372,-6.648488964504774,-3.9947624319523567,-0.010674553326496389,-0.014464781498562786,-0.8793473970248312
13197,1.0,299.55827999999997,44601.75,0.0,-0.13197019295521728,0.0,0.0,0.0,0.0,-2.910335970727797,-6.646092121393224,-4.001390202181467,0.0017275498772458982,0.004856293122928816,-0.9000733771578261
13198,1.0,299.82689,44775.079000000005,0.0,-0.13198018894263663,0.0,0.0,0.0,0.0,-2.9626627390170475,-6.630964398725234,-4.016878743210067,0.009660999656766431,-0.01189641034383429,-0.886457575626551
13199,1.0,300.21609,44924.384000000005,0.0,-0.13199021792011345,0.0,0.0,0.0,0.0,-2.9679119824851075,-6.649466345551235,-4.038512544770157,-0.009698840495001032,-0.0066255385457647436,-0.886860970756363
13200,1.0,299.59651,44765.558,0.0,-0.1320002139075327,0.0,0.0,0.0,0.0,-2.9439325069435176,-6.639789097821163,-4.023890332577056,-0.002019130730697688,-0.02059298396461928,-0.8801807445695763
13201,1.0,299.98773,44513.893,0.0,-0.13201020989495205,0.0,0.0,0.0,0.0,-2.9085603512525573,-6.621641180580103,-4.000910326934106,-0.0031478549664190965,-0.006017443287025415,-0.8685767004493462
13202,1.0,299.89104,44591.583,0.0,-0.1320202058823713,0.0,0.0,0.0,0.0,-2.922947185447427,-6.646559229689324,-3.985221263710716,-0.01029370301140939,0.004051119807814396,-0.8865452724227061
13203,1.0,299.94114,44928.473,0.0,-0.13203020186979042,0.0,0.0,0.0,0.0,-2.9568675563951072,-6.669474893950923,-4.0307913763581364,-0.009030566286322502,0.007874685934670993,-0.8894912362934502
13204,1.0,299.98278,44920.137,0.0,-0.13204019785720988,0.0,0.0,0.0,0.0,-2.975580664541947,-6.666547614412023,-4.012471611900116,-0.0009097507768754112,0.01117434501782199,-0.8916713857386143
13205,1.0,300.07895,44703.38,0.0,-0.13205019384462924,0.0,0.0,0.0,0.0,-2.9437276277732973,-6.642878092076024,-4.002105759402086,0.004983024163286195,0.018691604953217783,-0.8702114578956841
13206,1.0,300.23741,44723.152,0.0,-0.1320601898320486,0.0,0.0,0.0,0.0,-2.9198556580673176,-6.650714669674434,-4.024151244477807,0.007559180017207982,-0.005577523328208694,-0.8857930051509632
13207,1.0,300.48492000000005,44969.315,0.0,-0.1320702188095254,0.0,0.0,0.0,0.0,-2.982803111254747,-6.651873827788834,-4.034871835835846,-0.011476559019148189,-0.017338380060414882,-0.8586153779212403
13208,1.0,301.00761,45099.865999999995,0.0,-0.13208021479694454,0.0,0.0,0.0,0.0,-2.993432510103787,-6.657118005006393,-4.058682605235786,0.0013479050258028687,-0.028891739384142672,-0.886280621629087
13209,1.0,300.66967,44894.3,0.0,-0.132090210784364,0.0,0.0,0.0,0.0,-2.971113548826077,-6.651327280684894,-4.024305359818016,0.008904324848413442,-0.014320670989840188,-0.8562261544504421
13210,1.0,300.71276,44680.995,0.0,-0.13210020677178314,0.0,0.0,0.0,0.0,-2.9446735980666574,-6.645323469867365,-3.9919099302708365,0.004024364938923896,0.002038812911240168,-0.8896528091543963
13211,1.0,300.3118,44878.992,0.0,-0.1321102027592026,0.0,0.0,0.0,0.0,-2.969761062592597,-6.657888277732414,-4.014443700569746,0.010394564966113691,0.008106384315162841,-0.8695203200024741
13212,1.0,299.76407,45006.655,0.0,-0.13212019874662195,0.0,0.0,0.0,0.0,-2.9673351392031773,-6.668643826218904,-4.044920439727567,0.005124249341024035,0.0092146231669875,-0.8811921708193963
13213,1.0,299.7989,44884.113,0.0,-0.1321301947340412,0.0,0.0,0.0,0.0,-2.9637671816260474,-6.669235158977264,-4.0106472550950665,-0.003992635923967486,0.004855071447283245,-0.8791609590064312
13214,1.0,299.9578,44666.78400000001,0.0,-0.13214019072146055,0.0,0.0,0.0,0.0,-2.941726357500787,-6.6417068762854345,-3.994153671292276,0.006772690527312514,-0.017824222337613785,-0.8954608803176081
13215,1.0,299.91654,44649.236,0.0,-0.13215021969893737,0.0,0.0,0.0,0.0,-2.9249925320992873,-6.649438278523465,-3.997822143279326,-0.008137548443188503,-0.01285529754946909,-0.906549950207014
13216,1.0,300.47004,44888.776,0.0,-0.1321602156863565,0.0,0.0,0.0,0.0,-2.964261039724787,-6.662354785498224,-4.018451307365266,0.0018201838358381584,0.001117105600799739,-0.8749217435030531
13217,1.0,300.00669,45034.833,0.0,-0.13217021167377596,0.0,0.0,0.0,0.0,-2.9562708534112176,-6.674262905973465,-4.058930750185276,-0.007946677860901042,-0.0013085356997924187,-0.8861117128374172
13218,1.0,300.08375,44948.59099999999,0.0,-0.1321802076611951,0.0,0.0,0.0,0.0,-2.944851727434237,-6.681735422810943,-4.036662046112526,-0.006208095615241334,0.004904649572026225,-0.8664600007254442
13219,1.0,300.45317,44725.989,0.0,-0.13219020364861445,0.0,0.0,0.0,0.0,-2.9211646758715073,-6.661493826888254,-4.0129254466199065,0.018301237179941483,0.007175299172396893,-0.8941927978174581
13220,1.0,300.42118,44890.069,0.0,-0.1322001996360339,0.0,0.0,0.0,0.0,-2.951871422802027,-6.670641550116064,-4.022947199383976,0.003550454593577587,0.018408646756791984,-0.8654116921719842
13221,1.0,300.70627,45236.715,0.0,-0.13221019562345304,0.0,0.0,0.0,0.0,-2.996160584673027,-6.693499763096994,-4.061171552781426,0.012495542088213988,0.000976245760517955,-0.890416911187307
13222,1.0,300.32812,45108.664000000004,0.0,-0.1322201916108725,0.0,0.0,0.0,0.0,-3.005490287618797,-6.667348081991024,-4.039069123050086,-0.016740619243420483,-0.007047802114963913,-0.8677898610841912
13223,1.0,299.9774,44722.684,0.0,-0.1322302205883492,0.0,0.0,0.0,0.0,-2.942614977838487,-6.642039728943283,-4.009924503798736,0.000984249078552821,0.008016685134160222,-0.880965253459501
13224,1.0,300.34536,44793.899000000005,0.0,-0.13224021657576845,0.0,0.0,0.0,0.0,-2.956963511179577,-6.642184623707585,-4.017078657454796,0.000871647537262414,0.01978349947297938,-0.8670043592091682
13225,1.0,300.07925,45058.76,0.0,-0.1322502125631878,0.0,0.0,0.0,0.0,-3.004771184022827,-6.6541556670140345,-4.037811173050936,-0.000923506305595476,0.011707372325677689,-0.8701802903226081
13226,1.0,299.38766,45169.239,0.0,-0.13226020855060705,0.0,0.0,0.0,0.0,-2.992006765888077,-6.677288572097074,-4.061025543442017,-0.02203147689308748,-0.003484794669872457,-0.8704653682382432
13227,1.0,300.04206,44882.039000000004,0.0,-0.1322702045380264,0.0,0.0,0.0,0.0,-2.9558750779221574,-6.666291667436763,-4.020852507452246,0.012758515952917488,-0.005455999076140184,-0.8836536896848292
13228,1.0,299.81666,44676.240999999995,0.0,-0.13228020052544587,0.0,0.0,0.0,0.0,-2.9147946764678374,-6.659259914392784,-4.006407208726606,-0.013300467967653988,0.01093120755032619,-0.8726032246242331
13229,1.0,299.90515,44963.109000000004,0.0,-0.132290196512865,0.0,0.0,0.0,0.0,-2.943227386198927,-6.677569141049764,-4.046865778594556,0.0014563796298334788,-0.01714122185595688,-0.8718224647596782
13230,1.0,299.97766,45185.432,0.0,-0.13230019250028435,0.0,0.0,0.0,0.0,-2.978289690009307,-6.691417230166463,-4.0655360262621665,-0.008092570980524572,-0.012487451286165489,-0.8784493737262031
13231,1.0,300.10736,44837.231,0.0,-0.13231022147776117,0.0,0.0,0.0,0.0,-2.947076925978847,-6.674099266082314,-4.008222344955746,0.006660066258822364,0.0019626069791692283,-0.8852332655307212
13232,1.0,300.25782999999996,44649.39599999999,0.0,-0.1323202174651804,0.0,0.0,0.0,0.0,-2.9146857520820872,-6.656749891245063,-4.000865743929706,0.006071736267133714,0.007285477961770693,-0.8820123765103441
13233,1.0,300.44532999999996,44947.698,0.0,-0.13233021345259977,0.0,0.0,0.0,0.0,-2.962561819307087,-6.673438120392063,-4.026977705631756,0.017499782695344086,-0.010776150900773291,-0.8863505865484922
13234,1.0,300.33302000000003,45264.820999999996,0.0,-0.13234020944001912,0.0,0.0,0.0,0.0,-3.0009975366753974,-6.695434462837935,-4.062943119256266,-0.006350739545769193,0.006592409523145163,-0.8751720568077571
13235,1.0,299.824,45150.570999999996,0.0,-0.13235020542743836,0.0,0.0,0.0,0.0,-2.964573728705647,-6.693316972778953,-4.066755574082526,0.006173788182755454,0.003980848785554186,-0.8894772737070722
13236,1.0,299.70153,44758.346,0.0,-0.13236020141485771,0.0,0.0,0.0,0.0,-2.948900877483857,-6.666751277682124,-3.9897675142593965,-0.010811638972275689,0.010603771727510791,-0.865227017208758
13237,1.0,299.60615,44817.187000000005,0.0,-0.13237019740227696,0.0,0.0,0.0,0.0,-2.954683799779587,-6.665967326079753,-4.0026547383062665,-0.015214644327818485,-0.013658521168741089,-0.8871473658971282
13238,1.0,299.97399,45189.471,0.0,-0.1323801933896963,0.0,0.0,0.0,0.0,-3.000565486832757,-6.685505929083064,-4.050399386993297,-0.015604936107337286,-0.005996333538417045,-0.8704797158596592
13239,1.0,299.5963,45237.424000000006,0.0,-0.13239018937711555,0.0,0.0,0.0,0.0,-2.998682260196897,-6.702102560421024,-4.050262395579776,-0.0017229565105675684,0.0004110328469457836,-0.8896405184306831
13240,1.0,300.2534,44953.242,0.0,-0.13240021835459237,0.0,0.0,0.0,0.0,-2.959857150815157,-6.6718261408079735,-4.032979591274096,-0.0034569873381030867,0.008713377765743432,-0.8670905867926783
13241,1.0,300.06363,44882.758,0.0,-0.13241021434201172,0.0,0.0,0.0,0.0,-2.9402547130555474,-6.679441829884584,-4.023541267917606,0.015230254458859087,-0.02252804644909508,-0.8748054122590723
13242,1.0,300.06242000000003,45077.77,0.0,-0.13242021032943108,0.0,0.0,0.0,0.0,-2.997098347640577,-6.670522290579293,-4.034895849863216,0.013775574860043388,-0.008680291299628051,-0.8662487583445961
13243,1.0,300.01455,45234.317,0.0,-0.13243020631685032,0.0,0.0,0.0,0.0,-3.0073563903279674,-6.686743512755203,-4.056002964021326,0.012787189917497386,-0.009746487365053411,-0.8743817318622581
13244,1.0,300.38614,44988.047,0.0,-0.13244020230426967,0.0,0.0,0.0,0.0,-2.966966316166777,-6.684282632237333,-4.0239938867372755,-0.003853834035168806,-0.0014827152158325987,-0.8957328265119471
13245,1.0,299.5478,44742.574,0.0,-0.13245019829168891,0.0,0.0,0.0,0.0,-2.9506143847279676,-6.6629655726585035,-3.9870454178657457,-0.009481582144334302,-0.016439058788408786,-0.8877315957722872
13246,1.0,299.69246,44964.364,0.0,-0.13246019427910827,0.0,0.0,0.0,0.0,-2.957804711412597,-6.681507441538444,-4.028731742879867,-0.008058147024277193,0.013239216999108986,-0.9027222459667491
13247,1.0,299.63216,45108.537000000004,0.0,-0.13247019026652762,0.0,0.0,0.0,0.0,-2.9714441723337073,-6.697952591986453,-4.042472224835946,-0.0009597921291666081,0.004092548868628126,-0.8812665129792331
13248,1.0,299.93917999999996,45111.252,0.0,-0.13248021924400422,0.0,0.0,0.0,0.0,-2.9908120426951674,-6.692762319674214,-4.029119817668167,-0.009347672834968481,0.015272428967771385,-0.8811258941303551
13249,1.0,299.84618,45037.706,0.0,-0.13249021523142368,0.0,0.0,0.0,0.0,-2.9438233799077476,-6.705796870285623,-4.040717782287796,-0.009412578089999131,-0.00863167819428031,-0.8926751923476821
13250,1.0,299.908,45070.664000000004,0.0,-0.13250021121884303,0.0,0.0,0.0,0.0,-2.976700204577437,-6.683673871577253,-4.039982466690226,-0.00048711453428946155,0.004891132207742165,-0.8710824679466461
13251,1.0,299.98072,45218.945,0.0,-0.13251020720626228,0.0,0.0,0.0,0.0,-2.9925853316951767,-6.686937448824343,-4.065907382423816,-0.0012059738153953488,0.006576907404565224,-0.8745427677006511
13252,1.0,300.10489,45223.375,0.0,-0.13252020319368163,0.0,0.0,0.0,0.0,-2.9849770393442974,-6.703181266477484,-4.0586184665044565,-0.026304949369096376,-0.003981530094921426,-0.8639591272261272
13253,1.0,300.40353999999996,44925.727999999996,0.0,-0.13253019918110087,0.0,0.0,0.0,0.0,-2.954324399969117,-6.672401970839804,-4.0295729431128855,6.100966708668534e-05,-0.021719625870060183,-0.8805311669841602
13254,1.0,300.32468,44968.703,0.0,-0.13254019516852023,0.0,0.0,0.0,0.0,-2.9832410379479675,-6.677233653941653,-4.0088880502714455,0.003318355877971227,0.003772145913431817,-0.8585113475334732
13255,1.0,300.28101000000004,45152.178,0.0,-0.13255019115593958,0.0,0.0,0.0,0.0,-2.9865625731007768,-6.701923316478334,-4.0366488738612265,0.02064224109173058,0.011008852905489188,-0.903300254486294
13256,1.0,299.95788,45193.21,0.0,-0.13256022013341617,0.0,0.0,0.0,0.0,-3.006840747352077,-6.696525530545614,-4.034241188973606,-0.0026705838731411074,0.005656944100196915,-0.8684256957869432
13257,1.0,300.00716,45211.668,0.0,-0.13257021612083575,0.0,0.0,0.0,0.0,-2.997294512859937,-6.711514539274914,-4.034409185840186,-0.0002466980486122018,0.005823399002774734,-0.8951359208780371
13258,1.0,300.09257,45127.549000000006,0.0,-0.132580212108255,0.0,0.0,0.0,0.0,-2.9735294410395072,-6.702720642982023,-4.041398078404936,-0.012209998077532988,0.012738199275162386,-0.8711334749566803
13259,1.0,299.89583999999996,44978.812999999995,0.0,-0.13259020809567412,0.0,0.0,0.0,0.0,-2.964931709965977,-6.681227683185834,-4.026276536562556,0.00993970341867235,-0.0011489879204962788,-0.8650130390526403
13260,1.0,299.69476000000003,45071.115999999995,0.0,-0.1326002040830936,0.0,0.0,0.0,0.0,-2.962360790487247,-6.687935398847833,-4.050197750223396,-0.00830544590993369,-0.017329522228040684,-0.8692866645294143
13261,1.0,299.12922000000003,45212.682,0.0,-0.13261020007051272,0.0,0.0,0.0,0.0,-2.972795645317087,-6.707300533434022,-4.063430289904346,-0.005213893806521255,-0.028344062506341174,-0.8634931537701392
13262,1.0,299.17281,45094.619000000006,0.0,-0.13262019605793218,0.0,0.0,0.0,0.0,-2.9663719436581175,-6.706551944260143,-4.034714174120286,0.003094068206060757,0.0007174124714205984,-0.8884589066940672
13263,1.0,299.63836000000003,45016.989,0.0,-0.13263019204535154,0.0,0.0,0.0,0.0,-2.968173299685897,-6.6941112595323435,-4.021756123891426,0.015864811453234984,0.009001163794920702,-0.8740464879341721
13264,1.0,299.71769,45161.611,0.0,-0.13264022102282835,0.0,0.0,0.0,0.0,-2.965052692027917,-6.726837413912164,-4.036112053958246,0.003961106012655726,0.011287630432002389,-0.8968116845559222
13265,1.0,299.40136,45175.704000000005,0.0,-0.1326502170102477,0.0,0.0,0.0,0.0,-3.0083143169725073,-6.700707922983384,-4.023263840040226,-0.0023386573258825077,-0.0002288291703161808,-0.8822605721223392
13266,1.0,299.77142000000003,45172.83,0.0,-0.13266021299766695,0.0,0.0,0.0,0.0,-2.9803050444582073,-6.704089341217103,-4.047017968759576,-0.0014714029877411687,0.008259198642244442,-0.8840589593273263
13267,1.0,300.16195,45074.931,0.0,-0.13267020898508608,0.0,0.0,0.0,0.0,-2.9797319502016473,-6.701325802894364,-4.020595952526926,0.0038136361745515863,0.005055594655323345,-0.8913656780509431
13268,1.0,300.73025,45042.22,0.0,-0.13268020497250543,0.0,0.0,0.0,0.0,-2.9850332747248474,-6.678219850263984,-4.028457050777756,-0.003444630854458597,-0.007831353179569383,-0.8786787127538371
13269,1.0,300.67275,45210.139,0.0,-0.13269020095992468,0.0,0.0,0.0,0.0,-2.9958989634972073,-6.698875156202503,-4.047979340454456,-0.002034146691879648,0.0038236349265383866,-0.8767704588405073
13270,1.0,299.86478999999997,45330.678,0.0,-0.13270019694734425,0.0,0.0,0.0,0.0,-2.9888149267480673,-6.719507866663794,-4.071071411558466,-0.003960705170916167,0.004580099282845606,-0.8732811902661433
13271,1.0,299.97817000000003,45280.382000000005,0.0,-0.1327101929347635,0.0,0.0,0.0,0.0,-3.0024793136216372,-6.696790495446764,-4.064835667793046,-0.0038173072809888965,0.008269125149499111,-0.8733210211275741
13272,1.0,300.93772,45066.199,0.0,-0.1327202219122402,0.0,0.0,0.0,0.0,-2.9506839950098374,-6.7025438308395735,-4.045771367161546,0.0034194536159737965,-8.200638258014983e-05,-0.8738051722903563
13273,1.0,300.01103,45126.265999999996,0.0,-0.13273021789965966,0.0,0.0,0.0,0.0,-2.967891920133127,-6.712017313974534,-4.0373487257052965,-0.003962384632956916,-0.0014587411105165388,-0.8932231073392572
13274,1.0,299.3132,45274.272000000004,0.0,-0.1327402138870788,0.0,0.0,0.0,0.0,-3.012858946321027,-6.707673713445853,-4.041715529661266,0.003230217304772627,-0.00017250156374207882,-0.8822006181139221
13275,1.0,299.39061,45269.194,0.0,-0.13275020987449804,0.0,0.0,0.0,0.0,-2.988173134134727,-6.730325831356444,-4.042205740059646,-0.01070969283996439,-0.013556759447947988,-0.8877174305358891
13276,1.0,299.54825,45064.567,0.0,-0.1327602058619174,0.0,0.0,0.0,0.0,-2.976983205330367,-6.697489638015764,-4.024030262415866,0.009249247442779652,-0.0091249211488846,-0.8833728370221111
13277,1.0,299.78558,45150.279,0.0,-0.13277020184933686,0.0,0.0,0.0,0.0,-2.9802240857752174,-6.7006106509737835,-4.043722575459346,-0.001085320654437809,0.011257800349058388,-0.8624776441224162
13278,1.0,300.03789,45431.14599999999,0.0,-0.1327801978367562,0.0,0.0,0.0,0.0,-2.989197732635847,-6.7345525028235835,-4.086183732824936,0.019938965475572678,0.009197681625315502,-0.8866332529288893
13279,1.0,299.76518,45461.657,0.0,-0.13279019382417534,0.0,0.0,0.0,0.0,-3.008827122848117,-6.718189425633674,-4.092192001942906,0.003564796236817997,0.005926245205149864,-0.8692857728693261
13280,1.0,300.30655,45261.767,0.0,-0.13280018981159458,0.0,0.0,0.0,0.0,-2.985557834301617,-6.730125106511634,-4.042763939539737,0.0008261791245275313,-0.0028536448302828176,-0.897068401601258
13281,1.0,300.72772000000003,45139.44,0.0,-0.13281021878907162,0.0,0.0,0.0,0.0,-2.964477875246187,-6.715466214664914,-4.041318639597096,-0.0025726159633724273,-0.0005332596258386275,-0.8802802558618972
13282,1.0,299.95967,45238.004,0.0,-0.13282021477649075,0.0,0.0,0.0,0.0,-2.986879213757027,-6.728475332698813,-4.035869076584267,-0.004639631677895995,-0.00018843491143207783,-0.8979082643441461
13283,1.0,300.77533999999997,45308.775,0.0,-0.13283021076391,0.0,0.0,0.0,0.0,-2.989156797331807,-6.736730382588524,-4.046848958642896,-0.020920581907450678,-0.0005178156779469286,-0.8944429996646512
13284,1.0,300.08395,45220.304000000004,0.0,-0.13284020675132935,0.0,0.0,0.0,0.0,-2.9605924664127268,-6.724602488166594,-4.060648209104776,-0.011125051413707092,-0.02004906117843828,-0.8805398606700181
13285,1.0,299.73703,45117.769,0.0,-0.1328502027387487,0.0,0.0,0.0,0.0,-2.978268310432197,-6.7092032144718035,-4.027203761729066,-0.00035302423819077967,-0.005797624959981035,-0.8805480781283292
13286,1.0,299.81054,45263.239,0.0,-0.13286019872616817,0.0,0.0,0.0,0.0,-2.989110390477227,-6.719429441106054,-4.050354500013866,0.022828109320458978,-0.008661009251550061,-0.8722716689265112
13287,1.0,299.96148,45424.342000000004,0.0,-0.1328701947135873,0.0,0.0,0.0,0.0,-2.9953450196675373,-6.726310726510183,-4.086209874677516,0.00999796661664748,-0.0034066294160831467,-0.8875714313289802
13288,1.0,299.56186,45391.72,0.0,-0.13288019070100654,0.0,0.0,0.0,0.0,-3.0042126805677074,-6.726547117758513,-4.067189751750377,0.003615602116707147,-0.010770075453173688,-0.8659663351442232
13289,1.0,300.42732,45258.941,0.0,-0.13289021967848347,0.0,0.0,0.0,0.0,-2.974729433132937,-6.7158594570287224,-4.066999159406566,-0.015072468113536786,0.008561143423019071,-0.8899664708553521
13290,1.0,300.20911,45157.698,0.0,-0.1329002156659027,0.0,0.0,0.0,0.0,-2.971370711701457,-6.709159340742473,-4.046282349186976,0.007618250775512812,0.005687874978049554,-0.8773340386786281
13291,1.0,300.19421,45290.758,0.0,-0.13291021165332195,0.0,0.0,0.0,0.0,-2.9950534062887573,-6.732253640996704,-4.039952474487266,-0.02017954955281648,0.015609517011039383,-0.9080087263759842
13292,1.0,299.9097,45392.060999999994,0.0,-0.1329202076407413,0.0,0.0,0.0,0.0,-2.996131301745137,-6.724576954264073,-4.077344949552616,-0.004805101701376616,-0.0007033212326774014,-0.8941329046040472
13293,1.0,300.13266,45417.681,0.0,-0.13293020362816066,0.0,0.0,0.0,0.0,-2.9918408968467074,-6.746314208659373,-4.0676859403243455,-0.004733523181187365,0.0043168111079610865,-0.893827460361402
13294,1.0,300.07621,45378.386,0.0,-0.13294019961558,0.0,0.0,0.0,0.0,-3.008136390254947,-6.718106744425513,-4.067653111021107,0.02213610408516338,-0.006719975988209993,-0.8799742543316972
13295,1.0,300.50217000000004,45462.867999999995,0.0,-0.13295019560299925,0.0,0.0,0.0,0.0,-3.0075837636504072,-6.730369198460724,-4.081623803399906,0.0004815759673878475,0.00985989193744557,-0.8778828250652893
13296,1.0,300.97525,45445.895,0.0,-0.1329601915904185,0.0,0.0,0.0,0.0,-2.981408879117147,-6.745304200959693,-4.087704114599986,0.005091795649596105,-0.011258702141647389,-0.8666737357015382
13297,1.0,300.83724,45415.462999999996,0.0,-0.13297022056789543,0.0,0.0,0.0,0.0,-3.0166325936684575,-6.722658871824774,-4.065875262395647,-0.013492462649602386,0.016681553855341185,-0.8603720394871092
13298,1.0,300.82712999999995,45378.683,0.0,-0.13298021655531467,0.0,0.0,0.0,0.0,-2.967166433061527,-6.739320351169134,-4.087499843379826,-0.004096949717787456,0.0017070462548473486,-0.8887913641843782
13299,1.0,300.37865,45262.968,0.0,-0.1329902125427338,0.0,0.0,0.0,0.0,-2.9864991436445174,-6.730917164114803,-4.0413956466046965,-0.004421438604012016,0.016088814705842384,-0.8673602937042962
13300,1.0,300.54147,45368.640999999996,0.0,-0.13300020853015337,0.0,0.0,0.0,0.0,-2.981304413031837,-6.727917741168784,-4.081711956158607,0.011948258351451288,-0.0030163386498144474,-0.8912484652793751
13301,1.0,300.19777,45519.486,0.0,-0.13301020451757262,0.0,0.0,0.0,0.0,-3.006358035004437,-6.751968853492443,-4.078460233937686,0.007653011738743451,0.007072357724512364,-0.8914884231680572
13302,1.0,299.96592000000004,45420.027,0.0,-0.13302020050499197,0.0,0.0,0.0,0.0,-3.0035341069757373,-6.727668582969193,-4.075351278655856,0.017185454275822284,-0.015502269554204884,-0.8985170554017292
13303,1.0,299.79842,45361.023,0.0,-0.1330301964924112,0.0,0.0,0.0,0.0,-3.0170633262859674,-6.722481451732263,-4.049073346587425,0.0026522454648812473,-0.0013999301495373488,-0.8936237666937991
13304,1.0,300.42902999999995,45462.823,0.0,-0.13304019247983034,0.0,0.0,0.0,0.0,-2.994870717295727,-6.7533374504025145,-4.071354817611436,0.007664621254414223,-0.01053561140653389,-0.8926678462844571
13305,1.0,299.9716,45451.12,0.0,-0.13305022145730738,0.0,0.0,0.0,0.0,-2.9971442478701076,-6.727310500383854,-4.091550614629607,-0.029162295399344475,0.00800942124551833,-0.8856122717306262
13306,1.0,299.96053,45460.095,0.0,-0.13306021744472651,0.0,0.0,0.0,0.0,-2.9978414652639174,-6.7473586668624534,-4.073533710626476,-0.017789690774205783,-0.011731440055302989,-0.8741717256465321
13307,1.0,299.89655,45375.163,0.0,-0.13307021343214598,0.0,0.0,0.0,0.0,-2.9686039309783974,-6.732515262172523,-4.0917974423539665,-0.017188937829666084,0.004089887871215506,-0.8805201833530761
13308,1.0,300.01487000000003,45318.615999999995,0.0,-0.13308020941956533,0.0,0.0,0.0,0.0,-2.9852405856953075,-6.726837515237173,-4.063649658550996,-0.003495028901182497,-0.003096669624367497,-0.8665793311897212
13309,1.0,300.61182,45449.916,0.0,-0.13309020540698457,0.0,0.0,0.0,0.0,-2.9831650441904674,-6.757487520162094,-4.074987217894925,-0.01082982681157069,0.009948736847288881,-0.8981945784249032
13310,1.0,300.36335,45574.082,0.0,-0.13310020139440393,0.0,0.0,0.0,0.0,-2.997198558075467,-6.764115087741184,-4.092069297355796,0.01173316562022329,0.0030101495155536273,-0.8887690118871722
13311,1.0,300.09084,45476.453,0.0,-0.13311019738182317,0.0,0.0,0.0,0.0,-2.999174091795437,-6.757152641004043,-4.067379229519076,0.01849917963997688,0.010777676855423888,-0.9010923318558891
13312,1.0,300.53035,45346.863,0.0,-0.1331201933692423,0.0,0.0,0.0,0.0,-2.9863039916752574,-6.733289891873974,-4.064720359931666,0.016597056903001985,-0.018111515217967382,-0.8796058973903432
13313,1.0,300.16726,45511.458,0.0,-0.13313022234671934,0.0,0.0,0.0,0.0,-3.0108800688757267,-6.7498931093375845,-4.073573734005426,0.01897508294694488,-0.015283850322898586,-0.9035653815074601
13314,1.0,299.36113,45618.803,0.0,-0.13314021833413847,0.0,0.0,0.0,0.0,-3.0400875096332767,-6.753728362291094,-4.0731610372396965,0.016014675196025382,-0.015235673320393883,-0.9000081339838872
13315,1.0,299.4849,45429.682,0.0,-0.13315021432155794,0.0,0.0,0.0,0.0,-3.020573528607397,-6.717904398380543,-4.071010819202486,-0.0013604585865918087,0.016659655494179984,-0.8941941251750891
13316,1.0,299.19087,45284.585999999996,0.0,-0.1331602103089773,0.0,0.0,0.0,0.0,-2.971358046075207,-6.737170335781944,-4.0568551073554255,-0.00966041592338382,-0.00039531791544734066,-0.8980273617609
13317,1.0,300.01025,45338.045,0.0,-0.13317020629639642,0.0,0.0,0.0,0.0,-3.0101771772813573,-6.7160054663681334,-4.055450945366846,-0.028221064076702173,0.01123006465407109,-0.8776407089538941
13318,1.0,300.18517,45524.992999999995,0.0,-0.13318020228381588,0.0,0.0,0.0,0.0,-2.9983686592909473,-6.746881324740344,-4.093211128893486,-0.016995509398826183,0.014760099319708385,-0.8838808198272451
13319,1.0,300.13681,45517.792,0.0,-0.13319019827123502,0.0,0.0,0.0,0.0,-3.0014828834732974,-6.759441370329924,-4.075347934930526,0.006285647650070125,-0.0004280516489379087,-0.8889693719619461
13320,1.0,300.001,45531.279,0.0,-0.13320019425865448,0.0,0.0,0.0,0.0,-3.005131090458347,-6.759776553463003,-4.075464154716996,0.006307072418134584,0.004223489253875936,-0.8796962792992632
13321,1.0,300.29271,45597.106,0.0,-0.13321019024607383,0.0,0.0,0.0,0.0,-3.0116669589033873,-6.767131735938904,-4.081582969420876,0.013721481490204787,-0.0041355810937500756,-0.8885288412159691
13322,1.0,300.49773999999996,45696.63,0.0,-0.13322021922355043,0.0,0.0,0.0,0.0,-3.000346422161137,-6.788325584305574,-4.101962570007186,0.024531398950560578,-0.005408567521734056,-0.8900043258790882
13323,1.0,301.08124,45633.953,0.0,-0.13323021521096978,0.0,0.0,0.0,0.0,-3.023010699072927,-6.758938899605334,-4.089632633515316,0.00932979657007923,0.005705775966241245,-0.8829892914617582
13324,1.0,300.6311,45511.251,0.0,-0.13324021119838925,0.0,0.0,0.0,0.0,-2.9846637424133773,-6.754908393357553,-4.094711954941606,0.005949198764965204,-0.007984306321914682,-0.8847379483518373
13325,1.0,300.19599,45457.385,0.0,-0.13325020718580838,0.0,0.0,0.0,0.0,-3.0086751353331174,-6.749095580183873,-4.060139253579546,0.003184476054183317,-0.0002902890507667987,-0.904657817102775
13326,1.0,300.01231,45404.04,0.0,-0.13326020317322784,0.0,0.0,0.0,0.0,-2.9917987456425474,-6.745086960138254,-4.064808816665396,-0.014145516524553786,0.009140416985313921,-0.8972808092197212
13327,1.0,299.88291,45499.060999999994,0.0,-0.13327019916064697,0.0,0.0,0.0,0.0,-3.0034655099439673,-6.757995158462194,-4.0691178653656666,-0.00908759038075034,0.009073221886382283,-0.8990002034469122
13328,1.0,299.50448,45495.482,0.0,-0.13328019514806633,0.0,0.0,0.0,0.0,-3.000964707372157,-6.748462602846404,-4.080063296920896,-0.024986997738774677,-0.004864101430849435,-0.8749075782666552
13329,1.0,299.47132,45454.865999999995,0.0,-0.1332901911354858,0.0,0.0,0.0,0.0,-3.006626140980897,-6.747003016077352,-4.063515200262726,-0.01710924874905138,-0.011465527765309489,-0.8695504540604483
13330,1.0,300.10389,45497.72,0.0,-0.1333002201129626,0.0,0.0,0.0,0.0,-2.9733257777694075,-6.753568572750323,-4.103276350086846,-0.008827899243720821,-0.0028965472580669577,-0.8775958118419632
13331,1.0,299.60422,45594.96,0.0,-0.13331021610038174,0.0,0.0,0.0,0.0,-3.005454013265217,-6.772601766603753,-4.081673756629836,0.0042362792059132065,0.004547774882130436,-0.8586460793992703
13332,1.0,299.90043,45654.130999999994,0.0,-0.1333202120878011,0.0,0.0,0.0,0.0,-3.013686569002707,-6.782183667499413,-4.081845705171807,0.0028593647284223273,-0.006260756857388594,-0.9042668646841912
13333,1.0,300.33814,45653.259000000005,0.0,-0.13333020807522034,0.0,0.0,0.0,0.0,-3.0274861234396173,-6.772988625491934,-4.076976025191206,0.012538600151213488,-0.00979848077405976,-0.8689782919939802
13334,1.0,300.29577,45532.433,0.0,-0.1333402040626397,0.0,0.0,0.0,0.0,-3.0020530393045672,-6.768995102872804,-4.069674544970606,0.01201266356755759,0.008086393397314892,-0.8940541142762712
13335,1.0,300.7006,45431.155999999995,0.0,-0.13335020005005893,0.0,0.0,0.0,0.0,-2.9914666022597673,-6.749148775814124,-4.069321629960776,0.015412724589867486,0.0015427257636051784,-0.8806134935547852
13336,1.0,300.67111,45577.27099999999,0.0,-0.13336019603747828,0.0,0.0,0.0,0.0,-2.974033735614277,-6.7862680786525145,-4.094050403951317,-0.0036341224033599566,-0.0002152666556076648,-0.8988318114127931
13337,1.0,299.92756,45717.509000000005,0.0,-0.13337019202489775,0.0,0.0,0.0,0.0,-3.037714477899077,-6.775577986122484,-4.083688604453686,-0.008341697668036462,-0.009300644148802112,-0.8870186020744202
13338,1.0,300.47275,45652.700999999994,0.0,-0.13338022100237445,0.0,0.0,0.0,0.0,-3.0272803323443074,-6.771895429959043,-4.078105495077676,-0.01968159083092178,0.002147475371839318,-0.8953867306752902
13339,1.0,300.40774,45494.383,0.0,-0.1333902169897937,0.0,0.0,0.0,0.0,-3.008596709775377,-6.762656716872253,-4.0579031119338556,0.003706688133121636,-0.003632804671604906,-0.8713387898244432
13340,1.0,300.03992999999997,45706.986,0.0,-0.13340021297721305,0.0,0.0,0.0,0.0,-3.033402186798487,-6.770808820551803,-4.089571433209276,-0.015679992608494786,-0.007533430596391713,-0.8784020346815312
13341,1.0,300.33114,45906.397000000004,0.0,-0.1334102089646323,0.0,0.0,0.0,0.0,-3.044658382159387,-6.788311905429223,-4.121428117678286,0.003898426260144716,-0.010604225663555589,-0.8820288418244692
13342,1.0,299.79552,45627.649000000005,0.0,-0.13342020495205165,0.0,0.0,0.0,0.0,-3.006141503458067,-6.775827346972094,-4.087697021849285,-0.010103650729902689,0.0028033469939938074,-0.894155044118732
13343,1.0,299.72258999999997,45440.507000000005,0.0,-0.133430200939471,0.0,0.0,0.0,0.0,-3.003346453057217,-6.761975103529984,-4.047458023278006,0.01045255529583689,0.003652843313532566,-0.8872741538821411
13344,1.0,299.75943,45430.309,0.0,-0.13344019692689024,0.0,0.0,0.0,0.0,-3.0099683464357474,-6.755851019925585,-4.043860073497917,-0.02237961949494648,0.007649999650171182,-0.8943997744153851
13345,1.0,299.66551,45499.467000000004,0.0,-0.1334501929143096,0.0,0.0,0.0,0.0,-3.010488143737047,-6.771452639665344,-4.0487608602565865,0.01046387228620379,-0.00802952666062758,-0.8925123934541151
13346,1.0,299.80339,45570.529,0.0,-0.1334602218917864,0.0,0.0,0.0,0.0,-3.019106646437627,-6.765437581771704,-4.067758691681526,-0.006175446974494164,0.012751574176482388,-0.8969150765961261
13347,1.0,300.11528,45523.059,0.0,-0.13347021787920565,0.0,0.0,0.0,0.0,-2.990825924221537,-6.768581392856974,-4.078465705488226,0.018672363333818782,-0.0008133716837935352,-0.8836136359083762
13348,1.0,300.04902999999996,45478.554000000004,0.0,-0.133480213866625,0.0,0.0,0.0,0.0,-2.9703115613719273,-6.781966629327994,-4.072066524481676,0.00869223174278148,-0.0060815852607557334,-0.9066172097486521
13349,1.0,300.0557,45735.127,0.0,-0.13349020985404425,0.0,0.0,0.0,0.0,-3.040056808155247,-6.786516020951984,-4.075763772771566,-0.0009298742177039401,-0.008594979694208452,-0.8901814014665641
13350,1.0,299.89342,45977.475,0.0,-0.1335002058414636,0.0,0.0,0.0,0.0,-3.050657430701447,-6.821948059723853,-4.1033990546739565,-0.007634062948623353,0.008538937844427552,-0.9101248789448321
13351,1.0,299.69353,45729.494000000006,0.0,-0.13351020182888296,0.0,0.0,0.0,0.0,-3.034885584944887,-6.7887487175473336,-4.076990008042586,-0.0032841216021425672,-0.0024924912865397376,-0.8806056104690071
13352,1.0,299.60225,45516.346,0.0,-0.1335201978163022,0.0,0.0,0.0,0.0,-2.977765029107527,-6.790770252821844,-4.067297358910996,-0.009350106661708681,-0.0002612095125693718,-0.8939358071945952
13353,1.0,299.97517,45670.474,0.0,-0.13353019380372155,0.0,0.0,0.0,0.0,-2.994234598882947,-6.791286706397814,-4.097162398983446,-0.009132636035146002,-0.02055844429521048,-0.8853917479788622
13354,1.0,299.98928,45778.602,0.0,-0.13354022278119837,0.0,0.0,0.0,0.0,-3.006784714621547,-6.793772006243093,-4.114995195443406,-0.003105661307079907,0.011992001371518388,-0.8870725272447422
13355,1.0,299.72597,45653.183,0.0,-0.1335502187686175,0.0,0.0,0.0,0.0,-3.039205272771207,-6.776060799795134,-4.062161498129126,0.0034821831190647162,-0.0003939553271103637,-0.8562123641165812
13356,1.0,300.32059,45593.833,0.0,-0.13356021475603697,0.0,0.0,0.0,0.0,-3.015296319436577,-6.763025438583644,-4.081064894644746,0.001013648307289299,0.004697303745762786,-0.8683849226029191
13357,1.0,300.41463,45686.127,0.0,-0.1335702107434561,0.0,0.0,0.0,0.0,-3.031248219735907,-6.766564113232884,-4.0896294924400065,0.0082224446160671,-0.007404180413635713,-0.8628823463448572
13358,1.0,300.37216,45915.40900000001,0.0,-0.13358020673087556,0.0,0.0,0.0,0.0,-3.038765116927767,-6.794117828502223,-4.124254882807266,-0.011111431305862889,0.007538068748724463,-0.8820177062058703
13359,1.0,300.20706,46025.2,0.0,-0.13359020271829491,0.0,0.0,0.0,0.0,-3.035508227131337,-6.799009293359973,-4.155994030264676,-0.005344899749050535,-0.01113097082079129,-0.8904136991844901
13360,1.0,299.98668,45770.945,0.0,-0.13360019870571416,0.0,0.0,0.0,0.0,-3.0212481505239768,-6.799610251994284,-4.092365976985076,-0.001010590237427491,-0.008257795290855942,-0.8949478616594772
13361,1.0,300.07383,45540.024000000005,0.0,-0.1336101946931335,0.0,0.0,0.0,0.0,-3.016473513402757,-6.768080948632584,-4.058475598240356,0.006956024859331203,-0.00019638697927688582,-0.8930318665153831
13362,1.0,299.64079,45697.374,0.0,-0.13362022367061033,0.0,0.0,0.0,0.0,-3.018744510851887,-6.794313588421543,-4.0778026346227865,-0.001133062567349569,0.018549157187909282,-0.9024694096692962
13363,1.0,299.24062000000004,45726.764,0.0,-0.13363021965802946,0.0,0.0,0.0,0.0,-3.0169376832735675,-6.7909866830432035,-4.091869991061126,-0.006969256183112033,0.006709704975921324,-0.8836358463505681
13364,1.0,299.45727999999997,45709.58,0.0,-0.13364021564544892,0.0,0.0,0.0,0.0,-3.0014499528450473,-6.787451048144263,-4.105670052123086,-0.01060685200781479,0.004563991747330916,-0.8854543364375392
13365,1.0,299.71942,45666.857,0.0,-0.13365021163286828,0.0,0.0,0.0,0.0,-2.987657896458877,-6.788858047233123,-4.105068485538716,0.008659518963302982,-0.0002220705996316618,-0.8874667119311452
13366,1.0,300.03817000000004,45661.596,0.0,-0.13366020762028763,0.0,0.0,0.0,0.0,-3.0127227655075868,-6.788494898397285,-4.078767451368006,0.007566248247255563,0.023717411575476275,-0.8803872550724572
13367,1.0,300.72656,45811.272000000004,0.0,-0.13367020360770687,0.0,0.0,0.0,0.0,-3.0382432931262673,-6.789618795408203,-4.097620793328686,0.005084673413318195,0.011940977136232689,-0.8699425615841461
13368,1.0,299.9912,45970.248,0.0,-0.133680199595126,0.0,0.0,0.0,0.0,-3.0357953822096766,-6.821366251516434,-4.1166458811813165,-0.0018951524882119882,-0.015101493675901384,-0.8833936187816622
13369,1.0,299.81174,45893.754,0.0,-0.13369019558254547,0.0,0.0,0.0,0.0,-3.029693083482427,-6.801784990683914,-4.119077174796266,0.018463541607459683,-0.008980927163923501,-0.8951277946122351
13370,1.0,299.97236000000004,45776.115999999995,0.0,-0.1337001915699646,0.0,0.0,0.0,0.0,-3.004531347724157,-6.801780329733453,-4.108484556925856,0.006553182254798734,-0.0019015715289204982,-0.9047102831929532
13371,1.0,299.4369,45743.310999999994,0.0,-0.13371022054744142,0.0,0.0,0.0,0.0,-3.001899937214457,-6.8058134704314925,-4.097110925878366,0.014617521858387087,-0.0031911233801393568,-0.9083470809818771
13372,1.0,299.51538999999997,45865.085,0.0,-0.13372021653486077,0.0,0.0,0.0,0.0,-3.0598432521330174,-6.794018631317434,-4.087978806702096,-0.01719422902168828,-0.002887910111564537,-0.8857033325171132
13373,1.0,299.84122,45892.189000000006,0.0,-0.13373021252228023,0.0,0.0,0.0,0.0,-3.062523602622547,-6.794463245461313,-4.0930925786317855,0.008173914597227562,0.02034725662986788,-0.8842366327323611
13374,1.0,300.11182,45719.929000000004,0.0,-0.1337402085096996,0.0,0.0,0.0,0.0,-3.032627962397077,-6.779296310014453,-4.0857926182863356,-0.008446047128259951,0.020395644388393377,-0.8756888346237592
13375,1.0,300.18883999999997,45642.096,0.0,-0.13375020449711883,0.0,0.0,0.0,0.0,-3.005964083365557,-6.786947158869533,-4.081146359952786,0.001083086235317289,-0.003919217442921646,-0.8758503770872023
13376,1.0,300.48368,45952.481,0.0,-0.13376020048453796,0.0,0.0,0.0,0.0,-3.028222553612297,-6.811534787121144,-4.128649551140986,-0.01206429879265359,-0.012359725031559887,-0.8804836962169751
13377,1.0,300.24478,46054.52,0.0,-0.13377019647195731,0.0,0.0,0.0,0.0,-3.045055576198587,-6.825578534832154,-4.128789886279836,0.006311733368594584,-0.003772652943781856,-0.907413087304699
13378,1.0,300.39601,45772.67,0.0,-0.13378019245937656,0.0,0.0,0.0,0.0,-3.025491743267787,-6.810643025708133,-4.077614068779176,0.011122040034409888,-0.0009508923583707691,-0.9014342024396291
13379,1.0,300.08977999999996,45641.008,0.0,-0.13379022143685337,0.0,0.0,0.0,0.0,-2.9931089793468573,-6.809267336047364,-4.0713504606360065,0.005914879072153115,-0.00994987665232637,-0.907077529269082
13380,1.0,299.62772,45893.099,0.0,-0.13380021742427273,0.0,0.0,0.0,0.0,-3.0088027035207072,-6.813960102560503,-4.127593237911736,-0.009273593005582371,-0.011450650214091189,-0.8927121861088332
13381,1.0,299.77768,46117.193,0.0,-0.13381021341169208,0.0,0.0,0.0,0.0,-3.0385933710358173,-6.831709001912183,-4.148172854067786,-0.003369578406301497,-0.012362276395311688,-0.920957353378914
13382,1.0,300.32415,45969.383,0.0,-0.13382020939911154,0.0,0.0,0.0,0.0,-3.0165162725569767,-6.811676439485122,-4.145351965789386,-0.0028580606755436275,-0.0038256479505120564,-0.8933098820778211
13383,1.0,299.94936,45701.18,0.0,-0.13383020538653068,0.0,0.0,0.0,0.0,-3.0180562100589574,-6.789794492975543,-4.084166959825896,0.007988209361299884,-0.0014991141620760485,-0.9042711304671123
13384,1.0,299.2217,45763.858,0.0,-0.13384020137394992,0.0,0.0,0.0,0.0,-3.0489508135580174,-6.783385382118013,-4.078734014114706,-0.004351806537264866,-0.01213052380593949,-0.8703060447925192
13385,1.0,300.0137,46185.640999999996,0.0,-0.13385019736136927,0.0,0.0,0.0,0.0,-3.087998331336707,-6.817637288498414,-4.133645887384086,-0.00951122285083461,0.019138850507607483,-0.8968728443319582
13386,1.0,300.27439,46152.262,0.0,-0.13386019334878874,0.0,0.0,0.0,0.0,-3.072680725599977,-6.813761100240863,-4.142693400177006,0.007802763213422772,-0.0011212388506076588,-0.8664970654141021
13387,1.0,300.496,45792.765999999996,0.0,-0.13387022232626533,0.0,0.0,0.0,0.0,-3.004092306455827,-6.813204825935965,-4.102560286241175,0.005589192220335324,0.013139576010775186,-0.8976748216536072
13388,1.0,299.90875,45754.420999999995,0.0,-0.1338802183136849,0.0,0.0,0.0,0.0,-2.989879143328097,-6.804925964668904,-4.113396388110616,0.007863751344891833,-0.00932606355406081,-0.8897077374423171
13389,1.0,300.45105,46084.24,0.0,-0.13389021430110404,0.0,0.0,0.0,0.0,-3.044697594938257,-6.825448332194303,-4.138312208069616,-0.003909003679263626,-0.01034495320146739,-0.9124135069457021
13390,1.0,300.40511000000004,46263.395,0.0,-0.1339002102885235,0.0,0.0,0.0,0.0,-3.082278635847217,-6.836291121514402,-4.144347024340206,0.004701255927777836,0.0032098113596837163,-0.8813013789151741
13391,1.0,300.10412,45939.233,0.0,-0.13391020627594263,0.0,0.0,0.0,0.0,-3.025760254544287,-6.810966961765104,-4.127652513042586,-0.011781510822244589,0.002502065790709668,-0.8865832085064501
13392,1.0,299.82367999999997,45795.215,0.0,-0.13392020226336188,0.0,0.0,0.0,0.0,-3.012381502873907,-6.796629675500123,-4.111590675107406,0.014176873575398487,-0.016068213304809183,-0.8693466084053302
13393,1.0,299.65321,45952.489,0.0,-0.13393019825078123,0.0,0.0,0.0,0.0,-3.016279678658627,-6.813037234369424,-4.139092309321606,-0.01110356240558629,-0.0015980151738618185,-0.8908232548749101
13394,1.0,299.67391000000003,46063.942,0.0,-0.13394019423820058,0.0,0.0,0.0,0.0,-3.033279684861397,-6.817563523891134,-4.151444841290706,0.004054374975085656,-0.0091306379059488,-0.8926811806557732
13395,1.0,299.66432000000003,45863.057,0.0,-0.1339502232156774,0.0,0.0,0.0,0.0,-3.0164864830040368,-6.818182619702234,-4.1065551260854365,-0.017158984130209883,-0.0025408923186415475,-0.9091862243171941
13396,1.0,299.69551,45745.554000000004,0.0,-0.13396021920309675,0.0,0.0,0.0,0.0,-3.020009654926747,-6.798107906071014,-4.087388689843856,-0.01087045611408049,0.0013088421066226588,-0.9041375942364333
13397,1.0,299.87155,45844.419,0.0,-0.133970215190516,0.0,0.0,0.0,0.0,-3.0093493519496572,-6.829785447922344,-4.096423942310566,-0.007808369222251043,0.012767442686298489,-0.924651967218544
13398,1.0,300.40969,46146.514,0.0,-0.13398021117793535,0.0,0.0,0.0,0.0,-3.0523614133946175,-6.847900738510184,-4.127125825640606,-0.004859726926192705,0.007452732521327432,-0.8858463629012291
13399,1.0,300.3433,46208.007000000005,0.0,-0.1339902071653546,0.0,0.0,0.0,0.0,-3.044353900504337,-6.844817925080934,-4.156908589804936,-0.0007367105491151703,-0.0029711623874808975,-0.9038335685439283
13400,1.0,299.9511,45931.663,0.0,-0.13400020315277372,0.0,0.0,0.0,0.0,-3.0073993521322073,-6.834048900368114,-4.120630284549546,0.007049753432006493,-0.022597811758230377,-0.8802521179066202
13401,1.0,299.756,45913.778,0.0,-0.1340101991401933,0.0,0.0,0.0,0.0,-3.029999895612707,-6.822195495398273,-4.104446451302326,0.01113545343923369,-0.0029928546535717576,-0.8825649524523793
13402,1.0,299.85832,46201.517,0.0,-0.13402019512761254,0.0,0.0,0.0,0.0,-3.077904029865477,-6.820909275721334,-4.145294311858696,-0.0015333222960521287,-0.011119847361193489,-0.8581386032191862
13403,1.0,300.08964,46196.977,0.0,-0.13403022410508936,0.0,0.0,0.0,0.0,-3.0608119192286174,-6.842690809146003,-4.139224639784667,-0.008146876727584133,6.559176946365363e-05,-0.8783483324262311
13404,1.0,299.91972999999996,45892.246,0.0,-0.1340402200925087,0.0,0.0,0.0,0.0,-3.0380254443547674,-6.805129627939003,-4.106941782323596,-0.002128588896600368,-0.006708654438217644,-0.8731807569162312
13405,1.0,300.07243,45849.672999999995,0.0,-0.13405021607992795,0.0,0.0,0.0,0.0,-3.012427808403477,-6.8238827594647935,-4.100845259121916,0.0031949564039426472,0.006842211440523692,-0.9204927579430622
13406,1.0,299.75246,45842.539000000004,0.0,-0.1340602120673473,0.0,0.0,0.0,0.0,-3.0084821111890676,-6.821699408149313,-4.104805749787786,-0.004527261937830966,-0.01865231820709048,-0.9279869583326821
13407,1.0,299.65254,46047.005999999994,0.0,-0.13407020805476655,0.0,0.0,0.0,0.0,-3.050481631809097,-6.834707310283093,-4.111951290817997,3.3255050667017964e-05,-0.007622350892042463,-0.9315008488844762
13408,1.0,299.66792999999996,46270.093,0.0,-0.1340802040421859,0.0,0.0,0.0,0.0,-3.0715377794871768,-6.8587418053051135,-4.134673221660476,-0.006306408232694034,0.0002052607804726618,-0.919118415904925
13409,1.0,300.05054,46057.41,0.0,-0.13409020002960526,0.0,0.0,0.0,0.0,-3.046907797381387,-6.838113654469273,-4.115281134621626,0.00857187992240368,0.02185084074476008,-0.903906299636106
13410,1.0,300.45425,45898.237,0.0,-0.1341001960170245,0.0,0.0,0.0,0.0,-3.016336420664227,-6.832746063389533,-4.102835484968336,-5.947727120519964e-05,0.0013878704468471487,-0.8737571341031153
13411,1.0,300.22177999999997,46155.957,0.0,-0.13411019200444385,0.0,0.0,0.0,0.0,-3.0366462083186474,-6.849915991634073,-4.143696315125986,-0.002191076232917388,0.015584998385119585,-0.8802847546923412
13412,1.0,300.40792999999996,46299.918,0.0,-0.13412022098192067,0.0,0.0,0.0,0.0,-3.0463206189484366,-6.847294916275393,-4.180403427823697,-0.005542280463230495,0.006896545153286014,-0.8739630467884372
13413,1.0,300.72393,46073.84099999999,0.0,-0.1341302169693399,0.0,0.0,0.0,0.0,-3.0380411497313173,-6.843225602548784,-4.124030245260096,0.0005267236864660805,0.007277934112126174,-0.8946856933286031
13414,1.0,301.14476,46034.747,0.0,-0.13414021295675926,0.0,0.0,0.0,0.0,-3.0425936824306175,-6.8320013245660345,-4.1188185933707455,0.008201882529137783,-0.009061127226563633,-0.8759731627343201
13415,1.0,300.45443,46038.029,0.0,-0.1341502089441784,0.0,0.0,0.0,0.0,-3.061129370484947,-6.816224412558974,-4.1170574633719355,0.01007288582241643,-0.011997817427092388,-0.893954116623902
13416,1.0,300.24772,46078.212,0.0,-0.13416020493159786,0.0,0.0,0.0,0.0,-3.062759791220857,-6.8380420176872025,-4.105824167463297,0.011453312022103888,-0.013110729793678288,-0.8901248925084871
13417,1.0,300.23197000000005,46129.867999999995,0.0,-0.1341702009190172,0.0,0.0,0.0,0.0,-3.043483214693407,-6.841533069581744,-4.137311724920876,-0.007629214952194892,-0.003396396704648257,-0.9125384508155332
13418,1.0,300.19517,46143.898,0.0,-0.13418019690643646,0.0,0.0,0.0,0.0,-3.051432060402897,-6.842743802126234,-4.132416815012786,0.007491947022722603,-0.01037709349463939,-0.8990311481049661
13419,1.0,299.73156,46094.329000000005,0.0,-0.1341901928938558,0.0,0.0,0.0,0.0,-3.045449426512457,-6.844275937602443,-4.121799575164946,-0.012790264118300788,0.014161916990672384,-0.8883560719414182
13420,1.0,300.08324,46333.105,0.0,-0.13420022187133263,0.0,0.0,0.0,0.0,-3.0818765782075372,-6.855154494651073,-4.147076010834536,0.005997613982568414,0.02021436887925288,-0.8743662088707262
13421,1.0,299.42195,46357.057,0.0,-0.13421021785875176,0.0,0.0,0.0,0.0,-3.078817576155637,-6.870103074701385,-4.142467040104666,-0.01147364997811109,-0.0016743734987477983,-0.8844886584297341
13422,1.0,299.87661,45984.162000000004,0.0,-0.13422021384617122,0.0,0.0,0.0,0.0,-3.034033542935797,-6.833991955712493,-4.110011727476576,0.01160014614709529,-0.00023034603611338375,-0.8744865627176042
13423,1.0,299.69767,45891.825999999994,0.0,-0.13423020983359035,0.0,0.0,0.0,0.0,-2.9755459100635173,-6.861696746571743,-4.112726629794516,-0.00018337608805531083,-0.008743446773061011,-0.9114885615919172
13424,1.0,299.75937000000005,45986.84,0.0,-0.13424020582100982,0.0,0.0,0.0,0.0,-3.004463155992427,-6.849430138211123,-4.124957875726646,0.013859078827284587,-0.00932757714706019,-0.9089939195807151
13425,1.0,299.93547,45997.200999999994,0.0,-0.13425020180842917,0.0,0.0,0.0,0.0,-3.015709725477377,-6.852438781733053,-4.113852046680586,-0.016041345965157584,-0.003104443684434737,-0.9054721054131392
13426,1.0,300.08505,45967.306,0.0,-0.1342601977958483,0.0,0.0,0.0,0.0,-3.0128714092972575,-6.858723668128324,-4.101318041618576,0.006349797020526174,-0.0018192892373248683,-0.8964273689254931
13427,1.0,300.06153,46021.157,0.0,-0.13427019378326777,0.0,0.0,0.0,0.0,-3.047380174578007,-6.838308198488473,-4.103594105318207,-0.002667793585015727,-0.004944390963473396,-0.8917739063837321
13428,1.0,300.71056,46214.54,0.0,-0.13428022276074458,0.0,0.0,0.0,0.0,-3.0564382251719673,-6.865071578679814,-4.1265563790844055,0.014404006757564787,-0.002757560653775047,-0.8922683825650332
13429,1.0,300.33268,46395.575,0.0,-0.13429021874816371,0.0,0.0,0.0,0.0,-3.066791513368757,-6.883586191132063,-4.152718800641436,0.006572432790798614,-0.01125569582860069,-0.9122762419546551
13430,1.0,300.27027000000004,46436.828,0.0,-0.13430021473558307,0.0,0.0,0.0,0.0,-3.099591635005877,-6.856891103997464,-4.159153445401486,0.005872196823615704,0.006731080601355933,-0.8910214364619692
13431,1.0,299.95496,46158.126,0.0,-0.13431021072300253,0.0,0.0,0.0,0.0,-3.075508402654047,-6.838830731565044,-4.116578601374676,-0.007356436271573733,0.016097128422912884,-0.8892229681969742
13432,1.0,299.93666,45950.532,0.0,-0.13432020671042166,0.0,0.0,0.0,0.0,-3.044279223971967,-6.820919509547344,-4.102615711021646,-0.007064209268533174,0.008401359556449632,-0.890778327365476
13433,1.0,299.80157,46044.835,0.0,-0.13433020269784113,0.0,0.0,0.0,0.0,-3.060385239611507,-6.826213336019803,-4.109881423513716,-0.003001234535873787,-0.002689258275134127,-0.8823067053993922
13434,1.0,299.69126,46165.215,0.0,-0.13434019868526026,0.0,0.0,0.0,0.0,-3.048478233711377,-6.844187784843744,-4.140406596026317,-0.007809289557316872,9.494550529714181e-05,-0.886641146147168
13435,1.0,299.77837999999997,46103.702000000005,0.0,-0.13435019467267972,0.0,0.0,0.0,0.0,-3.027600012750857,-6.8458979483625235,-4.140876237447666,0.02038775724961498,0.0006914622446995103,-0.8763855555250202
13436,1.0,300.06476000000004,46131.547,0.0,-0.13436022365015643,0.0,0.0,0.0,0.0,-3.0465036119164974,-6.863530627927734,-4.112804042102156,0.004640593556215926,0.0021642742478972378,-0.9020838477412442
13437,1.0,300.36032,46386.441,0.0,-0.13437021963757567,0.0,0.0,0.0,0.0,-3.085644247379377,-6.868673885435333,-4.146001763078516,0.008092530247870553,0.009178116069859531,-0.8631726830285111
13438,1.0,300.20107,46452.621,0.0,-0.13438021562499503,0.0,0.0,0.0,0.0,-3.0820933124039267,-6.884071031304913,-4.154272619669786,-0.005034833363424365,0.011244729422768388,-0.8908460428696592
13439,1.0,299.9178,46316.538,0.0,-0.13439021161241438,0.0,0.0,0.0,0.0,-3.065110328802837,-6.890698598884003,-4.123262303009306,0.005764603037897025,0.007743583125432153,-0.8826922977249472
13440,1.0,299.87271,46179.37,0.0,-0.13440020759983362,0.0,0.0,0.0,0.0,-3.0338781103704573,-6.863908772865053,-4.139588497895576,-0.007875366838738192,-0.006884092309557013,-0.9234688660042811
13441,1.0,300.26076,46051.246,0.0,-0.13441020358725297,0.0,0.0,0.0,0.0,-3.015874986568687,-6.869990401290264,-4.112563395203406,0.018763208298034482,-0.01832382049817028,-0.9163770880243771
13442,1.0,300.24219,45964.172,0.0,-0.13442019957467222,0.0,0.0,0.0,0.0,-3.0217739260008676,-6.8458630925590835,-4.1043235440651955,0.006177863069357614,0.013213969846367288,-0.9221687850659732
13443,1.0,300.63832,46098.08,0.0,-0.13443019556209157,0.0,0.0,0.0,0.0,-3.051495591184167,-6.838521690284543,-4.122647868148666,-0.0017497827122651083,0.013120214827864386,-0.9082286117801851
13444,1.0,300.18523999999996,46100.392,0.0,-0.1344402245395684,0.0,0.0,0.0,0.0,-3.0433358881288672,-6.849578376700753,-4.120453776382126,-0.00970518749362743,0.010138912846632792,-0.9008011947046562
13445,1.0,300.35315,46146.694,0.0,-0.13445022052698763,0.0,0.0,0.0,0.0,-3.0519824578572172,-6.841971502900014,-4.133488732293576,-0.008257656576917252,-0.007000020279998214,-0.8853211143143912
13446,1.0,299.54392,46477.329000000005,0.0,-0.13446021651440698,0.0,0.0,0.0,0.0,-3.060653446912977,-6.885785146499083,-4.181508782357787,0.005802413579953634,-0.002275638337238018,-0.8730171575550851
13447,1.0,299.58091,46694.984000000004,0.0,-0.13447021250182634,0.0,0.0,0.0,0.0,-3.105931439556567,-6.895532511136072,-4.192645312881876,0.008146048192977361,-0.026650075525407678,-0.8690678633028202
13448,1.0,299.36929,46582.014,0.0,-0.13448020848924558,0.0,0.0,0.0,0.0,-3.109189342603097,-6.890523509266723,-4.160056352565595,0.002957803799487507,-0.017248319351776585,-0.8715600937787843
13449,1.0,299.92712,46285.505999999994,0.0,-0.13449020447666493,0.0,0.0,0.0,0.0,-3.0762573971279674,-6.874708397730893,-4.118672077406286,-0.004431723193852026,-0.015773297743953286,-0.8745324730796351
13450,1.0,299.90676,46182.277,0.0,-0.13450020046408417,0.0,0.0,0.0,0.0,-3.0484425673078572,-6.864779863976024,-4.125036706584426,0.01329341372045779,0.02202698819514448,-0.8698079310433591
13451,1.0,300.37981,46223.437999999995,0.0,-0.13451019645150353,0.0,0.0,0.0,0.0,-3.054672028922657,-6.856606380719364,-4.139492441786096,0.0035319287340492265,0.016040037859278485,-0.901230620229537
13452,1.0,299.63645,46257.553,0.0,-0.13452019243892288,0.0,0.0,0.0,0.0,-3.0349156784728573,-6.867696605713885,-4.158528675389826,0.004167991620723746,0.01046062583288339,-0.9143267156520211
13453,1.0,300.11484,46144.272000000004,0.0,-0.13453022141639948,0.0,0.0,0.0,0.0,-3.054663720271837,-6.839482454029364,-4.132560291226946,-0.005958093986268094,-0.004378648444338956,-0.9055340656567541
13454,1.0,299.7795,46066.003,0.0,-0.13454021740381905,0.0,0.0,0.0,0.0,-3.0308622727728176,-6.853611720048813,-4.118440752408456,-0.0013220297593241786,0.013554336766958885,-0.9090559102218331
13455,1.0,299.83637000000004,46332.38,0.0,-0.1345502133912383,0.0,0.0,0.0,0.0,-3.054670002422457,-6.887759970943984,-4.141456525779936,-0.006260115774050323,0.006817397958824794,-0.9055578669016032
13456,1.0,300.2263,46544.96,0.0,-0.13456020937865754,0.0,0.0,0.0,0.0,-3.075041699657987,-6.895305948413713,-4.178157964277086,-0.013287839831657688,-0.003075971255299727,-0.8962697680049392
13457,1.0,299.90623999999997,46419.959,0.0,-0.1345702053660769,0.0,0.0,0.0,0.0,-3.0667250441621974,-6.904871333332743,-4.138912052128816,0.0014495849773128984,-0.024293996478630776,-0.8986425160291112
13458,1.0,298.84632,46122.922999999995,0.0,-0.13458020135349613,0.0,0.0,0.0,0.0,-3.008095657600927,-6.884167999339485,-4.127953346997276,0.007376988732627103,-0.004028326341514856,-0.9157730896397671
13459,1.0,299.09895,46205.71,0.0,-0.13459019734091549,0.0,0.0,0.0,0.0,-3.054228529353887,-6.877703159726453,-4.113450495665956,0.02538294041410118,-0.005872106543031795,-0.9073864894895742
13460,1.0,299.53923,46375.393,0.0,-0.13460019332833484,0.0,0.0,0.0,0.0,-3.063717109915337,-6.882979760947214,-4.150264506249216,-0.0012482075994384987,0.0028271121671392474,-0.9065623422557372
13461,1.0,299.76953,46331.58900000001,0.0,-0.13461022230581166,0.0,0.0,0.0,0.0,-3.0665535009202673,-6.860265834780524,-4.156826820521867,0.003358120371520677,-0.005946503215724175,-0.8857877463829441
13462,1.0,299.72258999999997,46155.611,0.0,-0.134620218293231,0.0,0.0,0.0,0.0,-3.035289365109737,-6.849534806946453,-4.145329066337125,-0.003285171531896187,0.027385296890718374,-0.8942114618843001
13463,1.0,299.94638,46258.385,0.0,-0.13463021428065025,0.0,0.0,0.0,0.0,-3.0530114133337674,-6.854004151812544,-4.154378402980226,0.0023370869908775275,0.015179651735614984,-0.8892169900213841
13464,1.0,300.32478,46566.426,0.0,-0.13464021026806938,0.0,0.0,0.0,0.0,-3.077930171718057,-6.882510322175884,-4.1945902464488265,-0.017410197201002682,-0.0017591415968137582,-0.8995070007494292
13465,1.0,300.15259,46708.947,0.0,-0.13465020625548885,0.0,0.0,0.0,0.0,-3.124998982588387,-6.898597288713543,-4.174757496941486,0.0033144462524603772,-0.015856156270880786,-0.8770085523490052
13466,1.0,300.11629,46591.829000000005,0.0,-0.13466020224290798,0.0,0.0,0.0,0.0,-3.106703130832727,-6.882940548168344,-4.173109040353796,-0.006886384787908264,0.013276774127315588,-0.8961405076896822
13467,1.0,300.19921,46371.369000000006,0.0,-0.13467019823032755,0.0,0.0,0.0,0.0,-3.067164389405557,-6.880968560823723,-4.147605332686776,0.014078515361691286,-0.006663440584305384,-0.8867435350697731
13468,1.0,300.0779,46380.495,0.0,-0.1346801942177468,0.0,0.0,0.0,0.0,-3.067894132127577,-6.8829404468433335,-4.147677881393936,-0.007001999664068562,-0.015348085312988086,-0.8910199672493242
13469,1.0,299.64977000000005,46621.005999999994,0.0,-0.1346902231952236,0.0,0.0,0.0,0.0,-3.093194581824537,-6.885870462157502,-4.192556552173117,0.0025035666167577877,-0.025266428811602376,-0.8884348318716911
13470,1.0,299.51385,46435.739,0.0,-0.13470021918264297,0.0,0.0,0.0,0.0,-3.065337499475257,-6.888753563992044,-4.161214092129857,0.004987656438768365,-0.009870876379129652,-0.9174651261142581
13471,1.0,299.32189,46120.072,0.0,-0.1347102151700622,0.0,0.0,0.0,0.0,-3.035352186615937,-6.866847299480063,-4.117150986356166,0.011444174532702089,0.0002317610196130318,-0.9053267952162981
13472,1.0,299.80147,46255.587,0.0,-0.13472021115748134,0.0,0.0,0.0,0.0,-3.0288858271277572,-6.873897291025844,-4.157760429164006,0.005100299452385365,0.0023026208834259878,-0.9050211179261302
13473,1.0,299.92351,46521.654,0.0,-0.1347302071449008,0.0,0.0,0.0,0.0,-3.065255324892147,-6.9196030778616535,-4.156562666220796,0.004342112165608106,-0.0006273024175024284,-0.903523412688318
13474,1.0,300.2328,46489.49,0.0,-0.13474020313232016,0.0,0.0,0.0,0.0,-3.055156869095507,-6.901412705441404,-4.175074542897776,0.0022983661449310776,0.016831403412630185,-0.8956618787399452
13475,1.0,300.29432,46496.017,0.0,-0.1347501991197395,0.0,0.0,0.0,0.0,-3.061151459337127,-6.915246305081674,-4.157230195386676,-0.0011105599038287288,-0.0024429522732506174,-0.9091503856611571
13476,1.0,300.1848,46390.505999999994,0.0,-0.13476019510715875,0.0,0.0,0.0,0.0,-3.049330478370487,-6.902222798896354,-4.1500019731483055,-0.005003133124770795,0.003092922118872647,-0.9095667807897522
13477,1.0,300.3961,46526.931,0.0,-0.13477022408463557,0.0,0.0,0.0,0.0,-3.099954783841717,-6.893988723283714,-4.149081638082476,-0.015097329217990384,0.006731516501548953,-0.9103518469672321
13478,1.0,299.98643,46680.492,0.0,-0.13478022007205492,0.0,0.0,0.0,0.0,-3.078425651016957,-6.923866023682373,-4.187412382740426,0.011044090704216887,0.0011788801156714089,-0.916051307852225
13479,1.0,299.65161,46498.809,0.0,-0.13479021605947406,0.0,0.0,0.0,0.0,-3.095796608081337,-6.875575435841463,-4.1631049181414665,1.5460711101353387e-05,-0.013101470714264487,-0.8868842653761622
13480,1.0,299.32159,46345.092000000004,0.0,-0.1348002120468933,0.0,0.0,0.0,0.0,-3.052820010389877,-6.878524297607494,-4.156406423055376,0.0036213234333967964,-0.016682380667422784,-0.8910048191603293
13481,1.0,299.78416,46484.356,0.0,-0.13481020803431265,0.0,0.0,0.0,0.0,-3.0888012307159474,-6.886744694343784,-4.154537584570936,0.006585997068562304,-0.02110374408827738,-0.8964654873942552
13482,1.0,299.87937,46685.418,0.0,-0.13482020402173212,0.0,0.0,0.0,0.0,-3.106069444220187,-6.894332721692664,-4.190799171199676,0.001064415278374609,0.017201427150398685,-0.8931893357134242
13483,1.0,300.56685,46514.191,0.0,-0.13483020000915147,0.0,0.0,0.0,0.0,-3.089478588407797,-6.901024225353064,-4.148649689564846,-0.0070354588035707235,0.02147572542523908,-0.891879324924136
13484,1.0,300.40815,46380.810999999994,0.0,-0.1348401959965707,0.0,0.0,0.0,0.0,-3.037070557460527,-6.890461802335634,-4.171075954028146,-0.015571415767529085,0.024508198563020875,-0.8857199802162562
13485,1.0,300.39766000000003,46550.931,0.0,-0.13485022497404742,0.0,0.0,0.0,0.0,-3.095284815455827,-6.892400149776933,-4.162635682020157,-0.025736346850229675,0.013528171609626589,-0.8935262920341791
13486,1.0,300.58551,46762.647000000004,0.0,-0.13486022096146688,0.0,0.0,0.0,0.0,-3.0927936387599675,-6.924762040745803,-4.1971212438736165,0.002999667747244157,-0.001967263572653798,-0.8927621190737612
13487,1.0,300.83997,46682.363,0.0,-0.134870216948886,0.0,0.0,0.0,0.0,-3.100882616958287,-6.9043974362609735,-4.184992538851606,0.015202641367133885,-0.012799230368435686,-0.919147009822747
13488,1.0,300.4564,46522.16099999999,0.0,-0.13488021293630525,0.0,0.0,0.0,0.0,-3.059384047187697,-6.912985642783564,-4.169205696993567,0.019353549084546583,-0.005265933318407154,-0.9210784468983652
13489,1.0,300.51583,46459.273,0.0,-0.1348902089237246,0.0,0.0,0.0,0.0,-3.065758606216817,-6.904053032551984,-4.1526473665093855,0.016060259291524184,-0.010304923743016791,-0.9315894880032242
13490,1.0,300.08434,46353.244000000006,0.0,-0.13490020491114396,0.0,0.0,0.0,0.0,-3.0331358033471973,-6.9012730795776225,-4.155819649922466,0.001964733183179068,0.0006179590762103124,-0.9045896760335502
13491,1.0,299.48773,46390.880999999994,0.0,-0.13491020089856343,0.0,0.0,0.0,0.0,-3.0615875621801676,-6.904559150976934,-4.135522933194336,-0.014874378732236885,-0.009460718514175221,-0.9016887409972502
13492,1.0,300.32507000000004,46448.504,0.0,-0.13492019688598256,0.0,0.0,0.0,0.0,-3.049100571922797,-6.897540164884214,-4.1725446600480955,-0.026319202758253075,-0.02315639424685818,-0.8902339688817522
13493,1.0,299.91183,46484.632000000005,0.0,-0.1349301928734018,0.0,0.0,0.0,0.0,-3.070092175569507,-6.908663523157004,-4.151411606687425,-0.018014156068858783,-0.011576014582713689,-0.8911209882842942
13494,1.0,300.00671,46637.35,0.0,-0.13494022185087873,0.0,0.0,0.0,0.0,-3.080061948603447,-6.921362384010284,-4.1751653301067355,-0.01786141469578438,0.010498711877642189,-0.9108939965657381
13495,1.0,300.0126,46818.809,0.0,-0.13495021783829797,0.0,0.0,0.0,0.0,-3.117089450982777,-6.915622930143843,-4.199036387887626,0.0018386274194583981,0.013841625594312087,-0.8792161102093742
13496,1.0,300.20002999999997,46764.535,0.0,-0.1349602138257172,0.0,0.0,0.0,0.0,-3.094770388380057,-6.922302680103084,-4.198177962402906,0.001720070470307738,0.0058594120391539445,-0.9024353138034311
13497,1.0,300.48055,46607.642,0.0,-0.1349702098131368,0.0,0.0,0.0,0.0,-3.109178298177007,-6.8997257453499135,-4.158655230327317,0.015697475225720185,0.013014490285930186,-0.8781228234839752
13498,1.0,300.36451,46520.25,0.0,-0.13498020580055592,0.0,0.0,0.0,0.0,-3.0604567750685674,-6.905191419039334,-4.175346093924576,0.014649227467266185,-0.016571155190695682,-0.9164109711077211
13499,1.0,298.97828,46506.787000000004,0.0,-0.13499020178797527,0.0,0.0,0.0,0.0,-3.091266569534257,-6.898545106333393,-4.147090095010926,0.013070154193423788,-0.020454290290931283,-0.8738903156962592
13500,1.0,299.10754,46519.058,0.0,-0.13500019777539451,0.0,0.0,0.0,0.0,-3.068273999590067,-6.898504880304423,-4.173853069902226,0.004120332692995176,-0.02097880832444718,-0.9126821803422182
13501,1.0,299.85145,46493.557,0.0,-0.13501019376281376,0.0,0.0,0.0,0.0,-3.0700061506360172,-6.917436242522804,-4.145437889397867,0.006203514204914184,-0.006371718179814624,-0.8828882197642832
13502,1.0,299.78005,46487.825999999994,0.0,-0.13502022274029069,0.0,0.0,0.0,0.0,-3.051781530362387,-6.899603040762804,-4.179753731859576,-0.0022845432857418677,0.0078112220279075925,-0.8900359392822081
13503,1.0,300.63636,46702.102999999996,0.0,-0.13503021872770993,0.0,0.0,0.0,0.0,-3.0947518459032266,-6.923737239594664,-4.177784176315195,-0.01142538887584809,0.0048471082134223355,-0.8741145378108882
13504,1.0,299.81889,46808.03400000001,0.0,-0.13504021471512928,0.0,0.0,0.0,0.0,-3.061792745325417,-6.954096441740884,-4.212584352324706,0.0006754002243793123,-0.0008692074283715942,-0.9052907539102412
13505,1.0,299.89181,46715.265999999996,0.0,-0.13505021070254863,0.0,0.0,0.0,0.0,-3.093267029206687,-6.925013022795574,-4.181994331805706,-0.015893816750597586,0.008219296144031373,-0.9056929128749313
13506,1.0,300.59852,46579.217000000004,0.0,-0.13506020668996788,0.0,0.0,0.0,0.0,-3.052294336237997,-6.936903208744043,-4.169721137319436,0.006433765664263234,0.0010247032711803389,-0.9119766846950912
13507,1.0,300.50957,46525.987,0.0,-0.13507020267738723,0.0,0.0,0.0,0.0,-3.0817362430686868,-6.920148206415454,-4.140853641970436,-0.009730897701664831,-0.004838277738800836,-0.9093125056771572
13508,1.0,299.60792000000004,46588.304000000004,0.0,-0.13508019866480647,0.0,0.0,0.0,0.0,-3.076959275472237,-6.9083451599755845,-4.176376569276275,0.0056824097096601755,0.004360542880952076,-0.8980635246569691
13509,1.0,299.54212,46666.61,0.0,-0.1350901946522256,0.0,0.0,0.0,0.0,-3.1017477298936673,-6.929475072260944,-4.154261372593676,-0.010009796514215,0.008521228259179753,-0.9182687145035662
13510,1.0,299.35949,46600.996,0.0,-0.13510022362970264,0.0,0.0,0.0,0.0,-3.0616466346609967,-6.913882673097094,-4.190009950696786,0.014491816024480885,0.0015082797185056187,-0.9034626480798211
13511,1.0,299.57012000000003,46669.53,0.0,-0.13511021961712188,0.0,0.0,0.0,0.0,-3.108239015334307,-6.922533093175823,-4.1555996733257565,0.00013172248260249686,0.0011938348765473288,-0.8965548357880732
13512,1.0,300.34865,46804.032999999996,0.0,-0.13512021560454124,0.0,0.0,0.0,0.0,-3.098081993681887,-6.930089811096613,-4.199085429192467,0.0017290603291699683,-0.00988261285503795,-0.884415126869977
13513,1.0,299.99625,46756.114,0.0,-0.1351302115919606,0.0,0.0,0.0,0.0,-3.118790799225687,-6.918152812993524,-4.175747340964175,-0.001991910982661308,0.004842402578632925,-0.8828683499298221
13514,1.0,300.2796,46650.858,0.0,-0.13514020757937983,0.0,0.0,0.0,0.0,-3.079588760806747,-6.9291134433002535,-4.171993857293736,-0.008765278361040622,0.006665222181956213,-0.8843573817467782
13515,1.0,300.34297999999995,46630.957,0.0,-0.1351502035667992,0.0,0.0,0.0,0.0,-3.090782235986457,-6.924316109376793,-4.159548308965456,-0.02904538660280647,0.014910442329796087,-0.8907669586993541
13516,1.0,299.95217,46740.402,0.0,-0.13516019955421843,0.0,0.0,0.0,0.0,-3.065777959293727,-6.955319333286573,-4.186817807581746,-0.012619582138955789,-0.016397822549089086,-0.9163171745459641
13517,1.0,299.64833,46722.471,0.0,-0.13517019554163778,0.0,0.0,0.0,0.0,-3.107498329511207,-6.939977612197464,-4.154988683515456,-0.006717812395271463,0.01143521436206779,-0.9105845297201962
13518,1.0,299.98147,46612.355,0.0,-0.1351802245191146,0.0,0.0,0.0,0.0,-3.064437632061447,-6.930554791567502,-4.173999687191696,0.02537803121736668,-0.00904952753941883,-0.9136404008292871
13519,1.0,299.63136000000003,46447.422,0.0,-0.13519022050653373,0.0,0.0,0.0,0.0,-3.0683330720708972,-6.9241737477377425,-4.126349676064006,0.025722929392405478,-0.01040456979760109,-0.9128932200730462
13520,1.0,299.60517000000004,46610.611,0.0,-0.1352002164939532,0.0,0.0,0.0,0.0,-3.0702386915339672,-6.924682601937964,-4.173540583571386,0.018234841940638784,-0.012731121723213888,-0.8974488871463091
13521,1.0,299.61757,46885.869000000006,0.0,-0.13521021248137255,0.0,0.0,0.0,0.0,-3.119984407843487,-6.946086801025393,-4.186062328307186,0.0025516605327542876,-0.008556970352482221,-0.9069460702011081
13522,1.0,299.25234,46756.719000000005,0.0,-0.1352202084687918,0.0,0.0,0.0,0.0,-3.0858954320791674,-6.940479474971993,-4.186500255000405,-0.0015221357109730987,-0.007638727952083752,-0.8992137256404852
13523,1.0,300.21072999999996,46553.413,0.0,-0.13523020445621114,0.0,0.0,0.0,0.0,-3.076640203015747,-6.915332532665183,-4.159102276271436,-0.016640871863826182,0.004011718969725836,-0.9056201919152541
13524,1.0,300.54545,46659.952000000005,0.0,-0.13524020044363028,0.0,0.0,0.0,0.0,-3.066555122120427,-6.937183676371723,-4.179721510506396,-0.0035091998117810566,-0.003060905340887837,-0.8951757010769632
13525,1.0,300.14653,46809.621,0.0,-0.13525019643104974,0.0,0.0,0.0,0.0,-3.0947336074014267,-6.928857800300023,-4.205364540062166,-0.015810144583839787,0.014413056094207887,-0.8967803042003252
13526,1.0,299.95263,46825.672,0.0,-0.13526022540852656,0.0,0.0,0.0,0.0,-3.086448869283787,-6.9510617576913845,-4.196324322669966,-0.005562916922717155,0.014310151427301986,-0.8916397115404882
13527,1.0,300.29755,46748.185,0.0,-0.1352702213959459,0.0,0.0,0.0,0.0,-3.098190512767597,-6.943487206568834,-4.168603218484106,-0.0073126308353004725,0.004503746733485196,-0.8960589613216342
13528,1.0,299.96861,46598.259000000005,0.0,-0.13528021738336504,0.0,0.0,0.0,0.0,-3.0760016528027267,-6.921736881247244,-4.166968643422786,0.0003689774050527346,-0.001974678232910568,-0.887412918483336
13529,1.0,300.77216,46763.71400000001,0.0,-0.1352902133707845,0.0,0.0,0.0,0.0,-3.120360222305577,-6.943094572155084,-4.151546470275736,-4.904017810588875e-05,-0.001967262154103658,-0.8828010498581802
13530,1.0,300.11827,46998.522000000004,0.0,-0.13530020935820364,0.0,0.0,0.0,0.0,-3.1195338155240173,-6.950536286189522,-4.216307033192106,0.012084952882691988,-0.013455125396667487,-0.8799958162938253
13531,1.0,299.87778,47012.004,0.0,-0.1353102053456231,0.0,0.0,0.0,0.0,-3.138682114588807,-6.956528140655874,-4.195265071015426,0.002236369120337448,-0.0056518572807198846,-0.8837209897564711
13532,1.0,300.08261,46794.897000000004,0.0,-0.13532020133304223,0.0,0.0,0.0,0.0,-3.075752595928147,-6.945302444122984,-4.203425280695776,-0.005911910350685124,-0.01194167019930109,-0.9017001197958732
13533,1.0,300.33765,46728.78400000001,0.0,-0.1353301973204617,0.0,0.0,0.0,0.0,-3.091023896135307,-6.939770402552014,-4.173589219576186,0.006719248778613224,-0.0003653431505215617,-0.8958911873700761
13534,1.0,299.84292999999997,46871.824,0.0,-0.1353402262979384,0.0,0.0,0.0,0.0,-3.089785299213067,-6.948680518631373,-4.2093982887102666,0.002074478402835078,0.0047166331126204455,-0.9164785852868942
13535,1.0,300.52063,46754.026,0.0,-0.13535022228535787,0.0,0.0,0.0,0.0,-3.095385937815807,-6.937227955401093,-4.179442664078876,0.0027370253166483674,-0.0014319057895680986,-0.9188394681523953
13536,1.0,300.19717,46567.514,0.0,-0.135360218272777,0.0,0.0,0.0,0.0,-3.041892209386387,-6.942818360177823,-4.170650794286186,0.018097448266829082,-0.008455034150021903,-0.9197922474864271
13537,1.0,300.90814,46653.535,0.0,-0.13537021426019635,0.0,0.0,0.0,0.0,-3.083602041802827,-6.937712390273903,-4.160195370479316,-0.008922321791389602,0.003926135205329376,-0.913878291687765
13538,1.0,300.62667999999996,46833.675,0.0,-0.1353802102476156,0.0,0.0,0.0,0.0,-3.0913737713948373,-6.947590565498802,-4.197303527566606,-0.0017599841142719084,-0.0014207405840661786,-0.9076242384930382
13539,1.0,299.88277999999997,46951.435,0.0,-0.13539020623503495,0.0,0.0,0.0,0.0,-3.106787534566057,-6.970122815922563,-4.195153613504426,-0.024252559615791276,0.0019074945837050583,-0.8894631692656801
13540,1.0,299.83002,46874.587999999996,0.0,-0.1354002022224544,0.0,0.0,0.0,0.0,-3.111870301042687,-6.938016466628914,-4.198817627191036,-0.012213683268146688,0.009370755482846561,-0.8842696849506232
13541,1.0,299.98798999999997,46821.983,0.0,-0.13541019820987354,0.0,0.0,0.0,0.0,-3.102936373585977,-6.952666644524774,-4.177110567648716,-0.015083082921584386,-0.001228517110245199,-0.8898574654095942
13542,1.0,299.85667,46876.490999999995,0.0,-0.135420194197293,0.0,0.0,0.0,0.0,-3.0873193524446974,-6.951698889354263,-4.210264516220756,0.0012055390297774388,-0.004618221399307966,-0.8996743187384422
13543,1.0,300.53772000000004,47034.86,0.0,-0.13543022317476971,0.0,0.0,0.0,0.0,-3.1345928398352267,-6.966170025957453,-4.1966600124280955,-0.01053437118841149,-0.014631689121285287,-0.9249302867560122
13544,1.0,300.26103,46908.986,0.0,-0.13544021916218896,0.0,0.0,0.0,0.0,-3.106337854171677,-6.9579013985164035,-4.194921173931486,0.0067448286826877635,-0.012957701670825588,-0.8998757325933201
13545,1.0,299.96979,46705.655999999995,0.0,-0.1354502151496083,0.0,0.0,0.0,0.0,-3.087603873072777,-6.949444306556752,-4.160304902815126,0.007308073135025663,0.0008063400320745651,-0.9187219716707992
13546,1.0,299.54726,46775.42,0.0,-0.13546021113702755,0.0,0.0,0.0,0.0,-3.073907467496047,-6.953737244580434,-4.190915087011116,0.018968346860280084,0.0030178897330675274,-0.9005256514724622
13547,1.0,299.15798,47028.453,0.0,-0.1354702071244469,0.0,0.0,0.0,0.0,-3.114200066997617,-6.970937975628013,-4.2103373689029455,0.004269056428098066,0.001958189310058238,-0.9099203949421512
13548,1.0,299.18403,47038.494000000006,0.0,-0.13548020311186626,0.0,0.0,0.0,0.0,-3.087868939298937,-6.971839362916974,-4.238819221263886,-0.001954425693886798,-0.001126077930435239,-0.8950684181563752
13549,1.0,300.44982999999996,46830.732,0.0,-0.1354901990992855,0.0,0.0,0.0,0.0,-3.101003092395177,-6.949249053262484,-4.185120917639276,-0.008117539996113822,0.0039029820352443367,-0.8902726547705702
13550,1.0,300.45992,46771.427,0.0,-0.13550019508670486,0.0,0.0,0.0,0.0,-3.064528621920427,-6.953765210283194,-4.1990521945891865,-0.015384731529354788,3.112063426511747e-05,-0.9060392924216162
13551,1.0,299.80945,46772.279,0.0,-0.13551022406418167,0.0,0.0,0.0,0.0,-3.1011169817064173,-6.942324198104053,-4.174163833707896,0.005169228323563115,-0.008209663276655682,-0.9065363321256702
13552,1.0,299.95367000000005,46843.058,0.0,-0.13552022005160091,0.0,0.0,0.0,0.0,-3.082898035633347,-6.9589741263972735,-4.197247900136116,-0.013130990742677885,0.005345429881502855,-0.9145484046414002
13553,1.0,300.24617,46953.297999999995,0.0,-0.13553021603902027,0.0,0.0,0.0,0.0,-3.115664416042137,-6.968954133257223,-4.188011618849567,0.014581893958370885,0.0008119745740256513,-0.9192170355371581
13554,1.0,299.98573999999996,46951.002,0.0,-0.1355402120264395,0.0,0.0,0.0,0.0,-3.085977201362237,-6.973541724409984,-4.212413417032836,0.008094163607031753,0.005581239726925475,-0.9334097310128681
13555,1.0,299.57662,46917.427,0.0,-0.13555020801385909,0.0,0.0,0.0,0.0,-3.1091540814996175,-6.971845341092563,-4.1807269585806255,0.015624133143731884,0.015048348708156386,-0.91562427359758
13556,1.0,299.31289,47106.40900000001,0.0,-0.13556020400127822,0.0,0.0,0.0,0.0,-3.108261509486527,-6.9756234467404346,-4.235287132740296,0.0005890896252886195,0.0014025442334703387,-0.8962497056529591
13557,1.0,299.91004,47164.937000000005,0.0,-0.13557019998869746,0.0,0.0,0.0,0.0,-3.1444335248064266,-6.960340494157124,-4.232189221884556,-0.0008623261936299692,-0.004416095736234716,-0.8794781569502361
13558,1.0,300.35462,46952.489,0.0,-0.1355801959761168,0.0,0.0,0.0,0.0,-3.091366982619167,-6.952941032651854,-4.228076135753626,-0.011755998197976687,0.005347024534510234,-0.8670174098704563
13559,1.0,300.83783,46887.14,0.0,-0.13559022495359363,0.0,0.0,0.0,0.0,-3.101197231114337,-6.949324236419903,-4.201998320579946,0.011787085724294788,-0.0016300561685240183,-0.8883024304811241
13560,1.0,299.99629,47026.519,0.0,-0.13560022094101287,0.0,0.0,0.0,0.0,-3.102143708032747,-6.962322614002743,-4.230421100460056,-0.012984236664444388,0.0043440028902947065,-0.8725689666383523
13561,1.0,300.60594,47227.977,0.0,-0.13561021692843223,0.0,0.0,0.0,0.0,-3.156037872901687,-6.991011676009133,-4.209076176503475,0.006440923364294644,-0.011589563763050889,-0.9097607067263911
13562,1.0,300.08921000000004,47033.432,0.0,-0.13562021291585158,0.0,0.0,0.0,0.0,-3.099678673189467,-6.973888559919214,-4.223421771419276,-0.0016586768361486585,0.0007675977761535022,-0.910989718302685
13563,1.0,300.41427999999996,46881.258,0.0,-0.13563020890327093,0.0,0.0,0.0,0.0,-3.089078759918337,-6.983915784233823,-4.1777374654855866,0.004444416481829756,0.0019092956357578082,-0.9134581475338002
13564,1.0,299.6392,46966.97,0.0,-0.13564020489069017,0.0,0.0,0.0,0.0,-3.089049476990447,-6.974352020514953,-4.213384515928675,-0.008663183179639612,0.0010356059435813491,-0.9188942343203002
13565,1.0,299.65706,47094.437999999995,0.0,-0.13565020087810942,0.0,0.0,0.0,0.0,-3.123011087217197,-6.982141684633734,-4.210380330707186,-0.013045265731217486,0.005097319889141305,-0.914888806012495
13566,1.0,299.65339,46989.551,0.0,-0.13566019686552877,0.0,0.0,0.0,0.0,-3.0842347151652674,-6.989839953593494,-4.2095754048277465,-0.022760409015027478,0.014134646377480986,-0.9290593417085181
13567,1.0,300.10132000000004,46761.715,0.0,-0.1356702258430056,0.0,0.0,0.0,0.0,-3.078452502144607,-6.954972700427364,-4.180968416079456,0.0003724624990366867,-0.003163929571305537,-0.8923374152943462
13568,1.0,299.66638,46758.274000000005,0.0,-0.13568022183042472,0.0,0.0,0.0,0.0,-3.0581074533867074,-6.966252605840603,-4.188987682670896,-0.0008320252736295013,-0.0017702348615585783,-0.9178213645844161
13569,1.0,300.00171,47161.293,0.0,-0.13569021781784418,0.0,0.0,0.0,0.0,-3.1213680008550373,-6.9850502190457835,-4.2294372346129565,0.018420021502414584,-0.011145740967498988,-0.8865768148983192
13570,1.0,299.86332000000004,47247.096,0.0,-0.13570021380526354,0.0,0.0,0.0,0.0,-3.1091604649752473,-6.996490521949852,-4.256286538412776,0.012871192403787788,0.007263480403424702,-0.9103409646611582
13571,1.0,300.29093,46958.279,0.0,-0.1357102097926829,0.0,0.0,0.0,0.0,-3.087883327450357,-6.982518208370893,-4.2037426306270955,0.024470304022530975,0.007520252569566143,-0.8889749347049951
13572,1.0,300.94497,46991.005999999994,0.0,-0.13572020578010213,0.0,0.0,0.0,0.0,-3.0961167951129367,-6.979089572682514,-4.208885989459706,0.0049079843807553454,0.005177067332961765,-0.9145013087767522
13573,1.0,300.06147999999996,47200.663,0.0,-0.13573020176752126,0.0,0.0,0.0,0.0,-3.155876158185727,-6.984825986798652,-4.207120806460496,-0.004009130824995406,-0.012071807989144687,-0.8998867466219072
13574,1.0,299.85703,47171.285,0.0,-0.13574019775494073,0.0,0.0,0.0,0.0,-3.132000946079427,-6.989342650444413,-4.217549176489696,-0.02161151107114008,-0.006923217036993323,-0.9075307053763072
13575,1.0,300.22649,47051.602999999996,0.0,-0.13575022673241754,0.0,0.0,0.0,0.0,-3.139492917318827,-6.959642364838224,-4.2033770499910155,-0.007049424632349043,-0.015695472030272484,-0.8885881974068272
13576,1.0,300.14086000000003,47080.82,0.0,-0.13576022271983668,0.0,0.0,0.0,0.0,-3.1175813839063267,-6.977809533831184,-4.2160028555120865,0.0030046120024321173,-0.005104968508846165,-0.890121954083197
13577,1.0,300.09017,47228.977999999996,0.0,-0.13577021870725603,0.0,0.0,0.0,0.0,-3.1362519355489673,-6.987826828294813,-4.232351341900556,0.014554459198663288,0.0035097506145354168,-0.8984469486273102
13578,1.0,299.54321,47160.405999999995,0.0,-0.1357802146946755,0.0,0.0,0.0,0.0,-3.117132311462007,-6.985910671030703,-4.232542846169457,0.010415965821475791,0.023244175142771478,-0.9139071591831142
13579,1.0,299.1776,47046.929000000004,0.0,-0.13579021068209485,0.0,0.0,0.0,0.0,-3.102864635478897,-6.988538737815073,-4.209688382213896,0.007320877677864374,0.003258792882767817,-0.8947126052512592
13580,1.0,300.16649,46987.545999999995,0.0,-0.1358002066695141,0.0,0.0,0.0,0.0,-3.0888559462213467,-6.973096704966064,-4.221087851138936,-0.018474645815305585,0.0071862102547737335,-0.9176524051302412
13581,1.0,299.39905,46934.22900000001,0.0,-0.13581020265693322,0.0,0.0,0.0,0.0,-3.0860179340162572,-6.985547826169894,-4.1952679081157065,0.0026597923542760675,0.0012547904826881787,-0.9201362762928801
13582,1.0,299.1117,47019.817,0.0,-0.13582019864435269,0.0,0.0,0.0,0.0,-3.0941314328669973,-6.993442564324043,-4.205276184653446,-0.0015111400222129086,0.01172002173992609,-0.9273473239420551
13583,1.0,299.07777999999996,47129.083,0.0,-0.13583019463177204,0.0,0.0,0.0,0.0,-3.121224321990857,-6.989203835180714,-4.215636058975886,0.008103887666916441,-0.0066040218759162135,-0.9031761313490442
13584,1.0,299.4603,46967.598,0.0,-0.13584022360924863,0.0,0.0,0.0,0.0,-3.0819833747680767,-6.996809087781294,-4.198184548528556,-0.01693257846161538,-0.006254737746494554,-0.9245215112681691
13585,1.0,299.55216,46979.187000000005,0.0,-0.1358502195966682,0.0,0.0,0.0,0.0,-3.1047468488646572,-6.981418730687383,-4.194334299473566,0.003395985223782647,-0.003164542486291027,-0.9085645345858381
13586,1.0,299.71043,47226.209,0.0,-0.13586021558408734,0.0,0.0,0.0,0.0,-3.1041933103350265,-7.009866639169973,-4.2415283480562564,-0.005371735576624025,0.005327618464620005,-0.919764342578673
13587,1.0,299.51197,47220.822,0.0,-0.1358702115715068,0.0,0.0,0.0,0.0,-3.155801785628387,-7.000666733562014,-4.197482366209256,0.006965454874036874,0.004349344744821905,-0.8974084078048141
13588,1.0,300.14047,47123.331,0.0,-0.13588020755892594,0.0,0.0,0.0,0.0,-3.119632506083757,-6.988394957625884,-4.216288389390266,-0.012958266051131288,-0.012367282864055789,-0.9030710775786762
13589,1.0,300.10552,47062.543,0.0,-0.13589020354634518,0.0,0.0,0.0,0.0,-3.130944835500197,-6.991764926133473,-4.183128057342596,0.004626495599624566,-0.017482295011868185,-0.9132502995407871
13590,1.0,300.11236,47003.425,0.0,-0.13590019953376453,0.0,0.0,0.0,0.0,-3.1002115414170572,-6.979794490777084,-4.207861492283596,-0.01116054556471009,0.0095499471418314,-0.8927157527491852
13591,1.0,300.5047,47131.407,0.0,-0.135910195521184,0.0,0.0,0.0,0.0,-3.1160047667507267,-6.989424217077464,-4.221341670288986,-0.0016185219373356782,0.012108018507968388,-0.8814492728997702
13592,1.0,300.0711,47398.565,0.0,-0.1359202244986607,0.0,0.0,0.0,0.0,-3.129688912001247,-7.025225585510783,-4.253065821644916,-0.012969754280765087,0.012201789738472888,-0.8828627263917671
13593,1.0,300.33499,47423.291,0.0,-0.13593022048608017,0.0,0.0,0.0,0.0,-3.152196743097597,-7.014238408051433,-4.249061051949676,0.0023277645833324778,0.01166309228305759,-0.8876867594553621
13594,1.0,300.28668999999996,47290.64,0.0,-0.1359402164734993,0.0,0.0,0.0,0.0,-3.129733191030617,-7.024902561378903,-4.220537960309667,0.01853057012807488,0.0029696450454561475,-0.9048386315831201
13595,1.0,299.69074,47237.005999999994,0.0,-0.13595021246091876,0.0,0.0,0.0,0.0,-3.126625046348867,-7.014762359678143,-4.217482808608146,0.009880616954990972,-0.01789213441231618,-0.8943093215789581
13596,1.0,299.63442000000003,47241.612,0.0,-0.1359602084483379,0.0,0.0,0.0,0.0,-3.138295458350647,-7.008868891796503,-4.213106074801196,-0.007945197705154963,-0.027761196465816772,-0.9040094586287872
13597,1.0,299.90247999999997,47005.107,0.0,-0.13597020443575714,0.0,0.0,0.0,0.0,-3.081565814401867,-7.009854074868734,-4.196958819882586,-0.005846698182199184,-0.0069215237947512125,-0.9278170666884151
13598,1.0,299.56615,46836.005,0.0,-0.1359802004231767,0.0,0.0,0.0,0.0,-3.0810726655781973,-6.964127820380903,-4.191775538996036,-0.002078764754733108,0.024361429286035876,-0.9117898008466472
13599,1.0,299.73252,47022.018,0.0,-0.13599019641059584,0.0,0.0,0.0,0.0,-3.106821985069457,-6.997620397136363,-4.189076848679696,-2.5708578731239176e-05,0.013090110154143289,-0.91858539568982
13600,1.0,299.48571,47111.942,0.0,-0.13600022538807266,0.0,0.0,0.0,0.0,-3.111660659596997,-7.004484862588834,-4.204708561947426,-0.0049411597089044955,0.0025129231708312075,-0.9244393569500611
13601,1.0,300.18697000000003,47325.552,0.0,-0.136010221375492,0.0,0.0,0.0,0.0,-3.1442751538157974,-7.021718524264664,-4.219792410886086,0.004448182935101476,0.005736027459901834,-0.9207535482538002
13602,1.0,300.64432999999997,47337.914000000004,0.0,-0.13602021736291126,0.0,0.0,0.0,0.0,-3.1292211957550866,-7.021735141566302,-4.238587288315996,0.016224542596487684,0.007024398064154114,-0.9003720326248011
13603,1.0,300.68478999999996,47152.304000000004,0.0,-0.1360302133503306,0.0,0.0,0.0,0.0,-3.119478897368597,-6.992022798283923,-4.221621327316586,0.01007559971148427,-0.004251334481199046,-0.8687979740061842
13604,1.0,300.18032,47268.424000000006,0.0,-0.13604020933774985,0.0,0.0,0.0,0.0,-3.1351957236447268,-7.005353825874594,-4.227871155258396,0.013583631853850088,0.0012711881117064988,-0.8821245331639131
13605,1.0,300.27027999999996,47460.958,0.0,-0.1360502053251692,0.0,0.0,0.0,0.0,-3.1750457355026174,-7.014478852300164,-4.237421341425926,0.004842484651891026,0.013773920222630088,-0.8858297658645911
13606,1.0,300.02403,47259.944,0.0,-0.13606020131258867,0.0,0.0,0.0,0.0,-3.139888388832857,-6.999759976047523,-4.226194631642936,0.005182118384710265,0.012252144215442488,-0.8945104314588062
13607,1.0,299.88711,47074.99,0.0,-0.1360701973000078,0.0,0.0,0.0,0.0,-3.107349584396527,-7.004512321666543,-4.197759591436617,-0.008780020339395542,0.0071241477742236435,-0.8931207994766602
13608,1.0,299.4993,47279.639,0.0,-0.13608022627748462,0.0,0.0,0.0,0.0,-3.143136767328447,-7.001264956421053,-4.227427858339645,-0.02132685872054708,-0.005963177765994824,-0.9048088622951821
13609,1.0,299.87428,47464.602,0.0,-0.13609022226490397,0.0,0.0,0.0,0.0,-3.1516888008224675,-7.0203873162832835,-4.255977598457287,-0.02090313475397878,0.005663621823655954,-0.8954606776675882
13610,1.0,300.36158,47314.654,0.0,-0.1361002182523232,0.0,0.0,0.0,0.0,-3.139875824531617,-7.017406942439143,-4.225190500793836,-0.02486209946519818,0.00048745784368834353,-0.9043755458899171
13611,1.0,300.80145,47171.657,0.0,-0.13611021423974257,0.0,0.0,0.0,0.0,-3.1139249695954674,-7.007119819473885,-4.217960961330336,-0.00943950409683152,-0.0014858304532650486,-0.8972388404005792
13612,1.0,299.88943,47190.005,0.0,-0.1361202102271618,0.0,0.0,0.0,0.0,-3.1170588508297574,-7.018578867504803,-4.2089452645905565,0.017279010697305586,-0.017152364567306583,-0.9164285205994532
13613,1.0,300.62371,47309.837,0.0,-0.13613020621458116,0.0,0.0,0.0,0.0,-3.122703261836817,-7.025399965852993,-4.232905995005296,0.020952574266108078,-0.0012568926726706487,-0.926731166556245
13614,1.0,300.62769,47330.275,0.0,-0.13614020220200052,0.0,0.0,0.0,0.0,-3.1308890054196867,-7.024559069595003,-4.231773586693536,0.025366765902754874,-0.015182131158609686,-0.9001871144815511
13615,1.0,300.70005,47271.265,0.0,-0.13615019818941976,0.0,0.0,0.0,0.0,-3.106490753611767,-7.022011758843602,-4.240781684057566,0.012130541031191187,-0.0014014791049652186,-0.9185790426116932
13616,1.0,300.04731,47075.873,0.0,-0.13616022716689657,0.0,0.0,0.0,0.0,-3.1011723051618767,-7.005542999668264,-4.203174501296026,0.013467809261419288,0.008115458071133352,-0.9083062571353482
13617,1.0,300.23036,47144.564000000006,0.0,-0.13617022315431593,0.0,0.0,0.0,0.0,-3.0983665143099675,-7.0194571526914835,-4.212946487910446,-0.009659189586787792,0.008049524772551242,-0.93175866023992
13618,1.0,299.43259,47341.78400000001,0.0,-0.13618021914173517,0.0,0.0,0.0,0.0,-3.133272372304907,-7.022957323836923,-4.234490414186666,-0.015670473123805286,-0.013715665434630786,-0.9044233611621362
13619,1.0,300.2016,47331.197,0.0,-0.13619021512915452,0.0,0.0,0.0,0.0,-3.144042207617807,-7.0290853591167135,-4.214374359951366,-0.03492636516371387,-0.004708057267749075,-0.9126357126926322
13620,1.0,299.49363,47215.875,0.0,-0.13620021111657377,0.0,0.0,0.0,0.0,-3.1313042353106675,-7.019821010802394,-4.201321773488176,-0.006424454706444313,0.0008658542899481651,-0.9081135369663282
13621,1.0,299.94852000000003,47319.28599999999,0.0,-0.13621020710399312,0.0,0.0,0.0,0.0,-3.142951241235137,-7.005628214001674,-4.235301926191756,-0.015041777781257884,0.0095478608598755,-0.9002775065229721
13622,1.0,300.06414,47400.172,0.0,-0.13622020309141247,0.0,0.0,0.0,0.0,-3.160822034573847,-7.013675142320844,-4.233971427485446,0.005108214252891495,0.0035532439697778767,-0.8842574550219161
13623,1.0,300.28009,47423.992999999995,0.0,-0.13623019907883172,0.0,0.0,0.0,0.0,-3.124247657639237,-7.037933464289953,-4.253528572965586,0.006803701553248063,0.02142119939760778,-0.9062236026148062
13624,1.0,299.75638,47452.005,0.0,-0.13624019506625107,0.0,0.0,0.0,0.0,-3.141303493922517,-7.026038617391023,-4.256882430796587,0.02279258679845318,0.00963145824877592,-0.9224689198780941
13625,1.0,300.47923,47408.349,0.0,-0.13625022404372789,0.0,0.0,0.0,0.0,-3.151312682385347,-7.016638290913283,-4.243003437551836,0.014569720771669488,0.007221683330174654,-0.8985455682595432
13626,1.0,300.06202,47308.122,0.0,-0.13626022003114702,0.0,0.0,0.0,0.0,-3.139214780166377,-7.018624362434292,-4.222648762917986,0.01910849860086198,-0.012086227551317788,-0.904641057946121
13627,1.0,300.33774,47331.039000000004,0.0,-0.13627021601856648,0.0,0.0,0.0,0.0,-3.125644524227097,-7.023274876418264,-4.2385344979857855,-0.0006669151971144054,0.012475796883515288,-0.9120888312161591
13628,1.0,300.24664,47378.1,0.0,-0.13628021200598583,0.0,0.0,0.0,0.0,-3.1270323728890674,-7.041904594081873,-4.232822503197056,0.0026918402390389475,0.0029112204367400876,-0.9184822670946421
13629,1.0,300.37147999999996,47306.758,0.0,-0.13629020799340508,0.0,0.0,0.0,0.0,-3.099544214901197,-7.040348343253283,-4.240180624098246,-0.01081757661786169,-0.0069701838135785826,-0.9266308142663412
13630,1.0,300.34661,47278.937000000005,0.0,-0.13630020398082443,0.0,0.0,0.0,0.0,-3.1126018676148868,-7.0337196610990835,-4.225294764229126,0.00039909142093975665,-0.009650187771574382,-0.8966308194130722
13631,1.0,300.74553,47430.639,0.0,-0.13631019996824367,0.0,0.0,0.0,0.0,-3.128300354064207,-7.040406807784054,-4.249022852420906,-0.013513561556434687,0.008652248792510472,-0.9175525797303892
13632,1.0,300.22726,47532.449,0.0,-0.13632019595566303,0.0,0.0,0.0,0.0,-3.147915761425097,-7.042422871508023,-4.258338876490326,0.0001254057700215859,0.0006496290794808984,-0.903102498464277
13633,1.0,299.79215,47425.58,0.0,-0.13633022493313984,0.0,0.0,0.0,0.0,-3.119623386832857,-7.042056074971824,-4.254512641462705,-0.01680328268260488,-0.003259412079903927,-0.9273075640081312
13634,1.0,299.32451000000003,47346.197,0.0,-0.13634022092055897,0.0,0.0,0.0,0.0,-3.131758171355467,-7.024924143606034,-4.235379439824406,0.01006267996210919,-0.002339641394379628,-0.8951803822924251
13635,1.0,299.72143,47391.420999999995,0.0,-0.13635021690797833,0.0,0.0,0.0,0.0,-3.116586473633137,-7.033313753109023,-4.255908393475456,0.010048656175425151,0.01976293961520028,-0.9264454806905501
13636,1.0,299.99656,47474.647000000004,0.0,-0.1363602128953978,0.0,0.0,0.0,0.0,-3.174494730098237,-7.028796177538173,-4.227816237102975,0.006637306229776123,0.0017962276650488683,-0.9059542199432201
13637,1.0,299.76558,47508.288,0.0,-0.13637020888281692,0.0,0.0,0.0,0.0,-3.1666785188268367,-7.021084635002103,-4.2535700148946765,-0.014231743094813686,0.0003498922517341767,-0.8920523576437132
13638,1.0,299.55185,47465.114,0.0,-0.1363802048702364,0.0,0.0,0.0,0.0,-3.1638778955504367,-7.024697783533693,-4.239633773019276,-0.003647708466000796,-0.010422673537137791,-0.8824556936940962
13639,1.0,300.18503,47493.664000000004,0.0,-0.13639020085765552,0.0,0.0,0.0,0.0,-3.125983051085507,-7.048675029925063,-4.2622297568743255,-0.0035021946058896966,0.00901224246886408,-0.8905179930172832
13640,1.0,300.56149,47685.374,0.0,-0.13640019684507498,0.0,0.0,0.0,0.0,-3.153999821650547,-7.057565894252523,-4.283597276308137,-0.01206309505153479,-0.012714563190079688,-0.9037117353519042
13641,1.0,300.71972999999997,47745.097,0.0,-0.1364102258225517,0.0,0.0,0.0,0.0,-3.157868511857357,-7.064102775947664,-4.2913459037978665,-0.024797493625572077,-0.02271719491151258,-0.8869894610015442
13642,1.0,300.31369,47480.827000000005,0.0,-0.13642022180997093,0.0,0.0,0.0,0.0,-3.157670928087857,-7.040042139073063,-4.235272845913886,-0.005320303913473115,-0.02379760424139068,-0.9061306166531291
13643,1.0,300.02824,47390.35400000001,0.0,-0.13643021779739029,0.0,0.0,0.0,0.0,-3.137102052382867,-7.040450580188374,-4.227931848939386,0.007036773495575473,0.014934699537190087,-0.9224654140327482
13644,1.0,300.3829,47520.97,0.0,-0.13644021378480975,0.0,0.0,0.0,0.0,-3.1366904701922467,-7.0488737282696725,-4.2596239815921555,0.018229531496864685,-0.0026306745861523675,-0.937562232572688
13645,1.0,300.01648,47409.752,0.0,-0.13645020977222888,0.0,0.0,0.0,0.0,-3.1043008161706367,-7.056374514784943,-4.250705455536966,-0.005363616302247715,-0.012727133570820288,-0.942874601521978
13646,1.0,299.20259,47273.16,0.0,-0.13646020575964823,0.0,0.0,0.0,0.0,-3.098641409062097,-7.042592185599734,-4.228626837182976,0.007206333401759734,-0.006730446306793334,-0.9379943837403382
13647,1.0,299.77207999999996,47378.33,0.0,-0.13647020174706748,0.0,0.0,0.0,0.0,-3.1265623261676767,-7.031655873295403,-4.243610982311796,0.018772124898914482,0.01788654329826438,-0.9318847490823642
13648,1.0,300.05765,47424.687000000005,0.0,-0.13648019773448683,0.0,0.0,0.0,0.0,-3.1651494231009267,-7.028692420727935,-4.2220790123867555,0.0037851672917919264,0.009048676814634872,-0.9127521756591263
13649,1.0,300.0995,47546.19,0.0,-0.13649022671196365,0.0,0.0,0.0,0.0,-3.140419129235237,-7.046288623289543,-4.266146677785896,-0.015902328051437584,0.0008069075331905733,-0.9061022456503293
13650,1.0,300.37329,47714.53400000001,0.0,-0.1365002226993829,0.0,0.0,0.0,0.0,-3.181729943762297,-7.0398116246753135,-4.282485436973405,-0.011366228242259389,0.006351114954931244,-0.8948021157650933
13651,1.0,299.91762,47655.287000000004,0.0,-0.13651021868680246,0.0,0.0,0.0,0.0,-3.1340808445596973,-7.055251631024123,-4.296684718574766,-0.003982364607703786,0.017790350400020884,-0.9073304263615413
13652,1.0,300.63437999999996,47566.888,0.0,-0.1365202146742216,0.0,0.0,0.0,0.0,-3.143691521758197,-7.053551194706302,-4.261903389017116,0.005894015543319045,0.0034243844962604368,-0.897318117088403
13653,1.0,300.97245,47674.545,0.0,-0.13653021066164084,0.0,0.0,0.0,0.0,-3.158617303681257,-7.054371218012234,-4.278882826242855,-0.010001655556286551,-0.017470542323958282,-0.8954577797723021
13654,1.0,300.83139,47669.682,0.0,-0.1365402066490602,0.0,0.0,0.0,0.0,-3.199693550810167,-7.058826478701934,-4.2318728852033365,0.008247431667508132,-0.005984728177071684,-0.9044885536735701
13655,1.0,300.07242,47462.14,0.0,-0.13655020263647943,0.0,0.0,0.0,0.0,-3.135963057945457,-7.049969558252823,-4.241372712840896,0.004970641436464115,0.011830024223782489,-0.9174534636056071
13656,1.0,299.89927,47454.481,0.0,-0.1365601986238988,0.0,0.0,0.0,0.0,-3.135412356516107,-7.042450938535794,-4.247114091882525,0.012320514279190089,0.015471451552413385,-0.9186255203937801
13657,1.0,300.16677999999996,47584.619000000006,0.0,-0.1365702276013756,0.0,0.0,0.0,0.0,-3.132352138564087,-7.063662822754243,-4.268521026745226,0.005275076785984545,0.006218907703083404,-0.926457315451718
13658,1.0,300.23652000000004,47622.304000000004,0.0,-0.13658022358879496,0.0,0.0,0.0,0.0,-3.143765185040467,-7.058791116273444,-4.273434985755196,0.0026883597249454474,0.0071975061695385536,-0.9231476758550821
13659,1.0,299.9447,47589.282999999996,0.0,-0.13659021957621442,0.0,0.0,0.0,0.0,-3.160573889624357,-7.068124568244584,-4.237255371059546,-0.0029941399613236074,-0.004837053834005046,-0.93264363287726
13660,1.0,299.29771,47545.96599999999,0.0,-0.13660021556363355,0.0,0.0,0.0,0.0,-3.151314506235527,-7.050670828647033,-4.250801207671416,-0.004123777135385116,-0.011024642381797489,-0.896064372077168
13661,1.0,299.70387,47488.505999999994,0.0,-0.1366102115510528,0.0,0.0,0.0,0.0,-3.1141618674688467,-7.070474903176543,-4.250683366684787,-0.003861625624462777,-0.01241444762971059,-0.9308562090383552
13662,1.0,300.30191,47521.647000000004,0.0,-0.13662020753847215,0.0,0.0,0.0,0.0,-3.099715048868057,-7.079138495506573,-4.266540629424775,-0.013313907716980385,0.004539170564931256,-0.9287027080708212
13663,1.0,300.40668,47555.21599999999,0.0,-0.1366302035258914,0.0,0.0,0.0,0.0,-3.114177066220347,-7.067288839562103,-4.274132405799026,-0.0038335245514894162,0.014203064063983285,-0.9311429790816572
13664,1.0,300.0727,47493.64599999999,0.0,-0.13664019951331097,0.0,0.0,0.0,0.0,-3.128084734442927,-7.064838902145314,-4.243958932396136,-0.018305531333865283,-0.008022688641002723,-0.902559599060697
13665,1.0,300.28114,47475.084,0.0,-0.1366501955007301,0.0,0.0,0.0,0.0,-3.158436539863417,-7.049529402409383,-4.223274140879706,0.003028716310386027,-0.0064556414299472035,-0.8971409401759172
13666,1.0,300.65825,47803.740999999995,0.0,-0.13666022447820692,0.0,0.0,0.0,0.0,-3.194782124925447,-7.0638560495483125,-4.272505328788446,-0.012410745213845187,0.0018197473276950781,-0.8872773456199561
13667,1.0,301.06515,48000.223,0.0,-0.13667022046562627,0.0,0.0,0.0,0.0,-3.1918936528653767,-7.097220450166123,-4.301755224725186,0.005642820812353055,0.01037703371288349,-0.9074001582334231
13668,1.0,300.93653,47797.662000000004,0.0,-0.1366802164530455,0.0,0.0,0.0,0.0,-3.1747226100457264,-7.063325714445973,-4.291247415888146,-0.013766555920903287,0.02153923594150708,-0.8827440241425523
13669,1.0,299.85908,47701.227,0.0,-0.13669021244046475,0.0,0.0,0.0,0.0,-3.155200826994077,-7.071932564770403,-4.2728486179223255,0.011275439006799188,0.004848874713646675,-0.8964995832601201
13670,1.0,300.09947999999997,47661.475999999995,0.0,-0.1367002084278841,0.0,0.0,0.0,0.0,-3.1903975890927265,-7.044931881405644,-4.252569126445896,0.015968679720985986,-0.007017415453739984,-0.8935834596048212
13671,1.0,299.95976,47564.488,0.0,-0.13671020441530346,0.0,0.0,0.0,0.0,-3.178174246511377,-7.039469956741594,-4.2407724634816555,0.023085381626849776,-0.006498337256035954,-0.9032673035930421
13672,1.0,299.94347,47629.193,0.0,-0.1367202004027228,0.0,0.0,0.0,0.0,-3.153030343954867,-7.080008674692453,-4.245046352403456,0.0038448451895566763,-0.013550828895112686,-0.9175501377976482
13673,1.0,299.66548,47626.929000000004,0.0,-0.13673019639014206,0.0,0.0,0.0,0.0,-3.1316473217945267,-7.068213936903403,-4.277535912884925,0.01056282933072009,-0.008591990302438422,-0.926949136917757
13674,1.0,299.68306,47470.202000000005,0.0,-0.13674022536761887,0.0,0.0,0.0,0.0,-3.098891681836797,-7.080405868731653,-4.250458526487596,-0.021300593251454877,0.00924970006159932,-0.9295375552257141
13675,1.0,300.10441000000003,47623.812999999995,0.0,-0.13675022135503823,0.0,0.0,0.0,0.0,-3.129300735887937,-7.089626343316643,-4.257522906184796,-0.007625221530900773,-0.007144645925071654,-0.9170842454016681
13676,1.0,300.25642,47789.606,0.0,-0.13676021734245747,0.0,0.0,0.0,0.0,-3.188351735815817,-7.071683001270773,-4.266812180451575,-0.029920903590213266,0.007396420032444823,-0.8971649440707862
13677,1.0,300.26313,47664.210999999996,0.0,-0.1367702133298766,0.0,0.0,0.0,0.0,-3.1638230787200268,-7.098963442988143,-4.225943548268156,-0.004906384053547405,0.005970186822236563,-0.8986774022300541
13678,1.0,300.5637,47511.612,0.0,-0.13678020931729606,0.0,0.0,0.0,0.0,-3.140546393447797,-7.073245230274953,-4.228551856675575,-0.003678284098368377,0.013259531650363887,-0.9385873579638601
13679,1.0,300.2993,47671.422999999995,0.0,-0.13679020530471542,0.0,0.0,0.0,0.0,-3.137811732752907,-7.076885635234233,-4.276224868580536,-0.00093328593211565,0.006461220182347784,-0.909673749602809
13680,1.0,300.01763,47832.145,0.0,-0.13680020129213477,0.0,0.0,0.0,0.0,-3.169291690834737,-7.095997457295423,-4.274488563209176,0.01083621332695099,0.009573219672778221,-0.9372758475644241
13681,1.0,300.74397999999997,47689.449,0.0,-0.136810197279554,0.0,0.0,0.0,0.0,-3.1599300705108173,-7.060087265801363,-4.276384252821266,0.007235677327305754,0.0035301186640705868,-0.8998232057081362
13682,1.0,300.31116000000003,47586.651,0.0,-0.13682022625703083,0.0,0.0,0.0,0.0,-3.176024636424227,-7.071833266260604,-4.217295863964696,0.0003164372766899277,-0.01932237441871988,-0.9272578640907262
13683,1.0,299.87437,47688.832,0.0,-0.13683022224445018,0.0,0.0,0.0,0.0,-3.172102649262157,-7.059611950179453,-4.264499538423336,0.014253740754484687,-0.04592333669853046,-0.8798643369608491
13684,1.0,300.21191,47807.787000000004,0.0,-0.13684021823186931,0.0,0.0,0.0,0.0,-3.1813653763763172,-7.075805611952643,-4.275202600554645,0.015642816462325786,-0.01081864053046669,-0.91578548168849
13685,1.0,299.96792,47904.845,0.0,-0.13685021421928856,0.0,0.0,0.0,0.0,-3.160321387699437,-7.109142350842723,-4.2924129574781755,0.01163641340792459,-0.00099144739978074,-0.891890298422719
13686,1.0,299.61615,47796.885,0.0,-0.1368602102067079,0.0,0.0,0.0,0.0,-3.169328066513327,-7.077815393525994,-4.281916091742216,-0.018567880023257082,0.007141945309580123,-0.9055054210764271
13687,1.0,299.6744,47617.843,0.0,-0.13687020619412738,0.0,0.0,0.0,0.0,-3.154792993828827,-7.069389813644453,-4.250452446986996,-0.024700563081255775,0.0016360191453625185,-0.8810566080885172
13688,1.0,299.54249,47695.224,0.0,-0.13688020218154673,0.0,0.0,0.0,0.0,-3.174419344290797,-7.088761838331323,-4.234975862309576,-0.014746869313152685,0.00966209416952445,-0.8994580911671022
13689,1.0,300.0418,47972.515,0.0,-0.13689019816896597,0.0,0.0,0.0,0.0,-3.187575282264187,-7.096535797073553,-4.298335404312676,-0.014148459002844187,0.002937380223846857,-0.9098194752321911
13690,1.0,299.76072,47729.982,0.0,-0.13690022714644268,0.0,0.0,0.0,0.0,-3.130115084993307,-7.115539707999093,-4.2630680186820555,-0.015636351926687785,0.0031373882955361173,-0.9483595573608011
13691,1.0,300.15708,47410.47,0.0,-0.13691022313386214,0.0,0.0,0.0,0.0,-3.085580615273097,-7.077756118395143,-4.248262104245826,-0.005185047994724396,-0.0038647451175456466,-0.9390236026619142
13692,1.0,300.4501,47632.598,0.0,-0.13692021912128127,0.0,0.0,0.0,0.0,-3.149924124448307,-7.080401106456184,-4.248795175123436,0.0017509342710037583,0.012068325448550988,-0.9341002204260141
13693,1.0,300.02474,47820.001,0.0,-0.13693021510870074,0.0,0.0,0.0,0.0,-3.1723877778402967,-7.095059390352843,-4.268639273031896,0.015166750022091686,0.005243504520818605,-0.9207373463847011
13694,1.0,300.36749,47796.975,0.0,-0.1369402110961201,0.0,0.0,0.0,0.0,-3.179976311814227,-7.093828392806353,-4.255282306238666,0.0007003874784703623,0.013529718842529287,-0.931969183213197
13695,1.0,300.28424,47764.992999999995,0.0,-0.13695020708353922,0.0,0.0,0.0,0.0,-3.154634420188177,-7.093977543221072,-4.270753318040536,0.012433182624059588,0.0014357223987197685,-0.9094954479827122
13696,1.0,299.24806,47781.98,0.0,-0.13696020307095869,0.0,0.0,0.0,0.0,-3.157243032570627,-7.083444808431572,-4.2838409629571865,-0.001118221999759919,0.005061870726442745,-0.9013807129668502
13697,1.0,299.65618,47908.448,0.0,-0.13697019905837782,0.0,0.0,0.0,0.0,-3.162719244061087,-7.089786132857413,-4.310466642459937,0.0019369188599840082,-0.0007263032749530523,-0.8986461637294711
13698,1.0,299.97814,48013.625,0.0,-0.13698022803585463,0.0,0.0,0.0,0.0,-3.186449764053107,-7.111210191646803,-4.2972832454088365,-0.013085686304206687,-0.001256527294684589,-0.8943992475253332
13699,1.0,299.80042000000003,47826.347,0.0,-0.136990224023274,0.0,0.0,0.0,0.0,-3.1742332102474267,-7.0825665232448936,-4.281215429298066,-0.002485733212347768,-0.002390775871276208,-0.8898437358707392
13700,1.0,300.27655,47651.389,0.0,-0.13700022001069323,0.0,0.0,0.0,0.0,-3.157642151785017,-7.094199951618023,-4.232990196088607,-0.0014604461064598084,0.012676940200616589,-0.902682425237819
13701,1.0,300.01293,47848.653,0.0,-0.13701021599811258,0.0,0.0,0.0,0.0,-3.1758172241287568,-7.093629086511684,-4.275349521819146,0.02295818631529658,-0.0019665069788041283,-0.926778566395923
13702,1.0,299.53316,48052.19,0.0,-0.13702021198553205,0.0,0.0,0.0,0.0,-3.197898375607997,-7.098214448514223,-4.310553072693466,0.008632623455298602,-0.00016631171007368785,-0.9116135865217561
13703,1.0,300.32691,47878.775,0.0,-0.13703020797295118,0.0,0.0,0.0,0.0,-3.168468830428527,-7.100921447481384,-4.284561687753316,0.023219592682095377,0.001067868637365429,-0.911345997302847
13704,1.0,301.19241,47811.16,0.0,-0.13704020396037064,0.0,0.0,0.0,0.0,-3.177996319793817,-7.091978299448764,-4.263424074767196,-0.004126874742265826,-0.004284440705691376,-0.9047793665847711
13705,1.0,300.78188,48046.801,0.0,-0.13705019994778977,0.0,0.0,0.0,0.0,-3.207224836153447,-7.106419342523984,-4.2913835967015865,-0.0022738868331151577,-0.0024157910910700174,-0.9174134402266572
13706,1.0,300.27929,47994.575,0.0,-0.1370602289252666,0.0,0.0,0.0,0.0,-3.205609208868997,-7.1147308304442625,-4.268812336148976,-0.011594107176499288,-0.003695099085102887,-0.9234668395040811
13707,1.0,300.29879,47789.185999999994,0.0,-0.13707022491268595,0.0,0.0,0.0,0.0,-3.1318143054110075,-7.1094251489456335,-4.285479692343916,0.001125344438687849,0.012997884130041288,-0.9156985448299101
13708,1.0,299.7538,47789.21599999999,0.0,-0.1370802209001052,0.0,0.0,0.0,0.0,-3.139168069336767,-7.124150611323923,-4.263409686615776,-0.006774515593392633,0.007976571271976294,-0.9278138344205961
13709,1.0,299.82514,47747.35400000001,0.0,-0.13709021688752454,0.0,0.0,0.0,0.0,-3.122251352292217,-7.099634822504402,-4.292117189773986,0.0007550654632191594,-0.009073539236313601,-0.9057169471673032
13710,1.0,300.21786000000003,47709.16,0.0,-0.1371002128749439,0.0,0.0,0.0,0.0,-3.157050819026657,-7.090883381390703,-4.254459141857425,0.002966463541467157,-0.00966803100451037,-0.9271694884170042
13711,1.0,300.00025,47798.305,0.0,-0.13711020886236314,0.0,0.0,0.0,0.0,-3.145918240177957,-7.113629123610534,-4.2699437312106365,-0.012559180273994589,-0.004103366225370716,-0.9004103334785812
13712,1.0,299.82588,47969.072,0.0,-0.1371202048497825,0.0,0.0,0.0,0.0,-3.210120806264257,-7.1118725532371725,-4.259406842095726,-0.007366461672038163,0.005699673363538964,-0.9250859726338772
13713,1.0,300.16611,47980.17,0.0,-0.13713020083720173,0.0,0.0,0.0,0.0,-3.159061005900047,-7.114379840609623,-4.311332869970426,-0.01013184167815992,-0.0046072440503745855,-0.9204815513969562
13714,1.0,299.63912999999997,47978.015,0.0,-0.13714019682462109,0.0,0.0,0.0,0.0,-3.198768858768907,-7.111051516681144,-4.274298274840396,0.015184259997069785,0.010990442151172189,-0.9075528955534972
13715,1.0,299.10683,48020.799000000006,0.0,-0.1371502258020979,0.0,0.0,0.0,0.0,-3.167274107235617,-7.102029943090783,-4.3278197663225555,-0.0010638696431957589,-0.00038091658164353967,-0.8978668021500541
13716,1.0,299.16237,47984.52,0.0,-0.13716022178951726,0.0,0.0,0.0,0.0,-3.191851602986227,-7.117008110044013,-4.2772360921803365,0.012752839725857288,-0.02733983235873137,-0.9167760653837532
13717,1.0,299.29259,48028.083,0.0,-0.1371702177769365,0.0,0.0,0.0,0.0,-3.1802524224664768,-7.124699083603053,-4.294386464697946,-0.006356560870243714,-0.01668996889742168,-0.9293246815122052
13718,1.0,300.02853999999996,48079.242,0.0,-0.13718021376435585,0.0,0.0,0.0,0.0,-3.2153724815325573,-7.114389061185533,-4.285127385284146,0.016892618917421682,0.01033636286711959,-0.922679463116373
13719,1.0,299.8861,47793.99,0.0,-0.1371902097517751,0.0,0.0,0.0,0.0,-3.137495193421667,-7.096906139985103,-4.2937781093379055,0.012374931889060688,0.014616430588029385,-0.913500389930469
13720,1.0,299.69542,47629.367999999995,0.0,-0.13720020573919445,0.0,0.0,0.0,0.0,-3.1374759416697673,-7.085732017882303,-4.254930607128955,-0.008848020668181652,0.018972798067969383,-0.9062766969200461
13721,1.0,300.20399,48072.687999999995,0.0,-0.1372102017266137,0.0,0.0,0.0,0.0,-3.160008192093527,-7.1325771031305525,-4.320311583081556,-0.020162857270669084,0.01732165636751438,-0.9024989864397153
13722,1.0,300.05408,48156.98,0.0,-0.13722019771403304,0.0,0.0,0.0,0.0,-3.2086683122459068,-7.131967329220373,-4.297883900068117,-0.013304902963341686,0.004925289172588196,-0.9037854188991762
13723,1.0,300.18663,47958.09,0.0,-0.13723022669150986,0.0,0.0,0.0,0.0,-3.165179010003847,-7.129817415158194,-4.283065320005637,-0.01079548067293099,0.009929521673717492,-0.9150177724852231
13724,1.0,300.05093,48003.035,0.0,-0.1372402226789292,0.0,0.0,0.0,0.0,-3.1780600532251073,-7.132301093803313,-4.2813628571876166,0.003947761103538686,-0.01149891739585479,-0.9317326095798492
13725,1.0,300.12312000000003,48053.52099999999,0.0,-0.13725021866634846,0.0,0.0,0.0,0.0,-3.171215143499567,-7.121481102610463,-4.314374038820566,0.010819998285600688,0.0034161595398986967,-0.9310076392658
13726,1.0,300.11276000000004,47988.718,0.0,-0.1372602146537678,0.0,0.0,0.0,0.0,-3.1655282773133173,-7.126412286872134,-4.295431328201066,0.013623746425309089,-0.01019623544454009,-0.9285370416794712
13727,1.0,300.11032,47941.263,0.0,-0.13727021064118705,0.0,0.0,0.0,0.0,-3.147929946926497,-7.108310675160643,-4.316706236575736,0.0053795242274927045,-0.014042236955110886,-0.9220667001183982
13728,1.0,299.58942,47907.651,0.0,-0.1372802066286064,0.0,0.0,0.0,0.0,-3.175043202377367,-7.101672164480473,-4.286014080446655,0.0063955081775875135,-0.027532183704714972,-0.9177719078470352
13729,1.0,299.82324,47909.154,0.0,-0.13729020261602576,0.0,0.0,0.0,0.0,-3.1716022050377672,-7.116540697772884,-4.275043722938967,0.0027165831985308873,0.001155857756174279,-0.937371204531335
13730,1.0,299.86008,48111.732,0.0,-0.137300198603445,0.0,0.0,0.0,0.0,-3.200539614643667,-7.127999644478794,-4.296225918929486,0.0054855906400106446,-0.005752584067860844,-0.9119826020756752
13731,1.0,299.49034,48130.986,0.0,-0.13731022758092182,0.0,0.0,0.0,0.0,-3.1868803953456073,-7.132561904379053,-4.311175613554905,0.00033625460453074564,0.006024012694048764,-0.8956897836476992
13732,1.0,299.87019,47985.039000000004,0.0,-0.13732022356834117,0.0,0.0,0.0,0.0,-3.170538495082787,-7.118905420856264,-4.2968096523120956,0.008927900341140162,0.002661189626163967,-0.8835233046619612
13733,1.0,299.81892999999997,48127.889,0.0,-0.1373302195557603,0.0,0.0,0.0,0.0,-3.158191637314247,-7.151904038187973,-4.319580928434446,-0.0041094520081213365,0.02046074570731838,-0.9060280453455061
13734,1.0,299.86817,48319.566,0.0,-0.13734021554317977,0.0,0.0,0.0,0.0,-3.2233545618453268,-7.153820600752123,-4.310766361839517,0.0028189354414822677,-0.005026435445270555,-0.8919712672382101
13735,1.0,299.86422999999996,48164.84,0.0,-0.1373502115305989,0.0,0.0,0.0,0.0,-3.187972678953407,-7.138167710557303,-4.314768294434476,-0.015396747662290685,-0.0014928026272031485,-0.9207539332888381
13736,1.0,300.17424,47957.845,0.0,-0.13736020751801836,0.0,0.0,0.0,0.0,-3.1747904978024266,-7.1321491062883124,-4.271047667194586,-0.0015565496360444885,-0.005588672727009056,-0.9149967171481451
13737,1.0,300.17569,47983.545,0.0,-0.13737020350543772,0.0,0.0,0.0,0.0,-3.1454042184022266,-7.1168420383526225,-4.323553375451496,0.001212773838141459,0.0097867477432018,-0.9333369593906861
13738,1.0,300.05312999999995,48118.072,0.0,-0.13738019949285696,0.0,0.0,0.0,0.0,-3.1815640747209266,-7.126308834036923,-4.318819369659287,-0.0002857083395822177,-0.0042288100328010565,-0.9129185209280433
13739,1.0,300.32122000000004,48059.375,0.0,-0.13739022847033389,0.0,0.0,0.0,0.0,-3.156159158938657,-7.129606355162364,-4.323084443305216,-0.019662050302743282,0.004443187105483425,-0.932101179303724
13740,1.0,299.68105,48003.59,0.0,-0.13740022445775313,0.0,0.0,0.0,0.0,-3.215536121423707,-7.116049980749453,-4.260306709509536,0.01252694878831359,-0.0025162798657624875,-0.9305506026756941
13741,1.0,299.67492999999996,48062.274000000005,0.0,-0.13741022044517226,0.0,0.0,0.0,0.0,-3.195753629121327,-7.1350462922992435,-4.278931360922646,0.01061333883495499,0.020329678767133083,-0.9357557798969051
13742,1.0,299.64795,48048.231,0.0,-0.13742021643259172,0.0,0.0,0.0,0.0,-3.194043161627517,-7.140179012005802,-4.271240286038596,0.026960537382547875,-0.009748973576823783,-0.9246719383780152
13743,1.0,299.6859,48124.212,0.0,-0.13743021242001086,0.0,0.0,0.0,0.0,-3.156380351435487,-7.152562853402993,-4.3196155815878665,-0.006564565309072154,-0.008028318663858364,-0.9113461999528671
13744,1.0,299.8812,48232.224,0.0,-0.1374402084074302,0.0,0.0,0.0,0.0,-3.192620659812127,-7.145450445651053,-4.323320530578516,0.005489434302939984,-0.01901087195372698,-0.9027491072269002
13745,1.0,300.19022,48140.280999999995,0.0,-0.13745020439484967,0.0,0.0,0.0,0.0,-3.167278362886037,-7.142161537151463,-4.324003461145916,-0.013375995630107987,0.011279400814690189,-0.9056076478790162
13746,1.0,299.57568,48047.539000000004,0.0,-0.1374602003822688,0.0,0.0,0.0,0.0,-3.1884741364278972,-7.143588395942284,-4.273189677905986,-0.01163747833377969,0.016475350367240484,-0.9164692431209721
13747,1.0,300.00804,48228.814000000006,0.0,-0.13747022935974584,0.0,0.0,0.0,0.0,-3.202039934066737,-7.146085550813734,-4.312229900283955,-0.016816857194194585,0.016864650174911382,-0.9019656217195762
13748,1.0,300.28517999999997,48223.482,0.0,-0.13748022534716497,0.0,0.0,0.0,0.0,-3.214112505033207,-7.143641591572533,-4.300980291048706,0.009050361849551172,0.010751541082344489,-0.922388133447621
13749,1.0,300.04188999999997,48097.639,0.0,-0.13749022133458422,0.0,0.0,0.0,0.0,-3.167984395555717,-7.130077313808843,-4.322419447264586,0.008156913071149642,0.013843387636235988,-0.9073271332987161
13750,1.0,300.43338,48212.447,0.0,-0.13750021732200357,0.0,0.0,0.0,0.0,-3.205232989106867,-7.139726798486174,-4.3104201342803465,0.03151297382308837,-0.02001529968510628,-0.923679996927618
13751,1.0,300.43007,48242.025,0.0,-0.1375102133094228,0.0,0.0,0.0,0.0,-3.1950494203018267,-7.155483040191193,-4.313838333492695,-0.009699412677332502,-0.02073412159754848,-0.9186669116603651
13752,1.0,300.14848,48194.183,0.0,-0.1375202092968424,0.0,0.0,0.0,0.0,-3.2207066353589973,-7.147763594304343,-4.281357993587137,0.004800883946510356,-0.01954700993938968,-0.9464232566847031
13753,1.0,299.83353,48241.002,0.0,-0.13753020528426163,0.0,0.0,0.0,0.0,-3.1969551410899073,-7.153101801131184,-4.314003087958955,-0.007243509446603722,-0.002420631082822688,-0.9323425658750472
13754,1.0,299.77172,48038.742,0.0,-0.13754020127168076,0.0,0.0,0.0,0.0,-3.1662864923631466,-7.147707865548843,-4.2885836827002555,0.004356369101140155,-0.01073096298606359,-0.9201020183069992
13755,1.0,299.8359,48004.807,0.0,-0.13755019725910012,0.0,0.0,0.0,0.0,-3.123682872033497,-7.147672604445363,-4.320907272815346,-0.0033785675558886566,-0.011937447986134388,-0.9039409730545281
13756,1.0,300.15187000000003,48309.05,0.0,-0.13756022623657693,0.0,0.0,0.0,0.0,-3.1990089990426074,-7.1637167105037935,-4.322019112150076,-0.006307466775073504,-0.012836997239412987,-0.9014255898137792
13757,1.0,300.06957,48357.43,0.0,-0.13757022222399617,0.0,0.0,0.0,0.0,-3.206023526834887,-7.171143428436753,-4.322284381026256,0.0040461796056268364,0.01049279753680849,-0.903301784493945
13758,1.0,299.92266,48052.657999999996,0.0,-0.13758021821141553,0.0,0.0,0.0,0.0,-3.192057596731557,-7.146961809500213,-4.2677888522229654,0.0028084660348240177,0.005782777704940725,-0.9130006347161471
13759,1.0,299.85595,48027.737,0.0,-0.13759021419883488,0.0,0.0,0.0,0.0,-3.154510398375937,-7.152632261034843,-4.292090237321326,-0.007827534037292461,0.01750560787016898,-0.932967447344218
13760,1.0,299.48335,48343.578,0.0,-0.13760021018625435,0.0,0.0,0.0,0.0,-3.221914530803207,-7.159235003986484,-4.3140910380676365,-0.005729068559540046,-0.0077819414304928225,-0.9185860644348861
13761,1.0,300.14603999999997,48336.43,0.0,-0.13761020617367348,0.0,0.0,0.0,0.0,-3.206742326455827,-7.146529455682543,-4.339795875879505,0.005374007891298285,0.0013406962579664188,-0.9276524236796662
13762,1.0,300.42638,48033.428,0.0,-0.13762020216109272,0.0,0.0,0.0,0.0,-3.194236895046637,-7.131104242785193,-4.275621579470996,0.006512467636630515,-0.02048413962562718,-0.9164464044637182
13763,1.0,300.9192,48039.931,0.0,-0.13763019814851207,0.0,0.0,0.0,0.0,-3.185198704154637,-7.137958474411653,-4.279782288356626,0.01137648334652149,-0.002162318573879228,-0.9332719999267752
13764,1.0,300.13629,48351.217000000004,0.0,-0.1376402271259889,0.0,0.0,0.0,0.0,-3.226596860840317,-7.166544792857903,-4.304421085738286,8.88589119464418e-05,0.016990190849051283,-0.9215559916704952
13765,1.0,300.082,48474.967000000004,0.0,-0.13765022311340813,0.0,0.0,0.0,0.0,-3.190009210329397,-7.181867870145172,-4.3633025689244365,0.00940793730321612,0.030121894919799573,-0.9254363849159601
13766,1.0,299.83752000000004,48386.960999999996,0.0,-0.13766021910082749,0.0,0.0,0.0,0.0,-3.207735108903807,-7.163481231180553,-4.337211581499456,0.009746194738424531,0.026202939402028773,-0.8803353665348362
13767,1.0,299.95032000000003,48151.084,0.0,-0.13767021508824684,0.0,0.0,0.0,0.0,-3.163697131732597,-7.143564179264894,-4.329465892435016,-0.011612316294046387,-0.0018636863103315183,-0.8993355385675071
13768,1.0,300.08124,48172.793,0.0,-0.1376802110756662,0.0,0.0,0.0,0.0,-3.2042510484349567,-7.1559178258091025,-4.283157221789706,-0.014219008567556887,-0.019996179655719284,-0.8997082727492932
13769,1.0,300.2732,48347.593,0.0,-0.13769020706308543,0.0,0.0,0.0,0.0,-3.2184985607410765,-7.167786834830483,-4.310175738356226,-0.02291649107368158,-0.002935637332349847,-0.9226509401260582
13770,1.0,299.36942,48241.288,0.0,-0.13770020305050468,0.0,0.0,0.0,0.0,-3.220212574610237,-7.158810249544563,-4.2851240415588165,-0.004901341310449725,0.009699998335890301,-0.9298887477103741
13771,1.0,299.49796000000003,48068.587999999996,0.0,-0.13771019903792403,0.0,0.0,0.0,0.0,-3.151331934137247,-7.1702050575191425,-4.290113386376226,-0.014622991382426885,0.0029283371693543774,-0.9332855065506082
13772,1.0,300.15259,48231.427,0.0,-0.13772022801540085,0.0,0.0,0.0,0.0,-3.201967689334607,-7.159071769395373,-4.3001099092128054,0.004170680786489147,0.006813952300534734,-0.9238853523253852
13773,1.0,300.31838,48487.492,0.0,-0.13773022400281998,0.0,0.0,0.0,0.0,-3.219414133531437,-7.1733775435822436,-4.346195056886056,0.0023063057700646577,-0.0038207734069309763,-0.9131306043064741
13774,1.0,300.72607999999997,48448.051,0.0,-0.13774021999023944,0.0,0.0,0.0,0.0,-3.2365552854731368,-7.169614434035853,-4.320828137982536,0.012647097958671387,0.0065323165981394544,-0.9165844293923401
13775,1.0,300.2744,48201.324,0.0,-0.1377502159776588,0.0,0.0,0.0,0.0,-3.177222196717417,-7.163342517241864,-4.311434397630446,0.006646607865694124,-0.014175670847529787,-0.922515853622726
13776,1.0,300.03256,48267.106,0.0,-0.13776021196507815,0.0,0.0,0.0,0.0,-3.1910964276866967,-7.1747623524939135,-4.306136315507566,0.015676853559684987,0.0059578006503641446,-0.9222304008045541
13777,1.0,299.92692,48354.945,0.0,-0.1377702079524974,0.0,0.0,0.0,0.0,-3.1823604892995268,-7.164069524188614,-4.3522658435351955,0.004392767679182416,0.02563665823914118,-0.9157224068697651
13778,1.0,300.09517999999997,48323.655,0.0,-0.13778020393991652,0.0,0.0,0.0,0.0,-3.200148601430077,-7.168637863589473,-4.320398215965105,-0.00020483941028607585,0.01138578599568959,-0.905254591014172
13779,1.0,300.12883,48194.282999999996,0.0,-0.137790199927336,0.0,0.0,0.0,0.0,-3.163215027335017,-7.171133093285734,-4.315510500132726,-0.015347662787696385,-0.010910342704266988,-0.8994217357535143
13780,1.0,299.62465,48115.403,0.0,-0.1378002289048128,0.0,0.0,0.0,0.0,-3.192304019155877,-7.160092314896093,-4.273484736335106,-0.009778762825788751,-0.013255248642191186,-0.915620646162222
13781,1.0,299.53772999999995,48368.084,0.0,-0.13781022489223194,0.0,0.0,0.0,0.0,-3.194068898180057,-7.195152592206273,-4.313468091906155,0.013621886098125487,-0.007625120205890773,-0.9380367882570231
13782,1.0,300.02067999999997,48582.238,0.0,-0.1378202208796515,0.0,0.0,0.0,0.0,-3.2506954945936672,-7.196169388681623,-4.3209224715668455,-0.005557048786088015,-0.006599886903583123,-0.9294860314581291
13783,1.0,300.07666,48449.238,0.0,-0.13783021686707075,0.0,0.0,0.0,0.0,-3.205271695260687,-7.185946505772702,-4.336140373493736,-6.515911369745384e-05,-0.023007345157148182,-0.9250995603177181
13784,1.0,300.24786,48219.862,0.0,-0.1378402128544901,0.0,0.0,0.0,0.0,-3.2051120070449266,-7.158349626049103,-4.294172466276826,-0.012181699015490089,-0.00956702456034181,-0.9148520250338651
13785,1.0,300.33813,48330.602999999996,0.0,-0.13785020884190935,0.0,0.0,0.0,0.0,-3.1908501065873867,-7.167574052309484,-4.3328722366211965,0.011870834898060189,0.017741851183984383,-0.9193992483026411
13786,1.0,300.27141,48493.667,0.0,-0.13786020482932848,0.0,0.0,0.0,0.0,-3.2322793700511365,-7.175079297125194,-4.333505112633655,0.002767086521940177,0.03006840240727027,-0.9289359481113401
13787,1.0,300.42671,48467.333,0.0,-0.13787020081674795,0.0,0.0,0.0,0.0,-3.192936388543287,-7.189872444610164,-4.350050068216516,0.011958391865701388,0.0034801072735848467,-0.931085142765949
13788,1.0,299.66823999999997,48274.645,0.0,-0.13788022979422465,0.0,0.0,0.0,0.0,-3.184963832781457,-7.172406343361393,-4.316916485971486,0.002037801687640368,0.014912496187748786,-0.937672099281031
13789,1.0,299.87908,48363.299000000006,0.0,-0.13789022578164412,0.0,0.0,0.0,0.0,-3.1886710109223264,-7.175335852050512,-4.337228300126106,0.017318242727927483,0.00999270328900303,-0.9217123564259272
13790,1.0,299.8885,48435.775,0.0,-0.13790022176906347,0.0,0.0,0.0,0.0,-3.214621967183487,-7.1864704573994125,-4.322173734115337,0.0006169271924409734,0.007281152903718844,-0.9125305373322521
13791,1.0,299.24941,48432.519,0.0,-0.1379102177564827,0.0,0.0,0.0,0.0,-3.198560027923297,-7.195468219612423,-4.328248168464836,-0.007011914822922113,-0.014436937385814787,-0.900557832295638
13792,1.0,299.65362000000005,48571.455,0.0,-0.13792021374390206,0.0,0.0,0.0,0.0,-3.231149393539617,-7.198973963633414,-4.334386032270595,-0.02938644759971657,0.003733987826590906,-0.9068214708363111
13793,1.0,300.43917999999996,48509.734000000004,0.0,-0.1379302097313212,0.0,0.0,0.0,0.0,-3.2080338150332866,-7.202763113707373,-4.334950919201346,-0.007224218785899883,0.001171123483505889,-0.9218890571108661
13794,1.0,300.14005,48370.47,0.0,-0.13794020571874044,0.0,0.0,0.0,0.0,-3.2087809856570266,-7.186978804974584,-4.307655177407466,-0.019987992594911283,0.005390066790808175,-0.9305619409443131
13795,1.0,300.69057000000004,48422.09,0.0,-0.13795020170616,0.0,0.0,0.0,0.0,-3.205306855039157,-7.164219383878403,-4.349579920170116,-0.004655470904784206,-0.012249567520438187,-0.9135804468208701
13796,1.0,300.30163999999996,48443.928,0.0,-0.13796019769357926,0.0,0.0,0.0,0.0,-3.227527227082137,-7.178393536877284,-4.319823601833396,-0.01934870878881888,-0.002245391403202878,-0.9234002689725112
13797,1.0,300.45212999999995,48291.74,0.0,-0.13797022667105596,0.0,0.0,0.0,0.0,-3.181298907169757,-7.165212368976404,-4.332971839106025,0.01729100859173968,-0.002205409668831988,-0.9282412537102791
13798,1.0,300.74642,48314.562000000005,0.0,-0.13798022265847543,0.0,0.0,0.0,0.0,-3.208928717521607,-7.173381596582643,-4.304110119282596,-0.0011629210212963689,0.004771480340533446,-0.9297704102311951
13799,1.0,299.81677,48447.5,0.0,-0.13799021864589456,0.0,0.0,0.0,0.0,-3.183274440889727,-7.190247853772214,-4.353308072588056,0.026838021259956477,-0.006601057308773633,-0.932600377230491
13800,1.0,299.53836,48597.346,0.0,-0.13800021463331402,0.0,0.0,0.0,0.0,-3.231987857997367,-7.208815053904654,-4.331576897693355,0.014088120972639286,0.005179391830016175,-0.9159508947673151
13801,1.0,300.50701000000004,48740.893,0.0,-0.13801021062073315,0.0,0.0,0.0,0.0,-3.209295514057807,-7.2233038210595835,-4.383415076784386,0.01085065416737619,-0.007259244815356683,-0.9276946762088362
13802,1.0,300.05748,48578.097,0.0,-0.13802020660815262,0.0,0.0,0.0,0.0,-3.220184203607437,-7.213417235858853,-4.332927154776616,-0.005848774736954125,-0.012736244715719488,-0.9045124157134251
13803,1.0,299.72756,48430.134000000005,0.0,-0.13803020259557197,0.0,0.0,0.0,0.0,-3.1785243244209265,-7.208834913606613,-4.334191994876446,-0.0002492920701932118,-0.009267228883029282,-0.9157658145040491
13804,1.0,300.60316,48555.023,0.0,-0.1380401985829911,0.0,0.0,0.0,0.0,-3.229478645449727,-7.214838724424142,-4.315197000551787,-0.005270283606386495,0.02811921420315037,-0.9258337917376812
13805,1.0,300.06817,48569.109000000004,0.0,-0.13805022756046792,0.0,0.0,0.0,0.0,-3.216729527391487,-7.189889973836894,-4.357176864119876,-0.01674918829951618,0.015192700370402787,-0.9232569852758702
13806,1.0,300.3769,48386.532999999996,0.0,-0.13806022354788738,0.0,0.0,0.0,0.0,-3.2171751547854672,-7.1822279792307135,-4.3088946862547965,-0.010241708082527891,0.0072254288091693035,-0.932318450522667
13807,1.0,300.7616,48312.917,0.0,-0.13807021953530652,0.0,0.0,0.0,0.0,-3.1810489383700866,-7.163258721458593,-4.341612937283837,0.007741539096005424,-0.02285941469554858,-0.9168185610929471
13808,1.0,300.67037999999997,48563.524000000005,0.0,-0.13808021552272587,0.0,0.0,0.0,0.0,-3.226013836732777,-7.191992467794393,-4.344092157628515,0.03362175297095867,0.0074433395915754225,-0.932060993804758
13809,1.0,300.26023,48797.725999999995,0.0,-0.1380902115101451,0.0,0.0,0.0,0.0,-3.237721333688217,-7.216174796006003,-4.379394095087545,0.03627280736034737,-0.0032877448831751567,-0.9145568956772382
13810,1.0,300.73657000000003,48712.801,0.0,-0.13810020749756446,0.0,0.0,0.0,0.0,-3.233966228817617,-7.2133876489559325,-4.360121267585466,0.012068236282542189,-0.004141367866396186,-0.9318003960115392
13811,1.0,299.93036,48506.994000000006,0.0,-0.13811020348498393,0.0,0.0,0.0,0.0,-3.193779513951497,-7.200344587043684,-4.350790754039616,0.00884608465121558,0.0018494970599061483,-0.8987691722916112
13812,1.0,300.24814,48604.68,0.0,-0.13812019947240306,0.0,0.0,0.0,0.0,-3.225744210881167,-7.205410229593623,-4.343454620665596,-0.014135547156819887,0.013691886481283987,-0.9174730294650381
13813,1.0,300.02012,48573.828,0.0,-0.13813022844987988,0.0,0.0,0.0,0.0,-3.2035281958136173,-7.198134485925563,-4.363568243100656,-0.01210798000446459,-0.0060768684802152235,-0.9132695512926872
13814,1.0,299.52693999999997,48441.153,0.0,-0.13814022443729923,0.0,0.0,0.0,0.0,-3.212745934623337,-7.208435085117153,-4.303719815344076,-0.03334053857795497,-0.025042146915217476,-0.9399481933781642
13815,1.0,300.20833,48443.222,0.0,-0.13815022042471847,0.0,0.0,0.0,0.0,-3.201377673801377,-7.193533519871484,-4.330618667073786,-0.0035970436305255665,-0.01110561322378869,-0.9322570880966111
13816,1.0,300.05514,48392.28400000001,0.0,-0.13816021641213783,0.0,0.0,0.0,0.0,-3.2136430662618767,-7.202917330372593,-4.293485482709026,0.007885500758288332,0.020108248156529583,-0.9474331123968681
13817,1.0,299.70911,48450.999,0.0,-0.13817021239955707,0.0,0.0,0.0,0.0,-3.185662063425367,-7.196086504823444,-4.346145306306146,0.014716685605923785,0.02230531583861328,-0.9406348729709342
13818,1.0,300.39987,48640.42,0.0,-0.13818020838697642,0.0,0.0,0.0,0.0,-3.2300906485101266,-7.199958032130533,-4.355424346746916,-0.00898493264289381,0.009176049647605591,-0.9355212023662541
13819,1.0,300.21296,48643.422999999995,0.0,-0.13819020437439578,0.0,0.0,0.0,0.0,-3.185924799176297,-7.2203061206387344,-4.380155147237655,-0.006672861885060194,0.0035054579804867673,-0.935390594428364
13820,1.0,300.3168,48606.19,0.0,-0.13820020036181502,0.0,0.0,0.0,0.0,-3.228329214536287,-7.2098232377541525,-4.336915509820236,-0.004180740941432006,0.0036338008991032263,-0.937722062643462
13821,1.0,300.66294,48698.91,0.0,-0.13821022933929183,0.0,0.0,0.0,0.0,-3.218584383024547,-7.218948568154753,-4.365719575712975,0.0015784091897268584,-0.02216407181442358,-0.9185830956120931
13822,1.0,300.65135,48666.869000000006,0.0,-0.1382202253267112,0.0,0.0,0.0,0.0,-3.240582245345567,-7.2296789880387635,-4.323251832221737,-0.0018063432447721984,-0.01810766486758738,-0.9285636496270971
13823,1.0,300.57775,48582.806,0.0,-0.13823022131413043,0.0,0.0,0.0,0.0,-3.195781898799117,-7.206054859307244,-4.366123051902796,-0.008402095783972292,-0.0015624619503779883,-0.8904983157003411
13824,1.0,300.21512,48557.453,0.0,-0.13824021730154978,0.0,0.0,0.0,0.0,-3.204511453710657,-7.215839004922863,-4.339902773765055,-0.002314089456007848,0.0101288351624632,-0.9307886049916831
13825,1.0,300.08502999999996,48628.095,0.0,-0.13825021328896914,0.0,0.0,0.0,0.0,-3.192961415820757,-7.222410843746452,-4.366354376900626,-0.002918852439143307,0.0032899928798470176,-0.9111955904580031
13826,1.0,299.88029,48699.22900000001,0.0,-0.13826020927638838,0.0,0.0,0.0,0.0,-3.242403461075307,-7.215063463296323,-4.345882469230205,0.002427934488218478,-0.012759966927060686,-0.9317878418428001
13827,1.0,299.79434,48634.818,0.0,-0.13827020526380773,0.0,0.0,0.0,0.0,-3.234438606014237,-7.212893486882163,-4.336438066373116,-0.0027580771073510172,-0.0001922093491145858,-0.9042806347530501
13828,1.0,299.59681,48567.23,0.0,-0.13828020125122698,0.0,0.0,0.0,0.0,-3.233146408161707,-7.202358016317394,-4.327720873112796,-0.00988143302662151,-0.002764564643766287,-0.9185741486137101
13829,1.0,299.67814,48587.64,0.0,-0.1382902302287038,0.0,0.0,0.0,0.0,-3.2019492481827867,-7.207418997916872,-4.360060979204516,-0.006502124480934724,-0.0009244916710527242,-0.9194763262377481
13830,1.0,299.81456000000003,48752.349,0.0,-0.13830022621612315,0.0,0.0,0.0,0.0,-3.2230693319421766,-7.2334604374119635,-4.362966879166305,-0.004273002023987465,-0.0012838660996077188,-0.9305370555218571
13831,1.0,300.26746,48778.225999999995,0.0,-0.13831022220354228,0.0,0.0,0.0,0.0,-3.203778164613287,-7.229716579617472,-4.393867967466005,0.022223416859530477,0.02442137113545168,-0.9366831773159322
13832,1.0,300.51782000000003,48655.948,0.0,-0.13832021819096174,0.0,0.0,0.0,0.0,-3.226642355769807,-7.236199455082284,-4.327351340801326,0.03783800924032076,0.013287674671891387,-0.9448701064014191
13833,1.0,300.47823999999997,48563.075999999994,0.0,-0.1383302141783811,0.0,0.0,0.0,0.0,-3.199738437789597,-7.2248441638616026,-4.337379882341066,0.025805343102539076,0.010243781192232489,-0.9384469822950061
13834,1.0,300.43387,48643.112,0.0,-0.13834021016580034,0.0,0.0,0.0,0.0,-3.233559003602427,-7.215495513138963,-4.337237014076966,0.020906772321837783,-0.011688040527019791,-0.9126609223551201
13835,1.0,300.05267000000003,48641.565,0.0,-0.1383502061532197,0.0,0.0,0.0,0.0,-3.185229202982647,-7.227416400565463,-4.373175475248816,0.006054585691966085,0.01112775679147409,-0.9349756178499091
13836,1.0,299.81293999999997,48662.532,0.0,-0.13836020214063893,0.0,0.0,0.0,0.0,-3.224360820519637,-7.209901663311894,-4.357932242069426,-0.014046727679554089,0.005904339649912954,-0.908875186933997
13837,1.0,299.7168,48679.308,0.0,-0.13837019812805829,0.0,0.0,0.0,0.0,-3.2115316557034967,-7.237767256962013,-4.3479951970137165,-0.022674432717542277,0.0046377899945142355,-0.939874408505882
13838,1.0,299.60449,48658.085,0.0,-0.1383802271055351,0.0,0.0,0.0,0.0,-3.256101994477247,-7.222773384632234,-4.311967367183046,-0.003446865881529177,-0.015909172555863087,-0.9058313937660981
13839,1.0,299.98107999999996,48815.1,0.0,-0.13839022309295423,0.0,0.0,0.0,0.0,-3.2607670992626567,-7.229746065195384,-4.348058221169937,0.005670730178407494,0.01006699833271038,-0.9157659158290591
13840,1.0,300.29577,48935.84099999999,0.0,-0.1384002190803737,0.0,0.0,0.0,0.0,-3.262416265125417,-7.238948503928593,-4.373908966996206,0.01127577945883279,-0.006451324072596114,-0.9082353194958472
13841,1.0,300.36492000000004,48764.643,0.0,-0.13841021506779305,0.0,0.0,0.0,0.0,-3.209981281725487,-7.231176774336583,-4.382075762802206,-0.01032171937667439,-0.007314832729092783,-0.9246829118765981
13842,1.0,299.58895,48647.53599999999,0.0,-0.13842021105521218,0.0,0.0,0.0,0.0,-3.2012438234631673,-7.217522823939043,-4.368869466298846,-0.00016729732884346082,-0.0044206586040850355,-0.9264893645523811
13843,1.0,300.22263,48805.847,0.0,-0.13843020704263165,0.0,0.0,0.0,0.0,-3.237969579962717,-7.229569455702953,-4.368219972984746,-0.002946682873014957,0.00975394904011482,-0.9389653509136651
13844,1.0,300.3171,48797.356,0.0,-0.13844020303005078,0.0,0.0,0.0,0.0,-3.266498143153267,-7.2180644061174934,-4.348615103424896,0.0038431502247893968,0.0006062292877526724,-0.92407315823142
13845,1.0,300.51658,48668.475999999995,0.0,-0.13845019901747024,0.0,0.0,0.0,0.0,-3.2252635250337267,-7.235766189339523,-4.332971636456006,-0.01235999050308609,-0.005870871391159894,-0.9243591075421411
13846,1.0,301.10381,48708.236,0.0,-0.13846022799494695,0.0,0.0,0.0,0.0,-3.214149488661857,-7.234486758438253,-4.357451150921946,0.018851073293706083,-0.009842395236043782,-0.9187631704198651
13847,1.0,300.06703999999996,48725.262,0.0,-0.1384702239823662,0.0,0.0,0.0,0.0,-3.189668656970787,-7.245203904745952,-4.376390416491105,-0.000860389892953871,0.021095411119454982,-0.9170410201524021
13848,1.0,299.64235,48790.377,0.0,-0.13848021996978577,0.0,0.0,0.0,0.0,-3.216439332562847,-7.2620273014562935,-4.352589576942146,-0.0015387173462095786,-0.0030317577832111972,-0.9387766533475421
13849,1.0,300.0532,48710.67,0.0,-0.138490215957205,0.0,0.0,0.0,0.0,-3.214620852608377,-7.240895869295783,-4.3513106526659255,-0.035399079772617165,0.004694396832550896,-0.9257239452943402
13850,1.0,299.37606,48567.189000000006,0.0,-0.13850021194462414,0.0,0.0,0.0,0.0,-3.230818364731947,-7.239611473469022,-4.292782996414696,-0.020084165228152782,0.006360393286096944,-0.929044173354521
13851,1.0,299.95654,48619.275,0.0,-0.1385102079320436,0.0,0.0,0.0,0.0,-3.203176294053887,-7.228929993564843,-4.346939187759496,-0.004055004304722767,0.022819218050831477,-0.9394044428445001
13852,1.0,300.76071,48788.385,0.0,-0.13852020391946274,0.0,0.0,0.0,0.0,-3.2357934227229466,-7.226103532410892,-4.368553636242676,0.01025537581312679,-0.0033192453089090066,-0.9223396190328331
13853,1.0,299.9941,48868.486,0.0,-0.1385301999068821,0.0,0.0,0.0,0.0,-3.210804648756747,-7.2506382690072835,-4.393356580140536,0.02509501526568518,-0.007300908240918543,-0.9484790195475912
13854,1.0,299.99189,48818.949,0.0,-0.1385402288843589,0.0,0.0,0.0,0.0,-3.232612425359007,-7.225031209830063,-4.382097851654386,0.04469908942420666,-0.018020996520283883,-0.9260586927298772
13855,1.0,299.33089,48875.235,0.0,-0.13855022487177826,0.0,0.0,0.0,0.0,-3.2326458626123067,-7.2539293053320835,-4.370276060087666,0.04450974641776995,0.0034945386907841163,-0.9345104955240052
13856,1.0,299.36082000000005,48949.157999999996,0.0,-0.13856022085919772,0.0,0.0,0.0,0.0,-3.284412607571287,-7.244669820618243,-4.350239444660205,0.029059652150964375,-0.007209309013328403,-0.9185576022395772
13857,1.0,299.19182,48857.102,0.0,-0.13857021684661686,0.0,0.0,0.0,0.0,-3.245613944017157,-7.230470336366864,-4.375254765779026,-0.007041371725854284,0.0015258803793676686,-0.8980783079759281
13858,1.0,299.19167000000004,48735.405,0.0,-0.1385802128340361,0.0,0.0,0.0,0.0,-3.231387608638127,-7.241421340797643,-4.341537247501366,-0.016605908655875586,-0.00047904478757803954,-0.9163781316719801
13859,1.0,299.48569,48741.867,0.0,-0.13859020882145545,0.0,0.0,0.0,0.0,-3.219647383704457,-7.231925971460523,-4.3647371284160155,-0.03331945892287457,0.005576370756219944,-0.9145946189784612
13860,1.0,299.9227,48764.31,0.0,-0.1386002048088747,0.0,0.0,0.0,0.0,-3.244670810824077,-7.242147942444353,-4.336313943235866,-0.016140461076689483,-0.015522785842229684,-0.938315725877052
13861,1.0,299.87476000000004,48766.198,0.0,-0.13861020079629427,0.0,0.0,0.0,0.0,-3.231669190840917,-7.255959959857493,-4.3360774506625255,-0.006473062137591494,-0.0037340071796678163,-0.926499770630908
13862,1.0,300.24532,48914.791,0.0,-0.13862022977377086,0.0,0.0,0.0,0.0,-3.2644240201985673,-7.244219025648752,-4.360232117146405,0.007575216118590623,0.015072655564805285,-0.9240096173176491
13863,1.0,300.25122000000005,48952.143,0.0,-0.13863022576119022,0.0,0.0,0.0,0.0,-3.2283585987891867,-7.270404042683013,-4.3814665968420865,0.014040290501668787,0.025273434422793773,-0.9233766095826762
13864,1.0,300.23621,48951.128,0.0,-0.13864022174860968,0.0,0.0,0.0,0.0,-3.2294749977493673,-7.266022039975542,-4.384423564608916,0.006488304154870764,0.0026324286234004775,-0.922374707883796
13865,1.0,299.92054,48858.162000000004,0.0,-0.1386502177360288,0.0,0.0,0.0,0.0,-3.2094831679763267,-7.245453265595563,-4.396724927447965,-0.007285466816019593,-0.004436548696128266,-0.936137582667086
13866,1.0,299.51844,48799.407,0.0,-0.13866021372344806,0.0,0.0,0.0,0.0,-3.2242427768829867,-7.260320582987853,-4.349237846936355,-0.005969380984432034,-0.024181911765818877,-0.9346259047103951
13867,1.0,299.71905,48747.657999999996,0.0,-0.1386702097108674,0.0,0.0,0.0,0.0,-3.2239235017764765,-7.244906313191583,-4.349241089336676,0.002967024780697547,-0.002150109112824248,-0.956917001610355
13868,1.0,299.73146,48789.22900000001,0.0,-0.13868020569828676,0.0,0.0,0.0,0.0,-3.2496297581384868,-7.244431301544702,-4.336646187943655,-0.0068762619127842135,-0.0045609000173007855,-0.9211335474388032
13869,1.0,300.08137999999997,48761.843,0.0,-0.13869020168570623,0.0,0.0,0.0,0.0,-3.220673299430707,-7.236584692770303,-4.3651245952542554,0.00932842341354371,0.0028350316285958377,-0.930000124161366
13870,1.0,300.05515,48789.977999999996,0.0,-0.13870023066318293,0.0,0.0,0.0,0.0,-3.230490780974617,-7.231643679982664,-4.368800666617056,-0.008970067048026692,0.007143290500412883,-0.8867064703811152
13871,1.0,299.89189,49004.055,0.0,-0.13871022665060218,0.0,0.0,0.0,0.0,-3.230866190136667,-7.287291274149653,-4.3778515231353055,-0.004480695699010236,-0.004226001100873836,-0.9441962444224141
13872,1.0,300.72382999999996,49156.907,0.0,-0.13872022263802153,0.0,0.0,0.0,0.0,-3.2857736051056072,-7.267839101379873,-4.388859674871726,-0.004375764734554356,-0.01998444723281138,-0.8927894970914632
13873,1.0,300.07697,49122.613,0.0,-0.13873021862544077,0.0,0.0,0.0,0.0,-3.262150996249237,-7.2952475165848725,-4.3746494501692865,-0.019260661408129282,-0.013140930726158887,-0.9175725914198642
13874,1.0,300.13406000000003,49048.267,0.0,-0.13874021461286,0.0,0.0,0.0,0.0,-3.287685304069277,-7.252129165204423,-4.3696340648243055,-0.003163045003968237,0.004186744853574546,-0.8898625924551001
13875,1.0,300.41294,49069.42,0.0,-0.13875021060027937,0.0,0.0,0.0,0.0,-3.248277879855067,-7.251286242446234,-4.416314192956276,-0.014770824572016885,0.01073504739721669,-0.9150329104417171
13876,1.0,300.23632000000003,48971.17,0.0,-0.13876020658769872,0.0,0.0,0.0,0.0,-3.244430163925327,-7.2582233579308735,-4.383359348028886,0.0003487406929955267,0.02330719119299068,-0.916485657772592
13877,1.0,300.02569,48809.468,0.0,-0.13877020257511807,0.0,0.0,0.0,0.0,-3.200664345730977,-7.242668752995753,-4.393526299532287,0.012108360986502188,0.01047495014954709,-0.9523254891797082
13878,1.0,300.39411,48857.49,0.0,-0.1387802315525949,0.0,0.0,0.0,0.0,-3.238481271263217,-7.250149983784094,-4.362825733427376,0.026819168728595875,-0.0008279064525030052,-0.9356055250395762
13879,1.0,300.00819,48907.655,0.0,-0.13879022754001413,0.0,0.0,0.0,0.0,-3.240796446416707,-7.269672982735863,-4.356236466702066,0.021515244205639276,-0.016549929627600882,-0.958786954669905
13880,1.0,299.58752999999996,48937.22,0.0,-0.1388002235274335,0.0,0.0,0.0,0.0,-3.269031775028317,-7.257260669010863,-4.349400574902416,0.001902168637204428,-0.0098835881082592,-0.9278171984109281
13881,1.0,299.54971,48902.309,0.0,-0.13881021951485273,0.0,0.0,0.0,0.0,-3.2187680852676768,-7.285324758355573,-4.360988103046016,-0.008003958408929193,-0.010642004693534091,-0.9417866546246061
13882,1.0,300.168,49019.170999999995,0.0,-0.13882021550227186,0.0,0.0,0.0,0.0,-3.242435378453457,-7.288484680117434,-4.369684119379246,-0.014993393062482685,0.007435953099671432,-0.9226749440209272
13883,1.0,300.73208,49076.303,0.0,-0.13883021148969144,0.0,0.0,0.0,0.0,-3.2183526527266766,-7.296489457232442,-4.403128566754956,-0.004796633362340856,0.007730058364422363,-0.9508354035826481
13884,1.0,300.74057,49027.261,0.0,-0.13884020747711068,0.0,0.0,0.0,0.0,-3.245470771778027,-7.291616636176534,-4.365975725338255,0.015361623347574184,-0.001085497162605229,-0.9281931648605332
13885,1.0,300.31378,48901.004,0.0,-0.13885020346453003,0.0,0.0,0.0,0.0,-3.228088567637537,-7.253914005255574,-4.382681686362005,0.013724157483718887,-0.0016427407425508886,-0.9199510136445961
13886,1.0,300.15729,48861.185999999994,0.0,-0.13886019945194927,0.0,0.0,0.0,0.0,-3.260771760213117,-7.243026328956042,-4.348782391016406,0.02096150910548988,-0.004595902336705245,-0.9173928003221202
13887,1.0,300.63514,49009.043,0.0,-0.1388702284294261,0.0,0.0,0.0,0.0,-3.228986611201167,-7.262810442458583,-4.405728059886505,0.022113083042891377,-0.019911590497620982,-0.9415522797439752
13888,1.0,299.51011,49068.247,0.0,-0.13888022441684544,0.0,0.0,0.0,0.0,-3.2657617129805865,-7.254899593627844,-4.394860648588976,-0.01062034444614639,0.0064814156753909245,-0.9284299006138972
13889,1.0,298.9357,48961.867999999995,0.0,-0.1388902204042648,0.0,0.0,0.0,0.0,-3.2117223493723173,-7.272240963789303,-4.399221879669396,-0.0023230094006131776,-0.010170163506216991,-0.9580350015056931
13890,1.0,299.44162,49111.972,0.0,-0.13890021639168404,0.0,0.0,0.0,0.0,-3.282938733975827,-7.275156590952053,-4.370718039781286,-0.01747541301718898,0.017076340412303583,-0.9188447066554122
13891,1.0,300.04725,49407.443,0.0,-0.1389102123791034,0.0,0.0,0.0,0.0,-3.309250407272587,-7.298539160859733,-4.410839501340966,-0.008911808409677011,0.0015359138858328984,-0.9182214362539002
13892,1.0,300.08714,49341.36,0.0,-0.13892020836652264,0.0,0.0,0.0,0.0,-3.3128370086515573,-7.292296932293674,-4.3934075466205655,-5.9744597992332744e-05,-0.0026324973217572577,-0.9021775936404961
13893,1.0,300.48068,49055.899000000005,0.0,-0.138930204353942,0.0,0.0,0.0,0.0,-3.222061249417687,-7.284529863652123,-4.405177257132145,-0.002678631612060357,-0.0013353550113892787,-0.9148544061716001
13894,1.0,299.54028,48878.685,0.0,-0.13894020034136123,0.0,0.0,0.0,0.0,-3.209619754089807,-7.280500674629473,-4.367779310516256,-0.011226711809490189,0.00900190204894356,-0.9195395023814831
13895,1.0,300.73406,49028.272000000004,0.0,-0.13895022931883794,0.0,0.0,0.0,0.0,-3.2206256766760073,-7.290975552838264,-4.391769323858886,0.008024535086659951,0.017534898904059786,-0.9456138218423181
13896,1.0,300.7169,49011.083,0.0,-0.1389602253062574,0.0,0.0,0.0,0.0,-3.256114356128467,-7.279873675467592,-4.362157292336406,-0.01118958733907629,0.02240905846335188,-0.933198133994485
13897,1.0,300.20358,48920.515999999996,0.0,-0.13897022129367653,0.0,0.0,0.0,0.0,-3.242627389347407,-7.2791601447471725,-4.3488277846208865,0.017728664747182984,-0.014444705974331487,-0.9343765438607852
13898,1.0,299.57546,49043.727,0.0,-0.138980217281096,0.0,0.0,0.0,0.0,-3.245679703948647,-7.278548141686773,-4.383840439176366,-0.015368532700006087,-0.012510110598151788,-0.9325249914230512
13899,1.0,299.60332999999997,49247.932,0.0,-0.13899021326851535,0.0,0.0,0.0,0.0,-3.230554717055927,-7.309959198761803,-4.429627792645226,0.01141765980408529,-0.017458366097506586,-0.9586766522640191
13900,1.0,299.20446,49259.722,0.0,-0.1390002092559346,0.0,0.0,0.0,0.0,-3.2486001947118766,-7.301304117732613,-4.423821160297155,-0.0013711785699997887,-0.004805028240744366,-0.9373012193469281
13901,1.0,300.4476,49225.137,0.0,-0.13901020524335395,0.0,0.0,0.0,0.0,-3.2391808191322573,-7.293226082635373,-4.430805594561466,0.014695168226800186,0.006891660679853953,-0.930636870789208
13902,1.0,300.25007,48995.35,0.0,-0.13902020123077308,0.0,0.0,0.0,0.0,-3.2756048297520266,-7.267247565971492,-4.350510590386966,-0.000996089858426415,0.014559901364950384,-0.921922555159172
13903,1.0,299.8554,48912.207,0.0,-0.1390302302082499,0.0,0.0,0.0,0.0,-3.260355821047067,-7.255139733901543,-4.352593933917576,-0.002206153901030438,0.009609792529837681,-0.9115993807553542
13904,1.0,300.3344,49154.764,0.0,-0.13904022619566925,0.0,0.0,0.0,0.0,-3.284347455589857,-7.279067432363023,-4.378406074915036,0.006466405692384554,0.012873022333468386,-0.9103437409664321
13905,1.0,300.33633,49193.639,0.0,-0.1390502221830885,0.0,0.0,0.0,0.0,-3.2294662837985073,-7.293352840222884,-4.430818868137775,0.00927822528106454,-0.001017916927310579,-0.9341481471557441
13906,1.0,299.90346,49123.082,0.0,-0.13906021817050784,0.0,0.0,0.0,0.0,-3.2404340068559367,-7.296173627176273,-4.395582589285226,0.0005734494209850515,0.016471263929587185,-0.9175004784102471
13907,1.0,299.96783999999997,49247.649000000005,0.0,-0.1390702141579273,0.0,0.0,0.0,0.0,-3.2401061191235767,-7.308892550381534,-4.421057014024355,-0.0025086010512046474,0.008616769130983902,-0.9406022868477181
13908,1.0,300.03892,49306.530999999995,0.0,-0.13908021014534644,0.0,0.0,0.0,0.0,-3.312597172352887,-7.291388046953974,-4.383968919289046,-0.016362457080848786,0.027424678882355072,-0.9020142779893783
13909,1.0,300.09087999999997,49263.975999999995,0.0,-0.1390902061327659,0.0,0.0,0.0,0.0,-3.284413823471407,-7.298359815592033,-4.392244943455825,-0.0007215470283211473,0.0015694837735709883,-0.9048634764755722
13910,1.0,300.14293,49295.815,0.0,-0.13910020212018503,0.0,0.0,0.0,0.0,-3.2859222488952766,-7.294985490109013,-4.403789104495146,0.006630435887473074,-0.007841235002494644,-0.913665995526813
13911,1.0,299.41469,49216.733,0.0,-0.13911023109766185,0.0,0.0,0.0,0.0,-3.2368226821745267,-7.297837586490493,-4.425997824161976,0.013111266816231289,-0.016631882308938983,-0.934848738672387
13912,1.0,300.31458,49025.045,0.0,-0.1391202270850812,0.0,0.0,0.0,0.0,-3.2368468988519172,-7.2886882420625225,-4.3768544850369056,0.02384032691860708,-0.01896604272955268,-0.9538356472612491
13913,1.0,300.55964,49121.71400000001,0.0,-0.13913022307250067,0.0,0.0,0.0,0.0,-3.2316973591936966,-7.289875365879682,-4.410201863053036,0.010961549324570689,-0.023774174859328374,-0.9498928479421251
13914,1.0,300.25847999999996,49138.628,0.0,-0.1391402190599198,0.0,0.0,0.0,0.0,-3.2843984220698865,-7.289374719005272,-4.363142779383666,0.004482246984913335,0.0006161888674906064,-0.9583702454337791
13915,1.0,300.56145,48968.357,0.0,-0.13915021504733915,0.0,0.0,0.0,0.0,-3.248399267217047,-7.284979746696522,-4.351778774212126,-0.002294104718985508,0.002258603475231808,-0.9443699357545562
13916,1.0,300.23656,48997.705,0.0,-0.1391602110347584,0.0,0.0,0.0,0.0,-3.242368098646817,-7.2934476804322435,-4.3582630682270755,-0.016017279248782382,0.01802741140666698,-0.952873789206321
13917,1.0,300.2428,49182.029,0.0,-0.13917020702217775,0.0,0.0,0.0,0.0,-3.225441451751287,-7.311490624962943,-4.413176664021626,-0.03726311950458356,-0.009889840165351231,-0.9244328924144231
13918,1.0,300.62647000000004,49330.801,0.0,-0.139180203009597,0.0,0.0,0.0,0.0,-3.257328635048307,-7.329915058156294,-4.408087818044396,-0.016264503153931485,-0.014165516055027588,-0.9414166055555852
13919,1.0,299.94617999999997,49330.57,0.0,-0.1391902319870738,0.0,0.0,0.0,0.0,-3.272323317978167,-7.313638816499953,-4.409299361188967,-0.014118137493601687,0.003051944663628487,-0.8987516329323801
13920,1.0,299.36335,49317.425,0.0,-0.13920022797449316,0.0,0.0,0.0,0.0,-3.3000269942623066,-7.3049485756922925,-4.386290173943136,0.00982230218258575,0.01919667871731468,-0.900026737255723
13921,1.0,300.11472000000003,49337.594000000005,0.0,-0.1392102239619124,0.0,0.0,0.0,0.0,-3.2766449309796766,-7.310098824625584,-4.4106528606725455,-0.005175392531871475,0.007373128553721134,-0.9044112426909402
13922,1.0,299.73882000000003,49350.998,0.0,-0.13922021994933176,0.0,0.0,0.0,0.0,-3.274537877396727,-7.305116876533903,-4.421816242324287,0.0008649616267425662,0.019174018392078284,-0.936179277908701
13923,1.0,300.17407000000003,49372.08,0.0,-0.1392302159367511,0.0,0.0,0.0,0.0,-3.2655975664643866,-7.311237413762953,-4.431044417610035,0.01094908330859039,0.005089082875103375,-0.9447392958135091
13924,1.0,300.06715,49137.057,0.0,-0.13924021192417035,0.0,0.0,0.0,0.0,-3.259125127475607,-7.289004477418734,-4.388308770792356,0.009696540113299,-0.004649039502424475,-0.946269121079491
13925,1.0,300.11728,49054.371,0.0,-0.1392502079115897,0.0,0.0,0.0,0.0,-3.263142968097137,-7.287968631841503,-4.360192296417476,-0.01179596382167099,-0.024746686225807776,-0.9357548274418112
13926,1.0,300.16761,49198.899000000005,0.0,-0.13926020389900906,0.0,0.0,0.0,0.0,-3.280538648463957,-7.301840532335553,-4.372857517367437,-0.006032446481256114,-0.016565642096901586,-0.9421945992473671
13927,1.0,300.21999,49344.875,0.0,-0.1392701998864283,0.0,0.0,0.0,0.0,-3.2808819375978366,-7.312905831377614,-4.4058220894957865,0.0032574077698811167,0.00915872165234545,-0.915063145824701
13928,1.0,300.16123999999996,49279.039000000004,0.0,-0.13928022886390512,0.0,0.0,0.0,0.0,-3.243249018283757,-7.326660802810122,-4.409687638627286,-0.003024528446397717,0.01124245872929429,-0.9363781383733272
13929,1.0,300.38138,49289.035,0.0,-0.13929022485132447,0.0,0.0,0.0,0.0,-3.237420398408517,-7.328900794806192,-4.416314800906337,0.012172834090365188,0.0005296179441842215,-0.9288900985443151
13930,1.0,300.1911,49361.497,0.0,-0.13930022083874372,0.0,0.0,0.0,0.0,-3.2570902172997767,-7.331669196729413,-4.415903117390705,0.0002432148494059368,-0.012449260876646388,-0.9434626817475171
13931,1.0,300.85491,49379.788,0.0,-0.13931021682616307,0.0,0.0,0.0,0.0,-3.289944547817247,-7.323892806186944,-4.396385387339455,0.021193328569368678,0.007218054982891562,-0.918893302130208
13932,1.0,300.2003,49233.138,0.0,-0.1393202128135823,0.0,0.0,0.0,0.0,-3.2618976837242366,-7.3143664313967625,-4.389380485423125,0.001774520909481578,-0.008932931127886663,-0.9504660131261922
13933,1.0,300.2747,49085.685,0.0,-0.13933020880100166,0.0,0.0,0.0,0.0,-3.2423007175151675,-7.298916596521984,-4.379605155083375,0.008151816321821631,0.006024721361168704,-0.9319632759651142
13934,1.0,300.1633,49194.183,0.0,-0.13934020478842102,0.0,0.0,0.0,0.0,-3.231858769934627,-7.319242697503013,-4.402701887137846,-0.0051062652663241455,0.004825786391568035,-0.9614169060994611
13935,1.0,299.88813999999996,49347.333,0.0,-0.13935020077584026,0.0,0.0,0.0,0.0,-3.263438735801327,-7.312796603016834,-4.424121791601825,0.006659062938573344,0.019682420682753683,-0.925461077820897
13936,1.0,300.16512,49498.209,0.0,-0.1393602297533172,0.0,0.0,0.0,0.0,-3.292543736973767,-7.336237536130272,-4.417438393942225,0.0027594775203142272,-0.0068693456702516335,-0.9348227589398231
13937,1.0,300.07761,49389.335,0.0,-0.13937022574073643,0.0,0.0,0.0,0.0,-3.305029004705967,-7.312611482223564,-4.395484101375506,-0.0012474986283435288,-0.007443797884595653,-0.9175484659349832
13938,1.0,300.03884,49371.49,0.0,-0.13938022172815567,0.0,0.0,0.0,0.0,-3.288245428724557,-7.325412883986963,-4.394042043833186,-0.006271511291299974,-0.025884009813802875,-0.9192751758278961
13939,1.0,300.35658,49553.365,0.0,-0.13939021771557503,0.0,0.0,0.0,0.0,-3.305941436421017,-7.3337092744807535,-4.423334901574166,-0.016963892955955885,-0.0064987603892777135,-0.9082729820020642
13940,1.0,300.00186,49472.567,0.0,-0.13940021370299416,0.0,0.0,0.0,0.0,-3.274316786224907,-7.321264334102533,-4.442844018999566,-0.03018183879571557,-0.011539850673394591,-0.9177713910894841
13941,1.0,300.40382999999997,49216.892,0.0,-0.13941020969041362,0.0,0.0,0.0,0.0,-3.2343189411774267,-7.325087022754803,-4.401300258274516,-0.02593685891251868,-0.00979566383745675,-0.929389559916108
13942,1.0,300.31323,49130.625,0.0,-0.13942020567783298,0.0,0.0,0.0,0.0,-3.248655619492347,-7.300667897994822,-4.385159488156546,0.006587019741888234,-0.003318198418905687,-0.932131526144219
13943,1.0,299.31325,49239.03599999999,0.0,-0.13943020166525222,0.0,0.0,0.0,0.0,-3.2715782751796367,-7.304253587448703,-4.391605379992705,0.0064910707329438036,0.009703910190551371,-0.932052137998884
13944,1.0,300.69928,49410.805,0.0,-0.13944023064272915,0.0,0.0,0.0,0.0,-3.2784231849051766,-7.332989360284702,-4.408238387009256,0.03503551246448587,-0.014356680885144087,-0.9515321447489111
13945,1.0,300.36367,49373.285,0.0,-0.1394502266301484,0.0,0.0,0.0,0.0,-3.260950902830797,-7.321923554617593,-4.4253712303001365,0.005805836237466425,0.005927150645439225,-0.945286623120026
13946,1.0,299.61569,49245.2,0.0,-0.13946022261756752,0.0,0.0,0.0,0.0,-3.224014491635457,-7.328430849409814,-4.416865704985706,0.013990684816523088,0.0065101977537564935,-0.9476731108155542
13947,1.0,300.25752,49400.350999999995,0.0,-0.13947021860498698,0.0,0.0,0.0,0.0,-3.2741103871795367,-7.331530077490683,-4.410832611240286,-0.005285819263544745,0.026848174025958474,-0.9108609950099811
13948,1.0,299.77754,49582.626,0.0,-0.13948021459240612,0.0,0.0,0.0,0.0,-3.301295684712517,-7.342093919058253,-4.428490723383006,-0.015444849684287984,0.015308065987038485,-0.946655341620108
13949,1.0,300.26437000000004,49556.887,0.0,-0.1394902105798257,0.0,0.0,0.0,0.0,-3.317804973891857,-7.350154728903793,-4.396096408410936,-0.029426140659133973,-0.007436899779239862,-0.9166307754519142
13950,1.0,300.67309,49434.363,0.0,-0.13950020656724493,0.0,0.0,0.0,0.0,-3.263177317275527,-7.3446132641068935,-4.419021495898466,-0.008691830799716912,-0.016134492020350385,-0.957385943889136
13951,1.0,300.02423999999996,49265.753,0.0,-0.13951020255466406,0.0,0.0,0.0,0.0,-3.2454973189306466,-7.325039906625153,-4.405021723241796,-0.006991545050861773,0.004717189589575365,-0.9328823748658222
13952,1.0,300.28143,49345.807,0.0,-0.1395202315321411,0.0,0.0,0.0,0.0,-3.235363500705517,-7.336517902432943,-4.428011658735725,0.016140698177212885,0.00014538216799560286,-0.9492073335869701
13953,1.0,300.73444,49498.624,0.0,-0.13953022751956023,0.0,0.0,0.0,0.0,-3.294000182667507,-7.328895931205713,-4.4234495001604754,-0.0002090848775425708,0.005438206911009235,-0.922531255024246
13954,1.0,300.2049,49422.255999999994,0.0,-0.13954022350697948,0.0,0.0,0.0,0.0,-3.280687798878677,-7.338375189866243,-4.404068660197736,0.012764002702208987,-0.004727475395315496,-0.93681042126349
13955,1.0,299.82117999999997,49377.802,0.0,-0.13955021949439883,0.0,0.0,0.0,0.0,-3.3059612961229767,-7.322482362047743,-4.381175287438336,0.009270957136772232,0.005434997947942535,-0.9124597212827632
13956,1.0,299.76567,49550.499,0.0,-0.1395602154818183,0.0,0.0,0.0,0.0,-3.288346753734557,-7.336835049714243,-4.436932717916165,0.016112560221935884,-0.014837284659325987,-0.9276611477630271
13957,1.0,300.10596,49652.312999999995,0.0,-0.13957021146923765,0.0,0.0,0.0,0.0,-3.286275974505187,-7.355071525014043,-4.451715935550156,0.010227394911615291,-0.007415457380623664,-0.9311840359757091
13958,1.0,299.19894,49510.776,0.0,-0.1395802074566569,0.0,0.0,0.0,0.0,-3.256273740369197,-7.324619914458703,-4.469146066420376,-0.003091509040283187,-0.007994082969479562,-0.9284355342844531
13959,1.0,299.32242,49467.937000000005,0.0,-0.13959020344407602,0.0,0.0,0.0,0.0,-3.273837620252617,-7.344669296837424,-4.418510513873036,0.008377097080155112,0.014398582829779485,-0.9365437034396671
13960,1.0,299.91845,49302.475,0.0,-0.13960023242155306,0.0,0.0,0.0,0.0,-3.2727706678973174,-7.320742105000994,-4.393208544300926,-0.011637881607319489,0.008465735793603072,-0.9409752743420292
13961,1.0,299.78958,49367.054000000004,0.0,-0.1396102284089722,0.0,0.0,0.0,0.0,-3.287383152889457,-7.337866031690994,-4.3811026374061655,-0.002943761065026597,0.004214760712214495,-0.948362039823546
13962,1.0,299.43305,49505.926,0.0,-0.13962022439639143,0.0,0.0,0.0,0.0,-3.263703903352497,-7.364157845285793,-4.420703592389476,-0.0041116008076084055,-0.017185905172116784,-0.9517507433254851
13963,1.0,299.5501,49502.945999999996,0.0,-0.1396302203838108,0.0,0.0,0.0,0.0,-3.257949453384577,-7.355332943539843,-4.434377199838955,-0.01034209279643509,0.003031019326538317,-0.931647071006407
13964,1.0,300.20968,49471.475,0.0,-0.13964021637123014,0.0,0.0,0.0,0.0,-3.243126718996687,-7.359260807552493,-4.435705672045066,0.002197708562771948,-0.026985188744230774,-0.9335994823590952
13965,1.0,300.72842,49647.519,0.0,-0.1396502123586496,0.0,0.0,0.0,0.0,-3.3129986220425067,-7.350695804457193,-4.4279117522758655,-0.014023439139255685,-0.004074157467388036,-0.9077344598389161
13966,1.0,300.1238,49736.35400000001,0.0,-0.13966020834606874,0.0,0.0,0.0,0.0,-3.313290336746297,-7.357395819418433,-4.4479237457258956,-0.0004997800693469526,0.01020098150800849,-0.9274525195674371
13967,1.0,299.72503,49561.545,0.0,-0.13967020433348798,0.0,0.0,0.0,0.0,-3.305357500388387,-7.348973988562263,-4.411140639270686,0.013870136425625885,0.025164880886580376,-0.9258831978125572
13968,1.0,300.08462000000003,49489.029,0.0,-0.13968020032090733,0.0,0.0,0.0,0.0,-3.255090264252397,-7.337983163402552,-4.450355647290905,0.006497643990317535,0.0006893894187049383,-0.9434885094925661
13969,1.0,299.71552,49447.128,0.0,-0.13969022929838415,0.0,0.0,0.0,0.0,-3.270602616658347,-7.325482392943823,-4.434607106286646,0.004669449196538756,-0.01903423750103298,-0.9439390410170302
13970,1.0,299.97902999999997,49341.185,0.0,-0.1397002252858034,0.0,0.0,0.0,0.0,-3.2420966489450267,-7.3356643405487025,-4.420726998466786,0.0070606912641859735,-0.024548847117282578,-0.9472900212177461
13971,1.0,299.25257999999997,49456.497,0.0,-0.13971022127322275,0.0,0.0,0.0,0.0,-3.2956581638061366,-7.3417943010036835,-4.396087491810055,-0.0024246288610922373,0.018965209837970485,-0.9410459991990091
13972,1.0,298.84475,49727.39,0.0,-0.1397202172606421,0.0,0.0,0.0,0.0,-3.3120153641454673,-7.369495849462613,-4.434373552138596,-0.02041616878241898,0.0003148466158879417,-0.9315118426480612
13973,1.0,299.17919,49676.331,0.0,-0.13973021324806156,0.0,0.0,0.0,0.0,-3.3105619582020265,-7.3638015865506325,-4.426000559937246,-0.019324769741956283,0.00981727929919003,-0.9384483299176392
13974,1.0,299.95217,49637.227999999996,0.0,-0.1397402092354807,0.0,0.0,0.0,0.0,-3.260099975396817,-7.374571016563493,-4.453806777131506,-0.015283627407876586,0.00941855667088917,-0.9065446711739932
13975,1.0,299.54784,49684.074,0.0,-0.13975020522289994,0.0,0.0,0.0,0.0,-3.285111446165257,-7.367420814582823,-4.450185522599116,0.005671062119140254,0.0051679219402091855,-0.9418132220422282
13976,1.0,299.96529,49556.76,0.0,-0.1397602012103193,0.0,0.0,0.0,0.0,-3.2666968414978768,-7.351125017199552,-4.446195647680346,-0.007361780557901173,-0.02000785938962198,-0.9128072255370592
13977,1.0,299.93293,49478.208,0.0,-0.1397702301877961,0.0,0.0,0.0,0.0,-3.291139271010157,-7.348118906802873,-4.400881482008186,-0.013608487892053187,-0.015999111674489384,-0.9449103121653871
13978,1.0,300.29707,49439.144,0.0,-0.13978022617521524,0.0,0.0,0.0,0.0,-3.288109247911117,-7.325707030490993,-4.414449002172196,-0.0030701718170273668,0.004240187615523936,-0.9288330525636851
13979,1.0,300.09493,49372.483,0.0,-0.13979022216263481,0.0,0.0,0.0,0.0,-3.268103029986657,-7.336661277322094,-4.403237795115736,0.007390790212239202,0.025455055450218374,-0.9555892386793151
13980,1.0,299.98363,49512.733,0.0,-0.13980021815005406,0.0,0.0,0.0,0.0,-3.2417221517080668,-7.363275608423722,-4.445636840250195,0.008862520682412691,0.004191151984884496,-0.9460014913305781
13981,1.0,299.79902999999996,49820.13,0.0,-0.1398102141374734,0.0,0.0,0.0,0.0,-3.312825254950397,-7.3669152027829234,-4.464335154945576,0.009545365326204211,-0.005690009490710215,-0.9526237089491401
13982,1.0,299.87267,49848.97900000001,0.0,-0.13982021012489265,0.0,0.0,0.0,0.0,-3.2899625836690265,-7.392506049958542,-4.4703761520417755,0.02873738694340927,0.0017167426530043084,-0.9383769261830922
13983,1.0,300.41832999999997,49673.114,0.0,-0.1398302061123119,0.0,0.0,0.0,0.0,-3.3229045603201466,-7.361952202468114,-4.414529454230136,0.010994773795349688,0.007789140369803303,-0.9299762418565091
13984,1.0,300.24124,49713.032999999996,0.0,-0.13984020209973125,0.0,0.0,0.0,0.0,-3.291052435476587,-7.377954359972402,-4.4425139021169855,-0.002415841246949968,-0.001890163852669648,-0.9269626536740911
13985,1.0,300.25297,49725.474,0.0,-0.13985023107720806,0.0,0.0,0.0,0.0,-3.318788738413947,-7.371608475921114,-4.424905135254137,-0.02105695017215918,-0.00993971861742385,-0.9241560319570991
13986,1.0,300.38844,49652.437999999995,0.0,-0.13986022706462742,0.0,0.0,0.0,0.0,-3.264120450468607,-7.365721695490134,-4.463259285989396,-0.015100727658825785,0.003822605363111777,-0.92854604947286
13987,1.0,300.95302000000004,49644.64,0.0,-0.13987022305204677,0.0,0.0,0.0,0.0,-3.3013582022436867,-7.3642343456683435,-4.425138385427155,0.002536364610569698,-0.020622649901047084,-0.9251575486209411
13988,1.0,300.25166,49653.807,0.0,-0.139880219039466,0.0,0.0,0.0,0.0,-3.267507137602847,-7.372221694881634,-4.453788639954716,-0.003505125634453967,-0.031272281328083865,-0.9418754761283721
13989,1.0,300.01942,49705.812999999995,0.0,-0.13989021502688537,0.0,0.0,0.0,0.0,-3.3127312253411167,-7.374683689974613,-4.421911082533645,0.006530644127524393,-0.013709008381473787,-0.935973344958377
13990,1.0,300.12077999999997,49809.03400000001,0.0,-0.1399002110143046,0.0,0.0,0.0,0.0,-3.2958477428998467,-7.390785145988703,-4.454069816857466,0.008520419482949931,-0.00013156570241452386,-0.9429000037019851
13991,1.0,300.25725,49778.008,0.0,-0.13991020700172374,0.0,0.0,0.0,0.0,-3.3097866192255068,-7.366344742976623,-4.455140011613086,0.003786008694674966,0.010037774578626221,-0.9236056142377771
13992,1.0,299.87162,49560.974,0.0,-0.13992020298914332,0.0,0.0,0.0,0.0,-3.2531291186838467,-7.356152257570702,-4.456017080899645,-0.01411810608284859,0.007900342845753132,-0.9387093330108982
13993,1.0,300.35197,49628.615,0.0,-0.1399302319666199,0.0,0.0,0.0,0.0,-3.278810955718447,-7.370000549337423,-4.4370482284275665,0.006958345708685253,0.016269459973420684,-0.9462012637202941
13994,1.0,299.93262000000004,49730.985,0.0,-0.13994022795403938,0.0,0.0,0.0,0.0,-3.300206947480067,-7.354972834454303,-4.4617978753701655,-0.003241951956830747,0.02475454702008358,-0.953822647262466
13995,1.0,299.82148,49712.831,0.0,-0.13995022394145873,0.0,0.0,0.0,0.0,-3.3199645138299867,-7.3763555526396125,-4.415139329465325,0.016302348045166483,0.005973151085404115,-0.95113868960258
13996,1.0,300.61977,49546.78400000001,0.0,-0.13996021992887797,0.0,0.0,0.0,0.0,-3.2771196386515267,-7.364239411918843,-4.419626203558146,-0.013079013039048088,-0.015297791631024486,-0.959224313943069
13997,1.0,300.31642,49603.642,0.0,-0.13997021591629732,0.0,0.0,0.0,0.0,-3.291962334066387,-7.378473954623684,-4.4078322763691755,0.0049352754615987655,-0.005621602139358934,-0.9412215447788341
13998,1.0,299.69707999999997,49661.22900000001,0.0,-0.13998021190371657,0.0,0.0,0.0,0.0,-3.2667374728268865,-7.380523658250973,-4.448512444033996,-0.002533545242166448,0.0007777876879041684,-0.9306300820135381
13999,1.0,299.95338,49809.695,0.0,-0.13999020789113592,0.0,0.0,0.0,0.0,-3.313099541752467,-7.391733142782263,-4.436070948706116,0.005874282700271564,-0.0034147866873382067,-0.9195932654317891
14000,1.0,300.57495,49815.69,0.0,-0.14000020387855527,0.0,0.0,0.0,0.0,-3.291954734690637,-7.387155886780523,-4.463615240749526,-0.01236904389272959,-0.011840541759820489,-0.9241286640718981
14001,1.0,300.80374,49746.329000000005,0.0,-0.14001023285603187,0.0,0.0,0.0,0.0,-3.3105553720763767,-7.375167111597322,-4.4359194678161655,0.005771385734066425,-0.007476431427916332,-0.9169894761198151
14002,1.0,300.57265,49731.388,0.0,-0.14002022884345122,0.0,0.0,0.0,0.0,-3.275822577198517,-7.387205232060392,-4.4540724513077254,0.0027437886597408575,0.010816796415284689,-0.9367139193239661
14003,1.0,300.23674,49812.639,0.0,-0.1400302248308707,0.0,0.0,0.0,0.0,-3.3225412088342865,-7.369886457376163,-4.449370768193706,0.002145171545086948,-0.005948857704981545,-0.9370909091561721
14004,1.0,300.19054,49911.318,0.0,-0.14004022081828982,0.0,0.0,0.0,0.0,-3.2966684754808466,-7.397909611416834,-4.477216299491846,0.0017296999939580985,0.003229066050009007,-0.9401228169003981
14005,1.0,299.85157999999996,49694.155999999995,0.0,-0.14005021680570928,0.0,0.0,0.0,0.0,-3.302455248126957,-7.373750587957523,-4.429576522190166,0.023305547701328477,0.017591237636119982,-0.9496405081372211
14006,1.0,299.98304,49642.265999999996,0.0,-0.1400602127931284,0.0,0.0,0.0,0.0,-3.266814479834487,-7.388444234282672,-4.434750683825816,0.011686633122630888,0.03299426846228076,-0.967609961638168
14007,1.0,300.04843999999997,49763.10400000001,0.0,-0.14007020878054788,0.0,0.0,0.0,0.0,-3.324448956122567,-7.390160375977043,-4.412131597868486,0.005300575224751045,-0.01959756402662898,-0.9632874569765701
14008,1.0,299.74369,49836.434,0.0,-0.14008020476796723,0.0,0.0,0.0,0.0,-3.305353447387987,-7.389061303593572,-4.454616769261445,-0.016198970190463884,-0.026166351954167874,-0.930980798270651
14009,1.0,299.82457,49752.845,0.0,-0.14009020075538636,0.0,0.0,0.0,0.0,-3.3137544052920966,-7.3777881869560025,-4.432080161862255,-0.0021567306009027377,-0.007470741015354733,-0.9299881475451841
14010,1.0,300.14087,49775.166,0.0,-0.14010022973286318,0.0,0.0,0.0,0.0,-3.2734937231686767,-7.383543751499034,-4.473370204762266,0.005333007435276855,0.006521380387160133,-0.8958564734216502
14011,1.0,299.48386,49820.019,0.0,-0.14011022572028264,0.0,0.0,0.0,0.0,-3.300564624765367,-7.387275146317292,-4.456202100367905,-0.005160397139666545,0.004104759748233246,-0.9347936887944541
14012,1.0,299.20855,49882.042,0.0,-0.14012022170770178,0.0,0.0,0.0,0.0,-3.280061914291907,-7.400412035188802,-4.482421365255545,-0.025684643737376976,0.001076484201640719,-0.9149643438074502
14013,1.0,300.01594,49886.425,0.0,-0.14013021769512113,0.0,0.0,0.0,0.0,-3.3317373654168763,-7.3897857774150735,-4.442704393135786,0.013069708363379787,-0.0031340817564847866,-0.9396431645680601
14014,1.0,300.48701,49825.787000000004,0.0,-0.14014021368254037,0.0,0.0,0.0,0.0,-3.300368459546007,-7.388347874198162,-4.457078865679436,0.008507767636901292,0.005462489854955775,-0.9317548706845461
14015,1.0,300.18615,49718.863,0.0,-0.14015020966995972,0.0,0.0,0.0,0.0,-3.329580054628967,-7.376136893268034,-4.407576025418886,0.023547030531410978,-0.02601910948938618,-0.9455034079789211
14016,1.0,300.14397,49788.960999999996,0.0,-0.1401602056573792,0.0,0.0,0.0,0.0,-3.299370813497547,-7.387476073812123,-4.447754228984166,0.013466746362064387,-0.025762642716824876,-0.9385287921080802
14017,1.0,299.37665,49966.652,0.0,-0.14017020164479832,0.0,0.0,0.0,0.0,-3.3404454394262966,-7.400392378136863,-4.447776925786405,0.0010295618054098389,0.005584843350906124,-0.9315687670386792
14018,1.0,300.04253,49958.065,0.0,-0.14018023062227514,0.0,0.0,0.0,0.0,-3.308399885138647,-7.397280788404773,-4.480323532248505,0.0017965010399258483,0.021665316677950276,-0.9464100743009021
14019,1.0,300.69146,49821.285,0.0,-0.1401902266096945,0.0,0.0,0.0,0.0,-3.3122672581203267,-7.4068019956194435,-4.425357551423786,-0.005525708149894934,-3.2226653491273074e-06,-0.9388355130458511
14020,1.0,299.67989,49809.060999999994,0.0,-0.14020022259711373,0.0,0.0,0.0,0.0,-3.280544221339507,-7.401064973553242,-4.459101718179076,-0.016837237706705983,0.004221188973498916,-0.929362333885921
14021,1.0,300.17217999999997,49871.183,0.0,-0.1402102185845331,0.0,0.0,0.0,0.0,-3.3216320195195568,-7.394260593831703,-4.443701735209216,0.0009761631603698031,-0.01090448814518919,-0.9203692832858761
14022,1.0,300.55609,49854.079000000005,0.0,-0.14022021457195255,0.0,0.0,0.0,0.0,-3.274862218753737,-7.413220327052883,-4.466312715165746,-0.0011784295233519388,0.023931649123619874,-0.9384833579735962
14023,1.0,300.36731000000003,49718.496,0.0,-0.14023021055937168,0.0,0.0,0.0,0.0,-3.2834146575477967,-7.390370422722772,-4.4393961315592865,-0.017604841531962585,5.552696471608475e-05,-0.9378031530489651
14024,1.0,299.82511,49688.357,0.0,-0.14024020654679104,0.0,0.0,0.0,0.0,-3.253491963544657,-7.410982969507073,-4.439544977998976,-0.0032900507364277266,0.009117181741970782,-0.9598528836426041
14025,1.0,299.95565,49889.807,0.0,-0.14025020253421028,0.0,0.0,0.0,0.0,-3.312259152119527,-7.413801122010202,-4.439195406714475,0.019513011345534282,0.017765716263589682,-0.9423678954119701
14026,1.0,300.06483,50103.517,0.0,-0.1402602315116871,0.0,0.0,0.0,0.0,-3.340867559417957,-7.409411317276963,-4.479939307810586,0.02444161080619918,0.0029708917483791874,-0.953451250570812
14027,1.0,299.7978,50075.277,0.0,-0.14027022749910645,0.0,0.0,0.0,0.0,-3.3490985952802967,-7.415019453930443,-4.457515576472536,0.017974739626718684,-0.02137497695454598,-0.9434094050572591
14028,1.0,299.30125,49770.718,0.0,-0.1402802234865257,0.0,0.0,0.0,0.0,-3.298477836184417,-7.381943221641072,-4.448634439346036,-0.00867761540743896,-0.02248664910300948,-0.9491093523023002
14029,1.0,300.25906000000003,49868.11,0.0,-0.14029021947394504,0.0,0.0,0.0,0.0,-3.316519159514957,-7.388608988748933,-4.453531983704386,-0.012987538846520288,0.0035315676117135867,-0.92140364951796
14030,1.0,300.18611,49988.627,0.0,-0.1403002154613644,0.0,0.0,0.0,0.0,-3.3220304294588767,-7.400243126397133,-4.473020937452795,-0.03403081014232947,0.01932174417715768,-0.9461982644999982
14031,1.0,300.05343999999997,49870.397000000004,0.0,-0.14031021144878364,0.0,0.0,0.0,0.0,-3.322621559567217,-7.393886501894784,-4.442847565374915,-0.027025743066233173,-8.066880733514143e-05,-0.9248981869928441
14032,1.0,300.72021,49758.39,0.0,-0.140320207436203,0.0,0.0,0.0,0.0,-3.285228983176857,-7.402771995996714,-4.437307012503105,-0.02263276483367998,-0.017571369828159183,-0.9594472897600752
14033,1.0,300.5371,49966.187999999995,0.0,-0.14033020342362224,0.0,0.0,0.0,0.0,-3.3361032574477565,-7.406381192852913,-4.445988843334936,0.01289784898741859,0.0034817050676675364,-0.9204756340163721
14034,1.0,300.29286,50132.997,0.0,-0.14034023240109905,0.0,0.0,0.0,0.0,-3.330451551039977,-7.418684480867153,-4.4900431338327556,0.014076139290206787,-0.009941927907941892,-0.947749590933102
14035,1.0,300.26515,50092.179000000004,0.0,-0.1403502283885184,0.0,0.0,0.0,0.0,-3.328481286220527,-7.430072500066063,-4.4682177266787555,0.013850481400186087,0.00026689898280837874,-0.9246295237288291
14036,1.0,299.68577999999997,49865.460999999996,0.0,-0.14036022437593765,0.0,0.0,0.0,0.0,-3.2681337314646868,-7.407311863069763,-4.482409307579355,0.024868516378081476,0.007422458330864603,-0.9430180574711361
14037,1.0,300.07974,49829.015999999996,0.0,-0.140370220363357,0.0,0.0,0.0,0.0,-3.294627992429467,-7.416975634573502,-4.435172803817475,0.012602748001794386,0.024036951140262375,-0.9415438697681451
14038,1.0,300.15769,49927.551,0.0,-0.14038021635077635,0.0,0.0,0.0,0.0,-3.288005693750897,-7.415300428183173,-4.4734225897924365,-0.004292534446165165,0.00942701122972357,-0.9359502124585941
14039,1.0,300.00719,50069.236,0.0,-0.1403902123381956,0.0,0.0,0.0,0.0,-3.3524249940335866,-7.413166827447602,-4.454205795020886,-0.017883313056945585,-0.021156688432502582,-0.948618118521319
14040,1.0,300.24856,50012.398,0.0,-0.14040020832561495,0.0,0.0,0.0,0.0,-3.291430175113867,-7.4349731854997225,-4.476116821808336,-0.01221591647136709,-0.007437717674720582,-0.9489978947913001
14041,1.0,300.02277999999995,49824.677,0.0,-0.1404102043130342,0.0,0.0,0.0,0.0,-3.299718662256877,-7.412026414460052,-4.433712406448346,-0.016955975419674484,0.01611781898995488,-0.967396267192078
14042,1.0,300.04614,50072.558,0.0,-0.1404202332905109,0.0,0.0,0.0,0.0,-3.294550478796817,-7.4372710340765025,-4.488985807353405,0.01029277791406809,-0.00957493804362281,-0.9453465365984391
14043,1.0,299.65628,50214.21400000001,0.0,-0.14043022927793036,0.0,0.0,0.0,0.0,-3.3601344087444467,-7.413066211712673,-4.490666485294276,-0.00932992302369171,-0.004807446159457995,-0.9335692469761111
14044,1.0,299.46845,49965.941,0.0,-0.14044022526534972,0.0,0.0,0.0,0.0,-3.300610018369847,-7.407711184934174,-4.4800772111491955,0.015536196207303185,-0.005811953430970145,-0.9087212337138031
14045,1.0,299.66798,49856.232,0.0,-0.14045022125276907,0.0,0.0,0.0,0.0,-3.315546946044007,-7.406757007315002,-4.432745765852945,0.02036696130456258,0.01057230017940479,-0.9202475412863612
14046,1.0,300.20184,50121.456,0.0,-0.1404602172401883,0.0,0.0,0.0,0.0,-3.330936796512867,-7.410156461400502,-4.494577833330296,0.009307689378072422,-0.0027915351322780673,-0.9033111367923681
14047,1.0,300.03091,50191.879,0.0,-0.14047021322760755,0.0,0.0,0.0,0.0,-3.344838486559857,-7.436424058317913,-4.475815379903586,0.014262824541631185,-0.003225663556173207,-0.9331421924564642
14048,1.0,300.37437,50111.005,0.0,-0.1404802092150269,0.0,0.0,0.0,0.0,-3.2975219360400767,-7.443422982058652,-4.491549228781396,0.006649250219304904,-0.012040576581312388,-0.933721335816121
14049,1.0,300.17039,50147.002,0.0,-0.14049020520244604,0.0,0.0,0.0,0.0,-3.3376394459243675,-7.425257636915873,-4.480539354519806,-0.005458209582558344,0.01912950631518528,-0.953384335534208
14050,1.0,300.68113999999997,50092.967000000004,0.0,-0.14050023417992286,0.0,0.0,0.0,0.0,-3.313925036608937,-7.435111392813363,-4.477974514541676,-0.0015109585491199986,0.002250233928080798,-0.945836686201813
14051,1.0,300.4215,50019.526,0.0,-0.1405102301673422,0.0,0.0,0.0,0.0,-3.338245572134187,-7.416861339962223,-4.449579903014346,-0.011424571183017387,0.012814669260209386,-0.956103534032572
14052,1.0,300.08943999999997,50092.892,0.0,-0.14052022615476167,0.0,0.0,0.0,0.0,-3.3090231352751567,-7.431110878768543,-4.486854334443046,-0.003105334331272637,-0.002762281284665937,-0.9605024073542071
14053,1.0,299.68191,50007.33,0.0,-0.14053022214218103,0.0,0.0,0.0,0.0,-3.3077639693758867,-7.431825422739063,-4.461390244854936,-0.0075321645403917635,0.007902634310854284,-0.969342102551617
14054,1.0,299.59629,49925.543,0.0,-0.14054021812960027,0.0,0.0,0.0,0.0,-3.285657790619177,-7.417517419401974,-4.472943221170126,-0.008408102533215112,-0.03208763861730337,-0.9589443124104352
14055,1.0,299.85609,50075.224,0.0,-0.1405502141170194,0.0,0.0,0.0,0.0,-3.3180458234406265,-7.441321602676264,-4.462250392864826,-0.017290366191176285,-0.008701968265642403,-0.9307572347685871
14056,1.0,299.78676,50176.552,0.0,-0.14056021010443887,0.0,0.0,0.0,0.0,-3.3217709361082672,-7.432313100012193,-4.498334762051075,0.006897873017542063,-0.0017497673108635883,-0.9281393916777261
14057,1.0,299.4947,50149.523,0.0,-0.14057020609185822,0.0,0.0,0.0,0.0,-3.3132451457918366,-7.4488561304198635,-4.482101380873966,0.013560165994784186,0.02373064259528208,-0.928112814127603
14058,1.0,299.85867,50130.945999999996,0.0,-0.14058020207927757,0.0,0.0,0.0,0.0,-3.299546207089857,-7.466691966630122,-4.472317843208405,0.008351430644522033,0.004219285684511076,-0.960505122864475
14059,1.0,299.61292000000003,50060.17,0.0,-0.14059023105675417,0.0,0.0,0.0,0.0,-3.3332735538934872,-7.418405837089653,-4.465362286571946,0.0009982487194869782,-0.0049225535999682145,-0.940887324233349
14060,1.0,299.50584,50068.066,0.0,-0.14060022704417363,0.0,0.0,0.0,0.0,-3.3351609348547573,-7.431480613730033,-4.452800417132186,0.022391327599851976,-0.014676058329914187,-0.9544775513321001
14061,1.0,299.49176,50157.179000000004,0.0,-0.14061022303159298,0.0,0.0,0.0,0.0,-3.3528846042789464,-7.420841386355023,-4.4728038992813755,0.003218157703407437,0.011548433914991689,-0.9399522159810612
14062,1.0,299.95769,50227.205,0.0,-0.14062021901901212,0.0,0.0,0.0,0.0,-3.345778073377587,-7.418914184664822,-4.503123989973736,0.016913903249022286,-0.005572243687237634,-0.9432999740464592
14063,1.0,300.25112,50210.16,0.0,-0.14063021500643136,0.0,0.0,0.0,0.0,-3.3275622683798267,-7.437934104941943,-4.497138518983016,-0.01988843469308568,0.004575338425925745,-0.9295836378402621
14064,1.0,300.08574,50120.975,0.0,-0.1406402109938507,0.0,0.0,0.0,0.0,-3.2983812734498867,-7.4346161161644835,-4.502527590964876,0.0006916480849003513,0.0003939996061397336,-0.949278717056515
14065,1.0,300.05638,50277.825999999994,0.0,-0.14065020698127018,0.0,0.0,0.0,0.0,-3.341133537569207,-7.454399419066943,-4.487670710048616,-0.006354945648259305,-0.0024658387559093374,-0.9380098560693652
14066,1.0,300.65501,50216.762,0.0,-0.14066020296868953,0.0,0.0,0.0,0.0,-3.325829813358847,-7.448599068869493,-4.4902126505744855,0.003241362447922567,-0.016770575982626983,-0.953226531963634
14067,1.0,299.88527,50093.231,0.0,-0.14067023194616635,0.0,0.0,0.0,0.0,-3.331572104325567,-7.443816427072484,-4.451702864623866,-0.014367656410227286,-0.00025685107805922775,-0.923149114670224
14068,1.0,299.83615,50076.901,0.0,-0.14068022793358548,0.0,0.0,0.0,0.0,-3.3109414203644767,-7.442424728060134,-4.468761436682415,0.007449031220037143,0.002006953085695848,-0.935752274051559
14069,1.0,299.76185,50165.157999999996,0.0,-0.14069022392100494,0.0,0.0,0.0,0.0,-3.3143779594036364,-7.447822817967883,-4.486754630633206,-0.0003480429284466627,0.03592896803166307,-0.9230370694741661
14070,1.0,299.58852,50209.776,0.0,-0.14070021990842407,0.0,0.0,0.0,0.0,-3.2952260126384867,-7.4642683737159325,-4.503023678213836,0.0026861556020029175,0.005579861200164425,-0.9595001510177921
14071,1.0,300.26997,50276.757000000005,0.0,-0.14071021589584332,0.0,0.0,0.0,0.0,-3.3407724152335674,-7.466684772554412,-4.475421630914726,0.007108253021229954,0.006281804291115814,-0.9432695157484531
14072,1.0,300.21552,50180.315,0.0,-0.14072021188326267,0.0,0.0,0.0,0.0,-3.3301502104602365,-7.438863964558713,-4.484548683840496,0.004779656458240365,-0.013579259679668589,-0.9521030605177561
14073,1.0,299.316,50057.431,0.0,-0.14073020787068202,0.0,0.0,0.0,0.0,-3.332833803350087,-7.442220051539934,-4.441155336382906,0.012301510773564589,-0.003843411238015156,-0.9412324473499101
14074,1.0,299.24048,50175.365,0.0,-0.1407402038581015,0.0,0.0,0.0,0.0,-3.315482199362617,-7.453645054367493,-4.482930928730836,0.0003530231236156697,-0.020643368839091878,-0.958925364633565
14075,1.0,299.86649,50242.024000000005,0.0,-0.1407502328355783,0.0,0.0,0.0,0.0,-3.331338550177517,-7.4434865128399235,-4.497495790968276,-0.017364455038488283,-0.014046557453537289,-0.949742967987333
14076,1.0,300.17713,50155.374,0.0,-0.14076022882299744,0.0,0.0,0.0,0.0,-3.3024331592747767,-7.458224134219412,-4.485324022817016,-0.012086926693886788,-0.011721638887085687,-0.9609823636615751
14077,1.0,300.40246,50026.398,0.0,-0.1407702248104168,0.0,0.0,0.0,0.0,-3.318743243484457,-7.420197060616433,-4.467835528741037,-0.006866066894253044,-0.0004845124776351586,-0.9462532535829251
14078,1.0,300.15823,50316.128,0.0,-0.14078022079783603,0.0,0.0,0.0,0.0,-3.3449225863181566,-7.462023416794373,-4.487900616496305,0.0015437478289810486,-0.003470287157590677,-0.9352461049641041
14079,1.0,300.4838,50514.293,0.0,-0.14079021678525527,0.0,0.0,0.0,0.0,-3.384161101740697,-7.457957345468084,-4.512965181569986,-0.007968789511208293,0.008405630000321093,-0.9256512243346631
14080,1.0,300.39186,50431.27,0.0,-0.14080021277267485,0.0,0.0,0.0,0.0,-3.3426616200450168,-7.478352651430943,-4.508832641037136,0.01112488422744059,0.006633615162311843,-0.9146265363566112
14081,1.0,299.92926,50249.227999999996,0.0,-0.14081020876009398,0.0,0.0,0.0,0.0,-3.3279691896199863,-7.457423261340373,-4.489118239141476,-0.003911784341513056,0.015659526982974986,-0.9238039478123511
14082,1.0,300.0729,50227.310999999994,0.0,-0.14082020474751344,0.0,0.0,0.0,0.0,-3.3165351688665368,-7.453568756634963,-4.497744543867825,0.005348492429930105,0.00031818286343220363,-0.9373539590146331
14083,1.0,299.74235,50236.292,0.0,-0.14083023372499015,0.0,0.0,0.0,0.0,-3.3362636549385867,-7.465395513127172,-4.468919301047996,0.002489065487951638,-0.0034836691516613766,-0.9539730642398111
14084,1.0,300.12195,50315.787000000004,0.0,-0.1408402297124094,0.0,0.0,0.0,0.0,-3.340570271838617,-7.4663998466262935,-4.487772643008675,-0.003530195367103156,-0.008920141479824421,-0.961170929505185
14085,1.0,300.2082,50220.754,0.0,-0.14085022569982875,0.0,0.0,0.0,0.0,-3.3479222119141965,-7.4399243307883625,-4.4780087623950555,0.017808690226830882,-0.014433985788273486,-0.960560375392428
14086,1.0,300.0203,50004.16099999999,0.0,-0.140860221687248,0.0,0.0,0.0,0.0,-3.2850286636320867,-7.444723184586973,-4.470264491880755,0.0030544312806988975,-0.008021542655139623,-0.971897488906314
14087,1.0,299.88341,50183.983,0.0,-0.14087021767466734,0.0,0.0,0.0,0.0,-3.3063936499406466,-7.4472334103847135,-4.501050677619116,-0.004272140660077457,0.008520640675446762,-0.946421939459573
14088,1.0,300.65001,50502.473,0.0,-0.1408802136620867,0.0,0.0,0.0,0.0,-3.342617543665667,-7.479349284229302,-4.5295238160291955,-0.016081199118090785,0.003951736286331007,-0.9621473682290521
14089,1.0,300.82211,50396.6,0.0,-0.14089020964950594,0.0,0.0,0.0,0.0,-3.362876364840057,-7.478010983497223,-4.478420648560705,-0.014261341143484787,0.016894890624145883,-0.9382228919028901
14090,1.0,300.47099,50306.382000000005,0.0,-0.1409002056369253,0.0,0.0,0.0,0.0,-3.348636755884717,-7.467458794305802,-4.475788326125916,-0.003287570604157957,-0.001930821424857238,-0.9572420117124312
14091,1.0,300.47674,50404.333,0.0,-0.1409102346144021,0.0,0.0,0.0,0.0,-3.3644081963412362,-7.472166860895453,-4.485083679893296,0.01067210430100469,0.0001302315762728559,-0.9091171409253762
14092,1.0,300.07032000000004,50426.704000000005,0.0,-0.14092023060182135,0.0,0.0,0.0,0.0,-3.324735604575857,-7.482425511532902,-4.521297643767336,0.005661842556480355,0.01029857877089059,-0.943608427641901
14093,1.0,299.94485,50416.028,0.0,-0.1409302265892407,0.0,0.0,0.0,0.0,-3.325091761986007,-7.475857725709714,-4.524264338735126,0.013431536934339489,-0.004988643648340795,-0.9170452758028222
14094,1.0,299.76847000000004,50232.71,0.0,-0.14094022257665995,0.0,0.0,0.0,0.0,-3.3079206178413467,-7.454392934266302,-4.507176078448645,0.015227005979038486,0.008085253490952392,-0.945072087676353
14095,1.0,300.1914,50104.684,0.0,-0.1409502185640793,0.0,0.0,0.0,0.0,-3.3370551045916965,-7.429511564810703,-4.464006253963117,0.012301395263053187,0.012599732569496789,-0.9086397076107572
14096,1.0,299.96277000000003,50348.31,0.0,-0.14096021455149865,0.0,0.0,0.0,0.0,-3.3621376041921462,-7.4626425126054725,-4.4798488245766555,0.004343715127266307,-0.0003838618463717146,-0.9547830158397471
14097,1.0,299.88187,50606.907,0.0,-0.1409702105389179,0.0,0.0,0.0,0.0,-3.3995877331881865,-7.4761351535870935,-4.507512984106896,-0.001999031293764028,-0.006276132623681064,-0.9381650859846852
14098,1.0,300.01145,50531.837999999996,0.0,-0.14098020652633725,0.0,0.0,0.0,0.0,-3.349030808848607,-7.4994007944332335,-4.511985368723286,-0.014512298875252384,-0.002775052592901367,-0.9660655050407421
14099,1.0,300.22212,50305.778,0.0,-0.1409902025137565,0.0,0.0,0.0,0.0,-3.3203250282155667,-7.4726008359132825,-4.498774512594475,0.006115062537434684,0.003577115635508827,-0.9449776021045281
14100,1.0,300.09087,50359.802,0.0,-0.1410002314912332,0.0,0.0,0.0,0.0,-3.3299364146891364,-7.483115940151042,-4.495069968903866,-0.016290132301960882,0.014703475864370086,-0.9591480162105391
14101,1.0,300.84695,50571.072,0.0,-0.14101022747865266,0.0,0.0,0.0,0.0,-3.366111672409357,-7.500376351629513,-4.505855002968266,0.005718127991585295,0.003911252486535566,-0.9445454205393751
14102,1.0,300.88369,50355.807,0.0,-0.1410202234660718,0.0,0.0,0.0,0.0,-3.3531743938075467,-7.4745790040835125,-4.479154545608137,-0.009401938963949131,0.006419000989106073,-0.9544172730836511
14103,1.0,300.45849,50159.662000000004,0.0,-0.14103021945349126,0.0,0.0,0.0,0.0,-3.3189134695012568,-7.466012379788053,-4.462358810625526,0.018596269264558884,-0.006702715779381543,-0.9337003210090471
14104,1.0,299.91317999999995,50221.315,0.0,-0.1410402154409106,0.0,0.0,0.0,0.0,-3.314248364715847,-7.464223689386522,-4.487553578337056,0.002060939962948938,-0.016257766054016586,-0.9527025600719221
14105,1.0,299.46342000000004,50406.875,0.0,-0.14105021142832985,0.0,0.0,0.0,0.0,-3.3314388619374165,-7.4822711935426724,-4.5087213861761555,0.014153431021084885,-0.012630536385786888,-0.9361858741668521
14106,1.0,299.60388,50515.643,0.0,-0.1410602074157492,0.0,0.0,0.0,0.0,-3.3545778465210567,-7.489980912228563,-4.510935337644655,0.011709657204653189,0.0015363985233557286,-0.9417400957825112
14107,1.0,299.74297,50463.922,0.0,-0.14107020340316834,0.0,0.0,0.0,0.0,-3.3524730220883265,-7.485588270395043,-4.501710911384276,0.008579085954464861,0.003179824020324197,-0.9313025659724071
14108,1.0,299.50497,50345.388,0.0,-0.14108023238064515,0.0,0.0,0.0,0.0,-3.3425924150631863,-7.472986276251323,-4.488162035022105,-0.005490551309850224,0.019772896823932982,-0.9443172568818571
14109,1.0,300.61203,50498.401,0.0,-0.14109022836806462,0.0,0.0,0.0,0.0,-3.3624320546712068,-7.490605986215253,-4.497215019365566,-0.012985842665852888,0.000979355222424835,-0.9571841146017172
14110,1.0,300.42453,50666.526,0.0,-0.14110022435548397,0.0,0.0,0.0,0.0,-3.3598775498440974,-7.493694676495084,-4.547786635831596,-0.02342566343443298,0.019934843574165882,-0.9565924474708242
14111,1.0,299.92332999999996,50520.178,0.0,-0.1411102203429031,0.0,0.0,0.0,0.0,-3.3576079709451068,-7.489417747822983,-4.509846904387236,-0.008283392825482221,-0.006809050905826004,-0.939589958805309
14112,1.0,299.93129,50337.117999999995,0.0,-0.14112021633032257,0.0,0.0,0.0,0.0,-3.3325900153760264,-7.464778849116312,-4.503858190996196,-0.02028591244231368,-0.007495557638128942,-0.93728340641017
14113,1.0,299.59623999999997,50317.874,0.0,-0.1411302123177417,0.0,0.0,0.0,0.0,-3.340707465902157,-7.4700662921131435,-4.484603399345896,-0.0016865336145229085,-0.003388076806752147,-0.9368291663903402
14114,1.0,299.20173,50469.694,0.0,-0.14114020830516116,0.0,0.0,0.0,0.0,-3.3413798586685166,-7.485856882996553,-4.514290006075735,0.013150426906096089,-0.0005183679195164305,-0.91931179468651
14115,1.0,299.83918,50492.942,0.0,-0.1411502042925803,0.0,0.0,0.0,0.0,-3.339897271122197,-7.498194418864173,-4.510501767926867,0.017661435603047983,-0.0002208469785458998,-0.9488760413342741
14116,1.0,298.6855,50377.712,0.0,-0.1411602332700571,0.0,0.0,0.0,0.0,-3.3058654426635172,-7.504751160261272,-4.5029500149315655,0.0034168039669622966,-0.008504148206219081,-0.9461746051101632
14117,1.0,299.16922999999997,50368.983,0.0,-0.14117022925747647,0.0,0.0,0.0,0.0,-3.338301807514737,-7.494323499507143,-4.478287710147586,0.013956181624117886,-0.02833712174315618,-0.966842151109891
14118,1.0,299.57939,50547.565,0.0,-0.14118022524489593,0.0,0.0,0.0,0.0,-3.3530458123698574,-7.506777052511213,-4.505374722420866,-0.016215280477323585,0.0034605436433040667,-0.9417286156588781
14119,1.0,299.82686,50624.282999999996,0.0,-0.14119022123231506,0.0,0.0,0.0,0.0,-3.3707349299656366,-7.509591455988973,-4.5081916590238755,0.002889204639892297,-0.016216768941720486,-0.9531831344618511
14120,1.0,300.13639,50619.492,0.0,-0.14120021721973453,0.0,0.0,0.0,0.0,-3.3554908861861668,-7.498574286326663,-4.532996325446906,-0.011441092225897889,0.00903835473454116,-0.9347816919132702
14121,1.0,300.39951,50378.751,0.0,-0.14121021320715366,0.0,0.0,0.0,0.0,-3.3246705539194363,-7.478807702050853,-4.510404090617225,-0.015619806565804884,0.0049760475310476554,-0.951062219617533
14122,1.0,299.8465,50348.317,0.0,-0.141220209194573,0.0,0.0,0.0,0.0,-3.319702386029117,-7.475560640780392,-4.509368245039996,-0.01168690062065729,0.01191990254740279,-0.9316540725645981
14123,1.0,300.12875,50624.34,0.0,-0.14123020518199247,0.0,0.0,0.0,0.0,-3.381983019325737,-7.491916219919562,-4.514636132309896,-0.010576385603807989,-0.005463113611717334,-0.946787074265609
14124,1.0,299.53488,50620.54,0.0,-0.14124023415946907,0.0,0.0,0.0,0.0,-3.3738276732458665,-7.493291200305263,-4.520261291565055,-0.0017610441765265282,0.001136687368257309,-0.9278849240476121
14125,1.0,300.27302000000003,50468.47900000001,0.0,-0.14125023014688842,0.0,0.0,0.0,0.0,-3.349117847032197,-7.500033670445694,-4.492006001926476,0.014830829242938885,-0.008180435672221143,-0.9421751144479441
14126,1.0,299.97272000000004,50510.441,0.0,-0.14126022613430778,0.0,0.0,0.0,0.0,-3.336605829497357,-7.497453023766003,-4.519853965024855,0.005083387396291275,0.015122323058207085,-0.9166159414704501
14127,1.0,299.80531,50695.635,0.0,-0.14127022212172702,0.0,0.0,0.0,0.0,-3.3517309177150865,-7.526250908833132,-4.532225242120806,0.004206584189207536,-0.016074861238715286,-0.943014156458251
14128,1.0,299.27066,50740.929000000004,0.0,-0.14128021810914637,0.0,0.0,0.0,0.0,-3.3762150931314867,-7.515356747732963,-4.532403675463416,-0.020318045642734983,-0.006839776093908343,-0.957471208885051
14129,1.0,299.24969,50643.35400000001,0.0,-0.14129021409656561,0.0,0.0,0.0,0.0,-3.382636970940277,-7.510442484747964,-4.501235494437355,0.0074197980427270546,-0.0023132224178972777,-0.955936216043559
14130,1.0,299.46075,50511.181,0.0,-0.14130021008398497,0.0,0.0,0.0,0.0,-3.3603319925139465,-7.495204419144083,-4.498601246827375,-0.0017682332873110384,0.005976390445973814,-0.946879827179763
14131,1.0,300.15724,50561.011,0.0,-0.14131020607140443,0.0,0.0,0.0,0.0,-3.3447382761249673,-7.507910068773033,-4.5166365919823255,-0.0008336325922631312,-0.018421396482800285,-0.9583329173000951
14132,1.0,300.16805,50619.845,0.0,-0.14132023504888103,0.0,0.0,0.0,0.0,-3.3484000606613566,-7.495972766694913,-4.542795872464046,-0.003935294580933337,-0.0072919440172838435,-0.9552294943638111
14133,1.0,300.13282999999996,50559.835999999996,0.0,-0.1413302310363006,0.0,0.0,0.0,0.0,-3.3268863292381172,-7.509422749847322,-4.532618383159606,0.008918419258629452,0.02356464791089968,-0.9647664170875321
14134,1.0,299.81154,50376.934,0.0,-0.14134022702371973,0.0,0.0,0.0,0.0,-3.344807582431807,-7.472872792240122,-4.495649547961066,0.007528988609278322,0.029970856820143273,-0.956164724206111
14135,1.0,299.76386,50450.865,0.0,-0.14135022301113898,0.0,0.0,0.0,0.0,-3.348238345945397,-7.499768604219533,-4.487796150410996,0.004966967999551575,-0.0041733570839782765,-0.9552097055893581
14136,1.0,300.16922999999997,50735.15900000001,0.0,-0.14136021899855833,0.0,0.0,0.0,0.0,-3.3857072200682867,-7.5155483533268725,-4.520965905684595,0.003162682868382497,0.0032255003215820965,-0.9509354012350171
14137,1.0,299.79655,50795.162000000004,0.0,-0.14137021498597757,0.0,0.0,0.0,0.0,-3.3731329889773067,-7.528099178340542,-4.539228826812005,0.010876600462686889,0.001199136809020589,-0.9411402314583092
14138,1.0,299.79809,50648.867999999995,0.0,-0.14138021097339692,0.0,0.0,0.0,0.0,-3.3452077148962966,-7.524394026699873,-4.526389529494866,0.007792158943176212,0.013148407498646788,-0.924588061534737
14139,1.0,299.77461,50624.91099999999,0.0,-0.14139020696081628,0.0,0.0,0.0,0.0,-3.3420977463643675,-7.517732616567442,-4.5288784770405055,-0.021922346817567183,-0.0066501138123651335,-0.941850195538377
14140,1.0,299.6766,50730.403,0.0,-0.14140020294823552,0.0,0.0,0.0,0.0,-3.3791791536490168,-7.519014377943943,-4.522582343569126,-0.009277526037170532,-0.006460569777108594,-0.9516766038156681
14141,1.0,299.96806000000004,50810.596,0.0,-0.14141023192571245,0.0,0.0,0.0,0.0,-3.3905779132989866,-7.536587073103234,-4.517987558340655,-0.006373414056506994,0.014590343450954788,-0.9673871074111741
14142,1.0,300.56317,50691.245,0.0,-0.1414202279131317,0.0,0.0,0.0,0.0,-3.375785373764076,-7.510355750539402,-4.5227316966338655,0.013654033484048186,-0.008181279709554441,-0.9434657620278211
14143,1.0,300.24595,50495.187999999995,0.0,-0.14143022390055093,0.0,0.0,0.0,0.0,-3.3537940975687066,-7.502193210383823,-4.493288979203095,0.010235697482934689,-0.025712994475174975,-0.966782004583955
14144,1.0,300.0901,50549.905,0.0,-0.1414402198879703,0.0,0.0,0.0,0.0,-3.3322067028631968,-7.499225198190903,-4.534476987818036,-0.0025428229653820873,-0.005983113968337375,-0.9441565756809991
14145,1.0,299.87591000000003,50697.806,0.0,-0.14145021587538942,0.0,0.0,0.0,0.0,-3.3503538095041767,-7.511711783148233,-4.548801507131755,0.015962741062149885,0.018318288152624283,-0.960119348153902
14146,1.0,300.00106,50782.925,0.0,-0.141460211862809,0.0,0.0,0.0,0.0,-3.3785998785668467,-7.516230371969184,-4.5419107985016955,-0.0028297317226227774,0.012853382506780088,-0.9294684110388901
14147,1.0,300.06277,50718.969000000005,0.0,-0.14147020785022824,0.0,0.0,0.0,0.0,-3.368560697901057,-7.529216691875833,-4.519522834892176,-0.0016370770797919285,-1.193768609990789e-05,-0.9491857310948381
14148,1.0,299.75448,50648.320999999996,0.0,-0.14148020383764748,0.0,0.0,0.0,0.0,-3.3601913534000674,-7.519825889949034,-4.515807652075516,0.00028037097375296075,-0.013612347361684088,-0.942311477646402
14149,1.0,299.62435,50829.458,0.0,-0.1414902328151244,0.0,0.0,0.0,0.0,-3.3759176029021263,-7.536955997464642,-4.538012420066956,0.008424118572245771,0.013687455538596686,-0.9545947641036682
14150,1.0,299.61237,50872.992999999995,0.0,-0.14150022880254365,0.0,0.0,0.0,0.0,-3.366182498591347,-7.541126433551234,-4.556810641222196,0.004171191565864556,-0.015211621802770183,-0.9264489156083892
14151,1.0,299.4357,50590.789000000004,0.0,-0.14151022478996278,0.0,0.0,0.0,0.0,-3.3302789945479465,-7.523704003381773,-4.524353808718955,-0.01198754205782829,-0.013120294874622289,-0.9595730644949881
14152,1.0,299.63432,50624.202000000005,0.0,-0.14152022077738224,0.0,0.0,0.0,0.0,-3.350206280289617,-7.518143084182953,-4.520144058528486,-0.0029025400244583974,0.009169474971681722,-0.9382466120877311
14153,1.0,299.87642999999997,50790.46599999999,0.0,-0.1415302167648016,0.0,0.0,0.0,0.0,-3.3755216247630466,-7.541075061771163,-4.522436942179775,0.004351862266020366,0.016358929957250683,-0.965436975871211
14154,1.0,300.09463,50867.499,0.0,-0.14154021275222095,0.0,0.0,0.0,0.0,-3.3987142102769763,-7.524341844319722,-4.539393378628246,-0.005615757104832074,0.004016072398780486,-0.9243802439392271
14155,1.0,300.58558,50864.71,0.0,-0.1415502087396402,0.0,0.0,0.0,0.0,-3.3928727221254666,-7.524180230928772,-4.544548795137046,-0.020102035920166482,-0.008795400867963482,-0.954208563828053
14156,1.0,300.41917,50796.56,0.0,-0.14156020472705932,0.0,0.0,0.0,0.0,-3.3649931456239672,-7.529015156430943,-4.546877547841875,0.0007880977305866902,-0.004080999134713256,-0.9376479940611521
14157,1.0,300.53982,50754.390999999996,0.0,-0.14157023370453636,0.0,0.0,0.0,0.0,-3.3777437835573574,-7.5068638880447836,-4.543459855254576,-0.00969304764285432,0.02196332163836108,-0.9513117729846621
14158,1.0,299.98725,50864.099,0.0,-0.1415802296919556,0.0,0.0,0.0,0.0,-3.391660773680857,-7.535499754420922,-4.534255288696155,0.0037976004784689866,-0.013045992231539186,-0.9406872580011042
14159,1.0,299.41008999999997,50794.025,0.0,-0.14159022567937474,0.0,0.0,0.0,0.0,-3.3791290990940763,-7.533113550435424,-4.527872724991246,-0.007495306352104143,-0.005232911902948195,-0.9668442890676021
14160,1.0,298.685,50722.8,0.0,-0.1416002216667941,0.0,0.0,0.0,0.0,-3.374646784626707,-7.533049918329143,-4.5107679487281365,0.01912112876335848,-0.005045986004625045,-0.9661464738562331
14161,1.0,299.44807000000003,50742.093,0.0,-0.14161021765421355,0.0,0.0,0.0,0.0,-3.3517911047710265,-7.550658786517003,-4.521879249324736,0.02186663123431848,0.0017863416877981985,-0.9617398491713331
14162,1.0,299.72261000000003,50645.668,0.0,-0.1416202136416329,0.0,0.0,0.0,0.0,-3.356651969475757,-7.525375866046772,-4.512990614147496,-0.001129261764899459,-0.018091159023458384,-0.9440510558155851
14163,1.0,299.9242,50672.833,0.0,-0.14163020962905215,0.0,0.0,0.0,0.0,-3.346866101334967,-7.530051204658194,-4.526358625366815,-0.007517206537115523,-0.01107518532328569,-0.9379012255261441
14164,1.0,299.95692,50804.94,0.0,-0.14164020561647128,0.0,0.0,0.0,0.0,-3.3760800268931566,-7.540838265222793,-4.5265147672072255,0.00039123288621167965,-0.0010375285856460991,-0.953479013623552
14165,1.0,300.05405,50795.88,0.0,-0.14165023459394832,0.0,0.0,0.0,0.0,-3.355215383483977,-7.539950658135194,-4.545513206582226,-0.008263563115725183,0.011601014502430989,-0.937944805412945
14166,1.0,299.97415,50815.710999999996,0.0,-0.14166023058136745,0.0,0.0,0.0,0.0,-3.378619738268807,-7.544616269545652,-4.523471267881855,-0.00968120285051033,-0.015627685598582484,-0.957393624324894
14167,1.0,299.87582000000003,50909.848,0.0,-0.1416702265687867,0.0,0.0,0.0,0.0,-3.3790665815629066,-7.536786379397903,-4.559469814784636,-0.014235574193441786,0.0062188491372276245,-0.9586102742499681
14168,1.0,299.86654,50887.935,0.0,-0.14168022255620605,0.0,0.0,0.0,0.0,-3.389750189292297,-7.547185466499213,-4.531725912471526,0.0044508116098359056,0.0002841940373077677,-0.9736263266244369
14169,1.0,300.54202000000004,50890.483,0.0,-0.1416902185436255,0.0,0.0,0.0,0.0,-3.3770561920394964,-7.553085723156522,-4.5392942827684655,-0.0061224146801602845,-1.7457240376645484e-05,-0.9472517608939701
14170,1.0,300.43798,50784.15900000001,0.0,-0.14170021453104487,0.0,0.0,0.0,0.0,-3.3682858031489262,-7.523247128911684,-4.545583526139166,-0.0038358029456642766,-0.015376086479501588,-0.948214905776525
14171,1.0,300.14509,50832.477,0.0,-0.141710210518464,0.0,0.0,0.0,0.0,-3.3690397625483373,-7.5447583272096725,-4.538005631291286,-0.009918963607675491,0.004874829013633165,-0.937803396228989
14172,1.0,299.71682999999996,50850.462,0.0,-0.14172020650588324,0.0,0.0,0.0,0.0,-3.389287336646617,-7.529114454940743,-4.538868819051475,0.016075145961993383,0.014878880602431185,-0.9439723465478171
14173,1.0,300.13223,50798.7,0.0,-0.14173023548336028,0.0,0.0,0.0,0.0,-3.379593978239957,-7.533865787309663,-4.528076692236375,-0.013191992451698288,0.014212778092691988,-0.9191221142677901
14174,1.0,300.04684,50777.34099999999,0.0,-0.1417402314707794,0.0,0.0,0.0,0.0,-3.369925951085797,-7.557784265195234,-4.5073334361891755,0.0008282824797476163,-0.025756120425931176,-0.96200944462544
14175,1.0,299.98569,50812.850999999995,0.0,-0.14175022745819865,0.0,0.0,0.0,0.0,-3.3779681171294964,-7.534478803620163,-4.533390885035845,0.0012303012410212787,-0.0026032198654177973,-0.9281951812282321
14176,1.0,299.34341,50870.871,0.0,-0.14176022344561823,0.0,0.0,0.0,0.0,-3.357687713727976,-7.567683921322252,-4.538103105950905,0.02122764633700558,0.0042019742052275665,-0.9822728051602779
14177,1.0,299.79259,50891.414000000004,0.0,-0.14177021943303736,0.0,0.0,0.0,0.0,-3.3551481036773363,-7.560892815177022,-4.553678178538045,0.015979147607769084,0.0017594569202448785,-0.9390556821600801
14178,1.0,299.50116,50831.227,0.0,-0.14178021542045682,0.0,0.0,0.0,0.0,-3.3548148457194467,-7.5611656834289525,-4.535443324438405,0.005104769709176545,0.002074599587547038,-0.9650331754413591
14179,1.0,299.53156,50894.08900000001,0.0,-0.14179021140787595,0.0,0.0,0.0,0.0,-3.357122522822197,-7.563443165678722,-4.549966542096736,-0.005959235108530714,0.02263704277560218,-0.9460072060611421
14180,1.0,299.84547000000003,50964.335,0.0,-0.1418002073952952,0.0,0.0,0.0,0.0,-3.3954987624096367,-7.543898280524792,-4.552488217620605,-0.007068955230676562,0.019805446470145382,-0.9563625207581321
14181,1.0,300.26032000000004,50920.299000000006,0.0,-0.14181023637277212,0.0,0.0,0.0,0.0,-3.3870046868213364,-7.546049005187052,-4.545445622800555,-0.017931881173988883,0.01912740584772798,-0.9458256113782201
14182,1.0,299.58556,50841.429000000004,0.0,-0.14182023236019137,0.0,0.0,0.0,0.0,-3.3711407366306863,-7.540869777300903,-4.542514492911275,-0.006133903821719175,0.0009481468457673082,-0.9563758753944501
14183,1.0,299.9802,50893.482,0.0,-0.14183022834761072,0.0,0.0,0.0,0.0,-3.370045717247617,-7.545791538336642,-4.554510360845176,0.00920907096173954,0.02171803912040358,-0.9533254657033982
14184,1.0,300.05888,50912.083,0.0,-0.14184022433503007,0.0,0.0,0.0,0.0,-3.3904275469841467,-7.5610822929457235,-4.524491914707586,0.013528444173903488,0.001159990600682159,-0.944991524160902
14185,1.0,300.69674,50966.17,0.0,-0.14185022032244932,0.0,0.0,0.0,0.0,-3.3972296975554666,-7.553516962399083,-4.541696597430556,-0.0007035314010131433,-0.013655115635154987,-0.9463684601192951
14186,1.0,300.56324,50929.46400000001,0.0,-0.14186021630986867,0.0,0.0,0.0,0.0,-3.390679542284017,-7.568641847966792,-4.521963957033096,-0.005105991080847085,-0.02442670488397808,-0.9579999734497361
14187,1.0,300.02757,50941.828,0.0,-0.1418702122972879,0.0,0.0,0.0,0.0,-3.382535747255287,-7.570647373889723,-4.531860472084806,0.011396483890245388,0.0028337515897445074,-0.9589162453826652
14188,1.0,300.08588,51095.739,0.0,-0.14188020828470715,0.0,0.0,0.0,0.0,-3.3926425117027468,-7.564570913040022,-4.574615471979396,0.0018801436197807284,0.004106383785493526,-0.9510155898479311
14189,1.0,300.66011000000003,51052.065,0.0,-0.14189020427212673,0.0,0.0,0.0,0.0,-3.380784445782447,-7.570800070679792,-4.566968574799706,-0.0018575660770774984,-0.01897597359378278,-0.9287307649660901
14190,1.0,300.08966000000004,50936.257000000005,0.0,-0.14190023324960332,0.0,0.0,0.0,0.0,-3.377323487415876,-7.549671678269583,-4.5563551853022455,-0.00969300093202471,-0.004050022660606116,-0.9447909209061042
14191,1.0,299.61596000000003,50890.558,0.0,-0.14191022923702268,0.0,0.0,0.0,0.0,-3.3645893654591172,-7.537899535957763,-4.5669698920248365,-0.0008948878265910523,0.009185170317055732,-0.9323333250341351
14192,1.0,299.97344,51055.187999999995,0.0,-0.14192022522444203,0.0,0.0,0.0,0.0,-3.401034856981007,-7.580652002727103,-4.537815444247515,0.009664846258121059,-2.865620939839767e-05,-0.9722857562121331
14193,1.0,299.62376,51007.989,0.0,-0.14193022121186127,0.0,0.0,0.0,0.0,-3.392531054191747,-7.551414164466553,-4.561209767856355,-0.013490308479889787,-0.003373904072303407,-0.9499494886227151
14194,1.0,299.86511,51004.069,0.0,-0.14194021719928063,0.0,0.0,0.0,0.0,-3.3815143911544867,-7.592129897209883,-4.5303190147076755,0.010377608225690189,9.34259432414227e-05,-0.9870110362054051
14195,1.0,299.94052999999997,50876.084,0.0,-0.14195021318669987,0.0,0.0,0.0,0.0,-3.369840736752387,-7.568206150423793,-4.527012171681316,0.014176159234077987,-0.0018497291955040583,-0.956421218336425
14196,1.0,299.76387,50885.775,0.0,-0.14196020917411922,0.0,0.0,0.0,0.0,-3.3692251873166366,-7.561536330315533,-4.5372435658910755,0.0002042678865671708,-0.005594038494238614,-0.9590361331344971
14197,1.0,300.24371,51113.082,0.0,-0.14197020516153858,0.0,0.0,0.0,0.0,-3.3921311243772765,-7.593598501904822,-4.551371210710366,-0.007731953344759383,-0.01890302667933348,-0.9444425148592189
14198,1.0,300.58151000000004,51158.807,0.0,-0.1419802341390154,0.0,0.0,0.0,0.0,-3.409778496068937,-7.573591270730263,-4.567630227115005,-0.0002823280967186137,0.014217529222410886,-0.9551640688048542
14199,1.0,300.04181,51065.692,0.0,-0.14199023012643464,0.0,0.0,0.0,0.0,-3.3749763948842366,-7.587203880523722,-4.560514982262786,0.007940900106180822,0.021213266291586378,-0.9485525207098451
14200,1.0,300.74595,51059.486,0.0,-0.142000226113854,0.0,0.0,0.0,0.0,-3.3811370568172467,-7.575164240185502,-4.5645076942818354,0.005985281715601314,0.006186551283665073,-0.9431878579228942
14201,1.0,300.72359,51165.46599999999,0.0,-0.14201022210127323,0.0,0.0,0.0,0.0,-3.3983409289401365,-7.573241294145723,-4.581441839228105,-0.0028050127771582075,-0.010193218998992391,-0.9307424109196241
14202,1.0,300.26452,51010.37,0.0,-0.14202021808869258,0.0,0.0,0.0,0.0,-3.371145093606117,-7.5736258225586734,-4.561107733571286,0.0008915875899553442,0.006211798031106734,-0.9537860284038521
14203,1.0,300.17629,50929.269,0.0,-0.14203021407611183,0.0,0.0,0.0,0.0,-3.3615395839831264,-7.564205940354003,-4.555480649140936,-0.0013329790412297889,0.014664184051992287,-0.9344987418228452
14204,1.0,299.82219,50954.983,0.0,-0.14204021006353118,0.0,0.0,0.0,0.0,-3.3720892400492968,-7.568322370210263,-4.548630774489905,-0.013354912935277286,1.4788144055976186e-05,-0.9774159630584451
14205,1.0,299.96807,51090.094000000005,0.0,-0.14205020605095053,0.0,0.0,0.0,0.0,-3.3896511947575263,-7.588761955202493,-4.551699605067776,-0.0035083847534006164,-0.014296756260979985,-0.957193091997603
14206,1.0,300.50383999999997,51148.302,0.0,-0.14206023502842735,0.0,0.0,0.0,0.0,-3.4090804680750466,-7.577339586825193,-4.561386579998805,0.007424635197379442,0.012247558245489888,-0.9757923614957081
14207,1.0,300.18239,51033.97,0.0,-0.1420702310158466,0.0,0.0,0.0,0.0,-3.3878642268811667,-7.572610241983443,-4.552578194229485,0.016900549625954383,0.0021027438249746583,-0.937518267650849
14208,1.0,299.27452999999997,50944.597,0.0,-0.14208022700326595,0.0,0.0,0.0,0.0,-3.3669953278215665,-7.568836695961023,-4.550053580280325,-0.008818500133143201,-0.011091125773858889,-0.948701286089527
14209,1.0,299.56663,51123.776,0.0,-0.14209022299068508,0.0,0.0,0.0,0.0,-3.3811276335913174,-7.574563788176243,-4.584659820220695,-0.004679329600913875,-0.028101827844684475,-0.9384479347501
14210,1.0,299.51557,51299.469000000005,0.0,-0.14210021897810454,0.0,0.0,0.0,0.0,-3.4107311538129568,-7.592037691450782,-4.590988782995316,0.007514923887290242,0.00940019809895232,-0.9629726199054981
14211,1.0,299.65781,51127.845,0.0,-0.1421102149655239,0.0,0.0,0.0,0.0,-3.3826037363369963,-7.584349352342003,-4.574635027706326,-0.002281442335135828,0.011940434034179088,-0.9484142019386942
14212,1.0,299.7739,50934.758,0.0,-0.14212021095294314,0.0,0.0,0.0,0.0,-3.3689249613120067,-7.573345962881053,-4.540623565574655,-0.012819375806923886,-0.0025319301215070474,-0.9607621540173421
14213,1.0,299.79433,51042.806,0.0,-0.1421302069403625,0.0,0.0,0.0,0.0,-3.376535280163087,-7.580371737749443,-4.558831568546646,-0.008516595375747523,-0.01084677240624309,-0.961874266929599
14214,1.0,300.05775,51278.695999999996,0.0,-0.1421402359178393,0.0,0.0,0.0,0.0,-3.4112877320928865,-7.599005001788403,-4.5771503197545655,-0.01070042362804959,0.028155481463979674,-0.9523846224555441
14215,1.0,300.2966,51308.814000000006,0.0,-0.14215023190525844,0.0,0.0,0.0,0.0,-3.414687996778467,-7.596908789981522,-4.585001488154416,0.0062108021075834435,-0.009270865234988162,-0.9518948578872081
14216,1.0,299.73479,51171.427,0.0,-0.1421602278926779,0.0,0.0,0.0,0.0,-3.4077007254138767,-7.585700622675362,-4.561434810703566,-0.014219672246372385,-0.016927330839347485,-0.9526031095746071
14217,1.0,299.98416000000003,51147.276,0.0,-0.14217022388009704,0.0,0.0,0.0,0.0,-3.3933055825681864,-7.594788158847233,-4.559400812452825,0.0003875129613845517,-0.025347226387826476,-0.965392311806803
14218,1.0,300.26247,51187.459,0.0,-0.1421802198675165,0.0,0.0,0.0,0.0,-3.419665182594677,-7.586684184547433,-4.553359916681636,0.016550942877700883,0.004555450758262985,-0.946920924603819
14219,1.0,299.22427000000005,51207.318,0.0,-0.14219021585493585,0.0,0.0,0.0,0.0,-3.3952394717090466,-7.5848127116127335,-4.585693943272755,0.023752108298650577,0.012602847300304188,-0.9271525266103302
14220,1.0,299.48566,51214.152,0.0,-0.14220021184235498,0.0,0.0,0.0,0.0,-3.390972371562917,-7.6023403171425725,-4.574510803244066,-0.011717504826677688,-0.0012774521251497088,-0.9486200639615111
14221,1.0,299.68994,51056.261,0.0,-0.14221020782977445,0.0,0.0,0.0,0.0,-3.355594136371357,-7.594744183792892,-4.569490047673556,0.00017396047163356182,0.0002676197582670137,-0.9574032096708401
14222,1.0,299.45889,51102.969000000005,0.0,-0.14222023680725127,0.0,0.0,0.0,0.0,-3.371823261898047,-7.604421127547933,-4.557782044093066,0.01054029363524599,0.04622158686546546,-0.9758621642950971
14223,1.0,300.23646,51407.675,0.0,-0.1422302327946704,0.0,0.0,0.0,0.0,-3.407680663061897,-7.6175241738661015,-4.601444814752245,0.015108920799134385,0.006891657234803613,-0.955777297897875
14224,1.0,300.62793999999997,51417.496,0.0,-0.14224022878208975,0.0,0.0,0.0,0.0,-3.4387971683328566,-7.612514969346733,-4.578322650120266,-0.008380607383801553,0.0023165142648221577,-0.9530315015843862
14225,1.0,300.13581,51094.471,0.0,-0.142250224769509,0.0,0.0,0.0,0.0,-3.390504553991747,-7.582218892681743,-4.5587198070606165,-0.007588736725275004,-0.004196911197127886,-0.960785387842135
14226,1.0,300.95249,51054.3,0.0,-0.14226022075692835,0.0,0.0,0.0,0.0,-3.3775552177137467,-7.585262088032083,-4.5564150683831555,0.011598864385718789,0.027887232619255575,-0.9572467435903981
14227,1.0,299.72194,51173.517,0.0,-0.1422702167443478,0.0,0.0,0.0,0.0,-3.3986020434909068,-7.585396343670332,-4.571473079444266,-0.0037350391748946664,-0.00942138505721831,-0.9490426399157161
14228,1.0,299.39491,51332.200999999994,0.0,-0.14228021273176694,0.0,0.0,0.0,0.0,-3.414667630451457,-7.614122794605413,-4.5749171165341656,-0.0013543079558347888,-0.02071734014939228,-0.9663723880985292
14229,1.0,299.47994,51157.115999999995,0.0,-0.1422902087191864,0.0,0.0,0.0,0.0,-3.391566946721597,-7.598146171003643,-4.560772854413235,0.006677036576797204,-0.015461908762971585,-0.9603479373764621
14230,1.0,299.56737000000004,50947.259000000005,0.0,-0.14230020470660554,0.0,0.0,0.0,0.0,-3.360332904439037,-7.589538814054163,-4.536822763124546,0.016457458396974683,0.024004345765294477,-0.9445198967693561
14231,1.0,299.5515,51185.745,0.0,-0.14231023368408235,0.0,0.0,0.0,0.0,-3.3820266904050467,-7.603904775296973,-4.573256804920305,0.0034209041848169567,-0.012591300302164588,-0.9430929265210252
14232,1.0,300.24534,51634.532999999996,0.0,-0.1423202296715017,0.0,0.0,0.0,0.0,-3.4477352501149765,-7.628769426125922,-4.6191040414700755,-0.014949592287159886,-0.0057615221496429645,-0.955757782700949
14233,1.0,300.17161,51542.818,0.0,-0.14233022565892095,0.0,0.0,0.0,0.0,-3.4252009731910165,-7.6297498469226825,-4.612778726395816,0.004566500959878555,0.006704544391837013,-0.960958349634205
14234,1.0,300.27225,51137.60400000001,0.0,-0.14234022164634053,0.0,0.0,0.0,0.0,-3.371247735841247,-7.610141532312492,-4.563165644524386,0.0006244352946219654,0.029483169414512272,-0.9593843365313621
14235,1.0,300.16497000000004,51098.224,0.0,-0.14235021763375966,0.0,0.0,0.0,0.0,-3.3747447659113767,-7.597885563077924,-4.5599538443574055,-0.001025404034949499,-0.013608389606793487,-0.9385172511894411
14236,1.0,299.66417,51349.347,0.0,-0.1423602136211789,0.0,0.0,0.0,0.0,-3.428219242588897,-7.599699584731952,-4.581000366159536,-0.008370427158721843,-0.03157161060637537,-0.9587207995708761
14237,1.0,300.46137000000004,51397.638,0.0,-0.14237020960859825,0.0,0.0,0.0,0.0,-3.419690412522167,-7.599249397712523,-4.604658742744436,-0.0016180893808679885,-0.013358029692584886,-0.9514003006458991
14238,1.0,299.93217999999996,51056.331,0.0,-0.1423802055960175,0.0,0.0,0.0,0.0,-3.374470985734357,-7.5969808320636325,-4.548398030941936,-0.003234842183529067,0.015373066994203585,-0.9701932326356171
14239,1.0,299.54816,51043.617,0.0,-0.1423902345734943,0.0,0.0,0.0,0.0,-3.360519646432467,-7.591867972059034,-4.563597390391996,-0.01842934644308488,-0.00987689934037407,-0.9669859718290852
14240,1.0,299.18181,51333.897000000004,0.0,-0.14240023056091367,0.0,0.0,0.0,0.0,-3.4194016362436668,-7.605938266922664,-4.5788829774255655,-0.011610903823406989,-0.006331387178134264,-0.9736344427577381
14241,1.0,299.78702999999996,51468.751,0.0,-0.14241022654833302,0.0,0.0,0.0,0.0,-3.431959148707997,-7.612337346604203,-4.600918532650305,0.015025861648687086,0.002445301392282458,-0.9540072107681811
14242,1.0,299.30826,51342.379,0.0,-0.14242022253575248,0.0,0.0,0.0,0.0,-3.422864823760457,-7.598897394627784,-4.585038978408116,0.013883526525697385,0.015980852907687384,-0.9236675643488911
14243,1.0,299.97767000000005,51264.98,0.0,-0.14243021852317161,0.0,0.0,0.0,0.0,-3.392198809483957,-7.6189361378804525,-4.572138987409986,-0.01024071003117939,-0.019269043012956483,-0.9512367114172542
14244,1.0,300.32748,51397.72900000001,0.0,-0.14244021451059086,0.0,0.0,0.0,0.0,-3.4330545733911073,-7.623542980785113,-4.5670285592056254,0.009674197036668912,-0.0012506130551758988,-0.9598813357054121
14245,1.0,300.14376,51554.362,0.0,-0.1424502104980102,0.0,0.0,0.0,0.0,-3.4331649163269966,-7.630745061170903,-4.607328555432925,0.015201280572249587,0.02839055244742937,-0.9675836171355681
14246,1.0,299.7887,51386.58,0.0,-0.14246020648542945,0.0,0.0,0.0,0.0,-3.4190654398604865,-7.630673931013884,-4.5704979275480255,0.014594916248656088,0.016609609045240784,-0.9402036438608752
14247,1.0,299.85037,51174.427,0.0,-0.14247023546290616,0.0,0.0,0.0,0.0,-3.3731718977811465,-7.609792467653042,-4.572783515798596,-0.006791342131178283,-0.00869277859386045,-0.959388024761726
14248,1.0,299.76827000000003,51282.027,0.0,-0.14248023145032562,0.0,0.0,0.0,0.0,-3.4080036871937764,-7.606034728332182,-4.574417381584846,-0.024770492536907274,-0.0003402232923899247,-0.9457748880782141
14249,1.0,299.93097,51505.043,0.0,-0.14249022743774498,0.0,0.0,0.0,0.0,-3.4146093685707073,-7.626119067839353,-4.615518655991226,0.006898836415737143,0.008771648360444292,-0.9474306400666241
14250,1.0,300.56906000000004,51452.803,0.0,-0.14250022342516433,0.0,0.0,0.0,0.0,-3.4322656568632466,-7.615783612844323,-4.5923179644764955,-0.003587639251047427,0.011619645132019688,-0.9498808611934422
14251,1.0,299.39135,51242.375,0.0,-0.14251021941258357,0.0,0.0,0.0,0.0,-3.374479395710187,-7.621891079147083,-4.580032104363975,0.0023608587501486177,0.0003360313348712107,-0.96822765916413
14252,1.0,299.31673,51360.139,0.0,-0.14252021540000281,0.0,0.0,0.0,0.0,-3.410916375931236,-7.628330891482642,-4.572952424590266,-0.005987735706018505,-0.0007656175105555652,-0.9636479510971482
14253,1.0,299.62067,51532.545,0.0,-0.14253021138742217,0.0,0.0,0.0,0.0,-3.432168283528637,-7.630310680853033,-4.602127947969666,-0.0022878144623647077,0.017394158465169784,-0.9393738528239811
14254,1.0,300.04982,51470.835999999996,0.0,-0.14254020737484152,0.0,0.0,0.0,0.0,-3.419009407129957,-7.639829962892514,-4.5870094458775865,-0.0035339581726745173,0.00013565756095585885,-0.9470146806355721
14255,1.0,299.88389,51309.302,0.0,-0.14255023635231812,0.0,0.0,0.0,0.0,-3.3956394015235167,-7.634613447402683,-4.566493765802846,-0.006373208670711723,-0.016258329421072186,-0.974402992958588
14256,1.0,299.98864,51278.418,0.0,-0.14256023233973758,0.0,0.0,0.0,0.0,-3.4062096265667168,-7.619877244573333,-4.5612717787624755,0.005748601184367764,-0.004997146640529975,-0.9650462261026471
14257,1.0,300.31912,51324.845,0.0,-0.14257022832715693,0.0,0.0,0.0,0.0,-3.4155867496171672,-7.621740611507233,-4.564144038820946,0.004924795010514425,0.0030517942973136473,-0.9696763332296031
14258,1.0,300.25456,51363.242999999995,0.0,-0.1425802243145763,0.0,0.0,0.0,0.0,-3.425488837544427,-7.597101003525493,-4.590553490752355,0.0026149713374275774,-0.0007171517925673714,-0.9282586106844921
14259,1.0,300.32261,51379.94,0.0,-0.14259022030199553,0.0,0.0,0.0,0.0,-3.4154553310791966,-7.6190255065392725,-4.583737965279716,-0.006410320475499374,-0.003135523003427027,-0.9567154762979662
14260,1.0,300.13775,51391.670999999995,0.0,-0.14260021628941466,0.0,0.0,0.0,0.0,-3.402369510012727,-7.614595070477022,-4.604820153485366,-0.00023869240010210578,-0.0037564063903534465,-0.9387486471147781
14261,1.0,299.2255,51531.858,0.0,-0.14261021227683413,0.0,0.0,0.0,0.0,-3.4220691184569265,-7.6304525358670325,-4.611876325856755,-0.004567112253663886,0.004833196897499396,-0.9633904031867301
14262,1.0,299.35382000000004,51700.975999999995,0.0,-0.14262020826425348,0.0,0.0,0.0,0.0,-3.452535826438757,-7.659441621228033,-4.603828282962476,-9.34137791739722e-05,-0.011585646538164289,-0.9571664739174761
14263,1.0,299.65862999999996,51553.553,0.0,-0.14263023724173007,0.0,0.0,0.0,0.0,-3.4303754388016965,-7.642555099036462,-4.5980623832684255,-0.0021663777551048377,-0.016782086503762984,-0.987592439112785
14264,1.0,299.96759,51356.683,0.0,-0.14264023322914965,0.0,0.0,0.0,0.0,-3.4242124463934567,-7.640358170169643,-4.546578537737366,0.011213532465439489,-0.009273878843435581,-0.960465383195553
14265,1.0,299.47286,51364.79,0.0,-0.1426502292165689,0.0,0.0,0.0,0.0,-3.4066283015080363,-7.627741787874503,-4.579243593136155,-0.0008402009151088742,0.015633323322138883,-0.9442977720824342
14266,1.0,300.07444,51450.907,0.0,-0.14266022520398824,0.0,0.0,0.0,0.0,-3.410547856869867,-7.616639302553772,-4.612603636778537,-0.007464700626208593,0.009263982936333931,-0.9335452937437471
14267,1.0,300.55601,51447.305,0.0,-0.1426702211914075,0.0,0.0,0.0,0.0,-3.408301481398167,-7.644469736425423,-4.585924761645536,-0.009982862300056801,0.007113270737050164,-0.9715882652407961
14268,1.0,300.73745,51449.204000000005,0.0,-0.14268021717882662,0.0,0.0,0.0,0.0,-3.417125167243997,-7.625319512185443,-4.596828649946666,0.01149400819912029,0.013189430955445487,-0.9739221247261302
14269,1.0,300.17357999999996,51478.807,0.0,-0.14269021316624597,0.0,0.0,0.0,0.0,-3.4236607317140066,-7.640580679891602,-4.5840304905835865,0.006066281637870385,0.006836424971852614,-0.9665735486408821
14270,1.0,299.35376,51547.132000000005,0.0,-0.14270020915366544,0.0,0.0,0.0,0.0,-3.435947199776587,-7.645518956903973,-4.587574839433386,0.002989153554931487,-0.01210104126777979,-0.938278752380903
14271,1.0,299.51476,51640.937999999995,0.0,-0.1427102051410848,0.0,0.0,0.0,0.0,-3.4315679328443864,-7.639600968369913,-4.626386877888836,-0.01893384366787488,0.0009095812702661821,-0.9408465409168242
14272,1.0,299.97514,51511.824,0.0,-0.1427202341185616,0.0,0.0,0.0,0.0,-3.3976339843453673,-7.6648544032622326,-4.595819756822095,0.00993380164213989,0.004496315455926785,-0.9511569787668851
14273,1.0,300.71232000000003,51292.858,0.0,-0.14273023010598074,0.0,0.0,0.0,0.0,-3.389554024072937,-7.628208693520584,-4.573985230417196,0.0033716236516283466,0.01882823463645208,-0.952809994980025
14274,1.0,300.05832999999996,51393.777,0.0,-0.1427402260934002,0.0,0.0,0.0,0.0,-3.425468977842467,-7.637690789281392,-4.559265036939426,0.009203378725327761,-0.0017141108371945685,-0.9800503930534431
14275,1.0,300.17089,51562.093,0.0,-0.14275022208081933,0.0,0.0,0.0,0.0,-3.4387223904754762,-7.639710095405683,-4.595156179331605,0.0068379091805990935,-0.003532122974093397,-0.968568668485285
14276,1.0,299.9126,51575.432,0.0,-0.14276021806823858,0.0,0.0,0.0,0.0,-3.457789730857276,-7.627924375542523,-4.591929585713166,0.00982630512843081,-0.004538276067742975,-0.9449493324267381
14277,1.0,300.15121,51512.676,0.0,-0.14277021405565815,0.0,0.0,0.0,0.0,-3.380261811380867,-7.652666524434383,-4.6256388966650155,-0.0023303865706162477,0.00856961601770525,-0.945405193646728
14278,1.0,299.81434,51593.593,0.0,-0.1427802100430774,0.0,0.0,0.0,0.0,-3.427111658904587,-7.648260102399503,-4.607792320003696,-0.008599458664950493,0.0011906212525301689,-0.9440788290008262
14279,1.0,300.32957000000005,51785.545999999995,0.0,-0.14279020603049675,0.0,0.0,0.0,0.0,-3.454074548040617,-7.6611388151455335,-4.626299637055226,-0.017034333089657783,0.016368254897920986,-0.9493868105771831
14280,1.0,300.14231,51693.34099999999,0.0,-0.14280023500797356,0.0,0.0,0.0,0.0,-3.459218210848257,-7.672655111807102,-4.581611558619855,6.267091494363774e-06,0.007264926412642413,-0.952657075274933
14281,1.0,299.84556000000003,51533.373,0.0,-0.1428102309953927,0.0,0.0,0.0,0.0,-3.4144824083331766,-7.652120889255533,-4.598255204762456,-0.0027826385937500474,0.006900724404648474,-0.9522933590190371
14282,1.0,299.99171,51620.567,0.0,-0.14282022698281205,0.0,0.0,0.0,0.0,-3.437361392941157,-7.658289961164372,-4.5957122509864865,0.000902655290400141,-0.031029494445122673,-0.9476475161180281
14283,1.0,300.32914,51653.405999999995,0.0,-0.1428302229702313,0.0,0.0,0.0,0.0,-3.4140780202182675,-7.661885783119252,-4.625381733789636,-0.004177383030600606,-0.013923547878147185,-0.951672753465288
14284,1.0,300.79778999999996,51527.268,0.0,-0.14284021895765064,0.0,0.0,0.0,0.0,-3.420769929178707,-7.638056268592463,-4.6041765370218455,0.0026257397541903375,-0.005981505433803624,-0.9513039000313851
14285,1.0,300.59174,51488.244000000006,0.0,-0.1428502149450701,0.0,0.0,0.0,0.0,-3.4247711524985966,-7.652019564245533,-4.574349797803175,-0.008317108519909702,-0.006977567265732274,-0.9808098949309
14286,1.0,300.3726,51515.002,0.0,-0.14286021093248924,0.0,0.0,0.0,0.0,-3.4274885879417862,-7.6432843351334325,-4.5885013553248255,-0.006247397154820094,-0.00026157544784298676,-0.9846928213016151
14287,1.0,300.02627,51677.654,0.0,-0.1428702069199087,0.0,0.0,0.0,0.0,-3.4549172681487867,-7.6575085426872525,-4.596290512818555,-0.0051047602859506155,0.012540669207917687,-0.952683814945072
14288,1.0,300.39044,51747.003,0.0,-0.1428802358973854,0.0,0.0,0.0,0.0,-3.447616294553237,-7.659364512895423,-4.6228157792363955,0.005788197174425584,-0.006045073907977344,-0.9440015382831981
14289,1.0,299.86159,51588.935999999994,0.0,-0.14289023188480465,0.0,0.0,0.0,0.0,-3.4085650277491766,-7.660421434074733,-4.612762007769166,-0.0036480818486626467,-0.008416071643926602,-0.9322531262887201
14290,1.0,300.07048,51598.984000000004,0.0,-0.142900227872224,0.0,0.0,0.0,0.0,-3.4154345594521462,-7.676757254836953,-4.592610996405416,0.01095274519445179,-0.00969331108788032,-0.9753384659809121
14291,1.0,300.28256,51785.139,0.0,-0.14291022385964325,0.0,0.0,0.0,0.0,-3.4625981092068265,-7.665516359552562,-4.6132747123197655,0.008902035409812492,0.012259233926392187,-0.9554667772722291
14292,1.0,299.82641,51781.919,0.0,-0.1429202198470626,0.0,0.0,0.0,0.0,-3.4618282417808466,-7.674664386755403,-4.603917651621296,0.008728628294323542,0.014084228065755088,-0.966177600899305
14293,1.0,299.93453999999997,51525.44,0.0,-0.14293021583448196,0.0,0.0,0.0,0.0,-3.4243075905778473,-7.646681560068713,-4.591458019116626,-0.005450666746163926,-0.013433077074491487,-0.9531312155267271
14294,1.0,299.50333,51521.39,0.0,-0.1429402118219012,0.0,0.0,0.0,0.0,-3.4007005857730173,-7.648641793712172,-4.611873590081486,-0.0026482829477151772,-0.0034994424159680766,-0.9551246635084651
14295,1.0,299.26901000000004,51802.883,0.0,-0.14295020780932055,0.0,0.0,0.0,0.0,-3.420594028961347,-7.679020247610293,-4.647168536114825,-0.0009449217416265151,0.007044730244635744,-0.9518679358320511
14296,1.0,300.048,51862.53599999999,0.0,-0.14296023678679737,0.0,0.0,0.0,0.0,-3.471494850384867,-7.660812143313293,-4.632608841452896,-0.000948554851185075,-0.0012591596171193787,-0.9314297592574602
14297,1.0,300.34731,51602.273,0.0,-0.1429702327742166,0.0,0.0,0.0,0.0,-3.421982080273337,-7.667590482507262,-4.596229819137566,-0.015230115643595386,-0.011759608408082989,-0.9651128371642211
14298,1.0,300.06916,51531.331,0.0,-0.14298022876163596,0.0,0.0,0.0,0.0,-3.419093304238237,-7.668416180013752,-4.576728199762905,-0.006741089891143775,0.004004134286102285,-0.9490312003220871
14299,1.0,300.25094,51746.883,0.0,-0.1429902247490552,0.0,0.0,0.0,0.0,-3.4438712208586266,-7.669957232090844,-4.615931960707016,-0.0006815492744661764,0.015422976654379285,-0.9617520791000401
14300,1.0,299.71079,51885.433,0.0,-0.14300022073647456,0.0,0.0,0.0,0.0,-3.440419989693017,-7.686194970243384,-4.6452608901515555,-0.0025654806561682276,0.0032685142068772364,-0.9470434164084081
14301,1.0,299.33761,51656.665,0.0,-0.1430102167238939,0.0,0.0,0.0,0.0,-3.4168464221414867,-7.666686764743073,-4.618803004865366,-0.005029223909545756,-0.029593493098650375,-0.9839221128780521
14302,1.0,299.61711,51379.685,0.0,-0.14302021271131315,0.0,0.0,0.0,0.0,-3.3980819422145765,-7.652298106698023,-4.567761240352936,0.012711464671273888,-0.0057219651697139945,-0.9708962356874982
14303,1.0,299.77423999999996,51521.681,0.0,-0.1430302086987325,0.0,0.0,0.0,0.0,-3.4172474665310673,-7.668402095837363,-4.575654863931975,0.014865224017583386,0.007967433579924472,-0.9744629469670051
14304,1.0,299.84283999999997,51897.932,0.0,-0.14304023767620933,0.0,0.0,0.0,0.0,-3.485403126557507,-7.665004364277032,-4.6252679458034045,0.008799351935403422,-0.007470253540731622,-0.9572823390664111
14305,1.0,299.90488999999997,51893.585,0.0,-0.14305023366362857,0.0,0.0,0.0,0.0,-3.4616812191913366,-7.681924425046912,-4.630748210294266,-0.0026662081525842575,-0.012179077737481388,-0.944391345729169
14306,1.0,299.77496,51580.193,0.0,-0.14306022965104792,0.0,0.0,0.0,0.0,-3.402896298739717,-7.665924598017852,-4.610269919148216,-0.011523117861243189,0.011152281496894489,-0.966928854920948
14307,1.0,299.60897,51608.797999999995,0.0,-0.14307022563846727,0.0,0.0,0.0,0.0,-3.4174322833493074,-7.669981955393283,-4.600371782896346,-0.0030008594306867673,0.006299367461724164,-0.9459732115202871
14308,1.0,300.0451,51982.539000000004,0.0,-0.14308022162588652,0.0,0.0,0.0,0.0,-3.4737471027071463,-7.7071056152071025,-4.620541134086905,-0.021558676157925682,-0.025008143255111578,-0.986900622342008
14309,1.0,299.96558,52035.627,0.0,-0.14309021761330587,0.0,0.0,0.0,0.0,-3.482747296720397,-7.6909558271632426,-4.643828255835166,0.0025680949427512373,-0.016704945747149785,-0.9636111397210151
14310,1.0,299.58364,51609.287000000004,0.0,-0.1431002136007251,0.0,0.0,0.0,0.0,-3.4326163427228567,-7.678000715359672,-4.577317404696055,-0.0014879737812015785,0.015053125169127785,-0.9768675110443171
14311,1.0,299.93376,51539.723,0.0,-0.14311020958814447,0.0,0.0,0.0,0.0,-3.3936668062288367,-7.666205369620563,-4.606916567942266,0.0054728813426813345,0.016536942801069186,-0.9404153523367691
14312,1.0,299.8913,51864.609000000004,0.0,-0.1431202055755637,0.0,0.0,0.0,0.0,-3.4232458057980573,-7.687336497806042,-4.654963773109155,-0.006160249742869314,0.008345005625637931,-0.9582779180846671
14313,1.0,299.69572999999997,51985.018,0.0,-0.14313023455304041,0.0,0.0,0.0,0.0,-3.4547010405774468,-7.698419326074832,-4.649026938123235,0.02227476432159808,0.0034031509284898464,-0.9477666135347822
14314,1.0,300.15672,51774.122,0.0,-0.14314023054045988,0.0,0.0,0.0,0.0,-3.4481612204570173,-7.681728057177533,-4.608151111864105,0.026871485871009175,0.02506943576691068,-0.9543890236708631
14315,1.0,299.72294,51531.817,0.0,-0.14315022652787923,0.0,0.0,0.0,0.0,-3.418414122696207,-7.662870155591403,-4.583101340241886,0.0028763365662723174,0.0006561349354579763,-0.9463604250460022
14316,1.0,300.42869,51700.745,0.0,-0.14316022251529847,0.0,0.0,0.0,0.0,-3.4438546035569866,-7.674507434314912,-4.597373575850446,-0.011335134636440689,-0.024415185243591177,-0.9446936691615061
14317,1.0,300.57034,52079.46,0.0,-0.14317021850271783,0.0,0.0,0.0,0.0,-3.451207050257617,-7.709979597790742,-4.6696686665104155,-0.018061544762785684,-0.01970870033734728,-0.9632534523032141
14318,1.0,300.12854,51939.93,0.0,-0.14318021449013696,0.0,0.0,0.0,0.0,-3.4371970437749364,-7.698987354080892,-4.652257382092055,-0.005659407615165046,0.020538547102996782,-0.965378106040401
14319,1.0,299.58117000000004,51504.045999999995,0.0,-0.14319021047755642,0.0,0.0,0.0,0.0,-3.3882817872473767,-7.674525267516673,-4.593136771882306,0.006430440785385094,-0.0027816566530781375,-0.9703514212412291
14320,1.0,300.2116,51651.901,0.0,-0.14320020646497578,0.0,0.0,0.0,0.0,-3.429404542555876,-7.685370995262062,-4.586112719539086,-0.015034812700070484,-0.011650479345812788,-0.9870946901336611
14321,1.0,299.92669,52041.769,0.0,-0.14321023544245237,0.0,0.0,0.0,0.0,-3.4810930646071365,-7.708225864517663,-4.630079262578246,0.02067727016093768,-0.017125414141146784,-0.9714488420270361
14322,1.0,300.17447999999996,51985.678,0.0,-0.14322023142987172,0.0,0.0,0.0,0.0,-3.4876320741274864,-7.691657097557453,-4.623058756610376,0.01868477970054418,-0.002886498451525217,-0.9529425078281031
14323,1.0,299.92801000000003,51665.049000000006,0.0,-0.1432302274172912,0.0,0.0,0.0,0.0,-3.402578340858337,-7.687548267076943,-4.6147583131161865,0.018253874830517183,-0.0025147588760373774,-0.9435924081578201
14324,1.0,299.92469,51647.460999999996,0.0,-0.14324022340471032,0.0,0.0,0.0,0.0,-3.402165745417617,-7.682779608131312,-4.614593153349886,-0.0023208571560757677,-0.00948531364047757,-0.9536566566310841
14325,1.0,299.95526,52098.84,0.0,-0.14325021939212979,0.0,0.0,0.0,0.0,-3.4692570875390167,-7.717319378865122,-4.650170086886056,0.01259440287397079,0.01137194702582379,-0.942799469027063
14326,1.0,299.97812999999996,52239.672999999995,0.0,-0.14326021537954892,0.0,0.0,0.0,0.0,-3.491976586581257,-7.718555037362073,-4.669024442096836,-0.002559370960715248,0.024002992063160877,-0.9474380570573561
14327,1.0,300.46648999999996,51955.126,0.0,-0.14327021136696838,0.0,0.0,0.0,0.0,-3.4695586307687765,-7.701359271239983,-4.622143082495005,0.005061661287647076,-0.012846528883103689,-0.9545414570159071
14328,1.0,300.38401,51676.994000000006,0.0,-0.14328020735438773,0.0,0.0,0.0,0.0,-3.419769243379947,-7.688735897519153,-4.600010761885716,-0.03734594459425777,-0.021395827615103776,-0.968920833690041
14329,1.0,300.64554,51788.74,0.0,-0.14329023633186433,0.0,0.0,0.0,0.0,-3.4120087608640466,-7.689070067402134,-4.641404966896005,-0.022907537995797977,-0.013557816267802286,-0.9758904137078851
14330,1.0,300.35034,52024.619000000006,0.0,-0.1433002323192839,0.0,0.0,0.0,0.0,-3.456142996794757,-7.704854984084983,-4.653187039058805,-0.005445694626598214,0.008973556580046081,-0.961548973117495
14331,1.0,300.38642999999996,51939.185999999994,0.0,-0.14331022830670304,0.0,0.0,0.0,0.0,-3.4688617173499967,-7.6895602778005125,-4.629793627375055,0.008522272413407802,-0.002452251680018398,-0.9786871055738972
14332,1.0,300.17846000000003,51679.523,0.0,-0.14332022429412228,0.0,0.0,0.0,0.0,-3.4514625919328368,-7.680015259208493,-4.577806703169346,0.004693325624545176,-0.01074878808182279,-0.964027707102127
14333,1.0,299.85717,51689.154,0.0,-0.14333022028154163,0.0,0.0,0.0,0.0,-3.4534213057011467,-7.668563810553323,-4.590226920245126,0.012645713859034789,-0.018011266279573585,-0.9770054549129311
14334,1.0,299.45989,52058.525,0.0,-0.14334021626896087,0.0,0.0,0.0,0.0,-3.4877344123875864,-7.704323230432502,-4.632433954485636,0.007853267144782123,-0.002279379256607218,-0.9403910242018682
14335,1.0,299.66593,52203.251,0.0,-0.14335021225638023,0.0,0.0,0.0,0.0,-3.4633099174020767,-7.724394093713343,-4.680780879032105,0.017526310596212184,-0.016704794772884883,-0.963349812387724
14336,1.0,299.69115,51894.668,0.0,-0.1433602082437997,0.0,0.0,0.0,0.0,-3.4360089067076762,-7.7055012349987635,-4.633173120433586,-0.005005171176021935,0.006415301309015943,-0.9510472032510511
14337,1.0,299.89344,51660.261,0.0,-0.1433702372212764,0.0,0.0,0.0,0.0,-3.4070042172951363,-7.687490410496234,-4.608934759491445,-0.0038077798929486164,0.012778440502883888,-0.9521513722825241
14338,1.0,300.20392999999996,51904.087,0.0,-0.14338023320869586,0.0,0.0,0.0,0.0,-3.470771896438517,-7.700165155997134,-4.606609249186936,-0.019064232743743283,0.025179515257774676,-0.9456678179401472
14339,1.0,300.46376000000004,52196.207,0.0,-0.143390229196115,0.0,0.0,0.0,0.0,-3.4912534299848867,-7.722965208422322,-4.652124950303986,-0.003026305079123057,-0.006734126937781582,-0.9681171135782201
14340,1.0,300.226,51975.718,0.0,-0.14340022518353424,0.0,0.0,0.0,0.0,-3.4429051882132864,-7.717393346122423,-4.639022005310825,0.0031665221743364066,-0.007509427208147764,-0.977118229649061
14341,1.0,300.06197000000003,51706.810999999994,0.0,-0.1434102211709536,0.0,0.0,0.0,0.0,-3.381425731770737,-7.712874554651452,-4.623279037182115,0.017539630782026784,-0.004110965195820676,-0.967653642849979
14342,1.0,300.89488,51905.322,0.0,-0.14342021715837283,0.0,0.0,0.0,0.0,-3.4318445501216868,-7.717786385836213,-4.628290876151746,0.015339576038648287,0.006221758684889774,-0.963793230896486
14343,1.0,300.3212,52205.79,0.0,-0.1434302131457924,0.0,0.0,0.0,0.0,-3.484900047882857,-7.734249876111034,-4.650106657429796,0.004828388519149845,-0.0011566429236767688,-0.9482054521530922
14344,1.0,299.77782,52144.487,0.0,-0.14344020913321154,0.0,0.0,0.0,0.0,-3.4897194706584966,-7.726864904082193,-4.634037726743916,0.00969920739286224,0.013086302360267487,-0.975677134694336
14345,1.0,299.81689,51859.952000000005,0.0,-0.14345023811068836,0.0,0.0,0.0,0.0,-3.457433168147087,-7.707278171699133,-4.599419327802345,-0.007032672365795723,-0.008952837540676273,-0.9531282771014371
14346,1.0,299.59256,51721.023,0.0,-0.1434602340981077,0.0,0.0,0.0,0.0,-3.4149006779744573,-7.694279996766312,-4.612718741989895,-0.01673908315626888,-0.006186142639899744,-0.976101433173711
14347,1.0,299.56498,52071.481,0.0,-0.14347023008552695,0.0,0.0,0.0,0.0,-3.461388491237447,-7.714944928580782,-4.652096477976175,-0.019084336638977382,-0.029875565714488773,-0.9558970336621921
14348,1.0,299.33452,52257.325,0.0,-0.1434802260729462,0.0,0.0,0.0,0.0,-3.487223531687167,-7.719934172073183,-4.677764129509375,0.011601276934206888,0.003227435527948087,-0.9751074550906131
14349,1.0,299.01826,51969.10400000001,0.0,-0.14349022206036555,0.0,0.0,0.0,0.0,-3.4518206745181765,-7.7088369556529726,-4.636652215976945,0.004434463934047516,0.017909077980488384,-0.9394461178211131
14350,1.0,299.61078,51730.59099999999,0.0,-0.1435002180477849,0.0,0.0,0.0,0.0,-3.4358843782703863,-7.688393520310362,-4.600529951236955,0.0024715143750194775,0.014821154730984087,-0.957626509727878
14351,1.0,300.23308,52058.90900000001,0.0,-0.14351021403520436,0.0,0.0,0.0,0.0,-3.4704585995075967,-7.709730135616122,-4.644419892568555,-0.012738563031948287,-0.0024917417854407676,-0.9462567796932732
14352,1.0,299.82662999999997,52272.04,0.0,-0.1435202100226235,0.0,0.0,0.0,0.0,-3.4770031819034966,-7.7385494002603625,-4.673842243672316,-0.010042169753584991,-0.006310061303279563,-0.974328458281232
14353,1.0,300.04708999999997,52171.825999999994,0.0,-0.1435302390001003,0.0,0.0,0.0,0.0,-3.4686918966332367,-7.7312915911190725,-4.658948987077466,0.018559851029464683,-0.02039271102935388,-0.959170358375244
14354,1.0,299.92142,51986.985,0.0,-0.14354023498751967,0.0,0.0,0.0,0.0,-3.4600545474807967,-7.724643859862993,-4.6180468163157355,-0.010316581185417291,-0.010047193751555819,-0.966460439532219
14355,1.0,300.39378,52028.707,0.0,-0.1435502309749389,0.0,0.0,0.0,0.0,-3.4760229637567566,-7.717627204245502,-4.621777501858925,-0.0012072907365503188,-0.0055384887800312855,-0.9596761322951601
14356,1.0,300.57579,52232.664000000004,0.0,-0.14356022696235804,0.0,0.0,0.0,0.0,-3.4952702573563172,-7.729006306843534,-4.6531488395300356,-0.01054944733664939,0.012706408553274887,-0.9602931408110541
14357,1.0,300.20057,52148.74,0.0,-0.1435702229497775,0.0,0.0,0.0,0.0,-3.4528774943724767,-7.734497413110463,-4.664539999804256,0.013006936506434688,0.026379777888981375,-0.965203685168187
14358,1.0,299.57207,51869.038,0.0,-0.14358021893719686,0.0,0.0,0.0,0.0,-3.4040609284046566,-7.726079736579702,-4.636751615811756,-0.01080776531714339,-0.0018200736955522883,-0.979452768011962
14359,1.0,299.43215,51857.070999999996,0.0,-0.1435902149246162,0.0,0.0,0.0,0.0,-3.4204932105763968,-7.7066953502416125,-4.636066050794096,-0.0022289064320259377,-0.02094356343296878,-0.9598752156748082
14360,1.0,299.55967999999996,52078.21599999999,0.0,-0.14360021091203545,0.0,0.0,0.0,0.0,-3.4698305870956174,-7.718621202593601,-4.642025379932236,-0.004178548065565587,-0.011714213790352888,-0.9550683977304122
14361,1.0,300.10267999999996,52155.615,0.0,-0.1436102068994547,0.0,0.0,0.0,0.0,-3.479643914314117,-7.732255799914233,-4.642104920065086,0.014053934927515386,-0.007978458551612553,-0.945518819512942
14362,1.0,299.64599,52156.985,0.0,-0.14362023587693162,0.0,0.0,0.0,0.0,-3.466887703505176,-7.745090132305883,-4.642443142948466,0.014499227948962386,-0.0006972799924011774,-0.9609159856475241
14363,1.0,299.70252,52160.239,0.0,-0.14363023186435087,0.0,0.0,0.0,0.0,-3.4506988040074567,-7.739463554500584,-4.665247653674096,-0.012956643837721188,-0.0037590243246368167,-0.9790881094334731
14364,1.0,299.90702999999996,52208.123,0.0,-0.14364022785177,0.0,0.0,0.0,0.0,-3.458604890562727,-7.734549899465643,-4.676810762490286,-0.008743707380986732,0.008161460841573473,-0.976843253836923
14365,1.0,300.93552,52182.365999999995,0.0,-0.14365022383918946,0.0,0.0,0.0,0.0,-3.4867734459927466,-7.727527468322584,-4.647835254680625,-0.004628789192550925,0.00870269942691456,-0.9694285631826501
14366,1.0,300.49447999999995,52076.348,0.0,-0.14366021982660881,0.0,0.0,0.0,0.0,-3.4828823629587267,-7.722294031556082,-4.624733051075616,0.006364444969271813,0.004523195055904595,-0.9694403574138141
14367,1.0,300.4173,51955.945,0.0,-0.14367021581402817,0.0,0.0,0.0,0.0,-3.475748474304667,-7.7095694341502625,-4.607991930273395,-0.004402013991644956,0.0030254560768642673,-0.9734848262479721
14368,1.0,299.89364,52010.335,0.0,-0.1436802118014474,0.0,0.0,0.0,0.0,-3.4647094184401963,-7.719930321722803,-4.625203401772036,0.005379627173702865,0.009117125911890272,-0.957661872156368
14369,1.0,299.63403,52194.309,0.0,-0.14369020778886654,0.0,0.0,0.0,0.0,-3.457239738702997,-7.7458281836787215,-4.662698519072515,-0.0007994773296772693,0.009665274558938331,-0.967991916395864
14370,1.0,299.17998,52280.63,0.0,-0.14370023676634358,0.0,0.0,0.0,0.0,-3.455897891595567,-7.754774371461642,-4.681333910936686,0.02063278544179738,0.0012295214437443188,-0.9593763419880731
14371,1.0,299.54687,52276.456,0.0,-0.1437102327537627,0.0,0.0,0.0,0.0,-3.475002114281007,-7.752057847943542,-4.663677217344105,0.024492626935484076,-0.006995212610923733,-0.9641189502736321
14372,1.0,299.78774,52266.149000000005,0.0,-0.14372022874118218,0.0,0.0,0.0,0.0,-3.4843361742022063,-7.7386919645494325,-4.664575970182805,0.03065381778504627,-0.008393245854948873,-0.9419979476679591
14373,1.0,300.6045,52206.765999999996,0.0,-0.14373022472860153,0.0,0.0,0.0,0.0,-3.485691700185987,-7.734151692176342,-4.649709970015646,-0.006447847712828024,-0.013402517451475486,-0.964867985277556
14374,1.0,300.40435,52058.139,0.0,-0.14374022071602077,0.0,0.0,0.0,0.0,-3.445400620559567,-7.729764116593323,-4.649209525791255,-0.007293493175361733,-0.025424786629981076,-0.9748960201922462
14375,1.0,300.45676000000003,51998.837999999996,0.0,-0.14375021670344013,0.0,0.0,0.0,0.0,-3.4257548156956767,-7.738194154775303,-4.642399370544146,-0.036949473002379066,-0.007857152046990532,-0.993096018488446
14376,1.0,300.60386,52074.525,0.0,-0.14376021269085926,0.0,0.0,0.0,0.0,-3.449086115148297,-7.736590382517022,-4.643678801445415,-0.009276536193147842,0.019066798292996484,-0.9806249261251451
14377,1.0,300.49764,52203.209,0.0,-0.1437702086782785,0.0,0.0,0.0,0.0,-3.4923993145229764,-7.731447834284492,-4.644624771738775,-0.018978837038565382,0.019622013751541982,-0.9698663074908521
14378,1.0,301.08269,52307.505,0.0,-0.14378023765575554,0.0,0.0,0.0,0.0,-3.5057980272203264,-7.754861713620262,-4.639515559434536,-0.006881889909139653,0.009991497521384032,-0.9672128689239781
14379,1.0,300.75083,52294.634000000005,0.0,-0.14379023364317467,0.0,0.0,0.0,0.0,-3.494444863824857,-7.753390271825043,-4.648427702014096,0.006010060848121824,-0.0014620836199464187,-0.9589210177906361
14380,1.0,300.16117,52376.35,0.0,-0.14380022963059402,0.0,0.0,0.0,0.0,-3.4690098545146166,-7.765959943290573,-4.686132663410286,0.02014964550261518,0.0012653057895759589,-0.9621904110933001
14381,1.0,300.49779,52491.46400000001,0.0,-0.1438102256180135,0.0,0.0,0.0,0.0,-3.4923573659688363,-7.762373848536653,-4.701363129638416,0.008120179715274341,0.0012259939148461787,-0.9334021113721162
14382,1.0,300.06919,52318.570999999996,0.0,-0.14382022160543262,0.0,0.0,0.0,0.0,-3.4804595806446166,-7.729347366827192,-4.693732241810305,-0.0011645656275336787,-0.004452992732001166,-0.9507657325057722
14383,1.0,299.77831000000003,52181.774000000005,0.0,-0.14383021759285208,0.0,0.0,0.0,0.0,-3.4735095968837064,-7.732819065644822,-4.655627755899686,-0.0027039884997878878,0.024332400683920976,-0.9209828366189291
14384,1.0,300.55868,52291.861,0.0,-0.14384021358027121,0.0,0.0,0.0,0.0,-3.472612971870217,-7.747788214672163,-4.675018728363425,-0.0031734574659708667,0.006206214415105675,-0.96050142450161
14385,1.0,299.9451,52421.822,0.0,-0.14385020956769068,0.0,0.0,0.0,0.0,-3.5017477625955964,-7.761995906249353,-4.671181043609676,0.009108520784091011,-0.00921457615218286,-0.962223605166576
14386,1.0,299.53654,52283.38,0.0,-0.14386023854516738,0.0,0.0,0.0,0.0,-3.4532106510053566,-7.763775274749963,-4.675856078246066,-0.00909355487746399,-0.007018009522273613,-0.9854299100868601
14387,1.0,299.26328,52170.058,0.0,-0.14387023453258663,0.0,0.0,0.0,0.0,-3.4527228724072168,-7.753909157201251,-4.6517628147182455,-0.005734545075005535,0.0021975507997313783,-0.9668246725456661
14388,1.0,299.33673999999996,52235.858,0.0,-0.14388023052000598,0.0,0.0,0.0,0.0,-3.469558428118757,-7.7542046209304125,-4.654633656226575,-0.00020549283501056378,0.0007143289791137814,-0.9721419760229432
14389,1.0,299.94121,52398.895,0.0,-0.14389022650742544,0.0,0.0,0.0,0.0,-3.502312852176367,-7.762042313103932,-4.663600514311536,-0.0026464254576318573,0.00914835742104758,-0.9604470129712401
14390,1.0,300.17965,52374.694,0.0,-0.14390022249484458,0.0,0.0,0.0,0.0,-3.4902805072388667,-7.757808346236072,-4.672510326415866,0.00987464627745171,-0.001184979881273409,-0.9691084572110581
14391,1.0,300.13128,52205.055,0.0,-0.14391021848226393,0.0,0.0,0.0,0.0,-3.464504843245007,-7.748006367418692,-4.6565219491129355,-0.0027103143214871977,0.006063383033309314,-0.9669796390159602
14392,1.0,300.70493999999997,52184.842000000004,0.0,-0.14392021446968317,0.0,0.0,0.0,0.0,-3.431128992901067,-7.763605454033202,-4.668154566885986,0.008526513574351371,-0.007606854751638113,-0.9742099181520331
14393,1.0,300.63319,52337.15,0.0,-0.14393021045710253,0.0,0.0,0.0,0.0,-3.469820657244637,-7.7596040280632925,-4.679762056056555,-0.0039536025916901965,-0.0013838023490206587,-0.978003648116445
14394,1.0,300.53553,52410.465,0.0,-0.14394023943457934,0.0,0.0,0.0,0.0,-3.4806521994886266,-7.771797378441684,-4.679023194083635,0.013007086467449486,0.010893812542135591,-0.969765124335866
14395,1.0,300.06784,52252.096,0.0,-0.1439502354219987,0.0,0.0,0.0,0.0,-3.4750488251106173,-7.758484893327843,-4.649798730724405,-0.001014661760039319,0.017412501331730085,-0.981197858261689
14396,1.0,299.66531000000003,52341.579000000005,0.0,-0.14396023140941794,0.0,0.0,0.0,0.0,-3.4799866968229467,-7.776517300057502,-4.654028847241886,-0.004062536805966166,-0.006889391100954964,-0.9684957651405901
14397,1.0,299.8202,52490.28599999999,0.0,-0.1439702273968373,0.0,0.0,0.0,0.0,-3.5106331553725165,-7.772115640298092,-4.6729875672129655,-0.001956326956374438,-0.019257679413084983,-0.9812813196724262
14398,1.0,299.97334,52493.018,0.0,-0.14398022338425653,0.0,0.0,0.0,0.0,-3.498944302218917,-7.763270980175193,-4.694351236296395,0.023464300687246177,-0.018891532370199086,-0.9485139969410431
14399,1.0,300.2933,52299.27099999999,0.0,-0.1439902193716759,0.0,0.0,0.0,0.0,-3.486915604981777,-7.744671963989613,-4.666084800906716,0.016831652672154782,-0.008740025939398401,-0.9434553356842921
14400,1.0,300.15502000000004,52269.827000000005,0.0,-0.14400021535909513,0.0,0.0,0.0,0.0,-3.4750054580063363,-7.7392948483589326,-4.674421721404505,-0.002101030115080528,-0.02035495226437738,-0.9490358612725471
14401,1.0,300.39304,52393.765999999996,0.0,-0.14401021134651448,0.0,0.0,0.0,0.0,-3.493772167083467,-7.767368664904602,-4.665255557024875,-0.01857516529147608,0.003343847629287067,-0.9739688659532431
14402,1.0,300.00975,52426.325999999994,0.0,-0.14402020733393384,0.0,0.0,0.0,0.0,-3.4896821830548173,-7.774748975982982,-4.671862960926975,-0.007071528885930562,0.017320459719146284,-0.976993599886761
14403,1.0,299.5246,52317.847,0.0,-0.14403023631141065,0.0,0.0,0.0,0.0,-3.477737078950927,-7.7632460542227335,-4.662336180836755,-0.003646126478619666,0.002324829197792778,-0.9701021414516271
14404,1.0,300.26957999999996,52307.748,0.0,-0.1440402322988299,0.0,0.0,0.0,0.0,-3.4523347976189167,-7.763235415096683,-4.684679054816825,-0.005157789641859205,-0.0017526936784773984,-0.9763640068046251
14405,1.0,300.35001,52476.145,0.0,-0.14405022828624925,0.0,0.0,0.0,0.0,-3.4920123543097867,-7.780734852273743,-4.678690645400816,-0.003394371217698357,-0.0003957184836093736,-0.9536907930269531
14406,1.0,300.23928,52538.084,0.0,-0.1440602242736685,0.0,0.0,0.0,0.0,-3.4872279899876064,-7.778540963157222,-4.704496605572666,0.023888354973347077,0.020912740364926782,-0.9656038784276831
14407,1.0,300.36433,52497.07,0.0,-0.14407022026108784,0.0,0.0,0.0,0.0,-3.500329516430626,-7.785908405959334,-4.6715606070971365,0.008790836480238012,0.018554753368211583,-0.9433350426324201
14408,1.0,300.25875,52359.187999999995,0.0,-0.1440802162485072,0.0,0.0,0.0,0.0,-3.4725515689141564,-7.780978032297742,-4.662356040538715,0.004307663992683336,0.009955939434299722,-0.9710539278005612
14409,1.0,299.70322000000004,52348.18,0.0,-0.14409021223592644,0.0,0.0,0.0,0.0,-3.4905585430663066,-7.771506676987993,-4.650474365891086,-0.0061994080088839335,0.007223070773536583,-0.96301651389983
14410,1.0,299.87339,52346.4,0.0,-0.1441002082233458,0.0,0.0,0.0,0.0,-3.472605068519436,-7.770109303775083,-4.669284239422476,-0.008692066076390132,-0.004305007048271116,-0.9729314701033601
14411,1.0,299.24447000000004,52424.827000000005,0.0,-0.1441102372008226,0.0,0.0,0.0,0.0,-3.5016940603402964,-7.767560777123563,-4.6665835226059365,7.877964609344572e-05,-0.016315710787485282,-0.9532813589265451
14412,1.0,299.5381,52453.177,0.0,-0.14412023318824185,0.0,0.0,0.0,0.0,-3.4883245292458267,-7.7844487178652715,-4.671683007709215,-0.017646174030041782,-0.01963757423332768,-0.983690777747721
14413,1.0,300.81372000000005,52477.33900000001,0.0,-0.1441302291756612,0.0,0.0,0.0,0.0,-3.4999790332210368,-7.783053877777613,-4.668767887171516,0.006689053722983204,0.003978390438161566,-0.9708633253242501
14414,1.0,300.7048,52512.973,0.0,-0.14414022516308045,0.0,0.0,0.0,0.0,-3.4999955491976666,-7.781031633228033,-4.681605563288495,-0.009331889235510761,0.008907978425624023,-0.9645743555310771
14415,1.0,300.42899,52596.437999999995,0.0,-0.1441502211504998,0.0,0.0,0.0,0.0,-3.5064597808606366,-7.784646301634773,-4.6968976351227045,0.018261392133009084,0.015177017285354987,-0.9483587264957191
14416,1.0,299.99818999999997,52567.125,0.0,-0.14416021713791916,0.0,0.0,0.0,0.0,-3.501024403349207,-7.781599154609043,-4.696469840930487,0.006516553162358723,-0.0058594796229356145,-0.9553363922493611
14417,1.0,300.04049,52494.486,0.0,-0.1441702131253384,0.0,0.0,0.0,0.0,-3.482119385633427,-7.785080276652603,-4.6898133957235455,0.029146204987756472,-0.0063511728115119535,-0.9491561239269161
14418,1.0,299.68248,52498.365,0.0,-0.14418020911275775,0.0,0.0,0.0,0.0,-3.4884856360117262,-7.788964469585943,-4.6807418689032545,0.006682274370539133,-0.0067837887569828234,-0.971553612087376
14419,1.0,299.45928,52510.318,0.0,-0.14419023809023457,0.0,0.0,0.0,0.0,-3.495354357114617,-7.790382715750913,-4.676088416493996,0.002360260932589618,-0.013675067542874087,-0.960164062880815
14420,1.0,299.37401,52496.922999999995,0.0,-0.1442002340776537,0.0,0.0,0.0,0.0,-3.5073949093779264,-7.790297501417501,-4.660061434362255,3.791228047265076e-05,0.004353738501230536,-0.97795100977375
14421,1.0,299.94206,52339.261,0.0,-0.14421023006507316,0.0,0.0,0.0,0.0,-3.4841191360307864,-7.7643786651845135,-4.661330428787496,-0.003105143333628787,0.00927110608453693,-0.9650841520538901
14422,1.0,300.21423,52339.667,0.0,-0.1442202260524923,0.0,0.0,0.0,0.0,-3.472496245458697,-7.779210214848272,-4.6582453862080255,-0.013543784780417487,0.02119136995692538,-0.9794085700426001
14423,1.0,299.96714,52503.662000000004,0.0,-0.14423022203991176,0.0,0.0,0.0,0.0,-3.4927261890052366,-7.785050689749682,-4.682025352804925,-0.01973799846398878,-0.012452932895008787,-0.9682839148096821
14424,1.0,299.49021,52635.562999999995,0.0,-0.1442402180273311,0.0,0.0,0.0,0.0,-3.4964898051766764,-7.800436791193173,-4.7029702456220255,-0.006551716081904034,-0.015490189586512685,-0.985977652825918
14425,1.0,299.7052,52575.890999999996,0.0,-0.14425021401475024,0.0,0.0,0.0,0.0,-3.5095557665411867,-7.794458210303133,-4.677744067157396,-0.0023340320418260277,-0.01148233454471819,-0.975842801085686
14426,1.0,300.37906,52383.579000000005,0.0,-0.1442602100021697,0.0,0.0,0.0,0.0,-3.4814768837450165,-7.773281485863151,-4.668541628424186,-0.0011881748614887288,0.0037572461720363267,-0.963048046242942
14427,1.0,300.88675,52412.657999999996,0.0,-0.14427023897964653,0.0,0.0,0.0,0.0,-3.4836766497121165,-7.782367096859832,-4.666095541357776,-0.005027758040626085,-0.010213579246501792,-0.9555208341650641
14428,1.0,301.01718,52627.54,0.0,-0.14428023496706566,0.0,0.0,0.0,0.0,-3.4965040920030868,-7.799035567629883,-4.701918492018225,0.004337360731914176,-0.0004250850958251327,-0.9603053910047631
14429,1.0,300.34936,52645.685,0.0,-0.144290230954485,0.0,0.0,0.0,0.0,-3.4941678412475166,-7.798689137420693,-4.710116799902336,0.035094894999846464,0.007969260571179783,-0.974347507383112
14430,1.0,300.41447,52476.225999999995,0.0,-0.14430022694190425,0.0,0.0,0.0,0.0,-3.4663689194539766,-7.806476471064243,-4.678616880793537,0.012221696049937489,0.004493415230165556,-0.9678723630165651
14431,1.0,300.37752,52453.049000000006,0.0,-0.14431022292932383,0.0,0.0,0.0,0.0,-3.486163773407577,-7.798854094536973,-4.659399376746916,-0.00954001972265164,-0.014555787569544386,-0.971541807723711
14432,1.0,299.98935,52644.04,0.0,-0.14432021891674307,0.0,0.0,0.0,0.0,-3.507153350554087,-7.8083361902977835,-4.686984097469316,-0.024182181290345477,-0.007070720920300823,-0.9539243573075041
14433,1.0,299.73938,52705.333,0.0,-0.1443302149041622,0.0,0.0,0.0,0.0,-3.523719685714057,-7.808456057784612,-4.688929537661316,-0.01127439231944589,0.018496982913760084,-0.9581893600259271
14434,1.0,299.44209,52488.441,0.0,-0.14434021089158167,0.0,0.0,0.0,0.0,-3.4852218561146167,-7.777904338119392,-4.6920491320691955,-0.01034003792523229,0.02607895913304287,-0.962456723617083
14435,1.0,299.69584,52425.277,0.0,-0.14435023986905837,0.0,0.0,0.0,0.0,-3.4714714443075567,-7.794287376336272,-4.670216530839485,-0.018346866871694782,-0.003440598321710617,-0.972841706277001
14436,1.0,300.07254,52616.92,0.0,-0.14436023585647761,0.0,0.0,0.0,0.0,-3.5025557282253366,-7.799959347746053,-4.691714759536196,-0.006181558797772354,-0.004075857599730826,-0.984999937406925
14437,1.0,300.09274,52732.852,0.0,-0.14437023184389697,0.0,0.0,0.0,0.0,-3.536448842745326,-7.802675871264152,-4.6903456560010754,-0.00024205599526656678,0.009920805392382262,-0.96893338785878
14438,1.0,299.69326,52549.539000000004,0.0,-0.14438022783131643,0.0,0.0,0.0,0.0,-3.492377934945867,-7.805817149224173,-4.675552407191096,0.013339650349020985,0.005678916935240464,-0.9671983693150471
14439,1.0,300.18733,52562.477999999996,0.0,-0.14439022381873579,0.0,0.0,0.0,0.0,-3.5054023530562763,-7.797481545951513,-4.674796927916535,-0.011376422551515488,-0.025834038345371076,-0.9487436095462042
14440,1.0,300.44746000000004,52781.044,0.0,-0.14440021980615492,0.0,0.0,0.0,0.0,-3.5089831789096766,-7.823113632406202,-4.712022622015425,0.006184112188024354,0.0035070803965468866,-0.97921584987358
14441,1.0,300.5888,52859.47900000001,0.0,-0.14441021579357416,0.0,0.0,0.0,0.0,-3.5333605577655365,-7.822752915370603,-4.7118482416732155,0.01966074422336438,0.007085139773198854,-0.955597476402628
14442,1.0,300.28002000000004,52641.407999999996,0.0,-0.1444202117809935,0.0,0.0,0.0,0.0,-3.4995448555531863,-7.8117565173353425,-4.690372101828686,0.011699157907116987,-0.0030176121025401272,-0.974928504990452
14443,1.0,300.17569,52537.314000000006,0.0,-0.14443020776841275,0.0,0.0,0.0,0.0,-3.5002169443445172,-7.803507344296213,-4.666307411953686,0.004766523115744206,-0.02837820599496087,-0.9445221056545742
14444,1.0,300.2616,52643.407,0.0,-0.14444023674588957,0.0,0.0,0.0,0.0,-3.505878985903317,-7.804065645101312,-4.692336591122566,0.000901264300662861,0.003148209502629087,-0.9644793228041981
14445,1.0,300.36124,52772.619000000006,0.0,-0.14445023273330893,0.0,0.0,0.0,0.0,-3.5171478468904667,-7.821346625556813,-4.703063768606255,0.01303369745482579,0.02316472620243048,-0.9364759170079772
14446,1.0,299.76647,52794.888,0.0,-0.14446022872072828,0.0,0.0,0.0,0.0,-3.5041863516112666,-7.833532781859493,-4.710608530175866,-0.018203115053507586,0.011949282747302389,-0.982471696022407
14447,1.0,299.93857,52667.077000000005,0.0,-0.14447022470814774,0.0,0.0,0.0,0.0,-3.4827193310176363,-7.823168550561623,-4.703588429508036,-0.011775921734692989,-0.012195890596390688,-0.9616717283671101
14448,1.0,300.06631,52567.974,0.0,-0.14448022069556687,0.0,0.0,0.0,0.0,-3.4852164858890866,-7.820556695778852,-4.6735780893712455,-0.03565609167373226,-0.0037402576155596864,-0.9858678165150782
14449,1.0,299.83182999999997,52808.86,0.0,-0.14449021668298612,0.0,0.0,0.0,0.0,-3.509846569319887,-7.819111497161222,-4.723616736284676,-0.0073100697443477134,0.0034059875221447967,-0.959927408187459
14450,1.0,300.01277999999996,52850.375,0.0,-0.14450021267040547,0.0,0.0,0.0,0.0,-3.539815771502617,-7.817524240879572,-4.707854313754045,0.006863360807210973,-0.009076385962469553,-0.9698760549568142
14451,1.0,300.62231,52649.267,0.0,-0.14451020865782482,0.0,0.0,0.0,0.0,-3.498525424627577,-7.808085106923002,-4.697451984252416,0.023283732426675478,-0.0066416798225077634,-0.96549198521914
14452,1.0,299.81267,52518.193,0.0,-0.14452023763530153,0.0,0.0,0.0,0.0,-3.4806968838180365,-7.808947281433093,-4.674575127469645,0.03592143553041967,0.006673471861620394,-0.9906219150567711
14453,1.0,300.4767,52635.442,0.0,-0.14453023362272088,0.0,0.0,0.0,0.0,-3.499144317788657,-7.812724171180843,-4.687991470718736,0.027476306001450273,0.02056983221308438,-0.97438669989698
14454,1.0,299.9539,52637.869000000006,0.0,-0.14454022961014024,0.0,0.0,0.0,0.0,-3.501726180368467,-7.815716400051152,-4.683155126666425,-0.009596760512351522,0.006691767713376054,-0.9771077729080291
14455,1.0,299.3726,52681.613,0.0,-0.1445502255975596,0.0,0.0,0.0,0.0,-3.496360717113937,-7.822293203800233,-4.695240971209205,-0.008401377288326382,-0.00938315006469481,-0.9650800179934821
14456,1.0,299.25337,52731.928,0.0,-0.14456022158497883,0.0,0.0,0.0,0.0,-3.508298525817107,-7.827107965625412,-4.693783005640316,-0.021559261816483478,0.007127853229839343,-0.963499580885005
14457,1.0,299.86512,52844.5,0.0,-0.14457021757239807,0.0,0.0,0.0,0.0,-3.520313037552847,-7.831325517841652,-4.711770120090505,-0.006376384399175144,-0.004764720138516265,-0.9484942081665901
14458,1.0,299.87582000000003,52905.348,0.0,-0.14458021355981743,0.0,0.0,0.0,0.0,-3.5060870061488467,-7.845360247626773,-4.7304573903597955,-0.02058722161130058,-0.0068183035004391645,-0.9681301338420051
14459,1.0,300.08656,52852.453,0.0,-0.14459020954723678,0.0,0.0,0.0,0.0,-3.5104249324769667,-7.834417551846813,-4.720983400599787,-0.005021677222800955,0.00028604960221589767,-0.966300893171473
14460,1.0,300.19222,52848.55,0.0,-0.14460023852471338,0.0,0.0,0.0,0.0,-3.4854613884382566,-7.841808502051243,-4.737369782541995,-0.0022216863157883677,0.016725987911976485,-0.977908584992063
14461,1.0,300.39409,52815.738,0.0,-0.14461023451213295,0.0,0.0,0.0,0.0,-3.5166743551187363,-7.827420147981222,-4.710571039922166,0.0051775032331547845,0.007857237970599014,-0.9766478890851421
14462,1.0,300.31427,52763.585999999996,0.0,-0.1446202304995522,0.0,0.0,0.0,0.0,-3.5198343782056067,-7.815448902024752,-4.703529255702196,-0.004576466781237105,-0.005376823409351156,-0.971734872397765
14463,1.0,299.82159,52694.567,0.0,-0.14463022648697155,0.0,0.0,0.0,0.0,-3.516869101787957,-7.817882830089963,-4.683080754109087,0.007151064357830103,-0.016752515812844586,-0.987309863924897
14464,1.0,300.37491,52727.876,0.0,-0.1446402224743908,0.0,0.0,0.0,0.0,-3.5066132882507866,-7.823787646372723,-4.697556855637766,0.01164673538669329,0.0028594402155547776,-0.982123786468071
14465,1.0,299.46552,52733.791,0.0,-0.14465021846180992,0.0,0.0,0.0,0.0,-3.5002499762977766,-7.832281012685952,-4.697224712254986,0.016732652057884184,0.003228387881717077,-0.9900572206435401
14466,1.0,299.78359,52830.199,0.0,-0.14466021444922939,0.0,0.0,0.0,0.0,-3.497309929807617,-7.841652968160892,-4.720098326637436,0.003201599676898287,0.0035891620646227164,-0.9648939346126171
14467,1.0,299.70472,52885.212999999996,0.0,-0.14467021043664874,0.0,0.0,0.0,0.0,-3.523216708364417,-7.837164776842942,-4.715402723024016,-0.008191727027360513,-0.0002738507498894647,-0.9718710228137021
14468,1.0,299.22295,52829.07,0.0,-0.14468023941412556,0.0,0.0,0.0,0.0,-3.5142203647015466,-7.844730715339642,-4.699767058080895,0.004203406434243916,0.004126777672906246,-0.950696375536427
14469,1.0,299.19273,52858.842000000004,0.0,-0.1446902354015449,0.0,0.0,0.0,0.0,-3.5221041597546168,-7.836591479936363,-4.709072544349276,-0.0024746527145542074,-0.005942021306556844,-0.9769325617007371
14470,1.0,300.32349,52836.251,0.0,-0.14470023138896415,0.0,0.0,0.0,0.0,-3.5119543321779063,-7.830420786827363,-4.718525762482236,-0.008606441883314681,-0.025339520620815976,-0.9623819761572061
14471,1.0,299.96342999999996,52743.727,0.0,-0.1447102273763835,0.0,0.0,0.0,0.0,-3.4888635782990267,-7.835194005398443,-4.708718514764335,-0.012540743175174987,-0.01850758353630628,-0.988021560662636
14472,1.0,299.90957000000003,52786.712,0.0,-0.14472022336380275,0.0,0.0,0.0,0.0,-3.4969594465980265,-7.821336087755772,-4.727546829447546,-0.010118196543038251,0.0015543399402264085,-0.9488149930157491
14473,1.0,299.71645,52889.502,0.0,-0.14473021935122188,0.0,0.0,0.0,0.0,-3.5192953291524067,-7.831882602746633,-4.725910126561016,0.0058998293697428246,0.002799272208716657,-0.967269610929578
14474,1.0,299.78855,52862.468,0.0,-0.14474021533864145,0.0,0.0,0.0,0.0,-3.5181284703372464,-7.8312679652359725,-4.719473759275796,0.016852058515918682,-0.004828764840236985,-0.9555751342379231
14475,1.0,300.03182999999996,52875.847,0.0,-0.1447502113260607,0.0,0.0,0.0,0.0,-3.5215492026748465,-7.8408176447784514,-4.7105702293220855,0.012700532715944988,0.008703051328674292,-0.964736151307045
14476,1.0,300.7842,52989.644,0.0,-0.1447602403035375,0.0,0.0,0.0,0.0,-3.5389395128161367,-7.846646062003673,-4.721942948444486,0.012729260382780187,0.00966812422351957,-0.966019209643673
14477,1.0,300.76004,52985.773,0.0,-0.14477023629095687,0.0,0.0,0.0,0.0,-3.5248146037721164,-7.855943543596263,-4.725593891204806,-0.011535076238923388,0.0050992385795306655,-0.979052260644935
14478,1.0,300.35462,52913.795,0.0,-0.144780232278376,0.0,0.0,0.0,0.0,-3.507201783908867,-7.8626487261330125,-4.714622013821965,-0.018339725484989983,0.007911297903184311,-0.965223038245097
14479,1.0,300.6455,52863.269,0.0,-0.14479022826579546,0.0,0.0,0.0,0.0,-3.5123754389194666,-7.842905243959484,-4.713832995969096,-0.019521222724344683,0.017770868640348183,-0.975279889992631
14480,1.0,300.31491,52878.793,0.0,-0.1448002242532146,0.0,0.0,0.0,0.0,-3.510940474127847,-7.843433147261583,-4.7194589658243356,0.0019342916037997182,0.01750283359139518,-0.97038415935196
14481,1.0,299.83243999999996,52879.48,0.0,-0.14481022024063406,0.0,0.0,0.0,0.0,-3.5007045202926363,-7.862712459564302,-4.710624438202436,0.004794253947131026,-0.004653296368744595,-0.993060443277435
14482,1.0,300.08497,52830.585,0.0,-0.1448202162280534,0.0,0.0,0.0,0.0,-3.5057587131164465,-7.844130060680362,-4.709289886495725,0.020102517213963982,-0.01894629144535338,-0.9817424193954332
14483,1.0,300.15336,52846.157999999996,0.0,-0.14483021221547265,0.0,0.0,0.0,0.0,-3.4942593377315467,-7.854445959948463,-4.715207267079725,0.009071876188924471,-0.013965262371514088,-0.990622360886815
14484,1.0,299.59569,52907.685,0.0,-0.144840208202892,0.0,0.0,0.0,0.0,-3.5197843236506667,-7.840937816240313,-4.721892995214556,-0.013089233692806786,-0.009242725050560941,-0.965222724137566
14485,1.0,299.81811,52965.078,0.0,-0.14485023718036882,0.0,0.0,0.0,0.0,-3.538064267379757,-7.844935290534832,-4.717061717412745,-0.027040516252691174,-0.014267464213839086,-0.9765297137259791
14486,1.0,299.33616,52881.007000000005,0.0,-0.14486023316778796,0.0,0.0,0.0,0.0,-3.5163271143094668,-7.847691026831802,-4.710487750763945,-0.024131492440842877,-0.01031364579987759,-0.9775619622653541
14487,1.0,299.9608,52870.933,0.0,-0.14487022915520742,0.0,0.0,0.0,0.0,-3.508770193738657,-7.852875118318432,-4.709798234070895,0.007191521002522864,0.011001940513306989,-0.9884312480755689
14488,1.0,300.77176000000003,53020.045,0.0,-0.14488022514262655,0.0,0.0,0.0,0.0,-3.5351085155130466,-7.862990090091703,-4.718671163871586,0.007421106148606153,0.007381976861544392,-0.9670121643441701
14489,1.0,300.55888999999996,53148.939000000006,0.0,-0.1448902211300459,0.0,0.0,0.0,0.0,-3.5430753970743165,-7.867739395960423,-4.745135533958416,0.002165398347558178,0.012275939380790888,-0.976181287414092
14490,1.0,300.1124,53021.324,0.0,-0.14490021711746537,0.0,0.0,0.0,0.0,-3.539060798853107,-7.847700855357772,-4.730397000653836,-0.006491805744566344,0.00965756929855288,-0.9474088653219751
14491,1.0,300.39103,52844.403,0.0,-0.1449102131048845,0.0,0.0,0.0,0.0,-3.5063853069782867,-7.8461536224550725,-4.7108401591487254,0.01013113483489016,0.027446479971506677,-0.954520047041294
14492,1.0,300.21184,52964.249,0.0,-0.14492020909230396,0.0,0.0,0.0,0.0,-3.5151786966461263,-7.847037987142351,-4.7375925962389855,0.00881404933075394,0.009524788040523391,-0.94457070112937
14493,1.0,300.37542,53105.151,0.0,-0.14493023806978067,0.0,0.0,0.0,0.0,-3.535580284759607,-7.868557494091163,-4.738502089528746,0.0006351652889409334,-0.02275171026291898,-0.9799242535484941
14494,1.0,299.74747,53008.058,0.0,-0.1449402340571999,0.0,0.0,0.0,0.0,-3.522291509698107,-7.859569053779072,-4.731265355989536,-0.004677308268289385,-0.03691412577264056,-0.9742708144830432
14495,1.0,299.50338999999997,52896.83,0.0,-0.14495023004461927,0.0,0.0,0.0,0.0,-3.5173245577079064,-7.860044369400983,-4.701946761696015,-0.007032226333101703,-0.01118150160327829,-0.995521455517818
14496,1.0,300.15212,52948.92,0.0,-0.1449602260320385,0.0,0.0,0.0,0.0,-3.520117480283547,-7.8657581880398935,-4.709273775819136,0.016550283251885786,-0.01038489552040939,-0.9784842022413721
14497,1.0,299.40886,52990.374,0.0,-0.14497022201945786,0.0,0.0,0.0,0.0,-3.5294496150295567,-7.8716765818739916,-4.7066243294576555,-9.61273429885301e-05,0.006587578144018344,-1.000655066884466
14498,1.0,299.80273,53028.512,0.0,-0.14498021800687733,0.0,0.0,0.0,0.0,-3.517405719040917,-7.867983690559532,-4.733954319104916,0.006324425947297244,0.015405265042631285,-0.988891425740985
14499,1.0,300.7402,52924.212,0.0,-0.14499021399429646,0.0,0.0,0.0,0.0,-3.505917388082107,-7.873308117185013,-4.708413323834216,0.009294046066800931,0.01896041716499748,-0.9866558211178481
14500,1.0,300.61794,52863.632000000005,0.0,-0.1450002099817158,0.0,0.0,0.0,0.0,-3.500502984847747,-7.853858072240443,-4.7148630660207544,0.012938668780947186,0.0027468913328720676,-0.9632353049939232
14501,1.0,300.44468,53153.14,0.0,-0.14501023895919263,0.0,0.0,0.0,0.0,-3.5363535972359266,-7.877090478483302,-4.743783250374955,-0.003334579329297356,-0.0065660129394900235,-0.9699926091158171
14502,1.0,300.60385,53276.018,0.0,-0.14502023494661187,0.0,0.0,0.0,0.0,-3.5717328456775865,-7.871941546775142,-4.7509046760527855,0.008060610336595303,0.008476690952359263,-0.947053153741869
14503,1.0,300.12344,53060.011,0.0,-0.14503023093403122,0.0,0.0,0.0,0.0,-3.5292652035113563,-7.8694550310297435,-4.730198302309225,-0.0017211699479912485,0.013834582492866987,-0.963945826361546
14504,1.0,300.81337,53033.325,0.0,-0.14504022692145058,0.0,0.0,0.0,0.0,-3.518824775805967,-7.877268202550844,-4.724713579517926,0.0024207162971560977,0.0008491359571406943,-0.9649212011728081
14505,1.0,300.20734,53144.178,0.0,-0.14505022290886982,0.0,0.0,0.0,0.0,-3.5446065193004266,-7.875874983663343,-4.734021497586546,-0.010948914095823688,-0.00047486211143024155,-0.996509617545342
14506,1.0,299.73308,53203.361,0.0,-0.14506021889628917,0.0,0.0,0.0,0.0,-3.5517986698352364,-7.880019379222364,-4.740675207018215,-0.0026867566619622374,-1.4019286840345888e-05,-0.9791205030391701
14507,1.0,300.08898999999997,53081.374,0.0,-0.14507021488370841,0.0,0.0,0.0,0.0,-3.5498541415683267,-7.862376668481162,-4.723181444041716,-0.01978349440672888,0.006473247258384765,-0.987277257536679
14508,1.0,300.12825,52968.551,0.0,-0.14508021087112777,0.0,0.0,0.0,0.0,-3.5431576729824363,-7.854018875031312,-4.703940432592775,-0.007765005461696372,-0.013041924032387686,-0.9535302334161071
14509,1.0,300.62579,53031.397000000004,0.0,-0.14509023984860459,0.0,0.0,0.0,0.0,-3.5291127093713066,-7.864167993332953,-4.726939791312636,0.004089177177595366,-0.008933146342207902,-0.978536445416528
14510,1.0,299.78546,53164.630999999994,0.0,-0.14510023583602383,0.0,0.0,0.0,0.0,-3.524486716039757,-7.885630859601172,-4.750602626197975,0.02373570377953158,0.01107052031982529,-0.9466725770043092
14511,1.0,299.00475,53193.877,0.0,-0.14511023182344318,0.0,0.0,0.0,0.0,-3.535974236398487,-7.879451452541312,-4.754184566626486,0.015955248077660383,0.016837522429984087,-0.9590321510616041
14512,1.0,299.15761000000003,53166.981,0.0,-0.14512022781086253,0.0,0.0,0.0,0.0,-3.527327464020117,-7.884202278285183,-4.749904902179116,0.005357279841422355,0.004227157523212966,-0.9619804150100751
14513,1.0,299.51871,53026.992,0.0,-0.14513022379828178,0.0,0.0,0.0,0.0,-3.5253854688784565,-7.878195022417313,-4.715300992713976,-0.015322062010669785,0.014721936267941984,-0.986183899883773
14514,1.0,300.2347,53005.777,0.0,-0.14514021978570113,0.0,0.0,0.0,0.0,-3.539031110625176,-7.871160432273053,-4.702241212175076,0.014026369458544885,0.008015565087499682,-0.981737170759915
14515,1.0,300.24201,53074.322,0.0,-0.14515021577312037,0.0,0.0,0.0,0.0,-3.5180280572523364,-7.895841482183884,-4.719399082743426,-0.009289182061020891,-0.007237732806458614,-0.997927569867783
14516,1.0,300.57353,53056.687999999995,0.0,-0.14516021176053973,0.0,0.0,0.0,0.0,-3.5270567235933963,-7.874175763245643,-4.726675738336575,-0.015368620852764785,-0.027510719014596573,-0.9962023494525171
14517,1.0,300.70751,53022.212,0.0,-0.14517024073801654,0.0,0.0,0.0,0.0,-3.5135711753624768,-7.8733587796900135,-4.730498325663836,-0.00941010353060491,-0.025181547837475275,-0.9818661068351401
14518,1.0,300.14119,53040.389,0.0,-0.14518023672543567,0.0,0.0,0.0,0.0,-3.505833389648817,-7.876974157371823,-4.740146391791025,0.004649716961441336,0.02235249175001918,-0.9653973577923011
14519,1.0,299.78078999999997,53290.200999999994,0.0,-0.14519023271285514,0.0,0.0,0.0,0.0,-3.5741413411652867,-7.882679566034902,-4.742069337830805,0.01253220958283279,0.02318575316850568,-0.951505263223758
14520,1.0,299.4964,53391.636,0.0,-0.1452002287002745,0.0,0.0,0.0,0.0,-3.5817533825415366,-7.904543375367693,-4.743427295614826,0.005157806563135875,0.01210311640398459,-0.9800190836253532
14521,1.0,298.92337000000003,53189.990999999995,0.0,-0.14521022468769373,0.0,0.0,0.0,0.0,-3.5435760439487267,-7.8904913190058625,-4.734361645645116,-0.004806889479853056,0.01112037222474529,-0.9809675566464601
14522,1.0,300.35134,53042.90900000001,0.0,-0.1452202206751131,0.0,0.0,0.0,0.0,-3.525536848443396,-7.881023003446413,-4.717160103997456,0.0036256887174776166,-0.004048529636583766,-0.975970430068282
14523,1.0,300.24264,53094.700999999994,0.0,-0.14523021666253222,0.0,0.0,0.0,0.0,-3.517757620800647,-7.873252287104503,-4.7484535227358755,0.007749650467030953,-0.00975393779303871,-0.965706500397811
14524,1.0,299.60714,53196.803,0.0,-0.14524021264995168,0.0,0.0,0.0,0.0,-3.5295672533661664,-7.891413883221912,-4.749518549915986,-0.008578433928025512,-0.014921336794871287,-0.977055418275362
14525,1.0,300.15296,53226.023,0.0,-0.1452502416274285,0.0,0.0,0.0,0.0,-3.5416707284606863,-7.900597374178252,-4.737113936891745,0.01126316550833789,-0.0038081485133349964,-0.975706630404747
14526,1.0,299.97535,53150.927,0.0,-0.14526023761484785,0.0,0.0,0.0,0.0,-3.5317108852777266,-7.899025823273152,-4.725817819476905,0.015604861126829883,0.013811397304078788,-0.9889869853579161
14527,1.0,299.78347,53279.462999999996,0.0,-0.1452702336022672,0.0,0.0,0.0,0.0,-3.538673332014867,-7.9044810604865425,-4.752471869982456,0.01998614341347878,-0.006697224673114614,-0.9650215534627121
14528,1.0,300.49407,53449.308,0.0,-0.14528022958968645,0.0,0.0,0.0,0.0,-3.5829807323876666,-7.912891745591612,-4.751382626124955,-0.0042964977739313156,-0.011639855418514288,-0.984089592987081
14529,1.0,300.10578,53256.472,0.0,-0.14529022557710558,0.0,0.0,0.0,0.0,-3.5358100898822866,-7.8865815921700015,-4.766246093166866,-0.008210737524411703,-0.003509340450894937,-0.9610464821279031
14530,1.0,300.26842,53007.184,0.0,-0.14530022156452505,0.0,0.0,0.0,0.0,-3.5215477841247065,-7.872575537362712,-4.718737126453095,-0.026607100548916372,0.014417284386875187,-0.991197066211034
14531,1.0,300.62819,53087.422999999995,0.0,-0.14531021755194418,0.0,0.0,0.0,0.0,-3.531016201009167,-7.879376776008943,-4.726858022029566,-0.026354642193750676,0.002130232286937558,-0.967076343605504
14532,1.0,299.89796,53250.247,0.0,-0.14532021353936364,0.0,0.0,0.0,0.0,-3.5450573142699167,-7.901584685075693,-4.740103429986786,-0.003417059508637517,-0.0025980788370604177,-1.007899328871919
14533,1.0,299.93119,53393.577000000005,0.0,-0.145330209526783,0.0,0.0,0.0,0.0,-3.5606439379081967,-7.901944996811252,-4.767725235662846,0.018271663449272783,0.003910008012762746,-0.9824129883116132
14534,1.0,299.79536,53265.523,0.0,-0.1453402385042598,0.0,0.0,0.0,0.0,-3.540438109714037,-7.9004645370901425,-4.750486305086496,0.013558154693335687,-0.004375122536640975,-0.9765721891701711
14535,1.0,299.90554,53244.794,0.0,-0.14535023449167916,0.0,0.0,0.0,0.0,-3.5175632794314673,-7.896256306774822,-4.771268165962505,0.003175751464197267,-0.02089061503574318,-0.9446604649557291
14536,1.0,299.75577000000004,53523.187999999995,0.0,-0.1453602304790984,0.0,0.0,0.0,0.0,-3.5635486219698667,-7.915672610491063,-4.790491445534696,-0.01956570643023488,0.004407057545342715,-0.9660924980234061
14537,1.0,299.96022,53608.246,0.0,-0.14537022646651754,0.0,0.0,0.0,0.0,-3.5918282296108464,-7.912547341882622,-4.7911926146038954,-0.01142423073098379,0.0012187445156807187,-0.951690860244575
14538,1.0,299.73555,53402.108,0.0,-0.1453802224539369,0.0,0.0,0.0,0.0,-3.5440621000216965,-7.9366668485880325,-4.752178534078505,-0.015161282524552086,0.004961449738181965,-0.973023817717474
14539,1.0,300.79393999999996,53181.28400000001,0.0,-0.14539021844135636,0.0,0.0,0.0,0.0,-3.552871093741077,-7.885060501119883,-4.727850905802555,-0.006330881363684343,-0.012018891002672187,-0.9698988936140681
14540,1.0,300.23461000000003,53130.872,0.0,-0.1454002144287757,0.0,0.0,0.0,0.0,-3.5378035581290264,-7.888144429124242,-4.724510422872876,0.028266447548681174,-0.007568322370210263,-0.981480838749617
14541,1.0,300.32937000000004,53235.791,0.0,-0.14541021041619495,0.0,0.0,0.0,0.0,-3.5314498720519665,-7.904625651275812,-4.746275541645925,0.02116538921111128,0.013713838544700485,-0.9951551858716701
14542,1.0,300.28708,53208.184,0.0,-0.14542023939367166,0.0,0.0,0.0,0.0,-3.5278827250749165,-7.9028675610273025,-4.743209142868296,0.01884396027800408,0.026094597635086272,-1.00432489662665
14543,1.0,300.28657999999996,53242.012,0.0,-0.14543023538109112,0.0,0.0,0.0,0.0,-3.531389482346007,-7.917461503542612,-4.7353911077467155,-0.013748908143911586,-8.643158520563333e-06,-0.987238976947901
14544,1.0,300.44779,53350.039000000004,0.0,-0.14544023136851025,0.0,0.0,0.0,0.0,-3.5347596535036168,-7.913633545989822,-4.768686404707704,-0.015223085714401586,0.018945583183533482,-0.9981862830158161
14545,1.0,299.67409,53395.04,0.0,-0.1454502273559295,0.0,0.0,0.0,0.0,-3.559920882636837,-7.909051223737583,-4.761786779476766,-0.013731940257736986,0.0008553080485348324,-0.9596881798388491
14546,1.0,299.96598,53507.907999999996,0.0,-0.14546022334334885,0.0,0.0,0.0,0.0,-3.5542479993019667,-7.929598618540453,-4.781221321694805,0.003999503226520236,-0.005837814917247474,-0.9797787609666351
14547,1.0,300.29495,53472.024000000005,0.0,-0.1454702193307683,0.0,0.0,0.0,0.0,-3.5523131982360163,-7.909380023395032,-4.792466979254666,-0.00031874046509473467,-0.01902865651948218,-0.9477375433894131
14548,1.0,299.9463,53327.482,0.0,-0.14548021531818767,0.0,0.0,0.0,0.0,-3.5316808930747667,-7.927723193930362,-4.750818752444305,0.028640127092810472,0.008790526729682441,-1.007543120799264
14549,1.0,300.20963,53340.626,0.0,-0.1454902113056068,0.0,0.0,0.0,0.0,-3.5498442117173465,-7.9082292752564625,-4.7561446989449365,0.026990978455302177,0.016318615775521985,-0.9566434544808581
14550,1.0,299.77673,53331.233,0.0,-0.14550024028308362,0.0,0.0,0.0,0.0,-3.5445468388695365,-7.911941114347792,-4.754875299219655,0.014512267464499287,0.01046216090678489,-1.007413566641478
14551,1.0,299.58265,53299.995,0.0,-0.14551023627050297,0.0,0.0,0.0,0.0,-3.5624725503636663,-7.907331535667862,-4.732063493093305,0.0069370842765369145,-0.01031239747575439,-0.9436331306793392
14552,1.0,300.60595,53384.095,0.0,-0.1455202322579222,0.0,0.0,0.0,0.0,-3.564807787869136,-7.905993437585802,-4.756630755017905,-0.012803158739073388,0.01106756162953329,-0.9947294992396579
14553,1.0,300.93768,53479.384000000005,0.0,-0.14553022824534145,0.0,0.0,0.0,0.0,-3.573915082417957,-7.912327061310883,-4.770155009402646,-0.00950777506471934,0.009183875079452902,-0.9557031381230562
14554,1.0,300.49829,53472.045,0.0,-0.1455402242327608,0.0,0.0,0.0,0.0,-3.5604803993420564,-7.933548875380313,-4.760137005663945,-0.017065486477232383,0.006976975426348864,-1.007173365572772
14555,1.0,300.40958,53528.764,0.0,-0.14555022022018016,0.0,0.0,0.0,0.0,-3.553740361001867,-7.923642126502592,-4.794025053933436,0.01242990475998609,0.002695866692286328,-0.961796753296949
14556,1.0,299.68066,53450.26,0.0,-0.14556021620759962,0.0,0.0,0.0,0.0,-3.547318989818126,-7.943823332719323,-4.756401963145325,0.002095450856054898,0.017111561999029683,-1.024844011619229
14557,1.0,299.90371,53365.577000000005,0.0,-0.14557021219501876,0.0,0.0,0.0,0.0,-3.545239901937937,-7.906924209127663,-4.769638657151686,0.017040773307293384,0.0024558769875511876,-0.9603447557711481
14558,1.0,299.685,53282.378,0.0,-0.14558024117249557,0.0,0.0,0.0,0.0,-3.532461703601826,-7.9141964064203725,-4.749854340999126,-0.007059540009422353,-0.006679653497830473,-1.012339086835089
14559,1.0,299.68522,53297.975,0.0,-0.14559023715991493,0.0,0.0,0.0,0.0,-3.5208763032834365,-7.914351636335693,-4.766025609945105,0.003428439421835627,-0.0065536783420476925,-0.96907787732304
14560,1.0,299.8737,53374.955,0.0,-0.14560023314733417,0.0,0.0,0.0,0.0,-3.5454021232789463,-7.934017503551563,-4.745233920543125,-0.018016383192578582,-0.0024245091962554277,-1.015857293832309
14561,1.0,299.47942,53385.884000000005,0.0,-0.1456102291347533,0.0,0.0,0.0,0.0,-3.5359858887746367,-7.929079834489252,-4.762909865887606,-0.017765634190331586,-0.008684121688981082,-0.9596022055678641
14562,1.0,299.11879,53485.809,0.0,-0.14562022512217287,0.0,0.0,0.0,0.0,-3.5667811937638967,-7.933229194973763,-4.758340006611596,-0.04067074139913966,-0.008898576579271131,-0.9786202411997981
14563,1.0,299.16528,53604.288,0.0,-0.14563022110959212,0.0,0.0,0.0,0.0,-3.5771764305148266,-7.924544121741612,-4.792644601997195,0.008753886288841311,-0.006576301683655443,-0.935012733201072
14564,1.0,299.45783,53532.755999999994,0.0,-0.14564021709701147,0.0,0.0,0.0,0.0,-3.5642491830890064,-7.943901352977022,-4.764470575016636,0.004077866570704096,0.008698689692293832,-0.982951844847294
14565,1.0,300.23305,53529.128,0.0,-0.1456502130844307,0.0,0.0,0.0,0.0,-3.5649721370353564,-7.933223926073242,-4.773322327890236,0.016873291171764185,-8.340751191118051e-05,-0.9573831878488641
14566,1.0,300.40456,53442.559,0.0,-0.14566024206190753,0.0,0.0,0.0,0.0,-3.563891201828676,-7.927522266435533,-4.753790007037545,-0.0026809839734925176,-0.010679872889521389,-1.004577854514115
14567,1.0,299.99675,53387.289000000004,0.0,-0.14567023804932688,0.0,0.0,0.0,0.0,-3.550751779831917,-7.918570404452051,-4.759080591109686,-0.0028024556378808377,-0.004189932437064136,-0.972923820065105
14568,1.0,299.95627,53484.555,0.0,-0.14568023403674613,0.0,0.0,0.0,0.0,-3.5572238135206566,-7.916647053112233,-4.7840982427037355,-0.005519848929866675,-0.0016579255111995085,-0.9832692251761171
14569,1.0,300.53324,53498.315,0.0,-0.14569023002416548,0.0,0.0,0.0,0.0,-3.560061217775686,-7.916176803740822,-4.785913986882935,-0.005371226823748815,-0.006095770559505714,-0.963255965163462
14570,1.0,300.07732999999996,53379.709,0.0,-0.14570022601158483,0.0,0.0,0.0,0.0,-3.537327533232047,-7.923990988512021,-4.764780224247196,-0.002320136127304608,0.01163556633084099,-0.9740254559713282
14571,1.0,300.45224,53524.85400000001,0.0,-0.14571022199900407,0.0,0.0,0.0,0.0,-3.5691203829447566,-7.936808500952013,-4.764290013848816,0.003291651266285687,0.012526615429030687,-0.9776468523587319
14572,1.0,299.71331000000004,53620.873,0.0,-0.14572021798642343,0.0,0.0,0.0,0.0,-3.573153624967807,-7.949205413275493,-4.777047541882886,0.02144213415792388,0.01136396768128629,-0.994065820424158
14573,1.0,299.52648999999997,53535.195999999996,0.0,-0.14573021397384267,0.0,0.0,0.0,0.0,-3.558292995026176,-7.953737174347742,-4.7613325394569355,0.004699435522648176,-0.011225764420646689,-0.974357335909082
14574,1.0,299.6031,53427.935,0.0,-0.1457402099612618,0.0,0.0,0.0,0.0,-3.5331786793725866,-7.943355616473162,-4.764223949942296,0.01979473742983848,-0.0018310558067611384,-0.9670287917783111
14575,1.0,300.16283,53454.07,0.0,-0.14575023893873884,0.0,0.0,0.0,0.0,-3.540053176001047,-7.937908485260573,-4.7707408706104655,0.0009735861512579722,0.0048207378729447845,-0.9679409296508321
14576,1.0,299.81775,53540.578,0.0,-0.14576023492615797,0.0,0.0,0.0,0.0,-3.5525462457590167,-7.941132647078772,-4.781320012254546,0.0035276952738064163,0.00018919919585000681,-0.9761397137624891
14577,1.0,300.14209,53546.552,0.0,-0.14577023091357744,0.0,0.0,0.0,0.0,-3.572069953985857,-7.942699030408362,-4.762045867527336,-0.005828509937604145,-0.006750429219965493,-1.001098069960687
14578,1.0,300.01825,53581.445,0.0,-0.1457802269009968,0.0,0.0,0.0,0.0,-3.577544037651107,-7.951685140245223,-4.758192072096995,0.005756676382364725,0.011595154877102687,-0.98685849140285
14579,1.0,300.03986000000003,53560.297999999995,0.0,-0.14579022288841603,0.0,0.0,0.0,0.0,-3.582849009874667,-7.922570006571783,-4.775574073587466,-0.013286062590982289,0.01349618330396959,-0.9839440801402201
14580,1.0,300.40597,53623.878,0.0,-0.14580021887583539,0.0,0.0,0.0,0.0,-3.5818400154250862,-7.946159076849843,-4.772320628841375,-0.017864905342378883,-0.002224415808907748,-0.958735349842312
14581,1.0,299.76731,53694.986,0.0,-0.14581021486325463,0.0,0.0,0.0,0.0,-3.5792755807469963,-7.948132482744602,-4.794526815382955,-0.007614611687778663,-0.01206541742076399,-0.976085251569614
14582,1.0,300.45389,53696.136,0.0,-0.14582021085067398,0.0,0.0,0.0,0.0,-3.583417443180767,-7.947172225624832,-4.791694781353455,0.002874149465931467,0.010862918546586591,-0.971603838894833
14583,1.0,300.32732000000004,53417.846,0.0,-0.1458302398281508,0.0,0.0,0.0,0.0,-3.5596093082310865,-7.954750931072792,-4.723330898431466,0.00967189898544211,0.0009244043694241081,-0.994130303660522
14584,1.0,300.48053,53478.956,0.0,-0.14584023581556993,0.0,0.0,0.0,0.0,-3.585255985487217,-7.936103886832472,-4.734907382148975,-0.0050404992553335455,-0.014688726995914487,-0.97807422098591
14585,1.0,300.04404,53707.625,0.0,-0.1458502318029894,0.0,0.0,0.0,0.0,-3.6008300448242565,-7.958936261935852,-4.766010613843625,-0.0018468602791709185,-0.008088899874087263,-0.984108763678973
14586,1.0,299.98524,53593.98,0.0,-0.14586022779040875,0.0,0.0,0.0,0.0,-3.5627199860380867,-7.948605771866312,-4.779905920414985,0.006775205110085683,0.004539241897738296,-0.9574870358516132
14587,1.0,299.3956,53511.064000000006,0.0,-0.14587022377782788,0.0,0.0,0.0,0.0,-3.521169132562336,-7.957482146717343,-4.787376005452225,0.0013378469986852187,0.015225199354110186,-0.980780237100473
14588,1.0,299.91523,53558.585999999996,0.0,-0.14588021976524734,0.0,0.0,0.0,0.0,-3.5396048128317967,-7.961921904680512,-4.7789459672702455,-0.01111837004254769,-0.007283242326750054,-0.9801430142450841
14589,1.0,299.6986,53623.85,0.0,-0.14589021575266647,0.0,0.0,0.0,0.0,-3.560827437501307,-7.957307057100063,-4.782176917864116,-0.01077717023037389,-0.007106694845226174,-0.9869751772843661
14590,1.0,300.15462,53661.357,0.0,-0.14590021174008594,0.0,0.0,0.0,0.0,-3.585659259027017,-7.960308709196302,-4.765744838342395,4.3031104467339356e-05,0.018625048607149183,-0.9946658772658791
14591,1.0,299.97827,53609.29,0.0,-0.14591024071756264,0.0,0.0,0.0,0.0,-3.566931762728757,-7.955663160137822,-4.773290613162105,0.008784727494060101,0.01765661151932188,-0.972946445939838
14592,1.0,299.92642,53530.710999999996,0.0,-0.1459202367049821,0.0,0.0,0.0,0.0,-3.5577246630450863,-7.937590527379192,-4.776684393047046,-0.004509686506896406,-0.016703703502527183,-0.9633850025636971
14593,1.0,299.95375,53663.221,0.0,-0.14593023269240124,0.0,0.0,0.0,0.0,-3.5501145468440263,-7.969068154985792,-4.793096511541796,0.008248053600419513,-0.007417350942410544,-0.980273054762918
14594,1.0,299.58362,53686.248,0.0,-0.1459402286798207,0.0,0.0,0.0,0.0,-3.580965276613757,-7.949846192638733,-4.788467579784955,0.013024629879680885,0.014987608417661785,-0.989522883203305
14595,1.0,300.2807,53635.974,0.0,-0.14595022466723984,0.0,0.0,0.0,0.0,-3.577582338504887,-7.954877891310322,-4.771536474588986,0.025879244498582577,0.015017550971366886,-0.9830298245749901
14596,1.0,300.76952,53625.731,0.0,-0.1459602206546593,0.0,0.0,0.0,0.0,-3.6008626714774765,-7.936633006034692,-4.763387613309755,-0.009833279734169151,-0.011920038322916188,-0.970463202992261
14597,1.0,301.16867,53603.206,0.0,-0.14597021664207843,0.0,0.0,0.0,0.0,-3.594761993950386,-7.937699350439933,-4.761575010205865,-0.015537176020149885,-0.012869453666616187,-0.9622245069591652
14598,1.0,300.39763,53713.285,0.0,-0.14598021262949779,0.0,0.0,0.0,0.0,-3.5805112392439464,-7.953920167315801,-4.793066215363805,-0.0014152601169252984,0.016197606355829286,-0.9522900659562121
14599,1.0,299.84934,53737.306,0.0,-0.1459902416069746,0.0,0.0,0.0,0.0,-3.556360929735497,-7.979281614668783,-4.799156456414866,0.016244243218181985,0.012404406321219589,-0.978565059599352
14600,1.0,299.78307,53709.344000000005,0.0,-0.14600023759439396,0.0,0.0,0.0,0.0,-3.5611742730105362,-7.984798457488252,-4.780326723181516,0.015919081128590987,-0.01076025705970469,-0.9764937129499262
14601,1.0,300.32122999999996,53789.029,0.0,-0.1460102335818132,0.0,0.0,0.0,0.0,-3.5800979345281565,-7.993888020160322,-4.776535749257375,0.005869867665610835,-0.0070468036583153735,-1.002443260793447
14602,1.0,299.60233999999997,53784.327000000005,0.0,-0.14602022956923255,0.0,0.0,0.0,0.0,-3.5974679796674467,-7.969189441022762,-4.7824349926645855,0.015179417674841886,0.007724733937796883,-0.9727029214108041
14603,1.0,299.94077999999996,53653.117999999995,0.0,-0.1460302255566518,0.0,0.0,0.0,0.0,-3.5593465724801567,-7.978720476763402,-4.7711410030749555,0.003696194408460986,-0.004803022106871375,-1.009103495555761
14604,1.0,300.13581,53663.06,0.0,-0.14604022154407115,0.0,0.0,0.0,0.0,-3.5518350455138266,-7.957405747659802,-4.802989480218155,-0.008050331015655813,-0.016089820863191686,-0.9744339173516401
14605,1.0,300.17427999999995,53681.614,0.0,-0.1460502175314906,0.0,0.0,0.0,0.0,-3.5521427695691963,-7.973143041587953,-4.792584617591275,-0.016194112669484485,-0.02113255281512058,-1.015487254895789
14606,1.0,299.98677000000004,53639.754,0.0,-0.14606021351890974,0.0,0.0,0.0,0.0,-3.5672139528816067,-7.957876908956302,-4.780054969504696,-0.005244016921394175,0.013036901351641986,-0.9759335578971432
14607,1.0,300.72172,53689.087999999996,0.0,-0.14607024249638656,0.0,0.0,0.0,0.0,-3.575508620850227,-7.976338427103312,-4.768295188844096,-0.018034831437149283,0.005296506417649485,-1.0045466666760372
14608,1.0,300.88977,53860.518,0.0,-0.1460802384838059,0.0,0.0,0.0,0.0,-3.6032764358656966,-7.974647920636473,-4.794328218363355,-0.008530710557590582,-0.017050239089727585,-0.9477332269439872
14609,1.0,300.43172999999996,53938.337,0.0,-0.14609023447122516,0.0,0.0,0.0,0.0,-3.602525617541597,-7.9934792750699835,-4.799902816438525,-0.0025215578855333877,0.0024709230422611177,-1.0001740567969941
14610,1.0,299.86253999999997,53854.625,0.0,-0.1461002304586445,0.0,0.0,0.0,0.0,-3.5871175285709365,-7.983581848093182,-4.799761772024605,0.005686196529258905,0.02840048229840937,-0.951593162669933
14611,1.0,299.94777999999997,53725.308,0.0,-0.14611022644606375,0.0,0.0,0.0,0.0,-3.5745207020027268,-7.980462962960372,-4.776168446096126,-0.01336420950494479,0.0061728608562639335,-1.0017608875136021
14612,1.0,299.73464,53740.97,0.0,-0.1461202224334831,0.0,0.0,0.0,0.0,-3.581483351389887,-7.971076416683992,-4.783353199905204,-0.014824238051038384,-0.013436224229302088,-0.9662753694014541
14613,1.0,300.20228,53807.450999999994,0.0,-0.14613021842090246,0.0,0.0,0.0,0.0,-3.5937010197706765,-7.979406447081101,-4.783013963771725,-0.0025787675060545377,0.0011754894768617788,-1.003161310609313
14614,1.0,299.93457,53768.632000000005,0.0,-0.1461402144083217,0.0,0.0,0.0,0.0,-3.5898934285448965,-7.952129045114034,-4.802299254250036,0.004509702921548025,0.013383651747863589,-0.9534389193170951
14615,1.0,299.54567000000003,53669.998,0.0,-0.14615021039574105,0.0,0.0,0.0,0.0,-3.5591092693067363,-7.966937796650542,-4.7882921861926455,-0.0013523708242936085,-0.004285468850567845,-0.999851620350172
14616,1.0,299.59429,53799.973,0.0,-0.14616023937321787,0.0,0.0,0.0,0.0,-3.5730420661317965,-7.980539665992942,-4.800266674549436,0.005365516855460285,-0.011157030600113188,-0.9633625793389841
14617,1.0,299.90785,53863.181,0.0,-0.1461702353606371,0.0,0.0,0.0,0.0,-3.5836184720006066,-7.991849158309102,-4.797594430060705,0.021097419381153178,0.01011383277883258,-1.0074757396676142
14618,1.0,299.40477999999996,53865.526,0.0,-0.14618023134805647,0.0,0.0,0.0,0.0,-3.5907505368044865,-8.005315454788121,-4.777708890223155,0.024604847423809376,0.01078092533524449,-0.9759726490860011
14619,1.0,299.24329,53725.937999999995,0.0,-0.1461902273354757,0.0,0.0,0.0,0.0,-3.5593267127781965,-7.992168433415613,-4.779848469134316,-0.01042389146375799,-0.00046096451491365556,-0.990129921338215
14620,1.0,299.26942,53755.58,0.0,-0.14620022332289506,0.0,0.0,0.0,0.0,-3.5724157762449864,-7.974346985356773,-4.793591281565625,-0.02314219557320688,-0.015023414649695588,-0.9551201444130191
14621,1.0,299.45342999999997,53884.747,0.0,-0.14621021931031442,0.0,0.0,0.0,0.0,-3.5528618731651664,-8.011459499419493,-4.8152962132827355,0.0022995466826225878,0.004060344842024837,-0.9982580312553971
14622,1.0,299.97291,53814.005999999994,0.0,-0.14622021529773366,0.0,0.0,0.0,0.0,-3.5805101246688364,-7.970479004425033,-4.8071250605013045,-0.002741159174406347,0.03884124944258286,-0.969736935718084
14623,1.0,300.33123,53793.49,0.0,-0.146230211285153,0.0,0.0,0.0,0.0,-3.5725107177793567,-7.9897643962283516,-4.789602723871986,0.002247331574494358,-0.0002608032398092758,-0.9982660257986862
14624,1.0,299.7964,53837.259000000005,0.0,-0.14624024026262983,0.0,0.0,0.0,0.0,-3.6067534035838467,-7.972080446208083,-4.786348468525816,-0.012948858023952788,-0.013632537383176685,-0.9683397651551942
14625,1.0,299.67297,53843.41,0.0,-0.14625023625004896,0.0,0.0,0.0,0.0,-3.5948295777320562,-7.976342581428722,-4.795880010891505,0.001855389717187708,0.0059583592551442745,-0.9962254515547969
14626,1.0,299.68885,53935.573,0.0,-0.14626023223746842,0.0,0.0,0.0,0.0,-3.601864877151386,-7.9915603820306025,-4.801642060235175,0.025194258046729676,0.0025098562654285277,-0.9634462535322421
14627,1.0,300.01567,54023.032,0.0,-0.14627022822488756,0.0,0.0,0.0,0.0,-3.6040713305691465,-7.986905612396213,-4.830675931250595,0.012924707207819288,-0.01176531097964579,-0.978639462554195
14628,1.0,299.78243,53930.067,0.0,-0.14628022421230713,0.0,0.0,0.0,0.0,-3.6096348842182264,-7.989306913808202,-4.794451834875555,-0.013000468931046385,-0.008363650542053042,-0.972361760102134
14629,1.0,299.78407000000004,53903.774000000005,0.0,-0.14629022019972637,0.0,0.0,0.0,0.0,-3.593150014366296,-8.002359702921414,-4.789891500150486,0.009150602276644132,0.010692523317019888,-0.991995416097325
14630,1.0,299.56397999999996,53986.170999999995,0.0,-0.14630021618714562,0.0,0.0,0.0,0.0,-3.6060088674103667,-7.987352962315362,-4.817086119584386,0.005313634701314915,0.02117380425319178,-0.974050351526285
14631,1.0,300.07507999999996,54004.812000000005,0.0,-0.14631021217456497,0.0,0.0,0.0,0.0,-3.5775414032008466,-8.017700410760423,-4.820872635208086,0.0052966226374359555,0.0003677446951135757,-0.9831110163055031
14632,1.0,300.75036,53933.320999999996,0.0,-0.14632024115204179,0.0,0.0,0.0,0.0,-3.5753506551596366,-7.994740872769492,-4.8242914423704955,-0.012577810903583288,-0.033620638395848675,-0.9656905822387402
14633,1.0,300.83261,53848.663,0.0,-0.14633023713946092,0.0,0.0,0.0,0.0,-3.5479251160279466,-8.003986475956962,-4.816737257574955,-0.0011283485225843288,-0.007563850289568904,-0.9897662962748282
14634,1.0,300.57361000000003,53824.293,0.0,-0.14634023312688038,0.0,0.0,0.0,0.0,-3.575859509359857,-7.995868620130793,-4.7895128485881155,0.001038945109285899,-0.004560327125694246,-0.990957067792348
14635,1.0,300.07916,54021.38,0.0,-0.14635022911429973,0.0,0.0,0.0,0.0,-3.6039168099288963,-8.001843046695424,-4.815390546867046,0.0028755444073441374,-0.001894117351909828,-0.976074278071031
14636,1.0,300.59247999999997,54067.052,0.0,-0.1463602251017191,0.0,0.0,0.0,0.0,-3.6182529816187667,-8.011237293672561,-4.805543377095205,-0.01164233078850859,0.009349608243984491,-0.984722833769577
14637,1.0,300.21995,53909.894,0.0,-0.14637022108913833,0.0,0.0,0.0,0.0,-3.585651760976276,-8.008409109993442,-4.793200673652075,0.003123768491666947,0.026382203609720774,-0.9937729303502519
14638,1.0,300.47116,53877.117999999995,0.0,-0.14638021707655746,0.0,0.0,0.0,0.0,-3.571589977413487,-7.997794403270852,-4.807914078354175,0.005165797762699546,0.02592836888993077,-0.991085102074984
14639,1.0,299.91868,53956.90900000001,0.0,-0.14639021306397693,0.0,0.0,0.0,0.0,-3.575955869444367,-8.014515360396082,-4.811081903466816,-0.0002575633928795277,0.008050079324330972,-1.000162941443397
14640,1.0,300.07872000000003,53964.579000000005,0.0,-0.14640024204145363,0.0,0.0,0.0,0.0,-3.598906490834417,-7.986973196177883,-4.818004732125045,0.007429449148604544,0.006272362826684014,-0.9805542519306701
14641,1.0,299.6903,53844.757000000005,0.0,-0.14641023802887287,0.0,0.0,0.0,0.0,-3.5808817848055168,-7.9971799684102125,-4.7894000738519855,-0.0028684401055929973,-0.0014170231720992985,-1.0016698773896202
14642,1.0,300.09598,53786.126,0.0,-0.14642023401629223,0.0,0.0,0.0,0.0,-3.5744882779995266,-7.995369797106563,-4.779781290652686,0.003908970039360306,0.0032557217217147163,-0.9854075780546562
14643,1.0,299.66749,53912.42,0.0,-0.1464302300037117,0.0,0.0,0.0,0.0,-3.5862872714389966,-8.001455174557142,-4.800287243526466,-0.012173775399708089,-0.018072087630076183,-0.9878717516353511
14644,1.0,299.93057999999996,54130.202000000005,0.0,-0.14644022599113105,0.0,0.0,0.0,0.0,-3.6038421333965265,-8.029955164094872,-4.820432479364645,0.012170814682915887,-0.0061618661807538435,-0.9692359240736381
14645,1.0,299.62639,54085.054000000004,0.0,-0.1464502219785503,0.0,0.0,0.0,0.0,-3.592033210106077,-8.017251236991092,-4.831221465104436,-0.0005343457083558155,0.008697038905230912,-0.9928358563927699
14646,1.0,300.5178,54014.072,0.0,-0.14646021796596942,0.0,0.0,0.0,0.0,-3.585363896622867,-8.026041586908633,-4.807523673090646,0.013237535003942986,0.007556116860830673,-0.980409519286386
14647,1.0,300.13448,54070.136,0.0,-0.14647021395338877,0.0,0.0,0.0,0.0,-3.5925494610320268,-8.025425226872803,-4.8179964234742245,-0.0032851549145945466,-0.015265052507043384,-0.9830533927723161
14648,1.0,300.05816,54260.317,0.0,-0.1464802429308656,0.0,0.0,0.0,0.0,-3.6303357864112464,-8.026276356956801,-4.837169344516445,0.008574678519179882,0.007019821517427443,-0.9791369278232911
14649,1.0,299.96201,54166.03400000001,0.0,-0.14649023891828483,0.0,0.0,0.0,0.0,-3.6179453588884067,-8.012534051150542,-4.834642298767045,0.012935650308899288,0.0013222112324170886,-0.99812319806459
14650,1.0,300.14162999999996,53794.925,0.0,-0.14650023490570419,0.0,0.0,0.0,0.0,-3.5622855043952066,-7.997140958281363,-4.792887376721155,0.001801530408122208,0.018081526054757685,-0.9938131361142201
14651,1.0,300.03027000000003,53798.385,0.0,-0.14651023089312354,0.0,0.0,0.0,0.0,-3.5614674062644665,-8.002755579735481,-4.789142708326586,-0.012594422125722688,0.005951708180162865,-0.982504525325647
14652,1.0,299.93466,54083.710999999996,0.0,-0.146520226880543,0.0,0.0,0.0,0.0,-3.6141654293903565,-8.019597620247662,-4.806334624098295,-0.0065279803943365045,0.0026102538476119974,-0.992949350536471
14653,1.0,299.42829,54141.01,0.0,-0.14653022286796213,0.0,0.0,0.0,0.0,-3.6321078595111365,-8.016059452223471,-4.809347928570686,-0.0004466254858585036,0.0024674745468707777,-0.9647051255889831
14654,1.0,299.2733,54085.365,0.0,-0.14654021885538138,0.0,0.0,0.0,0.0,-3.616007822047186,-8.022948843628402,-4.801643884085355,-0.015311410725618585,-0.01935671549110908,-0.977234489965535
14655,1.0,299.59164,54084.815,0.0,-0.14655021484280073,0.0,0.0,0.0,0.0,-3.5970050256967565,-8.025223894077934,-4.818204342394745,-0.012993250537333986,-0.025093234985259477,-0.9722887554324291
14656,1.0,300.03277,54154.803,0.0,-0.14656021083022008,0.0,0.0,0.0,0.0,-3.5866962191793568,-8.031501789047514,-4.843509757017196,-0.022776121484328178,-0.0030577988174062473,-0.9863950308071101
14657,1.0,300.0763,54283.764,0.0,-0.1465702398076968,0.0,0.0,0.0,0.0,-3.607366723869376,-8.042373152020433,-4.851168914523095,0.00953772167142484,0.008337068736279622,-0.9802340952965731
14658,1.0,299.56111,54122.264,0.0,-0.14658023579511636,0.0,0.0,0.0,0.0,-3.6072824214610564,-8.011169912540913,-4.833364387740925,0.001217631561770879,-0.0012344115913769389,-0.986876942687171
14659,1.0,300.56816000000003,53843.427,0.0,-0.1465902317825355,0.0,0.0,0.0,0.0,-3.5798567810043567,-8.003783116661893,-4.783417338636536,0.011599133910245389,-0.008827572673213591,-0.965843400618822
14660,1.0,300.33018,53908.115999999995,0.0,-0.14660022776995485,0.0,0.0,0.0,0.0,-3.5975707232275864,-8.016469007913892,-4.7726813458769755,0.0031646546530770966,-0.01010787355101945,-1.0043309153322442
14661,1.0,300.35025,54246.41,0.0,-0.1466102237573741,0.0,0.0,0.0,0.0,-3.6234155922032767,-8.025806006260384,-4.840332407353616,0.014073631496209285,0.01092449172866339,-0.981421644678775
14662,1.0,300.23086,54255.820999999996,0.0,-0.14662021974479333,0.0,0.0,0.0,0.0,-3.6178834493072967,-8.051111927507883,-4.823419439334436,0.004004250708538776,0.012848349693533387,-0.9951079886820121
14663,1.0,299.79186,54041.999,0.0,-0.1466302157322127,0.0,0.0,0.0,0.0,-3.581793709895517,-8.018892499503073,-4.826731956561355,-0.0018498425781902483,0.0100410461605491,-0.955160806139532
14664,1.0,299.83904,54157.297,0.0,-0.14664021171963204,0.0,0.0,0.0,0.0,-3.6147333560714068,-8.038390167202342,-4.809342355695136,-0.01046916955772659,0.010626096666964091,-0.988987968210513
14665,1.0,300.52205,54364.472,0.0,-0.14665024069710886,0.0,0.0,0.0,0.0,-3.647030500358886,-8.043685310899933,-4.834726297200336,-0.015657022228727786,-0.008300725886992861,-0.9585051495520931
14666,1.0,299.85194,54238.789000000004,0.0,-0.1466602366845282,0.0,0.0,0.0,0.0,-3.635136362735026,-8.034105132529444,-4.817996018174186,-0.004201394727495375,-0.012061409003368388,-0.9967477414513431
14667,1.0,299.45671,54015.109000000004,0.0,-0.14667023267194745,0.0,0.0,0.0,0.0,-3.573358808113057,-8.030908227138932,-4.814977444801275,-0.004910546991583256,-0.013549035442435686,-0.9820475393980461
14668,1.0,299.75228,53915.419,0.0,-0.1466802286593668,0.0,0.0,0.0,0.0,-3.5581335094604367,-8.029699318444623,-4.801108280082495,-0.005204879629656625,0.013170744597101287,-1.027266388633299
14669,1.0,300.25236,54054.823,0.0,-0.14669022464678605,0.0,0.0,0.0,0.0,-3.584963358858337,-8.033753433419733,-4.812599650791605,-0.022727187583998776,0.015145996633543487,-0.9828690015191179
14670,1.0,300.30036,54219.429000000004,0.0,-0.14670022063420518,0.0,0.0,0.0,0.0,-3.6290679065611164,-8.0391821234805,-4.813102425491225,-0.01301981592845579,-0.01162864583265799,-1.003628418905413
14671,1.0,299.99339,54283.019,0.0,-0.14671021662162476,0.0,0.0,0.0,0.0,-3.658036422945086,-8.025771758407002,-4.816874147663466,0.007895294529779903,0.0037465706703077367,-0.956547712478909
14672,1.0,299.82712999999995,54141.54,0.0,-0.146720212609044,0.0,0.0,0.0,0.0,-3.6025706058460365,-8.049698139643352,-4.805407398931786,0.02280180129486258,-0.012716650485285688,-0.9954327353390621
14673,1.0,299.9256,54295.937000000005,0.0,-0.14673024158652082,0.0,0.0,0.0,0.0,-3.6102563105045564,-8.046951826572313,-4.847400840051216,0.02323240218985958,-0.015923600224036983,-0.9746081051763311
14674,1.0,299.27702999999997,54419.977,0.0,-0.14674023757394017,0.0,0.0,0.0,0.0,-3.620923402257317,-8.050577640730152,-4.870813098186825,0.011275511960806388,-0.013000089975508989,-0.9866384033486292
14675,1.0,299.26682,54259.637,0.0,-0.1467502335613594,0.0,0.0,0.0,0.0,-3.6144730521207165,-8.038635475051553,-4.840466156366816,0.02746264840335237,-0.004010227769553666,-0.9600724448067731
14676,1.0,299.34182999999996,54074.509000000005,0.0,-0.14676022954877876,0.0,0.0,0.0,0.0,-3.6123250632337265,-8.026977424700993,-4.7979980075755355,0.016041969113969084,0.005561468785674234,-0.997487474819349
14677,1.0,299.85823,54044.148,0.0,-0.146770225536198,0.0,0.0,0.0,0.0,-3.610844806162636,-8.017433419359072,-4.799793284102716,-0.010485919595129688,0.014201305061809687,-0.981215863715966
14678,1.0,300.44748,54195.14,0.0,-0.14678022152361736,0.0,0.0,0.0,0.0,-3.6123534342365264,-8.04919526361872,-4.812420609498935,-0.0060316552342530244,-0.011456256526894488,-0.990002687523158
14679,1.0,300.2167,54312.825999999994,0.0,-0.1467902175110367,0.0,0.0,0.0,0.0,-3.6039865215357767,-8.045801990358832,-4.859954502165166,-0.02069323188976298,0.0055811157051132345,-0.980068043870185
14680,1.0,299.80809,54277.905,0.0,-0.14680021349845596,0.0,0.0,0.0,0.0,-3.6065088050097063,-8.05108122602985,-4.841537870997586,0.004246288597026056,0.014053257063198488,-0.991244820688247
14681,1.0,299.90947,54214.288,0.0,-0.14681024247593277,0.0,0.0,0.0,0.0,-3.6145952500827763,-8.035303199447682,-4.829891270373155,-0.01147369557436559,-0.00898860324270607,-0.9635049004480299
14682,1.0,300.43225,54238.3,0.0,-0.14682023846335213,0.0,0.0,0.0,0.0,-3.6406108517003166,-8.040827135017851,-4.805650984255825,-0.0037157466903406464,0.003667899095443457,-0.967103529105687
14683,1.0,299.80602999999996,54345.928,0.0,-0.14683023445077137,0.0,0.0,0.0,0.0,-3.6341801586156564,-8.053653158758683,-4.831971675478475,0.015366772684582383,0.0005529545733323674,-0.982703487115283
14684,1.0,299.74469,54356.525,0.0,-0.14684023043819072,0.0,0.0,0.0,0.0,-3.6030341677667863,-8.062676860174252,-4.857315289629695,0.037953893641007666,0.02203003909119558,-0.998913816852618
14685,1.0,300.00936,54061.593,0.0,-0.14685022642560985,0.0,0.0,0.0,0.0,-3.550295411986876,-8.043049293812162,-4.840029749548745,0.0025450341810753178,0.014419544947848287,-1.0120490946564689
14686,1.0,299.70651000000004,54067.263,0.0,-0.14686022241302932,0.0,0.0,0.0,0.0,-3.5576331665610565,-8.058140742126572,-4.819324085080255,-0.0024445896854122175,-0.014008058002737687,-0.9954188234151891
14687,1.0,299.98904,54278.622,0.0,-0.14687021840044867,0.0,0.0,0.0,0.0,-3.636316191151467,-8.039074516319882,-4.823955043337295,-0.02579404637717418,-0.004177209866158517,-0.9801647889897331
14688,1.0,300.41724,54341.883,0.0,-0.1468802143878679,0.0,0.0,0.0,0.0,-3.6560423467482863,-8.059554124691063,-4.802979043742125,-0.017723044248878283,0.0009771210566168402,-0.986211916249038
14689,1.0,299.86405,54256.081,0.0,-0.14689024336534462,0.0,0.0,0.0,0.0,-3.6227991308424365,-8.050208513718722,-4.819486103771245,-0.005348400224171005,-0.01185631907712759,-0.9649059416263022
14690,1.0,300.03261000000003,54353.082,0.0,-0.14690023935276408,0.0,0.0,0.0,0.0,-3.6123596150621364,-8.070917521912543,-4.838702695892775,-0.016570682002898983,-0.00011822641683553888,-0.978195952852924
14691,1.0,299.57544,54492.886,0.0,-0.14691023534018322,0.0,0.0,0.0,0.0,-3.6094701297519665,-8.075137505929021,-4.879869122280586,0.0028322046608168375,0.021937222342285276,-0.964675214446031
14692,1.0,299.78586,54551.177,0.0,-0.14692023132760268,0.0,0.0,0.0,0.0,-3.6407089343099965,-8.070836461904543,-4.870650268895755,-0.0026304346485286874,0.013066064716020188,-0.989163057827793
14693,1.0,300.26142999999996,54338.282999999996,0.0,-0.1469302273150218,0.0,0.0,0.0,0.0,-3.6421473441519567,-8.048172488967783,-4.827161371953736,0.0017526941851024485,-0.003412424396055067,-0.966878354535964
14694,1.0,300.38743999999997,54070.267,0.0,-0.14694022330244128,0.0,0.0,0.0,0.0,-3.6166210410077064,-8.040920050052021,-4.778470043698276,0.005774726318321114,-0.013740704871101987,-1.007824490219533
14695,1.0,300.19972,54198.251,0.0,-0.14695021928986063,0.0,0.0,0.0,0.0,-3.6007027806116962,-8.055100181226491,-4.819111910509315,0.016421094877385883,0.014920908190078986,-1.008825074693283
14696,1.0,300.31642999999997,54380.747,0.0,-0.14696021527727976,0.0,0.0,0.0,0.0,-3.612344314985626,-8.065213025174552,-4.8528319619122255,0.003945060690697176,0.013212704296992386,-1.017655914084819
14697,1.0,299.79994,54408.742999999995,0.0,-0.14697024425475658,0.0,0.0,0.0,0.0,-3.607148976422886,-8.072176687811812,-4.859573722777586,0.003473137227471957,0.0024331099670792575,-0.971615856041019
14698,1.0,299.90732,54309.251,0.0,-0.14698024024217593,0.0,0.0,0.0,0.0,-3.6106116573146263,-8.076244582988283,-4.821799961699605,0.0018603418757264486,-0.014111929310238986,-0.9896894513872441
14699,1.0,299.47839,54466.861,0.0,-0.14699023622959517,0.0,0.0,0.0,0.0,-3.6555876001034067,-8.085676117569102,-4.815301988808305,0.01050431312419499,-0.02144878918458068,-0.9631542855159271
14700,1.0,299.98976,54679.724,0.0,-0.14700023221701453,0.0,0.0,0.0,0.0,-3.684427332399667,-8.091759468519482,-4.8450840436975655,-0.01928594706437478,-0.03282925764374547,-0.989142995475813
14701,1.0,299.63957,54552.032999999996,0.0,-0.147010228204434,0.0,0.0,0.0,0.0,-3.6277525052812964,-8.090129655733632,-4.8645736053960364,-0.01036715553765859,-0.030866864764322367,-0.9836393958351501
14702,1.0,299.21972999999997,54137.627,0.0,-0.14702022419185312,0.0,0.0,0.0,0.0,-3.5677629317857864,-8.058368318099033,-4.830355440243966,-0.015106754470420586,-0.0015943761874526784,-1.0015257830928992
14703,1.0,300.098,54224.569,0.0,-0.14703022017927259,0.0,0.0,0.0,0.0,-3.574438223444587,-8.046416729194503,-4.8620600358729655,-0.006595550497130154,0.024033020743124477,-0.9800411927425351
14704,1.0,300.48138,54409.081,0.0,-0.14704021616669172,0.0,0.0,0.0,0.0,-3.6377498387179568,-8.064884732142152,-4.836367357062295,-0.005103428976644225,0.015628574218920183,-0.9990693102129641
14705,1.0,300.32979,54420.280999999995,0.0,-0.14705021215411107,0.0,0.0,0.0,0.0,-3.659281808642997,-8.053624585105862,-4.829500155834555,-0.002856020800442307,0.0005658113694787345,-0.961398079912603
14706,1.0,300.4292,54475.264,0.0,-0.1470602411315879,0.0,0.0,0.0,0.0,-3.6617018551818368,-8.069810850153322,-4.827607404647755,0.01275791408235809,0.004608997783647665,-1.000888499442504
14707,1.0,300.00971,54500.733,0.0,-0.14707023711900713,0.0,0.0,0.0,0.0,-3.6273319051647865,-8.072852019003463,-4.866678227178745,0.01933120084034098,-0.003414991363858406,-0.9870290619246841
14708,1.0,299.52151000000003,54630.324,0.0,-0.14708023310642648,0.0,0.0,0.0,0.0,-3.6364777032174067,-8.086311932006852,-4.883464842910455,0.004379801421627746,0.006624871320573894,-0.9793664695009451
14709,1.0,299.92837000000003,54634.732,0.0,-0.14709022909384584,0.0,0.0,0.0,0.0,-3.6366526915096764,-8.069523289774942,-4.9014184187823355,-0.025514665966851476,-0.004296551982811665,-0.9581061721927171
14710,1.0,299.79695,54408.492,0.0,-0.14710022508126508,0.0,0.0,0.0,0.0,-3.6457849120109564,-8.059893563474562,-4.8331447151192455,-0.0014823611862476585,0.012367139995791688,-0.9576026983505281
14711,1.0,299.98184,54298.695,0.0,-0.14711022106868443,0.0,0.0,0.0,0.0,-3.622572973420117,-8.070662993487423,-4.812211576003305,-0.01034308882128339,-0.0024335041213681577,-0.987494528755622
14712,1.0,299.54052,54418.95,0.0,-0.14712021705610367,0.0,0.0,0.0,0.0,-3.6277538225064263,-8.083790256482983,-4.830457879829075,0.013346812000727787,-0.014447961546902787,-0.997004205184154
14713,1.0,299.83724,54549.748,0.0,-0.14713021304352303,0.0,0.0,0.0,0.0,-3.609677643372447,-8.096627527299923,-4.875456316770076,-0.0024352915958695677,-0.00961308113436224,-1.008547525225891
14714,1.0,300.30701,54383.365999999995,0.0,-0.14714024202099985,0.0,0.0,0.0,0.0,-3.575162494616067,-8.088633287985951,-4.867389731398966,0.0018541072465361383,0.008392068357007662,-0.990609614200557
14715,1.0,299.74067,54291.225,0.0,-0.1471502380084191,0.0,0.0,0.0,0.0,-3.574038698930157,-8.078111293647513,-4.851026755534066,-0.018274090183262284,0.017485145284399484,-0.9981932440440031
14716,1.0,300.29805,54455.346,0.0,-0.14716023399583866,0.0,0.0,0.0,0.0,-3.6532657374992565,-8.063629517918272,-4.836170279917845,-0.024190905373706478,0.006510409421702384,-0.967229942188163
14717,1.0,299.73041,54573.445999999996,0.0,-0.1471702299832578,0.0,0.0,0.0,0.0,-3.669068487383867,-8.089967434392621,-4.829928963276875,-0.03578218963542717,-0.0035635049508905563,-0.9976242230528451
14718,1.0,300.30862,54489.399000000005,0.0,-0.14718022597067704,0.0,0.0,0.0,0.0,-3.652342261358117,-8.086765462751613,-4.824308768947205,-0.012856558032593488,-0.011038488444413989,-0.99785336956296
14719,1.0,300.6539,54449.538,0.0,-0.1471902219580964,0.0,0.0,0.0,0.0,-3.6123033796815864,-8.089773700973502,-4.849222866381036,0.007036749988173154,-0.011197818982888689,-1.021257612890279
14720,1.0,300.31266,54418.723,0.0,-0.14720021794551563,0.0,0.0,0.0,0.0,-3.5878137327146464,-8.095476373861311,-4.858642951235725,0.020055293679803382,-0.006562927592935525,-1.001518011464632
14721,1.0,300.06834,54527.69,0.0,-0.14721021393293499,0.0,0.0,0.0,0.0,-3.6143145798050766,-8.091852687528682,-4.868888733596905,0.009037161328573382,-0.0009192873449615973,-0.9810413009887381
14722,1.0,301.12966,54756.129,0.0,-0.1472202429104118,0.0,0.0,0.0,0.0,-3.6750492974241267,-8.104996466500873,-4.8644500902088454,0.017107820066410383,0.009287449403349891,-0.992731481499969
14723,1.0,300.20226,54474.960999999996,0.0,-0.14723023889783116,0.0,0.0,0.0,0.0,-3.6330908134331468,-8.086029437878972,-4.839907855561715,0.002566662308434848,0.008813428309767652,-0.9942511337349471
14724,1.0,300.53249,54490.389,0.0,-0.1472402348852505,0.0,0.0,0.0,0.0,-3.626942817126386,-8.101451408376002,-4.835323304159255,0.011871939340669187,-0.0004572312658477125,-0.994252116587544
14725,1.0,299.31639,54667.47,0.0,-0.14725023087266975,0.0,0.0,0.0,0.0,-3.6253114844653864,-8.095587527397283,-4.896646720086405,0.006585709609508933,-0.006580322260052243,-0.978360220959136
14726,1.0,299.60162,54782.441,0.0,-0.147260226860089,0.0,0.0,0.0,0.0,-3.633957446243676,-8.117794524538942,-4.900742175665595,0.004700524158555616,0.019650563086359582,-0.9663672103905181
14727,1.0,300.02224,54646.934,0.0,-0.14727022284750835,0.0,0.0,0.0,0.0,-3.6326044533851465,-8.099437573802252,-4.879261577520625,-0.006273051330126964,0.01112899802284659,-0.9744848838316701
14728,1.0,300.16369,54461.109000000004,0.0,-0.1472802188349276,0.0,0.0,0.0,0.0,-3.656109119929876,-8.076687981232043,-4.822020242271345,-0.013064065573572887,0.0012542399839088488,-0.977861904559956
14729,1.0,299.99689,54433.482,0.0,-0.14729021482234694,0.0,0.0,0.0,0.0,-3.625310673865307,-8.090542960449422,-4.830565689639716,-0.004628926893239516,-0.0053091086144432245,-1.005620965094562
14730,1.0,300.06278,54606.420999999995,0.0,-0.14730024379982376,0.0,0.0,0.0,0.0,-3.6542268052191065,-8.090451767940422,-4.8543098885080855,0.012451905459407388,-0.004726864101530165,-0.997743989214665
14731,1.0,299.40369,54705.66,0.0,-0.1473102397872431,0.0,0.0,0.0,0.0,-3.6227605260136264,-8.108494104521062,-4.897900110460105,0.032931457088581764,0.004841579008951645,-1.017228018567589
14732,1.0,299.94562,54538.52,0.0,-0.14732023577466247,0.0,0.0,0.0,0.0,-3.624672022327276,-8.079809196840083,-4.873867033988225,0.009220750492992221,-0.018361881211676586,-0.9863382482715061
14733,1.0,300.06397000000004,54466.386,0.0,-0.1473302317620817,0.0,0.0,0.0,0.0,-3.6153109086284068,-8.081775104684102,-4.859335203704045,0.01780341929981068,-0.006728810009206844,-0.9867410253187571
14734,1.0,299.34087,54625.852,0.0,-0.14734022774950084,0.0,0.0,0.0,0.0,-3.6663297736885765,-8.093596997575833,-4.844968127886125,-0.00860781899152559,0.015488782182123786,-0.9893685145505701
14735,1.0,300.22766,54875.538,0.0,-0.1473502237369203,0.0,0.0,0.0,0.0,-3.6650764846398864,-8.126209262644412,-4.889507461206815,-0.014754905399695787,0.01862728485011988,-0.9826351433960381
14736,1.0,300.44017,54658.055,0.0,-0.14736021972433966,0.0,0.0,0.0,0.0,-3.6368717561812964,-8.10962985655815,-4.868182396952196,-0.032622904194629966,0.005630696059006434,-0.990645898686638
14737,1.0,300.51665,54419.995,0.0,-0.147370215711759,0.0,0.0,0.0,0.0,-3.571357335190527,-8.102308719285613,-4.868653659573705,-0.02920002275356787,0.0032294342650953465,-0.9740565222193941
14738,1.0,300.04692,54586.97,0.0,-0.1473802446892356,0.0,0.0,0.0,0.0,-3.623982302984207,-8.102514915680963,-4.866578624693916,-0.0005689063925716894,0.006858328500589323,-0.992661243003037
14739,1.0,299.96586,54796.529,0.0,-0.14739024067665507,0.0,0.0,0.0,0.0,-3.6708292120826362,-8.113926543607201,-4.872020790981015,-0.006090117130572764,0.005897092682547734,-0.964842471640038
14740,1.0,299.90736,54760.374,0.0,-0.14740023666407442,0.0,0.0,0.0,0.0,-3.6816719000777267,-8.12192432929652,-4.8421899987619454,0.008069015448824822,-0.005391167383066796,-0.9876575100342071
14741,1.0,299.81187,54588.297,0.0,-0.14741023265149367,0.0,0.0,0.0,0.0,-3.6331245546614768,-8.108165912813673,-4.852188852073755,0.003783181726895966,-0.01127002723801509,-0.986462178891237
14742,1.0,299.39656,54594.582,0.0,-0.1474202286389128,0.0,0.0,0.0,0.0,-3.6181811421866765,-8.109224049893102,-4.867984610532675,0.02402588948892068,0.0019372116892629083,-1.002890023027539
14743,1.0,299.75221,54793.695,0.0,-0.14743022462633226,0.0,0.0,0.0,0.0,-3.6208883438038564,-8.117676176927262,-4.917350560704715,0.01002103822009947,-0.014307913157831087,-0.9973565325089261
14744,1.0,299.4397,54835.492999999995,0.0,-0.14744022061375162,0.0,0.0,0.0,0.0,-3.651685168668267,-8.123046807757301,-4.893888653314205,-0.008313067374535871,-0.017073043296478182,-0.9920757161677501
14745,1.0,299.02812,54509.916,0.0,-0.14745021660117097,0.0,0.0,0.0,0.0,-3.6420227143896566,-8.088405408038463,-4.839225127644336,-0.024893410919788375,-0.003423852641282947,-0.995811315973925
14746,1.0,298.56402,54296.121,0.0,-0.1474602125885902,0.0,0.0,0.0,0.0,-3.6435252629629464,-8.075754777889943,-4.785385070330736,-0.004720150610342595,0.02424442220423818,-0.994840642643127
14747,1.0,299.17524,54633.64,0.0,-0.14747024156606692,0.0,0.0,0.0,0.0,-3.6363357468783963,-8.120074337263942,-4.850852273866845,-0.00915959132490628,0.022542404203012078,-1.013981565247189
14748,1.0,299.68559,54829.414000000004,0.0,-0.14748023755348638,0.0,0.0,0.0,0.0,-3.6543216454284666,-8.119222193929842,-4.893228824849086,-0.005135231452232885,0.0015145269119971687,-0.9871675326833501
14749,1.0,299.61466,54681.435,0.0,-0.1474902335409055,0.0,0.0,0.0,0.0,-3.5860584795664168,-8.119652217272282,-4.916080046404325,-0.005717576682205885,-0.001012617933262609,-1.002281768992509
14750,1.0,299.98351,54595.72,0.0,-0.14750022952832476,0.0,0.0,0.0,0.0,-3.6255947891933467,-8.117368148896864,-4.852772889431395,0.00945593556840318,-0.0013039421304640688,-0.987602135916242
14751,1.0,300.13761,54759.394,0.0,-0.1475102255157441,0.0,0.0,0.0,0.0,-3.669567614383126,-8.110807557149382,-4.865113262399295,0.0019143186204785383,-0.018300809588399285,-0.9793782535996081
14752,1.0,300.31991,54901.91,0.0,-0.14752022150316357,0.0,0.0,0.0,0.0,-3.6948656322798463,-8.142496143426802,-4.851448064925646,-0.004511892555014126,-0.024172453076135376,-0.9886610835957521
14753,1.0,299.76952,54730.22900000001,0.0,-0.14753021749058293,0.0,0.0,0.0,0.0,-3.6391716312582765,-8.128261803371982,-4.8691895675515955,0.005087155268113135,-0.01152148754183229,-1.0022603995479
14754,1.0,299.68061,54588.24,0.0,-0.14754021347800206,0.0,0.0,0.0,0.0,-3.6133263569825465,-8.095797371492992,-4.884338061846636,0.015511150691331384,0.026916663653217876,-0.994525076031983
14755,1.0,299.23167,54598.401,0.0,-0.14755024245547887,0.0,0.0,0.0,0.0,-3.6049150639274163,-8.111268484619872,-4.880367033379725,0.008716089628311071,0.030316850318540173,-0.98271409584383
14756,1.0,299.73145,54735.121,0.0,-0.14756023844289834,0.0,0.0,0.0,0.0,-3.661771364138697,-8.112839123599882,-4.863499357640015,0.016679888072176786,-0.004005348970322166,-0.99360258274344
14757,1.0,299.44333,54811.912000000004,0.0,-0.14757023443031747,0.0,0.0,0.0,0.0,-3.6983441198731466,-8.111893558606562,-4.851214916077636,0.0038423092272063964,-0.0002081463546374458,-0.991757140203809
14758,1.0,299.51866,54760.325,0.0,-0.1475802304177367,0.0,0.0,0.0,0.0,-3.6652466093316765,-8.1229191382447,-4.857605687108355,0.009082538315751742,0.0032908378291054067,-1.000732306939589
14759,1.0,299.75709,54638.504,0.0,-0.1475902264051563,0.0,0.0,0.0,0.0,-3.624290938964667,-8.110334875977733,-4.874115178937716,0.0014353803254860088,-0.019442388826814382,-0.9875708771506571
14760,1.0,300.16817000000003,54728.802,0.0,-0.14760022239257542,0.0,0.0,0.0,0.0,-3.6049614707819964,-8.130175022210802,-4.901052635496236,-0.022467248403344776,-0.017515856894930484,-0.9955542848210581
14761,1.0,300.2691,54917.401,0.0,-0.14761021837999488,0.0,0.0,0.0,0.0,-3.6294393640477765,-8.137370313820922,-4.926708938628315,0.002165708098113748,-0.0024183777159252975,-0.970096264601047
14762,1.0,300.06354,54874.420999999995,0.0,-0.14762021436741402,0.0,0.0,0.0,0.0,-3.679866491049547,-8.138325200715164,-4.862261976617895,-0.009474830250967941,0.02237972791270718,-0.9827006601475041
14763,1.0,299.97243,54761.584,0.0,-0.14763024334489083,0.0,0.0,0.0,0.0,-3.6736081518068966,-8.139336019014923,-4.8332099684256855,-0.016113876433815785,-0.01045832676840649,-0.9942188414542601
14764,1.0,300.04868999999997,54823.085,0.0,-0.14764023933231019,0.0,0.0,0.0,0.0,-3.6685213323298664,-8.137850898343352,-4.858476778219325,-0.025159809569829876,-0.03899705995021017,-0.9890714093562482
14765,1.0,299.63852,54846.42,0.0,-0.14765023531972943,0.0,0.0,0.0,0.0,-3.6323226685323364,-8.131809698597133,-4.907809696438105,0.0070516068690894135,-0.00045019738497852264,-0.9962248537372381
14766,1.0,299.57408,54811.527,0.0,-0.14766023130714878,0.0,0.0,0.0,0.0,-3.6276996136260764,-8.11830196018902,-4.915334091680705,0.007499980272165424,0.03205377681221147,-0.985864574114758
14767,1.0,299.28962,54790.703,0.0,-0.14767022729456825,0.0,0.0,0.0,0.0,-3.633676168015917,-8.110838258627412,-4.9104912628277555,0.005140374507090465,0.013058787553801987,-0.978193014427634
14768,1.0,299.64392000000004,54706.293,0.0,-0.14768022328198738,0.0,0.0,0.0,0.0,-3.696187417035296,-8.107843496631853,-4.825316243521636,-0.02037259497511858,-0.007889236510082023,-0.9987423749356981
14769,1.0,300.15922,54759.849,0.0,-0.14769021926940673,0.0,0.0,0.0,0.0,-3.679451970433637,-8.133408201954893,-4.832766468856915,0.013703210564401587,0.006522396474360414,-1.0041729293766521
14770,1.0,300.68515,54948.09099999999,0.0,-0.14770021525682597,0.0,0.0,0.0,0.0,-3.676167418909476,-8.1491339448319,-4.877546246426336,0.01424906359202309,0.006416504036884645,-0.9939462974423621
14771,1.0,300.46923,54990.977999999996,0.0,-0.1477102442343028,0.0,0.0,0.0,0.0,-3.6623517537959764,-8.147933142138392,-4.9055993926699655,0.0013157242026268687,-0.01311216556906999,-0.992403735622623
14772,1.0,300.52341,54797.683,0.0,-0.14772024022172214,0.0,0.0,0.0,0.0,-3.6038814475004064,-8.147743259069653,-4.905502525960405,-0.023608457805473375,-0.03432445103455957,-0.985127171221982
14773,1.0,299.93453999999997,54822.709,0.0,-0.14773023620914139,0.0,0.0,0.0,0.0,-3.635432029114207,-8.153506828288473,-4.875795654228566,-0.011012282757077689,0.004256594667768186,-0.9734236867369381
14774,1.0,299.6608,54998.71,0.0,-0.14774023219656074,0.0,0.0,0.0,0.0,-3.6956113843534464,-8.152989665437433,-4.869633371095396,-0.0032942575481929065,0.01950738679422918,-0.9887965956641261
14775,1.0,299.40629,54919.54,0.0,-0.1477502281839801,0.0,0.0,0.0,0.0,-3.686522530956446,-8.152368239151102,-4.855277947653625,-0.001027090792390969,-0.0014796026128504087,-0.988562899661062
14776,1.0,299.84017,54713.7,0.0,-0.14776022417139933,0.0,0.0,0.0,0.0,-3.6238411572452764,-8.132792551194132,-4.8749649917965865,-0.000930264714159979,-0.014359285951151185,-1.0163361558295692
14777,1.0,300.43087,54735.293,0.0,-0.1477702201588187,0.0,0.0,0.0,0.0,-3.623117088723817,-8.113658133655711,-4.901387210679255,0.016165655540425983,0.005881126698072015,-0.9704359262995691
14778,1.0,300.59866,54888.692,0.0,-0.14778021614623793,0.0,0.0,0.0,0.0,-3.6204089751815465,-8.143312823007403,-4.9210698978467855,0.03086753452263847,0.034927624633588165,-1.0062482884964739
14779,1.0,300.3649,55042.038,0.0,-0.14779024512371475,0.0,0.0,0.0,0.0,-3.6688438498366964,-8.154112954498292,-4.908448246651125,-0.0005954134407527314,-0.0024743628237005977,-0.9860220737103021
14780,1.0,300.24936,55058.564000000006,0.0,-0.1478002411111341,0.0,0.0,0.0,0.0,-3.7134398238379758,-8.151956555635472,-4.871032264183455,-0.0044289812377564155,-0.0091973675177845,-1.004169808566344
14781,1.0,299.46815,54913.22,0.0,-0.14781023709855334,0.0,0.0,0.0,0.0,-3.6619741154837064,-8.158271028933662,-4.872002653804225,-0.009689388492768191,0.0013536502551948788,-0.9971497889585221
14782,1.0,299.27155,54931.297,0.0,-0.1478202330859727,0.0,0.0,0.0,0.0,-3.6642667964849767,-8.146341123581271,-4.887134632122636,0.00941070317201409,0.014671466280460985,-0.9797331951096381
14783,1.0,299.48807999999997,55161.362,0.0,-0.14783022907339205,0.0,0.0,0.0,0.0,-3.667497443103817,-8.166752641545733,-4.933426584141295,-0.023611795451302774,-0.014139494779209488,-0.9818190920305001
14784,1.0,299.47963,54990.318,0.0,-0.1478402250608113,0.0,0.0,0.0,0.0,-3.6458237194897865,-8.140030601958472,-4.929829140986255,-0.013566396469649088,-0.010405729968965589,-0.9678921720560201
14785,1.0,300.03686,54731.780999999995,0.0,-0.14785022104823065,0.0,0.0,0.0,0.0,-3.6350203455985763,-8.1272031596675,-4.874871367487345,-0.007558297982995933,0.023736780864387876,-0.9858610480044101
14786,1.0,300.18885,54787.762,0.0,-0.1478602170356499,0.0,0.0,0.0,0.0,-3.674911799385557,-8.141070905836143,-4.838128892361145,0.002931269717793797,0.03352223863888736,-0.985989406527078
14787,1.0,299.91745,55033.193,0.0,-0.14787021302306924,0.0,0.0,0.0,0.0,-3.6795490397932165,-8.160896258617752,-4.888271296084816,0.009026710971017012,-0.01095264184294159,-1.031858843386539
14788,1.0,300.37318999999997,55066.608,0.0,-0.14788024200054606,0.0,0.0,0.0,0.0,-3.6742923995994263,-8.181976116348173,-4.882605404175636,0.007001372867556702,-0.012161133078210387,-0.9985977841464281
14789,1.0,300.06198,54938.373,0.0,-0.1478902379879654,0.0,0.0,0.0,0.0,-3.6405210777414565,-8.164893226287223,-4.894479175472486,0.032064240645994176,0.003342379328567156,-1.004188776608216
14790,1.0,300.0139,54977.450999999994,0.0,-0.14790023397538465,0.0,0.0,0.0,0.0,-3.640148505679686,-8.163559383855583,-4.908064427513245,0.00978538542844235,-0.013043775240320386,-0.9944090082330281
14791,1.0,300.26624,55027.319,0.0,-0.147910229962804,0.0,0.0,0.0,0.0,-3.659913975380386,-8.177074620314432,-4.889942449474745,-0.0030531611716985473,-0.02168666180455688,-0.997987544141202
14792,1.0,300.31031,55144.41099999999,0.0,-0.14792022595022314,0.0,0.0,0.0,0.0,-3.6835831937413563,-8.180855360412561,-4.898085535228405,-0.014067419259846187,-0.009816587452021752,-1.016413669462219
14793,1.0,299.99337,55109.323,0.0,-0.1479302219376426,0.0,0.0,0.0,0.0,-3.6708719712368567,-8.161557404308,-4.919428837984825,-0.0006746171239070263,0.025760090339822975,-0.987032496842523
14794,1.0,300.96192,54912.640999999996,0.0,-0.14794021792506173,0.0,0.0,0.0,0.0,-3.6559926974933865,-8.149298597973152,-4.886780399887675,-0.016527411157378484,0.01973933696737088,-1.007082264256281
14795,1.0,300.71079,54784.852999999996,0.0,-0.1479502139124812,0.0,0.0,0.0,0.0,-3.6337789115760564,-8.131413011182982,-4.888035512786545,-0.016425745695344884,-0.009047859729754231,-0.9847076350180771
14796,1.0,300.62933,55056.27,0.0,-0.1479602428899579,0.0,0.0,0.0,0.0,-3.6581098835773362,-8.163240615374121,-4.914380623336605,-0.016031529598188786,0.0006319052580691934,-1.01053419456446
14797,1.0,300.07205,55160.001,0.0,-0.14797023887737737,0.0,0.0,0.0,0.0,-3.6965317194192764,-8.185863855656862,-4.884867383698875,-0.01046343152241029,0.006664778986362473,-0.981862023437237
14798,1.0,299.71705,55099.997,0.0,-0.1479802348647965,0.0,0.0,0.0,0.0,-3.6880365292558666,-8.170221097963042,-4.890765512530975,0.001952116496908898,-0.0017243632056813982,-1.0013210457776929
14799,1.0,299.95686,55275.127,0.0,-0.14799023085221596,0.0,0.0,0.0,0.0,-3.7008701523724468,-8.196737549105013,-4.904650787926346,-0.006920144356065074,-0.013813074232994287,-0.9907424715536691
14800,1.0,300.04321,55229.348,0.0,-0.1480002268396351,0.0,0.0,0.0,0.0,-3.691762857823626,-8.163267162526742,-4.933312796155066,0.004442840979249266,0.005481773422908915,-0.9674965384219741
14801,1.0,300.17401,55218.242999999995,0.0,-0.14801022282705456,0.0,0.0,0.0,0.0,-3.6661084798667365,-8.184944939141172,-4.933913653464366,0.012696952903341687,0.007802972145593393,-0.9788613237960911
14802,1.0,300.19102999999996,55172.154,0.0,-0.14802021881447391,0.0,0.0,0.0,0.0,-3.6723292275306765,-8.172349936423142,-4.926278206010805,0.011455033534023789,-0.008952930861010481,-0.979720671338402
14803,1.0,299.33628999999996,54963.011,0.0,-0.14803021480189305,0.0,0.0,0.0,0.0,-3.6811180575730664,-8.144076205632741,-4.882188553084495,-0.008356273980000032,-0.026015506372030577,-0.9955447197401142
14804,1.0,299.41174,54793.524000000005,0.0,-0.14804024377936986,0.0,0.0,0.0,0.0,-3.632906199264926,-8.157397809997484,-4.865559092443296,0.0026930263496060076,-0.015687329552468883,-0.995121677690863
14805,1.0,299.97986000000003,55017.893,0.0,-0.14805023976678933,0.0,0.0,0.0,0.0,-3.6587532973908368,-8.163650475039573,-4.901662004106376,0.015888816361354086,0.007999885954127274,-1.0047616986122592
14806,1.0,299.83585,55165.867999999995,0.0,-0.14806023575420846,0.0,0.0,0.0,0.0,-3.6671572950452465,-8.17462174447235,-4.927267442083436,0.0032693640197361063,0.012537255568330788,-0.9948651734280479
14807,1.0,299.8531,55038.89599999999,0.0,-0.1480702317416278,0.0,0.0,0.0,0.0,-3.626903705672526,-8.194897689573432,-4.908648667520905,-0.0012228270016586289,-0.004732742573310326,-1.017765345095619
14808,1.0,299.93942000000004,55003.71599999999,0.0,-0.14808022772904705,0.0,0.0,0.0,0.0,-3.6309000653919363,-8.193763052111452,-4.895093002383065,-0.013258676467279486,-0.008266433855908502,-1.010987086961657
14809,1.0,299.70045,55170.13,0.0,-0.1480902237164664,0.0,0.0,0.0,0.0,-3.685273801533207,-8.199376356340442,-4.885691865305246,-0.01902976602834168,0.01032177510542989,-1.003708171820784
14810,1.0,300.04379,55338.719000000005,0.0,-0.14810021970388587,0.0,0.0,0.0,0.0,-3.703556379712557,-8.200976784873392,-4.917055502275595,-0.009449333332076591,-0.01118967751833519,-1.004205363512353
14811,1.0,299.8469,55106.61,0.0,-0.148110215691305,0.0,0.0,0.0,0.0,-3.6928781422086967,-8.162447240545822,-4.895707943868755,-0.005951116138129434,-0.005058075192893155,-0.985130474417308
14812,1.0,299.64864,54995.651,0.0,-0.14812024466878204,0.0,0.0,0.0,0.0,-3.6552456281946566,-8.164985026746283,-4.897073906328566,0.001320366103984989,0.024004841244593376,-0.9798671467728581
14813,1.0,299.87157,55054.023,0.0,-0.14813024065620117,0.0,0.0,0.0,0.0,-3.644087110143396,-8.163636796163223,-4.927324386739055,0.012787610416288887,0.007105576622415813,-0.98589154683242
14814,1.0,299.58945,55227.192,0.0,-0.14814023664362042,0.0,0.0,0.0,0.0,-3.677096569251176,-8.178176833773213,-4.932413840666346,0.012951183432932287,0.005909586765555805,-0.9951280003714872
14815,1.0,299.98015,55365.079000000005,0.0,-0.14815023263103977,0.0,0.0,0.0,0.0,-3.7227144059783064,-8.188100301277583,-4.918786842721466,0.0013023751391844187,-0.017584011136406785,-0.9961467220220269
14816,1.0,300.40589,55167.862,0.0,-0.148160228618459,0.0,0.0,0.0,0.0,-3.688530792654646,-8.158915354672251,-4.922206359158945,0.017649530927623083,-0.003100153178211297,-0.9750018035026862
14817,1.0,299.93494,55031.462,0.0,-0.14817022460587836,0.0,0.0,0.0,0.0,-3.670514699251597,-8.172289040092133,-4.885386471725105,-0.014741833460155685,0.007463318654397202,-0.9892875052050751
14818,1.0,300.96154,55324.762,0.0,-0.14818022059329772,0.0,0.0,0.0,0.0,-3.690301244554376,-8.182056568406113,-4.944988274407345,-0.015404396687295586,0.0057057253037362445,-0.9745944161674801
14819,1.0,300.95828,55462.557,0.0,-0.14819021658071696,0.0,0.0,0.0,0.0,-3.698038422317976,-8.210119137875672,-4.951074867758045,-0.017181850145216584,-0.002309983563952628,-1.0035343285011271
14820,1.0,300.20416,55210.997,0.0,-0.148200245558194,0.0,0.0,0.0,0.0,-3.6826989303790865,-8.205706433690171,-4.894359206660646,-0.0037418654408183662,0.001834051683331808,-0.99666999477117
14821,1.0,300.16131,55091.371,0.0,-0.14821024154561313,0.0,0.0,0.0,0.0,-3.6725923685816464,-8.196379669169692,-4.877429013389765,0.020727871870931683,-0.005175921448423675,-1.019363341828329
14822,1.0,299.71397,55137.600999999995,0.0,-0.14822023753303237,0.0,0.0,0.0,0.0,-3.676711027588126,-8.191955616583073,-4.8917873752568255,0.017068756235305085,-0.0034766339535670567,-1.010159058979937
14823,1.0,299.58657,55200.323,0.0,-0.14823023352045173,0.0,0.0,0.0,0.0,-3.682099086319887,-8.194639209472923,-4.902781645466875,0.012749694597546886,0.009717928708334891,-1.016043326550669
14824,1.0,300.10949,55149.725999999995,0.0,-0.14824022950787097,0.0,0.0,0.0,0.0,-3.6383757233047263,-8.20133324625857,-4.924430544453455,0.007557435808485843,0.0027027123112869375,-1.0069308036313331
14825,1.0,300.02227,54934.35,0.0,-0.14825022549529054,0.0,0.0,0.0,0.0,-3.6275988965661368,-8.181296022881051,-4.889775668508286,-0.0005386314421712845,0.025892514021892177,-1.021091439873879
14826,1.0,300.40221,55119.541,0.0,-0.14826022148270968,0.0,0.0,0.0,0.0,-3.6697984327559063,-8.201347330434963,-4.883818467195354,-0.014210667492733685,0.014485776040634786,-1.012775797628189
14827,1.0,300.12191,55315.65,0.0,-0.14827021747012892,0.0,0.0,0.0,0.0,-3.6966341590043865,-8.203191344291952,-4.914750966248155,-0.016499042181078682,0.0017232543047719583,-1.0049649261848161
14828,1.0,299.71533,55503.402,0.0,-0.14828021345754827,0.0,0.0,0.0,0.0,-3.7032810796603863,-8.221071662181602,-4.947295748860076,-0.007857621688411882,-0.014438899038008384,-0.973127827840239
14829,1.0,300.7743,55452.924000000006,0.0,-0.1482902424350251,0.0,0.0,0.0,0.0,-3.7024156627499765,-8.205485342518351,-4.948403332544386,0.0034726386070977468,-0.006724975060228364,-0.966002501149524
14830,1.0,300.74195,55305.653,0.0,-0.14830023842244433,0.0,0.0,0.0,0.0,-3.6499527136472865,-8.206549052473333,-4.955035763723955,0.007281851438337783,-0.0034242272398449167,-0.991042758353305
14831,1.0,300.61792,55332.895,0.0,-0.14831023440986368,0.0,0.0,0.0,0.0,-3.6915879708563666,-8.205591733778853,-4.922638611651605,-0.004460465248838646,-0.006928663458930843,-0.986773114949424
14832,1.0,300.26415,55329.825,0.0,-0.14832023039728304,0.0,0.0,0.0,0.0,-3.716749605289626,-8.198527962031713,-4.903607545623386,-0.012476633828097888,-0.0043328353543175555,-0.998489771685768
14833,1.0,299.61036,55265.469000000005,0.0,-0.1483302263847024,0.0,0.0,0.0,0.0,-3.7115246798239667,-8.196662163297573,-4.891135551467495,-0.007115307673726192,-0.01041826995220319,-1.006249504396594
14834,1.0,299.78978,55227.995,0.0,-0.14834022237212163,0.0,0.0,0.0,0.0,-3.699823870319187,-8.186984611592472,-4.9011231577031955,0.012551602176496687,-0.009177817971680111,-0.996519385276306
14835,1.0,299.78676,55214.53400000001,0.0,-0.14835021835954088,0.0,0.0,0.0,0.0,-3.683405064373776,-8.183098392158932,-4.9173362738783055,0.006435854783319415,-2.4813459407397775e-05,-0.981602803664154
14836,1.0,299.79742999999996,55341.684,0.0,-0.14836021434696023,0.0,0.0,0.0,0.0,-3.660853663523126,-8.206136153057583,-4.955500034919774,0.009899071887012329,-0.007428073256293753,-1.002566309885591
14837,1.0,299.95161,55630.064000000006,0.0,-0.14837024332443705,0.0,0.0,0.0,0.0,-3.7260965334870964,-8.231011544337592,-4.953042295477215,0.007367191313435174,-0.00040008082926490363,-0.99296251265527
14838,1.0,299.90625,55499.827000000005,0.0,-0.14838023931185618,0.0,0.0,0.0,0.0,-3.7185460977169265,-8.224495738244531,-4.927519741358336,0.004313411451225566,0.0029995756428100673,-1.0150708091046892
14839,1.0,300.03365,55263.655,0.0,-0.14839023529927564,0.0,0.0,0.0,0.0,-3.6757293908912465,-8.221890976212462,-4.9011510220809456,0.0010621624181022691,0.008636396798671002,-0.9891101661725731
14840,1.0,300.71668999999997,55177.462,0.0,-0.148400231286695,0.0,0.0,0.0,0.0,-3.647375410692926,-8.206981406291002,-4.918213951114925,-0.014014732281146386,0.005221303299202515,-0.9961246838323521
14841,1.0,300.11261,55348.005999999994,0.0,-0.14841022727411435,0.0,0.0,0.0,0.0,-3.659565822646026,-8.212398950600672,-4.952446909718455,-0.022997674698193776,-0.002254043849781808,-0.987836895831911
14842,1.0,300.112,55358.782999999996,0.0,-0.1484202232615336,0.0,0.0,0.0,0.0,-3.6490631813844963,-8.226127577530583,-4.952496964273395,0.0024954173501785175,-0.007855681415795393,-1.0181929366378188
14843,1.0,299.6682,55123.655,0.0,-0.14843021924895272,0.0,0.0,0.0,0.0,-3.666638308344026,-8.199568873859443,-4.890007500131166,-0.0070458139156176925,0.008858589677324731,-1.0058239900170989
14844,1.0,300.05731000000003,55313.422,0.0,-0.14844021523637219,0.0,0.0,0.0,0.0,-3.7086605257662963,-8.210325030295992,-4.894913555790355,0.0063273660951124145,-0.0006933557558238853,-1.0033477587602142
14845,1.0,300.42557,55556.255,0.0,-0.1484502442138489,0.0,0.0,0.0,0.0,-3.7509250112874764,-8.214373673720562,-4.922415696629605,-5.644362573705214e-05,-0.004730072760621836,-0.988702535657343
14846,1.0,300.20797999999996,55494.462,0.0,-0.14846024020126813,0.0,0.0,0.0,0.0,-3.7186548194526567,-8.220129238263592,-4.930146592242586,0.018625011116895483,0.005894271287644285,-0.98323125869487
14847,1.0,300.17797,55375.84,0.0,-0.1484702361886875,0.0,0.0,0.0,0.0,-3.6914444946422065,-8.205265872546692,-4.936162156761275,0.015210635910422885,-0.0016055898263093785,-0.9709567469834701
14848,1.0,299.42927000000003,55448.126,0.0,-0.14848023217610695,0.0,0.0,0.0,0.0,-3.674319149402067,-8.226515449668863,-4.954011063897825,0.002068649478984808,-0.007585162384222243,-0.9860134914819549
14849,1.0,299.43284,55512.581,0.0,-0.1484902281635263,0.0,0.0,0.0,0.0,-3.7336546699580264,-8.212366019972423,-4.928417784921965,-0.006149761591084214,-0.013359965000275887,-0.9970571981643841
14850,1.0,300.09706,55600.718,0.0,-0.14850022415094555,0.0,0.0,0.0,0.0,-3.7325019966442667,-8.231360608997042,-4.937367417755225,-0.005306208793982034,0.008876872154179071,-0.9985726352789461
14851,1.0,299.51325,55397.753,0.0,-0.14851022013836468,0.0,0.0,0.0,0.0,-3.7032011342274966,-8.209701982809502,-4.926630411745565,0.00038961311473432065,0.014295700454375787,-0.993690755767142
14852,1.0,299.94743,55154.837999999996,0.0,-0.14852021612578403,0.0,0.0,0.0,0.0,-3.6386427147060765,-8.205012762671712,-4.922038159642345,-0.00989513581567387,0.004723981506320675,-0.998779865189398
14853,1.0,300.10708,55321.739,0.0,-0.14853024510326085,0.0,0.0,0.0,0.0,-3.644451576204367,-8.230952066556721,-4.941023528091055,-0.016664822056439883,-0.0007339424005044753,-1.005815265933738
14854,1.0,299.88187,55492.785,0.0,-0.14854024109068031,0.0,0.0,0.0,0.0,-3.680976709184117,-8.231733079733802,-4.955711297565625,-0.01131100003230879,-0.0017769724680985282,-1.011105677753361
14855,1.0,300.74757,55367.812000000005,0.0,-0.14855023707809967,0.0,0.0,0.0,0.0,-3.7140266982958963,-8.233110694569762,-4.8832949208686856,-0.008021614494571712,-0.004173549398847256,-1.0066863063822031
14856,1.0,300.10778,55233.469000000005,0.0,-0.1485602330655188,0.0,0.0,0.0,0.0,-3.6832061633791464,-8.235205791801533,-4.871183643748395,0.012681807854096987,-0.0029299794451164577,-1.008803451936149
14857,1.0,299.02807,55498.329000000005,0.0,-0.14857022905293826,0.0,0.0,0.0,0.0,-3.723291857210296,-8.231660733676662,-4.915153631837895,0.02064779370227858,0.0027452549339605672,-0.9927926412760051
14858,1.0,299.78635,55602.962999999996,0.0,-0.1485802250403574,0.0,0.0,0.0,0.0,-3.6954837148408464,-8.24671388113729,-4.959714547385715,0.016534694399097286,0.030613585676575676,-1.01017955702946
14859,1.0,299.39928,55482.453,0.0,-0.14859022102777664,0.0,0.0,0.0,0.0,-3.6646950973022463,-8.241465042969272,-4.959120276202065,0.002113922405377898,0.0016366609379758583,-1.002723708156125
14860,1.0,299.21484,55444.496,0.0,-0.148600217015196,0.0,0.0,0.0,0.0,-3.6856141522417967,-8.21548804618054,-4.952640237837535,-0.0006271917199290034,-0.011525807027008589,-1.0052041342684241
14861,1.0,299.23407000000003,55456.585,0.0,-0.1486102459926728,0.0,0.0,0.0,0.0,-3.733578777525536,-8.216885014093412,-4.906953196128575,-0.013942148110232885,-0.008367235724881872,-0.985251800984282
14862,1.0,299.40799,55417.204000000005,0.0,-0.14862024198009216,0.0,0.0,0.0,0.0,-3.7108784289101866,-8.206998124917652,-4.927569795913276,0.0021040424063028178,-0.005618267026654785,-0.9905362954233211
14863,1.0,300.09073,55548.255999999994,0.0,-0.14863023796751162,0.0,0.0,0.0,0.0,-3.7080375796048166,-8.224705683665253,-4.952539520777595,-0.005255605260137855,0.0005222081373954305,-0.9821772455433471
14864,1.0,300.21935,55642.361,0.0,-0.14864023395493076,0.0,0.0,0.0,0.0,-3.6829025936491866,-8.25519174472399,-4.975794218522655,-0.014450532162406484,-0.0008684809483148962,-0.9897324841189911
14865,1.0,299.77218,55534.539000000004,0.0,-0.14865022994235022,0.0,0.0,0.0,0.0,-3.6710214256266065,-8.242121527709063,-4.967970002575465,-0.008281960697790882,0.004593410552059325,-0.990124551112685
14866,1.0,300.08271,55583.185999999994,0.0,-0.14866022592976935,0.0,0.0,0.0,0.0,-3.705893441068207,-8.251176943852762,-4.938830246924595,-0.01824883188476948,0.024181637175041775,-0.9969412012929361
14867,1.0,300.20414,55618.612,0.0,-0.1486702219171887,0.0,0.0,0.0,0.0,-3.747698518994046,-8.234868987468293,-4.924101846121015,0.005396970874339556,-0.0008210599823723112,-0.9925219819092932
14868,1.0,300.10219,55549.58,0.0,-0.14868021790460817,0.0,0.0,0.0,0.0,-3.7213951543481065,-8.238683367469744,-4.925606826494546,0.002037282396964118,-0.006442393894164775,-0.9962548662052
14869,1.0,299.95214,55483.58900000001,0.0,-0.14869024688208476,0.0,0.0,0.0,0.0,-3.696400199556296,-8.235068800388012,-4.934156732163355,0.022254493240097477,0.012999014917152888,-1.008514017045084
14870,1.0,299.84362000000004,55499.467000000004,0.0,-0.14870024286950412,0.0,0.0,0.0,0.0,-3.6718383078572265,-8.228794451793782,-4.969819386657986,0.023231173117488277,0.018003438922551084,-0.9964595325928991
14871,1.0,299.2426,55442.291,0.0,-0.14871023885692347,0.0,0.0,0.0,0.0,-3.6638209664409764,-8.238570187433572,-4.950680814794155,0.006716976463938964,-0.0003538049169953267,-1.005658860648302
14872,1.0,299.63322,55475.062000000005,0.0,-0.1487202348443427,0.0,0.0,0.0,0.0,-3.6974799188628564,-8.228711973235642,-4.936841946253365,-0.002009900630236748,-0.01144681100946229,-1.0055384966689231
14873,1.0,299.39085,55602.827000000005,0.0,-0.14873023083176207,0.0,0.0,0.0,0.0,-3.7305305159246966,-8.240373671286562,-4.930966818198536,0.005026397955016855,-0.005070733726392455,-1.0051743447154842
14874,1.0,299.5567,55573.723,0.0,-0.1487402268191813,0.0,0.0,0.0,0.0,-3.7001371672501064,-8.246963951261973,-4.945923200274615,0.008056099448475114,0.009130082138268951,-1.0037834968332182
14875,1.0,300.2633,55501.334,0.0,-0.14875022280660066,0.0,0.0,0.0,0.0,-3.6906008626089464,-8.241205549618662,-4.939213356787405,-0.0043653893575053854,-0.016706755411828384,-1.005836128753297
14876,1.0,300.66876,55548.532999999996,0.0,-0.14876021879402013,0.0,0.0,0.0,0.0,-3.6716396095126167,-8.248574208320893,-4.965153065972455,-0.015361070113019588,-0.008101115819942883,-1.007160760741528
14877,1.0,299.98377999999997,55603.587,0.0,-0.14877021478143926,0.0,0.0,0.0,0.0,-3.7048990374200668,-8.258633350013652,-4.938569740323886,-0.017099227705562384,-0.0037882364263448266,-0.995620591907602
14878,1.0,299.62003,55551.429000000004,0.0,-0.14878024375891608,0.0,0.0,0.0,0.0,-3.7420061812572567,-8.239501972225533,-4.904739143335066,0.0022145059189547177,0.006461583837808675,-1.0057354420908602
14879,1.0,299.93116000000003,55587.279,0.0,-0.14879023974633543,0.0,0.0,0.0,0.0,-3.731627257832937,-8.256851651037813,-4.908665892772605,-0.00888179523243994,-0.017757913224569585,-0.9975261708406681
14880,1.0,300.27246,55655.051,0.0,-0.14880023573375467,0.0,0.0,0.0,0.0,-3.7045842206139965,-8.255842453938213,-4.957319224149315,0.005496032587591184,-0.016496465486074384,-0.998689979773027
14881,1.0,300.39599999999996,55698.833,0.0,-0.14881023172117402,0.0,0.0,0.0,0.0,-3.6851370127697063,-8.261588088630262,-4.984329330740005,0.003814177756730036,-0.0053885536031088345,-0.9975453617975619
14882,1.0,299.64327000000003,55685.248,0.0,-0.14882022770859338,0.0,0.0,0.0,0.0,-3.6704971700248668,-8.259959289094512,-4.996468573563055,0.014034909130387687,0.007654183055859054,-0.9976920398820381
14883,1.0,300.07624,55658.633,0.0,-0.14883022369601262,0.0,0.0,0.0,0.0,-3.7059463327234266,-8.241190249542152,-4.971698154993405,-0.01068899821992199,-0.0027633013235416073,-0.995946311284748
14884,1.0,299.72904,55646.835,0.0,-0.14884021968343197,0.0,0.0,0.0,0.0,-3.7382692135634468,-8.24500006991815,-4.931979055048436,-0.007303940898467843,0.01305254897293629,-0.9945358164830431
14885,1.0,299.4425,55653.584,0.0,-0.14885021567085122,0.0,0.0,0.0,0.0,-3.729510274399006,-8.254643576419893,-4.9331461165136155,-0.0019885541864050177,0.013874253260782185,-1.013836163857839
14886,1.0,299.27608,55777.71,0.0,-0.14886024464832803,0.0,0.0,0.0,0.0,-3.723459347451826,-8.270836326267993,-4.960735396861466,-0.007063545387067653,0.011700115428461489,-1.0113581594132792
14887,1.0,299.64436,55751.320999999996,0.0,-0.1488702406357474,0.0,0.0,0.0,0.0,-3.705840448087976,-8.274219467026882,-4.966949457074745,-0.004885871919848015,-0.01068345878162529,-1.0224988442627791
14888,1.0,299.87126,55526.704000000005,0.0,-0.14888023662316663,0.0,0.0,0.0,0.0,-3.6686939901469064,-8.258220855897942,-4.951816668156255,0.002142538614702098,-0.014123292910110488,-1.023267698438659
14889,1.0,300.79744,55512.138,0.0,-0.14889023261058598,0.0,0.0,0.0,0.0,-3.698952880533226,-8.264867168603883,-4.910483764777016,0.010318150709822189,0.008297219129721773,-1.003998913804478
14890,1.0,300.43737999999996,55619.626,0.0,-0.14890022859800534,0.0,0.0,0.0,0.0,-3.726032597405786,-8.257780294754463,-4.923164792428536,0.01034257915648309,0.019259043247719584,-1.007837946180861
14891,1.0,299.76931,55668.025,0.0,-0.14891022458542458,0.0,0.0,0.0,0.0,-3.713677633636446,-8.269877589023373,-4.938134245430905,0.02106483832418768,-0.002842068853190357,-0.996257885690498
14892,1.0,300.12539,55670.672999999995,0.0,-0.14892022057284393,0.0,0.0,0.0,0.0,-3.690909397264397,-8.261826101078752,-4.9697589969520255,0.012872269488644087,0.011996980482509788,-0.996268413359037
14893,1.0,299.65515,55679.607,0.0,-0.14893021656026317,0.0,0.0,0.0,0.0,-3.6630585970657368,-8.270002218785672,-4.992149493686795,0.023796157320247875,0.011884101381619489,-0.9846095828059
14894,1.0,299.36852999999996,55779.139,0.0,-0.14894024553773988,0.0,0.0,0.0,0.0,-3.6831340199720266,-8.277381617938962,-4.994949812988166,-0.01124530393557509,0.0031225502610717167,-1.0027490090111222
14895,1.0,299.67352999999997,55959.877,0.0,-0.14895024152515934,0.0,0.0,0.0,0.0,-3.7570952990964366,-8.277021204878391,-4.976288988546486,-0.023335743567558576,-0.017864510174839882,-0.993555578071301
14896,1.0,299.68959,55930.593,0.0,-0.14896023751257848,0.0,0.0,0.0,0.0,-3.7547092977609564,-8.276609014737712,-4.970185473919115,-0.03014619367044767,-0.013435026567683887,-0.996791594915671
14897,1.0,299.39013,55758.988,0.0,-0.14897023349999794,0.0,0.0,0.0,0.0,-3.734686462534857,-8.266320574547322,-4.948332911662436,-0.008096243809487052,0.015554387086348485,-1.003552941905464
14898,1.0,300.14277999999996,55692.702000000005,0.0,-0.1489802294874173,0.0,0.0,0.0,0.0,-3.7013973463994763,-8.261859639657061,-4.965933876499515,-0.012951470182710588,0.01195124439949599,-1.006414937740421
14899,1.0,299.89632,55696.272000000004,0.0,-0.14899022547483654,0.0,0.0,0.0,0.0,-3.6993564580480567,-8.251532695962872,-4.979386696752205,0.008093806639021523,-0.015182756333921386,-0.9952483035558601
14900,1.0,300.24377999999996,55742.075,0.0,-0.1490002214622559,0.0,0.0,0.0,0.0,-3.703824181713986,-8.267820286020331,-4.972554351327905,0.0009762039132888251,-0.0006247241620929744,-0.9994962938051041
14901,1.0,300.67773,55725.217000000004,0.0,-0.14901021744967502,0.0,0.0,0.0,0.0,-3.7425897119898464,-8.252846780017562,-4.943638219974105,0.02266353926571718,0.007258053030589063,-0.99273665920798
14902,1.0,300.44464,55812.943,0.0,-0.14902024642715184,0.0,0.0,0.0,0.0,-3.7374118013288267,-8.279260791574423,-4.949068328585016,0.011506652547118188,-0.006963798007473353,-0.993684818121556
14903,1.0,300.28737,55933.427,0.0,-0.1490302424145713,0.0,0.0,0.0,0.0,-3.740562198539746,-8.288732146884172,-4.973070906228886,-0.0005226974358687205,-0.01791127977295568,-1.0153646516336892
14904,1.0,299.94878,55946.369000000006,0.0,-0.14904023840199043,0.0,0.0,0.0,0.0,-3.7283730024867667,-8.284229871389831,-4.993696219964445,0.002348577348336538,0.001165546250980459,-1.000854788611677
14905,1.0,299.57611,55870.441,0.0,-0.14905023438940979,0.0,0.0,0.0,0.0,-3.6982594121647865,-8.297686238017873,-4.987273430230565,0.015881308178113084,0.009234958792519472,-1.0086350497695291
14906,1.0,300.06349,55728.624,0.0,-0.14906023037682925,0.0,0.0,0.0,0.0,-3.700480253733967,-8.27321645075289,-4.966413549096854,-0.007528277307708124,-0.00870377661309587,-1.014513926849729
14907,1.0,299.77288,55635.96,0.0,-0.14907022636424838,0.0,0.0,0.0,0.0,-3.7159983816654862,-8.26711729310095,-4.928826833987336,-0.015102950729545185,-0.02011757917670048,-1.013940832593169
14908,1.0,298.72447,55703.28,0.0,-0.14908022235166785,0.0,0.0,0.0,0.0,-3.728081895733036,-8.274459809950603,-4.929864503414745,-0.012266527300611988,0.0012565062190825088,-1.0128000244380801
14909,1.0,298.96975,55800.640999999996,0.0,-0.14909021833908698,0.0,0.0,0.0,0.0,-3.738877264948456,-8.261770473648262,-4.961353884722505,-0.00040274392410523065,0.017018372374082585,-1.002467041773294
14910,1.0,299.63569,55781.859000000004,0.0,-0.1491002473165638,0.0,0.0,0.0,0.0,-3.7145996912274466,-8.275566583034832,-4.966126090043486,-0.011355898157489889,0.0017518121508903984,-1.00556937039947
14911,1.0,299.9508,55846.63,0.0,-0.14911024330398315,0.0,0.0,0.0,0.0,-3.692284073675067,-8.291048233962751,-4.992648722011066,-0.009398905901099791,-0.01289073597171659,-1.0015713894799
14912,1.0,299.36947999999995,56024.61,0.0,-0.1491202392914024,0.0,0.0,0.0,0.0,-3.7312419188199066,-8.291381795895672,-5.007458689447695,-0.0006045797773848784,0.006492634481823134,-0.991188858885224
14913,1.0,299.76203,56059.327000000005,0.0,-0.14913023527882197,0.0,0.0,0.0,0.0,-3.7648481822365865,-8.306702745357732,-4.969084780335486,0.02062341895787298,0.01986820718133938,-1.006536760799944
14914,1.0,300.13506,55988.305,0.0,-0.1491402312662412,0.0,0.0,0.0,0.0,-3.748998620197357,-8.294571000585423,-4.975477273891375,0.014029023160556786,0.006092912991573694,-0.9979864498310941
14915,1.0,300.48843,55876.648,0.0,-0.14915022725366034,0.0,0.0,0.0,0.0,-3.7387191979328565,-8.295730867974893,-4.950655686191675,-0.004850290528011405,0.0017595129529754084,-1.0076964964669008
14916,1.0,299.85801000000004,55816.142,0.0,-0.1491602232410797,0.0,0.0,0.0,0.0,-3.7069394191464364,-8.298468771070102,-4.961305350042716,-0.003033646278747577,0.0077512115814600225,-1.006164512978206
14917,1.0,300.04771,55909.975,0.0,-0.14917021922849893,0.0,0.0,0.0,0.0,-3.7110388264010163,-8.273788227784323,-5.0104093750639045,-0.002441582460440428,-0.003951253472658356,-0.9919302033208891
14918,1.0,299.81362,56000.677,0.0,-0.1491802152159183,0.0,0.0,0.0,0.0,-3.734211450887976,-8.290870611220223,-4.997725307662085,-0.005001522057111795,-0.014636914452050984,-0.9953943736902761
14919,1.0,299.67825,55825.73,0.0,-0.1491902441933951,0.0,0.0,0.0,0.0,-3.738202136406826,-8.262268688722433,-4.969157126392625,-0.004508692204573276,-0.013077984590196587,-0.9944719411967391
14920,1.0,299.75863,55780.7,0.0,-0.14920024018081446,0.0,0.0,0.0,0.0,-3.7248138601855065,-8.265965126412242,-4.965161070648245,0.008691836575242482,0.012835987029063288,-1.0033143012419121
14921,1.0,300.04373,55960.207,0.0,-0.14921023616823392,0.0,0.0,0.0,0.0,-3.7568053069178164,-8.297936612117583,-4.955763682595795,0.005460378343072385,0.015272864665314384,-0.9924626662484392
14922,1.0,299.90477000000004,55986.655,0.0,-0.14922023215565305,0.0,0.0,0.0,0.0,-3.7414626739036168,-8.287335280296311,-4.989747077699695,-0.0025655221994223274,-0.011213257874662388,-1.0038154750063741
14923,1.0,299.70326,55860.289000000004,0.0,-0.1492302281430723,0.0,0.0,0.0,0.0,-3.7042700117579863,-8.311425402748823,-4.9644375087518355,-0.012229129252671089,-0.011374753728600789,-1.009693774534017
14924,1.0,299.77445,55796.343,0.0,-0.14924022413049165,0.0,0.0,0.0,0.0,-3.709431406442376,-8.298706986168613,-4.952556644704286,0.0005991165557607004,-0.0008615999770182973,-1.0202716192179688
14925,1.0,299.84237,55974.047999999995,0.0,-0.1492502201179109,0.0,0.0,0.0,0.0,-3.737621240124496,-8.315535550454461,-4.9615561294424655,0.01052812855454539,0.0023986647325797777,-1.0005452609711292
14926,1.0,299.97106,55995.803,0.0,-0.14926021610533047,0.0,0.0,0.0,0.0,-3.730603875231936,-8.323198254335711,-4.967523665906415,0.012553558762439788,0.0017117794500394786,-1.024206879956349
14927,1.0,299.58065,55878.62,0.0,-0.14927024508280706,0.0,0.0,0.0,0.0,-3.740615495495007,-8.281951781190001,-4.963138116823595,0.003988425869801986,0.008431611860710302,-0.9916320544789641
14928,1.0,300.29457,55816.987,0.0,-0.14928024107022642,0.0,0.0,0.0,0.0,-3.6986146576498466,-8.284729505014141,-4.983626337820625,0.0008260291837777332,0.004894781427977316,-1.008828560273627
14929,1.0,299.85591,55807.899000000005,0.0,-0.14929023705764577,0.0,0.0,0.0,0.0,-3.7014752653321668,-8.285959894610572,-4.976772612819215,-0.007547577492962904,-0.006640374351078924,-0.9895037631739181
14930,1.0,300.30069,55979.203,0.0,-0.149300233045065,0.0,0.0,0.0,0.0,-3.741570179739226,-8.284778647643991,-4.989931083917854,0.0011269142670677788,-0.007150865862135514,-1.004009005775474
14931,1.0,299.66964,56123.812999999995,0.0,-0.14931022903248425,0.0,0.0,0.0,0.0,-3.756267879064776,-8.326363039698052,-4.9776067203015355,0.00024704179370862674,0.0008823592018870732,-1.009356889140769
14932,1.0,300.19392,55974.772000000004,0.0,-0.1493202250199036,0.0,0.0,0.0,0.0,-3.733257171943796,-8.304131825879002,-4.977543797470325,-0.004193511945692406,0.01131769052271909,-1.00458570720239
14933,1.0,300.50627000000003,55948.640999999996,0.0,-0.14933022100732296,0.0,0.0,0.0,0.0,-3.736322557471327,-8.311465628777793,-4.959201842835116,-0.014119791117764884,0.006287130845566504,-1.009928200077153
14934,1.0,300.55682,56173.242999999995,0.0,-0.14934021699474243,0.0,0.0,0.0,0.0,-3.7351486059054664,-8.334715158947342,-5.005399461269465,-0.0018076851932046383,-0.00994123514884852,-1.006148919059167
14935,1.0,299.94542,56099.011,0.0,-0.14935024597221902,0.0,0.0,0.0,0.0,-3.7537953461707567,-8.309392012448143,-4.989511091751405,0.013382703345769987,0.003277761228614847,-1.004799543503494
14936,1.0,300.03298,55994.485,0.0,-0.14936024195963837,0.0,0.0,0.0,0.0,-3.7526309191558367,-8.310408910248501,-4.957885529630205,0.01796365467062468,0.0019205289316664483,-0.9916117388144591
14937,1.0,299.49862,55918.227,0.0,-0.14937023794705773,0.0,0.0,0.0,0.0,-3.7447113563742365,-8.289933456202732,-4.963099815969816,0.01125418912570199,-0.006570707225878314,-1.007596964909578
14938,1.0,299.59156,55954.073,0.0,-0.14938023393447697,0.0,0.0,0.0,0.0,-3.7469070693409363,-8.295877890564402,-4.965856058891835,0.007080757466516353,-0.0035688794320709763,-0.9914677357102469
14939,1.0,300.34656,55992.649000000005,0.0,-0.1493902299218961,0.0,0.0,0.0,0.0,-3.7244470636493068,-8.306761007238482,-4.989159088666665,0.012294562917628886,0.008272300371337483,-1.018330738651419
14940,1.0,299.87759,55974.835999999996,0.0,-0.14940022590931556,0.0,0.0,0.0,0.0,-3.6952012207129665,-8.309269206536023,-5.010481923771065,0.0024585665586166275,0.0012361833605017988,-0.99838461659039
14941,1.0,299.58625,55981.727999999996,0.0,-0.14941022189673492,0.0,0.0,0.0,0.0,-3.723712052026767,-8.315169665843351,-4.978165730381705,-0.004312007289236986,0.004526163676047576,-1.020364635577149
14942,1.0,299.87481,56141.23,0.0,-0.14942021788415427,0.0,0.0,0.0,0.0,-3.768424448464536,-8.316635838738051,-4.980471684959285,-0.0006937906022368012,-0.012365904843919789,-0.995459961369249
14943,1.0,300.16284,56155.02,0.0,-0.1494302468616311,0.0,0.0,0.0,0.0,-3.759344005043366,-8.336222165821072,-4.974157718286145,-0.011813297491131688,-0.006602161244757584,-1.020302928646059
14944,1.0,300.07277,56187.64599999999,0.0,-0.14944024284905033,0.0,0.0,0.0,0.0,-3.759772508510656,-8.332676195771112,-4.987192876847615,-0.005698807136028474,-0.012737150561308887,-0.9805896751541661
14945,1.0,299.85425,56217.234000000004,0.0,-0.14945023883646968,0.0,0.0,0.0,0.0,-3.7419916917808265,-8.329242696482252,-5.017401003403925,-0.026623394623774475,-0.016293120376505783,-1.005504441333062
14946,1.0,299.57973,56188.653,0.0,-0.14946023482388893,0.0,0.0,0.0,0.0,-3.7119082963118264,-8.349774487233582,-5.018264799114175,-0.011970474873143887,-0.015721687850109786,-0.995331055691527
14947,1.0,300.13817,56098.682,0.0,-0.14947023081130806,0.0,0.0,0.0,0.0,-3.759890856122336,-8.315498769475832,-4.977209019637286,-0.014430607612440088,0.0008064257226355222,-0.999623710005179
14948,1.0,299.94259,56014.225999999995,0.0,-0.14948022679872752,0.0,0.0,0.0,0.0,-3.7424027673463964,-8.314365347913972,-4.970157913516395,0.024687108133177874,0.006310379159835933,-0.983211338197904
14949,1.0,299.40123,55935.849,0.0,-0.14949022278614688,0.0,0.0,0.0,0.0,-3.7281917320438764,-8.317769868249972,-4.957139574906586,0.018038779059538882,0.003496690833996517,-1.0061923368259522
14950,1.0,300.06382,56093.51,0.0,-0.14950021877356623,0.0,0.0,0.0,0.0,-3.7395083171107366,-8.313653235743692,-4.997864730875845,0.027630126485881177,0.001110947066691939,-1.008748584443234
14951,1.0,299.88997,56181.797999999995,0.0,-0.14951024775104305,0.0,0.0,0.0,0.0,-3.732894124432966,-8.327312556366762,-5.017657153029205,0.02726683072877668,0.002966999956070097,-1.005656874678106
14952,1.0,300.3635,56152.615999999995,0.0,-0.1495202437384623,0.0,0.0,0.0,0.0,-3.733581715950826,-8.323295728995332,-5.012115789557315,0.015549821381397884,0.008310558668613282,-1.008503823749078
14953,1.0,301.02286000000004,56241.093,0.0,-0.14953023972588164,0.0,0.0,0.0,0.0,-3.7746663730555663,-8.329718721379232,-4.991502736147965,-0.0015237573164331387,-0.005010370466260065,-0.99968350189358
14954,1.0,300.49782000000005,56253.810999999994,0.0,-0.14954023571330077,0.0,0.0,0.0,0.0,-3.772509467567696,-8.341006226168222,-4.986237989953374,-0.003228724078100257,0.0049077636948835655,-1.026057682589009
14955,1.0,300.01452,56233.249,0.0,-0.14955023170072002,0.0,0.0,0.0,0.0,-3.7575100223623665,-8.332099555139202,-5.003893974270886,-0.021585350980058277,0.02109617207028008,-1.019198384712049
14956,1.0,300.35271,56033.689000000006,0.0,-0.1495602276881396,0.0,0.0,0.0,0.0,-3.7233450528405463,-8.326268604788734,-4.9832285358313655,-0.013548835832165988,0.002229172106202158,-1.010946850800186
14957,1.0,299.66819,55911.217000000004,0.0,-0.14957022367555883,0.0,0.0,0.0,0.0,-3.6837607151588765,-8.320933133737162,-4.990920016015455,-0.014556154366080586,-0.004783078102503055,-1.0123400392901831
14958,1.0,300.29839,56043.44,0.0,-0.1495802196629782,0.0,0.0,0.0,0.0,-3.7332336645414768,-8.327636897723771,-4.974935793037935,-0.0015943573410008185,0.006258365485827583,-1.011535630168294
14959,1.0,299.61303,56193.62,0.0,-0.14959021565039743,0.0,0.0,0.0,0.0,-3.7722606133431364,-8.345099655247212,-4.964096955393225,0.009205167010429251,0.0033368519479466474,-1.0009347745745711
14960,1.0,298.94129,56236.88,0.0,-0.14960024462787413,0.0,0.0,0.0,0.0,-3.7761793581048866,-8.331569422686881,-4.986858504314616,0.008352569233659402,0.007774723138105432,-1.0081583865249861
14961,1.0,299.73125,56338.33900000001,0.0,-0.1496102406152936,0.0,0.0,0.0,0.0,-3.761376990044006,-8.354897986364232,-5.009173311266916,-0.00024527084531634775,0.0036691497500418867,-1.008471501070888
14962,1.0,300.09087,56220.672,0.0,-0.14962023660271273,0.0,0.0,0.0,0.0,-3.745234598725876,-8.340620684505172,-5.003825174589095,0.011208868475229188,0.0014705519589821787,-1.013123646387519
14963,1.0,300.36997,56297.322,0.0,-0.1496302325901322,0.0,0.0,0.0,0.0,-3.730093602481576,-8.34676574238664,-5.0361207990014245,0.006031669318429415,0.008221147554614092,-0.9972218715706361
14964,1.0,300.68987999999996,56281.562999999995,0.0,-0.14964022857755155,0.0,0.0,0.0,0.0,-3.7760638475934867,-8.331309828011262,-5.000816024442115,-0.0004360409942538955,-0.0035249525071107267,-1.0058244763771471
14965,1.0,300.10939,56077.937000000005,0.0,-0.14965022456497068,0.0,0.0,0.0,0.0,-3.7582274034331666,-8.317782432551212,-4.970282644603706,-0.008380155170281922,0.0029144755026863376,-1.005406378988384
14966,1.0,300.18293,56107.89599999999,0.0,-0.14966022055239014,0.0,0.0,0.0,0.0,-3.747700950794286,-8.331047396235363,-4.976651022807215,-0.008027109451189023,0.007481416821058353,-1.021483770312599
14967,1.0,300.64718999999997,56283.162000000004,0.0,-0.14967021653980928,0.0,0.0,0.0,0.0,-3.758290224939367,-8.342790559594322,-5.007595072911155,0.0037753834501513366,0.004493132837362686,-1.0074359696011892
14968,1.0,300.08237,56360.287000000004,0.0,-0.1496802455172861,0.0,0.0,0.0,0.0,-3.762133786543697,-8.348799335337342,-5.021186809752555,-0.004104897246271816,-0.016084345259651283,-1.008309847149934
14969,1.0,299.76597999999996,56338.358,0.0,-0.14969024150470545,0.0,0.0,0.0,0.0,-3.7419063761224067,-8.344121362275661,-5.039426426127665,0.0029881831653107167,-0.029394955860806267,-1.004322697873933
14970,1.0,300.04938,56244.87,0.0,-0.1497002374921247,0.0,0.0,0.0,0.0,-3.767689436841996,-8.343082476948132,-4.986264131805955,-0.0038240566412300067,-0.016688520963028784,-0.9906589392154251
14971,1.0,299.83308,56183.931,0.0,-0.14971023347954404,0.0,0.0,0.0,0.0,-3.7591249403717466,-8.335867730936092,-4.983519439935075,0.015720422300734883,-0.004576317934797416,-1.0128526121182702
14972,1.0,299.89677,56338.889,0.0,-0.1497202294669635,0.0,0.0,0.0,0.0,-3.7683898966361262,-8.359762397444312,-4.9974631798612155,0.005619133760790324,0.004188627472260346,-0.994280933420388
14973,1.0,299.69556,56331.442,0.0,-0.14973022545438264,0.0,0.0,0.0,0.0,-3.7612049401770267,-8.347541182688172,-5.014605649028045,-0.01109549490829009,0.003008366094052617,-1.00543562138627
14974,1.0,299.60454,56137.810999999994,0.0,-0.1497402214418021,0.0,0.0,0.0,0.0,-3.722312854963676,-8.343085010073382,-4.999094917822255,-0.016121744320842284,0.007530551142257534,-0.9839730489605791
14975,1.0,300.72461,56160.003,0.0,-0.14975021742922123,0.0,0.0,0.0,0.0,-3.6998331922201064,-8.358236949418762,-5.013168556411215,-0.009358147814502282,-0.01175357247723729,-1.013530770277699
14976,1.0,300.52272,56461.073,0.0,-0.14976024640669805,0.0,0.0,0.0,0.0,-3.7786149073702564,-8.359715585289692,-5.024425866347225,0.004953012809899305,-0.01981597413868438,-0.9857253434185171
14977,1.0,300.21369,56602.904,0.0,-0.1497702423941174,0.0,0.0,0.0,0.0,-3.7924688733375365,-8.364804532591933,-5.048596035557636,0.012855879155026489,-0.014146781060678588,-1.019515937293389
14978,1.0,299.992,56419.960999999996,0.0,-0.14978023838153665,0.0,0.0,0.0,0.0,-3.7828903161672063,-8.364600464021791,-5.002768658709825,0.007148329089185154,0.013969504849682787,-1.00198955779617
14979,1.0,299.96144,56220.289000000004,0.0,-0.149790234368956,0.0,0.0,0.0,0.0,-3.7469776928729064,-8.33804449612592,-5.004541745059815,0.0024538129970974876,0.0028832781400573975,-1.007438056896395
14980,1.0,300.31572,56272.174000000006,0.0,-0.14980023035637535,0.0,0.0,0.0,0.0,-3.7504444267650463,-8.350520036657162,-5.004371316392995,-0.013923177028610588,0.002695716325971487,-1.000357759040124
14981,1.0,300.59761000000003,56356.055,0.0,-0.1498102263437946,0.0,0.0,0.0,0.0,-3.7595502014387168,-8.362486419013152,-5.0087967875297545,-0.008602647464340201,0.011794990088324889,-1.00760073419995
14982,1.0,300.00952,56312.450999999994,0.0,-0.14982022233121395,0.0,0.0,0.0,0.0,-3.7740496077196966,-8.34531152584312,-4.998217848535695,0.00998756996134641,0.014590297854700288,-1.008327528364179
14983,1.0,300.07405,56185.347,0.0,-0.1498302183186332,0.0,0.0,0.0,0.0,-3.740573141640826,-8.361705507161082,-4.9766638910834855,0.0013415886273294888,-0.0019371979090615481,-1.0190107307935292
14984,1.0,300.04889,56184.679000000004,0.0,-0.14984024729611,0.0,0.0,0.0,0.0,-3.7335018718429462,-8.349274650959252,-4.9959630630881655,-0.008635791685711281,-0.0037285188091761563,-1.018868673129509
14985,1.0,299.71795,56493.187999999995,0.0,-0.14985024328352936,0.0,0.0,0.0,0.0,-3.7770491319907262,-8.358571017976733,-5.036898265803155,0.006577359719409864,0.0013874715302827786,-0.9981917646988571
14986,1.0,299.39462000000003,56549.148,0.0,-0.14986023927094871,0.0,0.0,0.0,0.0,-3.773813115146356,-8.373356768735972,-5.0423590758920955,0.008874531141148032,0.03124318686471247,-1.002822611498386
14987,1.0,299.25154,56256.386,0.0,-0.14987023525836796,0.0,0.0,0.0,0.0,-3.7380875378205167,-8.342187270484782,-5.020261712411255,-0.003062570110802137,-0.001058041935245609,-0.9897070312764792
14988,1.0,300.15323,56322.867,0.0,-0.1498802312457873,0.0,0.0,0.0,0.0,-3.7596005599686864,-8.368019271184203,-4.993125253533095,0.0018133849276671585,-0.014943274672786383,-1.015311658653459
14989,1.0,300.30816,56619.953,0.0,-0.14989022723320655,0.0,0.0,0.0,0.0,-3.7957485612612167,-8.379126924080442,-5.036176325106905,0.0009769360574135822,-0.005921576351339084,-1.006035739022997
14990,1.0,300.58168,56559.293,0.0,-0.1499002232206259,0.0,0.0,0.0,0.0,-3.8072197682933364,-8.372227704149543,-5.0131653140108945,-0.004297151320245816,0.012612480269004887,-1.0245039648856689
14991,1.0,300.25211,56308.1,0.0,-0.14991021920804515,0.0,0.0,0.0,0.0,-3.7507296566681965,-8.374232216822373,-4.991294411927405,-0.020268536216348783,-0.011533446932762589,-1.0203610892017991
14992,1.0,300.07569,56196.712999999996,0.0,-0.14992024818552185,0.0,0.0,0.0,0.0,-3.739389057573967,-8.356131719685992,-4.986876742816415,-0.030166436380945474,-0.006587742695834583,-1.022923092079649
14993,1.0,300.05512999999996,56405.165,0.0,-0.14993024417294132,0.0,0.0,0.0,0.0,-3.7606641685986566,-8.374329995457021,-5.010767558974255,0.02201811516401878,0.003069194233330887,-1.005633732045822
14994,1.0,299.69375,56595.518,0.0,-0.14994024016036067,0.0,0.0,0.0,0.0,-3.8078262998031964,-8.377708981890502,-5.018089101546836,0.025716542877025177,0.019510296848516382,-1.013896350913779
14995,1.0,299.51309,56559.21599999999,0.0,-0.14995023614777991,0.0,0.0,0.0,0.0,-3.768034651151067,-8.378787383971932,-5.045767243928455,0.015489907902984885,-0.013748485618619886,-1.011461277875956
14996,1.0,299.90039,56319.248,0.0,-0.14996023213519927,0.0,0.0,0.0,0.0,-3.760285415711276,-8.374646737438281,-4.984712947227866,0.0011179107293291988,-0.028712468083699972,-1.0064393165378271
14997,1.0,299.75045,56350.294,0.0,-0.1499702281226185,0.0,0.0,0.0,0.0,-3.7298822385107164,-8.368112084893362,-5.0310878844297156,0.004546887477692855,0.0005722502901542065,-0.999820108272062
14998,1.0,299.49225,56680.56,0.0,-0.14998022411003786,0.0,0.0,0.0,0.0,-3.772058571273196,-8.392708832395872,-5.064707522747716,-0.004958203791486615,0.01891397383341388,-1.0083005455140162
14999,1.0,299.62523,56650.777,0.0,-0.14999022009745722,0.0,0.0,0.0,0.0,-3.7811473233451864,-8.389245340904052,-5.050028872524045,0.0013903015378120785,-0.0017227464638218384,-0.99999467099929
15000,1.0,299.09836,56228.075999999994,0.0,-0.15000021608487646,0.0,0.0,0.0,0.0,-3.738610678847146,-8.356038703326812,-4.997281706768305,-0.01041647447302599,0.0018898093164596583,-1.005144575427546
15001,1.0,299.33173,56146.553,0.0,-0.15001024506235328,0.0,0.0,0.0,0.0,-3.7130392860734465,-8.366115779546341,-4.987995066951785,0.006486640702181593,0.009367572357657412,-1.016956974165839
15002,1.0,299.81531,56497.977,0.0,-0.15002024104977263,0.0,0.0,0.0,0.0,-3.799385723820176,-8.352899654517012,-5.0216887738520954,-0.0026526113494923574,0.012936353504468687,-1.000990118295033
15003,1.0,299.83116,56672.739,0.0,-0.15003023703719176,0.0,0.0,0.0,0.0,-3.800992535828757,-8.382531444416442,-5.043573557461955,-0.0032574332024586272,-0.020561398932502084,-1.009343088674407
15004,1.0,299.64926,56529.957,0.0,-0.15004023302461122,0.0,0.0,0.0,0.0,-3.760869554393926,-8.389013509281172,-5.033812311298595,-0.009158278963376761,-0.005418733156012325,-0.997697703950097
15005,1.0,299.91811,56469.632000000005,0.0,-0.15005022901203036,0.0,0.0,0.0,0.0,-3.772377137104636,-8.362446395634203,-5.030534649875116,0.014213644421527486,-0.0040684522613749765,-0.987453046296528
15006,1.0,300.26721000000003,56659.674000000006,0.0,-0.15006022499944982,0.0,0.0,0.0,0.0,-3.7753689606749066,-8.404428387027501,-5.043328756237795,0.011227741271591788,0.0052000279855278055,-1.004092487451213
15007,1.0,300.31334,56686.971,0.0,-0.15007022098686917,0.0,0.0,0.0,0.0,-3.7912843839706363,-8.393134904062922,-5.047004624950575,-0.003376678553727227,-0.004676426740702386,-1.004307985482481
15008,1.0,299.90121,56475.134000000005,0.0,-0.15008021697428842,0.0,0.0,0.0,0.0,-3.783677510169896,-8.38210699394955,-5.001246047784555,-0.003451604446946837,0.006029797034894634,-1.006292293948317
15009,1.0,299.70224,56289.242,0.0,-0.15009024595176534,0.0,0.0,0.0,0.0,-3.7467414029495867,-8.375600003132362,-4.9881825182202855,-0.004756580193837915,0.022549353072197877,-1.01304310313707
15010,1.0,299.68057000000005,56357.880999999994,0.0,-0.1501002419391846,0.0,0.0,0.0,0.0,-3.7494014884371163,-8.370408413594992,-5.011578767004315,-0.0029929080518520277,0.00979327439107093,-1.016527660098469
15011,1.0,299.517,56592.35,0.0,-0.15011023792660372,0.0,0.0,0.0,0.0,-3.7719694052643966,-8.399971809112671,-5.030719973318405,-0.00010987992112430388,-0.016486794013869883,-1.011065188279365
15012,1.0,299.35485,56639.032,0.0,-0.15012023391402318,0.0,0.0,0.0,0.0,-3.762689351573526,-8.395851528906032,-5.058310570891385,-0.009841104254091371,-0.0035571964557679567,-1.000532544682374
15013,1.0,299.4929,56416.847,0.0,-0.1501302299014423,0.0,0.0,0.0,0.0,-3.737835339870626,-8.396014864822153,-5.015462655962625,-0.003626084087666637,0.0012892751326165487,-1.026666443249089
15014,1.0,299.47557,56425.352999999996,0.0,-0.15014022588886167,0.0,0.0,0.0,0.0,-3.762258821606036,-8.398666641658862,-4.990972907670675,0.0044254430697322255,-0.01049995918851529,-1.0193582755778292
15015,1.0,300.26845,56723.58900000001,0.0,-0.15015022187628113,0.0,0.0,0.0,0.0,-3.7945447188174066,-8.400685339833093,-5.0473245080071445,-0.004619426457651896,-0.015191332482767786,-1.024198571305529
15016,1.0,299.73411,56643.600999999995,0.0,-0.15016021786370026,0.0,0.0,0.0,0.0,-3.7930534173202264,-8.4012528612141,-5.023934136073695,0.02122576270506968,0.005653054435713035,-1.018833006725989
15017,1.0,299.97935,56407.384000000005,0.0,-0.1501702468411773,0.0,0.0,0.0,0.0,-3.7651309803394963,-8.392902160514952,-4.9884033054170756,0.016694789941397482,0.015797063525048786,-1.020759397816109
15018,1.0,299.89099,56473.397000000004,0.0,-0.15018024282859643,0.0,0.0,0.0,0.0,-3.7665596629804967,-8.382254624489121,-5.017688158482265,0.006986816516620103,0.015081743404952185,-1.0120352840576061
15019,1.0,300.31147999999996,56636.453,0.0,-0.15019023881601568,0.0,0.0,0.0,0.0,-3.7944346798565465,-8.390092721962683,-5.031540199274355,-0.006203319964870014,-0.007517494401468932,-1.0079176484337269
15020,1.0,299.75977,56641.369000000006,0.0,-0.15020023480343503,0.0,0.0,0.0,0.0,-3.794743417162017,-8.390386564491683,-5.0324318593623545,-0.009629163439949441,0.009420198541351212,-0.995945784394696
15021,1.0,300.62429,56775.84099999999,0.0,-0.15021023079085427,0.0,0.0,0.0,0.0,-3.7924308764587864,-8.39562364895854,-5.070383445832886,-0.014135974748362087,0.008083671402246253,-0.980494895739812
15022,1.0,301.04037,56670.264,0.0,-0.15022022677827385,0.0,0.0,0.0,0.0,-3.7956219049987165,-8.39205609668145,-5.038667096502725,-0.011830791254108188,-0.021619954484223377,-1.015119749084519
15023,1.0,301.0091,56508.224,0.0,-0.1502302227656931,0.0,0.0,0.0,0.0,-3.761513677482496,-8.390497515377634,-5.0250779941115855,-0.018933691680359882,-0.013878924343743188,-0.9829342750905601
15024,1.0,300.67776000000003,56705.282,0.0,-0.15024021875311222,0.0,0.0,0.0,0.0,-3.7677494212479163,-8.418645096530582,-5.050595279329945,-0.007437265157225923,0.01002365747160797,-1.023158470077879
15025,1.0,299.8032,56904.732,0.0,-0.15025024773058926,0.0,0.0,0.0,0.0,-3.806522449574517,-8.427374246142083,-5.063721022450355,0.012366264547705287,0.022596662732616977,-1.0042893822106451
15026,1.0,299.96635,56682.792,0.0,-0.1502602437180084,0.0,0.0,0.0,0.0,-3.783577502385026,-8.41979179166875,-5.026784205954975,-0.005895692674884564,0.003661685541855226,-1.029253777379439
15027,1.0,300.09761000000003,56583.422999999995,0.0,-0.15027023970542763,0.0,0.0,0.0,0.0,-3.750471480542717,-8.422298369766132,-5.027177752293816,0.012570564138868088,-0.011803453766410187,-1.013152909050407
15028,1.0,300.23295,56764.932,0.0,-0.150280235692847,0.0,0.0,0.0,0.0,-3.8096798382111263,-8.400892448153533,-5.044549722608296,0.02054171249630918,0.007144155613348264,-1.007078089665869
15029,1.0,299.41123,56749.420999999995,0.0,-0.15029023168026634,0.0,0.0,0.0,0.0,-3.7996846325996763,-8.406071777364692,-5.044650540993245,0.03509589913069557,0.012048176970312489,-0.9953954680003841
15030,1.0,299.61206,56587.474,0.0,-0.1503002276676858,0.0,0.0,0.0,0.0,-3.770577807577056,-8.397605667479151,-5.032995631717996,-0.0031967213842918375,0.00981690196485279,-0.9985546399571701
15031,1.0,299.88175,56541.385,0.0,-0.15031022365510494,0.0,0.0,0.0,0.0,-3.780983886104057,-8.383193198056752,-5.022992320105745,-0.019817254886810784,-0.006145296400543535,-0.9909804840021591
15032,1.0,300.40303,56522.33900000001,0.0,-0.15032021964252418,0.0,0.0,0.0,0.0,-3.770690784963207,-8.387246502431783,-5.023442405800165,-0.014128405770115086,-0.0005642003524822394,-1.003437269274048
15033,1.0,300.0583,56672.147000000004,0.0,-0.1503302486200011,0.0,0.0,0.0,0.0,-3.7678290627057764,-8.401907826078743,-5.057180797029885,-0.02109138243705738,-0.0010895661723568089,-0.998757806734721
15034,1.0,299.74764,56927.835999999996,0.0,-0.15034024460742035,0.0,0.0,0.0,0.0,-3.835917949550626,-8.419238050489101,-5.049484655895336,-0.0008298801015777891,-0.03219297204469897,-1.008625667073603
15035,1.0,299.60627,56868.875,0.0,-0.1503502405948396,0.0,0.0,0.0,0.0,-3.796750564285106,-8.427757963954951,-5.062209354626165,-0.006122610136104574,-0.015205570673172984,-1.022194666582759
15036,1.0,300.15677,56657.558,0.0,-0.15036023658225894,0.0,0.0,0.0,0.0,-3.7836053667627763,-8.409535167531502,-5.029342459807455,0.004546475388877185,0.013711215240191588,-1.016426335088469
15037,1.0,299.58177,56803.025,0.0,-0.1503702325696783,0.0,0.0,0.0,0.0,-3.810379690055196,-8.413702665192803,-5.042618974542745,0.013995244441973087,0.00905314990852633,-1.009251126095331
15038,1.0,299.19253,56853.523,0.0,-0.15038022855709765,0.0,0.0,0.0,0.0,-3.810639994005886,-8.410429563394771,-5.060981700805005,-0.014567480475698384,0.0023830882414424977,-1.0038388202886779
15039,1.0,299.85239,56594.32,0.0,-0.1503902245445169,0.0,0.0,0.0,0.0,-3.772312187773226,-8.398481824840621,-5.032466208540745,-0.000909760048113826,-0.007836221339674833,-1.0070102323066719
15040,1.0,300.00482,56515.884000000005,0.0,-0.15040022053193614,0.0,0.0,0.0,0.0,-3.7703558044801464,-8.392821708457012,-5.0162399201143355,0.00027062377123598675,-0.0009729411871718191,-0.9979912526365681
15041,1.0,299.92307999999997,56702.225999999995,0.0,-0.15041024950941306,0.0,0.0,0.0,0.0,-3.7724069266575766,-8.418804480771312,-5.0448495433128855,-0.009021228984000982,0.01052575653606129,-1.0217193509608489
15042,1.0,299.50425,56730.239,0.0,-0.1504202454968323,0.0,0.0,0.0,0.0,-3.7751257806509066,-8.431166131991311,-5.038284189289936,-0.014808322931717686,-0.02720073338500337,-1.002133104937837
15043,1.0,299.81107000000003,56813.679000000004,0.0,-0.15043024148425144,0.0,0.0,0.0,0.0,-3.779483769331007,-8.446009232706212,-5.0444468777231455,-0.010743580989558889,-0.014838198610916186,-1.039663604931809
15044,1.0,300.05002,56900.983,0.0,-0.150440237471671,0.0,0.0,0.0,0.0,-3.7903547270038858,-8.441143403075992,-5.064979884374595,0.0016002240590798184,-0.0011683699763591388,-1.018637550781699
15045,1.0,299.98933999999997,56666.856,0.0,-0.15045023345909025,0.0,0.0,0.0,0.0,-3.776294767291276,-8.422569414167883,-5.026444969821496,0.013905370171353187,-0.015586288252496885,-1.034118796409579
15046,1.0,300.27737,56673.863,0.0,-0.1504602294465096,0.0,0.0,0.0,0.0,-3.789637751233126,-8.416022501296752,-5.021778953110995,0.018950728467541283,-0.017257557152938283,-1.0062310936422771
15047,1.0,300.37726000000004,56899.764,0.0,-0.15047022543392885,0.0,0.0,0.0,0.0,-3.8056896593173266,-8.422227239609112,-5.0681905699664656,-4.601808267563115e-05,-0.0039462322104627965,-1.039169544183049
15048,1.0,299.73726,56795.662000000004,0.0,-0.15048022142134798,0.0,0.0,0.0,0.0,-3.799494952180956,-8.431909452264671,-5.033058757199225,0.005420741113735495,0.003017743723728117,-0.9968527445592061
15049,1.0,299.5505,56701.335,0.0,-0.15049021740876745,0.0,0.0,0.0,0.0,-3.786458577719367,-8.418871963227971,-5.030459466717695,-0.012924096218008987,0.016111078850289683,-1.0181293045315392
15050,1.0,300.23544,56918.02,0.0,-0.15050024638624426,0.0,0.0,0.0,0.0,-3.8148227917436968,-8.425887808245383,-5.060946237051505,-0.003392797133668007,0.019006274838023283,-0.994929068979354
15051,1.0,299.43552,56867.532999999996,0.0,-0.15051024237366362,0.0,0.0,0.0,0.0,-3.7956720608786663,-8.43130454195497,-5.059333446867336,-0.00947460267499548,0.03430463591560397,-1.014548174703109
15052,1.0,299.74273999999997,56781.28599999999,0.0,-0.15052023836108297,0.0,0.0,0.0,0.0,-3.7736655859317962,-8.438881220902733,-5.047546207129025,0.002290593807389008,0.013812183586156388,-1.0102256092465052
15053,1.0,299.56487000000004,56879.51,0.0,-0.1505302343485022,0.0,0.0,0.0,0.0,-3.7598639036696766,-8.4480761615852,-5.082010490730386,-0.014363776675594384,0.0015410946335941986,-1.026695523526959
15054,1.0,299.6274,56936.002,0.0,-0.15054023033592157,0.0,0.0,0.0,0.0,-3.8147747636889564,-8.436136123731812,-5.056212028609275,-0.01005749475604745,-0.021115234344411378,-0.995708602811288
15055,1.0,299.44401,56795.643,0.0,-0.1505502263233408,0.0,0.0,0.0,0.0,-3.7661323754133265,-8.426051042836491,-5.072273866544455,0.007895753126775163,0.001020067854622859,-1.000226340502154
15056,1.0,299.79355,56875.108,0.0,-0.15056022231075994,0.0,0.0,0.0,0.0,-3.8030043439023062,-8.429215625548812,-5.056392792427115,0.004009579998764737,-0.016244646491721786,-1.007578381902744
15057,1.0,299.87163,56969.051,0.0,-0.1505702182981794,0.0,0.0,0.0,0.0,-3.806296190827186,-8.432535944801502,-5.078336952492836,0.014487205736525885,1.0568677810297289e-05,-0.989839696112072
15058,1.0,300.61217999999997,56941.71400000001,0.0,-0.1505802472756561,0.0,0.0,0.0,0.0,-3.817411949724226,-8.4392973627188,-5.052149908958375,-0.0021552227834289277,-0.00973508526167811,-1.0205635365717791
15059,1.0,299.97292999999996,56882.407999999996,0.0,-0.15059024326307557,0.0,0.0,0.0,0.0,-3.778753216008907,-8.44891786844327,-5.063160593820045,-0.01057541997646269,0.009099810278281353,-1.0233023515920792
15060,1.0,299.97224,56859.225999999995,0.0,-0.15060023925049493,0.0,0.0,0.0,0.0,-3.8271427983845867,-8.427421564921751,-5.029220565820425,-0.002972058607194347,0.002727028489836758,-1.0223589144239689
15061,1.0,300.05197999999996,56928.754,0.0,-0.15061023523791417,0.0,0.0,0.0,0.0,-3.7939599721846964,-8.460704601556532,-5.050255232596386,-0.01943469724530528,0.008682392881660462,-1.014935742866359
15062,1.0,299.24346,56819.807,0.0,-0.15062023122533352,0.0,0.0,0.0,0.0,-3.8149396194802265,-8.419386390303742,-5.037476527635225,0.017252509140940085,0.013882466666092788,-1.032149848815259
15063,1.0,299.23438,56880.859000000004,0.0,-0.15063022721275265,0.0,0.0,0.0,0.0,-3.7863031451540263,-8.445126894519133,-5.058930882602605,-0.006878113222041923,0.0004892836899710406,-1.007113046794319
15064,1.0,300.05335,56880.792,0.0,-0.15064022320017212,0.0,0.0,0.0,0.0,-3.792771733792426,-8.427352765239963,-5.070215854266346,0.01959266698889568,0.004593402040758485,-1.0097464027442111
15065,1.0,299.54834,56962.83,0.0,-0.15065021918759147,0.0,0.0,0.0,0.0,-3.779103699218496,-8.446180066673072,-5.089994293568325,-0.01057874141029049,-0.006143920305582724,-1.003616401759227
15066,1.0,299.80331,57078.982,0.0,-0.15066024816506807,0.0,0.0,0.0,0.0,-3.842205166421126,-8.443637214222113,-5.064743087826225,0.025273410104791377,-0.00026694263362268676,-0.999736119971273
15067,1.0,299.73228,57005.645,0.0,-0.15067024415248742,0.0,0.0,0.0,0.0,-3.8142758393397167,-8.439201002634292,-5.074815807070324,-0.005448396863289905,-0.004682700177371526,-0.9993599103416442
15068,1.0,299.61237,56764.890999999996,0.0,-0.15068024013990688,0.0,0.0,0.0,0.0,-3.7982748977355465,-8.432784900351072,-5.0240496465850955,0.004260783139706556,-0.017602798819760984,-1.0117454641315031
15069,1.0,300.15665,56973.858,0.0,-0.15069023612732602,0.0,0.0,0.0,0.0,-3.803433961944706,-8.457559067946091,-5.057637266199936,-0.017751024137139682,-0.0038349656971066464,-1.032402756040219
15070,1.0,299.85975,57155.39599999999,0.0,-0.15070023211474548,0.0,0.0,0.0,0.0,-3.8072781314990967,-8.475479915839742,-5.091055267748035,-0.013875126682368386,0.007528377011517962,-1.0306509479423291
15071,1.0,299.60733999999997,56958.577000000005,0.0,-0.1507102281021646,0.0,0.0,0.0,0.0,-3.7896341035327668,-8.47829259679233,-5.046058553332205,-0.006192054751583223,0.01080819797493609,-1.048758233854379
15072,1.0,300.02126,56864.983,0.0,-0.15072022408958397,0.0,0.0,0.0,0.0,-3.801417796895726,-8.450548795804233,-5.033568320674516,-0.0013980826906300186,-0.0024020775615665978,-1.001392692692264
15073,1.0,299.97581,56947.119000000006,0.0,-0.15073022007700343,0.0,0.0,0.0,0.0,-3.8121281544277563,-8.437069833698962,-5.061304218311835,0.00947453073423838,0.0011915777606245688,-1.011838004263136
15074,1.0,299.17377999999997,57007.2,0.0,-0.15074024905448002,0.0,0.0,0.0,0.0,-3.8048049906550165,-8.455615451604272,-5.068344786631686,0.007150964755345273,-0.014122213798753988,-0.9988474996335731
15075,1.0,300.04485,56994.624,0.0,-0.15075024504189938,0.0,0.0,0.0,0.0,-3.7936009776742665,-8.444660090198061,-5.086681472366375,0.0026362037906230576,-0.003177451495215047,-1.0217095224348791
15076,1.0,300.06532999999996,57102.558,0.0,-0.15076024102931873,0.0,0.0,0.0,0.0,-3.794925498204986,-8.463177033125541,-5.099649351121205,-0.01209824976375429,0.007869328172117222,-0.9888194343213801
15077,1.0,300.10683,56951.100999999995,0.0,-0.15077023701673797,0.0,0.0,0.0,0.0,-3.8126269774519863,-8.455319987875113,-5.043765771005925,-0.0029361587508513073,0.007636195333458803,-1.022317979119929
15078,1.0,299.712,57002.678,0.0,-0.15078023300415733,0.0,0.0,0.0,0.0,-3.824925807165786,-8.45531248982437,-5.047152356815155,-0.000980844254241791,0.008137164928025653,-1.0018608041059631
15079,1.0,300.19664,57212.685,0.0,-0.15079022899157657,0.0,0.0,0.0,0.0,-3.839990201702526,-8.473914444435241,-5.0773229931177655,-0.006961009137898113,-0.00968997040230062,-1.039102467026429
15080,1.0,299.69592,57138.807,0.0,-0.15080022497899592,0.0,0.0,0.0,0.0,-3.8268069059764365,-8.458822185520752,-5.083141480492005,0.00948871907273866,-0.007863729863989711,-1.000746228995963
15081,1.0,299.47042999999996,56974.471,0.0,-0.1508102209664154,0.0,0.0,0.0,0.0,-3.783819263858886,-8.460540252390313,-5.074457015209915,-0.008308342082694523,-0.01006788249474764,-1.0438055686905892
15082,1.0,298.98785,57048.399000000005,0.0,-0.1508202499438921,0.0,0.0,0.0,0.0,-3.8032142893230265,-8.450072669582243,-5.088001737246675,0.0014412944636696887,0.004898670889811175,-1.000363017808143
15083,1.0,299.71261,57121.824,0.0,-0.15083024593131134,0.0,0.0,0.0,0.0,-3.8224675610981764,-8.453171492363072,-5.087969211918465,-0.008589505914518231,-0.009422646249617781,-1.005013845899644
15084,1.0,299.97783,57030.512,0.0,-0.1508402419187307,0.0,0.0,0.0,0.0,-3.8175128694341867,-8.453112622532261,-5.065226104148895,0.0012899078059789887,0.0013857493090878087,-0.985571228078307
15085,1.0,300.29200000000003,57034.755,0.0,-0.15085023790614993,0.0,0.0,0.0,0.0,-3.802337827986526,-8.458137329778161,-5.076666305727954,-0.011934208625564689,-0.005397664342707995,-1.0143478551583391
15086,1.0,299.99663,57024.861,0.0,-0.15086023389356928,0.0,0.0,0.0,0.0,-3.8106306721049665,-8.446405818795352,-5.077097443645505,-0.011528085826483488,-0.012093980941082988,-1.002830139946629
15087,1.0,300.0364,57005.005,0.0,-0.15087022988098864,0.0,0.0,0.0,0.0,-3.7802419843808366,-8.481393648723383,-5.066462471920915,0.0018213479588780482,-0.013322079579036887,-1.032106481710979
15088,1.0,300.0108,57069.496,0.0,-0.15088022586840788,0.0,0.0,0.0,0.0,-3.8251643262393262,-8.464160189697573,-5.058377344072975,-0.005025926692395345,-0.006713186604589933,-1.0169345813386292
15089,1.0,299.76718,57192.407999999996,0.0,-0.15089022185582723,0.0,0.0,0.0,0.0,-3.8411568578676665,-8.472642207609681,-5.071264770769865,0.0068741247656732936,-0.002683628758903537,-1.0173025937749491
15090,1.0,299.87166,57152.552,0.0,-0.15090021784324648,0.0,0.0,0.0,0.0,-3.8305317146690463,-8.479321045643832,-5.063095745813645,0.0018090547020397983,0.006579131893834763,-1.023014487238669
15091,1.0,299.84584,57037.105,0.0,-0.1509102468207233,0.0,0.0,0.0,0.0,-3.8038861754643363,-8.461616222671502,-5.072353204027285,0.008168271604770643,0.01312671178750559,-1.006099391394279
15092,1.0,300.15898,57216.030999999995,0.0,-0.15092024280814265,0.0,0.0,0.0,0.0,-3.822293890031036,-8.494966235137891,-5.0749846145369855,0.0045685655582823155,0.008157125448370602,-1.035622054257939
15093,1.0,300.60941,57210.528,0.0,-0.1509302387955619,0.0,0.0,0.0,0.0,-3.8091456527584064,-8.479427031604292,-5.101999280753125,-0.0042528561801992255,0.0008039038140641293,-1.015745127046239
15094,1.0,300.50411,56979.215,0.0,-0.15094023478298124,0.0,0.0,0.0,0.0,-3.810331560675446,-8.457781476343042,-5.052145450657935,-0.005282018359769625,0.0036805726250442364,-1.031258594027299
15095,1.0,300.65347,57035.433,0.0,-0.1509502307704006,0.0,0.0,0.0,0.0,-3.8096497446831563,-8.468506222026491,-5.0591915918533354,-0.008383635076425363,-0.004362471703842435,-0.989605341496443
15096,1.0,299.57707999999997,56984.194,0.0,-0.15096022675781984,0.0,0.0,0.0,0.0,-3.802265380604376,-8.446007712831062,-5.0734990885653755,0.00946729450732422,0.016423731354146088,-1.022450512233009
15097,1.0,299.17222000000004,57123.013,0.0,-0.1509702227452392,0.0,0.0,0.0,0.0,-3.797165794176086,-8.493775868920412,-5.073028028593885,0.00926296016168299,-2.218360018360088e-05,-1.016867909482049
15098,1.0,299.97942,57343.482,0.0,-0.15098021873265843,0.0,0.0,0.0,0.0,-3.8547145495057067,-8.482816150538772,-5.093455859884955,0.01174596296898629,0.004642828380636486,-1.036828024526959
15099,1.0,300.09771,57300.971,0.0,-0.15099024771013525,0.0,0.0,0.0,0.0,-3.828031722697317,-8.492625627406893,-5.097407028649904,0.002388343868386188,-0.007534360557333493,-1.007302098997977
15100,1.0,300.05637,57034.904,0.0,-0.1510002436975546,0.0,0.0,0.0,0.0,-3.811154218431636,-8.480139751724632,-5.045892582965825,0.005609979147461835,0.003982908317707447,-1.029627666666339
15101,1.0,300.15314,57242.322,0.0,-0.15101023968497373,0.0,0.0,0.0,0.0,-3.8355866167679262,-8.481006992485222,-5.083642836641486,0.0023853318811389275,-0.008045154422219923,-1.0035863588937621
15102,1.0,299.24291,57353.075999999994,0.0,-0.1510202356723932,0.0,0.0,0.0,0.0,-3.8383092197866264,-8.495661020731461,-5.099932858499185,-0.007050993751453903,0.001066644225944589,-1.022139140477279
15103,1.0,300.03191,57123.861,0.0,-0.15103023165981255,0.0,0.0,0.0,0.0,-3.8149892687351263,-8.4827657920088,-5.066472097796866,-0.008814319361905592,0.014595521158965787,-1.006235410087703
15104,1.0,300.75357,56970.245,0.0,-0.1510402276472318,0.0,0.0,0.0,0.0,-3.7890464184747663,-8.455980930915342,-5.072504380942205,-0.014679323021736386,0.01927559063510268,-1.020495142190029
15105,1.0,301.02064,57110.769,0.0,-0.15105022363465115,0.0,0.0,0.0,0.0,-3.814702316306807,-8.474165730460042,-5.071379673331205,-0.006520216770745294,-0.005892959534064824,-1.017642437858489
15106,1.0,300.62721,57278.486,0.0,-0.1510602196220704,0.0,0.0,0.0,0.0,-3.8303889477299564,-8.487852712810843,-5.0929877383387545,-0.005473004047268444,-0.022988955681083275,-1.009842661503711
15107,1.0,300.49459,57420.885,0.0,-0.1510702485995471,0.0,0.0,0.0,0.0,-3.859876957440196,-8.483974092753051,-5.110664088983275,0.008313525464906081,-0.01757407216617588,-1.000017783234071
15108,1.0,299.9321,57519.219000000005,0.0,-0.15108024458696656,0.0,0.0,0.0,0.0,-3.8470581277750764,-8.524578975935441,-5.112769318716046,0.013495763818428185,0.003073788815909337,-1.0111944283296201
15109,1.0,300.45425,57378.117999999995,0.0,-0.1510902405743857,0.0,0.0,0.0,0.0,-3.847567893900386,-8.495667404207092,-5.098279842286045,-0.002308200547751658,0.003607190519676986,-1.015002516047949
15110,1.0,300.12217000000004,57346.155999999995,0.0,-0.15110023656180527,0.0,0.0,0.0,0.0,-3.8270247547479364,-8.513681977734992,-5.091092758001736,-0.0013600519693266787,0.015746747551582986,-1.013087220046424
15111,1.0,300.23803,57346.872,0.0,-0.1511102325492245,0.0,0.0,0.0,0.0,-3.836093444467946,-8.489369649535552,-5.106553941277635,-0.004688853138603776,0.004591727239668195,-1.0165382992245189
15112,1.0,300.08527000000004,57189.98,0.0,-0.15112022853664364,0.0,0.0,0.0,0.0,-3.8234783793979363,-8.476017748992822,-5.084829757808625,0.008815695152891372,0.004886043057789905,-0.995489710392185
15113,1.0,300.19007999999997,57014.405,0.0,-0.1511302245240631,0.0,0.0,0.0,0.0,-3.782068772986126,-8.486308924958482,-5.062577671037515,0.007649475799869483,-0.011304767530943689,-1.0288309481127091
15114,1.0,300.0745,57194.718,0.0,-0.15114022051148224,0.0,0.0,0.0,0.0,-3.811490617464836,-8.487647732315612,-5.086627668786066,0.008220096510285362,-0.01020319951247739,-1.000668360725778
15115,1.0,299.3834,57300.793,0.0,-0.15115024948895905,0.0,0.0,0.0,0.0,-3.8281226112312865,-8.502721246103253,-5.087166413864236,0.015747081924115985,-0.0035327359904038973,-1.028363941141619
15116,1.0,298.94322999999997,57211.74,0.0,-0.1511602454763784,0.0,0.0,0.0,0.0,-3.806816089453496,-8.506672212218183,-5.077452182505516,-3.8176577641984865e-05,0.0008653486376182611,-1.027846069015509
15117,1.0,299.2993,57280.367999999995,0.0,-0.15117024146379787,0.0,0.0,0.0,0.0,-3.8106893392857564,-8.510646888385452,-5.090465353539815,0.002167771784592418,-0.004841652064283855,-1.0396944077348491
15118,1.0,299.37717999999995,57347.902,0.0,-0.15118023745121723,0.0,0.0,0.0,0.0,-3.8227479274008465,-8.522216684652301,-5.087365517508886,-0.00989130390644569,0.007117041344647294,-1.0240968409954891
15119,1.0,300.01952,57338.098,0.0,-0.15119023343863647,0.0,0.0,0.0,0.0,-3.8249146614146863,-8.511190902364142,-5.093244495914096,-0.003991182214049016,0.016017581197312183,-1.023373684399119
15120,1.0,300.28335,57368.294,0.0,-0.1512002294260556,0.0,0.0,0.0,0.0,-3.8431774812170865,-8.512446420563052,-5.082904785268645,-0.00950636755900543,0.0020643543118109083,-1.026141883672319
15121,1.0,300.30724,57330.872,0.0,-0.15121022541347495,0.0,0.0,0.0,0.0,-3.851032094667276,-8.49669686630869,-5.079424676475186,-0.02654128792842118,-0.0030736706709476773,-1.005166289377189
15122,1.0,299.82768,57262.093,0.0,-0.1512202214008942,0.0,0.0,0.0,0.0,-3.818866976867826,-8.489960880968903,-5.097418579701046,-0.020310518207742084,-0.0017342074370279483,-1.018562671599309
15123,1.0,300.17188,57398.551,0.0,-0.151230250378371,0.0,0.0,0.0,0.0,-3.8312163677616167,-8.502533896159761,-5.113976099585145,-0.007055206237419643,0.004817122393937966,-0.9871980416438612
15124,1.0,299.80974,57529.425,0.0,-0.15124024636579037,0.0,0.0,0.0,0.0,-3.8563271370398566,-8.507079842733411,-5.1241017104844655,0.007726046603301432,0.007917744808270571,-1.018992086991689
15125,1.0,299.95219,57390.637,0.0,-0.15125024235320972,0.0,0.0,0.0,0.0,-3.8367259151803665,-8.495725058137783,-5.112869731800955,0.013278296028965788,-0.013642820858441587,-0.981574341468845
15126,1.0,299.91505,57292.005,0.0,-0.15126023834062918,0.0,0.0,0.0,0.0,-3.8470920716534263,-8.517993762210532,-5.050253307421196,0.009530991765585651,-0.006152151746745104,-1.048787212807239
15127,1.0,299.82383,57429.816,0.0,-0.15127023432804831,0.0,0.0,0.0,0.0,-3.856554003737246,-8.505489344051442,-5.0951866937057755,-0.007777087253238753,-0.007986211130777672,-1.005526773365266
15128,1.0,299.5894,57489.386,0.0,-0.15128023031546756,0.0,0.0,0.0,0.0,-3.849102258526816,-8.527646894588223,-5.098588680916525,-0.0027790362869945275,-0.009712799433678672,-1.052921779840289
15129,1.0,299.7565,57378.565,0.0,-0.1512902263028869,0.0,0.0,0.0,0.0,-3.815879712923006,-8.519451423804393,-5.106319880504536,-0.012345630722668888,-0.0026938332006606375,-1.005194052429929
15130,1.0,300.00049,57304.862,0.0,-0.15130022229030637,0.0,0.0,0.0,0.0,-3.8208679431653065,-8.491674084237982,-5.106705219517566,-0.004350528322263716,0.0007793335326542313,-1.038301796797409
15131,1.0,299.93453,57301.934,0.0,-0.15131021827772573,0.0,0.0,0.0,0.0,-3.8065372430259763,-8.519898368423501,-5.091921495258525,-0.01184853225010909,-0.003387204803716087,-1.0107936980475711
15132,1.0,300.1687,57240.045999999995,0.0,-0.15132024725520232,0.0,0.0,0.0,0.0,-3.832923896830136,-8.49899542416054,-5.0676253790606856,-0.017739628113264985,-0.008113928164807362,-1.0348554292322791
15133,1.0,300.5281,57428.926,0.0,-0.15133024324262168,0.0,0.0,0.0,0.0,-3.8360681132154464,-8.511821245251351,-5.109070043925955,-0.00041808428743920665,-0.0034424910728974166,-1.0149511442678791
15134,1.0,300.14324,57421.78599999999,0.0,-0.15134023923004114,0.0,0.0,0.0,0.0,-3.8216419649166964,-8.529686567039523,-5.103460590047345,0.003254894301683057,0.008964972527848902,-1.0373005030485891
15135,1.0,299.97533,57380.918,0.0,-0.15135023521746027,0.0,0.0,0.0,0.0,-3.8044792307478668,-8.519113504896042,-5.118773433508605,0.007749131480329733,0.009047289067297912,-1.013694207518829
15136,1.0,300.47711,57517.62,0.0,-0.15136023120487951,0.0,0.0,0.0,0.0,-3.8236265165625567,-8.544309083207652,-5.115984563933365,-0.0019518264034052678,-0.007910449407550571,-1.0290762559619189
15137,1.0,300.15109,57638.117999999995,0.0,-0.15137022719229887,0.0,0.0,0.0,0.0,-3.8594520003482566,-8.530986566917823,-5.130110080927445,0.01148200118543529,0.00014053107102183685,-0.9871116823378381
15138,1.0,299.96406,57523.655,0.0,-0.15138022317971822,0.0,0.0,0.0,0.0,-3.8654843848186067,-8.520085617041982,-5.100184752474045,0.013490633733171888,-0.0095065324147967,-1.014134059387239
15139,1.0,300.0875,57481.530999999995,0.0,-0.15139021916713769,0.0,0.0,0.0,0.0,-3.8432161873709063,-8.532080167750753,-5.097653755049255,0.013519737315794186,0.004253414177029296,-1.0123560689067652
15140,1.0,300.06284,57569.026,0.0,-0.1514002481446144,0.0,0.0,0.0,0.0,-3.8571668173977263,-8.511542702798861,-5.130836682574155,0.003943048983948636,-0.007273173660506354,-1.011399256837335
15141,1.0,299.82249,57577.71599999999,0.0,-0.15141024413203363,0.0,0.0,0.0,0.0,-3.865886645108306,-8.51249414464276,-5.123807158680395,0.007393676049849013,0.003758816709691327,-0.988875213739385
15142,1.0,300.11987999999997,57593.013,0.0,-0.151420240119453,0.0,0.0,0.0,0.0,-3.8570062172568758,-8.526542553304232,-5.123288982579255,0.0006344867457464664,0.009840028283810181,-1.0158170678033391
15143,1.0,299.81555,57435.705,0.0,-0.15143023610687223,0.0,0.0,0.0,0.0,-3.8600758584348265,-8.508261191025001,-5.090682999661295,-0.0034310021339885462,0.0023914350917912676,-1.002360012165231
15144,1.0,299.79896,57467.483,0.0,-0.15144023209429147,0.0,0.0,0.0,0.0,-3.831638386428267,-8.549845279104034,-5.087196203417175,-0.014083189484402587,-0.015209000524761485,-1.029058929385209
15145,1.0,300.041,57533.176,0.0,-0.15145022808171082,0.0,0.0,0.0,0.0,-3.8419607704970065,-8.535937408231431,-5.110750721866824,0.002632141974947188,0.002401500616959658,-1.032755569725039
15146,1.0,300.9785,57622.558,0.0,-0.15146022406913018,0.0,0.0,0.0,0.0,-3.8325635850945763,-8.555285520215943,-5.127969691416205,0.011225292246100091,0.0014922768517262586,-1.0206256488029088
15147,1.0,301.00341000000003,57458.954000000005,0.0,-0.15147022005654953,0.0,0.0,0.0,0.0,-3.825294630202186,-8.537378655173672,-5.103413879217736,0.01306132371880229,0.011575477560160688,-1.044015919411349
15148,1.0,300.83533,57366.187000000005,0.0,-0.15148024903402635,0.0,0.0,0.0,0.0,-3.8012296363521565,-8.534521492541693,-5.102137386741755,-0.012669344877866988,0.004372482716155445,-1.00534797525262
15149,1.0,300.29919,57555.155,0.0,-0.1514902450214456,0.0,0.0,0.0,0.0,-3.8461491411103665,-8.551293112171923,-5.097887714497345,-0.01080597591746679,0.016327527310151486,-1.0431642827022989
15150,1.0,300.47992,57690.487,0.0,-0.15150024100886494,0.0,0.0,0.0,0.0,-3.867906255207626,-8.5449266591436,-5.123634602188365,-0.014581692321600986,0.0057108657241435636,-1.012687908314515
15151,1.0,300.1334,57525.332,0.0,-0.1515102369962842,0.0,0.0,0.0,0.0,-3.8466144255562864,-8.536998787711182,-5.102651307192475,-0.007854162047270442,-0.006346188431620034,-1.049957719322759
15152,1.0,299.83488,57408.316,0.0,-0.15152023298370332,0.0,0.0,0.0,0.0,-3.833082875770826,-8.532700783437003,-5.084911121791655,-0.01925641183720988,-0.03096232204299327,-1.020679655033239
15153,1.0,299.72339,57534.712,0.0,-0.1515302289711229,0.0,0.0,0.0,0.0,-3.860142226316376,-8.52139544544625,-5.1075781344787154,-0.016046076829874484,-0.008329358105668642,-1.042547720016449
15154,1.0,300.15071,57690.422999999995,0.0,-0.15154022495854214,0.0,0.0,0.0,0.0,-3.8637264972201164,-8.556088520920193,-5.116633043997365,0.016090274799236484,-0.01199268227558559,-1.023053700017539
15155,1.0,299.88606,57631.075,0.0,-0.1515502209459615,0.0,0.0,0.0,0.0,-3.873743183733686,-8.532310682148502,-5.112353987500055,0.016152032392831486,-0.002835547879521787,-1.008984823704049
15156,1.0,299.70356,57587.105,0.0,-0.1515602499234383,0.0,0.0,0.0,0.0,-3.8497696863676865,-8.534943713858361,-5.120328569762085,0.006871764906190393,-0.01082258916610639,-1.001702585102848
15157,1.0,299.73482,57629.6,0.0,-0.15157024591085755,0.0,0.0,0.0,0.0,-3.846269109922206,-8.543831437110512,-5.127858841855265,0.010486822400968791,0.002099124900917498,-0.9944172155588381
15158,1.0,300.43225,57750.699,0.0,-0.1515802418982769,0.0,0.0,0.0,0.0,-3.8656612982860667,-8.54356444570916,-5.145544818375735,-0.005453734158191655,-0.004439539405123425,-1.010891537477227
15159,1.0,300.53893,57771.919,0.0,-0.15159023788569614,0.0,0.0,0.0,0.0,-3.866411306010086,-8.554461646559632,-5.140347959937846,-0.005780078102699295,0.008377537134673542,-0.995291204565094
15160,1.0,300.87776,57530.73,0.0,-0.1516002338731155,0.0,0.0,0.0,0.0,-3.8420569279314964,-8.539039878712623,-5.106808672352775,-0.001083825806565279,0.003980897016258946,-1.0358566216560892
15161,1.0,300.11242000000004,57389.90900000001,0.0,-0.15161022986053485,0.0,0.0,0.0,0.0,-3.8190701335128763,-8.533250167641222,-5.092779110143166,-0.0007063937717506373,0.02294553183479768,-1.0213854850528992
15162,1.0,300.61742999999996,57644.762,0.0,-0.1516202258479541,0.0,0.0,0.0,0.0,-3.8526958513314766,-8.557588435043222,-5.112283870593136,-0.008887838560011371,0.006324474988602083,-1.034462389518489
15163,1.0,300.30702,57802.477,0.0,-0.15163022183537345,0.0,0.0,0.0,0.0,-3.8704394817826357,-8.563432658970001,-5.136637539396655,0.0059318111905991835,-0.006984054396847504,-1.011476061194915
15164,1.0,300.38037,57597.2,0.0,-0.15164025081285026,0.0,0.0,0.0,0.0,-3.842485532723796,-8.552068248498422,-5.113556918018775,0.010291817352973291,-0.01087384239591469,-1.024570130117199
15165,1.0,300.11293,57555.527,0.0,-0.1516502468002694,0.0,0.0,0.0,0.0,-3.8213892603417565,-8.554524873365873,-5.119528811458155,0.011295951241823591,0.003180691970359857,-1.022328820895999
15166,1.0,299.37849,57699.835,0.0,-0.15166024278768886,0.0,0.0,0.0,0.0,-3.854568540166296,-8.550722956340651,-5.134017781263105,0.006149111084520014,-0.01026568157989389,-1.025515796435529
15167,1.0,299.80981,57743.468,0.0,-0.151670238775108,0.0,0.0,0.0,0.0,-3.8561761627749562,-8.554783454791393,-5.141612901362685,-0.016474812331437383,-0.007800060267456013,-1.012574839735856
15168,1.0,301.04937,57518.043,0.0,-0.15168023476252745,0.0,0.0,0.0,0.0,-3.844926148239667,-8.529442069790392,-5.109680628436215,-0.0013703175100648086,0.011802442542810388,-1.010083592112489
15169,1.0,300.46518,57441.136,0.0,-0.1516902307499468,0.0,0.0,0.0,0.0,-3.827444746914386,-8.529218445493322,-5.104007745101345,0.006011339671073035,0.014626548903527986,-1.016692414564729
15170,1.0,299.80551,57513.744000000006,0.0,-0.15170022673736594,0.0,0.0,0.0,0.0,-3.8517630532894165,-8.530809349475332,-5.100169553722544,0.006118593207408134,0.00950095984322173,-1.0283187501871591
15171,1.0,299.54225,57882.147000000004,0.0,-0.1517102227247854,0.0,0.0,0.0,0.0,-3.8794251863194567,-8.573338495922632,-5.141963789872316,-0.006513058057463784,0.00860973403421459,-1.0175993747292391
15172,1.0,299.20128,58043.651,0.0,-0.15172025170226222,0.0,0.0,0.0,0.0,-3.923642508758366,-8.580233257553092,-5.139944787723055,0.0015027185966567786,0.007094768688899154,-1.020146482830619
15173,1.0,299.69227,57872.787000000004,0.0,-0.15173024768968135,0.0,0.0,0.0,0.0,-3.883619332458386,-8.574096508322441,-5.134166323727765,-0.02670759368058427,0.009970568536593501,-1.015566795028639
15174,1.0,300.18088,57683.747,0.0,-0.1517402436771007,0.0,0.0,0.0,0.0,-3.8535989611456065,-8.554791459467182,-5.126028202899595,-0.031681012232922474,-0.01795361538863388,-1.0083535486267472
15175,1.0,300.44407,57736.931,0.0,-0.15175023966451995,0.0,0.0,0.0,0.0,-3.8582007377997662,-8.554692667582433,-5.137691927450715,-0.011791698038749989,-0.014515720620840089,-1.003397104040084
15176,1.0,300.77835,57813.68,0.0,-0.1517602356519393,0.0,0.0,0.0,0.0,-3.8509432326335067,-8.56820861331635,-5.154763469110545,0.0012543169909164488,-0.005205510175193855,-1.0157719781738892
15177,1.0,300.67402999999996,57490.420999999995,0.0,-0.15177023163935877,0.0,0.0,0.0,0.0,-3.833315821968817,-8.530379934082951,-5.111956590810835,0.029360819464937273,-0.0017503933981003784,-1.034818344278619
15178,1.0,300.19382,57366.154,0.0,-0.1517802276267779,0.0,0.0,0.0,0.0,-3.8139214044547365,-8.538057634065682,-5.085899445939195,0.002022066014912378,-0.012842710956726887,-1.043176745678529
15179,1.0,299.93998999999997,57639.017,0.0,-0.15179022361419736,0.0,0.0,0.0,0.0,-3.863710893168576,-8.553373213302212,-5.1037377139496956,-0.0037623824381182364,-0.010600000410638591,-1.0404888971382589
15180,1.0,299.77293,57928.272000000004,0.0,-0.1518002196016165,0.0,0.0,0.0,0.0,-3.877768522405956,-8.577902782323092,-5.153077015644104,-0.0048740422249305155,0.005413145588335875,-1.022701494282779
15181,1.0,299.84833,57961.297999999995,0.0,-0.1518102485790933,0.0,0.0,0.0,0.0,-3.882644788512206,-8.606615655706833,-5.129526854169885,0.00923591540193888,0.01823650671055308,-1.046498990106409
15182,1.0,299.6062,57789.529,0.0,-0.15182024456651266,0.0,0.0,0.0,0.0,-3.847407496409556,-8.582605073387173,-5.136561342989135,0.0018891824186227882,-0.003704210837952147,-1.0118950198462628
15183,1.0,300.14346,57721.287000000004,0.0,-0.15183024055393213,0.0,0.0,0.0,0.0,-3.8599734188497163,-8.576293639839282,-5.109562888774595,-0.00048821235024280754,-0.0015142881902736084,-1.031657003966619
15184,1.0,300.59726,57932.897000000004,0.0,-0.15184023654135126,0.0,0.0,0.0,0.0,-3.891211210157646,-8.581191488172662,-5.1377515065565955,0.0002632991483831027,0.0049319457191201455,-1.003745449291963
15185,1.0,300.49472000000003,57864.850999999995,0.0,-0.1518502325287706,0.0,0.0,0.0,0.0,-3.886420867659876,-8.556138271500101,-5.146910578185525,-0.003279521244038547,0.008340388548907262,-1.016927893887969
15186,1.0,300.18244,57533.449,0.0,-0.15186022851618985,0.0,0.0,0.0,0.0,-3.834262805512276,-8.550866533879823,-5.1036024450613455,-0.007353742140882843,-0.008006467013526773,-0.9951547704391291
15187,1.0,299.74695,57530.077000000005,0.0,-0.1518702245036092,0.0,0.0,0.0,0.0,-3.8106431350811967,-8.550715255639892,-5.126348389931195,0.005122777392603766,-0.02072062105321608,-1.026194572677519
15188,1.0,299.47049,57899.78,0.0,-0.15188022049102845,0.0,0.0,0.0,0.0,-3.8571639802974467,-8.582108682163183,-5.160814801357765,0.012078969640851488,0.004344356615904616,-1.024915344426269
15189,1.0,300.18983,58035.075999999994,0.0,-0.15189024946850527,0.0,0.0,0.0,0.0,-3.885957407064136,-8.596078867916932,-5.159177693171196,0.016979717896017682,0.003726506393152546,-1.028736006578339
15190,1.0,300.28438,57895.185999999994,0.0,-0.15190024545592462,0.0,0.0,0.0,0.0,-3.8943446860918964,-8.57734873716841,-5.126997275295236,0.005254946850222875,-0.001202723511724569,-1.017435836163099
15191,1.0,300.25574,57752.948,0.0,-0.15191024144334397,0.0,0.0,0.0,0.0,-3.873145771474726,-8.578426733949803,-5.103881494138886,0.007737322455714273,0.019677967448564183,-1.007225892457956
15192,1.0,299.59078999999997,57830.606,0.0,-0.15192023743076322,0.0,0.0,0.0,0.0,-3.8836625982376565,-8.566592276756833,-5.128805318773675,0.012490551831471488,0.02903568878609937,-1.010719791585277
15193,1.0,299.65556000000004,58000.814000000006,0.0,-0.15193023341818257,0.0,0.0,0.0,0.0,-3.8798313982845465,-8.584618401335872,-5.166349376053986,0.0034943300625885267,0.01753147006572138,-1.0080775291670059
15194,1.0,299.82235,57981.794,0.0,-0.1519402294056018,0.0,0.0,0.0,0.0,-3.8545556718900262,-8.59698805723166,-5.173473740157105,-0.015135116353969686,-0.006723926650349894,-1.0361733636373491
15195,1.0,299.74962,57745.170999999995,0.0,-0.15195022539302117,0.0,0.0,0.0,0.0,-3.8405900457617257,-8.570690468111293,-5.141809573207095,-0.006319461325782275,-0.023577044012623078,-1.0187501228678089
15196,1.0,299.63106,57711.12,0.0,-0.15196022138044052,0.0,0.0,0.0,0.0,-3.8570304339342667,-8.569247701293902,-5.116461298105415,-0.004623352396489355,-0.008956443191157121,-1.051039363804509
15197,1.0,299.88617,57873.219000000005,0.0,-0.15197025035791722,0.0,0.0,0.0,0.0,-3.888280181593376,-8.568685955438461,-5.1350472433647045,-0.0037756959364821764,-0.016102624291455286,-1.0052437219498311
15198,1.0,299.73312999999996,57869.79,0.0,-0.1519802463453368,0.0,0.0,0.0,0.0,-3.883220314569006,-8.567052494952252,-5.140698443147436,-0.0043612929900011055,-0.014727256844217086,-1.033703059893549
15199,1.0,300.37237000000005,57810.736,0.0,-0.15199024233275593,0.0,0.0,0.0,0.0,-3.845559429552167,-8.582305151357572,-5.145155730337335,-0.012236628316661188,0.006158165082113574,-1.0074341457510092
15200,1.0,300.01026,57732.026,0.0,-0.15200023832017517,0.0,0.0,0.0,0.0,-3.8418452599856066,-8.577753327933342,-5.129495646066805,0.005810423727294175,0.016520997284245484,-1.038720877038769
15201,1.0,299.91856,57994.515,0.0,-0.15201023430759453,0.0,0.0,0.0,0.0,-3.8886271184276167,-8.593752749662361,-5.146504568870455,-0.0028457465457533172,0.007194303792597503,-0.988389228593922
15202,1.0,299.89945,58128.852999999996,0.0,-0.15202023029501377,0.0,0.0,0.0,0.0,-3.923248658444496,-8.599701338349442,-5.1467698377466355,-0.00013297432270354388,0.001791728226654808,-1.007505610280562
15203,1.0,300.006,58032.04,0.0,-0.15203022628243312,0.0,0.0,0.0,0.0,-3.899435963869367,-8.599326233162422,-5.141529004254405,0.0060185038559050835,-0.0003538865342908817,-0.9965939402186641
15204,1.0,299.67031000000003,57831.824,0.0,-0.15204022226985248,0.0,0.0,0.0,0.0,-3.857874471267567,-8.597024939535302,-5.124530923226825,0.011665605143305589,0.01927757153904818,-1.040710190960099
15205,1.0,300.21695,57851.125,0.0,-0.1520502512473293,0.0,0.0,0.0,0.0,-3.8423180424822663,-8.594591214120111,-5.148388099481346,0.0005458870829573604,-0.002075089392645378,-1.028924775071969
15206,1.0,300.14321,57887.812000000005,0.0,-0.15206024723474865,0.0,0.0,0.0,0.0,-3.859715445374256,-8.595734666857961,-5.140999175777115,-0.00043612895449507666,-0.002227116829699318,-1.043850658320039
15207,1.0,300.65314,57863.780999999995,0.0,-0.1520702432221679,0.0,0.0,0.0,0.0,-3.8730000661103468,-8.591390255729202,-5.124754243548866,-0.006718370696076563,0.0005394759759971336,-1.036940697938079
15208,1.0,300.29891000000003,57717.665,0.0,-0.15208023920958713,0.0,0.0,0.0,0.0,-3.855021969586047,-8.578494520381492,-5.111212358612385,-0.005083179376045745,0.009094484939730781,-1.026316061364509
15209,1.0,300.45791,57814.174000000006,0.0,-0.15209023519700648,0.0,0.0,0.0,0.0,-3.861436146694076,-8.595921206201373,-5.116707923179755,-0.006311539736500474,-0.018518581352891684,-1.0249364200283488
15210,1.0,300.13547,58102.791,0.0,-0.15210023118442562,0.0,0.0,0.0,0.0,-3.8817170567206465,-8.616053675088292,-5.164027108149796,0.0019385850484484482,-0.02300099207902118,-1.0190174182441891
15211,1.0,300.35618999999997,58245.23,0.0,-0.15211022717184508,0.0,0.0,0.0,0.0,-3.8921865647039064,-8.626234406793051,-5.186674565109924,0.01031459926822169,0.007379196401944983,-1.030825125634519
15212,1.0,300.26535,58068.163,0.0,-0.15212022315926443,0.0,0.0,0.0,0.0,-3.879965045972736,-8.61478326211291,-5.156523180559215,0.02138205653299468,0.01074711216615739,-1.020117605202769
15213,1.0,300.53334,57821.63,0.0,-0.15213025213674125,0.0,0.0,0.0,0.0,-3.8751427860968164,-8.577390483072532,-5.123798444729536,0.005066034475078675,-0.0025683793620543075,-1.017825025526509
15214,1.0,299.9765,57940.736,0.0,-0.1521402481241606,0.0,0.0,0.0,0.0,-3.8887736343920762,-8.594406802601911,-5.129356628153086,0.000952774632551535,-0.0016397192307526884,-1.014216740595399
15215,1.0,299.70671,58010.095,0.0,-0.15215024411157985,0.0,0.0,0.0,0.0,-3.904472019516386,-8.580356164790222,-5.148792183621225,0.004884356502998456,0.012898802455762687,-1.032067370257119
15216,1.0,299.86888,57937.852999999996,0.0,-0.15216024009899898,0.0,0.0,0.0,0.0,-3.8644683989433366,-8.598012047782722,-5.1491801570845155,-0.022856981882058477,0.01221177734470859,-1.024480457483349
15217,1.0,300.23505,57867.647000000004,0.0,-0.15217023608641844,0.0,0.0,0.0,0.0,-3.850634900628076,-8.593081775446143,-5.146603056780175,-0.025390316874829177,-0.004519374393752526,-1.024658181550889
15218,1.0,300.10717999999997,58087.147000000004,0.0,-0.1521802320738378,0.0,0.0,0.0,0.0,-3.8902626054140264,-8.5912038177108,-5.1755759301395745,-0.024370979168228377,-0.003780492257155536,-1.004764464785032
15219,1.0,299.99726,58295.91,0.0,-0.15219022806125715,0.0,0.0,0.0,0.0,-3.9091183791749464,-8.63245859950733,-5.178923911119995,-0.0003706019286730626,0.016935126785616882,-1.0116190713140292
15220,1.0,300.05087000000003,58181.6,0.0,-0.1522002240486764,0.0,0.0,0.0,0.0,-3.904772042870996,-8.615635912072062,-5.1653457518299355,0.0007507615111668923,-0.023544512604912478,-0.993952974760521
15221,1.0,300.37138,57979.204000000005,0.0,-0.15221022003609552,0.0,0.0,0.0,0.0,-3.8704251949562263,-8.604598781382784,-5.149206197612085,0.0022061609937811377,-0.042455738504055165,-1.010227959986737
15222,1.0,300.4758,57998.619000000006,0.0,-0.15222024901357256,0.0,0.0,0.0,0.0,-3.8508389691982163,-8.623358904334262,-5.155934076951075,0.004515846256904326,-0.02467280408151618,-1.025838719242399
15223,1.0,300.4759,58074.303,0.0,-0.1522302450009917,0.0,0.0,0.0,0.0,-3.8805346951789566,-8.60366426081555,-5.168939141984575,0.006990528558361454,0.01099824924319269,-1.0479618192757791
15224,1.0,299.9598,57970.367,0.0,-0.15224024098841094,0.0,0.0,0.0,0.0,-3.864399193961506,-8.613322966068793,-5.143821887905695,-0.01041504173738459,0.011113741516090889,-1.044327595142109
15225,1.0,300.22388,57794.039000000004,0.0,-0.1522502369758303,0.0,0.0,0.0,0.0,-3.848045134697486,-8.597640792946082,-5.122258912527595,-0.029269585412683177,-0.003656909688833887,-1.029255195929579
15226,1.0,299.60042999999996,57938.554000000004,0.0,-0.15226023296324975,0.0,0.0,0.0,0.0,-3.878616916714686,-8.610171352957751,-5.123085623284186,0.0031485311082108274,0.01967156877418268,-1.033248414573679
15227,1.0,299.63627,58262.600999999995,0.0,-0.1522702289506691,0.0,0.0,0.0,0.0,-3.902058964403236,-8.628924383158532,-5.179392640616255,0.0017155469165612983,0.02691617729316987,-1.0102972561610761
15228,1.0,299.82055,58222.426,0.0,-0.15228022493808835,0.0,0.0,0.0,0.0,-3.892261038586257,-8.616727182429761,-5.189175367681735,0.02020053092263718,0.0047054169406384955,-1.019803598996779
15229,1.0,299.86781,58080.495,0.0,-0.15229022092550748,0.0,0.0,0.0,0.0,-3.870308164569676,-8.619650003668221,-5.165062143126945,-0.0018821537053291082,-0.02070418816309428,-1.0045323595846252
15230,1.0,299.80916,58135.945,0.0,-0.15230024990298452,0.0,0.0,0.0,0.0,-3.9000511080050764,-8.61700683945736,-5.154817576665886,0.016349772202846884,0.003224458801804307,-1.042028125365169
15231,1.0,300.27043,58224.263,0.0,-0.15231024589040365,0.0,0.0,0.0,0.0,-3.9048037575991263,-8.628968155562852,-5.164950077665885,0.01286573402549909,0.005661087685155854,-1.0167724613226292
15232,1.0,299.98752,58082.405,0.0,-0.1523202418778229,0.0,0.0,0.0,0.0,-3.8855281943217763,-8.62736022897916,-5.142712379046196,0.0035792564303201066,-0.014183372561539885,-1.0465320220596688
15233,1.0,299.73553,57983.073,0.0,-0.15233023786524225,0.0,0.0,0.0,0.0,-3.8627314856219166,-8.612375577225292,-5.150299190494955,-0.0008942649513570792,-0.023187162599394778,-1.012121734556138
15234,1.0,300.24033,57976.322,0.0,-0.1523402338526616,0.0,0.0,0.0,0.0,-3.8528829986249464,-8.617633230669183,-5.152837888620505,0.013580079398999486,0.011398513430195689,-1.050632949189399
15235,1.0,301.02714,58106.238,0.0,-0.15235022984008106,0.0,0.0,0.0,0.0,-3.8898148501948357,-8.61847990245274,-5.154550686589546,0.006588882703522094,0.034063976857852764,-1.017484674817919
15236,1.0,300.82689,58273.525,0.0,-0.1523602258275002,0.0,0.0,0.0,0.0,-3.9200143641252962,-8.630492995638342,-5.163189150317095,-0.0017676888680323083,-0.0019521897548911281,-1.026686708251089
15237,1.0,300.19267,58278.285,0.0,-0.15237022181491944,0.0,0.0,0.0,0.0,-3.917093772037056,-8.63863263634166,-5.159416921519805,-0.0024809103445217876,0.005102551704707646,-1.018227589791239
15238,1.0,300.12356,58124.52,0.0,-0.15238025079239637,0.0,0.0,0.0,0.0,-3.893395574723226,-8.627585373151383,-5.147421661535965,0.017702766074626983,0.007792336160618703,-1.024829927442839
15239,1.0,300.34148999999996,58211.810999999994,0.0,-0.1523902467798156,0.0,0.0,0.0,0.0,-3.8615544943057563,-8.639902745342011,-5.193479755431545,0.014169888229209086,0.01591780544671509,-1.024784128538319
15240,1.0,299.56933,58123.887,0.0,-0.15240024276723485,0.0,0.0,0.0,0.0,-3.865936091713186,-8.622783479602472,-5.1794907232259355,-0.003401101528837587,-0.008252962087878943,-1.021807503719549
15241,1.0,300.02776,57979.27,0.0,-0.15241023875465443,0.0,0.0,0.0,0.0,-3.8519043003533566,-8.613117073648473,-5.1592290649512655,-0.004986272541781785,-0.012999909616991186,-1.038077361900259
15242,1.0,299.86505,58051.529,0.0,-0.15242023474207356,0.0,0.0,0.0,0.0,-3.8767564882060763,-8.625585622754022,-5.143873361010775,0.01213810392993759,0.018109347876003483,-1.0537363315956791
15243,1.0,300.42203,58161.776,0.0,-0.15243023072949302,0.0,0.0,0.0,0.0,-3.9043355347279163,-8.619132739492173,-5.156259330233175,-0.005627911749056645,0.015241170202186384,-1.053076097830519
15244,1.0,300.34504,58182.127,0.0,-0.15244022671691215,0.0,0.0,0.0,0.0,-3.9074326349835764,-8.625118818432952,-5.153362448197274,-0.006347502515674724,-0.020529732840376878,-1.016843388829629
15245,1.0,300.42674,58285.369000000006,0.0,-0.1524502227043314,0.0,0.0,0.0,0.0,-3.8944804616052964,-8.639014530304351,-5.1838018997514155,-0.012773159443362688,-0.0041967959905915165,-1.016163903312569
15246,1.0,300.13428,58406.564000000006,0.0,-0.15246025168180832,0.0,0.0,0.0,0.0,-3.9016323861111366,-8.640994319674743,-5.211510338311024,0.016847264829695584,0.005584869999383755,-0.9956999395229331
15247,1.0,300.35554,58271.092000000004,0.0,-0.15247024766922757,0.0,0.0,0.0,0.0,-3.9067232585885665,-8.641761653975474,-5.164472127593715,-0.008490438020440992,0.004390607835269256,-1.0178315103271491
15248,1.0,300.17416000000003,58225.505999999994,0.0,-0.15248024365664692,0.0,0.0,0.0,0.0,-3.889476222011416,-8.644913469736533,-5.164710140042205,-0.02677393116463127,-0.005115173761203345,-0.9968209487710681
15249,1.0,299.34619,58250.38,0.0,-0.15249023964406627,0.0,0.0,0.0,0.0,-3.9082221594614963,-8.637341350414223,-5.161097396810655,-0.0025697350906881073,0.011916138323281289,-1.0356777830134392
15250,1.0,299.15218,58196.687999999995,0.0,-0.15250023563148551,0.0,0.0,0.0,0.0,-3.878075739836276,-8.638811778959342,-5.173452461905005,0.003981431809661726,0.026641150818526874,-1.029173122671479
15251,1.0,299.79356,58091.973,0.0,-0.15251023161890487,0.0,0.0,0.0,0.0,-3.8636140264590164,-8.623070229380772,-5.1718248782693745,0.0007788349325450232,0.01999229080183548,-1.048534710882319
15252,1.0,300.48262,58086.001,0.0,-0.1525202276063241,0.0,0.0,0.0,0.0,-3.853512125612036,-8.622861297210152,-5.180320575057836,-0.017800005660223783,-0.02582895892261977,-1.0067685721578221
15253,1.0,300.19998,58186.105,0.0,-0.15253022359374335,0.0,0.0,0.0,0.0,-3.8867628395686262,-8.634386510472602,-5.165973561591895,-0.01205449255818579,0.0055809930005261245,-1.033290667102849
15254,1.0,300.82923999999997,58413.435,0.0,-0.15254025257122028,0.0,0.0,0.0,0.0,-3.9066656046578765,-8.6668368581752,-5.182723295019965,0.0046168817813507556,-0.004949363893639185,-1.0347502538718991
15255,1.0,300.00239,58455.775,0.0,-0.15255024855863952,0.0,0.0,0.0,0.0,-3.9321213855951664,-8.67174210323431,-5.165232267818736,0.012498543335010187,-0.002167595479075018,-1.045106784469009
15256,1.0,300.56556,58345.812000000005,0.0,-0.15256024454605888,0.0,0.0,0.0,0.0,-3.9152657675316465,-8.650750094287561,-5.169654091255135,0.0009925390653059791,-0.016015858672142187,-1.0095363256009782
15257,1.0,300.42432,58284.204000000005,0.0,-0.15257024053347823,0.0,0.0,0.0,0.0,-3.8930049668096762,-8.650790928266591,-5.173146764349836,0.012158942431494188,0.005475250726715176,-1.0233685168236089
15258,1.0,299.70091,58296.169,0.0,-0.15258023652089747,0.0,0.0,0.0,0.0,-3.8945820905903257,-8.645669860936183,-5.180327769133545,0.006550345863793805,0.0061044348611108135,-1.027451104126529
15259,1.0,299.35177999999996,58319.943,0.0,-0.15259023250831683,0.0,0.0,0.0,0.0,-3.903630920608376,-8.650319868295101,-5.173855532794786,0.004885139644000745,-4.274777947437736e-05,-1.032862670260609
15260,1.0,299.48758,58222.539000000004,0.0,-0.15260022849573607,0.0,0.0,0.0,0.0,-3.887155980607426,-8.63772162317675,-5.173320638066995,0.0016564957139833985,-0.006161901340532313,-1.032074564332829
15261,1.0,299.68497,58220.71,0.0,-0.15261022448315542,0.0,0.0,0.0,0.0,-3.908033694942896,-8.632444312680922,-5.157164263897485,-0.0038166704533010467,0.014645793562677287,-1.032758102850289
15262,1.0,300.24327,58374.450999999994,0.0,-0.15262022047057477,0.0,0.0,0.0,0.0,-3.9143048011368067,-8.637686666048301,-5.192383925448395,-0.007437336794007993,-0.0019319947684730383,-1.024532133238449
15263,1.0,299.87743,58329.685999999994,0.0,-0.15263024944805137,0.0,0.0,0.0,0.0,-3.8891539071546064,-8.64602915942164,-5.195584985164315,-0.012957865817341787,-0.016035027337533984,-1.007333124716039
15264,1.0,299.72746,58347.773,0.0,-0.15264024543547083,0.0,0.0,0.0,0.0,-3.897034257157336,-8.648111287052133,-5.191120605223715,-0.00021596673036675682,-0.00984192184559706,-1.011484876470785
15265,1.0,300.57059,58550.44,0.0,-0.1526502414228902,0.0,0.0,0.0,0.0,-3.936972624423946,-8.676565680335361,-5.184333349428865,0.001852583723685778,0.013252483482668288,-1.026404011473189
15266,1.0,300.40007,58501.030999999995,0.0,-0.15266023741030943,0.0,0.0,0.0,0.0,-3.9306733498772566,-8.679953178069681,-5.172226226633986,0.002058768973284678,0.01339530108426329,-1.056550329773399
15267,1.0,300.22309,58428.136,0.0,-0.15267023339772878,0.0,0.0,0.0,0.0,-3.919254831850336,-8.673545992387341,-5.167893670531395,-0.016082177917687384,-0.004907474310655005,-1.034124977235189
15268,1.0,299.88427,58345.166,0.0,-0.15268022938514791,0.0,0.0,0.0,0.0,-3.8927110229556665,-8.660715915646112,-5.182046747928195,-0.00884423536845807,-0.001934394144709838,-1.052151101814229
15269,1.0,299.00244,58321.814000000006,0.0,-0.15269022537256738,0.0,0.0,0.0,0.0,-3.8794272128196563,-8.654869563894122,-5.1940782822656155,-0.0017350313106842586,0.00996084103165847,-1.015687169140519
15270,1.0,299.4883,58193.14,0.0,-0.15270022135998673,0.0,0.0,0.0,0.0,-3.871820035043886,-8.627105801879052,-5.190335741696255,-0.00019492941900803583,-0.007613105896805053,-1.030268446029579
15271,1.0,299.68428,58143.703,0.0,-0.15271025033746355,0.0,0.0,0.0,0.0,-3.8704315784318566,-8.629728498437892,-5.174073584216305,-0.003598662601535346,-0.009480520764854552,-1.009417633484264
15272,1.0,299.56613,58234.017,0.0,-0.15272024632488268,0.0,0.0,0.0,0.0,-3.888167710832276,-8.650080031996431,-5.163439321766785,0.016758354159920785,0.006911078300795323,-1.033448227493399
15273,1.0,299.22026,58505.816,0.0,-0.15273024231230214,0.0,0.0,0.0,0.0,-3.938581158957696,-8.662808581077641,-5.182917433739125,0.009737130203029931,0.018366349644617582,-1.012184606724843
15274,1.0,300.06529,58609.420999999995,0.0,-0.15274023829972128,0.0,0.0,0.0,0.0,-3.9449447748857365,-8.669271191540451,-5.201584439006415,-0.00039483034963172167,0.007247458386218452,-1.023960761507059
15275,1.0,300.5011,58486.377,0.0,-0.15275023428714074,0.0,0.0,0.0,0.0,-3.9113642480215964,-8.668217715411481,-5.198816138408205,-0.01042854734796749,0.005926865212886055,-1.00556622932416
15276,1.0,300.58569,58434.424000000006,0.0,-0.15276023027455987,0.0,0.0,0.0,0.0,-3.8999674135468165,-8.675140848044743,-5.187497628166154,-0.003417797863985387,0.01073123757684069,-1.033338087207529
15277,1.0,300.60482,58568.39599999999,0.0,-0.15277022626197934,0.0,0.0,0.0,0.0,-3.9276824382320763,-8.683924003886572,-5.191723489033215,0.009990385479399282,0.013165103833794588,-1.0344166919389792
15278,1.0,299.99093999999997,58620.898,0.0,-0.1527802222493987,0.0,0.0,0.0,0.0,-3.947469591484916,-8.678247878151383,-5.193571555890604,0.0015590128470375883,-0.003473069137065237,-1.0308459985865792
15279,1.0,299.89495,58412.012,0.0,-0.1527902512268755,0.0,0.0,0.0,0.0,-3.929281549539896,-8.656988472503242,-5.169523078017205,0.016956816417257485,-0.0018225469377213784,-1.023332039820009
15280,1.0,299.51982000000004,58218.774000000005,0.0,-0.15280024721429464,0.0,0.0,0.0,0.0,-3.870976403010626,-8.656895253494042,-5.169181815383524,-0.003056035255607197,0.013517452436818686,-1.0213412060235292
15281,1.0,299.5804,58298.068,0.0,-0.1528102432017141,0.0,0.0,0.0,0.0,-3.875967875653246,-8.649358192625192,-5.1958309009635855,0.020692763768216778,0.022126959503010878,-1.0234659914832291
15282,1.0,300.24722,58553.155,0.0,-0.15282023918913323,0.0,0.0,0.0,0.0,-3.9105979269709663,-8.673970138879202,-5.214129083194475,-0.00979079993300172,-0.0030569654191989967,-1.025689264852649
15283,1.0,300.27725,58472.225,0.0,-0.1528302351765526,0.0,0.0,0.0,0.0,-3.9150785189131665,-8.659818378707532,-5.1991992482710145,0.0022247815921938477,-0.01002556461094619,-1.037982319040879
15284,1.0,299.69307000000003,58270.442,0.0,-0.15284023116397205,0.0,0.0,0.0,0.0,-3.8820566981541664,-8.67789942144199,-5.152803134142075,-0.015389272916302986,-0.014062756282885986,-1.052872434560419
15285,1.0,300.05201,58389.288,0.0,-0.15285022715139118,0.0,0.0,0.0,0.0,-3.898780289729656,-8.683294572924451,-5.166810607499505,0.001341653779310919,-0.009387080563157721,-1.038793729720959
15286,1.0,299.62304,58724.710999999996,0.0,-0.15286022313881065,0.0,0.0,0.0,0.0,-3.927652040729076,-8.700807486327841,-5.222386159584386,0.006776803005493383,-0.016235857560354384,-1.035645662985269
15287,1.0,300.23531,58746.069,0.0,-0.15287025211628735,0.0,0.0,0.0,0.0,-3.952586707139936,-8.701911118336762,-5.202840261180354,0.018881247881684084,0.0016418676249397184,-1.033539116027369
15288,1.0,300.78792000000004,58385.136,0.0,-0.1528802481037066,0.0,0.0,0.0,0.0,-3.902965519267706,-8.677285290556382,-5.167372758654985,0.00968506363736636,0.005234518714956776,-1.0274667081780688
15289,1.0,300.45268,58280.474,0.0,-0.15289024409112595,0.0,0.0,0.0,0.0,-3.8987312484248164,-8.66956280491923,-5.147514779220154,0.007233482222289114,0.007913854535836632,-1.036376520282399
15290,1.0,300.22745,58682.65900000001,0.0,-0.1529002400785452,0.0,0.0,0.0,0.0,-3.9348764126170663,-8.69397737005376,-5.209209044683905,0.001347712001658819,-0.003713237781768036,-1.023967651607739
15291,1.0,300.42832999999996,58826.687999999995,0.0,-0.15291023606596454,0.0,0.0,0.0,0.0,-3.954263534730426,-8.693554540787032,-5.2340262754081746,0.004027438531777236,0.0018263838118750483,-1.008410310897349
15292,1.0,299.63146,58482.749,0.0,-0.152920232053384,0.0,0.0,0.0,0.0,-3.8817746093263263,-8.683092632179523,-5.212427937601586,-0.01839095946304638,0.0032127165503704367,-1.018113396504969
15293,1.0,300.21245,58336.867,0.0,-0.15293022804080314,0.0,0.0,0.0,0.0,-3.8944516853024562,-8.672028549037583,-5.166470662090955,-0.012002609086815288,0.007300440119372343,-1.00904400764239
15294,1.0,299.75296000000003,58558.314000000006,0.0,-0.1529402240282225,0.0,0.0,0.0,0.0,-3.9136378799209863,-8.6883988203032,-5.198228656000225,-0.00914149153704497,0.007313001178212024,-1.044448171904009
15295,1.0,299.81879,58798.297,0.0,-0.1529502530056993,0.0,0.0,0.0,0.0,-3.9572082421710464,-8.705099411101422,-5.210906441251424,0.01298875981289079,0.01884189426105018,-1.028297978560109
15296,1.0,300.01856000000004,58583.772000000004,0.0,-0.15296024899311855,0.0,0.0,0.0,0.0,-3.9214568269676566,-8.683533294648011,-5.2030136282724655,-0.0008046375489915434,0.003576851075907716,-1.045317033864759
15297,1.0,299.68699,58331.35400000001,0.0,-0.1529702449805379,0.0,0.0,0.0,0.0,-3.8774561374001264,-8.674987138004573,-5.178831705360895,-0.0013049115068347389,-0.016865656332260684,-1.005647228537154
15298,1.0,299.28761000000003,58545.382000000005,0.0,-0.15298024096795715,0.0,0.0,0.0,0.0,-3.8993840854642468,-8.692016528460242,-5.2049338385369746,-0.0007661611192342153,-0.017207190516967483,-1.037493527192639
15299,1.0,299.8974,58883.492999999995,0.0,-0.1529902369553765,0.0,0.0,0.0,0.0,-3.9670829723456063,-8.705049559196501,-5.2269788169876445,0.005151561396144526,-0.013140299471346588,-1.012878764103351
15300,1.0,299.91514,58680.405999999995,0.0,-0.15300023294279586,0.0,0.0,0.0,0.0,-3.937580574483946,-8.699854929908833,-5.1999427711943955,0.012520194463146988,0.000874716793405326,-1.051234009148719
15301,1.0,300.07137,58381.204000000005,0.0,-0.1530102289302151,0.0,0.0,0.0,0.0,-3.8914006879263465,-8.67545718472596,-5.179570364683795,0.004335125907493616,0.0044729306568688865,-1.012656254381391
15302,1.0,300.15822000000003,58407.568,0.0,-0.15302022491763445,0.0,0.0,0.0,0.0,-3.897338232187336,-8.673714597203983,-5.183389506960715,0.011413417325916591,0.013090237823655886,-1.024204549481119
15303,1.0,300.23265,58781.986,0.0,-0.1530302209050537,0.0,0.0,0.0,0.0,-3.9292891489156463,-8.69436949784246,-5.244597412376465,-0.0007276860472320213,0.012245389890275888,-1.009379302232981
15304,1.0,300.24395,58776.975,0.0,-0.1530402498825305,0.0,0.0,0.0,0.0,-3.9416022654558565,-8.690374252698161,-5.234756423430236,-0.00019062895253611282,0.005124060065905355,-1.014581814606429
15305,1.0,300.28758999999997,58628.562999999995,0.0,-0.15305024586994986,0.0,0.0,0.0,0.0,-3.937302538656506,-8.693663161197751,-5.190653598252625,-0.021640026968704377,0.0036845022115820562,-1.019024713644909
15306,1.0,300.39667000000003,58660.515,0.0,-0.153060241857369,0.0,0.0,0.0,0.0,-3.9500133558609662,-8.690854837220591,-5.190463512533865,-0.024500074323719076,0.0016104660924156286,-1.027821852338119
15307,1.0,300.57462000000004,58940.802,0.0,-0.15307023784478857,0.0,0.0,0.0,0.0,-3.979696720190486,-8.720426541389092,-5.216408895919475,0.0026314117256001175,0.006768646848813433,-1.0292988670088892
15308,1.0,300.20099,58943.432,0.0,-0.1530802338322078,0.0,0.0,0.0,0.0,-3.9647499639903563,-8.717494904874762,-5.235086742962836,0.007904352985673904,0.007510397901743562,-1.024997215034349
15309,1.0,299.77873999999997,58678.487,0.0,-0.15309022981962706,0.0,0.0,0.0,0.0,-3.9157734058317466,-8.702751507969701,-5.218269831053136,0.01840803475373158,-0.002010212711267548,-1.0135364444782589
15310,1.0,299.55627999999996,58480.575999999994,0.0,-0.1531002258070464,0.0,0.0,0.0,0.0,-3.8950524412867464,-8.689566793693473,-5.192015507712036,-0.0046429619269996655,-0.0029442441826742776,-1.022904042977769
15311,1.0,300.0533,58603.745,0.0,-0.15311022179446565,0.0,0.0,0.0,0.0,-3.9274412847082765,-8.70224316039453,-5.184390598059515,0.01196507830311129,0.006008527598070504,-1.0503915930155792
15312,1.0,299.9672,58715.754,0.0,-0.15312025077194236,0.0,0.0,0.0,0.0,-3.9349818919524764,-8.719100602308233,-5.194040488036886,-0.0018118033455860683,0.00025968246360866373,-1.038104213027909
15313,1.0,299.57854,58567.795999999995,0.0,-0.15313024675936182,0.0,0.0,0.0,0.0,-3.9196292277622864,-8.708851678871742,-5.1746666394998355,0.013905211091087485,-0.006123786418145665,-1.041291897842509
15314,1.0,300.20302000000004,58567.151,0.0,-0.15314024274678117,0.0,0.0,0.0,0.0,-3.8905381081162167,-8.704422965334661,-5.207990510113645,-0.018359886122229684,-0.015919226023355285,-1.022157784279119
15315,1.0,300.15599,58623.897000000004,0.0,-0.15315023873420053,0.0,0.0,0.0,0.0,-3.9002908429787357,-8.70319439958841,-5.216715708049755,-0.002958987174279297,-0.008933985414615712,-1.0402183593615588
15316,1.0,300.64472,58777.15,0.0,-0.15316023472161977,0.0,0.0,0.0,0.0,-3.912932657851386,-8.726711022484322,-5.227142051578754,-0.022921410402917078,-0.003019946124145477,-1.025535656137489
15317,1.0,300.90197,58820.175,0.0,-0.1531702307090389,0.0,0.0,0.0,0.0,-3.9596106581581463,-8.709962707606392,-5.210290993140686,-0.00939315459220718,-0.001089703265095339,-1.0567233928904791
15318,1.0,300.18095,58709.415,0.0,-0.15318022669645837,0.0,0.0,0.0,0.0,-3.947456925858666,-8.714000711904912,-5.184738446818845,-0.01117452233658949,0.01101099592945069,-1.0430529265163089
15319,1.0,300.26018999999997,58573.867999999995,0.0,-0.1531902226838775,0.0,0.0,0.0,0.0,-3.9403765368098864,-8.69579007448266,-5.168826873873495,0.0031774305209379765,0.02793620400983867,-1.072797187176839
15320,1.0,300.04497000000003,58592.648,0.0,-0.15320025166135431,0.0,0.0,0.0,0.0,-3.9101772255294462,-8.69575309085401,-5.204771819845985,-0.0007189123551461252,0.018588911042332682,-1.0156507934619292
15321,1.0,299.49914,58732.448,0.0,-0.15321024764877367,0.0,0.0,0.0,0.0,-3.9219544340917665,-8.708053643092981,-5.2231894642636645,0.001088508643227439,0.003065145285931287,-1.020763045516469
15322,1.0,299.53157000000004,58820.874,0.0,-0.15322024363619313,0.0,0.0,0.0,0.0,-3.9279036307289066,-8.70742492140593,-5.244748285316355,0.01008839827614739,0.004780612763684745,-1.010992406524682
15323,1.0,299.57881000000003,58735.037000000004,0.0,-0.15323023962361249,0.0,0.0,0.0,0.0,-3.928648065577376,-8.718965232094872,-5.206371336453845,0.015059140834971486,0.01967381514965438,-1.038342326801409
15324,1.0,300.13209,58798.317,0.0,-0.15324023561103173,0.0,0.0,0.0,0.0,-3.939389124587436,-8.722213914565492,-5.211617033546554,0.018852454353592382,0.008148050780475003,-1.021210598085639
15325,1.0,300.2273,59036.903,0.0,-0.15325023159845086,0.0,0.0,0.0,0.0,-3.9802159095417258,-8.72903025063821,-5.236498200352136,0.005994622260323154,-0.013640197553932686,-1.0197759372690491
15326,1.0,300.03219,59030.687999999995,0.0,-0.15326022758587032,0.0,0.0,0.0,0.0,-3.959257439173286,-8.735427101169531,-5.2491705140527944,0.004853478415476026,-0.004500011792291586,-1.013434714168219
15327,1.0,299.96882,58663.869000000006,0.0,-0.15327022357328968,0.0,0.0,0.0,0.0,-3.898840274135576,-8.714454445299692,-5.219056822405805,0.005104683380268025,-0.013803200110769787,-1.029760503754449
15328,1.0,300.21308999999997,58541.359000000004,0.0,-0.15328025255076627,0.0,0.0,0.0,0.0,-3.8872271107644463,-8.700933635965292,-5.206950712861024,0.0015702045996921284,-0.015534708756156385,-1.023833395969489
15329,1.0,300.10452000000004,58810.780999999995,0.0,-0.15329024853818563,0.0,0.0,0.0,0.0,-3.9330974494164965,-8.730860180318812,-5.213051390388116,-0.011901027724539989,1.8598586567537584e-05,-1.0392331762893292
15330,1.0,299.8412,59004.66,0.0,-0.1533002445256051,0.0,0.0,0.0,0.0,-3.989972494754626,-8.725117889352092,-5.220853010858074,0.0035308247980652767,0.0024621593408212074,-1.0421684605040191
15331,1.0,299.27332,58831.947,0.0,-0.15331024051302444,0.0,0.0,0.0,0.0,-3.9472745408406666,-8.72840750712675,-5.207760806315975,0.0024480260218013574,0.003912386009422436,-1.041415919654749
15332,1.0,299.63633,58601.749,0.0,-0.15332023650044357,0.0,0.0,0.0,0.0,-3.911588074968686,-8.704176745560362,-5.1977035897984045,0.00016783397649392382,0.0012699463737089489,-1.027043473611299
15333,1.0,300.33457999999996,58797.89,0.0,-0.15333023248786282,0.0,0.0,0.0,0.0,-3.9107247858834864,-8.720113143133162,-5.242252548995045,-0.0012465454639744588,-0.000981143507526325,-1.010780495398768
15334,1.0,299.60046,59047.448,0.0,-0.15334022847528217,0.0,0.0,0.0,0.0,-3.948128913324986,-8.75204460545955,-5.248776157113875,0.002672381885443557,0.02184550091673308,-1.035221212518379
15335,1.0,300.34402,59002.915,0.0,-0.15335022446270163,0.0,0.0,0.0,0.0,-3.9545008379038467,-8.743704543886452,-5.237207576747145,0.004717971312027515,0.007266141603487344,-1.0277881111097888
15336,1.0,300.50606,58655.692,0.0,-0.15336025344017834,0.0,0.0,0.0,0.0,-3.929373653973986,-8.728396057400623,-5.172096125321145,0.010220576751692391,-0.01085747536704939,-1.044098093994459
15337,1.0,300.34917,58698.473,0.0,-0.1533702494275978,0.0,0.0,0.0,0.0,-3.932933505550316,-8.714830057111762,-5.195106528467095,-0.01009240953064327,-0.01035004883622029,-1.016463724017159
15338,1.0,299.76995,58976.33,0.0,-0.15338024541501694,0.0,0.0,0.0,0.0,-3.9557758105046763,-8.727589307671002,-5.243966664189215,0.004035752451497757,-0.0014678919748196586,-1.038642654131049
15339,1.0,300.06216,59040.062999999995,0.0,-0.1533902414024364,0.0,0.0,0.0,0.0,-3.9404624604183662,-8.74259280587673,-5.263649756656785,-0.010840917847165291,0.0028053900101704375,-1.012611367401961
15340,1.0,299.78166,58822.074,0.0,-0.15340023738985553,0.0,0.0,0.0,0.0,-3.9167480511029362,-8.725258224490942,-5.2384353318933154,-0.008775519381126331,0.004004505642263937,-1.033593730207759
15341,1.0,300.07241,58834.804000000004,0.0,-0.15341023337727477,0.0,0.0,0.0,0.0,-3.9388807770122662,-8.722502386868962,-5.2229280457378655,-0.012750252898351988,0.01156448784957609,-1.015837028830309
15342,1.0,300.22414,59106.761,0.0,-0.15342022936469413,0.0,0.0,0.0,0.0,-3.984292316019036,-8.755228034623732,-5.227459097535045,-0.017383924639159783,0.01097854558174809,-1.0459543681776589
15343,1.0,299.55902000000003,59134.085,0.0,-0.15343022535211348,0.0,0.0,0.0,0.0,-3.9838331110737166,-8.757092414807731,-5.234359736016086,-0.0047310730411205554,-0.006295215770764424,-1.035219287343189
15344,1.0,298.92732,58928.367,0.0,-0.1534402543295903,0.0,0.0,0.0,0.0,-3.9341297486183757,-8.754074348059874,-5.224547928672735,0.0019557765589201183,-0.004147531568079496,-1.0453668857696792
15345,1.0,299.17659,58766.289000000004,0.0,-0.15345025031700965,0.0,0.0,0.0,0.0,-3.9071820582338463,-8.736826399557632,-5.2194758013221545,0.019566006352264482,0.008061936377001172,-1.037348936403369
15346,1.0,299.34675,58791.21599999999,0.0,-0.1534602463044289,0.0,0.0,0.0,0.0,-3.919751121749316,-8.739078753204922,-5.212231671057215,0.007204048421459223,0.004370397042149606,-1.043325794768239
15347,1.0,299.3589,58889.295,0.0,-0.15347024229184825,0.0,0.0,0.0,0.0,-3.945862779476336,-8.746145362052342,-5.2088670727751545,0.0021604678725715776,0.007902988745739262,-1.053595793806809
15348,1.0,300.30442999999997,58899.985,0.0,-0.1534802382792675,0.0,0.0,0.0,0.0,-3.9571949685947363,-8.726434101231991,-5.220495536222795,-0.0029444283915424575,-0.012413680599384887,-1.020014456342589
15349,1.0,299.56973,58838.306,0.0,-0.15349023426668673,0.0,0.0,0.0,0.0,-3.941191291215296,-8.731047834237332,-5.213136807371545,0.0034423219614557266,0.0016553624950715585,-1.048216246375889
15350,1.0,299.74716,58958.46599999999,0.0,-0.1535002302541063,0.0,0.0,0.0,0.0,-3.9366515254672563,-8.740546749949802,-5.244703195686905,-0.0033935129948636567,-0.0017000032547272584,-1.022910426453399
15351,1.0,299.70685,59043.328,0.0,-0.15351022624152544,0.0,0.0,0.0,0.0,-3.9451879549097364,-8.75215717754566,-5.250352267644425,0.002099422391146858,0.010138303883322689,-1.053010337899029
15352,1.0,299.89457000000004,59092.456,0.0,-0.1535202222289448,0.0,0.0,0.0,0.0,-3.9556021394375365,-8.76270713758686,-5.244321808349265,0.0004313267265736336,0.004726453431264635,-1.0216565294546491
15353,1.0,300.14164,59060.632000000005,0.0,-0.1535302512064216,0.0,0.0,0.0,0.0,-3.9726004231151357,-8.754487348800632,-5.225869510778165,0.01134182512685099,0.0007418830388881553,-1.058731451938659
15354,1.0,299.89516000000003,58977.807,0.0,-0.15354024719384085,0.0,0.0,0.0,0.0,-3.954361617340106,-8.75504544695571,-5.218373790513395,-0.0005981086150912245,-0.014925631962045185,-1.032674915017079
15355,1.0,299.90355,58913.064000000006,0.0,-0.1535502431812602,0.0,0.0,0.0,0.0,-3.9441604179833263,-8.745990638762073,-5.217949340046505,-0.005818497202765964,-0.02010529047948768,-1.053196167967369
15356,1.0,299.92741,59114.425,0.0,-0.15356023916867945,0.0,0.0,0.0,0.0,-3.9310138019108565,-8.766847378820472,-5.271448033401415,-0.0034281424382313166,-0.02223765302343548,-1.0230408317412691
15357,1.0,299.57866,59120.742,0.0,-0.1535702351560988,0.0,0.0,0.0,0.0,-3.9502941274636756,-8.764798789768292,-5.2561362031902545,0.001909149322443368,-0.0002694131400165068,-1.0302356167263391
15358,1.0,299.94601,59007.195,0.0,-0.15358023114351815,0.0,0.0,0.0,0.0,-3.9408780956093863,-8.757350286958182,-5.238485589098275,0.018197738748476983,-0.004800192099342075,-1.007500280585036
15359,1.0,299.76493,58897.202000000005,0.0,-0.1535902271309374,0.0,0.0,0.0,0.0,-3.9475949305222864,-8.74047440389266,-5.215209410451095,0.003196437978238867,0.005693414720321285,-1.009421017739598
15360,1.0,299.27727999999996,59018.390999999996,0.0,-0.15360022311835675,0.0,0.0,0.0,0.0,-3.956267236803176,-8.743470888413391,-5.240379150885155,-0.0024398612524955576,-0.004331752493935686,-1.005822966634498
15361,1.0,299.55925,59228.595,0.0,-0.15361025209583357,0.0,0.0,0.0,0.0,-3.967696495281156,-8.775416941541222,-5.260900302510435,-0.018117500486308082,-0.005889627461110975,-1.031553956431449
15362,1.0,299.25696,59194.608,0.0,-0.1536202480832528,0.0,0.0,0.0,0.0,-3.9584327549168963,-8.77063885936966,-5.264611128351665,-0.00890887565858757,-0.018542455551747883,-1.047814999336289
15363,1.0,299.10509,58910.028,0.0,-0.15363024407067216,0.0,0.0,0.0,0.0,-3.9337266777285964,-8.756742235573173,-5.216708615299055,-0.01225827032554709,-0.0003080162665663387,-1.046541141310569
15364,1.0,299.40626000000003,58877.128,0.0,-0.1536402400580914,0.0,0.0,0.0,0.0,-3.938660293790506,-8.75202940670805,-5.206486948290255,-0.002769518828805227,0.001055194094514549,-1.0384711108891191
15365,1.0,299.29562000000004,59152.066,0.0,-0.15365023604551076,0.0,0.0,0.0,0.0,-3.9782581076985064,-8.762017722218822,-5.240475105669625,-0.01193853925649209,0.01138905879351259,-1.040838671072779
15366,1.0,299.59484,59181.232,0.0,-0.1536602320329301,0.0,0.0,0.0,0.0,-3.966719418209726,-8.770751127480741,-5.252146226946475,0.0006277973800437774,0.0006021781213353534,-1.0293961390184891
15367,1.0,299.95416,58895.08,0.0,-0.15367022802034935,0.0,0.0,0.0,0.0,-3.898587974860676,-8.761597730052372,-5.242447802289315,-0.005433902219284395,0.006654509088648914,-1.041941492481619
15368,1.0,300.20156000000003,58857.682,0.0,-0.1536802240077687,0.0,0.0,0.0,0.0,-3.910585970619786,-8.745429602181702,-5.235250180203965,0.00027235463545430977,0.007144389775446373,-1.025862631944759
15369,1.0,299.98733,59229.96400000001,0.0,-0.15369025298524552,0.0,0.0,0.0,0.0,-3.9761435560648164,-8.784969356858971,-5.243317272200125,-0.014513313138602487,0.003741616383943786,-1.041881609400709
15370,1.0,300.2153,59361.885,0.0,-0.15370024897266465,0.0,0.0,0.0,0.0,-4.014222102772877,-8.771910488245162,-5.258398284038504,-0.00934312192346934,-0.005493551036771275,-1.020780574743199
15371,1.0,300.59086,59120.376,0.0,-0.15371024496008412,0.0,0.0,0.0,0.0,-3.9557164340488167,-8.778443316939901,-5.236958317222545,0.004677015742985516,0.011900490701986989,-1.039665428781989
15372,1.0,299.79107999999997,58944.626,0.0,-0.15372024094750347,0.0,0.0,0.0,0.0,-3.934512250531126,-8.760571915651132,-5.222610087856485,0.017156768152241184,0.013848406263981289,-1.020334947349219
15373,1.0,299.72713999999996,59161.426,0.0,-0.15373023693492271,0.0,0.0,0.0,0.0,-3.9435525692483364,-8.77720877301806,-5.262835002251375,0.0015559552635358283,0.004510171955019316,-1.0439702218318392
15374,1.0,299.36352999999997,59300.555,0.0,-0.15374023292234207,0.0,0.0,0.0,0.0,-3.9834586138367563,-8.78490187440231,-5.257527395577554,0.007315365293345343,-0.013669017426526988,-1.037362209979679
15375,1.0,299.92261,59154.085,0.0,-0.1537502289097613,0.0,0.0,0.0,0.0,-3.9763288795081064,-8.766816069392382,-5.238219712272036,0.0024166408026038777,0.0064357034037544735,-1.040687291507839
15376,1.0,299.77579,59060.079000000005,0.0,-0.15376022489718066,0.0,0.0,0.0,0.0,-3.9804198767868564,-8.761157168908891,-5.211212341456616,0.0054528022720746845,-0.0027094974392565777,-1.0365362084981589
15377,1.0,300.00569,59149.42,0.0,-0.15377025387465748,0.0,0.0,0.0,0.0,-3.9720976484155166,-8.763710356510872,-5.244138815381205,-0.019428514393195085,-0.019156456741345085,-1.039013908967689
15378,1.0,299.91252000000003,59355.495,0.0,-0.1537802498620766,0.0,0.0,0.0,0.0,-3.9798403990546665,-8.777987253069892,-5.284760822490285,-0.025833673575335076,-0.015241389064207987,-1.034724922619399
15379,1.0,300.05949,59293.223,0.0,-0.15379024584949608,0.0,0.0,0.0,0.0,-3.937814939232076,-8.80068770301025,-5.285156496654335,-0.0014823626047977985,0.0015692160728945684,-1.037806013523479
15380,1.0,299.72713,58986.984000000004,0.0,-0.15380024183691543,0.0,0.0,0.0,0.0,-3.9286471536522862,-8.764067223196092,-5.237855854161125,0.008626751468319082,0.0026346506808697778,-1.0235001380115991
15381,1.0,300.35546,59014.934,0.0,-0.15381023782433456,0.0,0.0,0.0,0.0,-3.9515456939871965,-8.774117245637951,-5.213403292147845,0.013612016028901386,-0.005312251310953385,-1.0355702771778292
15382,1.0,300.19281,59243.640999999996,0.0,-0.15382023381175403,0.0,0.0,0.0,0.0,-3.993679166270446,-8.785992334159932,-5.228916151178845,0.0033315028993437367,-0.01951982950545718,-1.027696411975739
15383,1.0,299.16592,59198.457,0.0,-0.15383022979917316,0.0,0.0,0.0,0.0,-3.962902099782986,-8.7850426148412,-5.246907825254485,0.0006377867290696494,0.007127200899424963,-1.047936791998309
15384,1.0,299.98516,59161.542,0.0,-0.15384022578659262,0.0,0.0,0.0,0.0,-3.932269320109766,-8.79841741483619,-5.252944870675295,-0.0014643793406979885,-0.007486185176028953,-1.030765749178659
15385,1.0,299.98647,59202.685999999994,0.0,-0.15385025476406933,0.0,0.0,0.0,0.0,-3.9296527030515263,-8.78795125057826,-5.278534299300775,0.007006803178817633,-0.008089160279362963,-1.0491059812886991
15386,1.0,299.66378,59201.087999999996,0.0,-0.15386025075148857,0.0,0.0,0.0,0.0,-3.9591431445620064,-8.779694883463423,-5.256814371482186,0.0013892389424322085,0.005345730208832495,-1.009586542275934
15387,1.0,299.46283999999997,59257.062000000005,0.0,-0.15387024673890792,0.0,0.0,0.0,0.0,-3.970411093624066,-8.791548592408292,-5.250707513129485,0.012178150613639888,0.014757808361232288,-1.043761492311239
15388,1.0,299.40536000000003,59280.568,0.0,-0.1538802427263274,0.0,0.0,0.0,0.0,-3.995885822338226,-8.77071789287746,-5.253208721001336,-0.0073170521521118215,0.004992769298772965,-1.026858352818029
15389,1.0,299.69838,59210.225999999995,0.0,-0.15389023871374652,0.0,0.0,0.0,0.0,-3.9659555289593365,-8.790214446001622,-5.242260351020815,-0.0011287422715731891,-0.00996317029098835,-1.0658865175198091
15390,1.0,300.08921000000004,59137.626,0.0,-0.15390023470116598,0.0,0.0,0.0,0.0,-3.9488273466189163,-8.784027642216031,-5.2435065473188045,-0.013353185343856789,-0.017559194614957585,-1.0356832545639791
15391,1.0,300.03479,59172.51,0.0,-0.15391023068858511,0.0,0.0,0.0,0.0,-3.940199522017416,-8.775194431819262,-5.271571447263595,-0.010144856571719391,0.012879431140350886,-1.055896986108919
15392,1.0,300.05342,59292.637,0.0,-0.15392022667600447,0.0,0.0,0.0,0.0,-3.968979979182826,-8.793251663176372,-5.261249265844874,-0.004844893654003776,-0.0021361448039210777,-1.015767519873449
15393,1.0,300.08412999999996,59284.444,0.0,-0.15393022266342393,0.0,0.0,0.0,0.0,-3.975256455602266,-8.783913246279742,-5.261821042876305,-0.0012678053762476488,-0.0009123120400806882,-1.034724213344329
15394,1.0,300.41442,59340.71,0.0,-0.15394025164090053,0.0,0.0,0.0,0.0,-3.9908063995869263,-8.790895248743812,-5.256392251490525,0.021873443314740778,0.01122016925359449,-1.018868065179449
15395,1.0,300.21817000000004,59350.579000000005,0.0,-0.1539502476283201,0.0,0.0,0.0,0.0,-3.9830524018716664,-8.804680921654352,-5.2533606071913255,0.024746460271035477,0.01984407257720748,-1.0418215236697792
15396,1.0,299.54249,59335.053,0.0,-0.15396024361573923,0.0,0.0,0.0,0.0,-3.9593588655082965,-8.803351841498182,-5.273663910045105,0.005102848485661935,0.01788073332219098,-1.025173824526779
15397,1.0,299.69203999999996,59363.56,0.0,-0.15397023960315848,0.0,0.0,0.0,0.0,-3.9525877203900364,-8.820223772888312,-5.272228539953445,-0.004418451036092165,-0.006559926042164294,-1.039901820030319
15398,1.0,299.27707000000004,59273.373,0.0,-0.15398023559057783,0.0,0.0,0.0,0.0,-3.9739477417731064,-8.785687953829893,-5.2579895389481655,0.001129117174110189,0.006468277367969274,-1.015871783308739
15399,1.0,299.81147000000004,59202.469000000005,0.0,-0.15399023157799707,0.0,0.0,0.0,0.0,-3.9569416560697364,-8.793720392672633,-5.2454102416066855,-0.014349823208467288,0.003292032754948337,-1.028239412704329
15400,1.0,299.96602,59218.5,0.0,-0.15400022756541643,0.0,0.0,0.0,0.0,-3.9654072593302265,-8.797121771933323,-5.238416282791435,-0.004718059971411266,-0.01020937121883649,-1.0492978908576391
15401,1.0,299.99151,59385.779,0.0,-0.15401022355283578,0.0,0.0,0.0,0.0,-3.982188606161416,-8.80716632282464,-5.262438922787286,-0.012536823923788187,-0.02119081165612028,-1.063318739116389
15402,1.0,299.56543999999997,59451.133,0.0,-0.1540202525303126,0.0,0.0,0.0,0.0,-3.977215777320636,-8.816735456769042,-5.277708804444305,0.02072958629010088,-0.01018462866464459,-1.046681881749459
15403,1.0,300.19967,59254.05,0.0,-0.15403024851773206,0.0,0.0,0.0,0.0,-3.9511142520946163,-8.79567272296531,-5.264964651311555,0.00940041544109877,-0.006888553345772284,-1.032219864397169
15404,1.0,299.87889,59167.207,0.0,-0.1540402445051512,0.0,0.0,0.0,0.0,-3.9432621717696765,-8.785471928908573,-5.256619523487954,-0.01006987028879382,-0.001930820816907178,-1.0095498018273081
15405,1.0,300.52007000000003,59541.939000000006,0.0,-0.15405024049257043,0.0,0.0,0.0,0.0,-3.982619440103936,-8.83092815224475,-5.285714898784445,-0.018314249337725682,-0.02015760052915028,-1.023957113806699
15406,1.0,300.27986,59513.554000000004,0.0,-0.1540602364799898,0.0,0.0,0.0,0.0,-4.017689140640046,-8.80151208329161,-5.271433239949955,-0.015180461322444886,0.0011901521177338688,-1.028107791516339
15407,1.0,300.20962000000003,59268.600999999995,0.0,-0.15407023246740903,0.0,0.0,0.0,0.0,-3.968841163919126,-8.812523173453323,-5.234810328335555,0.0029271730463144873,0.01211801624670509,-1.032197572894969
15408,1.0,300.40537,59234.428,0.0,-0.1540802284548286,0.0,0.0,0.0,0.0,-3.962643011732416,-8.797039293375182,-5.246104723225225,0.001962545474888158,0.003298812411367437,-1.0324487575947592
15409,1.0,299.85265,59409.852999999996,0.0,-0.15409022444224774,0.0,0.0,0.0,0.0,-3.9737109452247363,-8.80634731276881,-5.279053589977025,-0.0034774689729744667,0.008891101124008363,-1.030359233238539
15410,1.0,299.59304,59538.183,0.0,-0.15410025341972455,0.0,0.0,0.0,0.0,-3.986694833331146,-8.823440234005751,-5.287985794908566,0.006275440371212744,0.017895822642680182,-1.0383169955489089
15411,1.0,299.40341,59474.483,0.0,-0.1541102494071439,0.0,0.0,0.0,0.0,-3.9953927748395666,-8.802842581997922,-5.280522397321985,0.008974504374189621,0.01101598618619319,-1.034292366151709
15412,1.0,300.22754,59261.774000000005,0.0,-0.15412024539456315,0.0,0.0,0.0,0.0,-3.981408707559446,-8.79274341692621,-5.2399475063425545,-0.013308795870225886,-0.009138277102427731,-1.046816238712719
15413,1.0,299.79262,59202.301,0.0,-0.1541302413819824,0.0,0.0,0.0,0.0,-3.9612986314997363,-8.790813986085793,-5.243908503633475,-0.017387198450232882,-0.02766654472097537,-1.063412262100619
15414,1.0,299.94686,59520.878,0.0,-0.15414023736940174,0.0,0.0,0.0,0.0,-3.979978302393276,-8.83038261839091,-5.282499856217145,-0.011431117791913489,-0.0045464283740725454,-1.068631817340749
15415,1.0,299.22285,59531.245,0.0,-0.1541502333568211,0.0,0.0,0.0,0.0,-3.990776002083926,-8.815118410934451,-5.290117673118965,0.0037977963397133165,0.0017912070108033684,-1.031240862150549
15416,1.0,299.53418,59351.38,0.0,-0.15416022934424045,0.0,0.0,0.0,0.0,-3.9676573838272966,-8.804273291139122,-5.269406841074965,0.007966221631479862,-0.001937814471747398,-1.022634923751209
15417,1.0,300.47121,59337.083,0.0,-0.1541702253316597,0.0,0.0,0.0,0.0,-3.976869448436456,-8.81701177007131,-5.243110467854716,0.01989274100601068,0.005271306988987495,-1.025042608638829
15418,1.0,300.59497999999996,59539.954000000005,0.0,-0.1541802543091365,0.0,0.0,0.0,0.0,-4.0006388772323165,-8.832179718768273,-5.265840808673025,-0.003730435067765277,0.010973303025730689,-1.040240042913699
15419,1.0,299.73947999999996,59619.912000000004,0.0,-0.15419025029655586,0.0,0.0,0.0,0.0,-3.9899622609286163,-8.844333653717772,-5.288668725475965,0.014305895776881987,0.0095836042704031,-1.046539621435419
15420,1.0,299.68331,59567.933,0.0,-0.1542002462839751,0.0,0.0,0.0,0.0,-3.9922787533072364,-8.824566968116951,-5.290318397963775,-0.00864020722699706,0.0002452042443872748,-1.031942537844799
15421,1.0,299.99118,59408.242,0.0,-0.15421024227139424,0.0,0.0,0.0,0.0,-3.967352496872206,-8.827301730136853,-5.263967917188185,0.0065455099250415335,0.00018808136820718581,-1.044508054984919
15422,1.0,299.83249,59356.797,0.0,-0.1542202382588137,0.0,0.0,0.0,0.0,-3.9728368143634665,-8.815506485722752,-5.254640950017685,-0.005478160882327385,-0.004077982587840546,-1.028678757947689
15423,1.0,299.92983,59526.236,0.0,-0.15423023424623306,0.0,0.0,0.0,0.0,-3.9971713327400966,-8.830848308136872,-5.266469733010095,0.004742439275442315,-0.012563155254136886,-1.049651616467549
15424,1.0,299.42985,59610.705,0.0,-0.1542402302336524,0.0,0.0,0.0,0.0,-4.008576475865696,-8.836862656755441,-5.274726606749986,0.004414576063734736,-0.018435971072238683,-1.0368938857834589
15425,1.0,299.71148999999997,59500.775,0.0,-0.15425022622107165,0.0,0.0,0.0,0.0,-3.984598114899216,-8.825432081052332,-5.276719568371675,0.012693407541241788,-0.008886888840692641,-1.052790462627329
15426,1.0,299.60782,59381.137,0.0,-0.15426025519854847,0.0,0.0,0.0,0.0,-3.954340541738026,-8.820718036287092,-5.275324322983975,-0.0020594481548267076,-0.01024338197169309,-1.0309173313936189
15427,1.0,299.83807,59552.397000000004,0.0,-0.15427025118596782,0.0,0.0,0.0,0.0,-3.981918372359746,-8.841398977453142,-5.279124213508995,-0.013646238551028885,-0.015834044113948485,-1.023954985981489
15428,1.0,299.86428,59729.831,0.0,-0.15428024717338706,0.0,0.0,0.0,0.0,-3.995261457626606,-8.834507356897992,-5.326608456920325,-0.018640813765455084,-0.011217760758106791,-1.008847872820533
15429,1.0,300.09333,59559.527,0.0,-0.1542902431608062,0.0,0.0,0.0,0.0,-3.9966814263167465,-8.834489422371222,-5.273438259247835,-0.009869749341043422,0.00027884809938266475,-1.029602234088829
15430,1.0,300.08965,59317.417,0.0,-0.15430023914822555,0.0,0.0,0.0,0.0,-3.9359282675458758,-8.82501441936111,-5.270071026515516,0.0013728826540179687,0.012561317218455489,-1.046763347057499
15431,1.0,300.45341,59457.549000000006,0.0,-0.154310235135645,0.0,0.0,0.0,0.0,-3.973740228152626,-8.8296884407474,-5.270181774751444,0.011687393060205888,0.013136457226967387,-1.0445183901359392
15432,1.0,300.06547,59778.597,0.0,-0.15432023112306437,0.0,0.0,0.0,0.0,-3.9907321283545962,-8.86531238908821,-5.315156400315095,0.025008033824100773,0.02282567853346908,-1.057850836276749
15433,1.0,300.26151,59770.615,0.0,-0.1543302271104836,0.0,0.0,0.0,0.0,-4.033330885083767,-8.831089461660673,-5.304354242324004,0.017566694692197782,0.0047271359565319955,-1.026703122902709
15434,1.0,300.53591,59478.60400000001,0.0,-0.15434022309790274,0.0,0.0,0.0,0.0,-3.980657585260316,-8.823762852837591,-5.275590199810216,0.01792023386408938,-0.017156990054013083,-1.049029278256129
15435,1.0,300.53081000000003,59343.698,0.0,-0.15435025207537978,0.0,0.0,0.0,0.0,-3.9762058709459662,-8.818888005281481,-5.243908503633475,-0.019877411545247782,-0.01040463464560749,-1.029639623017519
15436,1.0,300.06859,59672.282,0.0,-0.1543602480627989,0.0,0.0,0.0,0.0,-3.991377264693267,-8.835389391110041,-5.312117055315135,-0.008911891901485251,-0.0013322443335822788,-1.045438725201769
15437,1.0,299.36858,60043.47,0.0,-0.15437024405021815,0.0,0.0,0.0,0.0,-4.047976098054136,-8.860851251547933,-5.342888244952015,-0.008063945651949471,0.005848624775939324,-1.012153358091759
15438,1.0,299.11954,59706.212999999996,0.0,-0.15438024003763773,0.0,0.0,0.0,0.0,-4.003020521592366,-8.827682813499461,-5.318494451444535,-0.0009808123165986392,0.016397742502331187,-1.034897580436439
15439,1.0,299.80349,59327.947,0.0,-0.15439023602505697,0.0,0.0,0.0,0.0,-3.9578093021303666,-8.82711134044306,-5.249293927914975,0.002691141907070028,0.013406080038827088,-1.020818064996899
15440,1.0,300.71727000000004,59577.513,0.0,-0.15440023201247632,0.0,0.0,0.0,0.0,-3.981658271059076,-8.84378720793884,-5.284630721177445,0.005402403820050744,0.016812564053520884,-1.0540147727231588
15441,1.0,300.21488,59962.77,0.0,-0.15441022799989546,0.0,0.0,0.0,0.0,-4.0484694495278255,-8.861184104205782,-5.317531255899475,-0.0012513089553445789,-0.008027761173653343,-1.050450868146429
15442,1.0,300.41806,59679.119000000006,0.0,-0.1544202239873147,0.0,0.0,0.0,0.0,-3.994413569942926,-8.855970121841201,-5.290578397939435,0.0019845960262143783,-0.007706943089891062,-1.061443922456359
15443,1.0,300.58695,59210.04,0.0,-0.15443025296479163,0.0,0.0,0.0,0.0,-3.9415562639013166,-8.803559253793651,-5.253258167606215,0.011903201146004488,0.015574249828058787,-1.0446657167004791
15444,1.0,300.70161,59449.026,0.0,-0.15444024895221087,0.0,0.0,0.0,0.0,-3.9659138843802264,-8.838222438389641,-5.266883240375904,0.006354350971775614,0.011735935845996689,-1.054001803121879
15445,1.0,299.77146,59986.932,0.0,-0.15445024493963022,0.0,0.0,0.0,0.0,-4.060148271505437,-8.863108266145682,-5.311272916656825,0.0024284848856727975,-3.0307704723137572e-05,-1.039270869193049
15446,1.0,299.96331000000004,60027.570999999996,0.0,-0.15446024092704969,0.0,0.0,0.0,0.0,-4.044086636220276,-8.866522513682641,-5.336273444324185,-0.00911867020636768,-0.015335605111506384,-1.054100392356609
15447,1.0,299.61252,59512.983,0.0,-0.15447023691446882,0.0,0.0,0.0,0.0,-3.9760523635558163,-8.846900216221073,-5.2675081117125755,0.008321371263080402,-0.01125597244587799,-1.040124532402299
15448,1.0,299.83815,59255.788,0.0,-0.15448023290188828,0.0,0.0,0.0,0.0,-3.907055097996317,-8.83843532223565,-5.266789413416645,-0.016583380053152186,-0.017579122204674284,-1.054724655743219
15449,1.0,300.00011,59727.269,0.0,-0.1544902288893074,0.0,0.0,0.0,0.0,-3.986683484930026,-8.8592621714161,-5.309652628421915,-0.015752950668695184,-0.019238214878663982,-1.0384400041110489
15450,1.0,299.83787,60038.757000000005,0.0,-0.15450022487672666,0.0,0.0,0.0,0.0,-4.022604112900116,-8.885982691128211,-5.341696054884355,-0.016461707967894087,-0.006238906625607145,-1.041523526815369
15451,1.0,299.41776,59481.797,0.0,-0.15451025385420358,0.0,0.0,0.0,0.0,-3.990290655286026,-8.836349445579792,-5.2543408253380655,0.014074943655088788,0.013864729723092287,-1.0298740890906588
15452,1.0,299.9905,59203.132000000005,0.0,-0.15452024984162283,0.0,0.0,0.0,0.0,-3.9186212465628065,-8.856537440572191,-5.221115138658945,0.016602310604770482,0.011560568598189288,-1.055846627578949
15453,1.0,300.71774,59731.949,0.0,-0.15453024582904218,0.0,0.0,0.0,0.0,-4.010925696222546,-8.861111454173612,-5.284983940162305,0.012602177541988089,0.004433316124334236,-1.036498718244459
15454,1.0,300.1748,60201.46599999999,0.0,-0.15454024181646153,0.0,0.0,0.0,0.0,-4.042182739282376,-8.888419456293702,-5.369140136492875,0.006333543678322094,-0.002208321850944398,-1.039942957984379
15455,1.0,300.27747,59836.675,0.0,-0.15455023780388077,0.0,0.0,0.0,0.0,-4.008925033900097,-8.859112109076293,-5.320817833923836,0.010351949693407891,0.00927368298219125,-1.018810208598739
15456,1.0,300.12587,59361.164000000004,0.0,-0.15456023379130013,0.0,0.0,0.0,0.0,-3.9445388668956762,-8.816930304763272,-5.282842334750945,-0.004021877916553446,9.52007612358336e-05,-1.031626302488589
15457,1.0,299.96297000000004,59544.773,0.0,-0.15457022977871937,0.0,0.0,0.0,0.0,-3.9915439443347163,-8.836637512583222,-5.271942803425245,-0.0025904878712862474,-0.0045772263135120655,-1.045762357283709
15458,1.0,299.18014,59944.657,0.0,-0.15458022576613872,0.0,0.0,0.0,0.0,-4.0382471745689665,-8.86206107216733,-5.321370561853386,-0.01069979338648739,-0.0058156852310884445,-1.052513440049989
15459,1.0,300.2556,59993.49,0.0,-0.15459025474361554,0.0,0.0,0.0,0.0,-4.037142731959967,-8.866848172264783,-5.332532119654945,0.01859085850902488,0.007043840408397924,-1.041388156602009
15460,1.0,299.51184,59595.88,0.0,-0.15460025073103478,0.0,0.0,0.0,0.0,-3.9560591152326356,-8.857618375778872,-5.3019819198648745,0.01893994140697668,-0.008861147931177212,-1.0377168475146792
15461,1.0,300.41258,59542.822,0.0,-0.15461024671845414,0.0,0.0,0.0,0.0,-3.9694826525574363,-8.846067932588932,-5.283980619913286,-0.005042156729847125,0.0027759196310119375,-1.026524486910079
15462,1.0,300.57354,59950.367,0.0,-0.1546202427058735,0.0,0.0,0.0,0.0,-4.022631673302836,-8.879021460291192,-5.321761271091945,-0.013833436507003886,0.001081351044521039,-1.019316428348699
15463,1.0,300.93639,60250.85,0.0,-0.15463023869329273,0.0,0.0,0.0,0.0,-4.073230647521566,-8.899502081912471,-5.342021206841444,-0.02208453674782408,0.016501193311040982,-1.003310106386498
15464,1.0,300.37517,59926.062000000005,0.0,-0.15464023468071209,0.0,0.0,0.0,0.0,-4.027138508422626,-8.884742270355792,-5.304145614128416,-0.004322484092620965,0.017270472038712886,-1.041994181486819
15465,1.0,300.67867,59569.738,0.0,-0.15465023066813133,0.0,0.0,0.0,0.0,-3.973332800287416,-8.864371991670401,-5.270008002359295,0.01041676527580469,0.0027234485759084475,-1.0397924903445293
15466,1.0,300.29082999999997,59765.468,0.0,-0.15466022665555068,0.0,0.0,0.0,0.0,-3.9805561589253067,-8.879344687073091,-5.307308879615604,0.02417161410505258,0.01064971248704479,-1.047739309553819
15467,1.0,300.61193,60110.36,0.0,-0.1546702556330275,0.0,0.0,0.0,0.0,-4.040701671611206,-8.885873361442421,-5.345473653907175,0.0038196504218451464,0.0032029483127813873,-1.0172411908188892
15468,1.0,300.63443,59893.692,0.0,-0.15468025162044685,0.0,0.0,0.0,0.0,-4.008629975470976,-8.888133922415523,-5.3094228232992355,0.019672157472490782,-0.007574900491184473,-1.070390414214309
15469,1.0,300.84479,59471.6,0.0,-0.1546902476078661,0.0,0.0,0.0,0.0,-3.9725788408880063,-8.851470683447141,-5.253831971137846,-0.016531891749320685,-0.025242952820035476,-1.055777219947099
15470,1.0,300.79431,59523.675,0.0,-0.15470024359528545,0.0,0.0,0.0,0.0,-3.9715470483111757,-8.862638726049342,-5.259525322124735,-0.01150479424643479,-0.008030873472660502,-1.082606360069929
15471,1.0,300.63729,59956.907,0.0,-0.1547102395827047,0.0,0.0,0.0,0.0,-4.032155616292776,-8.876265825319232,-5.316981162420185,-0.02908411302162847,-0.015504261603901486,-1.032650090389629
15472,1.0,300.05937,60196.015999999996,0.0,-0.15472023557012404,0.0,0.0,0.0,0.0,-4.048335396539596,-8.89997770150941,-5.3497725701064445,-0.0005116838328467626,0.003556141358438827,-1.048413424845349
15473,1.0,299.74779,59913.695,0.0,-0.15473023155754329,0.0,0.0,0.0,0.0,-4.024758991887786,-8.878010439341411,-5.309497803806635,-0.01977963392384788,-0.001227013244446779,-1.014313607304959
15474,1.0,300.07968999999997,59600.168,0.0,-0.15474022754496264,0.0,0.0,0.0,0.0,-3.9714249516741265,-8.877347672451002,-5.2681902316798945,0.015827495478552184,0.0013672269959347984,-1.048825007035969
15475,1.0,299.94635,59816.605,0.0,-0.154750223532382,0.0,0.0,0.0,0.0,-4.002568409397746,-8.88369831877776,-5.296487469872615,0.0009386732410423362,0.009636717523419972,-1.029154681519659
15476,1.0,299.85918,60185.551,0.0,-0.1547602525098588,0.0,0.0,0.0,0.0,-4.043975482684306,-8.917555260269182,-5.333373927838025,0.0018392887677986685,0.007027494252484682,-1.068299775282979
15477,1.0,299.68397999999996,60030.386,0.0,-0.15477024849727805,0.0,0.0,0.0,0.0,-4.028740862130767,-8.904121387793362,-5.314876034012425,-0.0034641406811590663,-0.004168521651851056,-1.048979629001229
15478,1.0,300.38732999999996,59549.937000000005,0.0,-0.1547802444846974,0.0,0.0,0.0,0.0,-3.9752012334718163,-8.86470849202861,-5.261784160572665,-0.012515614572694988,-0.005025033816407225,-1.043024251538479
15479,1.0,300.76718,59629.394,0.0,-0.15479024047211654,0.0,0.0,0.0,0.0,-3.993137685417006,-8.86352602916191,-5.269183318102905,0.002215214282099628,-0.002087653389910348,-1.029309708784959
15480,1.0,299.96389,60138.594000000005,0.0,-0.154800236459536,0.0,0.0,0.0,0.0,-4.054322286080456,-8.88715603474401,-5.339152594483335,0.011398316859676289,-0.0014085498681380485,-1.030014829529549
15481,1.0,300.07947,60292.685,0.0,-0.15481023244695535,0.0,0.0,0.0,0.0,-4.0704247553446455,-8.9114293528146,-5.345616420846265,0.016995942056618883,0.0017762205351993185,-1.050452388021579
15482,1.0,300.25035,59881.877,0.0,-0.1548202284343746,0.0,0.0,0.0,0.0,-4.005313911868706,-8.888004935677792,-5.309276408659786,0.009566577615722702,-0.004923271285014045,-1.045177205350959
15483,1.0,299.73616,59752.761,0.0,-0.15483022442179395,0.0,0.0,0.0,0.0,-4.000850241203176,-8.865099403917192,-5.297397571112436,0.009654737669823422,0.02120053075107948,-1.045421297300049
15484,1.0,299.75739,59991.450999999994,0.0,-0.15484025339927077,0.0,0.0,0.0,0.0,-4.029380425593886,-8.8943064393747,-5.312216252499924,-0.00952845063565986,0.014759739615922885,-1.030651251917359
15485,1.0,299.69532999999996,60050.18,0.0,-0.1548502493866899,0.0,0.0,0.0,0.0,-4.0347030283691865,-8.892108395932771,-5.326943842703425,-0.021034869425979978,-0.00045096575279435463,-1.043053027841319
15486,1.0,299.35548,59778.242999999995,0.0,-0.15486024537410936,0.0,0.0,0.0,0.0,-3.975137297390506,-8.892683516689532,-5.3032722938672245,-0.02113606980621768,-0.012628782449863788,-1.043511219536539
15487,1.0,299.65802,59514.833,0.0,-0.1548702413615285,0.0,0.0,0.0,0.0,-3.9389491713940163,-8.882366604171333,-5.269707371054625,0.011313170414022989,-0.0008572124419652812,-1.052463284170039
15488,1.0,299.91236000000004,59888.797,0.0,-0.15488023734894785,0.0,0.0,0.0,0.0,-3.998467178292986,-8.889804670505411,-5.316427015940495,0.0075984345419821036,0.0035110264990613374,-1.028255320730899
15489,1.0,299.99778,60323.123,0.0,-0.1548902333363673,0.0,0.0,0.0,0.0,-4.062107390573786,-8.924028205883012,-5.350587527161874,0.020127194920149482,0.006968782893990323,-1.035928765063209
15490,1.0,299.99096000000003,60175.23,0.0,-0.15490022932378644,0.0,0.0,0.0,0.0,-4.050582075986326,-8.906373944090673,-5.334811324429885,0.0013540386339582085,-0.005135859869944905,-1.014177933116569
15491,1.0,300.33805,59842.054000000004,0.0,-0.1549102253112059,0.0,0.0,0.0,0.0,-3.9841192529019565,-8.895605020702861,-5.310766088956805,0.016040325622306884,-0.008514865149876762,-1.036286239698489
15492,1.0,300.76255,59946.815,0.0,-0.1549202542886826,0.0,0.0,0.0,0.0,-4.001058869398766,-8.90787882313919,-5.313397094166465,0.0019135988076074983,-0.007586219102751533,-1.0231384077258991
15493,1.0,299.96966000000003,60197.581,0.0,-0.15493025027610186,0.0,0.0,0.0,0.0,-4.0413174236969756,-8.900331832419361,-5.356912335611085,-0.013288774048249888,-0.022642805128920876,-1.0513661369617588
15494,1.0,299.84005,60177.489,0.0,-0.1549402462635212,0.0,0.0,0.0,0.0,-4.0537136267453855,-8.901324918842374,-5.337415377186885,-0.016014345889742883,-0.026451701420829674,-1.031906466141239
15495,1.0,299.70836,59838.280999999995,0.0,-0.15495024225094045,0.0,0.0,0.0,0.0,-4.004708190958926,-8.882052901940371,-5.302581966574095,-0.005572023102690865,0.015647338597522084,-1.0516479218145691
15496,1.0,299.5884,59771.197,0.0,-0.1549602382383598,0.0,0.0,0.0,0.0,-4.011305665010046,-8.86403670721231,-5.293609028988536,-0.000998992556517889,0.021813140748289377,-1.029188726723019
15497,1.0,299.96771,60211.053,0.0,-0.15497023422577927,0.0,0.0,0.0,0.0,-4.041923853881826,-8.914903078132433,-5.3458295073422955,0.001196191290979889,0.0034802991831537865,-1.058916978031969
15498,1.0,300.69995,60324.312999999995,0.0,-0.1549802302131984,0.0,0.0,0.0,0.0,-4.052692675944626,-8.921975563830433,-5.362416715454325,0.0009115670682096651,-0.005089787894522956,-1.036680799287429
15499,1.0,300.31539,59925.867,0.0,-0.15499022620061775,0.0,0.0,0.0,0.0,-3.9897655890842065,-8.918336881396321,-5.307864748620465,0.01031145717966159,-0.005639305037156074,-1.043296917140389
15500,1.0,300.76816,59876.547999999995,0.0,-0.15500025517809457,0.0,0.0,0.0,0.0,-3.9960220031516664,-8.90842192519279,-5.296531444926955,0.01877854890454848,0.0033351153386002564,-1.039488110014489
15501,1.0,300.61681,60162.402,0.0,-0.1550102511655138,0.0,0.0,0.0,0.0,-4.043851055572026,-8.914409118708683,-5.329607981191355,-0.004055954935966586,-0.005086398471613445,-1.028265858531939
15502,1.0,300.38343,60192.105,0.0,-0.15502024715293317,0.0,0.0,0.0,0.0,-4.036678764739176,-8.93140365336091,-5.328814606363054,0.007646913391691593,0.0036202630671671467,-1.060745995787479
15503,1.0,300.71522000000004,59994.732,0.0,-0.1550302431403524,0.0,0.0,0.0,0.0,-3.9944439674459264,-8.926281876755432,-5.316174412690565,-0.006532957377502693,0.017612542232722583,-1.056751561243259
15504,1.0,300.46387999999996,59877.598,0.0,-0.15504023912777198,0.0,0.0,0.0,0.0,-3.9872577950867063,-8.903099221092482,-5.310937733523745,0.014150058924752087,0.025570196125331873,-1.068332503261209
15505,1.0,300.26959,60064.472,0.0,-0.15505023511519112,0.0,0.0,0.0,0.0,-4.0156566622644565,-8.91868837785601,-5.323754536688665,-0.012138959113021989,0.0016571314270961387,-1.054473977668479
15506,1.0,300.16995,60214.316,0.0,-0.15506023110261036,0.0,0.0,0.0,0.0,-4.057043369224006,-8.901767303836031,-5.344837940794435,0.002855241611115407,0.01032211555746349,-1.044802809439009
15507,1.0,299.91865,60219.067,0.0,-0.1550702270900297,0.0,0.0,0.0,0.0,-4.033671033142336,-8.930341361956073,-5.3410802014735745,-0.014624126222538886,0.017318559875208785,-1.044198405754359
15508,1.0,299.71693,60075.437000000005,0.0,-0.15508025606750653,0.0,0.0,0.0,0.0,-4.019946864512867,-8.91375830816945,-5.327727389005754,-0.003953517681331817,0.018335110130784482,-1.056460859789569
15509,1.0,299.6086,60087.945,0.0,-0.15509025205492577,0.0,0.0,0.0,0.0,-4.028094408566966,-8.912914473486172,-5.324226103285204,-0.008642411755239632,-0.011824498970987187,-1.047830198087789
15510,1.0,299.96824,60196.22900000001,0.0,-0.15510024804234512,0.0,0.0,0.0,0.0,-4.0662142958791065,-8.91284476187929,-5.319091458403455,0.01107674167543929,0.003439208142573416,-1.035351820456269
15511,1.0,300.38694,60201.222,0.0,-0.15511024402976448,0.0,0.0,0.0,0.0,-4.037407494211096,-8.920032859413702,-5.342227909861845,0.018148371177104782,0.007953019286651892,-1.029955047773649
15512,1.0,300.42002,60031.445,0.0,-0.15512024001718394,0.0,0.0,0.0,0.0,-4.021402499606526,-8.910339095707002,-5.316318496854786,0.015272296232008285,0.0015976742152031685,-1.028345702639819
15513,1.0,300.26488,60153.788,0.0,-0.15513023600460307,0.0,0.0,0.0,0.0,-4.014664386441526,-8.928677301316842,-5.341907925480265,-0.007962354461148203,-0.015449259348723186,-1.048519410805809
15514,1.0,300.61832999999996,60364.924000000006,0.0,-0.15514023199202231,0.0,0.0,0.0,0.0,-4.043848117146736,-8.939797113214281,-5.365784353486685,-0.00980943127186549,-0.0031661751361771566,-1.0383431374014889
15515,1.0,300.52755,60310.474,0.0,-0.15515022797944167,0.0,0.0,0.0,0.0,-4.032443683296206,-8.951498024044072,-5.348936334798915,-0.006722840142267664,0.01085150327095999,-1.052703019143699
15516,1.0,300.54947999999996,60189.897000000004,0.0,-0.15516025695691849,0.0,0.0,0.0,0.0,-4.028445499726616,-8.936501618589041,-5.331278729281245,-0.02114598851144658,0.004187004042950126,-1.040575327371789
15517,1.0,300.08165,60154.655,0.0,-0.15517025294433762,0.0,0.0,0.0,0.0,-4.012345563587676,-8.936939139982222,-5.336228456019745,-0.0016938847439984086,-0.02126585093202608,-1.046621593368509
15518,1.0,300.11748,60205.712,0.0,-0.15518024893175708,0.0,0.0,0.0,0.0,-4.015702562493986,-8.936939646607271,-5.3483909022700855,0.0012355056988349188,0.0017198637672873383,-1.0326985237444088
15519,1.0,299.92562999999996,60136.556,0.0,-0.15519024491917643,0.0,0.0,0.0,0.0,-4.006686359129156,-8.924846506663773,-5.348478548403735,0.018284455731785283,0.017082479694659484,-1.053695700266669
15520,1.0,299.52682000000004,60117.28599999999,0.0,-0.1552002409065958,0.0,0.0,0.0,0.0,-3.992207116525166,-8.9406443929479,-5.341302204570486,0.004081865564873766,-0.018337857051805583,-1.048628031216529
15521,1.0,299.21965,60091.119000000006,0.0,-0.15521023689401503,0.0,0.0,0.0,0.0,-4.027747674382747,-8.926569842433851,-5.311882082616945,-0.01919883896652788,-0.016934797479334383,-1.060764132964269
15522,1.0,300.51135,60144.505,0.0,-0.15522023288143427,0.0,0.0,0.0,0.0,-4.045480361732825,-8.912696320739641,-5.324250927912654,-0.012658984395594488,-0.008220636876563691,-1.0303795995655491
15523,1.0,300.76569,60177.48,0.0,-0.15523022886885363,0.0,0.0,0.0,0.0,-4.055480025644716,-8.91077266542479,-5.326198799904895,0.008191667954879682,0.014763139070008386,-1.043553573390719
15524,1.0,300.57923,60307.806,0.0,-0.15524022485627298,0.0,0.0,0.0,0.0,-4.043489325286326,-8.928392882013773,-5.360185032109074,-0.00952513234290737,0.016137335200130984,-1.028929537347439
15525,1.0,299.65682000000004,60412.358,0.0,-0.15525025383374957,0.0,0.0,0.0,0.0,-4.050988287951416,-8.952368000579932,-5.360492046889374,0.013855725982703687,0.0008379566370648813,-1.058284709969569
15526,1.0,300.10229,60506.148,0.0,-0.15526024982116915,0.0,0.0,0.0,0.0,-4.057594577278406,-8.959215950055773,-5.375547626150245,0.0036242936747399365,0.02207808234468708,-1.028427370597879
15527,1.0,300.11913,60462.79,0.0,-0.1552702458085884,0.0,0.0,0.0,0.0,-4.083822556116906,-8.947530440627501,-5.347825407389275,0.023982373436875978,0.026226271512081473,-1.038109887228469
15528,1.0,299.77072999999996,60335.242,0.0,-0.15528024179600775,0.0,0.0,0.0,0.0,-4.050734570126376,-8.947176208392541,-5.3424963198133355,0.01207887946159259,-0.00016238481878113383,-1.0246857419536088
15529,1.0,299.3363,60320.210999999996,0.0,-0.155290237783427,0.0,0.0,0.0,0.0,-4.031758827553617,-8.940199576154,-5.363879443298686,0.0012615453144798289,-0.0032961677272814265,-1.0542572434720892
15530,1.0,299.37203999999997,60332.458,0.0,-0.15530023377084612,0.0,0.0,0.0,0.0,-4.025953816405707,-8.938900893500831,-5.374705817967166,0.0022702283923040976,0.00823073026610983,-1.035563083102119
15531,1.0,299.5977,60180.297,0.0,-0.15531022975826558,0.0,0.0,0.0,0.0,-4.007580349692386,-8.92680390320695,-5.358923130434535,0.00011888632636066688,0.0007285640183111703,-1.0504642430477489
15532,1.0,300.37288,60129.240999999995,0.0,-0.15532022574568494,0.0,0.0,0.0,0.0,-4.025815507767056,-8.928608096335012,-5.323364435400165,-0.007451688671074414,-0.019118923931140883,-1.0511053263860188
15533,1.0,300.10967999999997,60193.553,0.0,-0.15533025472316175,0.0,0.0,0.0,0.0,-4.036582303329657,-8.948780081975832,-5.311974693676086,-0.0053690396220829545,-0.014275409107873185,-1.069877709663709
15534,1.0,299.73637,60300.710999999996,0.0,-0.1553402507105811,0.0,0.0,0.0,0.0,-4.048211172077336,-8.962090236614442,-5.319609026554535,-0.0039058180209492256,0.021211070578619682,-1.066135777044409
15535,1.0,299.91991,60405.820999999996,0.0,-0.15535024669800035,0.0,0.0,0.0,0.0,-4.043811234843096,-8.974569931471091,-5.343479983010415,-0.014676860823993384,0.0070433157474961445,-1.066608863516099
15536,1.0,300.07807,60364.032,0.0,-0.1553602426854197,0.0,0.0,0.0,0.0,-4.041656051880397,-8.967319924355571,-5.340182360559965,-0.01181362781066429,-0.009199226021117921,-1.068290048082019
15537,1.0,300.29095,60235.524000000005,0.0,-0.15537023867283883,0.0,0.0,0.0,0.0,-4.007172313877116,-8.959815388814931,-5.343107309623635,-0.005136851233842745,-0.010964568809868689,-1.0556676876112892
15538,1.0,300.35804,60251.299000000006,0.0,-0.15538023466025808,0.0,0.0,0.0,0.0,-4.029879856568176,-8.95376912281821,-5.3312413403525545,0.024292767406259477,-0.0012510027511643588,-1.050230992874729
15539,1.0,300.38358,60429.898,0.0,-0.15539023064767743,0.0,0.0,0.0,0.0,-4.060315052471896,-8.946442007370083,-5.362422896279935,0.01254365930896279,-0.009263796498315532,-1.014815875379529
15540,1.0,299.8931,60452.195,0.0,-0.1554002266350969,0.0,0.0,0.0,0.0,-4.0657466809579565,-8.94213437721995,-5.368076730512925,0.015544716627394086,-0.005943581711710844,-1.039306636921579
15541,1.0,300.2878,60300.06,0.0,-0.1554102556125736,0.0,0.0,0.0,0.0,-4.017912967587137,-8.938947705655451,-5.372851772934185,-0.006490945495231443,-0.0016005169896837286,-1.039226083538629
15542,1.0,299.71301,60337.861,0.0,-0.15542025159999306,0.0,0.0,0.0,0.0,-4.020186599486526,-8.960481195455642,-5.360535413993654,0.0016167075103816083,0.018345381447048184,-1.062607944171239
15543,1.0,299.73784,60586.184,0.0,-0.1554302475874122,0.0,0.0,0.0,0.0,-4.066022994260226,-8.971346884228002,-5.379317220497274,-0.03019237051725497,-0.02006765229127308,-1.035913464986699
15544,1.0,300.08439,60561.99,0.0,-0.15544024357483166,0.0,0.0,0.0,0.0,-4.096182687461756,-8.956024212240772,-5.357125928732166,-0.017566523452930884,-0.019810043585849084,-1.042043324116669
15545,1.0,300.93324,60321.675,0.0,-0.1554502395622508,0.0,0.0,0.0,0.0,-4.052686697769037,-8.954715802386641,-5.328880366294545,-0.010270086178078591,-0.0004205484306223986,-1.0381413993065791
15546,1.0,300.04787000000005,60213.172,0.0,-0.15546023554967014,0.0,0.0,0.0,0.0,-4.032770963078506,-8.94357430693706,-5.326955393754565,0.018697961071095084,0.008573131083627162,-1.061924608303799
15547,1.0,299.74147999999997,60541.543,0.0,-0.1554702315370895,0.0,0.0,0.0,0.0,-4.050192278672856,-8.977467826757092,-5.3754573455663355,0.00045293579469878254,0.014017311002650888,-1.0611356917759391
15548,1.0,299.76669,60631.325,0.0,-0.15548022752450874,0.0,0.0,0.0,0.0,-4.080900748128546,-8.969473790093142,-5.380034398918054,0.022198962068366978,0.004188029958676376,-1.062621927022619
15549,1.0,299.66638,60322.301,0.0,-0.15549025650198545,0.0,0.0,0.0,0.0,-4.031087144062326,-8.95469725990981,-5.350688953496886,0.022939620533714275,0.012056014459835987,-1.048922988320639
15550,1.0,299.64792,59957.154,0.0,-0.15550025248940502,0.0,0.0,0.0,0.0,-4.006840271819346,-8.93276779197054,-5.285869723399725,0.0089855678493815,0.01909377506365888,-1.026546069137209
15551,1.0,300.10879,60272.169,0.0,-0.15551024847682415,0.0,0.0,0.0,0.0,-4.023312881345067,-8.947817899680873,-5.350103700239125,0.013560496314316788,-0.00951197083205843,-1.028554533485429
15552,1.0,300.02746,60736.369000000006,0.0,-0.1555202444642435,0.0,0.0,0.0,0.0,-4.094337457704646,-8.976823804993533,-5.391178224842865,-0.012312338364133188,0.001063785138137419,-1.0411301831265491
15553,1.0,300.07627,60574.058,0.0,-0.15553024045166286,0.0,0.0,0.0,0.0,-4.057340150178296,-8.980251934056861,-5.375409013536565,-0.002461060369762748,0.029053570623864173,-1.067102620289829
15554,1.0,300.46435,60157.513,0.0,-0.1555402364390821,0.0,0.0,0.0,0.0,-4.009924807773766,-8.96048190473071,-5.315975106395895,-0.004365758079216776,0.002075796033265118,-1.056407461509299
15555,1.0,299.95318,60275.494000000006,0.0,-0.15555023242650146,0.0,0.0,0.0,0.0,-4.027924182550166,-8.97100754676951,-5.323313367595125,0.005114658422202485,-4.2112588185438864e-05,-1.050442255520579
15556,1.0,300.15148,60773.542,0.0,-0.1555602284139207,0.0,0.0,0.0,0.0,-4.111946731192546,-8.990776664170571,-5.370915857293125,0.004933815165554646,-0.003948218991258876,-1.025926264051039
15557,1.0,300.36166000000003,60704.792,0.0,-0.15557025739139752,0.0,0.0,0.0,0.0,-4.0752634298721855,-8.982764794304861,-5.394712745166695,0.015134657351674385,-0.01031868063962449,-1.039876792752849
15558,1.0,299.96996,60310.682,0.0,-0.15558025337881687,0.0,0.0,0.0,0.0,-4.0168992108620865,-8.97538681370171,-5.340655548356665,-0.018745758104812285,-0.014298598349661788,-1.0308149931335189
15559,1.0,299.40826,60268.763,0.0,-0.1555902493662361,0.0,0.0,0.0,0.0,-4.029756746681025,-8.947862584010283,-5.342579608971555,-0.011046425232447291,-0.02306004328159908,-1.049028974281099
15560,1.0,299.52586,60648.812000000005,0.0,-0.15560024535365546,0.0,0.0,0.0,0.0,-4.091283217928216,-8.98018657942541,-5.364254649810715,-0.017951859426210585,-0.003102289818697167,-1.032064026531789
15561,1.0,299.94063,60773.045,0.0,-0.15561024134107482,0.0,0.0,0.0,0.0,-4.104531260335696,-8.978749486808582,-5.390207531247065,0.0028769597150838174,0.006948307743919582,-1.030067315884729
15562,1.0,299.46115,60491.808,0.0,-0.15562023732849395,0.0,0.0,0.0,0.0,-4.062688590831146,-8.960404695073091,-5.364905764324975,-0.002196458009498528,-0.0011960081966868189,-1.018425477535769
15563,1.0,300.33056,60316.542,0.0,-0.1556302333159134,0.0,0.0,0.0,0.0,-4.021942257934796,-8.963806276983801,-5.348974027702635,0.00924732723251514,-0.014046916144072687,-1.0329257957418392
15564,1.0,300.72397,60576.433,0.0,-0.15564022930333266,0.0,0.0,0.0,0.0,-4.065970609230056,-8.972776681444111,-5.374975747793804,0.005587726959365715,0.0027060026383366673,-1.056962418589069
15565,1.0,300.46932999999996,60743.742999999995,0.0,-0.155650225290752,0.0,0.0,0.0,0.0,-4.0973714324790755,-8.987870257583733,-5.379339309349454,0.00881015875434497,0.012284922856177488,-1.0727160258438289
15566,1.0,300.35802,60470.452000000005,0.0,-0.15566025426822883,0.0,0.0,0.0,0.0,-4.065450305303706,-8.982724568275891,-5.333332485908935,-0.01922732851958958,-0.002775471065192667,-1.066038201059779
15567,1.0,300.67552,60208.236,0.0,-0.15567025025564807,0.0,0.0,0.0,0.0,-4.018115313632107,-8.968458006867891,-5.315227226497085,-0.019328224924797282,-0.016491711316605182,-1.055492395343989
15568,1.0,300.62143,60465.115,0.0,-0.15568024624306753,0.0,0.0,0.0,0.0,-4.052518295602416,-8.986411785389791,-5.340955267736245,-0.016060378855035987,0.008063131809469153,-1.049511990603769
15569,1.0,300.32014,60775.030999999995,0.0,-0.15569024223048666,0.0,0.0,0.0,0.0,-4.082446258506076,-8.992246890065672,-5.399398621579155,0.008682495118595552,-0.0027528796409630675,-1.0332323038970892
15570,1.0,299.9715,60574.04,0.0,-0.15570023821790602,0.0,0.0,0.0,0.0,-4.059156400982546,-8.987766906073531,-5.366072217840095,0.0027014686481141976,-0.001251319999770669,-1.052446058918339
15571,1.0,300.03317000000004,60459.94,0.0,-0.15571023420532537,0.0,0.0,0.0,0.0,-4.043227298810466,-8.990830569075891,-5.344254207411825,-0.0008960623861069722,-0.0058199051137799145,-1.048768062380349
15572,1.0,299.72452999999996,60632.29,0.0,-0.1557202301927446,0.0,0.0,0.0,0.0,-4.0824217378536565,-8.987998839021422,-5.360281493518595,0.022635716431221278,0.008806901661898523,-1.062443088379969
15573,1.0,299.92405,60807.947,0.0,-0.15573022618016397,0.0,0.0,0.0,0.0,-4.101847566120837,-8.99156639129851,-5.390683657469054,0.0018306761419486684,0.021422388953225183,-1.027402974746779
15574,1.0,300.12549,60651.575,0.0,-0.15574025515764078,0.0,0.0,0.0,0.0,-4.076487334667975,-8.984953515845872,-5.375123277008365,0.016678585032548182,-0.0015658287778102685,-1.033829209530999
15575,1.0,300.29351,60484.97,0.0,-0.15575025114506003,0.0,0.0,0.0,0.0,-4.035643223136976,-8.9739732284872,-5.376304118674905,-0.007344466342842393,-0.01090078876907409,-1.029056700234989
15576,1.0,299.961,60486.598,0.0,-0.1557602471324795,0.0,0.0,0.0,0.0,-4.057130914032646,-8.988656944961372,-5.340627683978915,0.013737274006263386,0.016725340445162586,-1.0801679737042789
15577,1.0,300.86626,60679.19,0.0,-0.15577024311989862,0.0,0.0,0.0,0.0,-4.084606710369296,-8.99210564300173,-5.368246145929644,0.00046752702170382447,-0.0012119977898898688,-1.053635715860749
15578,1.0,300.38937000000004,60735.515,0.0,-0.15578023910731797,0.0,0.0,0.0,0.0,-4.106590184538896,-8.99787741954636,-5.357612288780165,0.003442562405704457,0.0027961268777562374,-1.069201567871979
15579,1.0,300.66744,60606.885,0.0,-0.15579023509473733,0.0,0.0,0.0,0.0,-4.058532441570966,-8.99359228354845,-5.370854960962115,-0.020062530312017584,-0.0002436224495236638,-1.018913560108939
15580,1.0,300.04975,60541.649000000005,0.0,-0.15580023108215657,0.0,0.0,0.0,0.0,-4.041450767410136,-9.003067995833632,-5.358630807780685,-0.001981499533908778,0.008461150634250554,-1.051734959998159
15581,1.0,300.54536,60773.232,0.0,-0.15581022706957603,0.0,0.0,0.0,0.0,-4.058684530410976,-8.99713318734791,-5.417727403963065,-0.014740716858545486,-0.004405312627345506,-1.0086768868661582
15582,1.0,299.76243999999997,60797.965,0.0,-0.15582025604705274,0.0,0.0,0.0,0.0,-4.0844179418756665,-9.007163147437792,-5.389482044175465,-0.019449042840221083,-0.018547414397737282,-1.0488031208338089
15583,1.0,300.16335,60612.954000000005,0.0,-0.15583025203447198,0.0,0.0,0.0,0.0,-4.040031305345046,-9.008855173779782,-5.375938031413774,-0.0012928304245674288,-0.016688398359766685,-1.042975818183699
15584,1.0,299.52231,60532.949,0.0,-0.15584024802189134,0.0,0.0,0.0,0.0,-4.057304787749806,-8.993187692783522,-5.350012305080105,0.001091057473853989,0.0018711747351955682,-1.0751998058139591
15585,1.0,300.17528,60736.273,0.0,-0.15585024400931058,0.0,0.0,0.0,0.0,-4.079002525391206,-8.998629149795551,-5.384678833401424,0.004563975636654326,-0.0032413888937501767,-1.025901946048639
15586,1.0,300.40621,60746.121,0.0,-0.15586023999672982,0.0,0.0,0.0,0.0,-4.082213514958107,-9.001171698271483,-5.3819187401290245,0.005419875595500075,-0.01012318203750528,-1.046186605100579
15587,1.0,300.06605,60620.928,0.0,-0.15587023598414929,0.0,0.0,0.0,0.0,-4.057017531346456,-8.991778363219431,-5.378452512861935,0.025881093680015076,0.006851616630601914,-1.029892732892499
15588,1.0,299.47004,60648.028,0.0,-0.15588023197156853,0.0,0.0,0.0,0.0,-4.072430078617557,-9.007103264356882,-5.3559528890913946,-0.008579679719023462,0.0013496066780208087,-1.063459986180329
15589,1.0,300.19227,60739.65900000001,0.0,-0.155890227958988,0.0,0.0,0.0,0.0,-4.077366937079786,-9.00772013101776,-5.378252497292195,-0.003186287846687127,-0.02827578262185247,-1.046788576984989
15590,1.0,300.28679,60825.705,0.0,-0.1559002569364646,0.0,0.0,0.0,0.0,-4.104630761495517,-9.01628999771354,-5.368574742937075,-0.029694223330841672,-0.03960757859921366,-1.041013456715029
15591,1.0,300.41407000000004,60901.981,0.0,-0.15591025292388394,0.0,0.0,0.0,0.0,-4.087953678099616,-9.013739545886832,-5.410988277547965,-0.006479924171243724,0.0072305639606761035,-1.021842055547959
15592,1.0,300.50186,60707.195,0.0,-0.1559202489113033,0.0,0.0,0.0,0.0,-4.061917507505046,-9.010249304592373,-5.381304609243415,-0.008562444740122502,0.014847295570313985,-1.038942981460689
15593,1.0,299.90657000000004,60567.437999999995,0.0,-0.15593024489872265,0.0,0.0,0.0,0.0,-4.021906490206266,-9.00014912627056,-5.388933166596295,-0.005080554754311715,0.013848598781500287,-1.040163745181169
15594,1.0,299.94158999999996,60832.293,0.0,-0.15594024088614178,0.0,0.0,0.0,0.0,-4.067973804677756,-9.0110176521432,-5.412506430172795,-0.02189898836301188,0.013901539072725089,-1.052342403433109
15595,1.0,299.49779,60899.562000000005,0.0,-0.15595023687356124,0.0,0.0,0.0,0.0,-4.072202806620126,-9.015619530122372,-5.424124051844365,0.016372312964571485,0.025474366983874272,-1.057752145717009
15596,1.0,299.76995,60696.259000000005,0.0,-0.15596023286098049,0.0,0.0,0.0,0.0,-4.065400554723796,-9.01354682571781,-5.371199871296154,0.003554735777900106,0.025037839589042377,-1.063250243409629
15597,1.0,300.11692999999997,60664.792,0.0,-0.15597022884839984,0.0,0.0,0.0,0.0,-4.063884023299126,-8.995467809483552,-5.381230236686075,0.011835001308273689,-0.005017681369706596,-1.0634401264783688
15598,1.0,299.77293,60850.376,0.0,-0.15598025782587666,0.0,0.0,0.0,0.0,-4.101959023631836,-9.022979373548733,-5.3720563716056855,0.01103190231876399,-0.001814745114601398,-1.053871195183989
15599,1.0,300.43863,60855.428,0.0,-0.1559902538132959,0.0,0.0,0.0,0.0,-4.101772180313396,-9.006627644759941,-5.390130726889485,0.019872298685243178,0.02951749731465017,-1.067915246870029
15600,1.0,301.14338,60820.255,0.0,-0.15600024980071525,0.0,0.0,0.0,0.0,-4.082410186802516,-9.028783168796522,-5.3766453813085855,0.02071519104593018,0.0040864124233725065,-1.073972151992799
15601,1.0,300.97781000000003,60782.54,0.0,-0.1560102457881345,0.0,0.0,0.0,0.0,-4.064387811248847,-9.029908281707561,-5.382078327019775,0.0012483137880489787,-0.028177676707420173,-1.0648682011693091
15602,1.0,300.33096,60829.068,0.0,-0.15602024177555374,0.0,0.0,0.0,0.0,-4.091351105684916,-9.01703422991199,-5.382132434575115,0.0017839674401638782,-0.008958100868320721,-1.051497960799769
15603,1.0,300.05241,60952.147000000004,0.0,-0.1560302377629731,0.0,0.0,0.0,0.0,-4.098717129936886,-9.027331384053241,-5.401882300224274,0.008433694190990812,0.007765033832699173,-1.037412365859629
15604,1.0,299.45445,60841.233,0.0,-0.15604023375039244,0.0,0.0,0.0,0.0,-4.086992306404737,-9.01738197734631,-5.389841545310945,-0.007015796786705233,-0.005841741970660045,-1.045991554456329
15605,1.0,299.96123,60717.02,0.0,-0.1560502297378118,0.0,0.0,0.0,0.0,-4.041100790825596,-9.030908460881273,-5.384448825628724,-0.03999995666068836,-0.015514067838369285,-1.062063220917479
15606,1.0,300.1068,60780.155,0.0,-0.15606022572523115,0.0,0.0,0.0,0.0,-4.034595421208566,-9.043022372451821,-5.398031645869245,-0.002234203804873748,0.016142958738185983,-1.071985168546699
15607,1.0,299.85496,61058.124,0.0,-0.15607025470270774,0.0,0.0,0.0,0.0,-4.094652983785786,-9.030874213027891,-5.434617776505015,-0.0012301464164059988,0.02873272193994887,-1.041273051390649
15608,1.0,299.70342999999997,60942.224,0.0,-0.1560802506901272,0.0,0.0,0.0,0.0,-4.1076081969143665,-9.02739116580914,-5.389915005943195,0.014960066253443587,0.0003346389468487927,-1.0572581862932589
15609,1.0,300.19637,60595.113,0.0,-0.15609024667754645,0.0,0.0,0.0,0.0,-4.044654968201367,-9.016544728788682,-5.358201493713315,-0.0016578561035676584,-0.03237027257369717,-1.043693807204559
15610,1.0,300.47546,60774.62,0.0,-0.1561002426649657,0.0,0.0,0.0,0.0,-4.075585440753967,-9.032566138044873,-5.365815358939745,0.017559034521441783,-0.003267648283341777,-1.076591707476329
15611,1.0,300.05256,61209.301,0.0,-0.15611023865238516,0.0,0.0,0.0,0.0,-4.111816528554696,-9.045806682401611,-5.448475896797704,-0.006871038405868693,0.015374638545108685,-1.059962044185109
15612,1.0,299.30919,61051.802,0.0,-0.1561202346398044,0.0,0.0,0.0,0.0,-4.105825991313476,-9.038572178012622,-5.413825276502954,-0.00995841480429402,0.005207457743211065,-1.069855924786559
15613,1.0,299.45054,60659.72,0.0,-0.15613023062722375,0.0,0.0,0.0,0.0,-4.039840814326246,-9.009409826884522,-5.389789464255805,-0.031602953471718674,-0.01136073237371699,-1.043613152496599
15614,1.0,299.64689,60728.072,0.0,-0.156140226614643,0.0,0.0,0.0,0.0,-4.074946181265876,-9.006144932412301,-5.378726394363965,0.0005729044545512673,0.017550421895591785,-1.030260441353789
15615,1.0,299.88518,61079.880999999994,0.0,-0.1561502555921197,0.0,0.0,0.0,0.0,-4.0997199435608564,-9.034533464439033,-5.432505251371524,0.017750020006290584,0.028576355158016674,-1.023753349211589
15616,1.0,299.59548,61123.549000000006,0.0,-0.15616025157953917,0.0,0.0,0.0,0.0,-4.1285278598039765,-9.02627770527425,-5.425226974578215,0.006831556913072173,-0.004652190000960405,-1.0316826391941492
15617,1.0,299.88555,60911.806,0.0,-0.1561702475669584,0.0,0.0,0.0,0.0,-4.058182059686386,-9.03705118828751,-5.4204347069052545,0.0009894725449383372,-0.01017956038764439,-1.044128998122509
15618,1.0,299.90839,60782.367,0.0,-0.15618024355437765,0.0,0.0,0.0,0.0,-4.066549479012186,-9.029071742425,-5.380700509533795,0.012755282671848387,0.01099663918878379,-1.0466010243914792
15619,1.0,299.97917,61006.719000000005,0.0,-0.15619023954179712,0.0,0.0,0.0,0.0,-4.090296818955866,-9.039561718060282,-5.414660701210405,0.01700972327122898,0.022343971329928276,-1.0393817187539889
15620,1.0,299.75162,61287.276,0.0,-0.15620023552921625,0.0,0.0,0.0,0.0,-4.141905091599206,-9.06077795925416,-5.427118611189904,-0.0009370368218658342,-0.014942794392238985,-1.034501804947379
15621,1.0,299.63887,61032.715,0.0,-0.1562102315166357,0.0,0.0,0.0,0.0,-4.091267816526696,-9.042775747377483,-5.418377910527265,0.006646293859488133,-0.02091720778461768,-1.048334087362519
15622,1.0,299.89701,60697.994000000006,0.0,-0.15622022750405495,0.0,0.0,0.0,0.0,-4.048783050433776,-9.038674820247751,-5.363216777733285,-0.01047474851277719,0.012515592281192789,-1.0768170542985689
15623,1.0,300.1898,61022.153,0.0,-0.15623025648153177,0.0,0.0,0.0,0.0,-4.068666361121107,-9.06424753024658,-5.416296694821866,0.001106196240948069,0.025174079170988177,-1.084975034828699
15624,1.0,300.48791,61255.198,0.0,-0.15624025246895112,0.0,0.0,0.0,0.0,-4.1388416312468665,-9.043774508001052,-5.437434409132995,-0.025237625151009677,0.003963202123137596,-1.047593908164469
15625,1.0,299.95267,60857.212,0.0,-0.15625024845637037,0.0,0.0,0.0,0.0,-4.070171645469666,-9.039976542651223,-5.388924553970445,-0.014211413244807286,0.008797976955017722,-1.042876722323919
15626,1.0,299.58664,60689.78400000001,0.0,-0.1562602444437896,0.0,0.0,0.0,0.0,-4.033354899111136,-9.03155126674471,-5.383272644912645,-0.0032763840190789266,0.011664288931425688,-1.0256153989203591
15627,1.0,299.06647999999996,61029.376,0.0,-0.15627024043120907,0.0,0.0,0.0,0.0,-4.0848174663900965,-9.055560329189221,-5.411028807551965,0.014744582407676985,0.0022906550076950477,-1.046636082844939
15628,1.0,299.56728,61292.977,0.0,-0.1562802364186282,0.0,0.0,0.0,0.0,-4.122943027902796,-9.072762174811912,-5.435829319649585,-0.01037639131232009,-0.03975654460241546,-1.045931468725399
15629,1.0,299.69246,61142.987,0.0,-0.15629023240604767,0.0,0.0,0.0,0.0,-4.123064820564816,-9.056564358713311,-5.406312128336466,0.01290725701459709,-0.026892820865114773,-1.082097505869709
15630,1.0,300.25732999999997,60923.703,0.0,-0.1563002283934669,0.0,0.0,0.0,0.0,-4.1123585160331855,-9.03936687006605,-5.367559061036835,0.02115365982795368,0.0036533212636047363,-1.049364157414179
15631,1.0,299.99295,60823.181,0.0,-0.15631025737094373,0.0,0.0,0.0,0.0,-4.084812704114626,-9.0401344070168,-5.363781056713975,0.009106428422634512,0.0024875281848999176,-1.0732494006964688
15632,1.0,300.25864,61026.35,0.0,-0.15632025335836308,0.0,0.0,0.0,0.0,-4.096359803579236,-9.044816635728901,-5.409310132732345,-0.003475879082242557,-0.013195983643842188,-1.046433736799969
15633,1.0,300.20738,61131.777,0.0,-0.15633024934578232,0.0,0.0,0.0,0.0,-4.111229451446756,-9.057996891704692,-5.413307303051835,-0.018481732486504983,-0.0092874748359274,-1.077633531229149
15634,1.0,300.15421000000003,60913.402,0.0,-0.15634024533320157,0.0,0.0,0.0,0.0,-4.082770397213066,-9.037993308230492,-5.395389494908485,-0.0001989317265055328,0.01844812703368838,-1.057835029575189
15635,1.0,300.14967,60674.025,0.0,-0.15635024132062092,0.0,0.0,0.0,0.0,-4.050143440018036,-9.045107134532572,-5.348137995045125,-0.016496704613097983,0.0004999640856976136,-1.092113179133179
15636,1.0,299.9341,61032.992,0.0,-0.15636023730804027,0.0,0.0,0.0,0.0,-4.1171666917327165,-9.05022880981304,-5.385110173968995,-0.005383430610603235,-0.004144831053912976,-1.032605000760179
15637,1.0,299.17982,61361.379,0.0,-0.15637023329545963,0.0,0.0,0.0,0.0,-4.122143269598866,-9.0757055650274,-5.454478187740086,-0.020616519737942082,-0.0014859966262814486,-1.043299754240669
15638,1.0,299.59179,61145.34,0.0,-0.15638022928287887,0.0,0.0,0.0,0.0,-4.083643514824236,-9.082481168446101,-5.4205319789148545,0.01757548362356518,0.027526663518170177,-1.018762585844039
15639,1.0,299.25554,60847.21,0.0,-0.15639025826035557,0.0,0.0,0.0,0.0,-4.031746769877426,-9.058814381885371,-5.405471333403485,-0.01799779815924438,0.0033574615563056564,-1.058244787915629
15640,1.0,299.14628,61039.64,0.0,-0.15640025424777504,0.0,0.0,0.0,0.0,-4.088567707660217,-9.062606267734601,-5.403352526119375,0.004342156748612506,-0.011521843192617388,-1.0417499882127188
15641,1.0,300.52572000000004,61228.600999999995,0.0,-0.15641025023519428,0.0,0.0,0.0,0.0,-4.124469286528426,-9.07055632934421,-5.416940108635365,0.0026049390468624676,-0.013767983590294184,-1.069335316885179
15642,1.0,300.38113,61075.169,0.0,-0.15642024622261352,0.0,0.0,0.0,0.0,-4.137598778674207,-9.037380697220032,-5.390346954460825,0.02266846163470298,0.02305070111567708,-1.032137791139069
15643,1.0,299.81212999999997,60892.685999999994,0.0,-0.15643024221003288,0.0,0.0,0.0,0.0,-4.063683805079367,-9.045968701092601,-5.400203547458595,-0.005371965787046745,-0.002203979871615878,-1.0500854901603691
15644,1.0,300.16442,60934.725999999995,0.0,-0.15644023819745223,0.0,0.0,0.0,0.0,-4.087182493448506,-9.033869481648502,-5.401583087469745,0.011676995087679689,-0.01169058682452109,-1.026329537590839
15645,1.0,299.76619,61280.53,0.0,-0.15645023418487158,0.0,0.0,0.0,0.0,-4.104254237758356,-9.073598511444452,-5.449898094638065,0.007075289563676712,0.013788406659309789,-1.050410236817419
15646,1.0,300.12622000000005,61487.41099999999,0.0,-0.15646023017229072,0.0,0.0,0.0,0.0,-4.173234480716175,-9.078883623966052,-5.4385194986650855,0.02171835930743518,0.032666744486706666,-1.045732466405759
15647,1.0,300.34269,61131.965,0.0,-0.15647022615971007,0.0,0.0,0.0,0.0,-4.113195257965766,-9.061413368391872,-5.407982167151285,0.0017622150883420881,-0.0008220139573414612,-1.040857213549609
15648,1.0,300.68517,60888.785,0.0,-0.156480255137187,0.0,0.0,0.0,0.0,-4.097708034162296,-9.05600433538304,-5.354957877493195,-0.0038477044800138663,-0.014630001046618685,-1.047013923807229
15649,1.0,300.1562,61252.777,0.0,-0.15649025112460624,0.0,0.0,0.0,0.0,-4.098298049695526,-9.07428742018744,-5.446729256275324,0.005664537903071365,-0.01040266590066319,-1.028931057222589
15650,1.0,300.20899,61473.418,0.0,-0.15650024711202548,0.0,0.0,0.0,0.0,-4.152453531765256,-9.08334273500613,-5.450587712656125,-0.0051913490931212655,0.014943732661831586,-1.026740613156409
15651,1.0,299.69221,61166.758,0.0,-0.15651024309944483,0.0,0.0,0.0,0.0,-4.068264911431486,-9.083563724852942,-5.441338563093304,-0.024429181267222478,-0.018969677257661383,-1.040153815330189
15652,1.0,299.76814,61062.953,0.0,-0.15652023908686408,0.0,0.0,0.0,0.0,-4.107723099475707,-9.06460682873204,-5.389283041855824,-0.024776754422525273,-0.008410194590696581,-1.0675327449572791
15653,1.0,299.27737,61251.552,0.0,-0.15653023507428354,0.0,0.0,0.0,0.0,-4.116849747101436,-9.089537644792523,-5.4125549648525855,0.003900060227255976,0.014125843260612185,-1.056612340679519
15654,1.0,300.41192,61382.12,0.0,-0.15654023106170278,0.0,0.0,0.0,0.0,-4.153432837986906,-9.090585750695961,-5.414613078455704,0.00967908120612594,0.021835692655765078,-1.058941194709359
15655,1.0,300.1907,61234.935,0.0,-0.15655022704912203,0.0,0.0,0.0,0.0,-4.087956008574846,-9.088234605163922,-5.437700488609255,0.008558395995372921,-0.019544425138384582,-1.054478537293929
15656,1.0,300.93917999999996,60907.704000000005,0.0,-0.15656025602659884,0.0,0.0,0.0,0.0,-4.070708262722626,-9.0636711935897,-5.380041592993765,-0.009707299714785891,-0.008175601152019013,-1.069954412696279
15657,1.0,300.2212,60834.52,0.0,-0.1565702520140182,0.0,0.0,0.0,0.0,-4.041584415098326,-9.06587663375736,-5.384713993179894,0.013980856290553087,0.011979771442811388,-1.0826663444758489
15658,1.0,299.64702,61237.996,0.0,-0.15658024800143733,0.0,0.0,0.0,0.0,-4.140879378522976,-9.07955145710696,-5.394390835609924,-0.00023536031701575476,0.012520675756944488,-1.073949353865549
15659,1.0,299.61536,61445.059,0.0,-0.1565902439888569,0.0,0.0,0.0,0.0,-4.153930039810976,-9.08615561860874,-5.437677994457036,0.006520835866556394,-0.02323796999915908,-1.080964996232939
15660,1.0,299.82917000000003,61059.65,0.0,-0.15660023997627603,0.0,0.0,0.0,0.0,-4.103812764689786,-9.070425316106281,-5.386370961068425,-0.007234472775586874,-0.007580604886597453,-1.062723859982679
15661,1.0,299.2112,60882.072,0.0,-0.1566102359636954,0.0,0.0,0.0,0.0,-4.036289575375767,-9.077724161876622,-5.392615925409754,0.027303331037128974,-0.011521156209049591,-1.076584310750599
15662,1.0,299.54744,61415.457,0.0,-0.15662023195111474,0.0,0.0,0.0,0.0,-4.136285505219596,-9.084951674839921,-5.447528305304185,-0.004300755146876486,0.0002984564646553597,-1.0312756166289792
15663,1.0,299.60842,61533.367,0.0,-0.15663022793853387,0.0,0.0,0.0,0.0,-4.127460096848596,-9.10136419863471,-5.475782784342685,-0.009611563083062422,-0.004583152509371935,-1.047294999384969
15664,1.0,300.1106,61104.345,0.0,-0.1566402569160109,0.0,0.0,0.0,0.0,-4.110900449139286,-9.073703382829802,-5.389591475186265,-0.00024422150324778576,0.02317483742517838,-1.051794437779029
15665,1.0,300.3974,60965.889,0.0,-0.15665025290343015,0.0,0.0,0.0,0.0,-4.071776836278087,-9.064154716537422,-5.396176384936145,0.00044551758806666257,0.034171761337240265,-1.061397110301739
15666,1.0,300.45031,61320.01,0.0,-0.1566602488908494,0.0,0.0,0.0,0.0,-4.131460104268366,-9.09534792484095,-5.412943850240965,-0.002742131286552287,0.015679035087150288,-1.0342510255476292
15667,1.0,300.26225,61539.89599999999,0.0,-0.15667024487826875,0.0,0.0,0.0,0.0,-4.124807509411807,-9.103568524227262,-5.478215597832785,-0.010284386176739891,-0.020013597424938284,-1.057742823816089
15668,1.0,300.15417,61458.318,0.0,-0.156680240865688,0.0,0.0,0.0,0.0,-4.129558335155676,-9.099818080307122,-5.452417642336724,0.004065791567937386,0.019129368513171683,-1.0419786787602892
15669,1.0,299.81512999999995,61109.918,0.0,-0.15669023685310735,0.0,0.0,0.0,0.0,-4.066041435412046,-9.082905517587982,-5.4269420016974745,0.008606922467837112,0.0004960919605729645,-1.070450601270249
15670,1.0,300.21303,61137.495,0.0,-0.1567002328405267,0.0,0.0,0.0,0.0,-4.111075032131517,-9.074230070231781,-5.3989666730615244,0.014707043517972187,-0.008152379080927172,-1.050491600800449
15671,1.0,300.12833,61547.802,0.0,-0.15671022882794583,0.0,0.0,0.0,0.0,-4.132018101098436,-9.113710853753233,-5.463265903207365,-0.015150713312758987,-0.033935502824673364,-1.058295349095619
15672,1.0,300.08945,61585.420999999995,0.0,-0.15672025780542287,0.0,0.0,0.0,0.0,-4.162372439644176,-9.097850145962902,-5.460207610430535,0.008240714123320163,-0.013316129774449688,-1.033825764480659
15673,1.0,299.95454,61118.09099999999,0.0,-0.156730253792842,0.0,0.0,0.0,0.0,-4.058842698751586,-9.092091845644601,-5.427438899546515,-0.016859454228398584,-0.01031096980636349,-1.0462365583305089
15674,1.0,299.55257,61028.445999999996,0.0,-0.15674024978026135,0.0,0.0,0.0,0.0,-4.0799224551569955,-9.084215143342231,-5.3869861052041355,-0.01040997548688459,-0.015216176361969685,-1.045665693224169
15675,1.0,299.63577000000004,61561.282,0.0,-0.1567502457676807,0.0,0.0,0.0,0.0,-4.121033558089346,-9.107559007096091,-5.484500078928015,-0.008506106616012362,-0.01101953864104379,-1.046738725080069
15676,1.0,300.03404,61679.34,0.0,-0.15676024175509995,0.0,0.0,0.0,0.0,-4.180638501846897,-9.11847647294856,-5.449864353409735,0.01052851460283349,0.04063572651543396,-1.050799020880789
15677,1.0,299.93616000000003,61267.802,0.0,-0.1567702377425194,0.0,0.0,0.0,0.0,-4.076952112488846,-9.100363208860923,-5.446566730959285,0.016450946238581985,0.029891677404328867,-1.062193524880339
15678,1.0,299.94015,61210.736,0.0,-0.15678023372993855,0.0,0.0,0.0,0.0,-4.122984267181867,-9.081920334515752,-5.401630608899435,0.0037536591653573167,0.0024968184724167976,-1.053638147660989
15679,1.0,299.52047999999996,61423.94,0.0,-0.1567902297173579,0.0,0.0,0.0,0.0,-4.106813606185947,-9.094852344217042,-5.469678053815194,0.004028319552739186,-0.008732467600277452,-1.0348282741295989
15680,1.0,299.86346000000003,61501.582,0.0,-0.15680025869483483,0.0,0.0,0.0,0.0,-4.162124497344706,-9.098839280710523,-5.433981455442215,0.011961680875525989,0.01049357469963519,-1.0476212659171689
15681,1.0,300.23776000000004,61506.22,0.0,-0.15681025468225407,0.0,0.0,0.0,0.0,-4.1184190688563165,-9.108092989898791,-5.469843112256485,0.005682167441561265,0.0012108619365277689,-1.045308623888929
15682,1.0,300.36009,61412.935,0.0,-0.1568202506696733,0.0,0.0,0.0,0.0,-4.130692060692566,-9.107569443572121,-5.429737052098325,-0.017819353670883283,-0.021782126175978477,-1.058753236815809
15683,1.0,299.92489,61438.467000000004,0.0,-0.15683024665709266,0.0,0.0,0.0,0.0,-4.084098261469117,-9.11690289554326,-5.474758591141604,-0.017491474044524082,-0.012349809366081288,-1.0472126221518392
15684,1.0,300.68397000000004,61711.97,0.0,-0.1568402426445119,0.0,0.0,0.0,0.0,-4.165692961546886,-9.137804927881131,-5.455400042681065,-0.010798286362457889,0.01014287262802359,-1.044352318444549
15685,1.0,300.08952,61673.528,0.0,-0.15685023863193137,0.0,0.0,0.0,0.0,-4.133827968427056,-9.13070913743083,-5.482675215497915,-0.009711881226438053,-0.00032388244590720867,-1.0484476726987288
15686,1.0,299.82322,61191.152,0.0,-0.1568602346193505,0.0,0.0,0.0,0.0,-4.1047594442582165,-9.099435173094331,-5.396387546256985,-0.01246873250381809,-0.0017622252208430883,-1.075449166663569
15687,1.0,300.06318999999996,61119.28400000001,0.0,-0.15687023060676986,0.0,0.0,0.0,0.0,-4.084268487485916,-9.098561852833141,-5.395905745834435,0.01105945056248279,-0.002839209461408157,-1.080727287759479
15688,1.0,300.21231,61481.507000000005,0.0,-0.15688025958424667,0.0,0.0,0.0,0.0,-4.147546868156006,-9.1054069652087,-5.435889101405485,0.024310129446722978,0.025846002802551876,-1.0762494315925488
15689,1.0,299.62924,61373.043,0.0,-0.15689025557166603,0.0,0.0,0.0,0.0,-4.096794589197145,-9.113805997937622,-5.445271898656495,0.016847207074439884,0.007696754758810553,-1.074397717034799
15690,1.0,299.70506,61137.581,0.0,-0.15690025155908516,0.0,0.0,0.0,0.0,-4.0761146612811965,-9.109514883764122,-5.398668473557095,0.0016009937238557785,-0.0026164734807008275,-1.0845885812405591
15691,1.0,299.54834,61369.734000000004,0.0,-0.15691024754650462,0.0,0.0,0.0,0.0,-4.087639063943566,-9.106657518482121,-5.460570049991304,0.00961358360508683,0.014470113220588986,-1.060057897644569
15692,1.0,299.71152,61677.362,0.0,-0.15692024353392386,0.0,0.0,0.0,0.0,-4.145515707005546,-9.144249097192121,-5.458613160073175,0.01277293044884009,0.023534881662711976,-1.067192191598669
15693,1.0,299.64882,61743.106,0.0,-0.15693023952134322,0.0,0.0,0.0,0.0,-4.150207764243616,-9.137866938787251,-5.480287694287285,-0.0017056310484326784,-0.016440869466337483,-1.061664507003129
15694,1.0,300.31703999999996,61690.922,0.0,-0.15694023550876246,0.0,0.0,0.0,0.0,-4.150018083824896,-9.134780578982651,-5.467701101545085,-0.011997417193302887,-0.024642747030549774,-1.053328599755439
15695,1.0,300.26997,61380.925,0.0,-0.1569502314961817,0.0,0.0,0.0,0.0,-4.0874872790785854,-9.11324901435765,-5.4575323261915045,-0.004374637797793136,-0.008980346064991152,-1.049587072436179
15696,1.0,300.10795,61380.011,0.0,-0.15696022748360117,0.0,0.0,0.0,0.0,-4.107712966974706,-9.108126325827081,-5.442151493648535,-0.015508648976834485,-0.005154417038901355,-1.037776933245609
15697,1.0,299.39558,61724.067,0.0,-0.15697025646107798,0.0,0.0,0.0,0.0,-4.135896923806246,-9.139074023631382,-5.487604271934374,-0.002923237278951057,-0.017078262547743285,-1.0574472587619188
15698,1.0,299.48285,61632.363,0.0,-0.15698025244849712,0.0,0.0,0.0,0.0,-4.159655409501026,-9.123691873863281,-5.451352209856575,-0.004640335684065476,-0.01066428504998299,-1.043582653668589
15699,1.0,299.71877,61299.832,0.0,-0.15699024843591658,0.0,0.0,0.0,0.0,-4.097857792527076,-9.1092613685891,-5.4264991100787645,0.015140729759523686,0.006070239291435974,-1.0671896584734188
15700,1.0,300.09168999999997,61536.523,0.0,-0.15700024442333582,0.0,0.0,0.0,0.0,-4.127496776502216,-9.137560633282023,-5.440509015236435,-0.0045639773591794955,-0.0013478087670433685,-1.041598507322769
15701,1.0,300.1255,61853.831,0.0,-0.15701024041075518,0.0,0.0,0.0,0.0,-4.175246086139706,-9.125859823777242,-5.5009142239229645,-0.017221236189853682,0.0007026422436528904,-1.0385135660683091
15702,1.0,300.43593,61703.005,0.0,-0.15702023639817453,0.0,0.0,0.0,0.0,-4.149845932632906,-9.129881920049192,-5.476444841958025,-0.00996608460092597,0.00978404368265993,-1.035533597524209
15703,1.0,300.2388,61316.988,0.0,-0.15703023238559366,0.0,0.0,0.0,0.0,-4.084898121098057,-9.111024322438091,-5.442910823273475,0.0024334771689154978,0.01883454313157468,-1.064089923767499
15704,1.0,300.4938,61518.075999999994,0.0,-0.15704022837301312,0.0,0.0,0.0,0.0,-4.146524904105146,-9.1171393881166,-5.4362946040955045,0.0017647502400922883,-5.7421900470100345e-05,-1.060316175095059
15705,1.0,300.40464,61725.665,0.0,-0.15705025735048983,0.0,0.0,0.0,0.0,-4.153687163762006,-9.138893158488532,-5.470480446569385,-0.016305681637995485,-0.029773530416168675,-1.080665580828389
15706,1.0,300.09212,61606.996,0.0,-0.15706025333790918,0.0,0.0,0.0,0.0,-4.126101733764536,-9.155835713410632,-5.445051111459705,0.012772735904820887,-0.0004357168150169016,-1.078680725207499
15707,1.0,300.10742,61409.672,0.0,-0.15707024932532854,0.0,0.0,0.0,0.0,-4.091523864826966,-9.122336043904472,-5.453146979758705,0.005771865811963805,0.007065773220062524,-1.046152154597179
15708,1.0,300.24523,61417.001,0.0,-0.15708024531274778,0.0,0.0,0.0,0.0,-4.088320069335777,-9.144514264743291,-5.436400286080936,0.00919978472722306,0.006545934983458483,-1.069441505495659
15709,1.0,299.17897999999997,61607.511,0.0,-0.15709024130016713,0.0,0.0,0.0,0.0,-4.117216644962646,-9.147571037644973,-5.462357321842695,-0.01096026249694369,0.015932862343201085,-1.044247041759159
15710,1.0,299.8951,61958.494000000006,0.0,-0.15710023728758638,0.0,0.0,0.0,0.0,-4.203432170796456,-9.16359953965186,-5.466803260631475,0.02045806971380428,0.02931191596211087,-1.063241124158729
15711,1.0,299.59487,61748.60400000001,0.0,-0.15711023327500562,0.0,0.0,0.0,0.0,-4.149696984868206,-9.155255830378401,-5.465080735461475,-0.005950630386031494,0.021557334614793276,-1.028257448556109
15712,1.0,300.08803,61298.258,0.0,-0.15712022926242497,0.0,0.0,0.0,0.0,-4.093906319787096,-9.120910603663791,-5.418322891046835,-0.005745806843241985,-0.01116432397433299,-1.056933439636209
15713,1.0,300.29016,61566.467000000004,0.0,-0.1571302582399018,0.0,0.0,0.0,0.0,-4.114129271907946,-9.143274857220973,-5.457264422865065,-0.011086435439145989,-0.010799703899347791,-1.040431445857589
15714,1.0,300.27415,61828.218,0.0,-0.15714025422732114,0.0,0.0,0.0,0.0,-4.173982765915026,-9.135432504096991,-5.484819050059494,0.0022418203045504377,0.012760017589565686,-1.052027890602069
15715,1.0,299.54556,61568.109000000004,0.0,-0.1571502502147405,0.0,0.0,0.0,0.0,-4.1372186072366866,-9.13732039168331,-5.440628781398254,0.014643888652489287,0.023608786098505776,-1.055715918316049
15716,1.0,300.09896000000003,61418.373,0.0,-0.15716024620215963,0.0,0.0,0.0,0.0,-4.153707327438997,-9.124599644627871,-5.391344701834295,0.0008833094075658512,-0.017014753044725384,-1.0854973652552489
15717,1.0,299.35488,61686.905,0.0,-0.1571702421895792,0.0,0.0,0.0,0.0,-4.152675230887136,-9.1338813195189,-5.4647223489011045,-0.004348957987258735,-0.013191592217908787,-1.063046276164499
15718,1.0,299.38833,61782.223,0.0,-0.15718023817699833,0.0,0.0,0.0,0.0,-4.169360318958826,-9.153103687166,-5.457788982441835,0.004640513002832975,-0.014819396742060589,-1.0701824952937888
15719,1.0,299.72317999999996,61744.39599999999,0.0,-0.15719023416441769,0.0,0.0,0.0,0.0,-4.125971632451696,-9.16086984388246,-5.481913251422715,-0.003306466299972817,-0.0015434342280750987,-1.0426708299035992
15720,1.0,300.2327,61643.475,0.0,-0.15720023015183704,0.0,0.0,0.0,0.0,-4.132424819688576,-9.14216119403606,-5.463490946054574,-0.018534347524447683,-0.0077793920932412225,-1.057672098959109
15721,1.0,300.70977999999997,61541.092000000004,0.0,-0.15721025912931375,0.0,0.0,0.0,0.0,-4.120232786535316,-9.140873961109023,-5.445848539288404,-0.007709871281355053,-0.002845727395326427,-1.063481163107419
15722,1.0,300.22622,61566.895,0.0,-0.157220255116733,0.0,0.0,0.0,0.0,-4.140333844669136,-9.145757319965973,-5.428707488671715,0.016112196465149983,0.03043271749397537,-1.071978075795999
15723,1.0,300.78381,61785.990999999995,0.0,-0.15723025110415245,0.0,0.0,0.0,0.0,-4.150803656627425,-9.1654339276329,-5.465160883544385,0.007603872959243832,0.005405227950729465,-1.068927078419889
15724,1.0,300.56896,61732.166,0.0,-0.1572402470915717,0.0,0.0,0.0,0.0,-4.131615334183686,-9.159691636666182,-5.473730142290105,0.004866633441524325,-0.024858534851346373,-1.0651564708227592
15725,1.0,300.83606000000003,61539.708,0.0,-0.15725024307899105,0.0,0.0,0.0,0.0,-4.104397815297526,-9.1481721989293,-5.453964571264395,-0.0018815745315719481,-0.009562745098544462,-1.0506249445136089
15726,1.0,300.10835,61764.960999999996,0.0,-0.1572602390664103,0.0,0.0,0.0,0.0,-4.145572955636196,-9.15454817650856,-5.474884740779054,0.016979847592030483,0.015270804727861088,-1.055724530941899
15727,1.0,300.11002,62011.387,0.0,-0.15727023505382953,0.0,0.0,0.0,0.0,-4.224848731535106,-9.136927351969522,-5.488137140161965,-0.0017320601574160285,0.0026115288202128275,-1.038750362616679
15728,1.0,299.3211,61835.149000000005,0.0,-0.157280231041249,0.0,0.0,0.0,0.0,-4.1922540970182665,-9.157430163767991,-5.446657011543195,-0.009543814648251171,-0.006792337750726544,-1.057670376433939
15729,1.0,299.67924,61701.482,0.0,-0.1572902600187258,0.0,0.0,0.0,0.0,-4.1589446145558755,-9.138942503768401,-5.457822824995175,-0.0040520398389051965,0.01090431183967179,-1.061807780567269
15730,1.0,299.63685,61691.139,0.0,-0.15730025600614495,0.0,0.0,0.0,0.0,-4.143159900523046,-9.138710165520472,-5.470695863540645,0.001137768303463989,0.023950570555987278,-1.0447869014124391
15731,1.0,299.61827,61671.573,0.0,-0.1573102519935643,0.0,0.0,0.0,0.0,-4.117880323778146,-9.170437356626701,-5.458300471092315,0.0007277412896274733,-0.0017642912377969881,-1.060073501696109
15732,1.0,300.24688,61681.238,0.0,-0.15732024798098365,0.0,0.0,0.0,0.0,-4.129623284487086,-9.149733819983423,-5.470199067016615,-0.0061021690312371936,-0.016405563779853086,-1.037877751630559
15733,1.0,300.732,61643.652,0.0,-0.157330243968403,0.0,0.0,0.0,0.0,-4.138993416111846,-9.157059415556402,-5.442078033016285,0.016866941133387485,0.013186468212153087,-1.070447865494979
15734,1.0,300.19282000000004,61553.144,0.0,-0.15734023995582225,0.0,0.0,0.0,0.0,-4.124239582730756,-9.163150467207542,-5.423228541405985,0.017141580546492282,0.014985031722657485,-1.064618333694649
15735,1.0,300.64024,61743.209,0.0,-0.1573502359432415,0.0,0.0,0.0,0.0,-4.127537914456275,-9.174356405363481,-5.466499589576505,-0.005780909879706385,-0.014712478591508586,-1.074549501899779
15736,1.0,301.19965,62154.46,0.0,-0.15736023193066095,0.0,0.0,0.0,0.0,-4.165452618623166,-9.218239152619372,-5.509712173216254,-0.007985656984297982,-0.036023639028256366,-1.051258935101179
15737,1.0,300.82597000000004,62058.474,0.0,-0.1573702279180802,0.0,0.0,0.0,0.0,-4.149689081517425,-9.194217525873622,-5.520319989838165,0.008580098900589831,0.003588185899476377,-1.056168334485699
15738,1.0,300.8049,61672.537000000004,0.0,-0.1573802568955569,0.0,0.0,0.0,0.0,-4.113949622665216,-9.17511867341371,-5.457842887347154,0.008391023797479571,0.015254408314742883,-1.052180688717149
15739,1.0,300.13532999999995,61726.967000000004,0.0,-0.15739025288297626,0.0,0.0,0.0,0.0,-4.140222691133166,-9.169308292040272,-5.453925662460555,0.0004033384182039026,-0.015482459501499785,-1.044410985625339
15740,1.0,300.10767999999996,61951.749,0.0,-0.1574002488703956,0.0,0.0,0.0,0.0,-4.191510371444866,-9.153270164157432,-5.4870043265501645,-0.01909724240550108,0.004425201916208426,-1.059276783142479
15741,1.0,300.44137,61835.865,0.0,-0.15741024485781496,0.0,0.0,0.0,0.0,-4.152100414105406,-9.170586709691442,-5.473871895979095,-0.016161984535313687,0.012366010221930188,-1.058395660855519
15742,1.0,300.04086,61664.41099999999,0.0,-0.1574202408452342,0.0,0.0,0.0,0.0,-4.139702285881807,-9.140781856674932,-5.463957142425585,0.0014842841322874386,0.018119769153281985,-1.067140819818599
15743,1.0,299.56098,61746.778,0.0,-0.15743023683265345,0.0,0.0,0.0,0.0,-4.153972393665156,-9.144000445617582,-5.471505653020565,-0.02199772147925608,-0.022054174708577578,-1.032567003881429
15744,1.0,300.04749,62023.073,0.0,-0.1574402328200728,0.0,0.0,0.0,0.0,-4.203656301718576,-9.178123263935241,-5.471686011538365,0.01063258248085419,-0.02371715522320098,-1.055565248026179
15745,1.0,299.69185,62113.655999999995,0.0,-0.15745022880749215,0.0,0.0,0.0,0.0,-4.208746870220976,-9.175547278206011,-5.496706196257665,0.01016838322579129,-0.0037233475859657964,-1.036615039355939
15746,1.0,299.5914,61968.475999999995,0.0,-0.15746025778496886,0.0,0.0,0.0,0.0,-4.159801621490456,-9.197119676810042,-5.479948052853765,0.007523802491291492,0.015370488272699087,-1.075147015483749
15747,1.0,300.13723999999996,61819.182,0.0,-0.15747025377238832,0.0,0.0,0.0,0.0,-4.118544610543706,-9.185779179040823,-5.487163913440916,-0.009620053814925391,-0.030756524868182672,-1.051375458862679
15748,1.0,300.10694,61946.066,0.0,-0.15748024975980746,0.0,0.0,0.0,0.0,-4.1541981457874355,-9.186487744835752,-5.489371481433785,-0.01058101007726439,-0.005131517991941395,-1.0595345539679188
15749,1.0,300.3048,62141.83,0.0,-0.15749024574722692,0.0,0.0,0.0,0.0,-4.160398729774386,-9.210157165846741,-5.519008641558745,0.0039376449158652965,0.006782919287072015,-1.0412713288654791
15750,1.0,300.45448,61808.693,0.0,-0.15750024173464616,0.0,0.0,0.0,0.0,-4.1490774837570665,-9.17203271890915,-5.467189106269554,0.0017219644373946583,0.007458372575359063,-1.059210212610909
15751,1.0,300.03364,61678.633,0.0,-0.1575102377220654,0.0,0.0,0.0,0.0,-4.114151664735156,-9.178406366013181,-5.456206387110645,-0.007007547411016083,-0.004708257891268875,-1.0733196189283989
15752,1.0,300.6432,61982.361,0.0,-0.15752023370948476,0.0,0.0,0.0,0.0,-4.166120958389126,-9.17803987345201,-5.496929212604675,0.004726738255867746,0.02185655648857418,-1.084147310822009
15753,1.0,300.54803,62064.328,0.0,-0.1575302296969041,0.0,0.0,0.0,0.0,-4.179548143414285,-9.172119858417751,-5.514337963897785,0.02001153140798438,0.041614328528264466,-1.066304584511069
15754,1.0,300.21832,61830.967000000004,0.0,-0.15754025867438082,0.0,0.0,0.0,0.0,-4.146568879159486,-9.187204517956491,-5.461296550313005,0.0025076661253373776,0.020267079162704982,-1.071961762469389
15755,1.0,299.81956,61849.109000000004,0.0,-0.15755025466180028,0.0,0.0,0.0,0.0,-4.158712681607986,-9.168559094916333,-5.473312784573915,-0.00039488978688258757,-0.016512130332620386,-1.058635699804209
15756,1.0,299.95991000000004,62036.069,0.0,-0.1575602506492194,0.0,0.0,0.0,0.0,-4.193520153018216,-9.201391437906631,-5.462504344432205,0.009281422490430081,-0.009379997337008662,-1.0502377816503992
15757,1.0,300.10902000000004,62069.445999999996,0.0,-0.15757024663663888,0.0,0.0,0.0,0.0,-4.175829515547286,-9.207846854293733,-5.483885441417354,0.014508794043156487,-0.004676260871661016,-1.062213789882339
15758,1.0,300.4594,62076.931,0.0,-0.15758024262405812,0.0,0.0,0.0,0.0,-4.141733447032266,-9.210571382487622,-5.517532032188015,-0.005603923052939145,-0.012382978108104788,-1.0717206089455888
15759,1.0,299.92287000000005,62022.871,0.0,-0.15759023861147736,0.0,0.0,0.0,0.0,-4.1444232207477265,-9.21309832691201,-5.495882525251375,-0.003221495855861887,-0.025883426181745273,-1.057536323445709
15760,1.0,300.16114,62010.767,0.0,-0.15760023459889683,0.0,0.0,0.0,0.0,-4.145241622853496,-9.192228313277301,-5.512254823017195,-0.0033147001729354367,0.013507814401867485,-1.045326659740709
15761,1.0,300.82298,62057.234000000004,0.0,-0.15761023058631596,0.0,0.0,0.0,0.0,-4.1749308640335965,-9.198444805290823,-5.490473897542586,0.011280668390565289,0.01889496830128818,-1.055857266704999
15762,1.0,300.1426,62075.54,0.0,-0.15762025956379278,0.0,0.0,0.0,0.0,-4.174135868005136,-9.200336745877541,-5.494941519883504,-0.016591938976746882,0.002016603279648248,-1.0617835638898792
15763,1.0,299.65125,61915.347,0.0,-0.15763025555121213,0.0,0.0,0.0,0.0,-4.146292059232167,-9.18734738622059,-5.487080016332635,-0.019187951594203383,-0.026775597961045772,-1.080219750784389
15764,1.0,299.26941,61923.843,0.0,-0.15764025153863137,0.0,0.0,0.0,0.0,-4.129788444253386,-9.204018694090921,-5.489494895295965,-0.004938541369321085,4.923563101042845e-05,-1.068515800204299
15765,1.0,299.665,62034.165,0.0,-0.15765024752605084,0.0,0.0,0.0,0.0,-4.163326313288316,-9.187018383913122,-5.506492368373485,0.0037128988496095863,-0.003613744322648796,-1.076873188354109
15766,1.0,299.56895,62022.348,0.0,-0.15766024351347008,0.0,0.0,0.0,0.0,-4.172534122247056,-9.189030191986673,-5.491680881061704,-0.014539967695733087,-0.0049812999155910255,-1.047298951060359
15767,1.0,300.12408,61933.127,0.0,-0.15767023950088932,0.0,0.0,0.0,0.0,-4.149951918593366,-9.210828950663041,-5.465343369887394,0.006932792757063374,-0.017534744890044585,-1.093547434649729
15768,1.0,299.64153999999996,62098.59,0.0,-0.15768023548830867,0.0,0.0,0.0,0.0,-4.191669654360586,-9.192653473019261,-5.4920976308278355,0.01054961553616599,0.005636035177758365,-1.039229224613939
15769,1.0,300.04434,62264.179000000004,0.0,-0.15769023147572792,0.0,0.0,0.0,0.0,-4.176652882578546,-9.227571287365382,-5.522531408181415,0.0040889734130002565,-0.0046389933303329954,-1.075798636623059
15770,1.0,299.82863,62064.532,0.0,-0.15770026045320473,0.0,0.0,0.0,0.0,-4.169390108511767,-9.19535094743548,-5.501327123338715,-0.014394831777909288,-0.023541076673823377,-1.0385919916260489
15771,1.0,300.62198,62085.278,0.0,-0.15771025644062409,0.0,0.0,0.0,0.0,-4.149234537522567,-9.20077771232106,-5.522361891439685,-0.008916820957921711,-0.01046819379788029,-1.050910681041809
15772,1.0,300.21607,62200.045999999995,0.0,-0.15772025242804344,0.0,0.0,0.0,0.0,-4.183605500789716,-9.207968849605772,-5.515686397130865,-0.006985907529955394,0.029765657462891674,-1.027772811033279
15773,1.0,299.99309,62196.831,0.0,-0.1577302484154628,0.0,0.0,0.0,0.0,-4.177309063343306,-9.214741615924192,-5.514232687212394,0.003645283150561436,0.026615554094500674,-1.057504406067559
15774,1.0,299.78628,62165.903,0.0,-0.15774024440288203,0.0,0.0,0.0,0.0,-4.189752686496396,-9.221434436809723,-5.485695106095955,-0.004337742625876865,0.00968948150912737,-1.0632692925115093
15775,1.0,299.32336000000004,62227.004,0.0,-0.15775024039030128,0.0,0.0,0.0,0.0,-4.1726026179538165,-9.223020882491292,-5.519832008590004,0.014407833803192487,-0.0019403249001951584,-1.0648060889381792
15776,1.0,298.84171000000003,62170.308,0.0,-0.15776023637772063,0.0,0.0,0.0,0.0,-4.175878455527116,-9.21407226290813,-5.508270622298985,0.023690692170339273,0.0015052625636828487,-1.063181139752809
15777,1.0,299.27558,62102.295,0.0,-0.15777023236513987,0.0,0.0,0.0,0.0,-4.154508706943086,-9.20989746984611,-5.513140808904636,0.0056971137924613545,-0.019472866376572282,-1.049101624313269
15778,1.0,299.81782000000004,62115.492999999995,0.0,-0.15778022835255934,0.0,0.0,0.0,0.0,-4.167230872548666,-9.1992440569697,-5.515084019946415,-0.0037242583964806866,-0.006657117903681383,-1.056693805987559
15779,1.0,300.06622999999996,62092.772000000004,0.0,-0.15779025733003604,0.0,0.0,0.0,0.0,-4.164559945285067,-9.209663409073011,-5.500428877125065,-0.00981357374224932,0.003844837488855916,-1.051157002141119
15780,1.0,300.37819,62102.505999999994,0.0,-0.15780025331745529,0.0,0.0,0.0,0.0,-4.167149103265595,-9.228213079978723,-5.482248941180845,-0.0015796656198508584,0.02909891559233937,-1.0922626335229288
15781,1.0,300.08783,62172.164000000004,0.0,-0.15781024930487475,0.0,0.0,0.0,0.0,-4.158682790730036,-9.22716071842486,-5.512941806584995,-0.004848850192994256,0.004237162354700366,-1.068914514118649
15782,1.0,300.30784,62167.505999999994,0.0,-0.15782024529229388,0.0,0.0,0.0,0.0,-4.165425666170506,-9.22946282265206,-5.502481012552595,0.002605528454445638,-0.0005557096408842716,-1.075549478423469
15783,1.0,299.54127,62067.907,0.0,-0.15783024127971323,0.0,0.0,0.0,0.0,-4.140969557781876,-9.220668419734121,-5.5054560161712045,0.003350155921759647,0.0006700673168504954,-1.051956963095069
15784,1.0,299.67387,62029.01,0.0,-0.1578402372671326,0.0,0.0,0.0,0.0,-4.1622505456571455,-9.218921171261682,-5.474098458701454,0.014572690607712586,0.017420013567971484,-1.056692184787399
15785,1.0,299.48675,62135.555,0.0,-0.15785023325455194,0.0,0.0,0.0,0.0,-4.174822851572936,-9.2256838050791,-5.487150437214585,0.01039028499769129,0.0018766516559610982,-1.073656828561679
15786,1.0,299.74869,62205.74,0.0,-0.1578602292419713,0.0,0.0,0.0,0.0,-4.197973083232686,-9.220161288059073,-5.490857311380425,-0.006075307365786155,-0.0100628634617023,-1.073974786443059
15787,1.0,299.71491000000003,62259.27099999999,0.0,-0.157870258219448,0.0,0.0,0.0,0.0,-4.188870246984306,-9.220617250604072,-5.515776272414735,-0.0025801426890902576,-0.016441028546603186,-1.076233016940929
15788,1.0,299.98786,62175.398,0.0,-0.15788025420686724,0.0,0.0,0.0,0.0,-4.185173100019426,-9.21453957385425,-5.500055899763254,0.014245351043656686,-0.026569385353694176,-1.057384031955679
15789,1.0,300.43209,62102.431,0.0,-0.1578902501942866,0.0,0.0,0.0,0.0,-4.144481989253525,-9.224844124721232,-5.508262212323155,-0.007011953123775894,-0.02005072898810288,-1.078339057273779
15790,1.0,301.26811000000004,62220.939000000006,0.0,-0.15790024618170595,0.0,0.0,0.0,0.0,-4.175989406413066,-9.23297677399886,-5.504645517416215,-0.009597743162298502,-0.018615459208202782,-1.043422458827779
15791,1.0,300.48823,62377.778,0.0,-0.1579102421691252,0.0,0.0,0.0,0.0,-4.2026302846673165,-9.244707069081551,-5.513949585134454,-0.01845190949631168,0.0100208541125563,-1.0712697126510888
15792,1.0,300.08727999999996,62255.238,0.0,-0.15792023815654455,0.0,0.0,0.0,0.0,-4.181948634226196,-9.231935963496142,-5.510153240984786,-0.014630144928132884,0.021941480019205477,-1.051547306079639
15793,1.0,300.61312000000004,62131.709,0.0,-0.1579302341439638,0.0,0.0,0.0,0.0,-4.154328145775266,-9.235269961625182,-5.496889999825805,0.002246882704700058,0.008059874717022701,-1.0807213095838888
15794,1.0,300.22876,62307.102999999996,0.0,-0.15794023013138325,0.0,0.0,0.0,0.0,-4.177229827185486,-9.236949423665932,-5.525624151461645,-0.0003033043090963047,5.951342092901735e-05,-1.0417727863399688
15795,1.0,299.83319,62424.905999999995,0.0,-0.15795025910885996,0.0,0.0,0.0,0.0,-4.210503541919346,-9.24047077173846,-5.524638461764365,0.0026824662570638074,0.0015476827857443985,-1.038647213756499
15796,1.0,299.70581,62307.280999999995,0.0,-0.1579602550962792,0.0,0.0,0.0,0.0,-4.197897596100236,-9.236272369949111,-5.505687746469074,0.009168050443366133,-0.007444165897031973,-1.041271632840509
15797,1.0,299.83583,62130.429000000004,0.0,-0.15797025108369855,0.0,0.0,0.0,0.0,-4.195484439662076,-9.217184865890323,-5.4734299162854745,0.009344705126750591,0.02278382015858798,-1.058946159634849
15798,1.0,300.47162000000003,62180.200999999994,0.0,-0.1579802470711179,0.0,0.0,0.0,0.0,-4.172707590664176,-9.241393031979483,-5.487127841737355,-0.008572334669048562,0.005634721296353694,-1.0659386998999592
15799,1.0,299.95568,62288.395,0.0,-0.15799024305853704,0.0,0.0,0.0,0.0,-4.193020924693946,-9.23247511387435,-5.508620801533545,-0.006978527725502062,0.0034592577276021563,-1.064644982172279
15800,1.0,300.01,62402.758,0.0,-0.1580002390459565,0.0,0.0,0.0,0.0,-4.201304953536516,-9.23706128647697,-5.530513893794224,-0.004249225907740946,-0.011924958665401789,-1.0572646710938989
15801,1.0,300.53087999999997,62156.343,0.0,-0.15801023503337575,0.0,0.0,0.0,0.0,-4.1612956587629055,-9.230966688450481,-5.501713982226895,0.015962754234401185,-0.0038724261612537066,-1.052456799369399
15802,1.0,300.53105,62087.176,0.0,-0.1580202310207951,0.0,0.0,0.0,0.0,-4.148788403503536,-9.229626259893191,-5.494536422493525,0.020579811713319282,-0.021527670704865682,-1.0374655614898791
15803,1.0,300.2703,62448.875,0.0,-0.15803025999827192,0.0,0.0,0.0,0.0,-4.187061798205826,-9.25534214213115,-5.540494609929245,0.010828060716646389,-0.007386233322564472,-1.041912513528759
15804,1.0,299.65766,62672.917,0.0,-0.15804025598569116,0.0,0.0,0.0,0.0,-4.2190056221834356,-9.262929561529972,-5.569066641549085,-0.00028391162423989575,-0.0012895314848918487,-1.052755708148899
15805,1.0,299.71009,62296.614,0.0,-0.1580502519731105,0.0,0.0,0.0,0.0,-4.177242695461756,-9.22999376570446,-5.529378547057175,0.006717950095960054,0.018348921742897584,-1.0490038456786188
15806,1.0,300.30449,62101.634000000005,0.0,-0.15806024796052986,0.0,0.0,0.0,0.0,-4.155892299954636,-9.240917412382542,-5.480536447186835,0.001148147632188349,0.014088450278921787,-1.0426785306043589
15807,1.0,300.30022,62420.062000000005,0.0,-0.158070243947949,0.0,0.0,0.0,0.0,-4.204808772382316,-9.24860615679136,-5.520725391203174,-0.016366005482698984,0.0006137675949191454,-1.0486438379180891
15808,1.0,299.76982999999996,62592.149000000005,0.0,-0.15808023993536846,0.0,0.0,0.0,0.0,-4.260488891877516,-9.252876195362782,-5.513085384124165,-0.016693578094277885,-0.012192083815764988,-1.066734607853509
15809,1.0,300.11298999999997,62401.528,0.0,-0.1580902359227877,0.0,0.0,0.0,0.0,-4.210179099237326,-9.262039927942173,-5.496287419991336,-0.018977449899178482,0.003853843255744716,-1.0627911397893188
15810,1.0,299.93185,62123.5,0.0,-0.15810023191020706,0.0,0.0,0.0,0.0,-4.1807101386289665,-9.22316446003046,-5.480118177545554,-0.0002716419457314727,8.96337746954148e-05,-1.075320078600829
15811,1.0,300.25808,62281.43,0.0,-0.15811026088768387,0.0,0.0,0.0,0.0,-4.186944767819276,-9.243193982707222,-5.501860700841375,0.0016679604362148783,-0.0006168128876971923,-1.059291576593939
15812,1.0,299.9505,62548.36,0.0,-0.15812025687510312,0.0,0.0,0.0,0.0,-4.213137485554296,-9.25908914100095,-5.540913082220545,0.01045537517086519,-0.007620658055100394,-1.0794773424361188
15813,1.0,299.93043,62454.487,0.0,-0.15813025286252258,0.0,0.0,0.0,0.0,-4.207922287289596,-9.243121130025031,-5.533561040819954,0.007693812888470213,0.003595019359475786,-1.056036004022639
15814,1.0,300.0366,62040.807,0.0,-0.1581402488499417,0.0,0.0,0.0,0.0,-4.144828824762756,-9.230542237983592,-5.483485106302845,0.020035392434589284,-0.00927683449397728,-1.082084637593439
15815,1.0,300.05144,62003.075999999994,0.0,-0.15815024483736106,0.0,0.0,0.0,0.0,-4.138914281279036,-9.224579666445132,-5.483892838143085,-0.01030072078160199,-0.014316171146146087,-1.066397600870249
15816,1.0,299.17737,62399.594000000005,0.0,-0.15816024082478042,0.0,0.0,0.0,0.0,-4.175470825011886,-9.266580402965282,-5.525867128835624,-0.014535599574551986,-0.00951224116718511,-1.105326973687279
15817,1.0,299.51041000000004,62647.623,0.0,-0.15817023681219966,0.0,0.0,0.0,0.0,-4.232008559391725,-9.27726583454485,-5.534038788242104,-0.010981471848036889,0.016220976969385785,-1.061815785243059
15818,1.0,299.91152,62408.792,0.0,-0.158180232799619,0.0,0.0,0.0,0.0,-4.186712226921326,-9.262730457885322,-5.521271735657095,-0.009109963854883432,0.016330864955980885,-1.074238332794069
15819,1.0,300.21356000000003,62215.200999999994,0.0,-0.15819022878703826,0.0,0.0,0.0,0.0,-4.172200864289167,-9.263232016684823,-5.476434709457025,-0.003393450477332487,0.018979028542834283,-1.057318373349199
15820,1.0,300.25765,62491.47900000001,0.0,-0.15820025776451507,0.0,0.0,0.0,0.0,-4.205723331922576,-9.271506217001422,-5.518619756170365,-4.1681231405867256e-05,0.01064610632993889,-1.063457655705099
15821,1.0,300.28407999999996,62782.435999999994,0.0,-0.15821025375193443,0.0,0.0,0.0,0.0,-4.229516268120756,-9.287188896749182,-5.567587803028135,-0.0054916529153589445,0.01910792510130538,-1.0595617090705989
15822,1.0,300.15647,62520.115999999995,0.0,-0.15822024973935367,0.0,0.0,0.0,0.0,-4.188061268104466,-9.27406406555386,-5.542428701720125,-0.00015581325353507087,-0.007882067562974503,-1.0526704938154892
15823,1.0,300.00327000000004,62194.094000000005,0.0,-0.15823024572677302,0.0,0.0,0.0,0.0,-4.166380654389756,-9.235011278874651,-5.504059453558375,0.0009529718920810031,-0.0003236508068018477,-1.0564955129429892
15824,1.0,300.15778,62282.390999999996,0.0,-0.15824024171419238,0.0,0.0,0.0,0.0,-4.176143825728306,-9.240342190300773,-5.515805656667635,-0.006412490249263514,-0.012490569056723187,-1.057874343679069
15825,1.0,299.6345,62548.717000000004,0.0,-0.1582502377016115,0.0,0.0,0.0,0.0,-4.226330103181306,-9.26152803399165,-5.525390090688545,0.006223036595915894,0.015129207079386486,-1.0638480609686292
15826,1.0,299.96827,62617.34099999999,0.0,-0.15826023368903108,0.0,0.0,0.0,0.0,-4.222344787887986,-9.260902250729892,-5.550861070377335,0.005147546392623275,-0.001720314866231858,-1.035807276376219
15827,1.0,299.88453,62448.627,0.0,-0.1582702296764502,0.0,0.0,0.0,0.0,-4.176919975304906,-9.26365585920165,-5.542247431277235,0.005822732892158994,-0.009849927433312151,-1.0714419651680889
15828,1.0,299.34137000000004,62353.34099999999,0.0,-0.15828025865392703,0.0,0.0,0.0,0.0,-4.169850833332236,-9.25439566521274,-5.529612101205225,0.01181618930691709,-0.012325413343423589,-1.049882941465379
15829,1.0,299.68074,62623.137,0.0,-0.15829025464134638,0.0,0.0,0.0,0.0,-4.217746354959155,-9.279780012017982,-5.538343479966945,0.009951463300657961,0.005313653649091785,-1.0666871877488289
15830,1.0,300.04357999999996,62743.787000000004,0.0,-0.15830025062876563,0.0,0.0,0.0,0.0,-4.225858637909775,-9.293713619443123,-5.552972379610704,-0.003398717047377257,-0.0032960581949456167,-1.0445048125845988
15831,1.0,299.73974,62517.115999999995,0.0,-0.15831024661618487,0.0,0.0,0.0,0.0,-4.215642949076566,-9.269571111960442,-5.518428251901465,-0.00925849304596712,0.0049935784803028255,-1.0678866732172092
15832,1.0,299.96257,62376.350999999995,0.0,-0.15832024260360433,0.0,0.0,0.0,0.0,-4.175173334782525,-9.28161328542391,-5.504066444984065,-0.005777842771653684,-0.004995608425553165,-1.071063617580749
15833,1.0,300.05956000000003,62356.124,0.0,-0.15833023859102358,0.0,0.0,0.0,0.0,-4.159043406440626,-9.26047060618729,-5.535190650955785,0.008852629638911522,0.008756808806104742,-1.063357039970169
15834,1.0,299.87462999999997,62601.772000000004,0.0,-0.15834023457844293,0.0,0.0,0.0,0.0,-4.186524370352786,-9.28464422044804,-5.558207032277325,-0.0017664227107073484,-0.01872182108444988,-1.054462933242389
15835,1.0,300.33389,62715.742999999995,0.0,-0.15835023056586217,0.0,0.0,0.0,0.0,-4.213466285211746,-9.28381406464111,-5.5667396113694245,0.00046001415724736256,-0.016362384126841583,-1.0661122696420888
15836,1.0,300.62663,62541.398,0.0,-0.158360259543339,0.0,0.0,0.0,0.0,-4.206410214165366,-9.270496107976731,-5.534117112474835,-0.007775729295454733,-0.011263578914378689,-1.059677219581999
15837,1.0,300.68655,62419.420999999995,0.0,-0.15837025553075834,0.0,0.0,0.0,0.0,-4.194943060133646,-9.268601532939751,-5.510400676659204,0.0023520695148061877,0.014703593401381686,-1.058519581342749
15838,1.0,300.4678,62667.949,0.0,-0.15838025151817758,0.0,0.0,0.0,0.0,-4.214568903970566,-9.288270541230931,-5.546652130786945,-0.022593448703299778,0.004565016953782096,-1.059889596802959
15839,1.0,300.1196,62940.432,0.0,-0.15839024750559683,0.0,0.0,0.0,0.0,-4.240785027782896,-9.303490570983032,-5.5880439039969945,-0.01127535389379079,0.0025182725234091474,-1.0666250755176991
15840,1.0,299.78195,62734.109000000004,0.0,-0.15840024349301618,0.0,0.0,0.0,0.0,-4.227797390651116,-9.293727602294501,-5.548077773677645,0.002937165820125697,-0.005171786476090585,-1.077648426005619
15841,1.0,299.9896,62356.487,0.0,-0.15841023948043553,0.0,0.0,0.0,0.0,-4.1814333965503465,-9.269816014509612,-5.503565494134624,0.008600826147285452,0.017671378626279283,-1.061348778271969
15842,1.0,299.64853999999997,62406.735,0.0,-0.1584202354678549,0.0,0.0,0.0,0.0,-4.189987861844607,-9.27709773635326,-5.503003342979145,0.019923966334342378,0.0014118700860657287,-1.0627158553068887
15843,1.0,300.01067,62743.449,0.0,-0.15843023145527424,0.0,0.0,0.0,0.0,-4.217099901395356,-9.295840938028071,-5.559500851330014,-0.0008550969480089982,-0.001356761034326889,-1.074525183897379
15844,1.0,299.60738,62611.875,0.0,-0.15844026043275095,0.0,0.0,0.0,0.0,-4.179475290732096,-9.296561966799231,-5.556409425274914,-0.013332316444797189,0.019335893201554082,-1.0731037966570989
15845,1.0,299.89102,62420.804000000004,0.0,-0.1584502564201703,0.0,0.0,0.0,0.0,-4.152123921507727,-9.28672969180386,-5.535512256537524,-0.02606250395141887,0.004668110490506636,-1.0651912253011888
15846,1.0,299.65271,62461.699,0.0,-0.15846025240758954,0.0,0.0,0.0,0.0,-4.179963373305267,-9.272580160782411,-5.534253191963265,-0.015479410631948886,-0.010875299449558489,-1.063516525535909
15847,1.0,300.02685,62864.359000000004,0.0,-0.15847024839500878,0.0,0.0,0.0,0.0,-4.238478262605236,-9.316449127836941,-5.5542680225135745,-0.016078272851801988,-0.013138158473885289,-1.066664693596609
15848,1.0,300.23323999999997,62955.471,0.0,-0.15848024438242814,0.0,0.0,0.0,0.0,-4.253448526207686,-9.313969603517231,-5.569473157489204,0.03183170886729507,0.005513757776890525,-1.082518207311229
15849,1.0,300.932,62691.215,0.0,-0.1584902403698475,0.0,0.0,0.0,0.0,-4.222663759019466,-9.301604000621841,-5.532296200720125,0.013138270944646386,0.03135478420422627,-1.0666705704471888
15850,1.0,300.51478,62483.157,0.0,-0.15850023635726684,0.0,0.0,0.0,0.0,-4.165599539887666,-9.30101246521346,-5.526707619793575,0.007139548263818555,0.006768598719433683,-1.089743795099339
15851,1.0,300.40131,62714.094000000005,0.0,-0.1585102323446861,0.0,0.0,0.0,0.0,-4.217072543642656,-9.30625228545559,-5.540193775974554,0.007642999915830363,-0.009395668465705281,-1.069659151617139
15852,1.0,299.50046000000003,62913.89,0.0,-0.1585202613221628,0.0,0.0,0.0,0.0,-4.237631489496666,-9.31031207463126,-5.5763079347137445,0.00014742524496723884,-0.005453264820745335,-1.070678886517779
15853,1.0,299.85152,62752.124,0.0,-0.15853025730958226,0.0,0.0,0.0,0.0,-4.213976659287116,-9.31197056239494,-5.549131553781645,0.003927131939452747,-0.01239687989947679,-1.048208140375089
15854,1.0,299.45387,62518.598,0.0,-0.1585402532970015,0.0,0.0,0.0,0.0,-4.185667160768186,-9.285203838478273,-5.533221703361465,-0.018478223601408682,-0.02316143313960548,-1.053170938039879
15855,1.0,300.24991,62717.09,0.0,-0.15855024928442085,0.0,0.0,0.0,0.0,-4.203661469294086,-9.292383222061822,-5.568384724231785,-0.003535804111706697,-0.006794429605557994,-1.059726564861869
15856,1.0,299.86116,62977.846,0.0,-0.1585602452718402,0.0,0.0,0.0,0.0,-4.220083720289836,-9.32043748288056,-5.603171322689954,0.003203440043054917,0.01768244737037168,-1.064673555825099
15857,1.0,299.92447000000004,62849.134000000005,0.0,-0.15857024125925934,0.0,0.0,0.0,0.0,-4.227112332258506,-9.303695450153251,-5.573759408062225,0.014317033421981184,0.016338394417473985,-1.0786953160089388
15858,1.0,299.98122,62600.105,0.0,-0.1585802372466788,0.0,0.0,0.0,0.0,-4.215471000534596,-9.28058118887205,-5.532816605971485,-0.008031630674460232,-0.01213737844286599,-1.061819027643379
15859,1.0,300.24098,62618.547,0.0,-0.15859023323409804,0.0,0.0,0.0,0.0,-4.215899706651906,-9.29388962098549,-5.524685273918985,0.007029369373119744,-0.01975698170461228,-1.084574902364209
15860,1.0,299.99486,62681.433,0.0,-0.15860026221157486,0.0,0.0,0.0,0.0,-4.240023469007736,-9.280099084474472,-5.533467923135765,-0.004614765507191896,0.0026013381586570874,-1.048162138820549
15861,1.0,300.40567000000004,62876.6,0.0,-0.15861025819899421,0.0,0.0,0.0,0.0,-4.223212535273626,-9.31309060905548,-5.576613328293885,0.001919404933330518,0.0036546212634830364,-1.082474130931879
15862,1.0,300.55458,62889.86,0.0,-0.15862025418641346,0.0,0.0,0.0,0.0,-4.2182877344875855,-9.31975404568811,-5.578905198695075,-0.02549609613226877,-0.008825264286835771,-1.0518029490798688
15863,1.0,299.99296,62742.615999999995,0.0,-0.1586302501738327,0.0,0.0,0.0,0.0,-4.212337321950326,-9.302622924922401,-5.557228435330744,0.010374037532337791,-0.0013780946098823487,-1.062866120296719
15864,1.0,300.06072,62788.81,0.0,-0.15864024616125216,0.0,0.0,0.0,0.0,-4.213454734160607,-9.3172623623672,-5.555513205561465,0.0029003558625428374,0.028733059352232172,-1.040706137959699
15865,1.0,299.51306,62783.999,0.0,-0.1586502421486713,0.0,0.0,0.0,0.0,-4.209196449290347,-9.311368185210492,-5.564203446369125,0.011566725105796889,0.006522691836764563,-1.050046277381499
15866,1.0,299.46871,62747.363,0.0,-0.15866023813609065,0.0,0.0,0.0,0.0,-4.200869863943576,-9.3224947858836,-5.550267001843705,-0.020911766631580682,-0.01892431202418418,-1.057171249434679
15867,1.0,299.82583999999997,62740.904,0.0,-0.15867023412351,0.0,0.0,0.0,0.0,-4.195713839484716,-9.324381660219823,-5.551572574597554,-0.016174854838083882,-0.008827247419931492,-1.072556742928109
15868,1.0,299.94712000000004,62710.842000000004,0.0,-0.15868023011092924,0.0,0.0,0.0,0.0,-4.211025365720846,-9.312428855415172,-5.539075857139224,0.0015011393450509187,0.02277452662867078,-1.082340179268659
15869,1.0,299.86099,62714.390999999996,0.0,-0.15869025908840617,0.0,0.0,0.0,0.0,-4.220577882363607,-9.323069906640361,-5.5199611979777545,0.00019238800537221782,0.004637564749017006,-1.078494895139159
15870,1.0,300.5159,62916.069,0.0,-0.1587002550758254,0.0,0.0,0.0,0.0,-4.237313126315246,-9.32851197160245,-5.559088863839354,0.005966843400881594,-0.009544014055870851,-1.080441855206309
15871,1.0,300.75226000000004,62997.945999999996,0.0,-0.15871025106324466,0.0,0.0,0.0,0.0,-4.250959578662046,-9.333413163661161,-5.565429681640144,0.005024595281763945,-0.0058251379425963545,-1.0587950840449392
15872,1.0,300.71087,62867.594000000005,0.0,-0.158720247050664,0.0,0.0,0.0,0.0,-4.230469837789866,-9.32069332853081,-5.559015504532114,0.02327796906010668,0.033504806684166964,-1.076870655228859
15873,1.0,300.70205,62708.306,0.0,-0.15873024303808336,0.0,0.0,0.0,0.0,-4.1995096770093365,-9.309577772283792,-5.552671748306035,-0.001857167363163148,-0.006402924864344484,-1.059031171318239
15874,1.0,300.28511000000003,62783.346,0.0,-0.15874023902550272,0.0,0.0,0.0,0.0,-4.2215768456371965,-9.320041099441442,-5.5429515387717245,-0.005863511851708564,-0.02987614833329627,-1.074296999974859
15875,1.0,299.85061,63031.721,0.0,-0.15875023501292207,0.0,0.0,0.0,0.0,-4.259545150734375,-9.330094465608632,-5.570429766908615,-0.01034191345116739,-0.0010362756005724391,-1.0626843432287791
15876,1.0,299.47233,62917.58,0.0,-0.1587602310003412,0.0,0.0,0.0,0.0,-4.242455167922726,-9.327550701232582,-5.555367398872074,-0.0007710530704520134,0.017359796114528484,-1.076457147863049
15877,1.0,299.58716,62730.10400000001,0.0,-0.15877025997781813,0.0,0.0,0.0,0.0,-4.207604734708256,-9.3243915900708,-5.536388717874025,-0.0034976083319620665,-0.011939184696805789,-1.058986183013799
15878,1.0,300.21772000000004,62840.261,0.0,-0.15878025596523737,0.0,0.0,0.0,0.0,-4.221375411517316,-9.31524852779345,-5.565246384697055,-0.009081500747649341,-0.01008738259424715,-1.068393196942199
15879,1.0,300.13212999999996,62963.749,0.0,-0.1587902519526566,0.0,0.0,0.0,0.0,-4.233931505431506,-9.331597014181922,-5.573878870249015,0.012785444087575088,0.007519488781640764,-1.057513626643469
15880,1.0,300.48207,62886.731,0.0,-0.15880024794007597,0.0,0.0,0.0,0.0,-4.249160553109496,-9.31852396006671,-5.548311327825695,0.007781765834250493,0.01135498825890009,-1.0722671560495292
15881,1.0,300.52265,62857.14,0.0,-0.15881024392749532,0.0,0.0,0.0,0.0,-4.245663219064336,-9.316879759129442,-5.544458140345415,-0.0017176408992179582,-0.015014290332545088,-1.057486167565759
15882,1.0,299.64979,62830.933,0.0,-0.15882023991491467,0.0,0.0,0.0,0.0,-4.222807741858675,-9.33507317129999,-5.541153931769315,-0.003840188494747096,-0.009700327439522781,-1.077630288828829
15883,1.0,299.39662999999996,62998.594000000005,0.0,-0.15883023590233392,0.0,0.0,0.0,0.0,-4.248119235981726,-9.33321547856665,-5.568664887884435,0.015900691652526087,0.018292315512810985,-1.0592841798682089
15884,1.0,299.90337,63037.303,0.0,-0.15884023188975316,0.0,0.0,0.0,0.0,-4.219119612819686,-9.367540034979221,-5.575106220095145,-0.00025162254542321176,0.021748462967906182,-1.087682236445879
15885,1.0,299.61179,62729.847,0.0,-0.1588502608672301,0.0,0.0,0.0,0.0,-4.189849147905917,-9.321616500696923,-5.556841475117554,-0.0041831973636494366,-0.006713408506361832,-1.055805894924929
15886,1.0,300.09584,62774.734000000004,0.0,-0.15886025685464933,0.0,0.0,0.0,0.0,-4.211122840380466,-9.32588349951804,-5.544945310993494,-0.008171456452484962,-0.013120743744416586,-1.078490842138759
15887,1.0,300.00792,62887.858,0.0,-0.15887025284206857,0.0,0.0,0.0,0.0,-4.230716766839236,-9.32314103679738,-5.562480718549104,0.01111936404089579,0.014420294752922285,-1.052236518797659
15888,1.0,299.62928999999997,62921.71400000001,0.0,-0.15888024882948792,0.0,0.0,0.0,0.0,-4.239119345943506,-9.32767259521961,-5.559837858313275,-0.004246605339007317,0.02290770011581398,-1.068235636551649
15889,1.0,299.86051000000003,62857.926,0.0,-0.15889024481690717,0.0,0.0,0.0,0.0,-4.228114841907447,-9.326575042711292,-5.552550056969024,-0.013031879684146385,-0.003362636224566357,-1.043320120567679
15890,1.0,300.11658,62814.504,0.0,-0.15890024080432663,0.0,0.0,0.0,0.0,-4.211542629896896,-9.330884800686631,-5.551613205926564,-0.013454588374114488,0.00029114142714842175,-1.0700915054348092
15891,1.0,300.24837,63001.459,0.0,-0.15891023679174587,0.0,0.0,0.0,0.0,-4.235024700964396,-9.342665758274322,-5.573179930330035,0.014827318331342385,0.0022019620853667376,-1.047978639227439
15892,1.0,300.5861,63242.305,0.0,-0.15892023277916512,0.0,0.0,0.0,0.0,-4.271258423215387,-9.367375685813,-5.585447653265765,0.0017326833062275282,-0.011958472925709389,-1.068547514932429
15893,1.0,300.4887,63209.433,0.0,-0.15893026175664193,0.0,0.0,0.0,0.0,-4.267331977752876,-9.353151478259182,-5.593605735120904,-0.0060677905699193044,-0.005437693902483605,-1.062095036970619
15894,1.0,300.22839,63053.261,0.0,-0.1589402577440613,0.0,0.0,0.0,0.0,-4.252761745289906,-9.354629810155082,-5.559225247302814,-0.008036364680252442,0.0008331017201382381,-1.062342371320029
15895,1.0,299.92048,63030.231,0.0,-0.15895025373148042,0.0,0.0,0.0,0.0,-4.261993973576056,-9.33651877521766,-5.561103509013185,0.0015106929762687888,0.028196347867012875,-1.064301186413349
15896,1.0,299.79413,63131.348,0.0,-0.1589602497189,0.0,0.0,0.0,0.0,-4.257597177417126,-9.333030763073422,-5.5997253604248645,-0.014841181619210587,0.0022012353823950177,-1.056114530905389
15897,1.0,299.63801,62990.97,0.0,-0.15897024570631912,0.0,0.0,0.0,0.0,-4.233119790776396,-9.325408183896132,-5.589154020806554,-0.012672231627401886,-0.03228831482610857,-1.065480710854759
15898,1.0,299.11104,62847.210999999996,0.0,-0.15898024169373848,0.0,0.0,0.0,0.0,-4.220837274389206,-9.327213694249322,-5.555931779177775,0.0006979533173576294,-0.02944508640950377,-1.064390352422149
15899,1.0,299.2445,62901.747,0.0,-0.15899023768115783,0.0,0.0,0.0,0.0,-4.2285761746779755,-9.32925630512591,-5.5627278502484945,0.012579953927544789,-0.01105902297094059,-1.073572728803379
15900,1.0,299.35085,63059.794,0.0,-0.15900023366857707,0.0,0.0,0.0,0.0,-4.252952742933756,-9.363863051691332,-5.551786978318715,0.02017940871105258,-0.011565132276639689,-1.0854483239504091
15901,1.0,298.94524,63074.304000000004,0.0,-0.159010262646054,0.0,0.0,0.0,0.0,-4.261319250334466,-9.3480540196561,-5.563640180638536,-0.0012784076199940087,-0.006781697915401474,-1.062338520969649
15902,1.0,299.59747000000004,63038.876,0.0,-0.15902025863347324,0.0,0.0,0.0,0.0,-4.223923228893766,-9.365542311082061,-5.572778581965425,-0.007271938002009404,0.008457052645546113,-1.0874095708439688
15903,1.0,299.61497,62867.867999999995,0.0,-0.15903025462089249,0.0,0.0,0.0,0.0,-4.211679418660396,-9.34736156453776,-5.551220976812854,-0.014252328283845287,0.01091685891566009,-1.0659592688769888
15904,1.0,299.99887,63032.803,0.0,-0.15904025060831184,0.0,0.0,0.0,0.0,-4.227325216104516,-9.360719544581091,-5.572353320898454,-0.013716681724481086,-0.005857256856191244,-1.0807932503409887
15905,1.0,299.9078,63295.867,0.0,-0.15905024659573108,0.0,0.0,0.0,0.0,-4.264671993590356,-9.391779510496471,-5.583911464789154,-0.010714457141934591,-0.0093232719487103,-1.0716400555626389
15906,1.0,299.72176,63188.624,0.0,-0.15906024258315044,0.0,0.0,0.0,0.0,-4.260984776476455,-9.363237471079591,-5.583541628502655,0.010502678751783689,-6.563133181380814e-05,-1.079001013564109
15907,1.0,300.28081000000003,63091.017,0.0,-0.15907023857056968,0.0,0.0,0.0,0.0,-4.241748425977976,-9.356875679001732,-5.579469579000775,0.0012096833240114488,0.006011509593114805,-1.065168224523919
15908,1.0,300.51709,63026.335,0.0,-0.15908023455798892,0.0,0.0,0.0,0.0,-4.212748802815936,-9.361621641145122,-5.584061425803954,0.015212046354562086,-0.005558402589546625,-1.088754863001739
15909,1.0,299.93237999999997,63059.429000000004,0.0,-0.15909023054540838,0.0,0.0,0.0,0.0,-4.244038168553956,-9.33731427787117,-5.587139476957735,0.01936725734514948,0.012153928869999386,-1.0421912586312692
15910,1.0,300.27387000000004,63167.734000000004,0.0,-0.1591002595228851,0.0,0.0,0.0,0.0,-4.253010903489495,-9.35587985680345,-5.592523178714065,0.029182862349874272,0.016481881777385084,-1.081648230775369
15911,1.0,300.11387,63145.600999999995,0.0,-0.15911025551030444,0.0,0.0,0.0,0.0,-4.255322836242666,-9.359470511182822,-5.579892610917525,-0.0027432288390606074,0.008681468088294191,-1.0481871660980189
15912,1.0,299.63581,63011.441,0.0,-0.1591202514977238,0.0,0.0,0.0,0.0,-4.248225323267196,-9.34834340388466,-5.557336042491365,-0.017737667474321483,-0.004067061879587756,-1.085675899922869
15913,1.0,300.27364,63165.060999999994,0.0,-0.15913024748514304,0.0,0.0,0.0,0.0,-4.247617069232167,-9.367066036582441,-5.585918003962185,-0.034591704867685466,0.02025300714531618,-1.056309986849679
15914,1.0,299.73778,63285.465,0.0,-0.1591402434725625,0.0,0.0,0.0,0.0,-4.243882837313626,-9.38271416450179,-5.610604120123514,-0.012802828419540788,0.03065804506446347,-1.079102541224129
15915,1.0,299.6812,63207.971,0.0,-0.15915023945998164,0.0,0.0,0.0,0.0,-4.244502541074786,-9.374344516025772,-5.5947976212135355,-0.005071483430141445,0.015386401365519588,-1.0553773914576392
15916,1.0,299.67914,62998.849,0.0,-0.159160235447401,0.0,0.0,0.0,0.0,-4.203296091308026,-9.373674555059651,-5.5731065710227945,0.011603268983903488,-0.0027516685031185374,-1.090320030431209
15917,1.0,299.67197999999996,63010.133,0.0,-0.15917023143482034,0.0,0.0,0.0,0.0,-4.216151600626766,-9.359285998339612,-5.578069571337605,0.01735572487562668,0.002346173919099338,-1.041688889231689
15918,1.0,299.6888,63274.583,0.0,-0.15918026041229705,0.0,0.0,0.0,0.0,-4.269133029805626,-9.375708046685341,-5.589052189171505,0.03360109482791987,-0.016117956791968487,-1.076419353634319
15919,1.0,299.76698,63303.041,0.0,-0.1591902563997164,0.0,0.0,0.0,0.0,-4.256240638183246,-9.37863451562416,-5.607668734583815,0.007228308364628493,-0.018056476485785483,-1.066341466814709
15920,1.0,299.813,63093.185999999994,0.0,-0.15920025238713575,0.0,0.0,0.0,0.0,-4.230167889260066,-9.37010649615751,-5.578478823052995,-0.0014018420511510388,-0.02042037579683418,-1.090151324289559
15921,1.0,300.4063,63179.96599999999,0.0,-0.159210248374555,0.0,0.0,0.0,0.0,-4.240180522773236,-9.382592371839772,-5.582359064310944,-0.005377439262761934,0.028469875744757973,-1.0656203367185388
15922,1.0,299.58709,63258.175,0.0,-0.15922024436197446,0.0,0.0,0.0,0.0,-4.249335034776716,-9.37360301960259,-5.605967690315935,-0.014882721833560287,0.031714065464434574,-1.081604964996099
15923,1.0,299.77075,63302.072,0.0,-0.1592302403493936,0.0,0.0,0.0,0.0,-4.262653092766105,-9.37837532624858,-5.601220816247454,-0.013092462920875486,0.007988596726813112,-1.0592320988130688
15924,1.0,300.2857,63182.218,0.0,-0.15924023633681295,0.0,0.0,0.0,0.0,-4.249784512521076,-9.37099359662006,-5.585038705525404,-0.015618974687472784,-0.005739520740946594,-1.068948255346979
15925,1.0,299.8111,63032.596,0.0,-0.1592502323242323,0.0,0.0,0.0,0.0,-4.220048661836376,-9.347142499866141,-5.593144098375345,-0.0013850113590399787,0.006924358260580953,-1.0598581860498588
15926,1.0,299.51015,63337.954000000005,0.0,-0.15926026130170912,0.0,0.0,0.0,0.0,-4.2695385324956465,-9.39569410093281,-5.587923732535135,-0.013591257574102686,-0.029071677403151173,-1.079923780430179
15927,1.0,300.09713,63553.444,0.0,-0.15927025728912825,0.0,0.0,0.0,0.0,-4.301299059530166,-9.390720866791991,-5.6266403228311646,-0.0008507915672740903,-0.02192931696500508,-1.067612082440109
15928,1.0,299.39108999999996,63349.565,0.0,-0.1592802532765477,0.0,0.0,0.0,0.0,-4.263878314787026,-9.390401996985522,-5.602405508264374,0.0022447662278911778,-0.008611422007556182,-1.066702487825339
15929,1.0,299.47147,63218.889,0.0,-0.15929024926396695,0.0,0.0,0.0,0.0,-4.240159041871116,-9.386901420540042,-5.589903116605485,0.023543882363350276,0.02046732879321808,-1.044552334014289
15930,1.0,299.65634,63341.935,0.0,-0.1593002452513863,0.0,0.0,0.0,0.0,-4.250017560044076,-9.3887988326773,-5.615550097836644,0.01057599347601929,-0.004224168232767946,-1.061456790732629
15931,1.0,299.62786,63437.505999999994,0.0,-0.15931024123880555,0.0,0.0,0.0,0.0,-4.258807200686546,-9.402579844637382,-5.622030744151235,-0.0007254674348130614,-0.008498040537266303,-1.083890553246669
15932,1.0,300.06633999999997,63303.172999999995,0.0,-0.1593202372262249,0.0,0.0,0.0,0.0,-4.258823108713116,-9.39018749193935,-5.593573311117704,0.01972713642291678,0.006103259187019784,-1.0861216286418591
15933,1.0,301.11396,63084.46599999999,0.0,-0.15933023321364426,0.0,0.0,0.0,0.0,-4.234089369797086,-9.36848468804745,-5.573528387039425,0.002733493734749828,0.032149754901433764,-1.089010202026939
15934,1.0,300.23214,63035.212999999996,0.0,-0.15934026219112107,0.0,0.0,0.0,0.0,-4.210013432845976,-9.380248927008491,-5.570868402876904,0.001848039195662268,0.015399885697850385,-1.082134894798399
15935,1.0,299.71963999999997,63190.179000000004,0.0,-0.1593502581785402,0.0,0.0,0.0,0.0,-4.242880226339676,-9.369173900765473,-5.596182430125204,-0.022168761135886377,-0.0072317182551900235,-1.0663431893398791
15936,1.0,299.99429,63374.431,0.0,-0.15936025416595956,0.0,0.0,0.0,0.0,-4.2385626663385665,-9.405083079009431,-5.620598717784904,-0.0001899209541612388,0.00962903262936153,-1.070001528825929
15937,1.0,299.96617000000003,63313.669,0.0,-0.1593702501533789,0.0,0.0,0.0,0.0,-4.242689633995866,-9.400287771586171,-5.6027971294280245,-0.008724020235518761,0.010618464867210891,-1.075726493215939
15938,1.0,299.90952000000004,63265.327000000005,0.0,-0.15938024614079827,0.0,0.0,0.0,0.0,-4.2644654932199755,-9.39396346976201,-5.572650811127815,0.005042433651099455,-0.02939561346012117,-1.087323039285429
15939,1.0,299.8497,63477.788,0.0,-0.1593902421282175,0.0,0.0,0.0,0.0,-4.292005934913006,-9.4119597034631,-5.591696974582525,-0.02076793780638588,-0.026498491283947472,-1.079412089129679
15940,1.0,298.93548,63508.754,0.0,-0.15940023811563675,0.0,0.0,0.0,0.0,-4.286223519242326,-9.396865620698431,-5.621986363796854,0.006582371051754443,-0.006240559439170264,-1.059435255458119
15941,1.0,299.67947999999996,63312.795999999995,0.0,-0.15941023410305621,0.0,0.0,0.0,0.0,-4.248594348953616,-9.39451163806611,-5.602403177789145,0.0023323454870345776,0.0032794211349286666,-1.052341795483049
15942,1.0,300.40989,63236.715,0.0,-0.15942026308053292,0.0,0.0,0.0,0.0,-4.213183993733885,-9.394503633390322,-5.614694610777215,-0.008996099469595892,-0.007377361912638932,-1.0789642325854791
15943,1.0,300.0548,63322.418,0.0,-0.15943025906795216,0.0,0.0,0.0,0.0,-4.260319476460796,-9.378486277134531,-5.609628360277215,-0.015218135987663087,-0.009163865517803111,-1.074965035765789
15944,1.0,299.96571,63462.049000000006,0.0,-0.15944025505537163,0.0,0.0,0.0,0.0,-4.291017002815406,-9.41500766108891,-5.584853483407124,0.018707657874552083,0.011520547245739489,-1.086164590446099
15945,1.0,300.08134,63520.682,0.0,-0.15945025104279087,0.0,0.0,0.0,0.0,-4.299335988786425,-9.404626103214332,-5.604739124569685,0.0072363302656701925,0.027209110936830178,-1.074609081005659
15946,1.0,299.5932,63376.975,0.0,-0.15946024703021022,0.0,0.0,0.0,0.0,-4.286061601876346,-9.384932270295701,-5.594023802112165,0.004307474920214676,-0.002410920296514308,-1.069466127473089
15947,1.0,299.69387,63290.965,0.0,-0.15947024301762946,0.0,0.0,0.0,0.0,-4.253832649320596,-9.39269224618655,-5.592348089096785,-0.006298554936468974,-0.005265205500860325,-1.042868616323119
15948,1.0,299.49251,63391.144,0.0,-0.1594802390050487,0.0,0.0,0.0,0.0,-4.2494308882361755,-9.39712703922423,-5.622766971673895,-0.000978724048672543,0.015579087084036183,-1.056526923696089
15949,1.0,300.49107999999995,63562.42,0.0,-0.15949023499246806,0.0,0.0,0.0,0.0,-4.277647573045946,-9.419227543780382,-5.624513409546254,2.7265847876179674e-05,0.0014408549157763086,-1.077219517238289
15950,1.0,301.07343,63458.735,0.0,-0.15950023097988741,0.0,0.0,0.0,0.0,-4.283789793827137,-9.407728067070472,-5.598353115814435,0.002419494722835538,-0.020440437135564083,-1.084974629528659
15951,1.0,300.62416,63241.846,0.0,-0.15951025995736423,0.0,0.0,0.0,0.0,-4.2267510072728465,-9.41050781739481,-5.586683311762715,0.008726911747329131,-0.004961720883908725,-1.087817100034189
15952,1.0,300.2187,63298.53,0.0,-0.15952025594478358,0.0,0.0,0.0,0.0,-4.2476827278386455,-9.405990444473982,-5.5874992820682445,0.02002095463391438,0.013900153959838388,-1.051350938210259
15953,1.0,300.82804,63613.01,0.0,-0.15953025193220272,0.0,0.0,0.0,0.0,-4.259503100855226,-9.431912523107291,-5.645350999177765,0.002757676670911497,0.014736569625886185,-1.068756244453029
15954,1.0,299.58586,63574.444,0.0,-0.15954024791962218,0.0,0.0,0.0,0.0,-4.259207941101096,-9.441503543253852,-5.624332139103364,-0.02058936463526208,-0.0012870630049982288,-1.0760527597481389
15955,1.0,299.20916,63426.23,0.0,-0.15955024390704142,0.0,0.0,0.0,0.0,-4.261852625187106,-9.435307214917321,-5.582830428257465,0.002147687141110218,0.009296703112538161,-1.098831837896259
15956,1.0,299.79944,63506.832,0.0,-0.15956023989446066,0.0,0.0,0.0,0.0,-4.310628559825917,-9.4129932185651,-5.580869485338935,0.0070058836543518835,0.03621646862828717,-1.053001218648129
15957,1.0,300.01129,63527.85400000001,0.0,-0.15957023588188013,0.0,0.0,0.0,0.0,-4.275528968411855,-9.42669428509229,-5.608658274631475,0.004641206268551396,0.0039672637361634466,-1.073168442013479
15958,1.0,299.71295,63499.68,0.0,-0.15958023186929937,0.0,0.0,0.0,0.0,-4.280564821408856,-9.40454534718136,-5.617207065725174,-0.005267210925458245,-0.019720579681519683,-1.032277518327859
15959,1.0,300.20194,63547.850999999995,0.0,-0.15959026084677608,0.0,0.0,0.0,0.0,-4.272439974156995,-9.40379635270744,-5.640723587296074,0.005054163743532125,0.003465326589076107,-1.058213174512509
15960,1.0,300.00876,63378.825999999994,0.0,-0.15960025683419554,0.0,0.0,0.0,0.0,-4.254187692155637,-9.3973962597758,-5.613996684108335,0.006023937004266295,0.02066267125349688,-1.049316939959519
15961,1.0,300.5061,63345.51,0.0,-0.15961025282161467,0.0,0.0,0.0,0.0,-4.2767096074283755,-9.39234277622706,-5.586401020284854,-3.714463814389036e-05,-0.014966923930120385,-1.0855687993872989
15962,1.0,300.98465,63658.904,0.0,-0.15962024880903414,0.0,0.0,0.0,0.0,-4.299014180554666,-9.429709818714901,-5.621993152572524,-0.02204410300258358,-0.019106261344641183,-1.071096852184029
15963,1.0,300.09601000000004,63637.292,0.0,-0.15963024479645338,0.0,0.0,0.0,0.0,-4.295541569811946,-9.429594814828551,-5.619011258853234,-0.005119877876117605,0.004210525326796496,-1.085933062798249
15964,1.0,300.09907999999996,63479.467000000004,0.0,-0.15964024078387262,0.0,0.0,0.0,0.0,-4.2629184629672965,-9.4214802014027,-5.611774221338995,0.0005753945977320253,0.008214594359592342,-1.052582341056789
15965,1.0,300.22619,63553.74,0.0,-0.1596502367712921,0.0,0.0,0.0,0.0,-4.284574657354596,-9.427162305313482,-5.6070132630941245,-0.013413398744299388,-0.012250879679317688,-1.080827903494409
15966,1.0,299.62551,63698.913,0.0,-0.15966023275871122,0.0,0.0,0.0,0.0,-4.3087154423121055,-9.425784183852471,-5.628379363977794,-0.014632674000382486,-0.0097175731588748,-1.071418964390819
15967,1.0,299.7054,63515.511,0.0,-0.15967026173618803,0.0,0.0,0.0,0.0,-4.291032505541936,-9.429612242730272,-5.586484512093095,0.018750897309319482,0.01879350650252468,-1.1020900449178188
15968,1.0,299.55589,63412.373,0.0,-0.1596802577236074,0.0,0.0,0.0,0.0,-4.261960840297786,-9.41280515934654,-5.601011985401844,0.013253074207476588,0.02448872186959868,-1.0641775699011489
15969,1.0,299.73175,63482.78400000001,0.0,-0.15969025371102674,0.0,0.0,0.0,0.0,-4.263851159684346,-9.419950497726731,-5.613379513472424,0.0016947437774331884,-0.024545426384944974,-1.084880599919379
15970,1.0,300.6283,63543.057,0.0,-0.1597002496984461,0.0,0.0,0.0,0.0,-4.272122320250646,-9.420310302837242,-5.623070034778804,-0.014438669030235687,-0.04040188967060606,-1.049147423217789
15971,1.0,300.33995,63494.137,0.0,-0.15971024568586534,0.0,0.0,0.0,0.0,-4.248761940520156,-9.440168687572111,-5.611701469981814,-0.01342390006833579,-0.014813879595266087,-1.092962890667039
15972,1.0,299.83612,63575.111,0.0,-0.15972024167328458,0.0,0.0,0.0,0.0,-4.280239770776776,-9.42970789353971,-5.615298710486835,-0.0012892612510901787,-0.007928136194671122,-1.050589987385159
15973,1.0,300.39257000000003,63684.344000000005,0.0,-0.15973023766070404,0.0,0.0,0.0,0.0,-4.285330541929196,-9.46002585640686,-5.613093979594245,-0.0056932808699830745,-0.02190235235334388,-1.095660466408269
15974,1.0,299.78635,63737.264,0.0,-0.15974023364812318,0.0,0.0,0.0,0.0,-4.294285646312996,-9.4501247817297,-5.630126409800215,-0.0036788964054038065,0.008735976485373751,-1.046692520875509
15975,1.0,300.43967000000004,63762.60400000001,0.0,-0.1597502626256,0.0,0.0,0.0,0.0,-4.281936255419206,-9.444916574890692,-5.6553868361182245,0.02660767810147337,0.007615110004177842,-1.070902510814849
15976,1.0,300.33717,63572.907,0.0,-0.15976025861301935,0.0,0.0,0.0,0.0,-4.277589209840186,-9.428019413573072,-5.618967790423945,0.013181001727863588,0.01687867355629538,-1.0409658339603292
15977,1.0,299.55001,63514.95,0.0,-0.1597702546004387,0.0,0.0,0.0,0.0,-4.2652556256479555,-9.42840232078586,-5.613300885264665,-0.006719385162076683,-0.017803932004361284,-1.0825785970171888
15978,1.0,299.61053,63664.242,0.0,-0.15978025058785805,0.0,0.0,0.0,0.0,-4.325548768873426,-9.41792632800196,-5.608864673676845,-0.007215466635511113,-0.005360024431968225,-1.0798397819968888
15979,1.0,299.72597,63540.733,0.0,-0.1597902465752773,0.0,0.0,0.0,0.0,-4.286898445133936,-9.42983394185215,-5.598063934235895,-0.005485097592511985,0.028908365805033573,-1.090961012444469
15980,1.0,299.71573,63349.068,0.0,-0.15980024256269654,0.0,0.0,0.0,0.0,-4.238414529173945,-9.4153794225506,-5.602740792722465,-0.011203081803908091,0.025551404388977274,-1.074997257118969
15981,1.0,300.13585,63662.417,0.0,-0.1598102385501159,0.0,0.0,0.0,0.0,-4.274095928795425,-9.438921174048991,-5.638767811953055,0.0003996434497267376,-0.013511944409275087,-1.0660332361342888
15982,1.0,300.23745,63956.119000000006,0.0,-0.15982023453753524,0.0,0.0,0.0,0.0,-4.308938357334105,-9.45315754060401,-5.678967496420454,0.004745939446587756,0.0022112080938542483,-1.052004383199749
15983,1.0,300.12029,63725.584,0.0,-0.15983026351501195,0.0,0.0,0.0,0.0,-4.278117315792306,-9.44853549894785,-5.644333392102335,0.01017755313919629,0.003037870721064497,-1.065799985961269
15984,1.0,300.70166,63684.683,0.0,-0.1598402595024313,0.0,0.0,0.0,0.0,-4.284708406367796,-9.452512201615322,-5.621333020132375,-0.008342975883037613,-0.005875209013512984,-1.0713956596385188
15985,1.0,300.33486,63756.383,0.0,-0.15985025548985055,0.0,0.0,0.0,0.0,-4.289913472131496,-9.452461741760342,-5.637973221224636,-0.004895013259600196,-0.022447794001424777,-1.076350452627519
15986,1.0,300.60859,63690.049000000006,0.0,-0.15986025147727,0.0,0.0,0.0,0.0,-4.2741402078247965,-9.44438887423861,-5.6416552707630245,-0.008606434891888993,0.006976682698394973,-1.068380024690899
15987,1.0,300.28617,63572.119000000006,0.0,-0.15987024746468925,0.0,0.0,0.0,0.0,-4.263779928202316,-9.449309520699241,-5.611247331286994,-0.0006701484173884994,0.014067392915343587,-1.075541676397699
15988,1.0,299.8236,63542.825,0.0,-0.1598802434521085,0.0,0.0,0.0,0.0,-4.269007184143206,-9.432520270517271,-5.613904883649274,-0.013251269609048488,0.00999866717776662,-1.069709206172079
15989,1.0,299.54798,63688.185999999994,0.0,-0.15989023943952785,0.0,0.0,0.0,0.0,-4.282999661399155,-9.47164530192861,-5.604973185342785,-0.007418177247867093,-0.006318197194957514,-1.112990893468649
15990,1.0,299.64484,63865.867,0.0,-0.1599002354269472,0.0,0.0,0.0,0.0,-4.329704918133606,-9.46269151476994,-5.621232303072436,0.006239710234261454,0.0040997039342092765,-1.081925658652749
15991,1.0,300.03632000000005,63855.27099999999,0.0,-0.1599102644044239,0.0,0.0,0.0,0.0,-4.3163217081627865,-9.462766495277341,-5.631319714442985,0.01057141561206749,0.015814663679285787,-1.1057159604006688
15992,1.0,300.74692000000005,63675.486,0.0,-0.15992026039184337,0.0,0.0,0.0,0.0,-4.2875945479526365,-9.43920964635246,-5.628953572809465,-0.014822618877378587,-0.004377369418737726,-1.052682348841659
15993,1.0,300.11135,63719.225999999995,0.0,-0.1599302563792625,0.0,0.0,0.0,0.0,-4.271096809824436,-9.448965623615301,-5.648991201487025,-0.011517608820449488,-0.026086253520512775,-1.076568605374049
15994,1.0,299.9231,63929.189000000006,0.0,-0.15994025236668197,0.0,0.0,0.0,0.0,-4.304852527630866,-9.45844315975066,-5.6695812541191035,-0.005368848928414135,0.009300810321818512,-1.048893198767699
15995,1.0,300.04197,63801.996,0.0,-0.1599502483541012,0.0,0.0,0.0,0.0,-4.289427720033556,-9.45425509311233,-5.650530835013975,0.019809481232043583,0.008247920662006391,-1.088016912953909
15996,1.0,300.97851,63606.685,0.0,-0.15996024434152045,0.0,0.0,0.0,0.0,-4.275501813309176,-9.440287339158822,-5.6190546259575145,0.015330795213281685,-0.013503306452172589,-1.0680399779573388
15997,1.0,299.84101,63714.316,0.0,-0.1599702403289398,0.0,0.0,0.0,0.0,-4.287364033554886,-9.457597197242173,-5.622599988057415,0.007635247134015223,-0.005812273719326754,-1.0977352986380389
15998,1.0,299.46432000000004,63948.312000000005,0.0,-0.15998023631635905,0.0,0.0,0.0,0.0,-4.3125582946413665,-9.45772142170443,-5.6684102409785355,0.015111122591601684,0.011456537197172188,-1.0591030107503292
15999,1.0,299.38595,63810.254,0.0,-0.1599902323037785,0.0,0.0,0.0,0.0,-4.2922197306841054,-9.46829448384791,-5.636209558100575,0.008651171707654172,0.004994447342263575,-1.0768512008269389
16000,1.0,299.30908,63720.565,0.0,-0.16000026128125522,0.0,0.0,0.0,0.0,-4.271043107569136,-9.471670227881072,-5.626747423366735,-0.030249867394179474,-0.007486868106596352,-1.067621201691009
16001,1.0,299.94821,63915.869000000006,0.0,-0.16001025726867446,0.0,0.0,0.0,0.0,-4.321076282932026,-9.476865870418841,-5.6308859420751745,-0.01940481244685588,-0.01930517551152248,-1.089172828667989
16002,1.0,300.43234,63999.637,0.0,-0.16002025325609381,0.0,0.0,0.0,0.0,-4.328638371078346,-9.48983334387363,-5.635819862112115,-0.001938808368770488,0.013927737667310685,-1.077137140005159
16003,1.0,300.15152,63876.078,0.0,-0.16003024924351317,0.0,0.0,0.0,0.0,-4.314425714575666,-9.464141678313059,-5.638165333443594,0.003402438411019527,0.015545333696704985,-1.0765414502713688
16004,1.0,300.05242999999996,63808.749,0.0,-0.1600402452309323,0.0,0.0,0.0,0.0,-4.2729861159608955,-9.46509403208205,-5.658186344819515,0.011471030726602589,-0.018613797478038784,-1.061090500821479
16005,1.0,300.11145,63689.412000000004,0.0,-0.16005024121835187,0.0,0.0,0.0,0.0,-4.271847526823525,-9.450786636695023,-5.637356759863795,0.006211676441094734,0.0027403161503231476,-1.0691619497930689
16006,1.0,300.09533999999996,63805.715,0.0,-0.160060237205771,0.0,0.0,0.0,0.0,-4.266633848433976,-9.47132683742218,-5.657383445440274,0.013209976627723188,0.015916128517799586,-1.0823371395183592
16007,1.0,299.65256,63972.011,0.0,-0.16007023319319036,0.0,0.0,0.0,0.0,-4.3170500323346666,-9.48132437350886,-5.647519557041785,0.008352412686518951,-0.0026564392057201376,-1.083380584471339
16008,1.0,299.76322999999996,63890.538,0.0,-0.16008026217066718,0.0,0.0,0.0,0.0,-4.316725792302666,-9.474207710106501,-5.630194702856954,-0.008496525627041791,-0.011034174025488189,-1.087559531858769
16009,1.0,299.96677999999997,63727.953,0.0,-0.16009025815808653,0.0,0.0,0.0,0.0,-4.275472733031306,-9.47294307265669,-5.623290416675554,-0.002210821842916128,0.0015111210744360387,-1.081047474791079
16010,1.0,300.41555,63875.405999999995,0.0,-0.16010025414550588,0.0,0.0,0.0,0.0,-4.285832202053705,-9.47403089796405,-5.656665253769395,0.007951839660885474,0.017482176461606484,-1.061832503869709
16011,1.0,300.39125,64033.755999999994,0.0,-0.16011025013292512,0.0,0.0,0.0,0.0,-4.309175964482555,-9.47730065603675,-5.678186280593354,-0.017731799742992382,0.011175076584394188,-1.051581351282999
16012,1.0,300.44138,63945.291,0.0,-0.16012024612034437,0.0,0.0,0.0,0.0,-4.299019652105205,-9.486663796235822,-5.652088301742685,-0.008881205216906711,-0.005912936063761354,-1.071009915325449
16013,1.0,300.47966,63983.352,0.0,-0.16013024210776372,0.0,0.0,0.0,0.0,-4.321721925895746,-9.483666095814971,-5.643953321989825,0.003479555457580387,0.001887608942542498,-1.066875956242459
16014,1.0,301.08137999999997,64011.06,0.0,-0.16014023809518296,0.0,0.0,0.0,0.0,-4.330167264154237,-9.471255403290131,-5.656341115062404,0.018329874667517784,0.0075937970989244236,-1.068124179040649
16015,1.0,300.60079,63988.276,0.0,-0.16015023408260232,0.0,0.0,0.0,0.0,-4.311025652540105,-9.48042339151994,-5.659388971363204,-0.010212099901355791,-0.02399223438684918,-1.0690085437279289
16016,1.0,300.16021,64002.51,0.0,-0.16016026306007913,0.0,0.0,0.0,0.0,-4.309689378308225,-9.477761482182231,-5.667714138159835,-0.006536696979646765,-0.029805144832538766,-1.0783556745754188
16017,1.0,299.95011,64142.475999999995,0.0,-0.16017025904749838,0.0,0.0,0.0,0.0,-4.333645751747536,-9.486607560855271,-5.677457753771454,-0.0005684621735953484,0.009983666719311191,-1.068717842274239
16018,1.0,299.74658999999997,63878.633,0.0,-0.16018025503491784,0.0,0.0,0.0,0.0,-4.2808715322141255,-9.490640802878323,-5.645997047441525,0.02139253759202908,0.023544951342205776,-1.1023440667178888
16019,1.0,299.84148,63737.748,0.0,-0.16019025102233697,0.0,0.0,0.0,0.0,-4.297175232948176,-9.47191107742984,-5.6055974487293945,-0.0003941444603740296,0.007049816962787764,-1.0760271245206092
16020,1.0,300.2884,64012.973,0.0,-0.16020024700975632,0.0,0.0,0.0,0.0,-4.302922286190366,-9.495332150841321,-5.660090951032485,-0.003749142096411517,-0.0015930542000472084,-1.0943451664534591
16021,1.0,300.26386,64025.883,0.0,-0.16021024299717568,0.0,0.0,0.0,0.0,-4.305140088009246,-9.49148950116208,-5.665640015205135,-0.00044830794711954957,0.006299575279319675,-1.056996869092469
16022,1.0,299.94338999999997,63791.864,0.0,-0.16022023898459492,0.0,0.0,0.0,0.0,-4.241907708893696,-9.50587633535695,-5.643349627580244,0.01040141251028949,-1.4428011665683888e-05,-1.107443247846139
16023,1.0,300.11657,63897.024000000005,0.0,-0.16023023497201438,0.0,0.0,0.0,0.0,-4.2840146340243255,-9.49701515925742,-5.642069791378935,-0.015607534080593686,-0.014667034324523587,-1.055167040736879
16024,1.0,300.1823,64123.26,0.0,-0.1602402639494911,0.0,0.0,0.0,0.0,-4.309684920007786,-9.517190184648541,-5.6649947775414535,-0.005259137956611505,-0.026850746667962375,-1.109703504844209
16025,1.0,300.22829,64022.585999999996,0.0,-0.16025025993691033,0.0,0.0,0.0,0.0,-4.332458830580396,-9.506267145920523,-5.622541523526645,0.009008986997617792,0.017308820515247583,-1.0711389020631792
16026,1.0,299.82748,63972.444,0.0,-0.1602602559243298,0.0,0.0,0.0,0.0,-4.307680812634996,-9.5010507317557,-5.637294141007615,0.013327840919105487,0.0027376323547832777,-1.087448783622839
16027,1.0,300.53015,63995.512,0.0,-0.16027025191174904,0.0,0.0,0.0,0.0,-4.305562511975936,-9.488723227064073,-5.6587519410253355,0.005389725528174495,-0.018574614083421682,-1.068467873474569
16028,1.0,300.52472,63985.568,0.0,-0.16028024789916828,0.0,0.0,0.0,0.0,-4.306117671705725,-9.486657412760191,-5.657239969226115,-0.011906204419300888,-0.012850642678509688,-1.074201855790469
16029,1.0,300.69187999999997,64142.553,0.0,-0.16029024388658764,0.0,0.0,0.0,0.0,-4.316166680897486,-9.4989857280519,-5.682582164827195,-0.002130929605656378,0.02125860315406078,-1.067938450297319
16030,1.0,300.1169,64100.582,0.0,-0.16030023987400688,0.0,0.0,0.0,0.0,-4.321526165976426,-9.483188753692861,-5.680261518123165,-0.01109832694231959,-0.0025778389636628976,-1.0703082396311991
16031,1.0,299.95089,63950.057,0.0,-0.16031023586142634,0.0,0.0,0.0,0.0,-4.321441356943056,-9.48577507457311,-5.632003962235515,-0.018965433766242584,0.003713493222118246,-1.0787318943375488
16032,1.0,299.55088,64012.462999999996,0.0,-0.16032026483890305,0.0,0.0,0.0,0.0,-4.311194358681756,-9.494890373797721,-5.652105526994386,0.0019133807561859785,-0.005654808574286155,-1.069186166470459
16033,1.0,299.37183,64317.293,0.0,-0.1603302608263223,0.0,0.0,0.0,0.0,-4.351761244985396,-9.51112466689992,-5.687965055983445,4.316430835198556e-05,0.012380359869846386,-1.0731926586908689
16034,1.0,299.66664,64166.474,0.0,-0.16034025681374164,0.0,0.0,0.0,0.0,-4.3092258163874755,-9.52056856313196,-5.6752115809497745,0.0044173601710345055,-0.00016885452199464385,-1.0702980058051887
16035,1.0,299.90675,63935.335999999996,0.0,-0.160350252801161,0.0,0.0,0.0,0.0,-4.271960504209676,-9.517560223585061,-5.645224849540314,-0.002956258998385047,-0.015869706464468086,-1.0826500311492389
16036,1.0,299.78821,64075.155,0.0,-0.16036024878858013,0.0,0.0,0.0,0.0,-4.296303837862176,-9.51910228891225,-5.661840935280194,0.005086644184762695,-0.011728067958970188,-1.0752999149238387
16037,1.0,300.033,64233.778,0.0,-0.1603702447759996,0.0,0.0,0.0,0.0,-4.354456388926386,-9.50979963974415,-5.661208363242765,-0.005775087845956795,0.011277612428263688,-1.051984624822799
16038,1.0,300.33822999999995,64062.2,0.0,-0.16038024076341884,0.0,0.0,0.0,0.0,-4.296843798840466,-9.515614074117991,-5.660851293907524,-0.01155355184124679,-0.02203924041535368,-1.0823972252492888
16039,1.0,300.00448,63959.325999999994,0.0,-0.1603902367508382,0.0,0.0,0.0,0.0,-4.296524726383976,-9.492128760650171,-5.653384653920624,-0.003974394078442156,-0.017156053810920682,-1.055993042218399
16040,1.0,300.08076,64101.072,0.0,-0.16040023273825743,0.0,0.0,0.0,0.0,-4.2828493964093255,-9.522994486521382,-5.679281401301434,0.01702543776702988,0.007031324743162723,-1.106822733484899
16041,1.0,299.41559,64099.725,0.0,-0.16041026171573425,0.0,0.0,0.0,0.0,-4.305651070034676,-9.515032873860632,-5.664031784646415,0.013899866196809989,0.017301103602485983,-1.084079828365349
16042,1.0,300.27126,64117.791,0.0,-0.1604202577031536,0.0,0.0,0.0,0.0,-4.318949572297137,-9.51272043448241,-5.658537537304174,-0.0025276711273617175,-0.007975107632206843,-1.1072775814547888
16043,1.0,300.13038,63998.503,0.0,-0.16043025369057295,0.0,0.0,0.0,0.0,-4.335719064102155,-9.477289307635631,-5.640938497642285,-0.016721743407307584,0.003894900352446736,-1.061832301219689
16044,1.0,300.09362999999996,64052.68,0.0,-0.1604402496779921,0.0,0.0,0.0,0.0,-4.317865496015146,-9.505056413376032,-5.647493212539185,-0.0027400968830015074,0.00996432215370203,-1.078920865481199
16045,1.0,299.80039,64301.252,0.0,-0.16045024566541155,0.0,0.0,0.0,0.0,-4.355347441064326,-9.501498588299901,-5.689128976373315,-0.004328680623607516,0.013833878284047488,-1.0481542354697688
16046,1.0,299.55189,64398.275,0.0,-0.1604602416528308,0.0,0.0,0.0,0.0,-4.3412072319437955,-9.5192071602976,-5.715053284156844,-0.001796915965841798,-0.016777975748107285,-1.059959511059859
16047,1.0,299.05584,64208.458,0.0,-0.16047023764025015,0.0,0.0,0.0,0.0,-4.319091528636146,-9.51710517296515,-5.681571143877415,0.005533907167054115,-0.005144477156745365,-1.0551710937372791
16048,1.0,299.5025,64008.893,0.0,-0.1604802336276695,0.0,0.0,0.0,0.0,-4.302531374301786,-9.507860988327822,-5.646712807312165,0.02993938425878717,0.016950306285364983,-1.074944669438779
16049,1.0,299.71277000000003,64267.89599999999,0.0,-0.1604902626051462,0.0,0.0,0.0,0.0,-4.346007504292546,-9.52471883554156,-5.665109173477744,0.006083127224757914,0.02234430874221158,-1.067621910966079
16050,1.0,299.83092,64209.151,0.0,-0.16050025859256567,0.0,0.0,0.0,0.0,-4.317952128898696,-9.5199985086257,-5.6800280653001245,0.002235935145319618,-0.008128820408152113,-1.079729337735989
16051,1.0,300.0392,64006.48,0.0,-0.1605102545799848,0.0,0.0,0.0,0.0,-4.282698726119455,-9.52430968515118,-5.649363266923745,-0.03579044255749167,0.0026516569692231675,-1.0766800628850488
16052,1.0,300.24765,64060.024000000005,0.0,-0.16052025056740415,0.0,0.0,0.0,0.0,-4.288041796546776,-9.522627689985182,-5.661978433318764,-0.008254958899851011,0.009971916665851552,-1.101415726976269
16053,1.0,299.86447999999996,64255.147000000004,0.0,-0.1605302465548235,0.0,0.0,0.0,0.0,-4.316268816507566,-9.53774710400235,-5.677944215144465,-0.0030493112266185875,-0.006918389508216884,-1.0858680121418292
16054,1.0,299.81982,64252.182,0.0,-0.16054024254224275,0.0,0.0,0.0,0.0,-4.335346492040387,-9.542216955493492,-5.653495402156554,0.004137624920526785,-0.009745065977813131,-1.112498251270029
16055,1.0,299.70698,64250.235,0.0,-0.1605502385296621,0.0,0.0,0.0,0.0,-4.344096818578976,-9.52002880480369,-5.6663414882493655,-0.00044778172581261554,0.004020353988403046,-1.074081886978629
16056,1.0,299.39056,64084.209,0.0,-0.16056023451708135,0.0,0.0,0.0,0.0,-4.3003864251650965,-9.524418609536932,-5.6551942172742145,0.027707447601012177,0.012196075007908888,-1.1119224212381988
16057,1.0,299.56546000000003,63997.953,0.0,-0.16057026349455816,0.0,0.0,0.0,0.0,-4.297765349806416,-9.50544236033912,-5.650572074293045,0.004636209223033225,0.011400869236678188,-1.0756065244040989
16058,1.0,299.99901,64256.072,0.0,-0.16058025948197763,0.0,0.0,0.0,0.0,-4.317507717404836,-9.53561735361716,-5.679116342860144,0.008423084955818762,-0.0022079089515286477,-1.104449904400719
16059,1.0,299.67665,64300.432,0.0,-0.16059025546939676,0.0,0.0,0.0,0.0,-4.348758883614087,-9.52076776810162,-5.676199195822244,-0.00014828149196424384,-0.0031491208197690274,-1.065569978188569
16060,1.0,300.31478,64173.067,0.0,-0.1606002514568161,0.0,0.0,0.0,0.0,-4.3201627366418665,-9.52630659844826,-5.660540834076885,-0.02227147632502358,0.0011122569964212188,-1.084118635844179
16061,1.0,300.70335,64334.965,0.0,-0.16061024744423547,0.0,0.0,0.0,0.0,-4.333961075178656,-9.53221749423162,-5.690044549163674,-0.015537455677177485,-0.010573976095070188,-1.056921179309999
16062,1.0,300.33328,64602.219000000005,0.0,-0.1606202434316546,0.0,0.0,0.0,0.0,-4.339642571139375,-9.562136844509432,-5.735682042942745,-0.01017945298313379,0.004626718109346526,-1.056390844207659
16063,1.0,300.37466,64611.405,0.0,-0.16063023941907417,0.0,0.0,0.0,0.0,-4.368692856806415,-9.551654670899921,-5.719906245510795,0.017954496916220884,0.012138050227682289,-1.045265155459639
16064,1.0,299.96386,64380.545999999995,0.0,-0.1606402354064933,0.0,0.0,0.0,0.0,-4.338840279710196,-9.535864485316552,-5.695373636739615,0.0043329216832260755,-0.0034913740067467865,-1.063858396119649
16065,1.0,299.34471,64206.399000000005,0.0,-0.16065026438397012,0.0,0.0,0.0,0.0,-4.344886647031926,-9.518625757390222,-5.653629759119815,0.009012646451678952,-0.014141762432933287,-1.078241177314119
16066,1.0,300.10427000000004,64204.886,0.0,-0.16066026037138947,0.0,0.0,0.0,0.0,-4.334041020611545,-9.51675975600606,-5.665881371378954,0.0017255084822694283,-0.017451228763802184,-1.088070311234179
16067,1.0,299.86048,64335.074,0.0,-0.16067025635880872,0.0,0.0,0.0,0.0,-4.318241715777275,-9.53532847601365,-5.702685958736285,0.01881211788036148,-0.003493805705661777,-1.089233218373949
16068,1.0,299.0221,64343.429000000004,0.0,-0.16068025234622796,0.0,0.0,0.0,0.0,-4.322966399668566,-9.533715685829481,-5.702113776404815,-0.019498060840308782,-0.005637064538534954,-1.0856831953235888
16069,1.0,299.03046,64170.267,0.0,-0.16069024833364742,0.0,0.0,0.0,0.0,-4.2995450222820555,-9.53061595112356,-5.675997863027375,0.005655209821325754,-0.008879378428301422,-1.080056110893239
16070,1.0,299.30589,64120.647000000004,0.0,-0.16070024432106667,0.0,0.0,0.0,0.0,-4.309306775070466,-9.535950915550082,-5.6458178034988356,0.002908700889041427,0.007467057648591212,-1.095694410286619
16071,1.0,299.11441,64468.426,0.0,-0.16071024030848602,0.0,0.0,0.0,0.0,-4.368683433580486,-9.554203805501501,-5.673904488320774,0.02139502816077488,0.013771669794157986,-1.085792018384329
16072,1.0,299.76232000000005,64603.52,0.0,-0.16072023629590526,0.0,0.0,0.0,0.0,-4.3696853352793665,-9.56473613499096,-5.703435358510244,-0.014971883789359885,-0.0018509862335781182,-1.089466265896949
16073,1.0,299.84862999999996,64269.693,0.0,-0.16073026527338208,0.0,0.0,0.0,0.0,-4.300452793046646,-9.556787187956461,-5.679141876762665,-0.005050961974541135,-0.01018734518816269,-1.0720017858483388
16074,1.0,300.08294,64163.380999999994,0.0,-0.16074026126080143,0.0,0.0,0.0,0.0,-4.2748752194473365,-9.548061787370331,-5.6811286575587445,-0.014103462592403386,0.011297168155193688,-1.080179930055459
16075,1.0,300.0693,64504.469000000005,0.0,-0.16075025724822078,0.0,0.0,0.0,0.0,-4.351726794481996,-9.56095650946794,-5.695064696784125,0.005010846896457085,0.008327652197800281,-1.0647311084307791
16076,1.0,300.0094,64521.502,0.0,-0.16076025323563992,0.0,0.0,0.0,0.0,-4.356073738736005,-9.557630819989722,-5.699220947369315,-0.009226271591462111,-0.007642454685951552,-1.087073779760829
16077,1.0,299.92577,64313.89599999999,0.0,-0.16077024922305927,0.0,0.0,0.0,0.0,-4.354227495728796,-9.53393566242619,-5.6616552065368655,-0.0028338372093779578,-0.0035817016054614267,-1.080673382854159
16078,1.0,300.10642,64250.551,0.0,-0.16078024521047862,0.0,0.0,0.0,0.0,-4.3109863384362255,-9.529332669871911,-5.690244159433374,0.001311389012074019,0.023551805979132274,-1.093590801754009
16079,1.0,299.57313,64410.16099999999,0.0,-0.16079024119789798,0.0,0.0,0.0,0.0,-4.338990950000066,-9.538611203687632,-5.701478569917124,0.003997354528358176,0.002124792451125688,-1.068292175907229
16080,1.0,300.37897999999996,64640.315,0.0,-0.16080023718531722,0.0,0.0,0.0,0.0,-4.350348369045956,-9.563403001834391,-5.735290421779095,0.0045116752128676755,-0.00852996480551698,-1.0791014266490189
16081,1.0,300.88717,64670.574,0.0,-0.16081023317273646,0.0,0.0,0.0,0.0,-4.384654281656686,-9.560025636601072,-5.713559550859425,0.01083834013891089,-0.020522049364868584,-1.069439478995459
16082,1.0,300.16341,64351.761,0.0,-0.1608202621502134,0.0,0.0,0.0,0.0,-4.331505463561305,-9.551164764476573,-5.678658049839915,0.008186878625632013,0.014746786226644484,-1.0957720252442789
16083,1.0,300.27579,64317.71,0.0,-0.16083025813763263,0.0,0.0,0.0,0.0,-4.331414271052306,-9.55206189611511,-5.667501760938874,-0.013966705239656488,0.0005713780946006275,-1.082367942321399
16084,1.0,300.11598,64633.21599999999,0.0,-0.16084025412505187,0.0,0.0,0.0,0.0,-4.342343186630905,-9.580528752374573,-5.724011934915994,-0.0014710344686797985,-0.0016077597013985285,-1.0951411757320189
16085,1.0,299.47648,64574.056,0.0,-0.16085025011247123,0.0,0.0,0.0,0.0,-4.335648136595156,-9.570611263045791,-5.722641311505725,-0.012308934857047288,-0.0005172232610109615,-1.079352003398749
16086,1.0,299.9205,64215.706,0.0,-0.16086024609989058,0.0,0.0,0.0,0.0,-4.285734828719097,-9.55947382059661,-5.674762407180444,-0.002954736590109797,0.01872857946261688,-1.088069196659069
16087,1.0,300.51132,64228.163,0.0,-0.16087024208730993,0.0,0.0,0.0,0.0,-4.310667975254806,-9.557660913517692,-5.655428885997375,-0.01756204488748888,-0.01063940976002799,-1.077931426758549
16088,1.0,299.89236,64492.924000000006,0.0,-0.16088023807472918,0.0,0.0,0.0,0.0,-4.358190012894866,-9.568704731657633,-5.677343864460215,-0.010942552911695888,-0.0053801567995301345,-1.0816116524467592
16089,1.0,299.89952999999997,64560.863,0.0,-0.16089023406214842,0.0,0.0,0.0,0.0,-4.347897317054056,-9.58218612556314,-5.694806723308664,0.006296592271025274,-0.00038683398249254164,-1.097264947941619
16090,1.0,300.16339,64422.48,0.0,-0.16090026303962535,0.0,0.0,0.0,0.0,-4.294080463167746,-9.582889726432581,-5.705855303724074,0.008633853743570022,0.008715639035991601,-1.093020645922739
16091,1.0,300.21623,64363.806,0.0,-0.1609102590270446,0.0,0.0,0.0,0.0,-4.308271334793276,-9.559321427781573,-5.6973968945392945,-0.0008344544394192412,-0.008507341058609192,-1.0829737645561888
16092,1.0,300.49343999999996,64505.319,0.0,-0.16092025501446383,0.0,0.0,0.0,0.0,-4.338001815252446,-9.562902760260021,-5.707101702672085,0.007586832017737023,-0.016837409959222983,-1.073549728026109
16093,1.0,299.44846,64596.155999999995,0.0,-0.1609302510018833,0.0,0.0,0.0,0.0,-4.384866050927586,-9.562884623083232,-5.687867783973845,0.022368765559875277,0.011348977659306888,-1.092994706720179
16094,1.0,298.87592,64601.761,0.0,-0.16094024698930243,0.0,0.0,0.0,0.0,-4.378854742059316,-9.561129065959971,-5.697338531333536,0.006636771841673383,0.01882224328861078,-1.0844246373743789
16095,1.0,299.62392,64583.672,0.0,-0.1609502429767219,0.0,0.0,0.0,0.0,-4.356557970958796,-9.567477685786532,-5.7077879769648145,-0.009107381789653602,-0.018084376327288983,-1.087426086820599
16096,1.0,299.75245,64597.170999999995,0.0,-0.16096023896414113,0.0,0.0,0.0,0.0,-4.338973218123316,-9.561112955283381,-5.735840819233415,-0.02197174174669208,-0.020013972327475284,-1.065386174620429
16097,1.0,299.74563,64771.499,0.0,-0.16097023495156038,0.0,0.0,0.0,0.0,-4.360523021250116,-9.57573780192674,-5.752657528493094,0.008091574145076191,0.015916893521625085,-1.058786876719129
16098,1.0,300.16382000000004,64744.325,0.0,-0.1609802639290373,0.0,0.0,0.0,0.0,-4.380047540077037,-9.572437342376011,-5.728173251751684,-0.008073407381383273,0.014897126196981886,-1.048896846468059
16099,1.0,300.25891,64499.947,0.0,-0.16099025991645655,0.0,0.0,0.0,0.0,-4.369496364135716,-9.56098792022104,-5.675889039966635,-0.002107279841697328,-0.02106489506619328,-1.053425669115019
16100,1.0,300.46038,64492.239,0.0,-0.1610002559038758,0.0,0.0,0.0,0.0,-4.3721710404246865,-9.567867381774992,-5.663991862592475,-0.025009660090511275,-0.016616498132670684,-1.0805272721897388
16101,1.0,300.02817000000005,64597.890999999996,0.0,-0.16101025189129525,0.0,0.0,0.0,0.0,-4.351979296406916,-9.575524614105701,-5.708642045474104,0.02244304996445658,0.02389132683589038,-1.085675595947839
16102,1.0,299.67492000000004,64498.575,0.0,-0.16102024787871438,0.0,0.0,0.0,0.0,-4.313148411499605,-9.58009194025646,-5.712715918826165,0.008960881226595122,-0.0008641064537906673,-1.0862404828785888
16103,1.0,299.57894,64557.888,0.0,-0.16103024386613385,0.0,0.0,0.0,0.0,-4.315190414426136,-9.59204737951137,-5.716748147599115,0.011327684208455388,-0.017233875471601084,-1.085051028586199
16104,1.0,299.76009,64685.434,0.0,-0.1610402398535531,0.0,0.0,0.0,0.0,-4.351392320623987,-9.58477528354367,-5.726589237870354,0.0006896051801812323,-0.0094488572058546,-1.0847852530849689
16105,1.0,299.75201,64577.184,0.0,-0.16105023584097233,0.0,0.0,0.0,0.0,-4.361989194144816,-9.5954998265771,-5.6723625243185944,0.014156739282661385,0.025941015264428872,-1.099518720139049
16106,1.0,300.49512000000004,64488.455,0.0,-0.16106026481844926,0.0,0.0,0.0,0.0,-4.333325362065916,-9.593605960815191,-5.675948720397524,-0.012518078796938188,-0.006700135639326903,-1.102234534382079
16107,1.0,300.00664,64624.133,0.0,-0.1610702608058685,0.0,0.0,0.0,0.0,-4.345442617361796,-9.60155916350011,-5.697120885212055,-0.012416351526648488,-0.03351613988653547,-1.103922507723669
16108,1.0,300.51137,64716.852999999996,0.0,-0.16108025679328775,0.0,0.0,0.0,0.0,-4.3462312299146255,-9.597106030635622,-5.7289699703053145,-0.010986041605987889,-0.011630361265077289,-1.088396071141329
16109,1.0,300.00245,64532.503,0.0,-0.1610902527807071,0.0,0.0,0.0,0.0,-4.3317108493565755,-9.578600233459241,-5.705958452584254,0.006800792512210963,0.02049799987374508,-1.0799904522867592
16110,1.0,299.75858,64503.832,0.0,-0.16110024876812634,0.0,0.0,0.0,0.0,-4.340947231968136,-9.57317134074845,-5.6934354919483345,-0.0006329666172839414,-0.0035882857046112267,-1.073450834816349
16111,1.0,299.52221000000003,64680.416,0.0,-0.1611102447555458,0.0,0.0,0.0,0.0,-4.388146752101366,-9.585667956881773,-5.687416685029325,-0.01837766359523418,-0.016031075662143984,-1.0824851753579687
16112,1.0,300.14076,64706.397000000004,0.0,-0.16112024074296505,0.0,0.0,0.0,0.0,-4.372498421531995,-9.58449400531591,-5.712136441093975,0.0011282290603975389,0.012243183031558089,-1.0947082139642887
16113,1.0,299.78208,64708.28400000001,0.0,-0.1611302367303843,0.0,0.0,0.0,0.0,-4.369240214510436,-9.582780194096772,-5.717682161541294,-0.008963226697926601,0.01985949120397918,-1.083516562634759
16114,1.0,300.0927,64777.437999999995,0.0,-0.16114026570786122,0.0,0.0,0.0,0.0,-4.370095600244856,-9.578251979399871,-5.7423761810534035,0.012940730744900687,-0.0010074181566644307,-1.049625474614969
16115,1.0,299.34422,64765.492,0.0,-0.16115026169528035,0.0,0.0,0.0,0.0,-4.359928750066467,-9.59710025511005,-5.730063368488224,-0.006855582086193274,-0.02209794103339698,-1.060836580346419
16116,1.0,299.55601,64882.582,0.0,-0.1611602576826997,0.0,0.0,0.0,0.0,-4.394059978359956,-9.61336788414054,-5.715256947426944,0.03693790877898776,0.016988336601368285,-1.068545488432229
16117,1.0,299.98942999999997,65034.740999999995,0.0,-0.16117025367011906,0.0,0.0,0.0,0.0,-4.4165584875553865,-9.618424306114573,-5.733954755497274,0.0006237520499470345,0.02156599486339798,-1.0931714175376188
16118,1.0,300.31115,64735.102999999996,0.0,-0.1611802496575384,0.0,0.0,0.0,0.0,-4.355546342058955,-9.60213651340709,-5.720172122337035,0.0005040244118958365,-0.01191785071595029,-1.0745906398538387
16119,1.0,300.19335,64459.626,0.0,-0.16119024564495776,0.0,0.0,0.0,0.0,-4.305912488560476,-9.59501154135391,-5.693192514574354,-0.026187581570263078,-0.027530856347083972,-1.096986506814139
16120,1.0,300.6258,64587.315,0.0,-0.161200241632377,0.0,0.0,0.0,0.0,-4.3223217699549465,-9.584145751256541,-5.726463493532944,0.0068133888321541235,0.004330129469925506,-1.0903701863111592
16121,1.0,300.81273999999996,64585.915,0.0,-0.16121023761979625,0.0,0.0,0.0,0.0,-4.337345431837666,-9.592130972644622,-5.703029247870164,0.0011814369509737489,0.007463490400289153,-1.1015643707659388
16122,1.0,300.06832,64460.144,0.0,-0.1612202336072156,0.0,0.0,0.0,0.0,-4.343861744555776,-9.58192876003774,-5.668483701610785,-0.003391607983350647,-0.018702988818091282,-1.086420436096349
16123,1.0,299.94614,64563.754,0.0,-0.16123026258469242,0.0,0.0,0.0,0.0,-4.350596108695406,-9.597552569954692,-5.677620380412504,-0.01836909859213888,-0.012590585960844088,-1.1113478071064888
16124,1.0,299.70013,64804.878,0.0,-0.16124025857211166,0.0,0.0,0.0,0.0,-4.356913013793837,-9.622712887162821,-5.719438934564675,0.013812617257199187,0.010257840037369991,-1.095007325393809
16125,1.0,300.15616,64875.305,0.0,-0.16125025455953101,0.0,0.0,0.0,0.0,-4.339669726242056,-9.631394920644672,-5.749408238072414,0.025017406387525774,0.02980037951731847,-1.084059867338379
16126,1.0,299.83741000000003,64918.8,0.0,-0.16126025054695026,0.0,0.0,0.0,0.0,-4.3535397015609165,-9.628368950546031,-5.751785626782045,-0.0018651779158037284,-0.011385820446192988,-1.058583213449029
16127,1.0,300.04425,64941.38,0.0,-0.16127024653436972,0.0,0.0,0.0,0.0,-4.381492941344686,-9.61796955946969,-5.741095230276985,0.004232377078453095,-0.007767859685903063,-1.062611794521619
16128,1.0,299.85945,64813.45,0.0,-0.16128024252178885,0.0,0.0,0.0,0.0,-4.392506463306637,-9.607729147334041,-5.701434696187794,0.002967056698075697,0.013842107901359688,-1.0786882232582389
16129,1.0,300.79199,64754.952000000005,0.0,-0.1612902385092082,0.0,0.0,0.0,0.0,-4.3769815465994455,-9.597804666579572,-5.709102263669525,0.004708888335481096,0.013182905624801488,-1.0797434219123792
16130,1.0,300.71792,64812.721,0.0,-0.16130023449662756,0.0,0.0,0.0,0.0,-4.378392092063655,-9.58466017833231,-5.738396438635635,-0.0019109178491679081,-0.02009413155613638,-1.056580727276399
16131,1.0,300.34873999999996,64800.581,0.0,-0.16131026347410438,0.0,0.0,0.0,0.0,-4.359591743083206,-9.59237709109391,-5.745789516665274,-0.018396564762599585,-0.003632050712205497,-1.076287124496269
16132,1.0,299.54037999999997,64755.547999999995,0.0,-0.1613202594615235,0.0,0.0,0.0,0.0,-4.3551424605690965,-9.604536193618921,-5.724390991778404,0.007463895193704102,0.007502295548643923,-1.070996945724169
16133,1.0,299.796,64879.487,0.0,-0.16133025544894297,0.0,0.0,0.0,0.0,-4.384812652647316,-9.611319497738382,-5.725611856823894,0.003365531992027147,-0.0005328155081872965,-1.0787980595690791
16134,1.0,299.91899,64970.46,0.0,-0.16134025143636221,0.0,0.0,0.0,0.0,-4.409104513194736,-9.628719028455581,-5.7115741886134845,-0.0001047119099167609,-0.03300761296609776,-1.076203126062979
16135,1.0,300.18991,64937.874,0.0,-0.16135024742378168,0.0,0.0,0.0,0.0,-4.395082651685887,-9.62806517816605,-5.716344266109255,-0.013384898045486586,-0.02100518930405078,-1.105319678286559
16136,1.0,299.68181,64860.739,0.0,-0.16136024341120092,0.0,0.0,0.0,0.0,-4.360085905156976,-9.626525341989081,-5.729433937526104,0.006333812797548654,0.007581623912223023,-1.096471573113319
16137,1.0,299.39221000000003,64784.364,0.0,-0.16137023939862016,0.0,0.0,0.0,0.0,-4.330129571250517,-9.624975170661092,-5.737724147194285,-0.017489521511581382,0.02161422556815798,-1.093411051186269
16138,1.0,300.01192000000003,64859.863,0.0,-0.16138023538603952,0.0,0.0,0.0,0.0,-4.350293653540556,-9.621051258323831,-5.744433788031475,-0.006216926191187844,0.0028489559141200572,-1.071038894278309
16139,1.0,300.64317,64920.4,0.0,-0.16139026436351633,0.0,0.0,0.0,0.0,-4.366382747903426,-9.643826587446581,-5.723971303586985,0.0018116699005478983,0.02938653271272497,-1.0942748468965189
16140,1.0,300.264,64752.002,0.0,-0.16140026035093546,0.0,0.0,0.0,0.0,-4.3663024984955054,-9.60314945953206,-5.7135399951324946,0.012427278415726889,0.03077132946539377,-1.093228970143299
16141,1.0,300.20467,64613.11,0.0,-0.16141025633835493,0.0,0.0,0.0,0.0,-4.332875580346526,-9.60601847719021,-5.701877790456525,-0.005291550003460326,-0.0014029007961805287,-1.085955050325419
16142,1.0,300.76575,64854.28599999999,0.0,-0.16142025232577417,0.0,0.0,0.0,0.0,-4.351584432842945,-9.63291621434481,-5.729583087940824,0.0018729090140667283,-0.03087376803725367,-1.080554629942439
16143,1.0,299.9422,65049.662000000004,0.0,-0.16143024831319353,0.0,0.0,0.0,0.0,-4.377993378149306,-9.624188179308423,-5.7712915018071245,-0.003838096335940616,-0.0022738408315606177,-1.064938723376269
16144,1.0,300.23351,65006.007000000005,0.0,-0.16144024430061288,0.0,0.0,0.0,0.0,-4.399204755742705,-9.63512864593816,-5.725869526324324,0.02072504287665248,0.009698496192617052,-1.069652565491489
16145,1.0,299.85717999999997,64843.267,0.0,-0.161450240288032,0.0,0.0,0.0,0.0,-4.395133111540866,-9.618030151825673,-5.697570869581465,-0.0029087626972975275,-0.008918644200151652,-1.070574927057519
16146,1.0,299.76511,65021.234000000004,0.0,-0.16146023627545147,0.0,0.0,0.0,0.0,-4.418643756261186,-9.62620890398285,-5.719978996867974,-0.0014943743807582686,-0.015972156182079086,-1.071961357169349
16147,1.0,300.01161,65225.514,0.0,-0.16147026525292818,0.0,0.0,0.0,0.0,-4.412025307932996,-9.65185223751365,-5.763050029468754,-0.010400995051248292,-0.0077352655580112725,-1.103763528782979
16148,1.0,300.41242,65102.45,0.0,-0.16148026124034753,0.0,0.0,0.0,0.0,-4.390282480662146,-9.619122942058521,-5.780113769102814,0.014489532158755487,0.012991048744866687,-1.0812896415649789
16149,1.0,300.00001000000003,64762.710999999996,0.0,-0.1614902572277669,0.0,0.0,0.0,0.0,-4.334164738448756,-9.612407221720732,-5.739675160261835,-0.02084637147012668,-0.00016260866599322586,-1.0748933989837188
16150,1.0,300.99975,64633.401,0.0,-0.16150025321518613,0.0,0.0,0.0,0.0,-4.3427979332757864,-9.593071167412411,-5.711070805963804,0.0004340510521175036,-0.003428232414840197,-1.067756875879399
16151,1.0,300.30051000000003,64900.684,0.0,-0.16151024920260548,0.0,0.0,0.0,0.0,-4.369479746834076,-9.630733268329372,-5.7279742494320445,0.0015250931853649785,0.019014508508335883,-1.097818486471249
16152,1.0,300.25046000000003,65187.117999999995,0.0,-0.16152024519002484,0.0,0.0,0.0,0.0,-4.412706414650216,-9.657602127856123,-5.7449477084821945,0.020704947087419177,0.024947932894419274,-1.096583942549409
16153,1.0,300.05823,65023.934,0.0,-0.16153024117744397,0.0,0.0,0.0,0.0,-4.358367331662366,-9.65084293908904,-5.756441916291585,-9.608152989850872e-05,-0.02336199789089968,-1.1018846591225488
16154,1.0,299.9225,64842.03,0.0,-0.16154023716486343,0.0,0.0,0.0,0.0,-4.3279797585133455,-9.665219336807882,-5.717158817864644,-0.0033020063783326566,-0.02023884596191858,-1.083323437165699
16155,1.0,299.76161,65088.305,0.0,-0.16155026614234014,0.0,0.0,0.0,0.0,-4.354327604838676,-9.674026405352071,-5.7568654548333855,-0.0023615075341876478,0.006527584720172454,-1.093711682490939
16156,1.0,300.07187999999996,65248.193,0.0,-0.1615602621297595,0.0,0.0,0.0,0.0,-4.4264192348785665,-9.662356094675301,-5.745046095066904,-0.006169940770800744,0.005208157088430085,-1.072766688348829
16157,1.0,299.69852000000003,64928.001,0.0,-0.16157025811717884,0.0,0.0,0.0,0.0,-4.383390252156937,-9.66058888517589,-5.692511914482185,-0.019921809124879484,-0.008110358586030071,-1.0959556261623988
16158,1.0,300.15875,64659.83900000001,0.0,-0.1615802541045981,0.0,0.0,0.0,0.0,-4.3606359986362655,-9.615011173152721,-5.679329429356174,-0.025983092501331573,-0.014470378692115187,-1.102618353519959
16159,1.0,299.89669,64824.863,0.0,-0.16159025009201755,0.0,0.0,0.0,0.0,-4.341451019917855,-9.632968092749932,-5.730720461178074,0.012834251331641988,0.014531328725380486,-1.1029801851306689
16160,1.0,300.07719,65090.727999999996,0.0,-0.16160024607943668,0.0,0.0,0.0,0.0,-4.3734541190263165,-9.64435023509826,-5.768151743722254,0.007365075748551384,0.016138662557761984,-1.079338121872379
16161,1.0,300.05535,65103.249,0.0,-0.16161024206685604,0.0,0.0,0.0,0.0,-4.385051577020896,-9.62808017426753,-5.776630316584025,0.03220231826362137,-0.019036077563214585,-1.061782044014729
16162,1.0,299.6626,65050.65900000001,0.0,-0.1616202380542754,0.0,0.0,0.0,0.0,-4.397534412952855,-9.65229036685689,-5.723951241235004,0.006407210709617464,0.004649127452533155,-1.056984203466219
16163,1.0,299.17846000000003,65043.692,0.0,-0.1616302670317522,0.0,0.0,0.0,0.0,-4.402465698539537,-9.62719672150534,-5.741995705640854,0.017511974120547284,0.027441508966516075,-1.0800736401199689
16164,1.0,299.42953,65363.887,0.0,-0.16164026301917134,0.0,0.0,0.0,0.0,-4.431417496296855,-9.661320755723121,-5.776251259721615,-0.008583331776358892,-0.0023523404578829274,-1.0742979118999492
16165,1.0,298.85866,65425.862,0.0,-0.1616502590065908,0.0,0.0,0.0,0.0,-4.409568987040576,-9.670255696429932,-5.808003680755335,-0.018712888271568282,-0.025748484573177577,-1.071010421950499
16166,1.0,298.94387,65020.511,0.0,-0.16166025499401004,0.0,0.0,0.0,0.0,-4.367167915405917,-9.62709752432055,-5.7703464434388545,-0.016223580008892687,-0.0028371974506845874,-1.059445793259159
16167,1.0,300.11999,64821.621,0.0,-0.1616702509814294,0.0,0.0,0.0,0.0,-4.333579282540976,-9.648753617382841,-5.721821490849815,0.015033951437485486,0.001930529912803468,-1.0728436953564289
16168,1.0,300.12664,65099.568,0.0,-0.16168024696884864,0.0,0.0,0.0,0.0,-4.406733305310715,-9.6423788557037,-5.7395308734475945,-0.014907950747800186,-0.0031386961987651973,-1.076939454910649
16169,1.0,299.54202000000004,65356.901,0.0,-0.161690242956268,0.0,0.0,0.0,0.0,-4.422873467478626,-9.674327340631772,-5.769665235396625,-0.0031521351374915172,-0.02303753494387768,-1.100546257065459
16170,1.0,299.97765,65142.236,0.0,-0.16170023894368735,0.0,0.0,0.0,0.0,-4.377764282301696,-9.67557971775537,-5.748269040984985,-0.00015316605658881284,0.005726357000947434,-1.108420122267549
16171,1.0,299.63223,64942.315,0.0,-0.16171023493110648,0.0,0.0,0.0,0.0,-4.340412539890366,-9.64701802128655,-5.753411487892504,0.02121133199714548,0.013860802365704685,-1.1043773556935592
16172,1.0,299.71322000000004,64951.157,0.0,-0.1617202639085833,0.0,0.0,0.0,0.0,-4.3649585235628665,-9.647375495921832,-5.7311958781249945,0.001095230139090799,0.003269132289438237,-1.0706956051444292
16173,1.0,300.26093,65096.199,0.0,-0.16173025989600276,0.0,0.0,0.0,0.0,-4.382899737783525,-9.661811270096532,-5.742908036030895,0.00967541263281388,-0.014836600715508486,-1.073919564312609
16174,1.0,300.01896,65191.157,0.0,-0.161740255883422,0.0,0.0,0.0,0.0,-4.419020583973375,-9.662636157002941,-5.7348271638333745,0.012395688317359188,0.022736425385160478,-1.082441301628639
16175,1.0,299.18137,65130.856,0.0,-0.16175025187084136,0.0,0.0,0.0,0.0,-4.381669145537075,-9.681695391383942,-5.734789369604644,0.006431947690933813,0.016218717421662785,-1.112506661245859
16176,1.0,299.55937,65052.254,0.0,-0.1617602478582606,0.0,0.0,0.0,0.0,-4.365219131488586,-9.667650022472772,-5.741391605931235,-0.0050014591342805855,-0.0005632682130527445,-1.1003052048666688
16177,1.0,299.40306,65160.375,0.0,-0.16177024384567984,0.0,0.0,0.0,0.0,-4.354724596227855,-9.67812986560705,-5.774272584926335,-0.016368413978186683,-0.01047862824741009,-1.0965589152719388
16178,1.0,299.95018999999996,65351.41099999999,0.0,-0.1617802398330993,0.0,0.0,0.0,0.0,-4.409609517044576,-9.678172624761272,-5.777415078786475,-0.0057212773755461145,0.008189057721297072,-1.076003718443299
16179,1.0,299.58333999999996,65185.282,0.0,-0.16179023582051855,0.0,0.0,0.0,0.0,-4.395130173115575,-9.662395408779181,-5.757172570938695,-0.0004694602927621236,-0.025075520333761175,-1.082432081052729
16180,1.0,299.33079,64981.16099999999,0.0,-0.16180026479799525,0.0,0.0,0.0,0.0,-4.394529923756337,-9.6553302184819,-5.702790323496585,-0.009884042044304,-0.008546232941172521,-1.086927871746429
16181,1.0,299.79316,65158.732,0.0,-0.16181026078541472,0.0,0.0,0.0,0.0,-4.395123181689886,-9.668863085492491,-5.742641449929585,-0.008765819233944,-0.008940844408517641,-1.098955251758439
16182,1.0,300.34377,65404.945,0.0,-0.16182025677283396,0.0,0.0,0.0,0.0,-4.418425299539625,-9.67879313912251,-5.784251679861195,0.012972011801987886,0.02310650485168448,-1.098348213623529
16183,1.0,300.323,65295.733,0.0,-0.1618302527602533,0.0,0.0,0.0,0.0,-4.384407048632286,-9.67329554805494,-5.790569699534735,0.01294039029286709,0.030931073409909266,-1.093221674742579
16184,1.0,300.36712,65150.846,0.0,-0.16184024874767255,0.0,0.0,0.0,0.0,-4.394083789737306,-9.659174388036291,-5.7509721896017645,0.012904293258054589,0.012551454241982089,-1.065778201084119
16185,1.0,299.8019,65108.87,0.0,-0.1618502447350918,0.0,0.0,0.0,0.0,-4.392426619198756,-9.65385441971125,-5.745189571281065,0.012068813835099187,0.0014404001691314286,-1.079594778122709
16186,1.0,300.34902,65297.897000000004,0.0,-0.16186024072251115,0.0,0.0,0.0,0.0,-4.436491751472646,-9.68293327903111,-5.729505067683124,0.004549590322334605,0.01928203794548898,-1.0922481440464988
16187,1.0,300.37695,65446.85,0.0,-0.1618702367099305,0.0,0.0,0.0,0.0,-4.419145517710706,-9.69701674614604,-5.778045928298734,0.011911259524049788,-0.014536594586150184,-1.1033504267172092
16188,1.0,299.81653,65263.045,0.0,-0.16188026568740732,0.0,0.0,0.0,0.0,-4.397311092630816,-9.681171946382282,-5.759852921428224,-0.017797166533443584,-0.012617632645763387,-1.087112485914649
16189,1.0,299.94499,65010.312999999995,0.0,-0.16189026167482667,0.0,0.0,0.0,0.0,-4.331589867294636,-9.678107776754873,-5.751814099109854,0.005507975969169905,-0.003854993497258236,-1.088202439047219
16190,1.0,299.55259,65235.14599999999,0.0,-0.16190025766224592,0.0,0.0,0.0,0.0,-4.388807188516545,-9.68133710614858,-5.759711269064245,-0.008811808021532742,0.012679710426389988,-1.070450601270249
16191,1.0,299.32128,65525.858,0.0,-0.16191025364966527,0.0,0.0,0.0,0.0,-4.424173467356925,-9.699463035862472,-5.794588249431335,-0.008173541214565712,-0.014439802857097585,-1.0870429769577887
16192,1.0,300.39082,65227.377,0.0,-0.1619202496370845,0.0,0.0,0.0,0.0,-4.409281629312216,-9.68028109689436,-5.737931052864704,-0.017267588328928284,-0.026237362547676075,-1.080764271388129
16193,1.0,300.16541,64903.723,0.0,-0.16193024562450375,0.0,0.0,0.0,0.0,-4.327743873890066,-9.66965838549598,-5.731708987975635,0.01992234310768218,-0.0014956049730047187,-1.116057292246279
16194,1.0,299.40906,65100.242999999995,0.0,-0.1619402416119231,0.0,0.0,0.0,0.0,-4.3648125142234555,-9.67178489348085,-5.752250809902954,0.012806737538426588,0.02087347996330208,-1.081746313385049
16195,1.0,300.12609,65551.584,0.0,-0.16195023759934246,0.0,0.0,0.0,0.0,-4.417981698645845,-9.6974540648892,-5.810608848087445,0.02241930748811338,0.009383644530743612,-1.072427249565329
16196,1.0,300.26065,65469.030999999995,0.0,-0.16196026657681917,0.0,0.0,0.0,0.0,-4.422945914860776,-9.70175571686374,-5.776249131896404,0.003729208933819267,0.013289851133106188,-1.063378622197299
16197,1.0,300.16586,65275.35400000001,0.0,-0.16197026256423863,0.0,0.0,0.0,0.0,-4.420169102961725,-9.674379219036892,-5.747529368411985,0.022467022448572477,0.01728306673745588,-1.069368348838439
16198,1.0,300.66753,65343.280999999995,0.0,-0.16198025855165776,0.0,0.0,0.0,0.0,-4.430222367803905,-9.67658668570475,-5.755916951414774,-0.005349510543630585,0.0006004913436288815,-1.072428870765489
16199,1.0,300.52425,65535.01,0.0,-0.16199025453907723,0.0,0.0,0.0,0.0,-4.432156358269776,-9.6970133010957,-5.791836870109795,-0.0064807942491045935,-0.03783651469642326,-1.0815301871387188
16200,1.0,300.00408,65642.52799999999,0.0,-0.16200025052649647,0.0,0.0,0.0,0.0,-4.444366832574856,-9.695607619231971,-5.813714763618974,-0.022881358652964277,-0.03966454554633586,-1.0822751286122387
16201,1.0,300.17662,65373.710999999996,0.0,-0.16201024651391582,0.0,0.0,0.0,0.0,-4.410811535638206,-9.676860972506821,-5.7843032542912844,0.00048742636200773656,-0.002961599130387077,-1.0788501406242188
16202,1.0,299.23995,64987.27,0.0,-0.16202024250133518,0.0,0.0,0.0,0.0,-4.369274968988866,-9.671251721278232,-5.713980758925994,0.002690024089559708,0.0043708439867687155,-1.0847454323560388
16203,1.0,299.83218999999997,65320.34,0.0,-0.1620302384887543,0.0,0.0,0.0,0.0,-4.427458018881087,-9.688064681512541,-5.740229610716554,-0.012451015825819589,-0.007972397593489382,-1.072497771772289
16204,1.0,299.44579,65818.887,0.0,-0.16204026746623112,0.0,0.0,0.0,0.0,-4.472988209474566,-9.743788877387091,-5.790521164854945,-0.008039046651942132,0.005974668528753874,-1.121682654151459
16205,1.0,299.70099,65450.460999999996,0.0,-0.16205026345365048,0.0,0.0,0.0,0.0,-4.407099696546875,-9.70878767255774,-5.779418476884194,0.0070065586815685026,0.020928989856780482,-1.096329819424329
16206,1.0,300.37179,65127.855,0.0,-0.16206025944106983,0.0,0.0,0.0,0.0,-4.357568079983486,-9.699544602495521,-5.740129096306635,0.003253296102300327,0.019091327051417282,-1.098947348407659
16207,1.0,300.31237000000004,65315.799000000006,0.0,-0.16207025542848918,0.0,0.0,0.0,0.0,-4.368361625348726,-9.69078627128114,-5.795223962544074,0.00046359978590623655,-0.006487654661556665,-1.064487523106739
16208,1.0,299.8997,65513.582,0.0,-0.16208025141590843,0.0,0.0,0.0,0.0,-4.436218781895706,-9.708365045941031,-5.7699092260207046,-0.008425962890077791,0.00035138092891359767,-1.0898920335889688
16209,1.0,300.65312,65513.85400000001,0.0,-0.16209024740332767,0.0,0.0,0.0,0.0,-4.4147818548300455,-9.73207317310584,-5.767720808454724,-0.009007498533220892,0.025043410438092176,-1.106967526924189
16210,1.0,300.35262,65198.97,0.0,-0.16210024339074713,0.0,0.0,0.0,0.0,-4.404670530757136,-9.686013154035072,-5.728175278251885,0.0017099093956549185,-0.013333027746367387,-1.110412678589199
16211,1.0,300.31412,65151.934,0.0,-0.16211023937816627,0.0,0.0,0.0,0.0,-4.368102334648136,-9.698592451376552,-5.737866407508324,-0.0013461332566780087,-0.029380293118609176,-1.1219264421255188
16212,1.0,300.71889,65343.052,0.0,-0.16212023536558562,0.0,0.0,0.0,0.0,-4.412442766974196,-9.69808876475184,-5.752124862915524,-0.00032087839240823175,-0.014699481632475885,-1.114924883934519
16213,1.0,299.8441,65570.305,0.0,-0.16213026434306244,0.0,0.0,0.0,0.0,-4.4035832120748255,-9.719741412763792,-5.808410703320504,0.0095586286686882,0.007324592050080953,-1.100666833827359
16214,1.0,300.16288,65462.545999999995,0.0,-0.1621402603304818,0.0,0.0,0.0,0.0,-4.433409444668446,-9.705601102318251,-5.759968938564675,-0.02136473198278488,-0.004903242066312315,-1.0678720824157688
16215,1.0,300.53551,65281.087,0.0,-0.16215025631790114,0.0,0.0,0.0,0.0,-4.403320374998886,-9.68798818112999,-5.752511924453724,-0.021764959692784278,0.0021981580405163077,-1.067939564872429
16216,1.0,299.93838,65497.918,0.0,-0.16216025230532038,0.0,0.0,0.0,0.0,-4.424588190622855,-9.714373112408982,-5.770770285955685,-0.001099342009321609,0.015207852512398186,-1.0814375760795791
16217,1.0,299.69091000000003,65825.675,0.0,-0.16217024829273963,0.0,0.0,0.0,0.0,-4.451455631599465,-9.71862977607908,-5.839276125216685,0.01057919230658499,0.023807771192894078,-1.061406837502699
16218,1.0,299.41469,65708.122,0.0,-0.16218024428015898,0.0,0.0,0.0,0.0,-4.4137170302999555,-9.732708176943511,-5.827203047625164,0.030537631435829573,-0.01746376266753918,-1.075028870522089
16219,1.0,300.05241,65464.105,0.0,-0.16219024026757833,0.0,0.0,0.0,0.0,-4.391481054205436,-9.713268669799982,-5.794703759942735,0.006099637324537333,-0.009094054207113272,-1.055399885609859
16220,1.0,300.65373999999997,65552.631,0.0,-0.1622002362549977,0.0,0.0,0.0,0.0,-4.419304091351355,-9.72019332230839,-5.786865763794185,0.011094550559196888,0.007338846351162743,-1.1009564207059388
16221,1.0,300.83605,65593.287,0.0,-0.1622102652324744,0.0,0.0,0.0,0.0,-4.444385273726676,-9.71663428133214,-5.777701625914754,-0.016072308861713385,0.014403759524540384,-1.086000950554949
16222,1.0,300.16087000000005,65576.099,0.0,-0.16222026121989375,0.0,0.0,0.0,0.0,-4.418884605809955,-9.725971279678632,-5.788640876644374,-0.018281595326752983,-0.00987749492878285,-1.115949279785619
16223,1.0,299.91596,65471.496,0.0,-0.1622302572073131,0.0,0.0,0.0,0.0,-4.420389079558436,-9.694934821165571,-5.786375958695844,-0.01145418037743959,-0.008544536253880072,-1.092218962443619
16224,1.0,299.85889,65332.578,0.0,-0.16224025319473234,0.0,0.0,0.0,0.0,-4.384469262188426,-9.7026013753972,-5.772401821266704,0.008958424703052682,0.00033524112138322266,-1.100476444133569
16225,1.0,300.47327,65421.519,0.0,-0.16225024918215158,0.0,0.0,0.0,0.0,-4.395379635290196,-9.70858877156311,-5.782539793817245,0.02121786138078988,0.012708746121255589,-1.0772257993889092
16226,1.0,299.21756,65718.819,0.0,-0.16226024516957094,0.0,0.0,0.0,0.0,-4.446113371772226,-9.73410301703117,-5.796663486961144,-0.007920432150185792,-0.027037167461110675,-1.072315589404309
16227,1.0,299.50765,65823.464,0.0,-0.1622702411569903,0.0,0.0,0.0,0.0,-4.455610666284536,-9.74341995302568,-5.809658926118694,-0.01062208318331799,0.012569232728236688,-1.0886490796912989
16228,1.0,299.43726000000004,65457.78400000001,0.0,-0.16228023714440964,0.0,0.0,0.0,0.0,-4.403693048385666,-9.723204802930601,-5.770634003817235,0.001962534227812048,0.019238177388410282,-1.090476172271619
16229,1.0,299.84735,65427.628,0.0,-0.16229026612188646,0.0,0.0,0.0,0.0,-4.376643830341116,-9.7323311465813,-5.779390308531415,0.009777374875801772,0.02440051236889308,-1.0974070056056389
16230,1.0,300.64808999999997,65764.929,0.0,-0.1623002621093056,0.0,0.0,0.0,0.0,-4.435607792085405,-9.73332149722904,-5.821966875083394,0.0025264646504676476,-0.027067629812117074,-1.0689568679728292
16231,1.0,300.44285,65808.717,0.0,-0.16231025809672506,0.0,0.0,0.0,0.0,-4.436692476317456,-9.74174667181054,-5.825767576208494,0.014752561752214486,-0.01404693032957409,-1.094777621596139
16232,1.0,299.62389,65436.585999999996,0.0,-0.1623202540841443,0.0,0.0,0.0,0.0,-4.422917847833006,-9.712067968431482,-5.756102376183074,0.009055259799209561,0.005142047079030535,-1.077924637982879
16233,1.0,300.03812,65421.721,0.0,-0.16233025007156354,0.0,0.0,0.0,0.0,-4.410026976085776,-9.713737804596281,-5.762804721619545,0.0013294371241802288,0.008116512053887373,-1.0933610979563388
16234,1.0,299.94247,65631.22099999999,0.0,-0.1623402460589829,0.0,0.0,0.0,0.0,-4.438904097310726,-9.722470905883172,-5.788877470542724,-0.003234231497693797,-0.017467870383444585,-1.0965234515184388
16235,1.0,299.87564,65835.0,0.0,-0.16235024204640214,0.0,0.0,0.0,0.0,-4.445054120117685,-9.747136959692522,-5.820004918914765,-0.021613387610325278,0.008367361469219282,-1.0956544882326789
16236,1.0,299.99175,65750.172,0.0,-0.1623602380338216,0.0,0.0,0.0,0.0,-4.431821479111726,-9.73921668763585,-5.815372339457565,0.012148817023244886,0.015614550837536186,-1.1082863732543489
16237,1.0,300.01403,65375.255999999994,0.0,-0.1623702670112983,0.0,0.0,0.0,0.0,-4.404167046782446,-9.7127288101467,-5.755549445603504,-0.0031945245567500274,0.012448128063034589,-1.078145019879629
16238,1.0,300.36424,65500.087999999996,0.0,-0.16238026299871755,0.0,0.0,0.0,0.0,-4.424189071408466,-9.73270088154279,-5.753501363176374,-0.008141327156786431,-0.009907895066233111,-1.105453629949779
16239,1.0,299.67649,65870.979,0.0,-0.1623902589861369,0.0,0.0,0.0,0.0,-4.4657069942559655,-9.74737679599119,-5.810048926082185,-0.003363341041335916,-0.00032428157525409967,-1.096170029883559
16240,1.0,299.56129,65817.418,0.0,-0.16240025497355626,0.0,0.0,0.0,0.0,-4.446591524494416,-9.75998112061014,-5.800279067292974,0.015364892092396784,0.01030830394535039,-1.115485717864869
16241,1.0,299.98911,65431.833,0.0,-0.1624102509609754,0.0,0.0,0.0,0.0,-4.360045577802996,-9.740417692979381,-5.789180128347595,0.005743216266711314,0.0014301292581677687,-1.092519289773259
16242,1.0,299.92983,65490.456,0.0,-0.16242024694839496,0.0,0.0,0.0,0.0,-4.372820128438746,-9.74795860419861,-5.786684696001315,0.0067080787095108235,-0.03337546125590157,-1.0977898114934188
16243,1.0,300.30097,65868.61,0.0,-0.1624302429358141,0.0,0.0,0.0,0.0,-4.442892857654386,-9.76050061393641,-5.819019229217485,0.0028730417809221475,-0.004645402643840546,-1.0888235613585189
16244,1.0,300.22105,65853.027,0.0,-0.16244023892323345,0.0,0.0,0.0,0.0,-4.474022129876605,-9.75424105879364,-5.789412466595524,0.003067503726864047,-0.0068314413012357635,-1.090641129387899
16245,1.0,299.90222,65551.828,0.0,-0.16245026790071027,0.0,0.0,0.0,0.0,-4.405049992919586,-9.749464597822241,-5.771604292112995,-0.006873192879556322,-0.014480030912567787,-1.1095769499067187
16246,1.0,300.31471,65556.758,0.0,-0.1624602638881295,0.0,0.0,0.0,0.0,-4.4322476521037855,-9.722403524751522,-5.772966201572404,-0.006168492735082833,-0.012770412522341588,-1.0821867732035189
16247,1.0,299.77085,65773.808,0.0,-0.16247025987554897,0.0,0.0,0.0,0.0,-4.4063464464225355,-9.75119391176791,-5.836054901823774,-0.003807404787761596,0.024953348716203774,-1.1285630276304988
16248,1.0,299.4976,65842.357,0.0,-0.16248025586296821,0.0,0.0,0.0,0.0,-4.447897806523336,-9.74831222848351,-5.818222409338845,0.02025256232852228,0.02272052647784138,-1.081301192616119
16249,1.0,299.66659,65861.00099999999,0.0,-0.16249025185038746,0.0,0.0,0.0,0.0,-4.447739942157756,-9.746619594191461,-5.825740117130785,-0.0018420884791499783,-0.003571984739652447,-1.0819919252092889
16250,1.0,299.68377000000004,65615.137,0.0,-0.1625002478378068,0.0,0.0,0.0,0.0,-4.444028407041455,-9.72427388311111,-5.7770609478765245,0.01016397964085669,-0.009546747095365581,-1.0537911484260891
16251,1.0,299.79314,65669.27799999999,0.0,-0.16251024382522605,0.0,0.0,0.0,0.0,-4.427220310407626,-9.743916952199731,-5.790683386195954,-0.00915013942399845,0.000962128410319681,-1.076780982595009
16252,1.0,299.98215,66041.352,0.0,-0.1625202398126454,0.0,0.0,0.0,0.0,-4.464539831465776,-9.763381486620732,-5.847000637354035,0.0025918157355422976,-0.0006549930025952764,-1.063145169374259
16253,1.0,299.32781,65988.351,0.0,-0.16253023580006476,0.0,0.0,0.0,0.0,-4.438330597754126,-9.7664401846976,-5.854040091098774,-0.02903792908207047,-0.01155934661856869,-1.080415409378699
16254,1.0,299.99953999999997,65618.88799999999,0.0,-0.16254026477754147,0.0,0.0,0.0,0.0,-4.3966979749953055,-9.750879601586892,-5.798926074434444,-0.011827265143760188,-0.008315859587836443,-1.077236641164979
16255,1.0,300.3436,65559.267,0.0,-0.16255026076496093,0.0,0.0,0.0,0.0,-4.426603747721776,-9.73393572943966,-5.7678407772665645,-0.0006772123512556554,0.004012660279068736,-1.0953974266823092
16256,1.0,300.51806,65806.368,0.0,-0.16256025675238006,0.0,0.0,0.0,0.0,-4.4500587650116055,-9.752182134590441,-5.801251888713985,0.004593080941801796,-0.0013819032143582287,-1.092874332608299
16257,1.0,300.31332000000003,65766.446,0.0,-0.16257025273979941,0.0,0.0,0.0,0.0,-4.450973324551867,-9.75906787829501,-5.781316091671474,0.009017196957878051,-0.020193788756471782,-1.101371549271909
16258,1.0,300.09037,65682.363,0.0,-0.16258024872721877,0.0,0.0,0.0,0.0,-4.4245152366156555,-9.75705333444619,-5.784229591009015,0.0034032675535763564,-0.012458980984855686,-1.1064851185515792
16259,1.0,300.61662,65732.443,0.0,-0.162590244714638,0.0,0.0,0.0,0.0,-4.421841776226805,-9.76053050481436,-5.798649153182114,0.017911306117458285,0.015707651296474483,-1.0984043476790688
16260,1.0,300.74546000000004,65909.238,0.0,-0.16260024070205747,0.0,0.0,0.0,0.0,-4.446769349886965,-9.76904585865476,-5.818947288460385,-0.0006846389577311043,0.012942521157827387,-1.076298574222399
16261,1.0,300.07063,66089.546,0.0,-0.1626102366894766,0.0,0.0,0.0,0.0,-4.475759347173056,-9.7893680079604,-5.824444372902904,-0.016319873218896087,-0.011889568879159089,-1.082755611809659
16262,1.0,299.75807000000003,66146.745,0.0,-0.16262026566695342,0.0,0.0,0.0,0.0,-4.480906556356046,-9.788986519297751,-5.837065821448545,-0.027060037529117772,-0.010718629705846389,-1.070728535772679
16263,1.0,299.22757,65878.94099999999,0.0,-0.1626302616543729,0.0,0.0,0.0,0.0,-4.434927799943296,-9.766322039735941,-5.824303125838965,-0.007654055791646492,0.011654938659502886,-1.0947250339159489
16264,1.0,299.20808,65643.355,0.0,-0.16264025764179202,0.0,0.0,0.0,0.0,-4.425593233397046,-9.745811223261681,-5.782536348766905,-0.0027937921468758173,0.018401702953856684,-1.076908550782599
16265,1.0,299.8436,65905.564,0.0,-0.16265025362921137,0.0,0.0,0.0,0.0,-4.435311011131116,-9.762899584873171,-5.835435299387624,-0.00986392406489351,-0.02400085714520018,-1.1057195067760188
16266,1.0,299.96274,65939.144,0.0,-0.16266024961663073,0.0,0.0,0.0,0.0,-4.483207242033105,-9.75586732520414,-5.804778708337055,-0.0005976521661861765,-0.0027168909225862574,-1.0852604673818689
16267,1.0,300.15873999999997,65733.601,0.0,-0.16267024560404997,0.0,0.0,0.0,0.0,-4.440986326266226,-9.760481058209482,-5.779905850182295,0.013680487417658985,0.007278707525927503,-1.098449032008479
16268,1.0,300.70974,65758.217,0.0,-0.16268024159146943,0.0,0.0,0.0,0.0,-4.4612104942871955,-9.756644285380823,-5.771001205653475,0.02368394088492298,0.007688199989541263,-1.079178028356579
16269,1.0,300.2149,65981.041,0.0,-0.16269023757888856,0.0,0.0,0.0,0.0,-4.460103822527976,-9.78263708887111,-5.813848006007124,0.0036979294979322262,-0.009356202576960302,-1.088066359558789
16270,1.0,299.70187999999996,66131.61,0.0,-0.16270026655636538,0.0,0.0,0.0,0.0,-4.475273696400126,-9.79794952703233,-5.829135011590835,0.000953635540499,0.002480507881582068,-1.1010523754904091
16271,1.0,299.74347,66140.27799999999,0.0,-0.16271026254378473,0.0,0.0,0.0,0.0,-4.455707938294136,-9.793547360647871,-5.855737690316315,0.0018289864460819083,0.011194994041609887,-1.095675259859729
16272,1.0,299.73266,65907.51400000001,0.0,-0.1627202585312041,0.0,0.0,0.0,0.0,-4.464551382516916,-9.759462944509,-5.810224117024474,-0.01299778483153149,0.00957896621939536,-1.089312049231729
16273,1.0,299.87941,65632.094,0.0,-0.16273025451862322,0.0,0.0,0.0,0.0,-4.4150457051560865,-9.747190459297801,-5.788281375508895,-0.001992265214896268,-0.013045882800528387,-1.074432775488259
16274,1.0,300.13975,65792.619,0.0,-0.16274025050604268,0.0,0.0,0.0,0.0,-4.431771728531816,-9.767877682614472,-5.799663821832254,0.0035246454923304263,0.00940317056944568,-1.1241454598445189
16275,1.0,300.31055,65908.451,0.0,-0.16275024649346193,0.0,0.0,0.0,0.0,-4.422681557909686,-9.77780976274469,-5.834032049324135,0.010234802783096391,0.005313518278878425,-1.0934953535945888
16276,1.0,299.84612999999996,65822.599,0.0,-0.16276024248088128,0.0,0.0,0.0,0.0,-4.412049524610386,-9.78113899859826,-5.815237881169295,0.0033158248805464367,-0.0056886736217783744,-1.111380839059749
16277,1.0,300.11894,65753.337,0.0,-0.16277023846830052,0.0,0.0,0.0,0.0,-4.395287936156145,-9.78229106396196,-5.809793789707004,-0.003110305234938227,-0.01079814653394409,-1.092334979580069
16278,1.0,299.68844,66069.61,0.0,-0.16278026744577734,0.0,0.0,0.0,0.0,-4.476654249661376,-9.801630563320622,-5.805226868856285,0.008747211301157541,0.008145895394862284,-1.0901723998916388
16279,1.0,298.98006000000004,66241.489,0.0,-0.1627902634331967,0.0,0.0,0.0,0.0,-4.502125026700146,-9.8096167979588,-5.824016781360704,0.007049747251180884,0.008015455251188843,-1.083645954672529
16280,1.0,299.44611000000003,66103.026,0.0,-0.16280025942061604,0.0,0.0,0.0,0.0,-4.482287413592326,-9.79235750105544,-5.819024599443015,0.006519653910314744,0.02134764351984838,-1.0830938346930388
16281,1.0,300.32002,65902.07400000001,0.0,-0.16281025540803518,0.0,0.0,0.0,0.0,-4.446832880668236,-9.78416871772227,-5.801583322821695,-0.010589001580803089,-0.0015729512167381985,-1.083138316372429
16282,1.0,300.04988,65878.143,0.0,-0.16282025139545453,0.0,0.0,0.0,0.0,-4.434955866971066,-9.7610122039119,-5.829342525211315,0.003108138906224427,0.013232905464236088,-1.082380202647609
16283,1.0,300.56532000000004,66119.923,0.0,-0.16283024738287388,0.0,0.0,0.0,0.0,-4.451530105481816,-9.7941120449286,-5.853163427112254,-0.004311607663397546,-0.004138785598516336,-1.0907092197946189
16284,1.0,300.00646,66137.489,0.0,-0.16284024337029324,0.0,0.0,0.0,0.0,-4.480383719304446,-9.785166363770731,-5.838595221149484,-0.003416145759697337,-0.01201291181383209,-1.0669236803221689
16285,1.0,300.30938,66029.584,0.0,-0.1628502393577126,0.0,0.0,0.0,0.0,-4.457621157132955,-9.773217814616501,-5.840505704213035,-5.1459623787419453e-05,-0.008732504685231112,-1.083503390383459
16286,1.0,300.35963,65896.265,0.0,-0.1628602683351893,0.0,0.0,0.0,0.0,-4.438947971040055,-9.785967236649771,-5.805903922573104,-0.007621888951321873,0.013991258316079686,-1.088335377460339
16287,1.0,299.78662,66040.562,0.0,-0.16287026432260865,0.0,0.0,0.0,0.0,-4.448581649015826,-9.78514751731887,-5.840952547507135,0.002144178661313958,-0.006613928523468924,-1.087819329184409
16288,1.0,299.88546,66320.303,0.0,-0.1628802603100279,0.0,0.0,0.0,0.0,-4.483911450852606,-9.81322680541508,-5.862577939091395,-0.013653896695284686,-0.012289885755167288,-1.096206202912129
16289,1.0,299.70766000000003,66041.76299999999,0.0,-0.16289025629744713,0.0,0.0,0.0,0.0,-4.456023565700286,-9.802632059719459,-5.816391263758124,0.0029453199503054472,-0.0030860604905204574,-1.074602292229989
16290,1.0,299.23533,65769.023,0.0,-0.1629002522848666,0.0,0.0,0.0,0.0,-4.447139996773546,-9.780316948792132,-5.764683793929994,-0.011688586668823688,0.006451895748302534,-1.1085072617761489
16291,1.0,299.76284,65943.796,0.0,-0.16291024827228584,0.0,0.0,0.0,0.0,-4.452844392186526,-9.791333206529352,-5.801089971348005,0.01231251162990029,0.006387834834580214,-1.0996888448308388
16292,1.0,300.02626000000004,66176.088,0.0,-0.1629202442597052,0.0,0.0,0.0,0.0,-4.472472667823686,-9.81237547268106,-5.831030295902885,-0.013591487581875387,0.001213939987681549,-1.110297674702849
16293,1.0,300.23732,66061.94,0.0,-0.16293024024712444,0.0,0.0,0.0,0.0,-4.438092382655617,-9.800340189318272,-5.842747418734274,0.013976972502919786,0.006935961595426114,-1.098691806732439
16294,1.0,300.45694,66053.547,0.0,-0.16294023623454368,0.0,0.0,0.0,0.0,-4.4352345107485664,-9.80220142842696,-5.8411929917558645,-0.00013212147009437387,0.007337259905481174,-1.0927247768935389
16295,1.0,300.35939,66048.213,0.0,-0.16295026521202072,0.0,0.0,0.0,0.0,-4.445671290753596,-9.78932666735632,-5.842009367361435,0.008225603017953812,9.23786388188118e-05,-1.073103087382029
16296,1.0,300.10881,66198.506,0.0,-0.16296026119943985,0.0,0.0,0.0,0.0,-4.479694607911436,-9.812205955939332,-5.8307923847794045,-0.003692944408765236,-0.007632067352551403,-1.075940694287079
16297,1.0,300.03535,66323.242,0.0,-0.1629702571868592,0.0,0.0,0.0,0.0,-4.472577944509076,-9.81998700743226,-5.868044423380894,0.007711097719276093,0.0027016529583073876,-1.087017848355309
16298,1.0,299.71081000000004,66197.633,0.0,-0.16298025317427856,0.0,0.0,0.0,0.0,-4.472805723131556,-9.807443579144321,-5.842178174828094,-0.016432129170974884,0.0017630618614506582,-1.087202665173549
16299,1.0,299.9231,65989.741,0.0,-0.1629902491616978,0.0,0.0,0.0,0.0,-4.426096920021756,-9.804639713467601,-5.828496968002865,-0.024352742692928576,-0.02293385919364568,-1.1106721719398092
16300,1.0,299.62414,65952.645,0.0,-0.16300024514911715,0.0,0.0,0.0,0.0,-4.449431563199705,-9.79306140589991,-5.805464273354715,-0.025428528562600375,-0.016775334205096585,-1.0990577926685592
16301,1.0,299.81602999999996,66197.841,0.0,-0.1630102411365364,0.0,0.0,0.0,0.0,-4.495617529257905,-9.80259811584111,-5.824275058811195,0.004401874061806145,-0.007668171581439612,-1.091262656999239
16302,1.0,299.54829,66152.065,0.0,-0.16302023712395564,0.0,0.0,0.0,0.0,-4.506166172073976,-9.80059937869385,-5.801810392169104,0.017659822508888784,0.005746285502589224,-1.090260147350299
16303,1.0,298.88932,66008.534,0.0,-0.16303026610143256,0.0,0.0,0.0,0.0,-4.445087050745936,-9.80204741441176,-5.817811536423295,0.005805276822086214,-0.00028036642426001177,-1.0971363665039289
16304,1.0,299.94965,66210.91900000001,0.0,-0.1630402620888518,0.0,0.0,0.0,0.0,-4.4633556460739054,-9.81906819224158,-5.844042352362075,0.008487916142267102,0.0036150619530788373,-1.0936241376822988
16305,1.0,299.74832000000004,66349.837,0.0,-0.16305025807627105,0.0,0.0,0.0,0.0,-4.444697456082486,-9.829223997993882,-5.894772441143744,-0.007556135707282533,0.009220066853149751,-1.0815844973440791
16306,1.0,299.6453,66368.022,0.0,-0.1630602540636905,0.0,0.0,0.0,0.0,-4.470267835606086,-9.8387720563362,-5.865181687873364,0.0016838867012866784,-0.006336128276677174,-1.098060450595129
16307,1.0,299.58083,66186.201,0.0,-0.16307025005110964,0.0,0.0,0.0,0.0,-4.484061411867406,-9.803243252179781,-5.831647871838835,-0.004087471573702036,-0.011217830672363689,-1.084383094120279
16308,1.0,300.1362,65942.183,0.0,-0.1630802460385291,0.0,0.0,0.0,0.0,-4.439463614015946,-9.80822884797182,-5.797084492377694,0.0012548637406704088,-0.004267739709593116,-1.111833761854449
16309,1.0,299.74244,66027.383,0.0,-0.16309024202594835,0.0,0.0,0.0,0.0,-4.433230302050767,-9.82000423268396,-5.817441294836755,0.00012876485622310188,0.008780717050164302,-1.1134166611606688
16310,1.0,299.90651,66488.666,0.0,-0.1631002380133676,0.0,0.0,0.0,0.0,-4.497566921125296,-9.83862564169675,-5.874701679187915,0.0029560059898350774,0.003884116027657406,-1.106648251817679
16311,1.0,299.86085,66383.952,0.0,-0.16311026699084452,0.0,0.0,0.0,0.0,-4.486769626734686,-9.83613892330133,-5.856155250682524,-0.0025315749773469976,-0.0034503291703709767,-1.102793240487219
16312,1.0,300.19289,65953.115,0.0,-0.16312026297826376,0.0,0.0,0.0,0.0,-4.445769981313336,-9.805488411751359,-5.796841717653735,-0.006174932648743405,0.0026344405327990376,-1.089050124080879
16313,1.0,300.31815,66137.34599999999,0.0,-0.163130258965683,0.0,0.0,0.0,0.0,-4.487123554994616,-9.80171304187876,-5.815264934946964,0.0013364121352186086,0.004416049633355165,-1.070214716646969
16314,1.0,300.39564,66586.592,0.0,-0.16314025495310236,0.0,0.0,0.0,0.0,-4.520652811403696,-9.8405482837615,-5.879460104307534,0.002084276126002038,-0.01199917619547649,-1.080316617493949
16315,1.0,299.63759,66444.33,0.0,-0.1631502509405217,0.0,0.0,0.0,0.0,-4.4880424715103056,-9.83247886129011,-5.876895973604474,0.01140319768540799,0.0029383127179138874,-1.0847365157551592
16316,1.0,299.71348,66069.131,0.0,-0.16316024692794107,0.0,0.0,0.0,0.0,-4.452108569963905,-9.80835216050899,-5.822905549976035,0.024888367974040676,0.0065687892447640235,-1.088486858350289
16317,1.0,299.6707,66117.015,0.0,-0.1631702429153603,0.0,0.0,0.0,0.0,-4.438635079409176,-9.807626572112381,-5.851659763963855,0.022933193488329978,0.02209213612357408,-1.085849064364959
16318,1.0,299.90479,66446.13,0.0,-0.16318023890277955,0.0,0.0,0.0,0.0,-4.514323949954086,-9.829439820265181,-5.854200488589604,-0.001046260673682889,0.0005334422743016535,-1.095786717370729
16319,1.0,300.18324,66621.775,0.0,-0.16319026788025648,0.0,0.0,0.0,0.0,-4.5104451272462756,-9.85804255336305,-5.882868474993915,0.008379690899086101,-0.005867224704049994,-1.100017239188249
16320,1.0,300.22292000000004,66319.97200000001,0.0,-0.16320026386767572,0.0,0.0,0.0,0.0,-4.470098724164396,-9.829388043185071,-5.860128812274685,-0.01024976139432269,-0.01023620106823439,-1.105856802164569
16321,1.0,300.01887,65971.541,0.0,-0.16321025985509496,0.0,0.0,0.0,0.0,-4.401901723533876,-9.809848629581682,-5.8419508015056545,-0.017448470697029983,0.01019423022259219,-1.090161760765589
16322,1.0,300.30307,66144.355,0.0,-0.16322025584251432,0.0,0.0,0.0,0.0,-4.451973503725576,-9.821017077483921,-5.833241714246134,-0.023338986981128677,0.0006587789710639224,-1.090145954064029
16323,1.0,299.90537,66583.767,0.0,-0.16323025182993367,0.0,0.0,0.0,0.0,-4.501350802298736,-9.84362157263981,-5.894830196399444,-0.022875083595094978,0.014440613457177587,-1.074841216603569
16324,1.0,299.56383,66315.672,0.0,-0.16324024781735302,0.0,0.0,0.0,0.0,-4.494715331368866,-9.83538243077667,-5.828210623524604,0.002157733110551678,0.0035466761839546865,-1.0785119177408389
16325,1.0,300.30751000000004,65933.492,0.0,-0.16325024380477227,0.0,0.0,0.0,0.0,-4.4122995947350665,-9.825992236799932,-5.803843377169744,0.016493229165254985,-0.0018103584509434683,-1.087160108669349
16326,1.0,299.8568,66205.459,0.0,-0.1632602397921915,0.0,0.0,0.0,0.0,-4.449659645797216,-9.842241120703571,-5.832905619187964,0.025556299400210373,-0.007282853238711653,-1.094351144629049
16327,1.0,299.38205,66661.45599999999,0.0,-0.16327026876966844,0.0,0.0,0.0,0.0,-4.495245869121225,-9.86960495290417,-5.898567265418265,0.01083101940693839,-0.006262914168176504,-1.103745290281179
16328,1.0,299.64996,66597.682,0.0,-0.16328026475708768,0.0,0.0,0.0,0.0,-4.497235183042555,-9.871183596559971,-5.875613502952904,-0.0009205533502990422,-0.011948496465224789,-1.099996670211219
16329,1.0,300.05001,66179.988,0.0,-0.16329026074450692,0.0,0.0,0.0,0.0,-4.456227634270426,-9.83444304660896,-5.826393055495225,-0.012306215293778887,0.010793842247519291,-1.0913563826334889
16330,1.0,300.0696,66101.87299999999,0.0,-0.16330025673192627,0.0,0.0,0.0,0.0,-4.4852370859584365,-9.800965364629972,-5.807116276317754,-0.003102860785128517,0.001176135018500489,-1.086151215544779
16331,1.0,300.04847,66359.436,0.0,-0.16331025271934552,0.0,0.0,0.0,0.0,-4.4918270619588165,-9.824455035073221,-5.855329654501045,-0.004655464419983566,0.01062522425862799,-1.103435641050619
16332,1.0,299.13817,66574.788,0.0,-0.16332024870676498,0.0,0.0,0.0,0.0,-4.510120785889266,-9.843755929603072,-5.883196464051284,5.724603571649385e-05,-0.0069255789229764235,-1.102103926444189
16333,1.0,298.55888999999996,66355.214,0.0,-0.16333024469418422,0.0,0.0,0.0,0.0,-4.480882441003666,-9.83696482345784,-5.852480699194874,0.0013698453355182087,0.009216141826237381,-1.106199483348389
16334,1.0,299.1373,66112.178,0.0,-0.16334024068160347,0.0,0.0,0.0,0.0,-4.455203339744336,-9.82596244724699,-5.815285605249004,0.008454315249075951,-0.0015488563320102185,-1.106736201926359
16335,1.0,299.77687000000003,66272.976,0.0,-0.16335026965908028,0.0,0.0,0.0,0.0,-4.469571023512316,-9.84609643600906,-5.829662408267885,-0.0051833073323776045,0.013698567852443385,-1.117880129176179
16336,1.0,299.62207,66640.194,0.0,-0.16336026564649964,0.0,0.0,0.0,0.0,-4.522573528293255,-9.870650627007372,-5.863730815055174,-0.002205166590132998,-0.01230385138129559,-1.1037822739098289
16337,1.0,299.54174,66613.193,0.0,-0.16337026163391888,0.0,0.0,0.0,0.0,-4.500273210817386,-9.865618421710732,-5.882855809367665,0.0012210990049380888,0.013888081084896885,-1.110212966994489
16338,1.0,299.79978,66331.086,0.0,-0.16338025762133834,0.0,0.0,0.0,0.0,-4.457467244442766,-9.8508976202829,-5.854628992056894,0.025477400654673677,0.00026976094824583273,-1.082364497271059
16339,1.0,300.10774,66380.295,0.0,-0.16339025360875747,0.0,0.0,0.0,0.0,-4.474308575679875,-9.84955354402525,-5.854090145653715,0.01094246881193759,-2.9999385889958868e-05,-1.0838816366457888
16340,1.0,300.07009,66661.692,0.0,-0.16340024959617694,0.0,0.0,0.0,0.0,-4.505052002264016,-9.857198313379731,-5.901239611232004,0.001952662132087748,-0.016134942916644884,-1.063020032986909
16341,1.0,299.92471,66691.417,0.0,-0.16341024558359618,0.0,0.0,0.0,0.0,-4.517381128155805,-9.88369257434451,-5.871451780817175,-0.007126242871455414,0.0017882551092870385,-1.0861888071234889
16342,1.0,299.89648,66406.628,0.0,-0.16342024157101542,0.0,0.0,0.0,0.0,-4.478573548000796,-9.853544938819171,-5.853838150353845,0.0014060970936209788,0.003158008644346187,-1.082532899437679
16343,1.0,300.19558,66192.035,0.0,-0.16343023755843478,0.0,0.0,0.0,0.0,-4.452649341542275,-9.84237780814206,-5.825698675201695,-0.02197247230001418,0.0043883005634665455,-1.099991299985689
16344,1.0,299.69214,66249.519,0.0,-0.1634402665359116,0.0,0.0,0.0,0.0,-4.441909194457306,-9.86051083060665,-5.835779399121585,-0.016773627891928183,-0.009387809089979621,-1.1118532162563688
16345,1.0,299.36756,66508.37299999999,0.0,-0.16345026252333084,0.0,0.0,0.0,0.0,-4.498360295953596,-9.85397222638634,-5.864552054261225,-0.03888573112197286,0.0028841190363153874,-1.0988032642434389
16346,1.0,298.97881,66597.51,0.0,-0.1634602585107502,0.0,0.0,0.0,0.0,-4.492455884970875,-9.88547356404528,-5.866050651159124,-0.01134718319337979,0.004467523650360255,-1.1137203322156388
16347,1.0,299.72624,66267.219,0.0,-0.16347025449816943,0.0,0.0,0.0,0.0,-4.467791857661725,-9.848471088943421,-5.827316835611394,-0.012404649501243589,0.0038064587161432263,-1.096791760144919
16348,1.0,299.72339,66335.94099999999,0.0,-0.16348025048558879,0.0,0.0,0.0,0.0,-4.452374548115156,-9.85890878087354,-5.853186326564515,0.006521884580409893,-0.0069383364510104935,-1.086841644162919
16349,1.0,300.01126,66722.13900000001,0.0,-0.16349024647300814,0.0,0.0,0.0,0.0,-4.489321699761555,-9.887298123500349,-5.9052445835772645,0.004327146461631105,0.007971835746308933,-1.0749755735668292
16350,1.0,299.89493,66705.49900000001,0.0,-0.16350024246042727,0.0,0.0,0.0,0.0,-4.4935723852560665,-9.86277443133005,-5.920459344428845,0.019520434415766882,-0.008587262376146812,-1.082503920484819
16351,1.0,300.31767,66417.217,0.0,-0.16351023844784685,0.0,0.0,0.0,0.0,-4.454933511242705,-9.874823190919171,-5.859418929254624,-0.0012778760689915489,-0.018332318626758985,-1.094626951306269
16352,1.0,300.24919,66396.933,0.0,-0.16352026742532344,0.0,0.0,0.0,0.0,-4.484917202901866,-9.844718415873059,-5.853374183133054,0.009310893680188661,-0.024037514507317975,-1.086518721356049
16353,1.0,300.63634,66619.147,0.0,-0.1635302634127428,0.0,0.0,0.0,0.0,-4.517929093809886,-9.860773566357581,-5.871854345081904,0.002174804246911468,0.010654823320549189,-1.096067590298449
16354,1.0,300.76459,66783.19099999999,0.0,-0.16354025940016215,0.0,0.0,0.0,0.0,-4.531898772938586,-9.89963180901759,-5.868891804439524,0.003099874433108787,0.002705771414663847,-1.093869850831549
16355,1.0,300.54722999999996,66815.054,0.0,-0.1635502553875815,0.0,0.0,0.0,0.0,-4.521304229892986,-9.88194502189704,-5.906858792311574,-0.007697184883478003,0.02191201470629748,-1.101733279557609
16356,1.0,300.25771000000003,66529.069,0.0,-0.16356025137500085,0.0,0.0,0.0,0.0,-4.496983390392705,-9.86164323891841,-5.864549217160945,-0.007188370706636953,0.01891642285890558,-1.0836155571695292
16357,1.0,300.39763,66462.162,0.0,-0.1635702473624201,0.0,0.0,0.0,0.0,-4.489292619483686,-9.85621353560754,-5.857331532723615,0.0007649725667344142,0.015339432157134087,-1.092958533691609
16358,1.0,300.2694,66705.525,0.0,-0.16358024334983934,0.0,0.0,0.0,0.0,-4.541060782992806,-9.8598588041673,-5.875894477205635,-0.004803541296222616,-0.007151971824619663,-1.098770029640159
16359,1.0,299.72086,66692.224,0.0,-0.1635902393372587,0.0,0.0,0.0,0.0,-4.531682748017266,-9.889242854417281,-5.851845290057165,0.009044634048060881,-0.01074601684279929,-1.1120090541217489
16360,1.0,300.00728,66332.19,0.0,-0.1636002683147355,0.0,0.0,0.0,0.0,-4.444471906610226,-9.86379507815578,-5.855062561774685,0.024339468103368476,-0.007777841719263212,-1.120093877994659
16361,1.0,300.02455,66344.11,0.0,-0.16361026430215475,0.0,0.0,0.0,0.0,-4.439546700524146,-9.872248015790023,-5.855158212584125,0.020299553828409977,0.010037199052569421,-1.1065941442623388
16362,1.0,300.30913,66776.314,0.0,-0.1636202602895741,0.0,0.0,0.0,0.0,-4.486513578434416,-9.904730078220751,-5.907088293459224,0.001336560272383229,0.0023934245070376075,-1.1169359827329988
16363,1.0,299.92028,66891.479,0.0,-0.16363025627699335,0.0,0.0,0.0,0.0,-4.528725881575445,-9.908708402088381,-5.895904950780515,-0.0015857341773497784,-7.057423329963454e-05,-1.098664854279779
16364,1.0,300.42213,66655.141,0.0,-0.1636402522644128,0.0,0.0,0.0,0.0,-4.497138620308026,-9.90851720179451,-5.855842663026674,-0.01014439047667339,0.004165972111949436,-1.1145506906725888
16365,1.0,300.75964,66583.91900000001,0.0,-0.16365024825183194,0.0,0.0,0.0,0.0,-4.522430153404105,-9.8775025281586,-5.839916093979845,0.0028237975220871173,-0.0012045898170837588,-1.0728068130527888
16366,1.0,301.48717999999997,66782.40299999999,0.0,-0.1636602442392513,0.0,0.0,0.0,0.0,-4.499277388619105,-9.901863897662881,-5.899041871765104,-0.004343734277693196,-0.001025401197849219,-1.099945501081169
16367,1.0,300.93397000000004,66765.133,0.0,-0.16367024022667065,0.0,0.0,0.0,0.0,-4.514533794049796,-9.894342947470621,-5.886056565108555,-0.0012736242689219287,0.0014251460941759686,-1.0935787440778189
16368,1.0,300.34389,66667.657,0.0,-0.16368026920414747,0.0,0.0,0.0,0.0,-4.486987779481216,-9.881864265864072,-5.896450889934394,0.0016716806852820386,0.012444960643221988,-1.096108424277479
16369,1.0,300.17126,66531.00200000001,0.0,-0.1636902651915666,0.0,0.0,0.0,0.0,-4.496172688987695,-9.87758196696644,-5.8500085716008945,0.006351399779534354,0.01057804024122129,-1.0962088373623888
16370,1.0,300.75597999999997,66483.771,0.0,-0.16370026117898606,0.0,0.0,0.0,0.0,-4.496914084085866,-9.867176091089458,-5.845316210387795,-0.00094667724808727,-0.008705143588805782,-1.0916096951584888
16371,1.0,300.27017,66912.286,0.0,-0.1637102571664053,0.0,0.0,0.0,0.0,-4.549564788432086,-9.90849541691736,-5.881603938869115,-0.014896217311642186,-0.009515443240151132,-1.113499848993879
16372,1.0,300.18978,67080.473,0.0,-0.16372025315382477,0.0,0.0,0.0,0.0,-4.530116668662705,-9.92123602367476,-5.939435998926694,-0.005625372746956064,-0.004576991644788905,-1.089791012553999
16373,1.0,300.21057,66781.527,0.0,-0.163730249141244,0.0,0.0,0.0,0.0,-4.494744107671705,-9.89435743694705,-5.910815229977045,-0.0038575484073853864,-0.018246747629313782,-1.0922939429510188
16374,1.0,299.75572,66712.82400000001,0.0,-0.16374024512866325,0.0,0.0,0.0,0.0,-4.485570039941296,-9.897380772595431,-5.8960817629229645,-0.004357282444780296,-0.00040724859086980667,-1.0765347628207091
16375,1.0,300.20423,66801.355,0.0,-0.1637502411160826,0.0,0.0,0.0,0.0,-4.527467526276255,-9.88641396146309,-5.892062402426284,-0.000875978887597385,0.006809465629091934,-1.095963732163199
16376,1.0,300.08752000000004,66712.20599999999,0.0,-0.16376027009355942,0.0,0.0,0.0,0.0,-4.511863069436216,-9.89474713293551,-5.872234516519424,-0.0048020540477258355,0.021418362297327777,-1.0800348326411389
16377,1.0,299.74318,66606.00200000001,0.0,-0.16377026608097855,0.0,0.0,0.0,0.0,-4.492295183505016,-9.89857630638842,-5.855689864911595,0.000933771086396031,0.0034076852226873466,-1.118761859413199
16378,1.0,299.6101,66615.759,0.0,-0.16378026206839802,0.0,0.0,0.0,0.0,-4.473182956143786,-9.882556923632432,-5.893787460721534,0.011404213975258289,0.008559017624309271,-1.087688721246519
16379,1.0,299.92372,66564.805,0.0,-0.16379025805581726,0.0,0.0,0.0,0.0,-4.4723540162369755,-9.882744780200971,-5.878939901706195,-0.008716470610348673,-0.0012674491175124888,-1.105952452974009
16380,1.0,299.52164,66661.465,0.0,-0.16380025404323661,0.0,0.0,0.0,0.0,-4.4780033921695255,-9.894612674647242,-5.890804857727175,-0.005027351828660996,0.00042555520334152866,-1.098397862878429
16381,1.0,299.50458,66906.892,0.0,-0.16381025003065597,0.0,0.0,0.0,0.0,-4.555914624158766,-9.90623657846943,-5.875873097628524,-0.011962368872343887,-0.015652497053781186,-1.0922626335229288
16382,1.0,299.65859,66979.84,0.0,-0.1638202460180751,0.0,0.0,0.0,0.0,-4.564805387161216,-9.91101111426564,-5.884382270643314,0.007017269241750554,0.0019283500065383282,-1.099331572845579
16383,1.0,300.25052,66848.959,0.0,-0.16383024200549456,0.0,0.0,0.0,0.0,-4.534109684656786,-9.89435297864661,-5.891951654190354,0.020546646011046082,-0.013347321665528088,-1.087965237198809
16384,1.0,299.75827999999996,66838.072,0.0,-0.1638402379929138,0.0,0.0,0.0,0.0,-4.495929610288706,-9.905771294023511,-5.915404037029924,0.01148631459111099,0.001023026139614819,-1.094969328515059
16385,1.0,299.78823,66937.88,0.0,-0.16385026697039062,0.0,0.0,0.0,0.0,-4.5162316972423655,-9.90544978976678,-5.925762594127234,-0.003608710496151997,-0.01095039141446949,-1.0827853000375889
16386,1.0,300.78938999999997,66848.944,0.0,-0.16386026295780998,0.0,0.0,0.0,0.0,-4.510477956549516,-9.906363741356982,-5.903568161286814,-0.0032285949900375172,-7.261754230554343e-05,-1.098562921319719
16387,1.0,300.442,66712.73700000001,0.0,-0.16387025894522922,0.0,0.0,0.0,0.0,-4.523233052783346,-9.9024538118711,-5.853319467627654,-0.005565408504713055,0.002133136869674218,-1.0945125553699788
16388,1.0,300.45005,66671.942,0.0,-0.16388025493264857,0.0,0.0,0.0,0.0,-4.527945273698405,-9.889515418694181,-5.849144775890645,-0.016092331696939483,0.015370634180713485,-1.1028825078210291
16389,1.0,300.22527,66715.594,0.0,-0.16389025092006793,0.0,0.0,0.0,0.0,-4.491774474278626,-9.923394854337822,-5.864705359001355,-0.006630952746349083,0.013865122864131087,-1.097359686825969
16390,1.0,299.97815,66878.615,0.0,-0.16390024690748706,0.0,0.0,0.0,0.0,-4.501190607457925,-9.92115891534215,-5.907079376858344,-0.004666931371365266,0.02122872443511198,-1.1246521862195291
16391,1.0,300.01765,66963.284,0.0,-0.16391024289490652,0.0,0.0,0.0,0.0,-4.5138264441549865,-9.92504908645108,-5.9162908335174444,0.013920736109119685,0.0031886545962707073,-1.090755525324189
16392,1.0,300.42117,66670.087,0.0,-0.16392023888232576,0.0,0.0,0.0,0.0,-4.469663229271416,-9.926605945229731,-5.8697725214264445,-0.0019158105299257782,-0.005907914801565795,-1.115850285250849
16393,1.0,300.01876,66775.583,0.0,-0.16393026785980258,0.0,0.0,0.0,0.0,-4.493744941748096,-9.934198532204059,-5.870166473065324,0.004415169220343276,-0.008835743522019993,-1.109813138505029
16394,1.0,300.02418,67119.704,0.0,-0.16394026384722193,0.0,0.0,0.0,0.0,-4.552269862224056,-9.94907294234705,-5.901371131094985,-0.019005287932425882,0.00101173590918306,-1.110919202314189
16395,1.0,300.22724,66958.762,0.0,-0.16395025983464118,0.0,0.0,0.0,0.0,-4.514979218793755,-9.92188936733924,-5.916923000254835,0.002026925258416948,-0.007121127680975583,-1.088437513070419
16396,1.0,300.68041,66569.40400000001,0.0,-0.16396025582206064,0.0,0.0,0.0,0.0,-4.469762730431236,-9.90322276737199,-5.862451181503885,-0.014117883167826587,0.0025687944906202776,-1.106845126312109
16397,1.0,300.11768,66705.993,0.0,-0.16397025180947977,0.0,0.0,0.0,0.0,-4.496511621146145,-9.900641512742242,-5.879802988141375,0.0010393283204737191,0.008036920549257304,-1.079799961267959
16398,1.0,299.97868,67066.795,0.0,-0.16398024779689913,0.0,0.0,0.0,0.0,-4.547945817422305,-9.92195543124576,-5.916729874785775,-0.0002991224232835847,0.0091827726633441,-1.116565741146459
16399,1.0,299.75023,67045.287,0.0,-0.16399024378431848,0.0,0.0,0.0,0.0,-4.566626096265905,-9.92061490136346,-5.892852230879235,0.00909832880531014,4.310066408670436e-05,-1.0855058765560888
16400,1.0,299.43482,66774.281,0.0,-0.16400023977173772,0.0,0.0,0.0,0.0,-4.513812765278636,-9.906439633789471,-5.877461569810294,0.008719121981885342,0.011911509796824489,-1.107635157415079
16401,1.0,299.76255,66906.308,0.0,-0.16401026874921443,0.0,0.0,0.0,0.0,-4.522781041913736,-9.91545837027955,-5.899607670620944,0.021635797662786976,0.01138595318195609,-1.075236789442609
16402,1.0,299.83145,67057.584,0.0,-0.1640202647366339,0.0,0.0,0.0,0.0,-4.540917408103655,-9.923523537100522,-5.9193901629233245,-0.008019147838528274,0.00979806463224369,-1.0998265455194292
16403,1.0,299.43867,67136.32,0.0,-0.16403026072405313,0.0,0.0,0.0,0.0,-4.551391475712366,-9.941295335904458,-5.9150780744727545,-0.004748490202389496,-0.011989792486300388,-1.0808407717706792
16404,1.0,299.81241,67031.478,0.0,-0.1640402567114726,0.0,0.0,0.0,0.0,-4.534012615297206,-9.928308509372759,-5.913574512649365,-0.001202360160238709,-0.006318501575287554,-1.102003412034269
16405,1.0,300.01891,66886.532,0.0,-0.16405025269889173,0.0,0.0,0.0,0.0,-4.524941189801925,-9.91073652348854,-5.896157959330485,0.018986608666832383,0.0058156852310884445,-1.0730969065564189
16406,1.0,299.73053,67036.92,0.0,-0.16406024868631108,0.0,0.0,0.0,0.0,-4.515650598310016,-9.94355275580225,-5.918346413995314,0.003974165995844646,-0.014722217951469786,-1.101615235920959
16407,1.0,300.29479,67182.196,0.0,-0.16407024467373044,0.0,0.0,0.0,0.0,-4.550216308246386,-9.91686486274336,-5.954628772251104,-0.0011106674096643388,-0.013239613179898089,-1.057957328862259
16408,1.0,300.31928999999997,66945.593,0.0,-0.16408024066114957,0.0,0.0,0.0,0.0,-4.510448572296616,-9.93346878948204,-5.905871380089124,-0.01775845733987328,-0.01017608797955169,-1.0961651662830791
16409,1.0,300.13421,66752.171,0.0,-0.16409026963862638,0.0,0.0,0.0,0.0,-4.502154714928076,-9.9215444570052,-5.8672941116818444,0.017114430510062784,-0.008347007909160542,-1.102424214800799
16410,1.0,300.18784,66950.43400000001,0.0,-0.16410026562604585,0.0,0.0,0.0,0.0,-4.530354579786186,-9.943737673945499,-5.877167828606304,-0.007205686137595853,-0.002094378736124088,-1.1255890372619888
16411,1.0,300.07881000000003,67047.375,0.0,-0.1641102616134651,0.0,0.0,0.0,0.0,-4.547522886830566,-9.95682673741229,-5.876378000153354,0.00996985004094759,0.006890222573987024,-1.127516542927219
16412,1.0,299.56246,66951.365,0.0,-0.16412025760088444,0.0,0.0,0.0,0.0,-4.504325805917346,-9.954288343261773,-5.892929136561824,0.009856419022727821,0.017874469410072785,-1.114823356274499
16413,1.0,300.2196,66990.056,0.0,-0.1641302535883037,0.0,0.0,0.0,0.0,-4.499405260781725,-9.947774259693881,-5.916124761826055,0.0065571441640147445,0.03126796792240817,-1.107361985188119
16414,1.0,300.3108,67040.56,0.0,-0.16414024957572293,0.0,0.0,0.0,0.0,-4.516397768933755,-9.939716286948622,-5.922542181334404,0.0005689021267887684,0.009555813657260381,-1.090491877648169
16415,1.0,300.08912000000004,67004.15400000001,0.0,-0.1641502455631424,0.0,0.0,0.0,0.0,-4.520858298523976,-9.927148439333271,-5.919583085742365,-0.013434018383834387,-0.012278581937051686,-1.0911066164838388
16416,1.0,299.47893,67094.692,0.0,-0.16416024155056164,0.0,0.0,0.0,0.0,-4.5419031991259455,-9.96298496754506,-5.890222846869735,-0.0014239476219576888,-0.0005165607474330766,-1.092253210296999
16417,1.0,299.16702999999995,67116.738,0.0,-0.16417027052803834,0.0,0.0,0.0,0.0,-4.561959978230396,-9.93348094848324,-5.906371520338484,-0.002870386052410047,-0.01911347365885298,-1.0851226653682688
16418,1.0,299.19475,66999.80900000001,0.0,-0.1641802665154577,0.0,0.0,0.0,0.0,-4.516638010532466,-9.9494513912594,-5.900179548977385,0.015598782639479983,-0.02878570478767787,-1.095499663617399
16419,1.0,299.95272,66961.488,0.0,-0.16419026250287705,0.0,0.0,0.0,0.0,-4.4998006309707455,-9.95008933352236,-5.904730359151515,-0.005852101743657474,-0.016349118656532383,-1.088103647162469
16420,1.0,300.28229,67084.11200000001,0.0,-0.1642002584902964,0.0,0.0,0.0,0.0,-4.529856871337066,-9.945029871798031,-5.917008113263234,0.003419219251225667,0.0093228747546711,-1.111108984057919
16421,1.0,300.0999,67130.417,0.0,-0.16421025447771576,0.0,0.0,0.0,0.0,-4.546164827721536,-9.959884523564071,-5.899921068876874,-0.011220434725120689,0.014063526352961986,-1.1166115400509788
16422,1.0,299.70977999999997,67103.69,0.0,-0.1642202504651349,0.0,0.0,0.0,0.0,-4.5648443972900665,-9.94772602898912,-5.885275754581494,-0.013348768586670886,0.014197131484647785,-1.133369784779889
16423,1.0,299.92683999999997,67131.635,0.0,-0.16423024645255424,0.0,0.0,0.0,0.0,-4.573505253844826,-9.93251096416251,-5.900324545066694,-0.008680715040819872,0.022136513438203775,-1.079805128843469
16424,1.0,300.27868,67190.647,0.0,-0.1642402424399736,0.0,0.0,0.0,0.0,-4.522575960093495,-9.97099704006079,-5.930705836065094,-0.008965018326753423,-0.004391504764257776,-1.091623475359849
16425,1.0,300.71618,67241.57400000001,0.0,-0.16425023842739295,0.0,0.0,0.0,0.0,-4.527011665056266,-9.94970885810981,-5.963039052056135,-0.003066288434694107,0.0003805612652309726,-1.059519557866439
16426,1.0,300.54525,67276.884,0.0,-0.16426026740486976,0.0,0.0,0.0,0.0,-4.515928938112486,-9.98050477104913,-5.954059021719874,0.016459087703135485,-0.025255459366019774,-1.111807923976899
16427,1.0,300.53132999999997,67255.091,0.0,-0.164270263392289,0.0,0.0,0.0,0.0,-4.541447743205995,-9.973877608770081,-5.928543053726645,0.03550580135264976,-0.009740515167639,-1.0936051899054289
16428,1.0,300.25297,67059.08099999999,0.0,-0.16428025937970836,0.0,0.0,0.0,0.0,-4.541682006629116,-9.94247830539621,-5.900125745397074,0.014933863605857587,-0.014577135735901286,-1.1203601601209388
16429,1.0,300.12171,67118.49799999999,0.0,-0.1642902553671276,0.0,0.0,0.0,0.0,-4.542710962105666,-9.9642580149707,-5.895378466028554,-0.001106299795108289,-0.02444326240386218,-1.086539492983099
16430,1.0,299.65622,67206.306,0.0,-0.16430025135454684,0.0,0.0,0.0,0.0,-4.537567501948046,-9.94907861654761,-5.9423928653685145,-0.013134711397045088,-0.015530152170456685,-1.1067859525062689
16431,1.0,299.84304,67147.005,0.0,-0.1643102473419662,0.0,0.0,0.0,0.0,-4.521457331983095,-9.964049488100121,-5.925506140526925,-0.008379089332501732,0.016373764951964787,-1.0898998356147387
16432,1.0,300.03702999999996,67122.09700000001,0.0,-0.16432024332938555,0.0,0.0,0.0,0.0,-4.514359312382576,-9.97674591715316,-5.912336422352174,0.004766683006609985,0.01053201234217869,-1.116172296132629
16433,1.0,299.91667,67343.898,0.0,-0.1643302393168049,0.0,0.0,0.0,0.0,-4.5537291450180755,-9.97140558250111,-5.945728484697715,-0.011745062189647389,0.025890121738406078,-1.0944533815641388
16434,1.0,300.13824,67410.32400000001,0.0,-0.16434026829428172,0.0,0.0,0.0,0.0,-4.578554887043186,-9.99730861203254,-5.915191659808965,-0.012808304023081188,0.026290180235638772,-1.099088088846549
16435,1.0,300.16001,67183.338,0.0,-0.16435026428170085,0.0,0.0,0.0,0.0,-4.540783355115425,-9.95949989382611,-5.921773833783575,0.008389150804669721,0.032522667415237363,-1.0810237647387388
16436,1.0,300.23515,67127.128,0.0,-0.16436026026912032,0.0,0.0,0.0,0.0,-4.518811330671955,-9.96265383741238,-5.923505478204474,0.0018924766973479083,-0.006276332132625754,-1.0895426649544888
16437,1.0,300.45882,67165.921,0.0,-0.16437025625653956,0.0,0.0,0.0,0.0,-4.527421018096666,-9.961254539024281,-5.928087395156674,0.00021791359924139774,-0.03159670577160207,-1.108521649927569
16438,1.0,300.25452,67192.992,0.0,-0.1643802522439588,0.0,0.0,0.0,0.0,-4.524794471187446,-9.963893244934699,-5.936304042867595,0.002572785581439168,-0.03472917352200257,-1.1139509479383989
16439,1.0,300.45142000000004,67240.22099999999,0.0,-0.16439024823137827,0.0,0.0,0.0,0.0,-4.544094757767236,-9.98497948614075,-5.9102739517736245,0.008679984791472802,-0.004046670727950306,-1.124829910287069
16440,1.0,300.77034,67227.141,0.0,-0.1644002442187974,0.0,0.0,0.0,0.0,-4.554044468449195,-9.97352854411063,-5.907799088404373,0.007223873267615784,-0.014454476745045788,-1.101782219537439
16441,1.0,300.01114,67331.829,0.0,-0.16441024020621686,0.0,0.0,0.0,0.0,-4.561333789668596,-9.986906687830949,-5.918954262730304,-0.000932461703821805,0.002080323538686948,-1.096196070411129
16442,1.0,299.58907999999997,67486.473,0.0,-0.16442026918369368,0.0,0.0,0.0,0.0,-4.549490719849775,-10.01522611620086,-5.949485717393524,-0.006902845745057833,0.021384155987201878,-1.091048253278079
16443,1.0,299.69126,67401.291,0.0,-0.1644302651711128,0.0,0.0,0.0,0.0,-4.549529324678586,-9.985108371553471,-5.9536719601816745,-0.024323078783000975,0.026791367172352074,-1.0960161171933689
16444,1.0,299.78971,67246.055,0.0,-0.16444026115853227,0.0,0.0,0.0,0.0,-4.511930146592836,-9.994998908429592,-5.934192632309214,-0.017885001131612184,-0.011687007011917789,-1.111027924049919
16445,1.0,299.88419,67174.649,0.0,-0.16445025714595152,0.0,0.0,0.0,0.0,-4.543669598025276,-9.977007437003971,-5.898738808660194,-0.022423475999024774,-0.006805948131369785,-1.118562755768549
16446,1.0,299.66562000000005,67228.079,0.0,-0.16446025313337076,0.0,0.0,0.0,0.0,-4.575978192038886,-9.944182490739399,-5.915496648089064,0.012770352740585687,0.01099890380275729,-1.0994059454029188
16447,1.0,299.73624,67149.617,0.0,-0.16447024912079022,0.0,0.0,0.0,0.0,-4.532866832084125,-9.975623134717349,-5.903316773937004,0.023252898212882376,0.010847016599517189,-1.113281797572359
16448,1.0,300.07295,67192.25099999999,0.0,-0.16448024510820936,0.0,0.0,0.0,0.0,-4.533243457146296,-9.957668950895409,-5.933854004125794,0.02486278340901568,-0.01118485444785919,-1.093856273280209
16449,1.0,300.91632999999996,67438.923,0.0,-0.16449024109562882,0.0,0.0,0.0,0.0,-4.564445987350745,-9.98972342178394,-5.945579435608004,0.018435158445658482,-0.01183398704492359,-1.1072783920548688
16450,1.0,301.10697999999996,67485.341,0.0,-0.16450027007310553,0.0,0.0,0.0,0.0,-4.562454241629175,-10.00745448793386,-5.943949724147164,0.023754222951609276,-0.016087582593720787,-1.098607099024079
16451,1.0,300.36677000000003,67374.037,0.0,-0.16451026606052488,0.0,0.0,0.0,0.0,-4.565875277941806,-9.98583669572535,-5.928312843303924,-0.02246265939364188,0.007329281067568723,-1.106236669627059
16452,1.0,300.2478,67416.618,0.0,-0.16452026204794423,0.0,0.0,0.0,0.0,-4.565522666907005,-10.000738260971021,-5.9267075511704945,-0.02821114131847287,-0.019567686320930283,-1.085792525009379
16453,1.0,299.87515,67379.37599999999,0.0,-0.16453025803536347,0.0,0.0,0.0,0.0,-4.547504648328766,-9.98403949402298,-5.950103597304504,-0.018344300309191482,-0.009333767801196161,-1.101676030926959
16454,1.0,299.7134,67292.094,0.0,-0.16454025402278272,0.0,0.0,0.0,0.0,-4.528801672682926,-9.973698770127431,-5.952615849602444,-0.006936192819098933,0.016340994417230584,-1.090789165227509
16455,1.0,299.52677,67222.868,0.0,-0.16455025001020207,0.0,0.0,0.0,0.0,-4.517186989436646,-9.989626656399391,-5.927259671149985,0.011741833974828789,0.014488350709138885,-1.136510657439869
16456,1.0,299.67391000000003,67172.198,0.0,-0.1645602459976213,0.0,0.0,0.0,0.0,-4.515750910069915,-9.964785107672721,-5.938134985798294,0.017866101990746983,-0.004082303694217006,-1.0922453069462188
16457,1.0,299.92316,67331.163,0.0,-0.16457024198504078,0.0,0.0,0.0,0.0,-4.544986620505256,-9.990251122436021,-5.931754448593585,0.0032169150534847968,0.008546108007435192,-1.1067700444796988
16458,1.0,300.37248999999997,67611.13799999999,0.0,-0.16458027096251748,0.0,0.0,0.0,0.0,-4.592035976973666,-9.99979330392776,-5.960268420982694,0.0077716780175799026,-0.00993608186016493,-1.066295971885219
16459,1.0,300.25428999999997,67584.725,0.0,-0.16459026694993684,0.0,0.0,0.0,0.0,-4.5648130878619755,-10.00787042709991,-5.9713851931298345,0.001189559467750379,-0.01203478788349109,-1.0894047616158788
16460,1.0,300.64945,67459.71,0.0,-0.1646002629373562,0.0,0.0,0.0,0.0,-4.556994343465325,-10.017395180689931,-5.931677745561014,-0.01056210587014869,-0.012004188743721188,-1.0939127113107792
16461,1.0,300.93705,67528.39,0.0,-0.16461025892477532,0.0,0.0,0.0,0.0,-4.577846523898276,-9.99921858847104,-5.949879263732364,0.01073773048348149,-0.0007956285397024232,-1.107102491837509
16462,1.0,300.53281,67539.315,0.0,-0.16462025491219467,0.0,0.0,0.0,0.0,-4.586772345354186,-10.000389196311572,-5.943103761638674,-0.002835379680005187,0.01724866183031038,-1.111334229555149
16463,1.0,301.02092000000005,67264.769,0.0,-0.16463025089961403,0.0,0.0,0.0,0.0,-4.545080650114536,-9.992413398149422,-5.909316126454095,0.007698048172563203,0.039186738342429965,-1.124807720109879
16464,1.0,300.82697,67205.843,0.0,-0.16464024688703338,0.0,0.0,0.0,0.0,-4.522030020939615,-9.969492262337281,-5.937375757498364,-0.011743217061215288,0.015239687817290085,-1.1078301067343188
16465,1.0,300.34777,67442.565,0.0,-0.16465024287445273,0.0,0.0,0.0,0.0,-4.533815031527705,-10.01158733244174,-5.955453253857474,-0.014515220075290684,0.0014872595412060885,-1.115909155081659
16466,1.0,299.86249,67458.468,0.0,-0.16466023886187198,0.0,0.0,0.0,0.0,-4.581373647496376,-9.97938776413889,-5.944928523743765,-0.02392405076111998,-0.0097151484513855,-1.1077024372217188
16467,1.0,300.04004,67409.172,0.0,-0.16467026783934868,0.0,0.0,0.0,0.0,-4.558278232667036,-10.00409941420274,-5.928327535430374,0.012482979813474187,-0.0034926344898711867,-1.099768283638679
16468,1.0,300.02673,67579.745,0.0,-0.16468026382676815,0.0,0.0,0.0,0.0,-4.582361768993896,-10.01731219550674,-5.942881049266695,0.002607287355294228,-0.016030635911600585,-1.0962817913695888
16469,1.0,300.38864,67740.561,0.0,-0.1646902598141874,0.0,0.0,0.0,0.0,-4.597804004492925,-10.01915641201375,-5.9744785443601245,0.01852347231112438,-0.004423352836100935,-1.085666172721909
16470,1.0,300.05598,67697.303,0.0,-0.16470025580160663,0.0,0.0,0.0,0.0,-4.579587692870116,-10.03035829716929,-5.968343720304665,0.0001305607508328429,-0.006861057892383693,-1.096429928534209
16471,1.0,300.25108,67514.058,0.0,-0.16471025178902599,0.0,0.0,0.0,0.0,-4.550534570102796,-10.019630309085523,-5.952423028108415,0.002077876944995488,-0.00047714307926035557,-1.114874728054569
16472,1.0,300.59796,67294.77,0.0,-0.16472024777644523,0.0,0.0,0.0,0.0,-4.562538442712486,-9.98995494943179,-5.903436337448804,-0.018103428468919283,-0.011647041388223488,-1.1087376748488889
16473,1.0,300.48415,67355.787,0.0,-0.1647302437638647,0.0,0.0,0.0,0.0,-4.5285128964044254,-10.02108533622912,-5.924879242690054,0.0005397646509506235,-0.016163041355167985,-1.1382649986630091
16474,1.0,300.31746,67558.23700000001,0.0,-0.16474023975128382,0.0,0.0,0.0,0.0,-4.580900662349696,-10.00419891536256,-5.950917743759854,-0.00947243482640653,0.009545360158628701,-1.111591899055579
16475,1.0,299.65517,67468.932,0.0,-0.16475026872876064,0.0,0.0,0.0,0.0,-4.531814875830305,-10.011634347246382,-5.965421507016265,0.006687120644442424,0.005568776548045455,-1.1091054846351889
16476,1.0,299.44865,67323.135,0.0,-0.16476026471618,0.0,0.0,0.0,0.0,-4.522596630395536,-10.007164293105221,-5.934790956493265,0.022863718981973376,-0.0015803375059921688,-1.084971083153309
16477,1.0,299.65599,67568.658,0.0,-0.16477026070359935,0.0,0.0,0.0,0.0,-4.546631936017636,-10.025787323318172,-5.966765380623894,0.020784805380800582,0.006274653177210055,-1.1034811359801089
16478,1.0,299.89999,67851.356,0.0,-0.16478025669101848,0.0,0.0,0.0,0.0,-4.618612513846566,-10.043747586640709,-5.962757976478394,0.024075747473341277,0.010699514742709889,-1.083598939867889
16479,1.0,299.32165,67609.09700000001,0.0,-0.16479025267843794,0.0,0.0,0.0,0.0,-4.561500874610086,-10.03151887383383,-5.958457540403974,0.0040885618308096365,-0.00900847804209256,-1.1058445418383591
16480,1.0,300.2555,67448.384,0.0,-0.16480024866585719,0.0,0.0,0.0,0.0,-4.550757789099825,-10.01812705123716,-5.933739608189503,-0.016772173878034684,-0.014857516224072687,-1.091525798050209
16481,1.0,300.49804,67617.349,0.0,-0.16481024465327665,0.0,0.0,0.0,0.0,-4.557959768160605,-10.02293036333621,-5.9730956606236445,-0.015672613108016483,-0.024775909371941875,-1.1142880562466688
16482,1.0,300.23573999999996,67740.171,0.0,-0.1648202406406959,0.0,0.0,0.0,0.0,-4.574305620098817,-10.03212712786886,-5.984887561312414,-0.00952462125955693,-0.0012336214589489588,-1.0945937167029889
16483,1.0,300.38498,67533.98700000001,0.0,-0.1648302696181726,0.0,0.0,0.0,0.0,-4.563642986646496,-10.01320650610154,-5.9517961302715445,-0.009493818253866911,-0.0008779390705783403,-1.1022536848089688
16484,1.0,300.13639,67475.208,0.0,-0.16484026560559195,0.0,0.0,0.0,0.0,-4.562101529269366,-10.00981971764229,-5.938857027819554,0.0017685362490909384,0.00014882571872545486,-1.090904574413899
16485,1.0,299.20246000000003,67529.484,0.0,-0.1648502615930113,0.0,0.0,0.0,0.0,-4.574684069011165,-10.01040578150013,-5.942186972948194,0.010139561326696791,0.006054567858764324,-1.1007376600093488
16486,1.0,299.72242,67759.815,0.0,-0.16486025758043044,0.0,0.0,0.0,0.0,-4.599590161769205,-10.037728982371721,-5.959972754603514,0.013785774235549988,0.01982679564975238,-1.1003200996431388
16487,1.0,299.3034,67709.129,0.0,-0.1648702535678499,0.0,0.0,0.0,0.0,-4.579257474662525,-10.02394817306166,-5.978678668674644,0.007679845843791773,0.0027060088191622777,-1.091156468388759
16488,1.0,299.04757,67484.92599999999,0.0,-0.16488024955526914,0.0,0.0,0.0,0.0,-4.550418856941375,-10.0163025931071,-5.947010854024274,0.003091426359075027,0.003009695883483857,-1.087984286300689
16489,1.0,299.711,67498.37400000001,0.0,-0.1648902455426885,0.0,0.0,0.0,0.0,-4.539608998249526,-10.03396131319988,-5.944249747501774,-0.007496017856324362,0.008740834512978201,-1.124592809763669
16490,1.0,300.45721000000003,67732.42,0.0,-0.16490024153010785,0.0,0.0,0.0,0.0,-4.590832945129936,-10.03205336326158,-5.9660782957310845,0.0023378902955568078,0.02131516986739348,-1.100912648301619
16491,1.0,299.83879,67826.708,0.0,-0.16491027050758467,0.0,0.0,0.0,0.0,-4.573535752672837,-10.06848933023253,-5.9756007188458735,-0.00024919184962582077,0.004142311506214316,-1.1180677830946988
16492,1.0,300.05742000000004,67729.993,0.0,-0.16492026649500402,0.0,0.0,0.0,0.0,-4.591369866357925,-10.04303547447043,-5.9538215158964345,-0.004245854520683216,0.006957499340876723,-1.0930731322779188
16493,1.0,299.87697000000003,67663.944,0.0,-0.16493026248242315,0.0,0.0,0.0,0.0,-4.5488407199106256,-10.04009917700564,-5.979209409077025,-0.016467946548759785,-0.024293091646291478,-1.114897424856809
16494,1.0,299.96083,67759.219,0.0,-0.1649402584698425,0.0,0.0,0.0,0.0,-4.586761402253105,-10.051584772189182,-5.958764352534255,-0.01108798368529879,-0.020223287506633082,-1.088409446042649
16495,1.0,300.3245,67782.52,0.0,-0.16495025445726186,0.0,0.0,0.0,0.0,-4.576918386806676,-10.04378649544455,-5.9834886682243535,-0.014916888626932287,-0.013463710664764789,-1.1067631543790188
16496,1.0,299.96374,67683.048,0.0,-0.1649602504446811,0.0,0.0,0.0,0.0,-4.594288127970936,-10.04050012007021,-5.939168399575284,0.0019014540932339081,-0.011946078850486187,-1.100729756658569
16497,1.0,299.82567,67587.25200000001,0.0,-0.16497024643210045,0.0,0.0,0.0,0.0,-4.565937390172936,-10.02777045641389,-5.951129310380734,0.008058322924494554,-0.008222650407162413,-1.124211625076049
16498,1.0,299.28956,67518.42,0.0,-0.1649802424195198,0.0,0.0,0.0,0.0,-4.576827599597716,-10.01045553208004,-5.936630512049815,0.0013134363852260788,0.015254181346720486,-1.103942570075649
16499,1.0,299.33572000000004,67543.411,0.0,-0.1649902713969965,0.0,0.0,0.0,0.0,-4.5302768635035155,-10.04518822563289,-5.956045295890903,0.03820090172388547,0.007701823238460773,-1.1196653745273688
16500,1.0,299.49228,67702.659,0.0,-0.16500026738441598,0.0,0.0,0.0,0.0,-4.5699226041412455,-10.045181436857222,-5.964813658281274,0.0073570839410376536,0.008682635656384422,-1.110817573329159
16501,1.0,300.27167000000003,67758.16,0.0,-0.1650102633718351,0.0,0.0,0.0,0.0,-4.568866696212036,-10.059210593766789,-5.968711428765954,0.007433273863757014,0.018812165503116183,-1.118376621725179
16502,1.0,299.9273,67693.829,0.0,-0.16502025935925446,0.0,0.0,0.0,0.0,-4.576505690040945,-10.059291451124771,-5.941436458599124,-0.005784116512297855,0.012701501383040588,-1.1128449854542488
16503,1.0,300.36394,67773.768,0.0,-0.16503025534667382,0.0,0.0,0.0,0.0,-4.566869276289905,-10.053772784455122,-5.9808911002679945,-0.0005035351843500535,0.008190315164671173,-1.089091160709929
16504,1.0,299.71801,67975.976,0.0,-0.16504025133409306,0.0,0.0,0.0,0.0,-4.592431752462725,-10.08199119179006,-5.9885762983014645,-0.009349938867492122,-0.014237676687399286,-1.105386654118169
16505,1.0,300.00235,67929.613,0.0,-0.16505024732151252,0.0,0.0,0.0,0.0,-4.578539485641666,-10.0547067983973,-6.015659966849414,0.012015668867354189,-0.031792119159387865,-1.094927075985889
16506,1.0,299.81602999999996,67711.83,0.0,-0.16506024330893165,0.0,0.0,0.0,0.0,-4.574973047939686,-10.04033212320363,-5.967400384461564,-0.008933633107555941,-0.005991330616048294,-1.097054698545869
16507,1.0,300.61946,67599.13900000001,0.0,-0.16507027228640847,0.0,0.0,0.0,0.0,-4.559214273109416,-10.041642356907941,-5.947593574156785,0.005681522609197624,-0.01051621070686919,-1.0972959533946791
16508,1.0,300.47926,67762.409,0.0,-0.16508026827382782,0.0,0.0,0.0,0.0,-4.591863015181596,-10.03335711216525,-5.972860383950424,0.009277857977903292,-0.005434149958933845,-1.1192767931140188
16509,1.0,300.61442,67968.613,0.0,-0.16509026426124718,0.0,0.0,0.0,0.0,-4.600353747044566,-10.07299565872727,-5.987411769961534,0.00932567365542233,0.009073971894106301,-1.120578312867469
16510,1.0,300.39128,67842.149,0.0,-0.1651002602486663,0.0,0.0,0.0,0.0,-4.598756155611896,-10.04220612926358,-5.981356790013954,-0.0024098681376104676,0.024799535324523576,-1.093297871150099
16511,1.0,300.04142,67743.901,0.0,-0.16511025623608577,0.0,0.0,0.0,0.0,-4.543353767969105,-10.06168758496125,-5.987412985861654,-0.016006414167960087,-0.0026268155218215077,-1.099760886912949
16512,1.0,300.10637,67881.962,0.0,-0.16512025222350502,0.0,0.0,0.0,0.0,-4.605900784717016,-10.05634674368415,-5.972173907007674,-0.011363183425708889,0.003463721600917707,-1.083437123826919
16513,1.0,300.00293,68141.489,0.0,-0.16513024821092437,0.0,0.0,0.0,0.0,-4.633900532680376,-10.067327942967909,-6.012082687371365,0.0012106399334308588,0.003722590384166067,-1.1030840432659188
16514,1.0,299.88969,67884.088,0.0,-0.1651402441983436,0.0,0.0,0.0,0.0,-4.598992344210205,-10.07320003127244,-5.962875310839975,0.00962657955086943,0.020104170838127183,-1.084531129959889
16515,1.0,300.20791,67574.727,0.0,-0.16515024018576296,0.0,0.0,0.0,0.0,-4.545845653940035,-10.04240401700811,-5.952779996118644,-0.015874104983152185,-0.0037511747774371267,-1.1147639798186388
16516,1.0,300.04284,67753.192,0.0,-0.16516026916323978,0.0,0.0,0.0,0.0,-4.577312743745596,-10.05066889542379,-5.967296931626354,-0.015222835441626885,-0.02004496967453448,-1.096892173229829
16517,1.0,299.79478,67919.87700000001,0.0,-0.16517026515065913,0.0,0.0,0.0,0.0,-4.565383142368236,-10.07966304703529,-6.000900459267765,-0.011548344748982888,-0.024645749290596076,-1.126234578900699
16518,1.0,299.4931,67813.614,0.0,-0.16518026113807827,0.0,0.0,0.0,0.0,-4.585491191927746,-10.058087710005971,-5.970066346799674,0.0002934704027682737,-0.01026740613156409,-1.1097204261208788
16519,1.0,299.4003,67760.797,0.0,-0.16519025712549773,0.0,0.0,0.0,0.0,-4.568636891089355,-10.06972154367914,-5.959232068780414,-0.0035061930934343166,-0.019562277591896483,-1.117722568785629
16520,1.0,299.68052,67810.931,0.0,-0.16520025311291697,0.0,0.0,0.0,0.0,-4.589016998300716,-10.06846227645486,-5.955350510297334,0.00014006420590576086,-0.007464033704992773,-1.124710144125249
16521,1.0,299.12672000000003,67804.416,0.0,-0.16521024910033633,0.0,0.0,0.0,0.0,-4.578924622004676,-10.0522435874042,-5.979681076998574,0.003227726938676847,0.024061731184707977,-1.1045157656572189
16522,1.0,299.80747,67985.807,0.0,-0.16522024508775557,0.0,0.0,0.0,0.0,-4.592653552909615,-10.085398954526381,-5.987935316288204,0.017228354271806183,0.016116242372799287,-1.1142150009144591
16523,1.0,300.35716,67980.88799999999,0.0,-0.1652302410751748,0.0,0.0,0.0,0.0,-4.593194527138006,-10.06132980635094,-6.0099680344126645,-0.01150093882980429,0.005629950712232875,-1.089194917520169
16524,1.0,300.17477,67854.38,0.0,-0.16524027005265174,0.0,0.0,0.0,0.0,-4.601934619850586,-10.07199922857893,-5.952103246376854,0.006044459777091734,0.0034091677089086564,-1.110223302145509
16525,1.0,299.82374,67892.90299999999,0.0,-0.16525026604007098,0.0,0.0,0.0,0.0,-4.588712617970676,-10.06401400719085,-5.985020601050544,0.024144354637612275,-0.016247481565501588,-1.095237738466549
16526,1.0,300.11702,68050.917,0.0,-0.16526026202749022,0.0,0.0,0.0,0.0,-4.621480315604596,-10.0764754635457,-5.987823960102214,0.038354868116330765,-0.004931359857912326,-1.098943802032309
16527,1.0,299.98686000000004,67972.695,0.0,-0.1652702580149097,0.0,0.0,0.0,0.0,-4.566357483664396,-10.094383240513059,-6.001261176303364,0.016543039526920884,-0.016730024700374883,-1.113588305727609
16528,1.0,300.41753,67858.826,0.0,-0.16528025400232893,0.0,0.0,0.0,0.0,-4.579601067771436,-10.06998772448041,-5.977799876862915,0.0039524969331810765,-0.01110006973249159,-1.104708789801269
16529,1.0,300.10094,67908.229,0.0,-0.16529024998974828,0.0,0.0,0.0,0.0,-4.573551458049386,-10.08307080977161,-5.985783781025864,-0.02362393621400098,0.018333819250157084,-1.102741463407109
16530,1.0,299.87187,67899.401,0.0,-0.16530024597716764,0.0,0.0,0.0,0.0,-4.622859348990696,-10.064047140469121,-5.952815763847174,-0.027351578967140674,0.022276030884223082,-1.094887052606939
16531,1.0,299.13752999999997,68031.924,0.0,-0.16531024196458677,0.0,0.0,0.0,0.0,-4.6068798882886455,-10.08569826860592,-5.987428083288145,-0.018186428850860786,0.007011352266466593,-1.1065201770050388
16532,1.0,299.26347000000004,68014.466,0.0,-0.1653202709420638,0.0,0.0,0.0,0.0,-4.610391509160216,-10.08097865096513,-5.983329081333604,-0.013267391431389589,0.005065972666822576,-1.121315249665199
16533,1.0,299.76363,67976.326,0.0,-0.16533026692948294,0.0,0.0,0.0,0.0,-4.577552377394246,-10.078605619230931,-6.006947637189574,0.007426515992215063,0.0029043642799384374,-1.109094034909059
16534,1.0,299.72015,67959.704,0.0,-0.1653402629169023,0.0,0.0,0.0,0.0,-4.582277567910586,-10.08806613276461,-5.987709564165924,0.011012421572341387,-0.004722404686515056,-1.1203971437495888
16535,1.0,299.68539,68058.26400000001,0.0,-0.16535025890432165,0.0,0.0,0.0,0.0,-4.603626747517586,-10.079644099258422,-6.004741994371894,0.019803434155446782,0.008585881012285482,-1.100171557178479
16536,1.0,300.1623,68073.65400000001,0.0,-0.1653602548917409,0.0,0.0,0.0,0.0,-4.626379987788155,-10.08324002253831,-5.983070905208124,0.0095742175214767,0.003487938987582777,-1.115727580663739
16537,1.0,299.85362000000003,67897.925,0.0,-0.16537025087916024,0.0,0.0,0.0,0.0,-4.588177419267855,-10.07367332039415,-5.977423049150724,0.006956973464074823,0.007238746461858653,-1.0819159314517888
16538,1.0,299.93056,67922.541,0.0,-0.16538024686657948,0.0,0.0,0.0,0.0,-4.586337053111226,-10.07719324991654,-5.983226033798434,-0.014110294937827686,-0.027571778478872676,-1.115966910337359
16539,1.0,300.23632000000003,68178.58099999999,0.0,-0.16539024285399873,0.0,0.0,0.0,0.0,-4.603027106108405,-10.102022234341971,-6.019536864382035,-0.012607532568766589,-0.029509241352835374,-1.087049563083439
16540,1.0,300.31203999999997,68278.913,0.0,-0.16540027183147565,0.0,0.0,0.0,0.0,-4.614594470575016,-10.115690471565921,-6.024799685401434,-0.013087830341418288,-0.008528559630278302,-1.109181681042709
16541,1.0,300.50347999999997,68056.224,0.0,-0.1654102678188949,0.0,0.0,0.0,0.0,-4.620774789559966,-10.08600720856141,-5.980610835290335,-0.02290891702918408,0.02301090470474948,-1.0822103819308488
16542,1.0,300.04094,67888.35,0.0,-0.16542026380631414,0.0,0.0,0.0,0.0,-4.6058017901822454,-10.07699637542211,-5.953564960971114,-0.003989116197095116,0.012787608389788688,-1.092509967872339
16543,1.0,299.75447,68021.62700000001,0.0,-0.1654302597937336,0.0,0.0,0.0,0.0,-4.607540122053805,-10.08385881437438,-5.9854772728706145,-0.006434856934620934,0.01099022835540109,-1.107455913472389
16544,1.0,299.61592,68197.811,0.0,-0.16544025578115273,0.0,0.0,0.0,0.0,-4.620273028110446,-10.095860761808881,-6.014297652089964,0.014518869802150886,-0.005970148521382785,-1.116794127718999
16545,1.0,299.52141,68161.568,0.0,-0.1654502517685722,0.0,0.0,0.0,0.0,-4.5983443707712555,-10.10144741756024,-6.019622889315524,0.005946715288970104,-0.028604237774268473,-1.114400527007769
16546,1.0,299.90792000000005,67916.212,0.0,-0.16546024775599144,0.0,0.0,0.0,0.0,-4.569025675152726,-10.089685407749421,-5.986121598609204,0.0009486734521092801,-0.013760227160778685,-1.106285001656829
16547,1.0,299.89641,68031.37400000001,0.0,-0.1654702437434108,0.0,0.0,0.0,0.0,-4.612168040560546,-10.08900359175713,-5.978667218948514,-0.0035586137900078365,0.008289126402498083,-1.1159320545339189
16548,1.0,299.85402999999997,68331.504,0.0,-0.1654802727208876,0.0,0.0,0.0,0.0,-4.6512223471149055,-10.11580051052678,-6.004048120703414,0.03416231987280847,0.01627463464168138,-1.1053261630871989
16549,1.0,300.43375,68272.883,0.0,-0.16549026870830685,0.0,0.0,0.0,0.0,-4.609403083687665,-10.12445549023096,-6.0193931855178535,0.0031449143119788767,0.01067968239850259,-1.1181392172267488
16550,1.0,299.89751,67889.947,0.0,-0.1655002646957261,0.0,0.0,0.0,0.0,-4.568480749248946,-10.08988238356886,-5.978485543205585,0.011923152040473489,-0.002814258785645717,-1.119848367495429
16551,1.0,300.276,67951.709,0.0,-0.16551026068314556,0.0,0.0,0.0,0.0,-4.567855877912275,-10.10205982592068,-5.985707077993294,-0.0072884847814424425,-0.00933540349083259,-1.1236851403240888
16552,1.0,299.93824,68194.412,0.0,-0.1655202566705648,0.0,0.0,0.0,0.0,-4.629826963303345,-10.10392694187995,-5.995644528349044,-0.0029989750894757966,-0.009092123661697742,-1.111334533530179
16553,1.0,299.16766,68137.473,0.0,-0.16553025265798416,0.0,0.0,0.0,0.0,-4.633999121915106,-10.092904098017081,-5.985187179366984,-0.0030471748901077468,-0.006539308125154464,-1.098073622846429
16554,1.0,299.89686,68099.817,0.0,-0.1655402486454034,0.0,0.0,0.0,0.0,-4.603463816901505,-10.11037891321671,-5.986801185451274,0.005184484121043745,-0.012025432545317788,-1.1287167376706688
16555,1.0,300.08657999999997,68127.84,0.0,-0.16555024463282264,0.0,0.0,0.0,0.0,-4.609431961315516,-10.09894266331304,-6.0007874818816145,-6.603805344369843e-05,0.024760177650889274,-1.100990972534349
16556,1.0,299.43034,68327.473,0.0,-0.1655602406202421,0.0,0.0,0.0,0.0,-4.617529248164655,-10.13126990112849,-6.021046708356044,-0.0021952399815533177,0.012508930161785288,-1.1251804948216688
16557,1.0,299.39872,68423.853,0.0,-0.1655702695977188,0.0,0.0,0.0,0.0,-4.647996665421555,-10.115676286064522,-6.035469614254474,-0.0009503624792309741,-0.0013828430038259787,-1.0806707484038989
16558,1.0,299.57021000000003,68238.37,0.0,-0.16558026558513805,0.0,0.0,0.0,0.0,-4.625360354212526,-10.110128133816959,-6.007271877221574,-0.005150173851457585,0.006885809971126534,-1.1007707932876187
16559,1.0,300.56757000000005,68076.031,0.0,-0.1655902615725574,0.0,0.0,0.0,0.0,-4.619524337611555,-10.09073047390256,-5.983158551341774,-0.002206412178480928,0.019452981343359783,-1.086959485149549
16560,1.0,300.46763,68048.757,0.0,-0.16560025755997676,0.0,0.0,0.0,0.0,-4.586132680566056,-10.096364752408622,-6.0026253149129944,-0.005593582734343634,-0.006581572813325664,-1.1232078995269887
16561,1.0,300.26641,68125.568,0.0,-0.1656102535473961,0.0,0.0,0.0,0.0,-4.591708190566316,-10.107722779404572,-6.009040809246153,-0.007699445647101122,-0.016926537464519182,-1.109765617075339
16562,1.0,300.07241,68265.386,0.0,-0.16562024953481536,0.0,0.0,0.0,0.0,-4.609580909080216,-10.119704664487092,-6.0216871837442545,0.01065482838679969,0.0032281891833724667,-1.1326042743293387
16563,1.0,299.75892999999996,68157.725,0.0,-0.1656302455222346,0.0,0.0,0.0,0.0,-4.609832701730066,-10.105486131133832,-6.002927770067845,0.012692098422112589,0.01095059406448949,-1.1003320559943188
16564,1.0,299.72279,68068.592,0.0,-0.16564024150965395,0.0,0.0,0.0,0.0,-4.6116843149628055,-10.11661627818229,-5.962851702112644,-0.012593896248920787,-0.005861896224424115,-1.1062886493571888
16565,1.0,300.05857000000003,68364.726,0.0,-0.16565027048713077,0.0,0.0,0.0,0.0,-4.638343837018896,-10.125297805039091,-6.0175280960587845,-0.01990034038176068,-0.027168773450349175,-1.0864543799746988
16566,1.0,299.95322000000004,68549.098,0.0,-0.16566026647455,0.0,0.0,0.0,0.0,-4.642819362710595,-10.15093809881959,-6.043457064792774,-0.0008979303329313241,0.0018458932332754783,-1.117465000610209
16567,1.0,300.28157999999996,68489.187,0.0,-0.16567026246196936,0.0,0.0,0.0,0.0,-4.622080970263876,-10.153660701838291,-6.043260696923394,-0.002877083635571047,0.02244806656570168,-1.107004915852879
16568,1.0,300.61149,68252.273,0.0,-0.16568025844938872,0.0,0.0,0.0,0.0,-4.605544120681816,-10.119958787612171,-6.021483925774194,-0.01042051328792459,-0.0015004842788612686,-1.115190760760759
16569,1.0,300.5049,68215.508,0.0,-0.16569025443680807,0.0,0.0,0.0,0.0,-4.614561539946766,-10.129023323006772,-5.992226329136694,0.0014053239837946785,-0.006497644902242624,-1.089234332949059
16570,1.0,300.48093,68317.802,0.0,-0.1657002504242273,0.0,0.0,0.0,0.0,-4.627521211375786,-10.12608844409212,-6.013296054366115,0.01857889709159438,0.020553115612934582,-1.1030907307165791
16571,1.0,300.1505,68369.197,0.0,-0.16571024641164656,0.0,0.0,0.0,0.0,-4.641218427552595,-10.125227992107199,-6.016082289491094,0.052002545482501654,0.02092545260068138,-1.093521292797149
16572,1.0,300.11311,68193.701,0.0,-0.1657202423990659,0.0,0.0,0.0,0.0,-4.597176397380986,-10.12280480449305,-6.009201105411974,0.01088769555128189,-0.017006154604376784,-1.135075692648249
16573,1.0,299.3254,68043.334,0.0,-0.16573027137654273,0.0,0.0,0.0,0.0,-4.612162265034976,-10.095065867105431,-5.976246159159574,-0.003825938246665706,-0.0001122783550385109,-1.1057149471505687
16574,1.0,299.35625,68360.334,0.0,-0.16574026736396197,0.0,0.0,0.0,0.0,-4.612360355429526,-10.143549479090389,-6.023924845265094,-0.0010873471546378089,0.002597652968043388,-1.125346870488089
16575,1.0,300.16535,68599.448,0.0,-0.16575026335138143,0.0,0.0,0.0,0.0,-4.692245905238615,-10.14106195009489,-6.019211104474884,0.008427918260120773,0.0074688425899673725,-1.0947732646207091
16576,1.0,300.01391,68374.476,0.0,-0.16576025933880056,0.0,0.0,0.0,0.0,-4.622848709864646,-10.13902329089369,-6.022261189925904,-0.01057855598552219,-0.026400582953284676,-1.118571773694439
16577,1.0,300.32614,68204.549,0.0,-0.16577025532622003,0.0,0.0,0.0,0.0,-4.601329506890866,-10.145410819524091,-5.985739501996495,0.006150642916021193,-0.027606956495844475,-1.109928547691419
16578,1.0,300.21106000000003,68415.338,0.0,-0.16578025131363927,0.0,0.0,0.0,0.0,-4.603259748331366,-10.14767847324789,-6.045616402080885,0.007180932640302873,0.005398989369863765,-1.122764197308199
16579,1.0,300.28524,68636.291,0.0,-0.1657902473010585,0.0,0.0,0.0,0.0,-4.655007140213436,-10.17029016247949,-6.038421718420824,0.004251153413406176,-0.004255870193946686,-1.1122176823173389
16580,1.0,300.93349,68498.726,0.0,-0.16580024328847787,0.0,0.0,0.0,0.0,-4.620127525396086,-10.15793155100979,-6.0438427077808345,-0.01101976459581609,-0.011224701521291791,-1.110279030901009
16581,1.0,300.06137,68182.341,0.0,-0.16581027226595468,0.0,0.0,0.0,0.0,-4.606391907040487,-10.121040432093922,-5.9982967104857945,-0.02908068722304037,0.011728036548217089,-1.095345446952179
16582,1.0,298.95331,68223.086,0.0,-0.16582026825337393,0.0,0.0,0.0,0.0,-4.5938310508508255,-10.13505743000229,-6.009226436664474,-0.002262352804576838,0.030005087448271572,-1.0868351593622791
16583,1.0,299.16637000000003,68520.208,0.0,-0.16583026424079328,0.0,0.0,0.0,0.0,-4.637220446633026,-10.13813872355639,-6.053073517516844,-0.0031545435316542073,0.007547386697969073,-1.105631657992349
16584,1.0,299.33687000000003,68549.561,0.0,-0.16584026022821252,0.0,0.0,0.0,0.0,-4.638464717755825,-10.15245392096919,-6.046435918761764,0.01001851239025019,-0.01179267075884599,-1.1018009646642888
16585,1.0,299.94991,68281.924,0.0,-0.16585025621563187,0.0,0.0,0.0,0.0,-4.620275763885716,-10.14341167707679,-5.992312455395194,0.015176326248786787,-0.007479937171937322,-1.118633987250579
16586,1.0,299.74267000000003,68253.12400000001,0.0,-0.16586025220305123,0.0,0.0,0.0,0.0,-4.619897517623387,-10.13248762509867,-5.9948602727716445,0.007013230933477004,0.02291577774561118,-1.0965003494161591
16587,1.0,299.62868,68561.65299999999,0.0,-0.16587024819047036,0.0,0.0,0.0,0.0,-4.666432041715986,-10.15923560388849,-6.015362375295044,-0.0067390548796429335,-0.004015989616247316,-1.1188238703193187
16588,1.0,299.92917,68697.666,0.0,-0.16588024417788994,0.0,0.0,0.0,0.0,-4.667317115678336,-10.15267176974069,-6.062385589910874,-0.014770785055262985,-0.0049481922725485555,-1.102534456411679
16589,1.0,300.26828,68473.484,0.0,-0.16589027315536664,0.0,0.0,0.0,0.0,-4.628415505914045,-10.152880499261292,-6.032933246604154,-0.008434681299238233,-0.001958905373903908,-1.1144539252880388
16590,1.0,300.18507999999997,68325.707,0.0,-0.16590026914278588,0.0,0.0,0.0,0.0,-4.607758274800337,-10.142733812759891,-6.0188165448859445,-0.004452984423350345,-7.084601129445693e-05,-1.108841431659129
16591,1.0,300.19022,68470.646,0.0,-0.16591026513020524,0.0,0.0,0.0,0.0,-4.648552331776395,-10.13316873181589,-6.0316452030770344,-0.01038056387623189,-0.013778478834829987,-1.097155820905849
16592,1.0,299.77046,68572.615,0.0,-0.16592026111762448,0.0,0.0,0.0,0.0,-4.633710548286626,-10.158363195552392,-6.0522895659144735,4.689541946021756e-05,-0.007592174176239253,-1.115926785633399
16593,1.0,299.86045,68490.848,0.0,-0.16593025710504394,0.0,0.0,0.0,0.0,-4.617537252840445,-10.16284885374509,-6.039121266289865,0.02032858344377498,0.018076558089517383,-1.106137067142229
16594,1.0,299.81324,68391.145,0.0,-0.16594025309246319,0.0,0.0,0.0,0.0,-4.602951416325936,-10.159620638926489,-6.026628804481954,0.013706572528233386,0.038524183221290864,-1.119246598261039
16595,1.0,299.65464,68400.24,0.0,-0.16595024907988243,0.0,0.0,0.0,0.0,-4.621611734142566,-10.16211120767229,-6.008242469492364,-0.0042289813733929656,-0.007195669349757273,-1.1128539020551291
16596,1.0,299.6199,68415.088,0.0,-0.16596024506730178,0.0,0.0,0.0,0.0,-4.632599722201995,-10.15566896353649,-6.008209842839144,-0.013799471350401786,-0.017021424283383785,-1.1242832618581189
16597,1.0,299.58555,68523.407,0.0,-0.16597024105472102,0.0,0.0,0.0,0.0,-4.636679979029686,-10.18460434664219,-6.008120271530304,0.016826884317184185,-0.004402653757758095,-1.115054681272329
16598,1.0,299.57023,68563.005,0.0,-0.16598027003219784,0.0,0.0,0.0,0.0,-4.638959082479616,-10.17221128466909,-6.030270729316385,0.02084683655192258,0.01276188298299979,-1.128300494529589
16599,1.0,299.89457000000004,68565.869,0.0,-0.1659902660196172,0.0,0.0,0.0,0.0,-4.6544234068308254,-10.16928400513019,-6.018605079590074,0.0013361886122465487,0.006417311901189374,-1.112332483553669
16600,1.0,299.9355,68535.517,0.0,-0.16600026200703655,0.0,0.0,0.0,0.0,-4.633289846845106,-10.16538704524559,-6.034408741399774,-0.005013613677180145,0.006006068136102775,-1.109022803427029
16601,1.0,300.28162000000003,68545.02,0.0,-0.1660102579944559,0.0,0.0,0.0,0.0,-4.645438512894087,-10.14990559696769,-6.040630097013774,0.008462043003613622,0.014856380370710586,-1.104801198210389
16602,1.0,300.27064,68484.547,0.0,-0.16602025398187503,0.0,0.0,0.0,0.0,-4.626331149133335,-10.16026810574039,-6.030992872662654,-0.002529591033651198,0.00020662311549711376,-1.1120018600460388
16603,1.0,299.71927999999997,68414.202,0.0,-0.16603024996929439,0.0,0.0,0.0,0.0,-4.627027251952036,-10.136965379940591,-6.032216068183374,0.003051779402537177,-0.05045503900227465,-1.114197775662759
16604,1.0,299.53681,68462.25200000001,0.0,-0.16604024595671374,0.0,0.0,0.0,0.0,-4.622218063002405,-10.15200606442499,-6.036590674165114,-0.005423880871820365,-0.01826145394126518,-1.099998291411379
16605,1.0,300.29573999999997,68619.951,0.0,-0.16605024194413298,0.0,0.0,0.0,0.0,-4.649272549947476,-10.17149998309889,-6.037978725477104,0.02015217964111528,0.01182527309406359,-1.1077434738507688
16606,1.0,299.42888,68714.44,0.0,-0.1660602709216098,0.0,0.0,0.0,0.0,-4.642112722090856,-10.19112765078599,-6.0542334862313245,0.0016603117151850085,0.017180650457098184,-1.107805383431879
16607,1.0,299.60553,68709.933,0.0,-0.16607026690902915,0.0,0.0,0.0,0.0,-4.667109298082825,-10.19037683246189,-6.028617611778234,-0.013237717388960986,-0.006805135504789583,-1.109038002178529
16608,1.0,299.50127000000003,68633.92,0.0,-0.1660802628964484,0.0,0.0,0.0,0.0,-4.644375208239146,-10.18253832968829,-6.036084150440124,-0.006496903405819444,0.007384673322710512,-1.104873949567569
16609,1.0,299.13327000000004,68618.352,0.0,-0.16609025888386786,0.0,0.0,0.0,0.0,-4.642036424358325,-10.17615080105789,-6.040078179684304,0.01002501198434165,0.005639757655975745,-1.111949677665889
16610,1.0,299.55247,68698.991,0.0,-0.166100254871287,0.0,0.0,0.0,0.0,-4.647303805003175,-10.18477254615879,-6.050701397707734,-0.003365430059067087,-0.006279315951520234,-1.1059386727726488
16611,1.0,300.08284,68596.026,0.0,-0.16611025085870634,0.0,0.0,0.0,0.0,-4.6442924257059754,-10.16298057625809,-6.044205755291665,-0.005008167255242626,-0.027589562031377773,-1.104473107828009
16612,1.0,299.27411,68449.458,0.0,-0.1661202468461257,0.0,0.0,0.0,0.0,-4.638715801130605,-10.14734916696539,-6.020861182262735,0.002817647195305127,0.009755033926996892,-1.0864740370266388
16613,1.0,299.98582000000005,68484.442,0.0,-0.16613024283354494,0.0,0.0,0.0,0.0,-4.642417001095886,-10.149101076388291,-6.026042233999064,0.010042555193923032,0.026752562733272374,-1.090741947772849
16614,1.0,300.12011,68657.899,0.0,-0.16614027181102164,0.0,0.0,0.0,0.0,-4.645390788814375,-10.16451666340969,-6.060379962662934,0.0009545941561536082,0.017893243921175684,-1.092557995927079
16615,1.0,299.96147,68730.45599999999,0.0,-0.1661502677984411,0.0,0.0,0.0,0.0,-4.633475372938416,-10.19705313737079,-6.0618138128794445,-0.005115781508613325,-0.011667330708225888,-1.1147409790413687
16616,1.0,300.56683,68797.98599999999,0.0,-0.16616026378586035,0.0,0.0,0.0,0.0,-4.666280864801066,-10.181802710115692,-6.064785776747754,-0.0016406527380698184,0.012366270627205887,-1.0998129679680888
16617,1.0,300.21795,68813.046,0.0,-0.1661702597732797,0.0,0.0,0.0,0.0,-4.685187098416965,-10.190612919735191,-6.041647602764194,-0.007076356820007044,0.007700927120072333,-1.1130037617449189
16618,1.0,300.19113,68619.266,0.0,-0.16618025576069906,0.0,0.0,0.0,0.0,-4.651056883373576,-10.18801089347839,-6.019475461425974,-0.01807979035733638,-0.017938240331616485,-1.106388859792079
16619,1.0,299.79119,68665.52,0.0,-0.1661902517481182,0.0,0.0,0.0,0.0,-4.651767475668706,-10.20300395520809,-6.017831665788744,-0.013813069166743786,-0.02074107857273508,-1.130150891862209
16620,1.0,299.53521,68816.033,0.0,-0.16620024773553765,0.0,0.0,0.0,0.0,-4.645783727203155,-10.20256217816449,-6.070009992938344,0.026062439103412476,0.015640134389311087,-1.1130951569039387
16621,1.0,299.72053,68658.828,0.0,-0.1662102437229569,0.0,0.0,0.0,0.0,-4.631127064506655,-10.186773715106291,-6.0526681161518345,0.024545321006934576,0.011962182434325489,-1.119764267737129
16622,1.0,299.32656000000003,68407.94900000001,0.0,-0.1662202727004336,0.0,0.0,0.0,0.0,-4.594872266653586,-10.165604894017092,-6.033831391492794,0.015101598040661685,-0.009667706561828351,-1.101301837665029
16623,1.0,299.40927,68505.98700000001,0.0,-0.16623026868785307,0.0,0.0,0.0,0.0,-4.625285069730096,-10.17540403573419,-6.023419942740264,-0.0019217652994384681,-0.013042580618452487,-1.1071766617448289
16624,1.0,300.13313999999997,68838.942,0.0,-0.1662402646752723,0.0,0.0,0.0,0.0,-4.665654878889286,-10.20170902158029,-6.057955761798685,0.0028469998348020073,0.01005925689929636,-1.1035460853115189
16625,1.0,299.79918,68803.151,0.0,-0.16625026066269166,0.0,0.0,0.0,0.0,-4.6817553216532755,-10.19019039444349,-6.042494477197774,-0.017543769908685284,0.0017075195439690584,-1.106236061676999
16626,1.0,300.2029,68799.594,0.0,-0.16626025665011102,0.0,0.0,0.0,0.0,-4.6532011232351955,-10.20613895101749,-6.0540183732350945,-0.01206163293164049,-0.015832037878750482,-1.1168360762731389
16627,1.0,300.27289,68736.12400000001,0.0,-0.16627025263753015,0.0,0.0,0.0,0.0,-4.646999931298186,-10.207209956373191,-6.039855365987314,-0.010343660294339791,0.006427216218266854,-1.135892676203879
16628,1.0,300.25441,68892.308,0.0,-0.1662802486249496,0.0,0.0,0.0,0.0,-4.681068642060506,-10.208072232208291,-6.052400314150404,0.008408404481744913,0.017272492459412283,-1.135730556187879
16629,1.0,300.49465,69015.325,0.0,-0.16629024461236885,0.0,0.0,0.0,0.0,-4.717881335418635,-10.218884624025389,-6.042169933190744,0.01103058509363399,0.0034098334142243568,-1.127440853144749
16630,1.0,300.13585,68690.51,0.0,-0.16630027358984567,0.0,0.0,0.0,0.0,-4.675960240356345,-10.170654932515491,-6.033585070393484,-0.0033843967837139575,-0.01877988132842998,-1.108195991345429
16631,1.0,300.19226000000003,68446.772,0.0,-0.16631026957726502,0.0,0.0,0.0,0.0,-4.626027072778325,-10.177696007460389,-6.002386694514445,-0.006425066506854694,-0.022566815424421276,-1.1208914071483689
16632,1.0,300.03907999999996,68719.967,0.0,-0.16632026556468427,0.0,0.0,0.0,0.0,-4.609684057940395,-10.20828602797939,-6.071184248479235,-0.002114230230758278,-0.024036192215937478,-1.1014398423286489
16633,1.0,299.92899,69066.084,0.0,-0.16633026155210362,0.0,0.0,0.0,0.0,-4.674670271654036,-10.21281322942619,-6.106881454802274,-0.0021780732957090983,-0.004466131343397846,-1.104592671339809
16634,1.0,300.41442,68907.54,0.0,-0.16634025753952286,0.0,0.0,0.0,0.0,-4.651358730578366,-10.21179592632579,-6.083016577846994,0.0035430655685483466,-0.004874419153967715,-1.0778350666740388
16635,1.0,299.58822000000004,68658.973,0.0,-0.1663502535269421,0.0,0.0,0.0,0.0,-4.647925737914555,-10.20016685492809,-6.022520987251544,0.006469458614935854,0.003134244079150807,-1.0989861558864888
16636,1.0,299.4363,68759.196,0.0,-0.16636024951436157,0.0,0.0,0.0,0.0,-4.649746345694236,-10.19075578799929,-6.060576533182335,0.005060172316625125,0.0075159166697382224,-1.103407776672869
16637,1.0,299.68944,69131.443,0.0,-0.1663702455017808,0.0,0.0,0.0,0.0,-4.700338227162265,-10.24089038969719,-6.073003539033785,0.001195219280158959,-0.004662498098202735,-1.112570090702119
16638,1.0,299.32922,69016.089,0.0,-0.16638024148920016,0.0,0.0,0.0,0.0,-4.669174403111636,-10.21014432866279,-6.099849093808234,-0.006722635060447424,-0.007742301566705674,-1.115803270446209
16639,1.0,299.95557,68683.057,0.0,-0.16639027046667698,0.0,0.0,0.0,0.0,-4.654077584571695,-10.201336145543491,-6.022521189901564,-0.015595154190871882,0.01191911018582459,-1.112285975374079
16640,1.0,300.60404,68562.29,0.0,-0.1664002664540961,0.0,0.0,0.0,0.0,-4.629487423194836,-10.191042537777589,-6.020693793346215,-0.017709602473051683,0.017560967802632586,-1.123330097489049
16641,1.0,300.31935,68883.51299999999,0.0,-0.1664102624415157,0.0,0.0,0.0,0.0,-4.6874534349156365,-10.209489769098191,-6.041924929316564,-0.005233806400136475,0.008303486486890312,-1.093533654448369
16642,1.0,300.31121,69175.718,0.0,-0.16642025842893482,0.0,0.0,0.0,0.0,-4.694980667258515,-10.23589810645449,-6.0968122819335235,5.165151005160715e-06,-0.0006110842148118165,-1.110450270167909
16643,1.0,299.87075,68904.562,0.0,-0.16643025441635417,0.0,0.0,0.0,0.0,-4.668124270707996,-10.19699842186539,-6.080144216463514,0.02254837123285098,0.0002248981550957198,-1.085086087039659
16644,1.0,299.72022999999996,68599.475,0.0,-0.16644025040377353,0.0,0.0,0.0,0.0,-4.604420021020875,-10.20512164791709,-6.042985498196234,0.006271909802564304,-0.009128302871093352,-1.115807830071659
16645,1.0,300.79522000000003,68877.894,0.0,-0.16645024639119277,0.0,0.0,0.0,0.0,-4.667092579456175,-10.21505048564699,-6.055016424583594,-0.003253241488119937,-0.008083196694574402,-1.1015299202625388
16646,1.0,300.17537999999996,69235.913,0.0,-0.16646024237861212,0.0,0.0,0.0,0.0,-4.7015398404558555,-10.23143068676359,-6.1130174947578535,-0.012093858337820887,-0.013026999871664788,-1.1129381031384389
16647,1.0,300.14488,69035.594,0.0,-0.16647027135608894,0.0,0.0,0.0,0.0,-4.668399773410186,-10.24628898622999,-6.0704083015526535,-0.00960705057374207,-0.004157584528946646,-1.1247048752247288
16648,1.0,299.7497,68665.567,0.0,-0.16648026734350818,0.0,0.0,0.0,0.0,-4.610464564492425,-10.20039179645029,-6.061761731824304,-0.0006467480345440615,-0.009800288006938121,-1.113982966641559
16649,1.0,299.64814,68835.34700000001,0.0,-0.16649026333092753,0.0,0.0,0.0,0.0,-4.642504444579516,-10.22134986151869,-6.060372565937204,0.015831689320716085,0.006310720827769655,-1.126715568723169
16650,1.0,299.67216,69168.27,0.0,-0.16650025931834678,0.0,0.0,0.0,0.0,-4.689723520439675,-10.24638017873899,-6.089323249119414,0.017848712592530784,0.006154575744959334,-1.1117802622491688
16651,1.0,299.86362,69130.494,0.0,-0.16651025530576602,0.0,0.0,0.0,0.0,-4.715774180510675,-10.22763302538879,-6.070537186965375,-0.0015100797573082685,0.012729098262764188,-1.1273330433341089
16652,1.0,299.72391,68875.166,0.0,-0.16652025129318548,0.0,0.0,0.0,0.0,-4.673091931973266,-10.22559943243809,-6.037639793318654,0.005977038926037814,0.008673100871618412,-1.1096453442884688
16653,1.0,300.01681,68704.906,0.0,-0.16653024728060462,0.0,0.0,0.0,0.0,-4.6617860873574655,-10.194055943574991,-6.028733628914685,-0.025012620807303473,0.0013231466649094087,-1.113430644012049
16654,1.0,299.99827999999997,68942.77,0.0,-0.16654024326802408,0.0,0.0,0.0,0.0,-4.671423007733556,-10.22003668938909,-6.065420780585424,-0.0004317010008955716,-0.0077755728496392935,-1.107683590769859
16655,1.0,300.16309,69105.663,0.0,-0.16655027224550079,0.0,0.0,0.0,0.0,-4.691680005057766,-10.23674518353809,-6.077971301624064,0.006681023715940704,0.00017105651711196384,-1.1188549770973888
16656,1.0,299.76456,68847.084,0.0,-0.16656026823292014,0.0,0.0,0.0,0.0,-4.648315839203056,-10.212740275418989,-6.066738005715424,0.021364943752055776,0.02190847238394788,-1.112577690077869
16657,1.0,300.47832999999997,68717.12,0.0,-0.1665702642203395,0.0,0.0,0.0,0.0,-4.635672301805236,-10.23992982860239,-6.0126862804559345,0.004594312749948365,0.008039440502256003,-1.1303452332313888
16658,1.0,300.60235,69012.523,0.0,-0.16658026020775873,0.0,0.0,0.0,0.0,-4.664421550867566,-10.23535297790069,-6.0783095245074446,0.005860584470844654,-0.005824501216233515,-1.1137745410959887
16659,1.0,300.599,69332.293,0.0,-0.16659025619517798,0.0,0.0,0.0,0.0,-4.703910339064805,-10.26570691114639,-6.105668391782554,-0.004388091833945946,0.007043147649304554,-1.106866607214229
16660,1.0,300.16284,69199.231,0.0,-0.16660025218259733,0.0,0.0,0.0,0.0,-4.6671861024404055,-10.260450169627589,-6.107202047133915,0.004264120278910905,-0.019277894765830084,-1.1158368090245188
16661,1.0,299.63755,68922.211,0.0,-0.16661024817001668,0.0,0.0,0.0,0.0,-4.668791293248826,-10.22613645499109,-6.055703205501374,-0.013718567382917187,-0.0048219182079862755,-1.1161191005023792
16662,1.0,299.60083,68945.661,0.0,-0.16662024415743604,0.0,0.0,0.0,0.0,-4.660253141281175,-10.23194339131419,-6.0655623316243945,-0.01103941252850519,-0.0039975264769001465,-1.1312447966701689
16663,1.0,300.3857,69093.368,0.0,-0.16663027313491274,0.0,0.0,0.0,0.0,-4.702001983826466,-10.22658836453569,-6.074068464888884,0.003301740704156437,0.014695060822289586,-1.122597112366709
16664,1.0,299.52249,69069.099,0.0,-0.1666402691223321,0.0,0.0,0.0,0.0,-4.671322189348605,-10.24213162106969,-6.081828238129714,0.0012700777922469188,0.010939338882378689,-1.123700237750579
16665,1.0,299.87525,69019.293,0.0,-0.16665026510975145,0.0,0.0,0.0,0.0,-4.671867621877436,-10.23439545655619,-6.073878885795174,-0.0025192863814592075,0.003816293422938837,-1.105034651033429
16666,1.0,299.9335,68983.352,0.0,-0.1666602610971707,0.0,0.0,0.0,0.0,-4.661908487969546,-10.23263341463229,-6.074674388448685,0.002092232368437258,-0.017229082798628084,-1.103048579512419
16667,1.0,300.47649,69096.17,0.0,-0.16667025708458993,0.0,0.0,0.0,0.0,-4.690864440052275,-10.23824580693619,-6.0744004056216445,0.0017184359965714284,-0.0035836650815052064,-1.085612875766649
16668,1.0,300.13096,69352.24900000001,0.0,-0.1666802530720093,0.0,0.0,0.0,0.0,-4.724865465707915,-10.24531119988349,-6.111175102101024,0.0019300427421553884,0.0014782732287192085,-1.0873717766152389
16669,1.0,300.43589,69419.52799999999,0.0,-0.16669024905942864,0.0,0.0,0.0,0.0,-4.734627826446386,-10.25564533765339,-6.1115297396360235,0.008010232960173442,0.00013276435701782189,-1.083915479199129
16670,1.0,299.94741,69110.604,0.0,-0.166700245046848,0.0,0.0,0.0,0.0,-4.680340520538645,-10.24223902558029,-6.085318175449144,0.012527727977640488,0.004877362645508215,-1.105215414851269
16671,1.0,300.65362999999996,69070.067,0.0,-0.1667102740243248,0.0,0.0,0.0,0.0,-4.673917325504726,-10.23839678120109,-6.083261480396164,0.0043883375470951955,0.005267904495151695,-1.093734987243239
16672,1.0,300.43575,69190.118,0.0,-0.16672027001174394,0.0,0.0,0.0,0.0,-4.6868411278802045,-10.253005821142889,-6.092220739105374,0.001243947693368079,0.0024404415408278276,-1.122386255020899
16673,1.0,300.15071,69104.341,0.0,-0.1667302659991634,0.0,0.0,0.0,0.0,-4.680502539229637,-10.25579631191829,-6.069694872157244,-0.00888932276875785,-0.013918992305697589,-1.123981009353289
16674,1.0,299.74816,68976.98599999999,0.0,-0.16674026198658265,0.0,0.0,0.0,0.0,-4.660764629931656,-10.26095882117779,-6.0455579375501145,-0.030508965577250472,-0.014815806796956286,-1.143401366069929
16675,1.0,299.90736,68991.304,0.0,-0.1667502579740019,0.0,0.0,0.0,0.0,-4.668983506792795,-10.24763964861329,-6.055010345082994,-0.01990000904897798,-0.008319099556356202,-1.111226723719539
16676,1.0,300.17395,69122.552,0.0,-0.16676025396142125,0.0,0.0,0.0,0.0,-4.664562696606496,-10.25698485428559,-6.089982165659444,-0.016916114160740483,-0.00969462466530996,-1.125618826814929
16677,1.0,300.24188,69314.318,0.0,-0.1667702499488405,0.0,0.0,0.0,0.0,-4.707373931881636,-10.27068602213779,-6.091762142110114,0.005841857987796494,-0.004679069600938215,-1.101689304503269
16678,1.0,299.68511,69311.895,0.0,-0.16678024593625995,0.0,0.0,0.0,0.0,-4.702193184120336,-10.25634346697229,-6.110548508239185,-0.00010896434833394389,-0.004721978918823035,-1.1154945331407389
16679,1.0,299.6248,69145.697,0.0,-0.16679027491373677,0.0,0.0,0.0,0.0,-4.685043014252746,-10.260892959921291,-6.072629244446844,0.007469245255557112,0.017636055714543183,-1.1141636291343888
16680,1.0,300.55226,69110.63,0.0,-0.1668002709011559,0.0,0.0,0.0,0.0,-4.672263903991546,-10.256565368744191,-6.0790765548331445,-0.003255304870623577,0.018822793483415083,-1.1110362327007388
16681,1.0,299.90907999999996,69330.215,0.0,-0.16681026688857536,0.0,0.0,0.0,0.0,-4.718864593315676,-10.27551415886429,-6.080275533676474,0.0063174458700083645,0.001087613538089099,-1.1366157314752388
16682,1.0,300.25807000000003,69337.909,0.0,-0.1668202628759946,0.0,0.0,0.0,0.0,-4.701571149883945,-10.27841914690099,-6.097002165002264,-0.014219112932317186,-0.002538766215956718,-1.1336793326854389
16683,1.0,300.86798,69031.989,0.0,-0.16683025886341385,0.0,0.0,0.0,0.0,-4.673479601461525,-10.242486258604691,-6.0680347631934035,-0.005334343608183724,-0.01083145713098159,-1.117378063751629
16684,1.0,300.55124,69038.079,0.0,-0.1668402548508333,0.0,0.0,0.0,0.0,-4.664684185293486,-10.25441322553179,-6.066754926992094,-0.0024744188564311278,-0.01056971943140009,-1.112039552949759
16685,1.0,300.13364,69324.078,0.0,-0.16685025083825245,0.0,0.0,0.0,0.0,-4.721934437143645,-10.25756848634319,-6.093286272910534,-0.007780699084545211,0.0042194613820784165,-1.122586675890679
16686,1.0,300.04138,69408.577,0.0,-0.1668602468256719,0.0,0.0,0.0,0.0,-4.717015310558166,-10.28008189031509,-6.101376770984004,-0.0017781038631601881,0.007432654159995853,-1.1115925070056387
16687,1.0,299.51784,69255.678,0.0,-0.16687024281309115,0.0,0.0,0.0,0.0,-4.699604532764855,-10.27298306011449,-6.079409002190954,-0.001061276128239799,-0.0029138312782727572,-1.1189801134847388
16688,1.0,299.93728,69232.995,0.0,-0.16688027179056797,0.0,0.0,0.0,0.0,-4.685651065637756,-10.26425492375309,-6.095195540073965,0.0006786748561849934,0.015848070535082782,-1.096176109384159
16689,1.0,300.10614,69188.226,0.0,-0.16689026777798732,0.0,0.0,0.0,0.0,-4.668893834158945,-10.26794112761689,-6.094658416195954,-0.004810169269101746,-0.01039260838017059,-1.119010207012709
16690,1.0,300.49885,69198.069,0.0,-0.16690026376540656,0.0,0.0,0.0,0.0,-4.657411684025745,-10.27058064412739,-6.106492772063914,0.008551586042775831,-0.005871965802592904,-1.115005842617509
16691,1.0,300.16516,69261.786,0.0,-0.1669102597528258,0.0,0.0,0.0,0.0,-4.674925002729175,-10.279666457774091,-6.099261712725264,-0.006668507442755442,0.004529085180060906,-1.1337979842721488
16692,1.0,299.5698,69269.165,0.0,-0.16692025574024516,0.0,0.0,0.0,0.0,-4.689859599928105,-10.283907922692691,-6.082329188979154,0.01854325095307638,0.01044186449403179,-1.1137749463960291
16693,1.0,299.77556,69213.682,0.0,-0.1669302517276644,0.0,0.0,0.0,0.0,-4.683956100870475,-10.26654790872939,-6.088726748785544,0.01020290870969869,-0.006443267518400994,-1.129826955805239
16694,1.0,300.13017,69360.645,0.0,-0.16694024771508376,0.0,0.0,0.0,0.0,-4.692820620695336,-10.28824665962089,-6.102836661728085,-0.006205486597558844,-0.0013870714991432984,-1.1081093584618789
16695,1.0,300.02299999999997,69421.476,0.0,-0.1669502437025031,0.0,0.0,0.0,0.0,-4.701524945679386,-10.27528516434169,-6.125585342373204,-0.004194593792824176,-0.008792589706886041,-1.094423592011199
16696,1.0,300.62942000000004,69400.313,0.0,-0.16696027267997993,0.0,0.0,0.0,0.0,-4.707421959936376,-10.28162405696729,-6.1069160066306845,-0.013292583868625887,-0.0027448326113188874,-1.093685034013309
16697,1.0,300.52948,69360.142,0.0,-0.16697026866739928,0.0,0.0,0.0,0.0,-4.723709043368785,-10.27903722946199,-6.0810049724234645,-0.014443271212189884,-0.016342863863665087,-1.1207876503381289
16698,1.0,300.38097999999997,69295.5,0.0,-0.1669802646548184,0.0,0.0,0.0,0.0,-4.7183209846370255,-10.26774861009789,-6.078031995305054,0.0032164340636623274,-0.019515018593982383,-1.110167168089969
16699,1.0,299.89092,69339.25200000001,0.0,-0.16699026064223776,0.0,0.0,0.0,0.0,-4.702187813894805,-10.29138976143109,-6.083823834201664,0.02045257992476248,0.01047666051571589,-1.109503995899519
16700,1.0,299.78076,69463.461,0.0,-0.16700025662965712,0.0,0.0,0.0,0.0,-4.703274423302045,-10.27571680888429,-6.136166611842494,0.015896540366866385,0.01913080732831368,-1.111343855431099
16701,1.0,299.72036,69510.991,0.0,-0.16701025261707647,0.0,0.0,0.0,0.0,-4.695130324298286,-10.28954868599939,-6.144927172207094,0.025545140476859077,0.00041870899665586065,-1.104040652685329
16702,1.0,300.21646,69338.016,0.0,-0.16702024860449582,0.0,0.0,0.0,0.0,-4.678830169939586,-10.282623121565889,-6.115572708860034,-0.01069595924810899,0.01000292455071179,-1.116812062245769
16703,1.0,300.54767999999996,69409.805,0.0,-0.16703024459191507,0.0,0.0,0.0,0.0,-4.707861710479775,-10.29284985482519,-6.098136498489214,-0.0025117944102198073,0.005649634210000485,-1.101988821232829
16704,1.0,300.21937,69579.51299999999,0.0,-0.16704027356939177,0.0,0.0,0.0,0.0,-4.728084054650566,-10.32060074856399,-6.101750254970864,-0.020424793567270182,-0.0015099043637159585,-1.1393185761169888
16705,1.0,299.55683,69513.511,0.0,-0.16705026955681124,0.0,0.0,0.0,0.0,-4.717973743827756,-10.314606360972391,-6.097791385505154,-0.013508805360465287,-0.0008719852839182472,-1.123914641471739
16706,1.0,299.69219,69241.641,0.0,-0.16706026554423048,0.0,0.0,0.0,0.0,-4.657024115862495,-10.30346466287279,-6.087241222813934,-0.011332343132415188,-0.004951873916786905,-1.1385077733869688
16707,1.0,299.87106,69191.085,0.0,-0.16707026153164972,0.0,0.0,0.0,0.0,-4.657402159474805,-10.29336762562629,-6.081592556156454,0.007457581024380943,0.0038492556645919563,-1.1220857250412388
16708,1.0,300.59172,69385.38799999999,0.0,-0.16708025751906908,0.0,0.0,0.0,0.0,-4.703419824691395,-10.28565071286469,-6.102354354680485,0.00983841620290108,0.002887421015741267,-1.123259473957079
16709,1.0,301.68683,69417.582,0.0,-0.16709025350648832,0.0,0.0,0.0,0.0,-4.731229182960965,-10.286446114193192,-6.083536476473304,0.008908501262675622,-0.026348719746916178,-1.133486207216379
16710,1.0,300.48682,69254.867,0.0,-0.16710024949390778,0.0,0.0,0.0,0.0,-4.692491314412837,-10.26760878158409,-6.091649671349014,-0.0028926633691086475,-0.008375221452895001,-1.110193005967519
16711,1.0,300.62082999999996,69351.688,0.0,-0.1671102454813269,0.0,0.0,0.0,0.0,-4.697391594546455,-10.27975866353319,-6.104030675645924,-0.0065111008635706236,0.010814239985282388,-1.109515648275669
16712,1.0,300.32034,69601.037,0.0,-0.16712027445880373,0.0,0.0,0.0,0.0,-4.693613184923556,-10.31019365678689,-6.153170367070635,-0.0009378855100170931,0.011005301463888688,-1.120012716661649
16713,1.0,300.0375,69722.118,0.0,-0.16713027044622308,0.0,0.0,0.0,0.0,-4.715095100293655,-10.32044876104899,-6.158239049370874,-0.012460713642526686,0.010820144193615091,-1.122120884819709
16714,1.0,299.41081,69586.326,0.0,-0.16714026643364244,0.0,0.0,0.0,0.0,-4.724578614604605,-10.31479685199119,-6.1131296615439235,-0.011416525977223388,0.011521312249564989,-1.1064515799732688
16715,1.0,299.81566000000004,69429.886,0.0,-0.16715026242106168,0.0,0.0,0.0,0.0,-4.713222614108855,-10.307961466816591,-6.083767396171094,0.015853972716915285,0.00886594030017518,-1.1124207376373791
16716,1.0,300.13308,69481.868,0.0,-0.16716025840848103,0.0,0.0,0.0,0.0,-4.717266697907975,-10.30147869267679,-6.102007113871214,0.013132797367606185,0.00839446053916875,-1.110599319257619
16717,1.0,300.09603,69642.51,0.0,-0.16717025439590028,0.0,0.0,0.0,0.0,-4.729210890086775,-10.30926957269569,-6.131104110367865,0.01051587633433619,-0.006208555124161683,-1.1165923896240888
16718,1.0,299.83126,69477.05900000001,0.0,-0.16718025038331974,0.0,0.0,0.0,0.0,-4.691024330918055,-10.280853986891291,-6.147413080002435,0.0016918844869759984,-0.013326668588739786,-1.103943583325749
16719,1.0,300.02878,69349.188,0.0,-0.16719024637073898,0.0,0.0,0.0,0.0,-4.697993566430865,-10.28649373694789,-6.095934199396865,0.002296503385947238,-0.005233350437591475,-1.105825796711509
16720,1.0,300.43287999999995,69522.592,0.0,-0.1672002753482157,0.0,0.0,0.0,0.0,-4.7354268754752455,-10.283235124626291,-6.114470191426224,-0.0008323867911326802,0.003983266906917837,-1.109784463527199
16721,1.0,300.11807999999996,69576.25099999999,0.0,-0.16721027133563504,0.0,0.0,0.0,0.0,-4.756135681019045,-10.29500807753819,-6.098299429105294,-0.0048717946335586956,-0.008341348502052,-1.114505702368149
16722,1.0,300.78656,69488.547,0.0,-0.1672202673230544,0.0,0.0,0.0,0.0,-4.7056165509081955,-10.31224447498929,-6.104921727783864,-0.0062144084673393645,-0.01266449242313809,-1.121064368940439
16723,1.0,300.57421,69521.171,0.0,-0.16723026331047353,0.0,0.0,0.0,0.0,-4.697481571155336,-10.31971719447679,-6.115500666777924,-0.017341214120944585,0.0012652085175663588,-1.123549263485679
16724,1.0,300.17821000000004,69752.043,0.0,-0.167240259297893,0.0,0.0,0.0,0.0,-4.692656372854126,-10.35364790057549,-6.156575090056654,0.004347503973365236,0.0020571858713284382,-1.1332839624964188
16725,1.0,300.20081,69695.602,0.0,-0.16725025528531223,0.0,0.0,0.0,0.0,-4.726523649496565,-10.341098798086989,-6.118099957259454,-0.018552323594471783,-0.002415422470683638,-1.1288307283069188
16726,1.0,300.02973,69555.043,0.0,-0.16726025127273159,0.0,0.0,0.0,0.0,-4.714558077740655,-10.327295291974691,-6.101143014185935,-0.00989620297067919,-0.004126152092294506,-1.1146267857550989
16727,1.0,300.03874,69479.461,0.0,-0.16727024726015094,0.0,0.0,0.0,0.0,-4.713852754346046,-10.314163570678689,-6.092004916834074,-0.005108281836673165,-0.018320541620846682,-1.120664236475949
16728,1.0,299.98692,69494.969,0.0,-0.16728024324757007,0.0,0.0,0.0,0.0,-4.700870487439796,-10.306424366414891,-6.117439926144314,0.0066196781098363635,0.0042930144227375355,-1.1122622653217389
16729,1.0,300.08166,69482.34,0.0,-0.1672902722250471,0.0,0.0,0.0,0.0,-4.692406302729445,-10.30095686887529,-6.127532910390414,0.010921274659595888,0.01048615466915289,-1.111771750948329
16730,1.0,299.88432,69570.098,0.0,-0.16730026821246624,0.0,0.0,0.0,0.0,-4.706950697314865,-10.305761700849489,-6.134860836438624,0.017975332378027183,-0.00998432553452621,-1.101762055860449
16731,1.0,299.18298,69562.90299999999,0.0,-0.1673102641998856,0.0,0.0,0.0,0.0,-4.721114616487736,-10.30868391413789,-6.115587198336464,-0.009001816429310113,0.01951567315354698,-1.120726855332129
16732,1.0,299.09794,69691.967,0.0,-0.16732026018730495,0.0,0.0,0.0,0.0,-4.750913795303686,-10.33062584505339,-6.103078119226915,-0.012406739836199887,0.014861457766961685,-1.1200407836894188
16733,1.0,300.2532,69863.555,0.0,-0.1673302561747242,0.0,0.0,0.0,0.0,-4.758578930985175,-10.33868827609909,-6.139509019947364,-3.113113964215427e-05,0.012611045506863289,-1.1086903560692187
16734,1.0,300.07311,69746.077,0.0,-0.16734025216214354,0.0,0.0,0.0,0.0,-4.721577773108446,-10.33722311645449,-6.142265060219365,-0.013219348177898087,-0.021234422953674382,-1.114794275996629
16735,1.0,300.14553,69615.292,0.0,-0.1673502481495629,0.0,0.0,0.0,0.0,-4.693970862208856,-10.324425767691489,-6.142913540283364,0.023254244822265274,-0.015387880710665587,-1.102575189065699
16736,1.0,300.16626,69701.682,0.0,-0.16736024413698203,0.0,0.0,0.0,0.0,-4.728361279877925,-10.32168695267119,-6.137522441801304,0.02020627098445368,0.000947201848194044,-1.123879076393229
16737,1.0,299.96567000000005,69694.23,0.0,-0.16737027311445907,0.0,0.0,0.0,0.0,-4.759167527968266,-10.31068103008499,-6.115456894373604,0.018774313519130482,0.016857014322157783,-1.095323459425009
16738,1.0,299.67472999999995,69492.905,0.0,-0.1673802691018782,0.0,0.0,0.0,0.0,-4.728534241669996,-10.307119455983491,-6.0884544884836735,0.007206524906028634,-0.017911635423740784,-1.116803246969899
16739,1.0,299.9753,69487.506,0.0,-0.16739026508929755,0.0,0.0,0.0,0.0,-4.698525725383386,-10.33563839329809,-6.088302602293685,-0.006421606055113174,0.02056259659412028,-1.113243800693609
16740,1.0,299.51705,69542.939,0.0,-0.1674002610767169,0.0,0.0,0.0,0.0,-4.687069109152705,-10.331562088145791,-6.1206858728396645,-0.01273635212023009,0.015770605538437586,-1.139570267441829
16741,1.0,300.38199,69681.859,0.0,-0.16741025706413615,0.0,0.0,0.0,0.0,-4.695055850415936,-10.34817736328559,-6.138311763629203,-0.007090042991757763,-0.006813486205488734,-1.109427596841979
16742,1.0,300.20571,69730.49,0.0,-0.1674202530515556,0.0,0.0,0.0,0.0,-4.710313471746746,-10.35249684846189,-6.133517165481014,-0.005255313646759075,-0.02709583666840087,-1.1495874605804488
16743,1.0,300.26084,69777.857,0.0,-0.16743024903897474,0.0,0.0,0.0,0.0,-4.735860343868025,-10.349970815962589,-6.124894508455024,-0.0036362886307487463,-0.0017625563509757684,-1.122305600312939
16744,1.0,300.31206000000003,69766.483,0.0,-0.1674402450263941,0.0,0.0,0.0,0.0,-4.726583127277436,-10.36195857789569,-6.118727057746344,0.023612034578326377,0.0046246150074389656,-1.1466794327934489
16745,1.0,300.91552,69817.962,0.0,-0.1674502740038709,0.0,0.0,0.0,0.0,-4.720407469242946,-10.34632615535289,-6.1561832662429845,-0.0014558778683839584,0.014170533669522787,-1.100067800368239
16746,1.0,300.34524,69883.16,0.0,-0.16746026999129016,0.0,0.0,0.0,0.0,-4.726619401631015,-10.34516193098799,-6.170954527525795,0.004298478779201826,-0.006028980152664014,-1.124312139485969
16747,1.0,300.68256,69753.348,0.0,-0.1674702659787094,0.0,0.0,0.0,0.0,-4.707423885111566,-10.335340497768689,-6.1605115666951535,-0.0037089160674415164,-0.004477099573080325,-1.105716467025719
16748,1.0,300.10427000000004,69501.439,0.0,-0.16748026196612886,0.0,0.0,0.0,0.0,-4.723322488455636,-10.30213933174199,-6.101239779570485,-0.007791873206648013,-0.004990590608407945,-1.120902856874499
16749,1.0,300.47989,69640.455,0.0,-0.1674902579535481,0.0,0.0,0.0,0.0,-4.750649337027586,-10.32800862004509,-6.090301947391004,-0.018700701912615584,-0.008335347629659763,-1.110597090107399
16750,1.0,299.60141,69736.098,0.0,-0.16750025394096757,0.0,0.0,0.0,0.0,-4.778134049965115,-10.31330433459389,-6.1065937930988845,0.005265909101729765,-0.013805995667795687,-1.115554720196679
16751,1.0,300.05866000000003,69858.268,0.0,-0.1675102499283867,0.0,0.0,0.0,0.0,-4.7558482219656755,-10.34393792486719,-6.135382356265095,0.018507228898771284,0.029679026605841867,-1.116276154267879
16752,1.0,299.90959,69829.534,0.0,-0.16752024591580605,0.0,0.0,0.0,0.0,-4.744043351675625,-10.34474345869669,-6.137647882163685,0.016817695152027284,0.011863784703864389,-1.108183427044189
16753,1.0,300.10742,69829.56599999999,0.0,-0.16753027489328287,0.0,0.0,0.0,0.0,-4.722238006873606,-10.33535468327009,-6.168852033568294,0.001063190157678699,-0.005585005977547176,-1.1017507074593291
16754,1.0,299.89883,69971.452,0.0,-0.16754027088070222,0.0,0.0,0.0,0.0,-4.747599150251555,-10.37156317559359,-6.150411894998394,-0.015981681746269186,-0.017967561763010283,-1.105272460831899
16755,1.0,300.35471,69971.825,0.0,-0.16755026686812136,0.0,0.0,0.0,0.0,-4.746415674134755,-10.364399497386591,-6.158873141283454,0.0014562426384199586,0.012118195591972789,-1.1290903229825389
16756,1.0,300.34637999999995,69793.056,0.0,-0.16756026285554082,0.0,0.0,0.0,0.0,-4.7107679144165955,-10.36315218651349,-6.141426291786585,-0.0008465167866922021,-0.0018225528145719583,-1.103260754083359
16757,1.0,300.58887999999996,69637.693,0.0,-0.16757025884296006,0.0,0.0,0.0,0.0,-4.687393653159735,-10.35279170424099,-6.1279338534549845,-0.014622760361404087,0.009868413168136551,-1.124823020186389
16758,1.0,300.30888999999996,69703.36099999999,0.0,-0.16758025483037942,0.0,0.0,0.0,0.0,-4.701159567693326,-10.34454384842699,-6.142377429655453,-0.0005818873929153144,-0.00932106144229214,-1.112533005748459
16759,1.0,300.63399,69899.073,0.0,-0.16759025081779866,0.0,0.0,0.0,0.0,-4.724542644226055,-10.36125943532669,-6.161770631269414,0.012620787906574787,0.02178313435982798,-1.1409383577268488
16760,1.0,300.61161,69907.689,0.0,-0.1676002468052179,0.0,0.0,0.0,0.0,-4.767497254390346,-10.35521945148059,-6.127475155134714,0.013981987077664687,-0.0017711468879735885,-1.1165415244690688
16761,1.0,299.79938,69792.262,0.0,-0.16761027578269483,0.0,0.0,0.0,0.0,-4.748558495446236,-10.35983480568609,-6.106712039385554,0.007880914281710682,-0.02862122288569477,-1.135180665358609
16762,1.0,300.00752,69874.351,0.0,-0.16762027177011407,0.0,0.0,0.0,0.0,-4.7591724928937555,-10.36914860060529,-6.111736543981435,-0.0007047385466522793,-0.023648241044149677,-1.1144915168667489
16763,1.0,299.51807,69952.342,0.0,-0.1676302677575333,0.0,0.0,0.0,0.0,-4.7587990089068954,-10.35226177443869,-6.152704575999665,0.013005708447313486,0.00968236514970004,-1.109975663821069
16764,1.0,299.54922999999997,69897.458,0.0,-0.16764026374495267,0.0,0.0,0.0,0.0,-4.7451270226575755,-10.35875772082979,-6.143197047661344,0.014920459320284685,-0.0020984141059723484,-1.086913990220059
16765,1.0,300.13768,69810.446,0.0,-0.16765025973237202,0.0,0.0,0.0,0.0,-4.7242076637429955,-10.34494104246619,-6.151483508304154,-0.005230097296820415,0.0019461665909966883,-1.109754369999229
16766,1.0,300.76512,69787.683,0.0,-0.16766025571979137,0.0,0.0,0.0,0.0,-4.745330381952646,-10.34229645970519,-6.1260865971976735,-0.010742959867247591,0.007995114660731384,-1.1013909023488189
16767,1.0,299.89745,69943.054,0.0,-0.16767025170721073,0.0,0.0,0.0,0.0,-4.736886867544335,-10.37992856841919,-6.144125995353024,-0.005717322660405814,0.012129808451368887,-1.1247630357804688
16768,1.0,299.86496,70048.902,0.0,-0.16768024769462986,0.0,0.0,0.0,0.0,-4.750343538147405,-10.36974844466449,-6.173025104105144,-0.008523080480362552,-0.015093144495077386,-1.1045869971392488
16769,1.0,299.62969,70018.532,0.0,-0.1676902436820492,0.0,0.0,0.0,0.0,-4.724792106400676,-10.38442537236299,-6.174667785167264,-0.012019693496751388,-0.02278722670542418,-1.1220765044653291
16770,1.0,299.59227000000004,69927.266,0.0,-0.16770027265952603,0.0,0.0,0.0,0.0,-4.727897110007116,-10.37101500728949,-6.157231169496404,-0.004520584214371926,-0.018137799938811483,-1.1147989369470888
16771,1.0,299.47762,69899.129,0.0,-0.16771026864694527,0.0,0.0,0.0,0.0,-4.737918558796155,-10.36793776673579,-6.141733813191935,-0.005581636414339625,0.009491778581415611,-1.128035225653409
16772,1.0,299.25954,69886.94900000001,0.0,-0.16772026463436474,0.0,0.0,0.0,0.0,-4.766260987943336,-10.372229894159391,-6.105396334130703,0.004262224690623826,0.007857863753860772,-1.122598632241859
16773,1.0,299.51145,69881.21,0.0,-0.16773026062178398,0.0,0.0,0.0,0.0,-4.732793438465346,-10.36846263028759,-6.140886229483285,0.014928559241584087,-0.0017940941656383082,-1.131366082707139
16774,1.0,300.33549,69871.417,0.0,-0.16774025660920333,0.0,0.0,0.0,0.0,-4.735597810767115,-10.38521976044139,-6.118348811484014,0.0026592330402208674,-0.004876747298722485,-1.141265738834159
16775,1.0,300.03775,69840.009,0.0,-0.16775025259662257,0.0,0.0,0.0,0.0,-4.710083666624065,-10.36277829722659,-6.156756968449604,-0.012606562888420887,0.0008799859877678552,-1.1191432467508389
16776,1.0,300.13184,69882.883,0.0,-0.16776024858404182,0.0,0.0,0.0,0.0,-4.736210624427596,-10.365407681236091,-6.141033150747784,-0.00924260011682361,-0.01983763641257228,-1.132430096637149
16777,1.0,300.53955,69914.484,0.0,-0.16777024457146117,0.0,0.0,0.0,0.0,-4.732063189118276,-10.36798234974019,-6.152211528501003,-0.011946192334497388,0.003878906300943246,-1.1227988504616189
16778,1.0,300.02165,69989.37,0.0,-0.16778027354893799,0.0,0.0,0.0,0.0,-4.771155593876395,-10.37534259846659,-6.128523261038154,0.0037116076650071566,0.013914588720762988,-1.122320900389449
16779,1.0,299.77772999999996,70182.51299999999,0.0,-0.16779026953635723,0.0,0.0,0.0,0.0,-4.760759242550355,-10.39049271396179,-6.182478930188164,0.03949811921741086,0.013438211212748187,-1.1023430534677887
16780,1.0,299.92525,70088.057,0.0,-0.1678002655237767,0.0,0.0,0.0,0.0,-4.773651532847725,-10.37487143717009,-6.156496664498914,-0.01106106061689169,0.011746375361776988,-1.1007535680359188
16781,1.0,299.71692,70034.82,0.0,-0.16781026151119582,0.0,0.0,0.0,0.0,-4.725699877165265,-10.39092841150479,-6.172208019224503,0.011785663121154389,-0.008043593814415903,-1.105890644717909
16782,1.0,300.01097999999996,70151.083,0.0,-0.1678202574986153,0.0,0.0,0.0,0.0,-4.764121003732136,-10.392457405905692,-6.167599149819644,-0.0013152614513061987,-0.008743334099649893,-1.119049217141559
16783,1.0,300.10823,70104.33099999999,0.0,-0.16783025348603453,0.0,0.0,0.0,0.0,-4.752470654082336,-10.39985717138599,-6.157638293386585,0.004538648335829716,0.017847247432886182,-1.1333408058270291
16784,1.0,300.04188999999997,69866.003,0.0,-0.16784024947345377,0.0,0.0,0.0,0.0,-4.765018236695686,-10.37294018247949,-6.099561938729894,-0.009674521175375901,-0.0030788741155112166,-1.1289852489471688
16785,1.0,300.40801,69892.288,0.0,-0.16785024546087324,0.0,0.0,0.0,0.0,-4.735754965857625,-10.37669224759979,-6.133063634736254,0.0031312295587782968,-0.002682036841671427,-1.1323843990576388
16786,1.0,300.22246,69903.16,0.0,-0.16786027443834994,0.0,0.0,0.0,0.0,-4.757137886692955,-10.36522326971789,-6.126454103008943,0.006627343042867834,0.003360829295663027,-1.1081227333631989
16787,1.0,300.11293,70005.137,0.0,-0.16787027042576919,0.0,0.0,0.0,0.0,-4.710327758573156,-10.38377891879919,-6.1857075503068035,0.027096191305935872,-0.00867122787880856,-1.1207779231371688
16788,1.0,300.96095,70223.007,0.0,-0.16788026641318865,0.0,0.0,0.0,0.0,-4.754776912634946,-10.40247540964439,-6.188788438560864,0.005143318707906035,-0.006246867123692785,-1.1095511120291688
16789,1.0,300.30895,70138.36,0.0,-0.16789026240060778,0.0,0.0,0.0,0.0,-4.745434544062925,-10.39945896409669,-6.175416273016134,0.004141371311446526,-0.019197261336122182,-1.125721165075029
16790,1.0,299.99376,70132.897,0.0,-0.16790025838802725,0.0,0.0,0.0,0.0,-4.770459896357736,-10.396166914521789,-6.152022557357354,-0.006622723838311953,-0.004274066949842566,-1.092111253957989
16791,1.0,300.54998,70267.637,0.0,-0.1679102543754465,0.0,0.0,0.0,0.0,-4.773418890624765,-10.40790541693029,-6.178282960199054,-0.0024676476099878574,0.011642635776788689,-1.105041743784129
16792,1.0,299.84292,70233.417,0.0,-0.16792025036286573,0.0,0.0,0.0,0.0,-4.782531555399116,-10.39020089793299,-6.176472890220414,-0.013283399769719487,-0.00022754976981241378,-1.0927047145415592
16793,1.0,299.81916,69956.536,0.0,-0.1679302463502852,0.0,0.0,0.0,0.0,-4.720709012472705,-10.379347976111891,-6.1649833433614845,-0.002028685679140688,0.0032350223393968467,-1.1296686861396188
16794,1.0,300.2053,69923.148,0.0,-0.1679402753277619,0.0,0.0,0.0,0.0,-4.733772744686995,-10.38096917627189,-6.140149191360544,0.0018336089943631183,0.004281326988134076,-1.1033872076958389
16795,1.0,299.96551,70136.445,0.0,-0.16795027131518114,0.0,0.0,0.0,0.0,-4.781326801030216,-10.386516720569391,-6.151884248718704,0.015633542184160486,0.009239832120200431,-1.1353289038482388
16796,1.0,299.50948,70267.67599999999,0.0,-0.1679602673026005,0.0,0.0,0.0,0.0,-4.805905006055895,-10.40145506679369,-6.152259151255704,0.007564566961364633,0.001304602161579209,-1.1093111744054889
16797,1.0,300.19872999999995,70182.989,0.0,-0.16797026329001985,0.0,0.0,0.0,0.0,-4.766702866311945,-10.40539053018209,-6.161782080995544,0.002471326822425968,-0.01118664891378629,-1.1262451167017389
16798,1.0,300.11897999999997,70169.938,0.0,-0.1679802592774392,0.0,0.0,0.0,0.0,-4.752833397618136,-10.39583051548859,-6.181245095541394,-0.01064058614339409,-0.010314398644701891,-1.081669103727429
16799,1.0,300.06614,70221.994,0.0,-0.16799025526485845,0.0,0.0,0.0,0.0,-4.715909854699065,-10.424659507333791,-6.205163370776944,-0.00962291675308294,-0.01945152327646588,-1.135622138427179
16800,1.0,300.35199,70334.55,0.0,-0.1680002512522777,0.0,0.0,0.0,0.0,-4.761856795058675,-10.42207571957879,-6.196014228998994,0.005800709090635415,0.0005994059805192644,-1.117169334231029
16801,1.0,300.47803,70223.131,0.0,-0.16801024723969704,0.0,0.0,0.0,0.0,-4.765299818898475,-10.41394033452589,-6.166838300319554,-0.005465209418224175,0.008410599688086563,-1.150612667031629
16802,1.0,300.44885,69996.80099999999,0.0,-0.16802027621717386,0.0,0.0,0.0,0.0,-4.756494675529475,-10.39364088202249,-6.127144025002035,0.0025905558603679575,0.02106326170703208,-1.111274549124259
16803,1.0,299.57387,69987.823,0.0,-0.1680302722045931,0.0,0.0,0.0,0.0,-4.744867427981955,-10.38993542640679,-6.139747539020903,-0.007877602372433823,0.008084102134863764,-1.1354200963572387
16804,1.0,299.01948,70193.927,0.0,-0.16804026819201245,0.0,0.0,0.0,0.0,-4.771813091866285,-10.40128281427669,-6.164104855524784,-0.002069026408022008,0.013069100413319787,-1.1338266592499788
16805,1.0,299.04846000000003,70276.887,0.0,-0.1680502641794318,0.0,0.0,0.0,0.0,-4.754592906416786,-10.42202404382369,-6.185802187866144,0.006247637801718844,-0.007024917658805393,-1.135436004383809
16806,1.0,299.85684,70104.064,0.0,-0.16806026016685116,0.0,0.0,0.0,0.0,-4.7631085642322155,-10.40332046022779,-6.143456237036924,-0.006986899400478284,-0.004759497138225796,-1.1309455839156388
16807,1.0,299.50125,70039.977,0.0,-0.1680702561542703,0.0,0.0,0.0,0.0,-4.751928565278836,-10.41515116839539,-6.123324680075094,-0.0029060246928773073,-0.009905415237938371,-1.1425370637346288
16808,1.0,299.96111,70216.92,0.0,-0.16808025214168965,0.0,0.0,0.0,0.0,-4.783034127448715,-10.41418554105009,-6.146970796333784,0.005426283287807465,-0.012525227276393687,-1.1299744850197988
16809,1.0,299.96625,70349.227,0.0,-0.168090248129109,0.0,0.0,0.0,0.0,-4.764599359104345,-10.430336747644091,-6.189472078403335,0.02046318156055878,0.01018036794797409,-1.1125192255470988
16810,1.0,300.37476000000004,70297.22099999999,0.0,-0.16810027710658582,0.0,0.0,0.0,0.0,-4.740970366772346,-10.42218109758919,-6.205448398030074,-0.011236292089185689,-0.005899933227878074,-1.120162981651479
16811,1.0,300.26966,70198.585,0.0,-0.16811027309400506,0.0,0.0,0.0,0.0,-4.7122588106137355,-10.41443682707489,-6.211921140993884,-0.0018321433280934682,-0.0045870911138356455,-1.117694907057899
16812,1.0,300.67294,70232.584,0.0,-0.1681202690814244,0.0,0.0,0.0,0.0,-4.763850567280445,-10.41495662437619,-6.170144130095815,-0.027394681613144574,0.0005195365211217625,-1.127784851553699
16813,1.0,299.75899,70365.647,0.0,-0.16813026506884365,0.0,0.0,0.0,0.0,-4.786629949403595,-10.42243542336429,-6.180333778401454,0.00930542273759872,-0.008575202369481581,-1.099511627388349
16814,1.0,299.93523999999996,70452.26400000001,0.0,-0.16814026105626312,0.0,0.0,0.0,0.0,-4.819386095986375,-10.42361079348029,-6.172732477476264,0.0002909780810998007,-0.011942378461120989,-1.111047277126829
16815,1.0,299.88824,70358.427,0.0,-0.16815025704368236,0.0,0.0,0.0,0.0,-4.777696427246926,-10.42166940628869,-6.187838921892153,0.014807125270099487,0.000879804372819931,-1.106526965780709
16816,1.0,299.77815,70207.91900000001,0.0,-0.1681602530311016,0.0,0.0,0.0,0.0,-4.747861480702446,-10.40959754459729,-6.183995765587865,0.0077439317847915615,0.009517099093464551,-1.122996434231119
16817,1.0,298.96872,70276.25099999999,0.0,-0.16817024901852096,0.0,0.0,0.0,0.0,-4.753991339832416,-10.43555903865949,-6.172675330170623,-0.008804727024533903,0.011902356095421089,-1.117661976429649
16818,1.0,299.54542999999995,70450.44900000001,0.0,-0.1681802450059402,0.0,0.0,0.0,0.0,-4.819028925326125,-10.41759006138609,-6.178558158926214,-0.004844243856714645,-0.0061356700179684845,-1.1276402607644291
16819,1.0,299.35407000000004,70357.32,0.0,-0.16819027398341702,0.0,0.0,0.0,0.0,-4.774642187470496,-10.43788951388949,-6.174336756359594,-0.01179036662811859,0.0038176508740978064,-1.138740922234979
16820,1.0,300.48986,70160.61200000001,0.0,-0.16820026997083648,0.0,0.0,0.0,0.0,-4.755739094929905,-10.40530237742339,-6.166032462515024,-0.02248935346752638,-0.002341546405892638,-1.1080484621308688
16821,1.0,300.01527999999996,70225.954,0.0,-0.1682102659582556,0.0,0.0,0.0,0.0,-4.716826035439485,-10.40705226034609,-6.223058380793044,-0.02225674062881928,-0.015905502564000883,-1.0961534125819188
16822,1.0,299.78625,70439.13799999999,0.0,-0.16822026194567496,0.0,0.0,0.0,0.0,-4.754328448140686,-10.43491055859549,-6.222500586612995,0.0012662131550405088,-0.007670606928054963,-1.097999452939109
16823,1.0,300.24662,70445.656,0.0,-0.16823025793309432,0.0,0.0,0.0,0.0,-4.778712818422235,-10.42461391107929,-6.210393565143123,0.015266829747718787,0.02781404455128247,-1.118542490766549
16824,1.0,300.52947,70351.858,0.0,-0.16824025392051345,0.0,0.0,0.0,0.0,-4.804888513555575,-10.423069717926891,-6.157249914623254,0.03208510447880327,0.01244901465687209,-1.1071605510682387
16825,1.0,300.08468999999997,70344.233,0.0,-0.16825024990793291,0.0,0.0,0.0,0.0,-4.794337945564315,-10.439190527017889,-6.149361965244774,0.01118406715253149,-0.00944228070608055,-1.122815366438249
16826,1.0,300.22125,70589.607,0.0,-0.16826024589535216,0.0,0.0,0.0,0.0,-4.813550079385405,-10.44494376108569,-6.198984369017124,-5.632920548275975e-05,-0.011612174439032388,-1.106611572164059
16827,1.0,299.94998,70582.925,0.0,-0.16827027487282897,0.0,0.0,0.0,0.0,-4.769961985258596,-10.463079924625589,-6.2224044291785034,0.01018667644309669,0.0017471769369829383,-1.1389720445827887
16828,1.0,299.62617,70327.16900000001,0.0,-0.16828027086024833,0.0,0.0,0.0,0.0,-4.746153039708836,-10.44269333261359,-6.1888566302925945,-0.002887719519220727,-0.00028908008127748267,-1.133944905536649
16829,1.0,299.85622,70164.49799999999,0.0,-0.16829026684766757,0.0,0.0,0.0,0.0,-4.753253997734645,-10.42690182980509,-6.148099759595204,-0.025854017610842876,0.003170241207503447,-1.145386221690819
16830,1.0,299.77643,70304.219,0.0,-0.16830026283508692,0.0,0.0,0.0,0.0,-4.7947415230791455,-10.43020907813149,-6.145776174465885,-0.005792546145179795,-0.007996504130593513,-1.1352775320681687
16831,1.0,299.64607,70387.24799999999,0.0,-0.16831025882250628,0.0,0.0,0.0,0.0,-4.789506971737535,-10.42513269513049,-6.181326155549394,0.011506156054569188,0.00910743123625848,-1.123404064746349
16832,1.0,299.69607,70417.806,0.0,-0.1683202548099254,0.0,0.0,0.0,0.0,-4.7613192658806245,-10.45061998814589,-6.193315032057604,0.008837846826577572,0.0021284288030845684,-1.105838259687739
16833,1.0,299.87731,70436.379,0.0,-0.16833025079734487,0.0,0.0,0.0,0.0,-4.738743243052546,-10.45648467972469,-6.215672800814144,-0.015226664513754788,-0.023460732020393976,-1.1153813531045689
16834,1.0,299.83091,70487.341,0.0,-0.1683402467847641,0.0,0.0,0.0,0.0,-4.782941313739555,-10.44463066680479,-6.198819310575835,0.000861518906877796,-0.028217287693579476,-1.131297283025349
16835,1.0,300.06694,70548.703,0.0,-0.16835027576224093,0.0,0.0,0.0,0.0,-4.807959370633645,-10.46278202909619,-6.174302812481244,-0.01054799737575629,0.026295511957664976,-1.1454507657221888
16836,1.0,300.47961000000004,70479.48,0.0,-0.16836027174966028,0.0,0.0,0.0,0.0,-4.830436500251966,-10.44215732331069,-6.151407919846694,0.03132305123759447,0.018900232135557683,-1.1404811792817289
16837,1.0,300.08071,70350.984,0.0,-0.16837026773707964,0.0,0.0,0.0,0.0,-4.789227517359955,-10.43687322403919,-6.158841831855365,0.007654465144686893,-0.0026581436950383576,-1.1404081239495187
16838,1.0,300.34315,70325.584,0.0,-0.168380263724499,0.0,0.0,0.0,0.0,-4.760988439722975,-10.44149161799499,-6.174742056399594,0.013081046631998789,-0.013496530848753886,-1.137870337749059
16839,1.0,300.23634,70438.833,0.0,-0.16839025971191812,0.0,0.0,0.0,0.0,-4.746376866655925,-10.437704089121189,-6.227565925187903,0.00970477033856126,0.001025600605468899,-1.115891625854929
16840,1.0,299.75926,70529.797,0.0,-0.16840025569933748,0.0,0.0,0.0,0.0,-4.7866542674059955,-10.46052653437359,-6.192116661164334,-0.004886345208969725,-0.01012991052479433,-1.121732506056379
16841,1.0,299.84792999999996,70550.086,0.0,-0.16841025168675683,0.0,0.0,0.0,0.0,-4.788970455809586,-10.456758257251689,-6.199735896616294,-0.023355500931258478,-0.013583023903790088,-1.1081013537860889
16842,1.0,299.92914,70597.853,0.0,-0.16842024767417607,0.0,0.0,0.0,0.0,-4.824238044090226,-10.45408732998809,-6.181659312182274,-0.016380941802423086,-0.005566254973846595,-1.1125135513465387
16843,1.0,299.7468,70679.266,0.0,-0.1684302766516529,0.0,0.0,0.0,0.0,-4.791379559247345,-10.46727478003959,-6.226077055490964,0.0072799300121731535,0.029894702969127475,-1.094874488305699
16844,1.0,300.03303999999997,70625.93,0.0,-0.16844027263907224,0.0,0.0,0.0,0.0,-4.7946220608923555,-10.45973923904589,-6.214157687939614,0.01096754776516269,0.0013954660735717786,-1.101200208679999
16845,1.0,300.26218,70501.345,0.0,-0.16845026862649148,0.0,0.0,0.0,0.0,-4.744266469347646,-10.458505100424091,-6.227876587668565,0.008118528624236393,0.008960425872000181,-1.1040695303131791
16846,1.0,299.83521,70465.177,0.0,-0.16846026461391095,0.0,0.0,0.0,0.0,-4.797783806504396,-10.456149293941591,-6.165721090759294,0.0003784539887330007,0.003336287668965957,-1.118854065172299
16847,1.0,299.94272,70489.657,0.0,-0.16847026060133008,0.0,0.0,0.0,0.0,-4.7871469096046155,-10.447898398377289,-6.192050394607794,-0.0001072392292436879,0.027712912058801473,-1.118110136948879
16848,1.0,300.21549,70633.037,0.0,-0.16848025658874943,0.0,0.0,0.0,0.0,-4.828270171538166,-10.46644898120809,-6.175959983019794,-0.017487934761924784,-0.006605168064429333,-1.114391813056909
16849,1.0,300.39283,70684.728,0.0,-0.1684902525761688,0.0,0.0,0.0,0.0,-4.780953418368365,-10.46587852140179,-6.239560475896674,-0.00996287584050929,-0.014353336146563986,-1.122445023526699
16850,1.0,299.58695,70504.823,0.0,-0.16850024856358803,0.0,0.0,0.0,0.0,-4.776976817025905,-10.462322013550791,-6.192406653342953,-0.011178478064979888,-0.021418240707315777,-1.115555024171709
16851,1.0,300.1099,70461.98599999999,0.0,-0.16851027754106473,0.0,0.0,0.0,0.0,-4.759949757045465,-10.454783432806789,-6.2039517263073645,0.005680883755009574,-0.0008249523522339583,-1.121453862278879
16852,1.0,299.75591000000003,70554.909,0.0,-0.1685202735284842,0.0,0.0,0.0,0.0,-4.810836392967586,-10.45264142209539,-6.183452663534265,0.017327187699810283,-0.019260535765116882,-1.1121048062561991
16853,1.0,300.21731,70685.411,0.0,-0.16853026951590344,0.0,0.0,0.0,0.0,-4.8026966509392555,-10.47609005590959,-6.207813222438464,0.018002602991218582,-0.004910420740620795,-1.139646362524339
16854,1.0,300.29646,70664.913,0.0,-0.1685402655033228,0.0,0.0,0.0,0.0,-4.814904896094116,-10.46860416417079,-6.196859887532454,0.02012848782727708,-0.004869046901937515,-1.123073035938679
16855,1.0,299.38088,70485.285,0.0,-0.16855026149074215,0.0,0.0,0.0,0.0,-4.750170475030325,-10.460544772875389,-6.215051577177835,-0.0066342663781511135,0.018254460489074982,-1.121877603470699
16856,1.0,299.45221000000004,70609.78,0.0,-0.16856025747816128,0.0,0.0,0.0,0.0,-4.784044945748475,-10.484243679464289,-6.195321469905624,-0.015188410269479383,-0.007026328001619583,-1.112226902893249
16857,1.0,299.59117000000003,70740.731,0.0,-0.16857025346558074,0.0,0.0,0.0,0.0,-4.800713213868505,-10.47180198148639,-6.2309009365670445,-0.009813269260594271,-0.002180317543355588,-1.127868343361939
16858,1.0,300.02459,70732.311,0.0,-0.168580249453,0.0,0.0,0.0,0.0,-4.819628364085285,-10.492780311556789,-6.188447885202254,0.00027371105309817776,0.0046012672933347255,-1.128336667558159
16859,1.0,300.06955,70613.668,0.0,-0.16859024544041945,0.0,0.0,0.0,0.0,-4.812910110622245,-10.47856542590389,-6.173316312183885,-0.005113372709150596,0.017616353066348685,-1.122424859849709
16860,1.0,299.93561,70617.883,0.0,-0.16860027441789616,0.0,0.0,0.0,0.0,-4.817943126518966,-10.47257711781289,-6.175553163104643,-0.0014237932026424486,-0.018501604347466182,-1.128692622318289
16861,1.0,300.17794,70672.91,0.0,-0.1686102704053154,0.0,0.0,0.0,0.0,-4.794393066369755,-10.48126371092019,-6.2071432614723445,-0.008903489525031002,0.0045121366469632156,-1.145226026850009
16862,1.0,300.92415,70672.01299999999,0.0,-0.16862026639273475,0.0,0.0,0.0,0.0,-4.793773767908635,-10.47394601869799,-6.214807282578724,0.013206260026356385,-0.017581087909868284,-1.1424920754301888
16863,1.0,300.26928,70597.43400000001,0.0,-0.1686302623801541,0.0,0.0,0.0,0.0,-4.786858437301145,-10.46678031399079,-6.206218468106074,0.001123064625962849,-0.012660447528738888,-1.136263829715509
16864,1.0,300.08867999999995,70597.322,0.0,-0.16864025836757324,0.0,0.0,0.0,0.0,-4.801735076594355,-10.46230681479929,-6.195780978825974,-0.004204157049917996,-0.013600116419726988,-1.139900282999399
16865,1.0,299.68063,70711.064,0.0,-0.1686502543549927,0.0,0.0,0.0,0.0,-4.813602971040625,-10.46804485011559,-6.212749979575684,3.568680328426326e-05,-0.004875676799991836,-1.124028226807949
16866,1.0,299.56798,70775.681,0.0,-0.16866025034241194,0.0,0.0,0.0,0.0,-4.815768083854305,-10.48458717124819,-6.213684196167884,0.004504991004607995,0.010053310033134451,-1.125031851031999
16867,1.0,300.07807,70882.866,0.0,-0.1686702463298313,0.0,0.0,0.0,0.0,-4.794382528568716,-10.50164523668169,-6.250593756235574,-0.00942700363034782,0.027024870657897077,-1.111890402535039
16868,1.0,300.07439,70767.161,0.0,-0.16868027530730811,0.0,0.0,0.0,0.0,-4.788866293699305,-10.50125209564289,-6.221331599972624,-0.0040009474118877664,0.004346426584533906,-1.112956746940279
16869,1.0,300.05557000000005,70714.943,0.0,-0.16869027129472736,0.0,0.0,0.0,0.0,-4.7842933946729955,-10.50308810482409,-6.208195927001235,-0.025243490855838577,0.02118628648117368,-1.1115955467559389
16870,1.0,300.84797000000003,70790.875,0.0,-0.1687002672821467,0.0,0.0,0.0,0.0,-4.821821341276715,-10.49338218211619,-6.203454828458324,-0.014297209183774685,0.005852632889359895,-1.1213642909700388
16871,1.0,300.43612,70850.916,0.0,-0.16871026326956595,0.0,0.0,0.0,0.0,-4.822850296753266,-10.50125513539319,-6.212803377855954,0.0030503286310439967,-0.001233630780849879,-1.120868507696109
16872,1.0,300.5796,70640.422,0.0,-0.1687202592569852,0.0,0.0,0.0,0.0,-4.788271515890605,-10.48455373399489,-6.200099653402194,-0.008144020578202252,-0.0077266669150126525,-1.135145404255129
16873,1.0,300.04898,70465.39,0.0,-0.16873025524440466,0.0,0.0,0.0,0.0,-4.750900217752346,-10.466914063003989,-6.201904859780353,0.011419504932517388,-0.006474025130486534,-1.1304384522405888
16874,1.0,300.31566000000004,70624.709,0.0,-0.1687402512318239,0.0,0.0,0.0,0.0,-4.781420526664466,-10.479661762512091,-6.2070656465146845,0.01035015928048119,-0.011325002135440689,-1.1289317493418887
16875,1.0,299.66679,70917.522,0.0,-0.16875024721924325,0.0,0.0,0.0,0.0,-4.807749627862945,-10.50569114433099,-6.243715510581745,0.02232886579743748,0.012254811089705686,-1.117716286635009
16876,1.0,299.28263,70940.157,0.0,-0.16876027619672007,0.0,0.0,0.0,0.0,-4.830927723900445,-10.50566581307849,-6.227442511325724,-0.002092791175867408,-0.008122211788349893,-1.122486668105809
16877,1.0,299.34364,70887.32,0.0,-0.1687702721841392,0.0,0.0,0.0,0.0,-4.810918364900675,-10.50838942934729,-6.2286677333466445,-0.004738331458211905,-0.006197831898353384,-1.1101238009856889
16878,1.0,299.59788,70769.561,0.0,-0.16878026817155878,0.0,0.0,0.0,0.0,-4.791716768880625,-10.49432450470919,-6.226138154471994,-0.015393282346948686,-0.0018017278905666984,-1.109684658392349
16879,1.0,300.122,70855.832,0.0,-0.1687902641589779,0.0,0.0,0.0,0.0,-4.795800470758655,-10.503014137566788,-6.239588846899474,0.0099022055655966,0.012723734116734789,-1.110871782209509
16880,1.0,300.48269,70966.152,0.0,-0.16880026014639726,0.0,0.0,0.0,0.0,-4.831631730069925,-10.51083946808909,-6.229467491650574,0.001001973720697107,-0.003459759793026707,-1.1224803859551888
16881,1.0,299.91988,70751.318,0.0,-0.16881025613381662,0.0,0.0,0.0,0.0,-4.809503665111055,-10.48722871425889,-6.209902240169635,0.008490718994693723,-0.0002129673479507408,-1.1246475252690689
16882,1.0,299.64886,70635.007,0.0,-0.16882025212123586,0.0,0.0,0.0,0.0,-4.790116846972725,-10.49644219741819,-6.184719023509245,0.0033707066602878463,0.0030869523532584767,-1.1334990754926488
16883,1.0,300.61561,70851.993,0.0,-0.1688302481086552,0.0,0.0,0.0,0.0,-4.821980522867425,-10.49568833934379,-6.219568139498585,0.03035164330047397,0.012453971476361288,-1.1188583208227187
16884,1.0,299.82838,70989.99799999999,0.0,-0.16884027708613203,0.0,0.0,0.0,0.0,-4.809627078973236,-10.517307043477391,-6.252252953274324,0.004581386921072685,0.002841031690387997,-1.1317821231981988
16885,1.0,300.28177,70938.11,0.0,-0.16885027307355127,0.0,0.0,0.0,0.0,-4.811669081899765,-10.51824328656979,-6.233501442948694,-0.017433376310290283,-0.00841270907214474,-1.1144109634837989
16886,1.0,299.50903,70859.773,0.0,-0.16886026906097062,0.0,0.0,0.0,0.0,-4.806968108060816,-10.50643183015409,-6.2262016852532645,-0.013502772469369886,-0.0048755101203503855,-1.1288680159105988
16887,1.0,300.25037000000003,70961.622,0.0,-0.16887026504838987,0.0,0.0,0.0,0.0,-4.833614153890575,-10.52037415153009,-6.216572465577935,-0.002130815513695118,0.021707474974860978,-1.136031998092629
16888,1.0,299.83445,71037.142,0.0,-0.1688802610358091,0.0,0.0,0.0,0.0,-4.834426071195705,-10.52884897536649,-6.230241716051984,-0.008035560868948112,-0.005863465242203964,-1.1477595574000488
16889,1.0,299.53886,70881.688,0.0,-0.16889025702322857,0.0,0.0,0.0,0.0,-4.816174295819396,-10.51501000550069,-6.215079036255544,0.0066086652971494835,-0.028187583253647876,-1.145679152294729
16890,1.0,298.85635,70665.523,0.0,-0.1689002530106477,0.0,0.0,0.0,0.0,-4.748177108108596,-10.51289940554239,-6.219478264214715,-0.01117193044283369,0.003196187502814147,-1.149086003105959
16891,1.0,299.15821,70630.975,0.0,-0.16891024899806717,0.0,0.0,0.0,0.0,-4.764628338057205,-10.498660201887091,-6.206764204609935,0.014331437785402787,-0.002871644205059217,-1.144447850773209
16892,1.0,299.62158,70812.73,0.0,-0.16892027797554388,0.0,0.0,0.0,0.0,-4.786396293930536,-10.51258631126149,-6.2263192222648645,0.0033671484299116765,-0.001001685633428675,-1.139312901916429
16893,1.0,300.71578,71003.349,0.0,-0.16893027396296323,0.0,0.0,0.0,0.0,-4.843603280001425,-10.52262559325229,-6.217015762496684,-0.006052992254858824,-0.0033737124667094966,-1.138212512307829
16894,1.0,299.48474,70892.254,0.0,-0.16894026995038258,0.0,0.0,0.0,0.0,-4.817785363478395,-10.52177243666809,-6.209917438921134,0.007892907413869311,0.002442663800947148,-1.1256372679667488
16895,1.0,299.52808999999996,70949.396,0.0,-0.16895026593780182,0.0,0.0,0.0,0.0,-4.8191879042668155,-10.529507587931489,-6.2181495893585845,-0.0035750008812251164,0.014639462776052487,-1.124432006972799
16896,1.0,300.08903,71135.821,0.0,-0.16896026192522107,0.0,0.0,0.0,0.0,-4.817239019024475,-10.534067213381489,-6.272206887493624,-0.014177231252683787,0.01283902981911359,-1.118987611535479
16897,1.0,300.23419,71140.379,0.0,-0.16897025791264053,0.0,0.0,0.0,0.0,-4.838424862715355,-10.525407978026891,-6.261066303969135,-0.007214632426703784,-0.0004916637029984296,-1.100388494024889
16898,1.0,300.41924,70980.398,0.0,-0.16898025390005977,0.0,0.0,0.0,0.0,-4.819646298612056,-10.522639778753689,-6.233982736746194,-0.01854610831835838,0.019299575278219783,-1.120161664426349
16899,1.0,300.45563,70977.958,0.0,-0.16899024988747913,0.0,0.0,0.0,0.0,-4.847707753506505,-10.50714110522409,-6.220678154983134,-0.006163475728537694,0.0029518193417468874,-1.104507558331409
16900,1.0,299.82797999999997,71024.868,0.0,-0.16900024587489837,0.0,0.0,0.0,0.0,-4.841550131323795,-10.51590470533899,-6.232331645708244,0.0007978026197794883,-0.017538771545941984,-1.1371462692275989
16901,1.0,299.86101,71048.259,0.0,-0.1690102748523752,0.0,0.0,0.0,0.0,-4.834589812411866,-10.51936596768059,-6.242940779555284,0.012929076342250488,-0.018862653729098983,-1.104243100055309
16902,1.0,299.74487999999997,71059.675,0.0,-0.16902027083979454,0.0,0.0,0.0,0.0,-4.797881382489026,-10.53244702647159,-6.270038329629603,0.01720141600464758,-0.008678730286523991,-1.1384264094039387
16903,1.0,299.42761,71091.368,0.0,-0.16903026682721378,0.0,0.0,0.0,0.0,-4.824227202314155,-10.54784032199079,-6.237933094911065,0.015926987519121284,-0.007793007641459972,-1.098401105278749
16904,1.0,299.80402999999995,71130.954,0.0,-0.16904026281463302,0.0,0.0,0.0,0.0,-4.837738689747636,-10.541873292151891,-6.242421286229014,-0.011479132674402188,0.001921398198927238,-1.1394828239581989
16905,1.0,300.16975,71074.645,0.0,-0.16905025880205238,0.0,0.0,0.0,0.0,-4.858596747031165,-10.53135170311349,-6.2149684906696345,-0.008722330843627033,-0.004869880502794786,-1.109691244517999
16906,1.0,300.13139,70972.936,0.0,-0.16906025478947173,0.0,0.0,0.0,0.0,-4.821967857241175,-10.54086105530199,-6.211171943869944,-0.008215091156116372,0.0060270610569746145,-1.147434608092979
16907,1.0,300.26039,71023.98,0.0,-0.16907025077689108,0.0,0.0,0.0,0.0,-4.810614288545666,-10.52851561608359,-6.250386242615094,-0.005181505368399766,0.0017153463943665084,-1.119915444652049
16908,1.0,300.41086,71055.642,0.0,-0.16908024676431033,0.0,0.0,0.0,0.0,-4.799298615403895,-10.53876058784469,-6.261081502720635,-0.022016718905380976,0.005187604120751665,-1.136992863162459
16909,1.0,300.21427,70947.693,0.0,-0.16909027574178703,0.0,0.0,0.0,0.0,-4.795278545632145,-10.522531360992991,-6.248516897505604,0.005527191548041334,-0.0019150668043523783,-1.115039077220789
16910,1.0,300.00825,70983.703,0.0,-0.1691002717292065,0.0,0.0,0.0,0.0,-4.810504553559836,-10.53406822663159,-6.232700671394665,0.0014823634153978786,0.0051764903883548255,-1.1315125986715988
16911,1.0,299.85335,71172.114,0.0,-0.16911026771662574,0.0,0.0,0.0,0.0,-4.848686046478055,-10.54728404768589,-6.238575698124484,0.014627806346902089,-0.009681660636905511,-1.1465881389594388
16912,1.0,299.64786000000004,71186.399,0.0,-0.16912026370404498,0.0,0.0,0.0,0.0,-4.859644447634565,-10.54354819456719,-6.235695332065214,0.005378941000735145,-0.013728135503611488,-1.1228348208401688
16913,1.0,299.82189,71063.118,0.0,-0.16913025969146434,0.0,0.0,0.0,0.0,-4.818250951899345,-10.55042208324559,-6.232740289473574,-0.007127370010866654,-0.00987015220928318,-1.1305097850476291
16914,1.0,300.40812999999997,71122.533,0.0,-0.1691402556788837,0.0,0.0,0.0,0.0,-4.8372334832477755,-10.530728554301989,-6.251511760826173,-0.001314441731975299,-0.007650153765511394,-1.1220681958145091
16915,1.0,300.77383,71201.398,0.0,-0.16915025166630304,0.0,0.0,0.0,0.0,-4.844361191076225,-10.53866534233529,-6.260420255705374,-0.004719059745284936,0.0006952074197191303,-1.1324406344381888
16916,1.0,299.60949,71034.03,0.0,-0.16916024765372228,0.0,0.0,0.0,0.0,-4.826658597254116,-10.55174234812589,-6.214170758865904,-0.014388016657736686,0.014765627612253987,-1.1467555278759591
16917,1.0,299.39847000000003,71003.921,0.0,-0.169170276631199,0.0,0.0,0.0,0.0,-4.832332595164096,-10.53120478184899,-6.2198819430545536,-0.009397573578543301,-0.0035680750128165867,-1.134595209450829
16918,1.0,299.65484,71099.392,0.0,-0.16918027261861845,0.0,0.0,0.0,0.0,-4.817112565411995,-10.55404546560319,-6.241282089141585,-0.008993036009243551,0.0005472722059765616,-1.139818311066309
16919,1.0,299.51467,71125.805,0.0,-0.1691902686060377,0.0,0.0,0.0,0.0,-4.8123939610213045,-10.566353414567889,-6.241721231734924,0.005068300912902355,-0.007946155429149483,-1.1226271045696687
16920,1.0,299.11455,71118.289,0.0,-0.16920026459345694,0.0,0.0,0.0,0.0,-4.7976765033188045,-10.55242223894299,-6.268085594036885,0.01871413051619088,-0.013955988093348788,-1.119791321514799
16921,1.0,300.38223,71156.704,0.0,-0.1692102605808764,0.0,0.0,0.0,0.0,-4.8222027286143545,-10.567619977192889,-6.240038628618865,0.009076742018554691,-0.0015136928045148487,-1.110541665326929
16922,1.0,299.87466,71076.527,0.0,-0.16922025656829554,0.0,0.0,0.0,0.0,-4.815637273266395,-10.53797734551739,-6.251874403036964,0.008050864187858432,0.0015184660230859284,-1.121721258980269
16923,1.0,299.71611,71179.129,0.0,-0.169230252555715,0.0,0.0,0.0,0.0,-4.855588508809276,-10.548728942328491,-6.232360118036054,0.01139074281517879,0.0006474682729801434,-1.130853276831529
16924,1.0,299.678,71286.356,0.0,-0.16924024854313424,0.0,0.0,0.0,0.0,-4.840688260788736,-10.56633922906649,-6.262244207210385,-0.001875644282711678,0.0005167118838179924,-1.147350305684659
16925,1.0,300.00093,71114.77900000001,0.0,-0.16925027752061095,0.0,0.0,0.0,0.0,-4.830484224331675,-10.53104975458369,-6.255583303703004,-0.004134688116436946,0.006326252127952474,-1.1236518043957988
16926,1.0,300.41002000000003,71077.711,0.0,-0.1692602735080304,0.0,0.0,0.0,0.0,-4.819290951801985,-10.56150906583979,-6.225049214589524,-0.021404457466205482,0.011161217349526388,-1.139931997727529
16927,1.0,300.31687,71107.25099999999,0.0,-0.16927026949544965,0.0,0.0,0.0,0.0,-4.831318331813995,-10.541347415349989,-6.242163515403574,-0.013389523532193089,0.007150741536348244,-1.137196526432559
16928,1.0,299.75875,71243.641,0.0,-0.1692802654828689,0.0,0.0,0.0,0.0,-4.8497082131789355,-10.56856229978589,-6.238017397319385,-0.005971298762896305,0.0027982274465385474,-1.128494835898769
16929,1.0,300.36225,71418.68400000001,0.0,-0.16929026147028825,0.0,0.0,0.0,0.0,-4.870096223741076,-10.58144374830719,-6.257956335437203,0.007985587880641163,-0.0008295727828224592,-1.127843214759459
16930,1.0,301.05752,71496.91900000001,0.0,-0.1693002574577075,0.0,0.0,0.0,0.0,-4.878576417803005,-10.55837913628089,-6.296322138548614,0.016594924011541484,-0.0069869085197291824,-1.0854749724280388
16931,1.0,300.99127999999996,71401.745,0.0,-0.16931025344512685,0.0,0.0,0.0,0.0,-4.8475976132206355,-10.57080360900709,-6.285946660174635,0.011401413351981887,-0.006919335073210204,-1.0906410280628889
16932,1.0,301.18892999999997,71311.351,0.0,-0.1693202494325462,0.0,0.0,0.0,0.0,-4.841893015157636,-10.55824640051779,-6.276730339915053,0.024060083640045374,-0.01259822789309829,-1.100786397339159
16933,1.0,300.8749,71420.483,0.0,-0.16933027841002302,0.0,0.0,0.0,0.0,-4.859762795246246,-10.567775004458191,-6.282505865485053,-0.0010219847211620388,-0.005244834816874895,-1.129615490509369
16934,1.0,299.76547,71409.705,0.0,-0.16934027439744237,0.0,0.0,0.0,0.0,-4.881383221905016,-10.57990867440569,-6.245474918055384,-0.008479072698044323,0.0055979701072766345,-1.1369504079832689
16935,1.0,299.62529,71186.232,0.0,-0.1693502703848616,0.0,0.0,0.0,0.0,-4.840477403442925,-10.55624421832019,-6.2421153860238245,-0.026757645195773977,-0.005570934061483385,-1.143891475143299
16936,1.0,299.8703,71075.457,0.0,-0.16936026637228085,0.0,0.0,0.0,0.0,-4.8187427834978855,-10.56939113836769,-6.217030251973115,-0.02522105344562418,0.007057380368159213,-1.1420652944880687
16937,1.0,300.40017,71281.339,0.0,-0.1693702623597002,0.0,0.0,0.0,0.0,-4.830998651407445,-10.57152909607869,-6.265218906853964,-0.01090230459122369,0.003491135386348237,-1.127395864840309
16938,1.0,300.44345,71384.85,0.0,-0.16938025834711945,0.0,0.0,0.0,0.0,-4.865433449430895,-10.57506939192809,-6.258708673636454,0.0006742112767119723,0.00017275998304758282,-1.125863932014119
16939,1.0,300.54053,71367.933,0.0,-0.16939025433453891,0.0,0.0,0.0,0.0,-4.8494269349511745,-10.58863681076709,-6.2560060316447235,-0.013728160834863987,0.010032254898706471,-1.1294619831192187
16940,1.0,300.13501,71336.345,0.0,-0.16940025032195816,0.0,0.0,0.0,0.0,-4.863662186931085,-10.57154530808029,-6.249260015128944,0.01048729356226529,-0.007823543149123592,-1.121257494409499
16941,1.0,299.94517,71282.59700000001,0.0,-0.1694102463093774,0.0,0.0,0.0,0.0,-4.831271823634405,-10.57411288383369,-6.262744550109764,0.009072020577063722,0.010436582421260492,-1.118401750327659
16942,1.0,299.37302999999997,71311.108,0.0,-0.16942027528685433,0.0,0.0,0.0,0.0,-4.840849266229625,-10.57636331230579,-6.259583615097804,0.010077162649763521,0.007920341768276872,-1.123732661753779
16943,1.0,299.77041,71330.15400000001,0.0,-0.16943027127427346,0.0,0.0,0.0,0.0,-4.847949717630386,-10.555095192706789,-6.279540589067404,-0.0016073344403315585,-0.006905465503191384,-1.1136105972298092
16944,1.0,299.4641,71194.022,0.0,-0.1694402672616928,0.0,0.0,0.0,0.0,-4.847020668613696,-10.56846806752659,-6.2257166424303945,-0.0087526946053987,-0.008898084848997602,-1.138567453817859
16945,1.0,299.95671,71196.908,0.0,-0.16945026324911217,0.0,0.0,0.0,0.0,-4.833545252883775,-10.57502784867399,-6.233509346299473,-0.006581286570172413,-0.004751735642459795,-1.1489033141129288
16946,1.0,300.47825,71527.333,0.0,-0.16946025923653152,0.0,0.0,0.0,0.0,-4.885508467037145,-10.60000649013919,-6.257007832018594,0.019415595454420082,-0.014824146858529383,-1.1375433619417887
16947,1.0,299.96682000000004,71661.795,0.0,-0.16947025522395087,0.0,0.0,0.0,0.0,-4.872146130018386,-10.599716700610589,-6.311533251699834,0.0020485557162517078,-0.009810100624881551,-1.114469529339579
16948,1.0,300.26962000000003,71467.11099999999,0.0,-0.16948025121137,0.0,0.0,0.0,0.0,-4.841532399447045,-10.59344265599139,-6.289242256124884,0.005242242821794085,-0.027679824376785976,-1.1068124996588888
16949,1.0,300.15661,71357.872,0.0,-0.16949024719878936,0.0,0.0,0.0,0.0,-4.824789657444666,-10.59157928905749,-6.274642538084004,0.0017656957037605983,-0.01907335300789338,-1.1149098878330388
16950,1.0,300.58051,71441.129,0.0,-0.16950027617626617,0.0,0.0,0.0,0.0,-4.861129365656115,-10.59353587500059,-6.261653887702123,0.017464336167095782,0.004116059310698426,-1.127511274026699
16951,1.0,300.02157,71479.71,0.0,-0.16951027216368553,0.0,0.0,0.0,0.0,-4.860890035982496,-10.59846533673709,-6.268692125546744,0.009081656281539691,0.006103142460608265,-1.149720095018539
16952,1.0,299.85561,71327.89,0.0,-0.16952026815110477,0.0,0.0,0.0,0.0,-4.850766856883416,-10.58908365406119,-6.242046586342035,-0.005787227899379925,-0.004436987737396596,-1.1427313037787987
16953,1.0,299.6406,71234.593,0.0,-0.16953026413852412,0.0,0.0,0.0,0.0,-4.813844833839495,-10.57408451283089,-6.265608501517414,-0.010596682016561089,0.009954963674453421,-1.1374132606289489
16954,1.0,300.18568999999997,71291.12,0.0,-0.16954026012594337,0.0,0.0,0.0,0.0,-4.836149204315766,-10.57802808222009,-6.256542446247664,0.0016227382736517981,0.010734615752674091,-1.1233340491644388
16955,1.0,299.67028,71570.982,0.0,-0.16955025611336283,0.0,0.0,0.0,0.0,-4.870457042101686,-10.59225715337439,-6.293077610403404,0.012270712023524989,0.00924627740408653,-1.1166593654556989
16956,1.0,299.73842,71701.989,0.0,-0.16956025210078196,0.0,0.0,0.0,0.0,-4.908791839760036,-10.59296541519429,-6.293856901055314,-0.014539222956909586,-0.002921500872254687,-1.119894267724959
16957,1.0,300.00934,71466.28,0.0,-0.16957024808820131,0.0,0.0,0.0,0.0,-4.873742910850975,-10.593457854742889,-6.256764246694554,-0.0026903885556206772,0.006663014715288354,-1.1243442595141389
16958,1.0,300.0697,71378.632,0.0,-0.16958027706567813,0.0,0.0,0.0,0.0,-4.8532568176791555,-10.60733330161229,-6.236731785592504,-0.009611953083025912,-0.010661370942695389,-1.125235615627109
16959,1.0,300.32364,71656.666,0.0,-0.16959027305309748,0.0,0.0,0.0,0.0,-4.866799715865735,-10.602065414342391,-6.312972168166843,0.0004148749393374685,-0.00922063893415621,-1.1153991863063288
16960,1.0,300.03368,71624.665,0.0,-0.16960026904051662,0.0,0.0,0.0,0.0,-4.867404524850425,-10.61868980873309,-6.286015358531414,-0.006294444890088344,-0.017708720945464683,-1.132303643024669
16961,1.0,300.15505,71318.261,0.0,-0.16961026502793608,0.0,0.0,0.0,0.0,-4.813430617198615,-10.59448225059399,-6.271057963205235,-0.0027650118923604272,-0.0025524490439821075,-1.1332619749692487
16962,1.0,300.13603,71313.678,0.0,-0.16962026101535532,0.0,0.0,0.0,0.0,-4.838767037274126,-10.57953883811919,-6.259271331416984,0.00026011950877429673,0.007870195615527832,-1.138620446798089
16963,1.0,299.67289,71537.207,0.0,-0.16963025700277468,0.0,0.0,0.0,0.0,-4.871408889245624,-10.59927289706679,-6.274842857628774,-0.01036381789182919,0.01689069576873188,-1.121445452303049
16964,1.0,299.52721,71635.37299999999,0.0,-0.16964025299019403,0.0,0.0,0.0,0.0,-4.900799322971236,-10.58929441008199,-6.285270417057894,-0.001024441548679509,0.013494816429584687,-1.1165589523707888
16965,1.0,299.49716,71588.27,0.0,-0.16965024897761316,0.0,0.0,0.0,0.0,-4.868900385973055,-10.59548435494289,-6.296661779982135,-0.026828171455734375,0.009064277725099561,-1.099031853465999
16966,1.0,299.1086,71544.895,0.0,-0.1696602779550901,0.0,0.0,0.0,0.0,-4.875134407213305,-10.60036518067459,-6.272362320058964,0.004148530126053046,0.01088624052413829,-1.1033367478408591
16967,1.0,299.83223,71527.994,0.0,-0.16967027394250944,0.0,0.0,0.0,0.0,-4.849630902196305,-10.60034086267219,-6.292752154471284,-0.010659101262471389,0.009137994810949871,-1.1281207439618488
16968,1.0,300.23954,71637.61,0.0,-0.16968026992992857,0.0,0.0,0.0,0.0,-4.874930439968176,-10.639459409282889,-6.261654900952224,0.02106310161351628,-0.006514906732271233,-1.153205472712519
16969,1.0,300.31016,71646.307,0.0,-0.16969026591734804,0.0,0.0,0.0,0.0,-4.891511872554636,-10.60100960773819,-6.286167042071384,0.012824962867975288,-0.010306334187155989,-1.1506621136365092
16970,1.0,300.16885,71352.461,0.0,-0.16970026190476728,0.0,0.0,0.0,0.0,-4.844959616585285,-10.60475761985809,-6.239649641905474,0.02047389870686648,0.011718474507023388,-1.140764078709649
16971,1.0,299.77036,71228.32400000001,0.0,-0.16971025789218663,0.0,0.0,0.0,0.0,-4.803747087317925,-10.60217788510349,-6.245707154978304,0.011161516258305889,0.015245051963319486,-1.1324654590656387
16972,1.0,300.01482000000004,71715.205,0.0,-0.169720253879606,0.0,0.0,0.0,0.0,-4.880983292090545,-10.59786042642739,-6.320788075463214,0.013296009667213986,-0.005385621459969454,-1.1269668547479688
16973,1.0,299.55807999999996,71900.401,0.0,-0.16973024986702512,0.0,0.0,0.0,0.0,-4.886836331293195,-10.64594117017259,-6.323148948196215,0.00016649807716458088,0.01038587128025569,-1.129014430550049
16974,1.0,299.50789,71558.565,0.0,-0.16974027884450216,0.0,0.0,0.0,0.0,-4.868194353303375,-10.61704023757029,-6.266781845133214,-0.004182056038736796,-0.007835058736510091,-1.1094302312922388
16975,1.0,300.48157000000003,71621.383,0.0,-0.1697502748319213,0.0,0.0,0.0,0.0,-4.870694851900155,-10.61887523350139,-6.281541859339914,-0.0034260405522238764,0.00014595856544748884,-1.1136042137541788
16976,1.0,300.3586,71779.354,0.0,-0.16976027081934064,0.0,0.0,0.0,0.0,-4.905793227414096,-10.628398771191291,-6.284939489575234,-0.013270470698443487,-0.005839832095546555,-1.125479403601169
16977,1.0,299.91234,71686.08,0.0,-0.16977026680676,0.0,0.0,0.0,0.0,-4.864884267876695,-10.61889752500359,-6.306996829677123,0.003362207822424077,-0.004569041279204266,-1.117359825249829
16978,1.0,300.50122000000005,71562.671,0.0,-0.16978026279417924,0.0,0.0,0.0,0.0,-4.857713902219036,-10.61969292633209,-6.275857830253944,0.0013570579166061888,0.0027303908589685973,-1.144136985642529
16979,1.0,299.66323,71402.306,0.0,-0.1697902587815986,0.0,0.0,0.0,0.0,-4.824496625515745,-10.60205629509149,-6.277965593111964,0.003699814143118226,0.0030165549787107967,-1.1458815996647091
16980,1.0,299.753,71450.92599999999,0.0,-0.16980025476901783,0.0,0.0,0.0,0.0,-4.864794291267815,-10.59797391043859,-6.256528868696324,-0.0014077511230842187,-0.009516080270489002,-1.143834733137699
16981,1.0,299.80844,71848.142,0.0,-0.16981025075643708,0.0,0.0,0.0,0.0,-4.908044770461305,-10.63770952636019,-6.2942869243977535,-0.005885266331355564,0.0042407507799295165,-1.128403136764719
16982,1.0,299.64097000000004,71942.759,0.0,-0.169820279733914,0.0,0.0,0.0,0.0,-4.911775658654515,-10.63170804601789,-6.325318620635344,-0.01022320816220209,0.015131301467343185,-1.113809903524479
16983,1.0,300.2021,71703.384,0.0,-0.16983027572133325,0.0,0.0,0.0,0.0,-4.859972031391895,-10.643580297439591,-6.2924858723450035,0.006890097538924683,0.005663321293676295,-1.129036215427199
16984,1.0,300.17991,71661.129,0.0,-0.1698402717087526,0.0,0.0,0.0,0.0,-4.840778845347675,-10.636951615285389,-6.305463376975784,-0.014850195492100187,0.007830908261450473,-1.136936323806879
16985,1.0,299.66986,71870.782,0.0,-0.16985026769617195,0.0,0.0,0.0,0.0,-4.891447936473325,-10.64082628366779,-6.314648590457295,0.0070956843630145235,0.006078410241567384,-1.129724516220129
16986,1.0,299.97039,71740.758,0.0,-0.16986026368359108,0.0,0.0,0.0,0.0,-4.889546066035625,-10.63523618286609,-6.282616411070964,-0.0019426273083973883,0.0023189478889123374,-1.1270987799109888
16987,1.0,299.75763,71370.916,0.0,-0.16987025967101066,0.0,0.0,0.0,0.0,-4.848094308419655,-10.59993049638169,-6.246951324776094,-0.0009281632334525792,-0.004321328987506965,-1.136933486706599
16988,1.0,300.05556,71507.856,0.0,-0.1698802556584298,0.0,0.0,0.0,0.0,-4.840882095532866,-10.62025730663779,-6.275463068014984,-0.015236224528448286,-0.016563528457192986,-1.125185966372209
16989,1.0,300.33637999999996,71774.606,0.0,-0.16989025164584914,0.0,0.0,0.0,0.0,-4.8704152961975655,-10.636289962970089,-6.310982651595494,0.017195786387091985,-0.007429755454109774,-1.1305048201221388
16990,1.0,300.34612999999996,71865.455,0.0,-0.1699002476332685,0.0,0.0,0.0,0.0,-4.870927392798105,-10.64537476336669,-6.329001987398864,0.00844828651230596,0.013001520684650188,-1.122257369608179
16991,1.0,300.46602,71815.897,0.0,-0.1699102766107452,0.0,0.0,0.0,0.0,-4.877216028218745,-10.660171254576989,-6.292852466231184,0.013980541169771987,0.003155656384239037,-1.1362728476413988
16992,1.0,300.6751,71732.298,0.0,-0.16992027259816445,0.0,0.0,0.0,0.0,-4.889897157195275,-10.634363774529989,-6.280565998168604,0.0023690617189831877,-0.008304931888157962,-1.113734315067019
16993,1.0,300.1859,71735.761,0.0,-0.1699302685855839,0.0,0.0,0.0,0.0,-4.880232169791415,-10.64394101447519,-6.281707019106214,-0.003779539194111476,0.007877634492461993,-1.1443175468103488
16994,1.0,300.2434,71930.69900000001,0.0,-0.16994026457300315,0.0,0.0,0.0,0.0,-4.889233073079736,-10.65910835522209,-6.316794958144124,-0.005392207686944464,0.018356034758599583,-1.119279934189329
16995,1.0,299.69872000000004,71784.202,0.0,-0.1699502605604225,0.0,0.0,0.0,0.0,-4.868005990109786,-10.64016665785269,-6.312432511163585,-0.0008571519711993131,0.005154396064624285,-1.146369682237879
16996,1.0,299.87796000000003,71575.098,0.0,-0.16996025654784186,0.0,0.0,0.0,0.0,-4.836882493413136,-10.62561841291689,-6.294541554147885,-0.005855898391782174,0.002303788350191208,-1.130658428837299
16997,1.0,300.12736,71779.078,0.0,-0.169970252535261,0.0,0.0,0.0,0.0,-4.881725396463786,-10.634150992008989,-6.303170695974514,0.007155248067493003,-0.007290882536479084,-1.1383345076198688
16998,1.0,299.92129,71958.401,0.0,-0.16998024852268045,0.0,0.0,0.0,0.0,-4.927873770943275,-10.62616252822059,-6.3195206009131235,0.021983467076849277,-0.0015236736219748786,-1.093746132994339
16999,1.0,299.78146,71870.976,0.0,-0.16999027750015716,0.0,0.0,0.0,0.0,-4.901902448355105,-10.63862145145019,-6.306457679298914,0.01018053108124019,-0.007495601613183283,-1.112801314374939
17000,1.0,300.04805,71757.209,0.0,-0.1700002734875764,0.0,0.0,0.0,0.0,-4.874682700318726,-10.63013548186269,-6.307581171009795,0.022342502117283277,-0.017747363264528384,-1.114676333684989
17001,1.0,299.89193,71867.79,0.0,-0.17001026947499576,0.0,0.0,0.0,0.0,-4.8816510239064455,-10.65279074084859,-6.311572261828685,0.004944941360927715,-0.0020859104984133382,-1.124105537790579
17002,1.0,300.57927,71982.293,0.0,-0.1700202654624151,0.0,0.0,0.0,0.0,-4.907124334070465,-10.65600679666599,-6.3176887460573345,-0.013224023313859488,0.013060091606680688,-1.1303090602028187
17003,1.0,300.30025,71884.602,0.0,-0.17003026144983446,0.0,0.0,0.0,0.0,-4.902898067903365,-10.66330726363649,-6.284918109998124,-0.016745010669353882,-0.008218878786315182,-1.1449005709178888
17004,1.0,300.48292000000004,71857.382,0.0,-0.1700402574372537,0.0,0.0,0.0,0.0,-4.894577562057195,-10.66214405252169,-6.286128133267543,-0.01965417025671558,-0.003169202626150947,-1.1454586690729687
17005,1.0,300.22598999999997,71800.342,0.0,-0.17005025342467295,0.0,0.0,0.0,0.0,-4.860633177082145,-10.65497226831389,-6.309905465414184,-0.014513676895388385,0.005635792808334444,-1.137780867765229
17006,1.0,300.20063999999996,71895.61200000001,0.0,-0.1700602494120923,0.0,0.0,0.0,0.0,-4.855159498716936,-10.67532339657239,-6.323988121929034,0.0012234989891249488,0.01190679514410919,-1.1409767599056388
17007,1.0,299.79919,72045.767,0.0,-0.17007027838956912,0.0,0.0,0.0,0.0,-4.882201117385735,-10.666981308499091,-6.350931961963184,0.003980105262630806,0.002220119121858698,-1.137115162449529
17008,1.0,299.87841000000003,71870.843,0.0,-0.17008027437698836,0.0,0.0,0.0,0.0,-4.882634281803486,-10.65720952453469,-6.307097952037104,0.004540169224229816,0.001229726930864599,-1.1258612975638589
17009,1.0,299.76284,71579.804,0.0,-0.17009027036440783,0.0,0.0,0.0,0.0,-4.862240191740745,-10.645760811654789,-6.250472267548584,0.012480939127772789,0.0024404716343557975,-1.1399650296807888
17010,1.0,299.68292,71846.948,0.0,-0.17010026635182707,0.0,0.0,0.0,0.0,-4.904045978941655,-10.645541949633191,-6.290089637183514,0.0016910234270410183,0.007269201416139323,-1.1285974781338988
17011,1.0,299.75761,72077.689,0.0,-0.17011026233924642,0.0,0.0,0.0,0.0,-4.913914528290605,-10.67355932814829,-6.322343313041704,-0.012600045663777688,0.0007961516705965523,-1.138038435940649
17012,1.0,299.49467999999996,71872.247,0.0,-0.17012025832666566,0.0,0.0,0.0,0.0,-4.868821149815236,-10.666935712244591,-6.3116116772575745,-0.0012474862666923088,0.004485623640871586,-1.1503792142085887
17013,1.0,299.70499,71794.431,0.0,-0.1701302543140849,0.0,0.0,0.0,0.0,-4.851730863028555,-10.67252581304629,-6.299457640983064,-0.00013015310005261088,0.01136580470371759,-1.1544608895864188
17014,1.0,300.72959,71905.065,0.0,-0.17014025030150426,0.0,0.0,0.0,0.0,-4.900990827240135,-10.658573359169289,-6.297780509417544,-0.014411536219057886,0.012493707092282888,-1.1301577819628887
17015,1.0,300.54195,71999.437,0.0,-0.17015027927898108,0.0,0.0,0.0,0.0,-4.932058595181285,-10.659256289736689,-6.294716238465124,0.00010294231927961591,-0.008065515480329404,-1.134911444807039
17016,1.0,300.23278,72126.77,0.0,-0.17016027526640043,0.0,0.0,0.0,0.0,-4.935107160757155,-10.67037569633409,-6.319253913486803,-0.014583311495260787,-0.010762231884149591,-1.119230487584449
17017,1.0,300.1748,72121.66900000001,0.0,-0.17017027125381978,0.0,0.0,0.0,0.0,-4.913652299164725,-10.67751505653869,-6.332019648846684,0.011263469483367889,-0.0047152873138376255,-1.112567658901879
17018,1.0,300.24643,71859.819,0.0,-0.17018026724123891,0.0,0.0,0.0,0.0,-4.863057175296375,-10.65380804394899,-6.326725011774144,0.011857714322515289,-0.010201931936602291,-1.113163956585729
17019,1.0,299.91057,71930.129,0.0,-0.17019026322865838,0.0,0.0,0.0,0.0,-4.866249014436385,-10.677233373010889,-6.321480530581553,0.02392003322447348,-0.013413481830807587,-1.123656667996279
17020,1.0,299.63475,72056.072,0.0,-0.17020025921607762,0.0,0.0,0.0,0.0,-4.908753336256236,-10.65870710818249,-6.335786507418444,0.005776270004848464,0.008611473784636291,-1.1293242824306289
17021,1.0,299.31656,71904.62299999999,0.0,-0.17021025520349686,0.0,0.0,0.0,0.0,-4.898592869553475,-10.668158705115289,-6.2904582575698935,0.01889794016383148,0.017381112870132283,-1.141070688189909
17022,1.0,299.72826000000003,71688.1,0.0,-0.17022025119091622,0.0,0.0,0.0,0.0,-4.863485881413686,-10.66125948518439,-6.266646677569874,-0.012569840678296688,0.014012242725650685,-1.148681209691009
17023,1.0,299.81096,71926.75,0.0,-0.17023028016839303,0.0,0.0,0.0,0.0,-4.884148685402945,-10.67263727055729,-6.307149830442224,-0.002097104176243068,0.002072294544894548,-1.136958919284109
17024,1.0,299.69109,72155.797,0.0,-0.17024027615581228,0.0,0.0,0.0,0.0,-4.898753469694325,-10.68825145459829,-6.346555937431304,-0.01035459731591919,0.0007929149343446114,-1.1341246561043887
17025,1.0,299.78801,71932.93400000001,0.0,-0.17025027214323174,0.0,0.0,0.0,0.0,-4.856588586657975,-10.68103610063619,-6.328191387318864,0.0030597062607194974,0.008433660652412502,-1.140494655508059
17026,1.0,300.02064,71950.823,0.0,-0.17026026813065087,0.0,0.0,0.0,0.0,-4.871891196293225,-10.698236021083689,-6.301126159922735,0.00990265271286573,-0.0063726163247032645,-1.134296705971369
17027,1.0,300.09477999999996,72226.77900000001,0.0,-0.17027026411807034,0.0,0.0,0.0,0.0,-4.929265064655586,-10.69329541359609,-6.332576328451624,0.013362716987547487,-0.015207668100879985,-1.127891546789229
17028,1.0,300.25144,72253.82,0.0,-0.1702802601054897,0.0,0.0,0.0,0.0,-4.935886654059086,-10.698177252577889,-6.329293398127624,0.007540496191989033,0.0022569154005652077,-1.116148484755279
17029,1.0,300.30262999999997,71972.254,0.0,-0.17029025609290882,0.0,0.0,0.0,0.0,-4.884678716530255,-10.668674449416189,-6.324414801546144,0.014973255729995286,0.006848441915388593,-1.1216848833016788
17030,1.0,300.11345,72045.587,0.0,-0.17030025208032828,0.0,0.0,0.0,0.0,-4.888529978835345,-10.67379946842199,-6.337730225085274,-0.002833854029329617,0.001738229127999858,-1.1107923434016689
17031,1.0,300.52803,72128.103,0.0,-0.17031024806774742,0.0,0.0,0.0,0.0,-4.887117609520955,-10.67962261674669,-6.358402350975453,-0.023788654203257376,-0.007574429431212983,-1.136963377584549
17032,1.0,300.49497,72065.23700000001,0.0,-0.17032027704522423,0.0,0.0,0.0,0.0,-4.911536835605945,-10.67059759810599,-6.323898347970173,-0.017461695637335184,0.004247937560238796,-1.114592436576709
17033,1.0,299.75973999999997,72204.313,0.0,-0.1703302730326436,0.0,0.0,0.0,0.0,-4.930331814360866,-10.69362573312869,-6.324350156189764,-0.023551613461613274,0.01886236191307018,-1.132880992931649
17034,1.0,299.8407,72159.677,0.0,-0.17034026902006294,0.0,0.0,0.0,0.0,-4.9360572853759255,-10.68933765870549,-6.309345239433894,-0.006867711196515323,0.019697453261237282,-1.1218783127457688
17035,1.0,299.9958,72086.84700000001,0.0,-0.1703502650074823,0.0,0.0,0.0,0.0,-4.893636658014335,-10.69487912350239,-6.324085089963604,-0.008456019535744153,0.004820289813750565,-1.140359386619709
17036,1.0,299.95407,72193.777,0.0,-0.17036026099490154,0.0,0.0,0.0,0.0,-4.899925597410005,-10.70201848370699,-6.343161144296264,0.024503552811312376,0.01178449180403879,-1.119968842932319
17037,1.0,300.01975,72184.643,0.0,-0.17037025698232078,0.0,0.0,0.0,0.0,-4.890402363695135,-10.695119263776089,-6.356807292668035,0.011732336781641489,-0.0028146943818637077,-1.1370700728200789
17038,1.0,299.3746,72006.901,0.0,-0.17038025296974013,0.0,0.0,0.0,0.0,-4.886964507430846,-10.69968800847699,-6.301647071799144,0.006676346249504073,-0.02080876063966478,-1.144009012154899
17039,1.0,299.88786,72184.945,0.0,-0.17039024895715937,0.0,0.0,0.0,0.0,-4.917253693995155,-10.70794701004209,-6.317220624511134,-0.005127391226934115,-0.03092900131345477,-1.150558762126309
17040,1.0,300.26607,72273.411,0.0,-0.1704002779346362,0.0,0.0,0.0,0.0,-4.9309509101719655,-10.706536565902889,-6.331824496877424,0.015465008295027484,0.005034907634656696,-1.149248021796949
17041,1.0,300.14049,71990.382,0.0,-0.17041027392205554,0.0,0.0,0.0,0.0,-4.866508913087036,-10.70573812482409,-6.311031996875364,0.00960865049564997,0.00951566980287349,-1.1484614357443188
17042,1.0,300.22242,71940.68,0.0,-0.1704202699094749,0.0,0.0,0.0,0.0,-4.848445399579305,-10.69346665286299,-6.326258106128064,-0.007875222045298903,-0.008326167989053803,-1.151250913269619
17043,1.0,300.54116,72192.69099999999,0.0,-0.17043026589689425,0.0,0.0,0.0,0.0,-4.8979487464649045,-10.70437530343959,-6.342451058626184,-0.000980314101524469,-0.008131698646386172,-1.1434831353529988
17044,1.0,300.00686,72227.67599999999,0.0,-0.1704402618843135,0.0,0.0,0.0,0.0,-4.937511197944415,-10.703172575570889,-6.314725800114914,0.007152645230636124,-0.0046115499579995455,-1.1404100491247091
17045,1.0,300.01444,72233.679,0.0,-0.17045025787173274,0.0,0.0,0.0,0.0,-4.943036754714745,-10.699529941461389,-6.314667740884184,0.02420521449161868,0.0016891968410857482,-1.1162846655687189
17046,1.0,299.86599,72263.406,0.0,-0.1704602538591521,0.0,0.0,0.0,0.0,-4.935663941687105,-10.703539372107091,-6.327067388982934,-0.004185316069608536,-0.004272015827665137,-1.128884835862259
17047,1.0,299.75295,72252.078,0.0,-0.17047024984657144,0.0,0.0,0.0,0.0,-4.907619306744316,-10.70479478898099,-6.350413583212024,0.014298345037136787,0.006801302379661285,-1.125420229795329
17048,1.0,300.10766,72277.983,0.0,-0.17048027882404815,0.0,0.0,0.0,0.0,-4.897466135442275,-10.715731810560388,-6.357503699461764,0.002128631351779558,0.016874474647880982,-1.137755536512729
17049,1.0,299.98927000000003,72310.11099999999,0.0,-0.1704902748114675,0.0,0.0,0.0,0.0,-4.911389509041405,-10.710015053496189,-6.359064104615764,0.007031541983984163,0.01190255367919059,-1.127784142278629
17050,1.0,299.71251,72250.165,0.0,-0.17050027079888674,0.0,0.0,0.0,0.0,-4.937966653864366,-10.70635620738509,-6.317922604180414,-0.00988239227049118,-0.01777377869463538,-1.1312941419500389
17051,1.0,299.938,72226.205,0.0,-0.1705102667863062,0.0,0.0,0.0,0.0,-4.920564286046886,-10.71940078917249,-6.314997249816703,-0.011910080100933387,0.01111447206941299,-1.1339505797372091
17052,1.0,300.30609,72302.175,0.0,-0.17052026277372545,0.0,0.0,0.0,0.0,-4.925992570807615,-10.71823757805769,-6.333825665824923,-0.015928130465234086,0.015598562764208285,-1.121427112476239
17053,1.0,299.9057,72324.661,0.0,-0.1705302587611447,0.0,0.0,0.0,0.0,-4.893046034531046,-10.71849393033299,-6.373351133675785,-0.007818469197922832,0.0026411028548565577,-1.118012358314229
17054,1.0,299.51039,72226.008,0.0,-0.17054025474856405,0.0,0.0,0.0,0.0,-4.875373534236905,-10.72718356319059,-6.352346459102784,-0.018121710540473585,-0.01120526941087399,-1.137855848272629
17055,1.0,299.26802999999995,72215.921,0.0,-0.1705502507359833,0.0,0.0,0.0,0.0,-4.896814818277996,-10.70455059570689,-6.350471034492694,0.016725657592443884,-0.0005803070166018434,-1.127596387035099
17056,1.0,299.3682,72278.382,0.0,-0.17056027971346,0.0,0.0,0.0,0.0,-4.925806943389295,-10.721528614382489,-6.323487677704644,0.014732155908450586,-0.0013978330258053787,-1.139150072625359
17057,1.0,299.76142999999996,72213.467,0.0,-0.17057027570087957,0.0,0.0,0.0,0.0,-4.921685041982495,-10.709638124458989,-6.319767833937524,0.021887706836398478,0.0008881994538734612,-1.1299829963206387
17058,1.0,300.17561,72126.235,0.0,-0.1705802716882987,0.0,0.0,0.0,0.0,-4.897843469779516,-10.70869985486639,-6.318031325916143,0.006354340332649563,-0.007643823282861623,-1.1493634309833387
17059,1.0,299.71984,72246.01299999999,0.0,-0.17059026767571805,0.0,0.0,0.0,0.0,-4.886659417825736,-10.73096501256379,-6.343359133365804,0.0005722774553893874,0.014012897285215289,-1.1410105011339688
17060,1.0,299.72252000000003,72417.401,0.0,-0.1706002636631373,0.0,0.0,0.0,0.0,-4.907244404207316,-10.731197046836689,-6.3746399878029845,-0.025144265300045775,0.014684110628458884,-1.1409656141545388
17061,1.0,299.50453999999996,72519.292,0.0,-0.17061025965055665,0.0,0.0,0.0,0.0,-4.947249544655516,-10.74673625037029,-6.3500684702279635,-0.03551638981619477,0.0011669154558405887,-1.1173000434939289
17062,1.0,300.03161,72503.157,0.0,-0.170620255637976,0.0,0.0,0.0,0.0,-4.962258717061805,-10.734892369951389,-6.341997933181465,-0.014519633792726286,-0.015118651039844683,-1.123681695273749
17063,1.0,300.73531,72418.446,0.0,-0.17063025162539525,0.0,0.0,0.0,0.0,-4.9486441820931555,-10.71366072735599,-6.3510939806541735,-0.011851167713619187,-0.002075776274888168,-1.106015882430269
17064,1.0,300.03944,72323.37400000001,0.0,-0.17064028060287206,0.0,0.0,0.0,0.0,-4.9130444504297355,-10.72660803713379,-6.344847597762703,0.027622113704090373,-0.0038801051784615667,-1.126013994353929
17065,1.0,299.71812,72347.617,0.0,-0.17065027659029142,0.0,0.0,0.0,0.0,-4.916268916222966,-10.70654669840389,-6.369053838676674,0.006012016218164805,-0.0072984850533043925,-1.1229437452259188
17066,1.0,300.03716000000003,72361.008,0.0,-0.17066027257771066,0.0,0.0,0.0,0.0,-4.929548673358576,-10.71908769489159,-6.347302905405024,0.027012546496930773,-0.008732246509105632,-1.1477546937995688
17067,1.0,299.66067999999996,72284.958,0.0,-0.17067026856513,0.0,0.0,0.0,0.0,-4.942607845947415,-10.71027241902159,-6.319941403679653,0.01036238819593809,-0.014100946692405088,-1.141559480038149
17068,1.0,299.80274,72418.423,0.0,-0.17068026455254937,0.0,0.0,0.0,0.0,-4.951930962767535,-10.72985753020449,-6.331603507030614,0.026957422651740476,0.0003056085816787187,-1.155252035264499
17069,1.0,299.58243,72508.042,0.0,-0.1706902605399685,0.0,0.0,0.0,0.0,-4.9382325306906045,-10.75648270308219,-6.345919413718484,-0.01015560006252969,-0.012270853878538988,-1.145890414940579
17070,1.0,299.2805,72476.05099999999,0.0,-0.17070025652738796,0.0,0.0,0.0,0.0,-4.911804941582405,-10.753119726000289,-6.365985616048865,0.016983981652438484,-0.002738063796675857,-1.1451580377682988
17071,1.0,300.2486,72485.601,0.0,-0.1707102525148072,0.0,0.0,0.0,0.0,-4.918178892661466,-10.75668231335189,-6.358951836504684,-0.0036623087919917365,0.024332032874134678,-1.142519129207859
17072,1.0,300.93126,72425.008,0.0,-0.17072024850222656,0.0,0.0,0.0,0.0,-4.923869710523105,-10.743483717549289,-6.3480402475027935,0.002010101659056588,0.03191942390195187,-1.130573214503889
17073,1.0,300.6037,72297.556,0.0,-0.17073027747970337,0.0,0.0,0.0,0.0,-4.926792430436555,-10.737086056417889,-6.312773672472254,-0.007990105050911972,0.0035511065186919263,-1.136476713561519
17074,1.0,299.80452,72393.254,0.0,-0.17074027346712262,0.0,0.0,0.0,0.0,-4.932480917822965,-10.744408814890589,-6.328851519759014,-0.012563896953210089,-0.00018657623584614083,-1.1402653570104289
17075,1.0,299.98051,72363.023,0.0,-0.17075026945454208,0.0,0.0,0.0,0.0,-4.919233686015565,-10.72348621357569,-6.353832086399404,-0.003931851151793496,-0.0028488731315868877,-1.131704305590519
17076,1.0,300.23477,72248.004,0.0,-0.1707602654419612,0.0,0.0,0.0,0.0,-4.877786792000076,-10.73826345303409,-6.345539444930984,0.005455080767574555,-0.0036143383911824267,-1.139367414771809
17077,1.0,300.35539,72323.797,0.0,-0.17077026142938057,0.0,0.0,0.0,0.0,-4.888119511219836,-10.747185120164591,-6.349323224779414,-0.0017395853632587084,0.005829002478477755,-1.144803704208329
17078,1.0,299.71747,72624.379,0.0,-0.17078025741679992,0.0,0.0,0.0,0.0,-4.962129831649086,-10.75035253997719,-6.363516021580134,-0.010759997667679091,0.004883443564658355,-1.1320506344746988
17079,1.0,299.41247999999996,72709.869,0.0,-0.17079025340421916,0.0,0.0,0.0,0.0,-4.987755129328105,-10.75679883711339,-6.357430948104584,-0.01149594755981169,0.019697630580004784,-1.1185236443146889
17080,1.0,299.7375,72538.312,0.0,-0.17080024939163851,0.0,0.0,0.0,0.0,-4.953616706958905,-10.73786929874519,-6.358350067270294,-0.01862259147565668,0.007340765750827174,-1.116104307050919
17081,1.0,300.33622,72506.589,0.0,-0.17081027836911533,0.0,0.0,0.0,0.0,-4.9374741129907544,-10.74058075601279,-6.362137798794114,0.004041287532819027,-0.004250058495348116,-1.118674415929569
17082,1.0,299.96558999999996,72618.539,0.0,-0.17082027435653457,0.0,0.0,0.0,0.0,-4.921187840158425,-10.75466999865329,-6.398364934919454,-0.006017610878591954,-0.012605805990596186,-1.125724103500319
17083,1.0,300.35873,72667.05099999999,0.0,-0.17083027034395404,0.0,0.0,0.0,0.0,-4.951531944878155,-10.745768596524789,-6.391668365008554,0.005316568870954495,-0.006845616163509712,-1.128774391601359
17084,1.0,300.79222999999996,72453.83099999999,0.0,-0.17084026633137317,0.0,0.0,0.0,0.0,-4.945611119243816,-10.726722534395089,-6.351821798201003,0.001128542357328459,-0.008708615895573472,-1.124706901724929
17085,1.0,300.71145,72282.24799999999,0.0,-0.17085026231879252,0.0,0.0,0.0,0.0,-4.930513186128765,-10.72772869174439,-6.3137565250692536,0.007439460160917553,0.0016225042128786985,-1.1266590293675887
17086,1.0,300.13942000000003,72399.86200000001,0.0,-0.17086025830621188,0.0,0.0,0.0,0.0,-4.917577022102066,-10.746908502887289,-6.343264293156444,-0.013534112294962888,-0.0036237453037858166,-1.144575317635789
17087,1.0,300.37434,72708.208,0.0,-0.17087025429363112,0.0,0.0,0.0,0.0,-4.951382490488404,-10.770719880237289,-6.379377641295553,-0.0028238732118695876,-0.007180767379211563,-1.1318760514824688
17088,1.0,300.03561,72684.094,0.0,-0.17088025028105058,0.0,0.0,0.0,0.0,-4.927747418655805,-10.77819057322459,-6.388211459642384,-0.008980298746211481,-0.004305261070071185,-1.136530922441869
17089,1.0,299.78135,72453.668,0.0,-0.1708902792585273,0.0,0.0,0.0,0.0,-4.9146500465381955,-10.76362105003669,-6.345834706010124,-0.008549045926100143,-0.01026839303716149,-1.136219145386099
17090,1.0,299.38642000000004,72594.702,0.0,-0.17090027524594653,0.0,0.0,0.0,0.0,-4.951874828711995,-10.76975830589239,-6.345343077061603,-0.00013604379162897686,-0.012054454054681987,-1.1427143825021289
17091,1.0,299.78199,72835.726,0.0,-0.17091027123336588,0.0,0.0,0.0,0.0,-4.976755691542545,-10.78644045553879,-6.377045342215374,0.003381589270336877,0.0004057372574181496,-1.1374945232869689
17092,1.0,299.82705,72647.069,0.0,-0.17092026722078513,0.0,0.0,0.0,0.0,-4.941512725239336,-10.77451450186179,-6.366867954235944,0.015998266623905986,0.007299119753167033,-1.144782831256269
17093,1.0,300.25223,72273.12599999999,0.0,-0.17093026320820437,0.0,0.0,0.0,0.0,-4.886504897185486,-10.74028286048339,-6.342437481074844,0.021175987807157282,0.0028489604737455074,-1.1493008121271588
17094,1.0,300.16907000000003,72313.31,0.0,-0.17094025919562383,0.0,0.0,0.0,0.0,-4.890615855491205,-10.74219283692189,-6.348631580261153,0.016177794276623983,-0.006856939841327274,-1.144295052658129
17095,1.0,300.22317999999996,72621.104,0.0,-0.17095025518304308,0.0,0.0,0.0,0.0,-4.949634634065904,-10.76349743352449,-6.361869794142664,0.008680641884162652,-0.01176991822785049,-1.1386391919249388
17096,1.0,299.86163999999997,72858.442,0.0,-0.17096025117046254,0.0,0.0,0.0,0.0,-4.999737622360685,-10.77863235026819,-6.368777120074364,0.014171292593847687,-0.015113733737109385,-1.118890542175899
17097,1.0,300.04438,72845.642,0.0,-0.17097028014793914,0.0,0.0,0.0,0.0,-4.983431692476415,-10.78314739271379,-6.376676620503984,-0.01986497694002058,-0.002005829188684928,-1.1347680699178888
17098,1.0,300.17692,72614.433,0.0,-0.1709802761353585,0.0,0.0,0.0,0.0,-4.943470121782515,-10.76971068313769,-6.359794049987803,-0.01203872638662979,0.01018939296661479,-1.1183475414473092
17099,1.0,299.95017,72635.705,0.0,-0.17099027212277784,0.0,0.0,0.0,0.0,-4.926940972901216,-10.78695417333949,-6.365545662855443,-0.02191012398161088,0.010809060250771189,-1.145149425142449
17100,1.0,300.40949,72755.808,0.0,-0.1710002681101972,0.0,0.0,0.0,0.0,-4.944041088213866,-10.77881676178639,-6.393091677424024,-0.0013673443302963787,0.02203389754757638,-1.1358638999010389
17101,1.0,300.4143,72637.791,0.0,-0.17101026409761633,0.0,0.0,0.0,0.0,-4.941570379170025,-10.77566656722549,-6.362838258588243,-0.0006440388570891864,-0.007013708782224164,-1.1662986905047188
17102,1.0,299.98102,72394.12400000001,0.0,-0.1710202600850358,0.0,0.0,0.0,0.0,-4.921064122321216,-10.75528706796419,-6.329654317813244,0.015313922572616486,0.0033481055088572863,-1.154088925474709
17103,1.0,299.03059,72494.991,0.0,-0.17103025607245503,0.0,0.0,0.0,0.0,-4.924076818843545,-10.76519868044239,-6.347391666113784,-0.002305936237753188,-0.0038235804136830067,-1.155252339239529
17104,1.0,299.34558,72741.197,0.0,-0.1710402520598744,0.0,0.0,0.0,0.0,-4.932897566264086,-10.79104871699359,-6.3875611557282035,0.014080810373167786,0.008467672519844212,-1.1289710634457688
17105,1.0,299.565,72833.271,0.0,-0.1710502810373512,0.0,0.0,0.0,0.0,-4.940074112747355,-10.79109026024769,-6.408331668203093,-0.00940924510512019,-0.0032047824981124066,-1.130403697762159
17106,1.0,300.4005,72786.84700000001,0.0,-0.17106027702477045,0.0,0.0,0.0,0.0,-4.928739086528675,-10.785918631737289,-6.410726383489434,-0.0026331516786718373,0.002969980431239247,-1.118458593658269
17107,1.0,299.81925,72652.06599999999,0.0,-0.1710702730121898,0.0,0.0,0.0,0.0,-4.944955445104105,-10.769529311369789,-6.369929590738104,4.379732216645916e-05,-0.008895292534372021,-1.116181922008579
17108,1.0,299.70036,72833.646,0.0,-0.17108026899960904,0.0,0.0,0.0,0.0,-4.976694693886525,-10.78080171873229,-6.382112909940504,-0.0003934740839753686,0.0014712262769237287,-1.119318235043109
17109,1.0,299.39918,72940.143,0.0,-0.17109026498702828,0.0,0.0,0.0,0.0,-4.991622907609825,-10.795647859197489,-6.384711187171934,-0.0043108889651016155,-0.0015895142081728385,-1.145082044010799
17110,1.0,299.32181,72782.609,0.0,-0.17110026097444764,0.0,0.0,0.0,0.0,-4.959209036910825,-10.78790662843349,-6.376980088908934,-0.015180132016162385,0.001984290227334198,-1.137555216967959
17111,1.0,299.45932999999997,72562.526,0.0,-0.171110256961867,0.0,0.0,0.0,0.0,-4.933620520210435,-10.769915359657888,-6.353660543157474,-0.003317189829756147,-0.005202026317375025,-1.1524077409087887
17112,1.0,299.45169,72715.61200000001,0.0,-0.17112025294928634,0.0,0.0,0.0,0.0,-4.943185094529386,-10.77927677733179,-6.381267859357103,-0.0095889866549343,-0.004712084734246555,-1.138690867680039
17113,1.0,299.72662,72996.152,0.0,-0.1711302489367057,0.0,0.0,0.0,0.0,-4.997216858761905,-10.787078803101789,-6.4047120348708635,0.023034451623823376,-0.01990535191675528,-1.1356024813752388
17114,1.0,299.85997000000003,73000.109,0.0,-0.1711402779141823,0.0,0.0,0.0,0.0,-4.990958012894205,-10.79425160055969,-6.405000507174334,0.018135619424596284,-0.020855628523040282,-1.1096830371921889
17115,1.0,300.24401,72684.295,0.0,-0.17115027390160176,0.0,0.0,0.0,0.0,-4.948922521895625,-10.76494942091779,-6.380338405040374,0.036861536065950364,-0.01042408904752749,-1.1259887644264388
17116,1.0,299.92251,72630.504,0.0,-0.171160269889021,0.0,0.0,0.0,0.0,-4.927400076521526,-10.77094178200919,-6.379518077759414,0.01129038849877459,0.0095338790217456,-1.105346833389239
17117,1.0,300.13757000000004,72881.453,0.0,-0.17117026587644024,0.0,0.0,0.0,0.0,-4.937756911093665,-10.79550600418349,-6.420878744191394,0.009458002497282172,0.02370407517766008,-1.128055288005389
17118,1.0,299.57547999999997,72990.962,0.0,-0.1711802618638597,0.0,0.0,0.0,0.0,-4.959184921558445,-10.810359237399389,-6.417885806046014,-0.014599156700324585,0.02904288184855927,-1.139668350051509
17119,1.0,299.71067999999997,72876.227,0.0,-0.17119025785127895,0.0,0.0,0.0,0.0,-4.949002872628555,-10.820828137432589,-6.382722683850684,-0.0036600549184692965,0.008206104235679431,-1.1590502032643488
17120,1.0,299.82337,72807.539,0.0,-0.1712002538386983,0.0,0.0,0.0,0.0,-4.957640424431015,-10.81510428761769,-6.358929241027454,-0.016391248582440288,-0.004867399053299885,-1.1651410522654688
17121,1.0,300.09328,72887.358,0.0,-0.17121024982611754,0.0,0.0,0.0,0.0,-4.975690765687445,-10.80966110808049,-6.370585264877814,0.0012282628857951089,-0.011543222769727388,-1.157014178513409
17122,1.0,299.18862,72916.254,0.0,-0.17122027880359425,0.0,0.0,0.0,0.0,-4.979640009277205,-10.80882517674799,-6.376255513762423,0.004424585758822616,-0.0005001240778884035,-1.151657125234709
17123,1.0,299.07751,72812.1,0.0,-0.17123027479101371,0.0,0.0,0.0,0.0,-4.9556314534577455,-10.79083694772269,-6.386591779357534,0.005814539042575324,0.0027085663637396876,-1.136640150802649
17124,1.0,299.62817,72747.58099999999,0.0,-0.17124027077843296,0.0,0.0,0.0,0.0,-4.942028469540236,-10.79609166274129,-6.375327680645854,-0.0033793971037455275,0.005535015460013495,-1.147804444379479
17125,1.0,299.4682,72827.352,0.0,-0.1712502667658522,0.0,0.0,0.0,0.0,-4.965166542198785,-10.79056438344579,-6.3819652794009345,-0.007917417224513243,-0.01897397343808538,-1.115697993760819
17126,1.0,299.8155,72920.798,0.0,-0.17126026275327166,0.0,0.0,0.0,0.0,-4.954919037312436,-10.80400818577259,-6.407174637913903,-0.019702161834451982,-0.005039251944460445,-1.138512029037389
17127,1.0,299.93806,72843.56,0.0,-0.1712702587406908,0.0,0.0,0.0,0.0,-4.945155258023825,-10.81158932302079,-6.3858785526121435,-0.012168158954403789,-0.00940473766205034,-1.1374919901617189
17128,1.0,299.76661,72735.213,0.0,-0.17128025472811026,0.0,0.0,0.0,0.0,-4.921790926617945,-10.79720421135109,-6.390693213112314,0.0023503142616579575,0.005796289395024225,-1.1517861119724389
17129,1.0,299.76897,72921.90299999999,0.0,-0.1712902507155295,0.0,0.0,0.0,0.0,-4.946462046677795,-10.814739517581689,-6.405236087822584,-0.015063819010683184,0.015410801441177685,-1.1351041649760591
17130,1.0,300.29004,73088.588,0.0,-0.17130027969300632,0.0,0.0,0.0,0.0,-4.984904350171755,-10.82220413106839,-6.409997654017514,0.008288424726803831,0.016775181204331486,-1.151184444063059
17131,1.0,299.58665,73052.489,0.0,-0.17131027568042567,0.0,0.0,0.0,0.0,-4.990342463458455,-10.82618620396139,-6.389603361304753,-0.006791302006474323,0.013109745927831186,-1.1549075302304987
17132,1.0,300.58909,72909.06,0.0,-0.17132027166784491,0.0,0.0,0.0,0.0,-4.975884600431574,-10.81593616594979,-6.3707134410154636,0.0023679849381019183,0.006666334021290944,-1.129685810066309
17133,1.0,300.20576,72906.82400000001,0.0,-0.17133026765526416,0.0,0.0,0.0,0.0,-4.977255122516835,-10.80670748403899,-6.377891203398854,0.0032976830428059767,-0.02058366206369928,-1.125750853302959
17134,1.0,300.60209,72985.93400000001,0.0,-0.17134026364268362,0.0,0.0,0.0,0.0,-4.967501171754195,-10.817846142388289,-6.400554061760504,0.00874737007744821,-0.010088043739937401,-1.1212951873132189
17135,1.0,300.09046,72884.06599999999,0.0,-0.17135025963010275,0.0,0.0,0.0,0.0,-4.934597597281866,-10.80410647103229,-6.416232080557803,-0.011840232718539989,-0.0087750773001077,-1.149210531543249
17136,1.0,299.85284,72847.233,0.0,-0.17136025561752222,0.0,0.0,0.0,0.0,-4.937114915830305,-10.80890218375559,-6.397722939656094,-0.00046232913988333363,-0.0020962172784305382,-1.127042240555409
17137,1.0,299.86244,72923.628,0.0,-0.17137025160494146,0.0,0.0,0.0,0.0,-4.966809628560945,-10.79817591819699,-6.4019760569508435,-0.015077433039026786,0.007487879938146212,-1.144391311417629
17138,1.0,300.70115,72997.318,0.0,-0.17138028058241828,0.0,0.0,0.0,0.0,-4.986742487178166,-10.81301091291109,-6.389608731530284,-0.005751989492702165,0.012116280549283789,-1.1232914926602389
17139,1.0,299.36318,72942.671,0.0,-0.17139027656983763,0.0,0.0,0.0,0.0,-4.965819176588195,-10.820044895105289,-6.386886939111664,0.004464430400454975,-0.014162390178469089,-1.1393882877238688
17140,1.0,299.75275,73096.259,0.0,-0.17140027255725687,0.0,0.0,0.0,0.0,-4.961111717948605,-10.84180038800239,-6.416525821761794,0.00029700023174414076,-0.009424274846503511,-1.123061180912509
17141,1.0,299.51665,73302.122,0.0,-0.17141026854467611,0.0,0.0,0.0,0.0,-4.986151559719845,-10.86288713583349,-6.432975531835254,0.015142674186465586,-0.018082059024310284,-1.141493922756679
17142,1.0,299.79281000000003,73194.41,0.0,-0.17142026453209547,0.0,0.0,0.0,0.0,-5.003467294653775,-10.83830062215699,-6.407505565396564,0.02098402656246218,-0.005393070874704656,-1.127308725331709
17143,1.0,299.92266,72847.067,0.0,-0.17143026051951482,0.0,0.0,0.0,0.0,-4.980202869707755,-10.81783904963759,-6.345647558716654,0.02203953223138248,0.006113259053581694,-1.1495681075035389
17144,1.0,300.33914,72783.708,0.0,-0.17144025650693417,0.0,0.0,0.0,0.0,-4.967912652619805,-10.80146796777189,-6.355048999769504,0.006033458920756035,0.014360732872293986,-1.120643059548859
17145,1.0,300.16028,72913.02799999999,0.0,-0.17145025249435342,0.0,0.0,0.0,0.0,-4.977755769391245,-10.80174154529889,-6.384242052375635,0.023580679553981878,0.003677972625287636,-1.139749410059509
17146,1.0,299.71493,72966.20599999999,0.0,-0.17146028147183012,0.0,0.0,0.0,0.0,-4.932276342627775,-10.822187919066788,-6.4254402948165845,-0.006031880682400274,0.0018683331766151281,-1.144125434591389
17147,1.0,299.68312000000003,73012.68400000001,0.0,-0.1714702774592496,0.0,0.0,0.0,0.0,-4.959308234095616,-10.815634217419989,-6.419090053789864,-0.011271413364151888,-0.0008152859057499542,-1.1384122239025387
17148,1.0,299.89691,73105.34599999999,0.0,-0.17148027344666883,0.0,0.0,0.0,0.0,-4.980287780066136,-10.82683367077529,-6.415078292668934,-0.02231856509692088,0.005250362400145425,-1.1348406186250488
17149,1.0,300.06998,73153.46,0.0,-0.17149026943408807,0.0,0.0,0.0,0.0,-5.003309328963185,-10.84315409013599,-6.390362082979634,-0.027087845164862175,0.019257069436524783,-1.1387073836566688
17150,1.0,300.07193,73145.893,0.0,-0.17150026542150743,0.0,0.0,0.0,0.0,-5.000557341691586,-10.827827669123389,-6.406140109561804,-0.01834760553101768,0.009192940932072631,-1.139268420237039
17151,1.0,299.86366,73124.45,0.0,-0.17151026140892678,0.0,0.0,0.0,0.0,-4.973231405044725,-10.85197544550659,-6.4028000319321645,0.017719008473729984,0.002033033535319788,-1.1434642889011388
17152,1.0,299.23382000000004,72999.762,0.0,-0.17152025739634613,0.0,0.0,0.0,0.0,-4.947797915609636,-10.83540171362089,-6.4069056200123535,0.018481700062501782,0.0005518947137277675,-1.149190570516279
17153,1.0,299.78517999999997,73047.11200000001,0.0,-0.17153025338376526,0.0,0.0,0.0,0.0,-4.968539651781685,-10.84104349017769,-6.394914615678934,0.025128449479234878,-0.007171211721493493,-1.158291076289429
17154,1.0,299.60872,73142.478,0.0,-0.17154028236124208,0.0,0.0,0.0,0.0,-5.002581410091345,-10.83896632747269,-6.391939713385335,0.018678723504696484,-0.015935926411503484,-1.158709751230749
17155,1.0,299.59522000000004,72983.798,0.0,-0.17155027834866154,0.0,0.0,0.0,0.0,-4.989952362169955,-10.81727872233229,-6.378021203386684,-0.0007719969129201633,-1.4433774019002586e-05,-1.147144413264339
17156,1.0,300.07653,72984.05099999999,0.0,-0.1715602743360808,0.0,0.0,0.0,0.0,-4.966968911476665,-10.84102018542539,-6.377339590044414,-0.001075663874359759,0.005461084274417056,-1.1405613273646389
17157,1.0,299.83642000000003,73127.062,0.0,-0.17157027032350003,0.0,0.0,0.0,0.0,-4.967624788266395,-10.83328706066219,-6.427888509708204,-0.02053658038455268,0.014977408028905088,-1.139866947071109
17158,1.0,299.94633999999996,73178.201,0.0,-0.17158026631091938,0.0,0.0,0.0,0.0,-4.956215997440435,-10.84590506415749,-6.442225188023123,-0.02056495949335348,0.001936476373665338,-1.1364355756074591
17159,1.0,300.36982,73110.401,0.0,-0.17159026229833862,0.0,0.0,0.0,0.0,-4.961433424855355,-10.85536071409069,-6.406942097015953,-0.007573763016622212,-0.0049436594982262055,-1.1394251700275089
17160,1.0,300.01802999999995,73148.04,0.0,-0.1716002582857581,0.0,0.0,0.0,0.0,-4.985730655628305,-10.84411769098109,-6.4053295094818035,0.012762788828589187,0.010685830800109389,-1.136037368318159
17161,1.0,300.2887,73272.452,0.0,-0.17161025427317733,0.0,0.0,0.0,0.0,-5.003729929079696,-10.85346188340329,-6.415804185040574,0.0034505045639632867,0.0013541589067450786,-1.1363804548020189
17162,1.0,300.53399,73220.695,0.0,-0.17162025026059657,0.0,0.0,0.0,0.0,-4.970472932972486,-10.85706702725909,-6.4297226950392234,0.0078024380614656825,0.004532445320042526,-1.1478028231793187
17163,1.0,300.08723,73134.942,0.0,-0.1716302792380734,0.0,0.0,0.0,0.0,-4.958471390838025,-10.840738501897588,-6.431986701062664,-0.003257015540767407,0.01144917998819609,-1.118548468942139
17164,1.0,300.45079,73283.52900000001,0.0,-0.17164027522549274,0.0,0.0,0.0,0.0,-4.966180096273816,-10.866703035710088,-6.443479490321915,0.023781388186790275,0.003147907655424297,-1.157334365545009
17165,1.0,299.65286000000003,73113.209,0.0,-0.171650271212912,0.0,0.0,0.0,0.0,-4.996810342821786,-10.83380685796349,-6.3939731036860135,0.002118978016751848,-0.005174337029242305,-1.126671897643859
17166,1.0,299.41728,73007.7,0.0,-0.17166026720033145,0.0,0.0,0.0,0.0,-4.977641778754995,-10.84021870459629,-6.3746577196797345,-0.0037241515999201467,-0.017716793509011383,-1.159825947540909
17167,1.0,299.40916,73150.503,0.0,-0.17167026318775058,0.0,0.0,0.0,0.0,-4.995885853430545,-10.849205219733191,-6.390834764151284,-0.008761517176669422,-0.001829681738300528,-1.1190979544713688
17168,1.0,299.85964,73139.201,0.0,-0.17168025917516994,0.0,0.0,0.0,0.0,-4.967895224718085,-10.84172034124449,-6.422875758813484,-0.0026947937617554374,0.00982280130958501,-1.148969378019449
17169,1.0,299.75917000000004,73281.69,0.0,-0.1716902551625893,0.0,0.0,0.0,0.0,-4.9577946410962355,-10.88596694661129,-6.432041923193115,-0.011609899692557888,0.01146109783587229,-1.1340075243928291
17170,1.0,300.20164,73424.473,0.0,-0.17170025115000842,0.0,0.0,0.0,0.0,-4.996604045101425,-10.86089305963669,-6.461708771546004,-0.006774632623779183,-0.010648464162921591,-1.129777306550339
17171,1.0,299.47388,73372.442,0.0,-0.17171028012748546,0.0,0.0,0.0,0.0,-5.013696966338365,-10.863553854399289,-6.426139032085544,-0.007929351284191043,-0.007581236749359813,-1.127829637208119
17172,1.0,300.33974,73358.87599999999,0.0,-0.1717202761149047,0.0,0.0,0.0,0.0,-4.997157482306045,-10.87733506900939,-6.424773880225814,0.006121915350511004,-0.005496758479962825,-1.146800617505409
17173,1.0,300.00577000000004,73477.29,0.0,-0.17173027210232394,0.0,0.0,0.0,0.0,-5.028357479385245,-10.86434114972699,-6.442562498981414,-0.002587147185706547,-0.004270980184737926,-1.1538918483302592
17174,1.0,300.16137000000003,73368.23700000001,0.0,-0.1717402680897433,0.0,0.0,0.0,0.0,-4.992362782832846,-10.86962423574839,-6.440124923215844,-0.005059072737616605,0.001165652135615909,-1.139588505943629
17175,1.0,300.01501,73118.868,0.0,-0.17175026407716254,0.0,0.0,0.0,0.0,-4.962495310960155,-10.84274777684589,-6.421067411360014,-0.011177278376861489,0.025996272858632374,-1.150191661615079
17176,1.0,300.07227,73219.747,0.0,-0.1717602600645819,0.0,0.0,0.0,0.0,-4.989322323257775,-10.85242330205079,-6.415228760308784,-0.005577542275985565,0.013846545936797685,-1.130187470190819
17177,1.0,299.93351,73385.656,0.0,-0.17177025605200125,0.0,0.0,0.0,0.0,-5.0431713984972655,-10.86448300474099,-6.399752783581423,0.00012595309732810287,-0.007333729438157743,-1.148856197983279
17178,1.0,299.87441,73385.756,0.0,-0.17178025203942038,0.0,0.0,0.0,0.0,-5.0154469505860755,-10.86822189760999,-6.423768026851544,0.005609899607328985,-0.014905403437048787,-1.134331055149759
17179,1.0,299.57435,73347.253,0.0,-0.17179028101689742,0.0,0.0,0.0,0.0,-5.015473700388715,-10.88110030638099,-6.399159221672845,0.015112749871262286,-0.007680110808692924,-1.152185940461899
17180,1.0,299.11756,73434.193,0.0,-0.17180027700431655,0.0,0.0,0.0,0.0,-4.990896913913176,-10.87117856140179,-6.460085646210814,-0.003534621344864966,-0.01003733270025761,-1.1430990122400888
17181,1.0,299.23873,73389.515,0.0,-0.1718102729917359,0.0,0.0,0.0,0.0,-4.988865448787685,-10.87350093063099,-6.446214049691794,-0.01164289820856459,-0.004866604462571465,-1.1479829790470988
17182,1.0,298.66011000000003,73363.94900000001,0.0,-0.17182026897915526,0.0,0.0,0.0,0.0,-4.988570187708546,-10.89103623686159,-6.421201970973294,-0.0007485414599327903,-0.016636707405915184,-1.142704959276199
17183,1.0,299.90842999999995,73369.391,0.0,-0.1718302649665746,0.0,0.0,0.0,0.0,-5.021687355301955,-10.85687248323989,-6.423902890439853,-0.009008268907271922,0.00018410143327189684,-1.141479939905299
17184,1.0,300.10769,73358.667,0.0,-0.17184026095399396,0.0,0.0,0.0,0.0,-4.9753937820831355,-10.886869752450389,-6.436939568876474,-0.017180315071315084,-0.019832902508105082,-1.1513119109256387
17185,1.0,300.07016,73304.13,0.0,-0.1718502569414131,0.0,0.0,0.0,0.0,-4.974321459502305,-10.87697739172409,-6.431326467297503,-0.0007094345454332384,-0.009489862525476511,-1.147546065603979
17186,1.0,300.10092000000003,73490.628,0.0,-0.17186025292883245,0.0,0.0,0.0,0.0,-4.977278123294105,-10.88629321314349,-6.475744007956173,-0.009998002283051,0.019096707409448282,-1.132270307096379
17187,1.0,300.43981,73521.021,0.0,-0.17187028190630937,0.0,0.0,0.0,0.0,-4.997086858774074,-10.88822953408459,-6.463237968596924,0.010631758708522888,0.04153111739030216,-1.130544032901009
17188,1.0,299.78108,73354.443,0.0,-0.17188027789372862,0.0,0.0,0.0,0.0,-5.008577722858136,-10.86556008959729,-6.423781199102844,0.0005070305932200236,0.016298756073561984,-1.1287686160757888
17189,1.0,300.10571,73504.47,0.0,-0.17189027388114786,0.0,0.0,0.0,0.0,-5.0335881803764755,-10.90384777112599,-6.406087116581573,-0.0007608796949429793,0.01107152546392449,-1.1452496355773387
17190,1.0,300.17886,73542.407,0.0,-0.1719002698685672,0.0,0.0,0.0,0.0,-5.031313332576965,-10.89089944809809,-6.432842086797084,0.02370974836496998,-0.0055788925330688246,-1.143453548450079
17191,1.0,299.56864,73544.35,0.0,-0.17191026585598645,0.0,0.0,0.0,0.0,-5.030577611679354,-10.90029531627539,-6.424772664325694,0.03415992860257247,0.0003405365487908407,-1.1421663155230388
17192,1.0,299.86978999999997,73482.771,0.0,-0.17192026184340592,0.0,0.0,0.0,0.0,-4.984721965153755,-10.90238565123169,-6.4498202067976935,0.01044918015975379,-0.022546838185449683,-1.154911481905889
17193,1.0,300.06383999999997,73365.982,0.0,-0.17193025783082505,0.0,0.0,0.0,0.0,-4.983947031477275,-10.87441285572099,-6.443066894881194,-0.0017552372402034283,-0.025454238770637773,-1.125339473762359
17194,1.0,299.82,73277.915,0.0,-0.1719402538182444,0.0,0.0,0.0,0.0,-4.974936097012965,-10.87549602007789,-6.424223989396544,0.002266158166652398,0.009119453651345002,-1.1309092082370489
17195,1.0,298.93165,73498.572,0.0,-0.17195028279572122,0.0,0.0,0.0,0.0,-5.004435353799315,-10.88448152196469,-6.452813651568123,-0.00862848676044034,0.013695813838671586,-1.1206553198750688
17196,1.0,299.7768,73623.973,0.0,-0.17196027878314057,0.0,0.0,0.0,0.0,-5.0376826227055655,-10.88536000980139,-6.456807072862244,-0.018122224258274283,-0.005726596533271074,-1.136483097037149
17197,1.0,300.05494,73383.05099999999,0.0,-0.1719702747705597,0.0,0.0,0.0,0.0,-4.988674957768885,-10.88779586304179,-6.430144004430804,-0.032827807682852365,-0.0055494950065925145,-1.1307242900937988
17198,1.0,299.90971,73405.807,0.0,-0.17198027075797917,0.0,0.0,0.0,0.0,-4.960901468552855,-10.90175439641939,-6.450877026651994,-0.013804231599371589,0.005733030063456015,-1.1502258081434489
17199,1.0,299.90445,73637.34599999999,0.0,-0.1719902667453984,0.0,0.0,0.0,0.0,-5.011762874547485,-10.911868658917589,-6.460283128655304,-0.002236025932528578,-0.01012754134341051,-1.1412742501349988
17200,1.0,299.86121,73614.168,0.0,-0.17200026273281777,0.0,0.0,0.0,0.0,-5.0381426382509655,-10.916625868137091,-6.422100014536924,0.006220038794170034,-0.01008428569664151,-1.161890140644629
17201,1.0,300.64322999999996,73408.834,0.0,-0.17201025872023712,0.0,0.0,0.0,0.0,-5.007787489105145,-10.89263818526969,-6.414026944365173,0.014498862165676288,0.00831697558149658,-1.1495202820988188
17202,1.0,300.91172,73452.495,0.0,-0.17202025470765625,0.0,0.0,0.0,0.0,-5.025676824920685,-10.90815915030149,-6.3938884973026635,0.01627275506274588,0.02332952221194458,-1.148796213577359
17203,1.0,300.10581,73570.06599999999,0.0,-0.17203025069507571,0.0,0.0,0.0,0.0,-5.020877768472055,-10.90229547197279,-6.440289677682103,0.006148116072921814,7.687338929606283e-05,-1.1394663079815688
17204,1.0,299.94012999999995,73705.59,0.0,-0.17204027967255253,0.0,0.0,0.0,0.0,-5.016594354999316,-10.91646678787139,-6.471597180596914,-0.016505046701171287,-0.016615164695539086,-1.132407906459959
17205,1.0,300.1169,73677.125,0.0,-0.17205027565997166,0.0,0.0,0.0,0.0,-5.017766482714995,-10.90667271240479,-6.4715670870689435,-0.007896520258425872,-0.005866050955134154,-1.124462201825779
17206,1.0,299.54688,73582.848,0.0,-0.17206027164739113,0.0,0.0,0.0,0.0,-5.020184401428625,-10.89315798257099,-6.4540062469358235,-0.006741523359536554,0.013673094744929386,-1.114940386661049
17207,1.0,300.17798999999997,73482.283,0.0,-0.17207026763481037,0.0,0.0,0.0,0.0,-4.987694030347075,-10.89856063210419,-6.450523908992143,-0.0017647169041639982,0.011792036464283388,-1.143964429150499
17208,1.0,299.574,73420.474,0.0,-0.17208026362222972,0.0,0.0,0.0,0.0,-4.993048246525496,-10.89498183275099,-6.429961112787754,0.003511308182589137,-0.007481902674481303,-1.142971646702519
17209,1.0,299.56731,73482.141,0.0,-0.17209025960964908,0.0,0.0,0.0,0.0,-4.986568208160965,-10.90394909613599,-6.4462184066672235,0.01953971048566928,0.00016530701180453183,-1.1490772891550989
17210,1.0,299.93388,73372.364,0.0,-0.1721002555970682,0.0,0.0,0.0,0.0,-4.972797632676915,-10.90576788006549,-6.4248013393035235,0.016988778378411885,0.003608228493079426,-1.1531117470782688
17211,1.0,299.62506,73380.489,0.0,-0.17211025158448767,0.0,0.0,0.0,0.0,-4.990348036334005,-10.90936390467039,-6.406124809485294,0.015712863454988884,-0.025299008855317773,-1.1640443103572289
17212,1.0,300.43654,73682.507,0.0,-0.17212028056196438,0.0,0.0,0.0,0.0,-5.035261664241635,-10.91874761384649,-6.443632693737034,-0.01000035879880857,-0.008041949512153623,-1.1439219739713091
17213,1.0,300.3162,73773.415,0.0,-0.17213027654938373,0.0,0.0,0.0,0.0,-5.032578881951865,-10.93324114327689,-6.459455505973623,0.0025547192308311576,0.013290469215667186,-1.150383875159049
17214,1.0,299.78688999999997,73615.61099999999,0.0,-0.17214027253680309,0.0,0.0,0.0,0.0,-5.007582711259936,-10.92091596906049,-6.448809084522904,-0.003901383734536596,0.03331920054409907,-1.1392452168097489
17215,1.0,300.42102,73614.76299999999,0.0,-0.17215026852422233,0.0,0.0,0.0,0.0,-4.993513328321395,-10.90942064667599,-6.4741155123954535,-0.0053879833459525555,0.019516652966393683,-1.143692168848629
17216,1.0,299.67607999999996,73592.23599999999,0.0,-0.17216026451164168,0.0,0.0,0.0,0.0,-5.001305221590395,-10.90756234599259,-6.4613343756340536,-0.006343301276785094,-0.00018203947945089782,-1.1491329165855888
17217,1.0,299.75187999999997,73635.198,0.0,-0.17217026049906092,0.0,0.0,0.0,0.0,-5.043835887912846,-10.89637809138879,-6.443047845779314,0.01115243247115939,0.004660234598804345,-1.138223151433879
17218,1.0,300.61703,73754.26,0.0,-0.17218025648648017,0.0,0.0,0.0,0.0,-5.058731677632945,-10.91361347558979,-6.447107837605004,-0.014452632629863786,0.005849545718955214,-1.143642924893769
17219,1.0,299.59905,73507.032,0.0,-0.17219025247389963,0.0,0.0,0.0,0.0,-5.0233998492959655,-10.887964062558389,-6.432938852181635,0.0004102176264453276,-0.026992471985949576,-1.1365584828445887
17220,1.0,299.60933,73507.063,0.0,-0.17220028145137634,0.0,0.0,0.0,0.0,-4.996605767626596,-10.90558346854729,-6.442122545787994,-0.02131621351499648,-0.0052307267277825345,-1.125897166617399
17221,1.0,299.46975,73887.49,0.0,-0.1722102774387957,0.0,0.0,0.0,0.0,-5.033525865495325,-10.940491960992489,-6.485934162886864,0.016326626530812585,0.00945714163999721,-1.117899887553129
17222,1.0,299.01556,73970.105,0.0,-0.17222027342621504,0.0,0.0,0.0,0.0,-5.072713515762845,-10.934933270943889,-6.477417998446384,0.016399347490489585,0.0013930086381042487,-1.130793697725649
17223,1.0,299.91242,73692.647,0.0,-0.17223026941363417,0.0,0.0,0.0,0.0,-5.042518662782846,-10.93142843884799,-6.4267769743485035,0.003874627751070986,-0.015916834753119283,-1.1458705552386188
17224,1.0,300.06424,73456.839,0.0,-0.17224026540105375,0.0,0.0,0.0,0.0,-5.002355556644055,-10.934593832160388,-6.392095247275684,-0.003469565115569417,-0.017321243974723684,-1.158371629672379
17225,1.0,300.06225,73645.41900000001,0.0,-0.17225026138847288,0.0,0.0,0.0,0.0,-5.009901230138755,-10.925271931240388,-6.4511951871833935,-0.01082431979727719,0.004281019162753696,-1.1478754732114889
17226,1.0,300.4379,73736.85,0.0,-0.17226025737589223,0.0,0.0,0.0,0.0,-4.996502618766415,-10.94698892063369,-6.470669955430403,-0.02052510228741988,0.012393141006607789,-1.1665805766825388
17227,1.0,299.64026,73589.107,0.0,-0.1722702533633116,0.0,0.0,0.0,0.0,-4.962101663296305,-10.930509421007288,-6.476639721044574,-0.013643298099238687,-0.003465913868834067,-1.147336829458329
17228,1.0,300.06106,73658.804,0.0,-0.1722802823407883,0.0,0.0,0.0,0.0,-5.020845851093905,-10.921711370388989,-6.447879934181204,-0.003410234053313897,0.008157957529352722,-1.151305628775019
17229,1.0,300.20998,73859.041,0.0,-0.17229027832820754,0.0,0.0,0.0,0.0,-5.050432348713866,-10.93360287356259,-6.4672688801447435,0.006592318431961174,0.014821409056759185,-1.133829901650299
17230,1.0,299.82587,73844.349,0.0,-0.172300274315627,0.0,0.0,0.0,0.0,-5.062312300836325,-10.926551666116689,-6.457974640952473,0.008460193923506132,0.009384685645221361,-1.144470142275409
17231,1.0,299.8731,73892.569,0.0,-0.17231027030304624,0.0,0.0,0.0,0.0,-5.0462678908028655,-10.94405454834409,-6.471173540730104,-0.002005007544178838,-0.024853419964841576,-1.1230326072596888
17232,1.0,300.05357999999995,73684.156,0.0,-0.1723202662904656,0.0,0.0,0.0,0.0,-5.016157036256154,-10.914643950941489,-6.467342543427014,-0.0007901509096618233,0.013618806831071587,-1.128210923220749
17233,1.0,299.86415,73570.423,0.0,-0.17233026227788484,0.0,0.0,0.0,0.0,-4.9863095254104355,-10.92523140123639,-6.452030510565834,-0.013701782895010686,0.014866544282463687,-1.111833356554409
17234,1.0,299.90455,73825.14,0.0,-0.17234025826530408,0.0,0.0,0.0,0.0,-5.065935075243865,-10.93659601435799,-6.438467752677294,-0.0049989032109033354,-0.0004571754762972066,-1.139260415561249
17235,1.0,299.57113,73915.577,0.0,-0.17235025425272354,0.0,0.0,0.0,0.0,-5.069078278379075,-10.939822202676389,-6.459589558961853,-0.013210117469487088,-0.0034861985278860064,-1.131219364092659
17236,1.0,299.9048,73700.549,0.0,-0.17236028323020036,0.0,0.0,0.0,0.0,-5.028567728780995,-10.94480840641849,-6.429750660741984,0.024969540452801774,0.01126811928807679,-1.136719184310449
17237,1.0,299.83412999999996,73782.595,0.0,-0.1723702792176195,0.0,0.0,0.0,0.0,-5.001914995500575,-10.94839227202219,-6.477758957105034,0.010828815587970888,-0.003415467287430377,-1.132508623519899
17238,1.0,299.26608,74044.312,0.0,-0.17238027520503885,0.0,0.0,0.0,0.0,-5.018686007180745,-10.962602091424591,-6.526333457623965,0.005119317954112345,0.00017663575587259183,-1.1381826214298791
17239,1.0,299.43515,73988.302,0.0,-0.1723902711924582,0.0,0.0,0.0,0.0,-5.012084885429266,-10.96656389931559,-6.511947839329213,0.008980111902893042,-0.019824111550237482,-1.145204748597909
17240,1.0,299.81401,73801.299,0.0,-0.17240026717987755,0.0,0.0,0.0,0.0,-5.037086932971775,-10.94166023835779,-6.455005108884404,-0.005088160918837385,0.0029407506989794973,-1.1430954658647388
17241,1.0,300.15833,73718.057,0.0,-0.1724102631672968,0.0,0.0,0.0,0.0,-5.0359740803869455,-10.93689694963769,-6.435577760742074,-0.008872493393871922,0.0068018166040870335,-1.170903000284129
17242,1.0,300.52527000000003,73687.953,0.0,-0.17242025915471604,0.0,0.0,0.0,0.0,-5.0380273303895855,-10.93427364512879,-6.4269968496202035,-0.014553187569787787,-0.012918578057964387,-1.166701153444439
17243,1.0,300.25302,73762.726,0.0,-0.1724302551421355,0.0,0.0,0.0,0.0,-5.0180822114461545,-10.93817769776409,-6.465767243496543,-0.016517937268943485,0.0037730164979177363,-1.1684505297420889
17244,1.0,300.03673,73960.07400000001,0.0,-0.17244025112955474,0.0,0.0,0.0,0.0,-5.023881953693546,-10.95524690894869,-6.5028866476599445,-0.012039122567418887,0.02184948298962608,-1.1294103073641188
17245,1.0,299.83689,73890.95599999999,0.0,-0.17245028010703145,0.0,0.0,0.0,0.0,-5.033638133606405,-10.94423895986229,-6.483128068059924,0.0036035237702151065,0.008003529905461902,-1.142712457326939
17246,1.0,299.94633999999996,73885.97,0.0,-0.1724602760944508,0.0,0.0,0.0,0.0,-5.059197164728886,-10.95170357334899,-6.448588803951163,-0.029610789277857368,0.0035188230532807964,-1.1265350075553489
17247,1.0,300.32209,74135.664,0.0,-0.17247027208187016,0.0,0.0,0.0,0.0,-5.091364309028536,-10.98482063961739,-6.459205638498965,-0.0014425340738420287,-0.0026446510540567374,-1.1549599152606689
17248,1.0,300.68874,74177.423,0.0,-0.1724802680692895,0.0,0.0,0.0,0.0,-5.080719407452965,-10.97811393720549,-6.4892511384142235,0.014487016258757186,0.001192040511945239,-1.130877392183909
17249,1.0,300.02891,73903.101,0.0,-0.17249026405670875,0.0,0.0,0.0,0.0,-5.013254176044666,-10.97649577679579,-6.474947897352604,0.024666143988608877,-0.0059498947664588945,-1.1660925954343788
17250,1.0,300.0744,73880.705,0.0,-0.172500260044128,0.0,0.0,0.0,0.0,-4.998552727693745,-10.96008720467639,-6.499249890401023,0.01748096562773698,-0.034560005338306964,-1.1214315707766789
17251,1.0,299.4407,73886.939,0.0,-0.17251025603154735,0.0,0.0,0.0,0.0,-5.030306161977566,-10.93601339555049,-6.493465448230144,0.015164072002077384,-0.013584322890418289,-1.131530026573319
17252,1.0,299.6233,73904.087,0.0,-0.1725202520189667,0.0,0.0,0.0,0.0,-5.045003658653095,-10.94681970786699,-6.473173493777484,0.010638894015727091,0.01130580408579599,-1.120019505437319
17253,1.0,299.83875,74009.883,0.0,-0.1725302809964434,0.0,0.0,0.0,0.0,-5.075537747766575,-10.95377060355299,-6.467847749926873,-0.006289082567909124,-0.0008990716375789622,-1.1652314341743888
17254,1.0,299.47846,73932.491,0.0,-0.17254027698386287,0.0,0.0,0.0,0.0,-5.052556222248475,-10.93910887460599,-6.481966174170253,-0.024175482693934377,-0.002165816819849478,-1.1566664310790888
17255,1.0,299.56295,73828.016,0.0,-0.172550272971282,0.0,0.0,0.0,0.0,-5.026033894255925,-10.94827372176049,-6.467565357124004,-0.03230125808288597,0.012748636764442487,-1.139790345363549
17256,1.0,300.5716,74014.21,0.0,-0.17256026895870147,0.0,0.0,0.0,0.0,-5.031300059000655,-10.97044160744829,-6.496730545352384,-0.01109403785464629,0.02153047234139218,-1.1365440946931689
17257,1.0,300.47459,74105.783,0.0,-0.1725702649461207,0.0,0.0,0.0,0.0,-5.060393103821916,-10.98505166064019,-6.480862744811354,-0.005165911044060725,0.0035636114434760666,-1.1370535568434488
17258,1.0,300.90487,74020.88900000001,0.0,-0.17258026093353995,0.0,0.0,0.0,0.0,-5.032809902974666,-10.998886577505589,-6.468805068621354,-0.003470609371122477,0.005851344541857744,-1.154887670528539
17259,1.0,301.01777000000004,73967.822,0.0,-0.1725902569209593,0.0,0.0,0.0,0.0,-5.019642413950136,-11.00050676441549,-6.464221125168953,0.016569072961740185,0.02248854489394658,-1.1502283412686989
17260,1.0,300.13687999999996,74182.083,0.0,-0.17260025290837866,0.0,0.0,0.0,0.0,-5.055016596141295,-10.99804659317269,-6.496438222698535,0.02395488598816318,0.01077439392509989,-1.1514110067854189
17261,1.0,300.27353,74326.409,0.0,-0.17261028188585537,0.0,0.0,0.0,0.0,-5.0674901101723355,-10.991366235263389,-6.534516060131524,0.008164360763359673,-0.014430541751183587,-1.119603667596279
17262,1.0,300.02426,74030.695,0.0,-0.17262027787327483,0.0,0.0,0.0,0.0,-5.035204111635955,-10.95972446114059,-6.508553958119264,0.02036766247363178,-0.03289302147253847,-1.1276847424438188
17263,1.0,299.49417,73936.989,0.0,-0.17263027386069396,0.0,0.0,0.0,0.0,-5.036358406149875,-10.95311097773789,-6.485528558871834,0.008579518916232591,-0.01946856918289818,-1.111324198379159
17264,1.0,299.22623,74065.07,0.0,-0.17264026984811343,0.0,0.0,0.0,0.0,-5.053234593190425,-10.95853591877329,-6.502161971188424,-0.0038848836659331662,0.0032604070915021265,-1.1418322469650688
17265,1.0,299.0904,74119.798,0.0,-0.17265026583553267,0.0,0.0,0.0,0.0,-5.052325302550686,-10.985964598980289,-6.492277615137914,-0.01907379478493698,-0.008096400660602533,-1.1722429222163688
17266,1.0,299.85425,74093.151,0.0,-0.1726602618229519,0.0,0.0,0.0,0.0,-5.052078576151335,-10.97436896483589,-6.496020662332324,-0.009585423358307631,0.018725219525285282,-1.153710476562359
17267,1.0,300.44644,74075.563,0.0,-0.17267025781037137,0.0,0.0,0.0,0.0,-5.052422067935236,-10.96761261316909,-6.497087310712594,-0.016681351205321184,0.022865380712137378,-1.1444456216229888
17268,1.0,300.53812,73889.098,0.0,-0.1726802537977905,0.0,0.0,0.0,0.0,-5.033291703397215,-10.96183708759909,-6.465311990226614,0.013304038661006386,0.003437996295453817,-1.130588109280359
17269,1.0,300.16391,74099.321,0.0,-0.17269028277526732,0.0,0.0,0.0,0.0,-5.059371747721115,-10.991144333491489,-6.473827445392024,-0.025279095451102476,-0.005033630534230654,-1.1518146856252591
17270,1.0,299.93196,74338.137,0.0,-0.17270027876268668,0.0,0.0,0.0,0.0,-5.085211753096325,-11.00314932067629,-6.508576654921503,0.008304636829728842,-0.0008146856665232153,-1.151775067546349
17271,1.0,299.80748,74160.533,0.0,-0.17271027475010592,0.0,0.0,0.0,0.0,-5.048681756516095,-11.005377457646189,-6.4888906240286435,0.01015683318790139,0.01899397398180928,-1.1534728694139091
17272,1.0,300.04863,73910.322,0.0,-0.17272027073752538,0.0,0.0,0.0,0.0,-5.003665790348365,-10.99346974247099,-6.4697571184153135,0.006180110559404425,0.016217590687551586,-1.1643552768129188
17273,1.0,299.14178,74024.93,0.0,-0.17273026672494463,0.0,0.0,0.0,0.0,-5.027215242547515,-10.98218112310689,-6.492333951843474,-0.007493445822270523,-0.01828642042372918,-1.1488253951802387
17274,1.0,299.91316,74202.17,0.0,-0.17274026271236387,0.0,0.0,0.0,0.0,-5.061136322770265,-10.997890552657289,-6.496579773737503,0.004413805588358696,-0.013001061682354886,-1.148447452892939
17275,1.0,300.15462,73917.617,0.0,-0.17275025869978333,0.0,0.0,0.0,0.0,-5.016362928676475,-10.98095711698609,-6.4717897994409235,0.0040524328786189865,0.008260960582843332,-1.1604224478747789
17276,1.0,300.51266,73939.392,0.0,-0.17276025468720246,0.0,0.0,0.0,0.0,-5.018964346983215,-10.987344645616488,-6.469420314082074,-0.005773859482860564,-0.02358256521241798,-1.1624597898508489
17277,1.0,300.08057,74130.307,0.0,-0.17277028366467928,0.0,0.0,0.0,0.0,-5.050452208415825,-10.98292687518049,-6.5003829066628445,-0.017028448133076985,-0.015571523172039685,-1.1585818790681288
17278,1.0,300.16474,74318.576,0.0,-0.17278027965209863,0.0,0.0,0.0,0.0,-5.090633451731405,-10.99763420038199,-6.502723413068835,-0.0016561632666255884,0.004541868241997496,-1.129105623059049
17279,1.0,299.9503,74402.701,0.0,-0.172790275639518,0.0,0.0,0.0,0.0,-5.087498050621965,-11.00449086380869,-6.524574759425394,0.028728107598993476,0.03220233548887307,-1.137033697141489
17280,1.0,299.96682999999996,74335.259,0.0,-0.17280027162693734,0.0,0.0,0.0,0.0,-5.085814839555845,-10.99695126981459,-6.5132967791873435,0.005366927907549546,0.0018326175291402682,-1.138090415670779
17281,1.0,299.27845,74087.085,0.0,-0.17281026761435658,0.0,0.0,0.0,0.0,-5.0394681720317855,-10.99586202595709,-6.485293282198614,-0.010791288857267291,-0.014992125486607588,-1.1752495392380988
17282,1.0,299.73842,74047.633,0.0,-0.17282026360177583,0.0,0.0,0.0,0.0,-5.042080026814555,-10.99711440308069,-6.469437134033734,-0.008868567860334502,0.004696640573572336,-1.1435383574834488
17283,1.0,299.91336,74205.769,0.0,-0.17283025958919518,0.0,0.0,0.0,0.0,-5.060735987655755,-10.981556961045289,-6.514408111897024,-0.008546141343363482,0.016732108955830584,-1.142332893839479
17284,1.0,299.81573,74138.664,0.0,-0.17284025557661442,0.0,0.0,0.0,0.0,-5.058370656622316,-10.98311432644899,-6.494817225188553,-0.007327314247799612,-0.01033432218141819,-1.1159241511831388
17285,1.0,300.38166,74128.602,0.0,-0.17285025156403389,0.0,0.0,0.0,0.0,-5.045055638383225,-10.99582048270299,-6.492367895721824,-0.013545180025805187,-0.00939193119403644,-1.1428754892680288
17286,1.0,299.90356,74469.69900000001,0.0,-0.1728602805415106,0.0,0.0,0.0,0.0,-5.121561999108816,-11.006213388978688,-6.509153295553414,0.008788894890396392,0.004183910691719836,-1.119867821897349
17287,1.0,300.63888,74551.962,0.0,-0.17287027652892983,0.0,0.0,0.0,0.0,-5.113800503342815,-11.02403037873709,-6.524103699453903,0.006527675811356443,0.012805468949301388,-1.152972931814569
17288,1.0,300.30165,74304.44,0.0,-0.1728802725163493,0.0,0.0,0.0,0.0,-5.069864661781685,-11.02087309142549,-6.495956726251014,0.006819449182327233,-0.026243689281300473,-1.1475621762805688
17289,1.0,299.96383,74190.231,0.0,-0.17289026850376843,0.0,0.0,0.0,0.0,-5.046925490117766,-11.00406935176709,-6.500983358672103,0.0024772090432314976,-0.018641623352284982,-1.1357238687372189
17290,1.0,299.87268,74175.36,0.0,-0.17290026449118778,0.0,0.0,0.0,0.0,-5.0457537677021245,-10.993739266997588,-6.507964753186114,-0.0020139790632142584,0.011197278920585389,-1.127556667631179
17291,1.0,299.89275,74048.64,0.0,-0.17291026047860714,0.0,0.0,0.0,0.0,-5.022964658378015,-10.986460078279189,-6.499513132777003,0.000902480170385358,0.0004467385544371626,-1.148057250279429
17292,1.0,299.39633,74167.306,0.0,-0.1729202564660265,0.0,0.0,0.0,0.0,-5.0684688084439244,-10.99775781689419,-6.478782238381023,-0.008545905053440163,-0.02075166399652978,-1.153021162519329
17293,1.0,299.75627000000003,74283.352,0.0,-0.17293025245344584,0.0,0.0,0.0,0.0,-5.077654224575455,-11.01126444072719,-6.491365690047914,0.0019545358341726683,0.012089760754416487,-1.1535448101710088
17294,1.0,299.20759,74233.245,0.0,-0.17294028143092255,0.0,0.0,0.0,0.0,-5.070504529219836,-11.01800559364249,-6.476542449034974,0.014469303633759088,0.02453131383755218,-1.145768824928579
17295,1.0,299.63267,74402.228,0.0,-0.1729502774183418,0.0,0.0,0.0,0.0,-5.075865736823945,-11.029380339265089,-6.511173310952774,-0.014972146221135787,0.016485355198727885,-1.127696800120009
17296,1.0,299.88936,74605.337,0.0,-0.17296027340576126,0.0,0.0,0.0,0.0,-5.106394354386886,-11.03051619262719,-6.541248904396003,-0.007898455059491823,-0.01298079364060459,-1.119772475062939
17297,1.0,300.31931000000003,74416.225,0.0,-0.1729702693931805,0.0,0.0,0.0,0.0,-5.072319361473945,-11.03125485195009,-6.517100418737734,0.004269379958854996,0.0013897335098060186,-1.135387368379009
17298,1.0,300.39075,74138.808,0.0,-0.17298026538059974,0.0,0.0,0.0,0.0,-5.076813632292495,-11.00860161946439,-6.450931032882324,0.018128337196127584,0.013390887366827687,-1.1499115992874387
17299,1.0,300.52167000000003,74278.599,0.0,-0.1729902613680191,0.0,0.0,0.0,0.0,-5.0738111695961745,-11.01647558599149,-6.488552401145264,0.0045588363308221155,-0.010358719217325991,-1.162478838952729
17300,1.0,300.64617000000004,74274.31599999999,0.0,-0.17300025735543834,0.0,0.0,0.0,0.0,-5.095096615771886,-10.99878221274529,-6.483658909787314,0.004571467506568716,-0.019732946398990182,-1.158322689692549
17301,1.0,299.80641,74206.804,0.0,-0.1730102533428578,0.0,0.0,0.0,0.0,-5.0427209075028046,-11.00482422309159,-6.509469936209665,0.002351779725277588,0.012188387479400188,-1.137743174861509
17302,1.0,299.38711,74316.474,0.0,-0.1730202823203345,0.0,0.0,0.0,0.0,-5.058499440710025,-10.99525306264699,-6.5366001129372036,0.017170974931893287,0.025927780191622677,-1.137978654184749
17303,1.0,299.64687999999995,74402.892,0.0,-0.17303027830775375,0.0,0.0,0.0,0.0,-5.060646618996936,-11.02631931071299,-6.529655296751804,-0.02054303580093978,-0.005499112158620114,-1.1485514123531988
17304,1.0,299.8982,74377.62299999999,0.0,-0.1730402742951731,0.0,0.0,0.0,0.0,-5.096461666306604,-11.03023856209979,-6.482239549047234,-0.03341363545341907,-0.02101365804838658,-1.157323929068979
17305,1.0,300.32788999999997,74559.77,0.0,-0.17305027028259246,0.0,0.0,0.0,0.0,-5.099436669925216,-11.04476046253299,-6.520111291409884,-0.009668061402013371,0.0005883008202182704,-1.165445432595509
17306,1.0,300.15044,74513.337,0.0,-0.1730602662700116,0.0,0.0,0.0,0.0,-5.101498633878715,-11.045194133575789,-6.503501690470644,0.012201003456395288,0.014473224911646088,-1.1487836492761188
17307,1.0,299.9858,74239.119,0.0,-0.17307026225743105,0.0,0.0,0.0,0.0,-5.023324564813536,-11.03787238835319,-6.5056413707068135,0.011581753631280091,0.0001917797716021898,-1.153377319929479
17308,1.0,300.26742,74398.98,0.0,-0.1730802582448503,0.0,0.0,0.0,0.0,-5.045490322676125,-11.05967753050519,-6.510264425613074,0.004181797254661257,-0.009352901813434542,-1.147225169297309
17309,1.0,299.45916,74498.149,0.0,-0.17309025423226965,0.0,0.0,0.0,0.0,-5.082271503956145,-11.04280590309009,-6.520499872823234,0.017145450148624185,0.012093284838264289,-1.155276150616879
17310,1.0,299.08952,74323.512,0.0,-0.17310028320974646,0.0,0.0,0.0,0.0,-5.088794808099945,-11.03209382303289,-6.471603361422524,0.0026206108848341575,0.008214167072025174,-1.155150811579509
17311,1.0,299.16759,74254.438,0.0,-0.1731102791971657,0.0,0.0,0.0,0.0,-5.060822417889286,-11.02209101804569,-6.488581380098124,0.0022664137083276176,-0.015760728376462786,-1.170331223252699
17312,1.0,298.84486,74392.82,0.0,-0.17312027518458506,0.0,0.0,0.0,0.0,-5.098165750324786,-11.01114893021579,-6.5042448080939845,-0.02320203913736298,-0.018134245457460684,-1.1365153183903292
17313,1.0,299.42857999999995,74435.423,0.0,-0.1731302711720044,0.0,0.0,0.0,0.0,-5.047942995868185,-11.03361268493279,-6.544954562661723,-0.003565383921875997,0.007042428241733554,-1.142773353657949
17314,1.0,299.69231,74365.276,0.0,-0.17314026715942354,0.0,0.0,0.0,0.0,-5.054029690543895,-11.03094986366999,-6.520207550169385,-0.012776482903690689,0.0032637716897841867,-1.130436527065399
17315,1.0,299.88378,74391.866,0.0,-0.173150263146843,0.0,0.0,0.0,0.0,-5.061135005545135,-11.03943684650759,-6.512697745728223,-0.0021810709961299483,-0.01124120736542079,-1.1584969687097488
17316,1.0,300.67368999999997,74573.394,0.0,-0.17316025913426225,0.0,0.0,0.0,0.0,-5.115754860135695,-11.058032012342789,-6.494662704548304,-0.022078566678234875,-0.01108304814406169,-1.140462636804899
17317,1.0,300.40031,74727.25200000001,0.0,-0.1731702551216816,0.0,0.0,0.0,0.0,-5.108885125782704,-11.06079007911499,-6.5455430583198035,0.006803924366945054,0.00954356913775194,-1.156742120861559
17318,1.0,300.11905,74774.064,0.0,-0.17318028409915842,0.0,0.0,0.0,0.0,-5.1250413986272045,-11.06200496598489,-6.5424015777097635,-0.009236247849296692,0.0025719114505778976,-1.1202003705801689
17319,1.0,300.04438,74615.356,0.0,-0.17319028008657766,0.0,0.0,0.0,0.0,-5.061134498920086,-11.06011930754879,-6.559950968116754,0.014826009212213184,-0.013150260733079688,-1.133807103523049
17320,1.0,300.59033999999997,74508.87700000001,0.0,-0.17320027607399713,0.0,0.0,0.0,0.0,-5.068331209080346,-11.04272079008169,-6.537786426154284,0.005496982509559934,0.006070059236893204,-1.116755624215199
17321,1.0,300.84758999999997,74617.604,0.0,-0.17321027206141626,0.0,0.0,0.0,0.0,-5.086708120844005,-11.06469413175029,-6.5304862631588145,0.025186016270416275,0.022378660960351876,-1.150883204808329
17322,1.0,300.97426,74550.898,0.0,-0.1732202680488356,0.0,0.0,0.0,0.0,-5.102141439742154,-11.04452133550939,-6.514948984800403,0.009617034633602422,0.016451103292347485,-1.136111234250449
17323,1.0,299.97700000000003,74389.687,0.0,-0.17323026403625497,0.0,0.0,0.0,0.0,-5.065140281865425,-11.052711436067689,-6.4947554169324535,0.006687657363020395,-0.00982614868261537,-1.153996922365629
17324,1.0,299.43677,74430.284,0.0,-0.1732402600236742,0.0,0.0,0.0,0.0,-5.061613056942315,-11.04718213027199,-6.516153029894235,0.01042110299948279,-0.007040215911465213,-1.1472576946255189
17325,1.0,299.84252000000004,74616.606,0.0,-0.17325025601109356,0.0,0.0,0.0,0.0,-5.0730916607001655,-11.04699569225359,-6.561497390419373,0.005116135436873255,0.0039539950234539255,-1.153534475019989
17326,1.0,299.67897999999997,74572.91,0.0,-0.17326028498857038,0.0,0.0,0.0,0.0,-5.083433093870786,-11.05628111616999,-6.5285889523465634,-0.007870692614701883,0.01031271867603609,-1.1566821364556388
17327,1.0,299.91892,74499.437,0.0,-0.17327028097598962,0.0,0.0,0.0,0.0,-5.094328470871075,-11.044984390805089,-6.506655634056914,-0.017682978313424084,-0.018662178143813584,-1.154920702481799
17328,1.0,300.4885,74652.271,0.0,-0.17328027696340897,0.0,0.0,0.0,0.0,-5.112244657814266,-11.04831899688419,-6.531862256794613,0.003641894436926997,0.004479500165217246,-1.155462385985259
17329,1.0,300.30338,74729.575,0.0,-0.17329027295082822,0.0,0.0,0.0,0.0,-5.100846607439365,-11.07670215868539,-6.538375833737454,-0.005867979170074454,0.007100484432713253,-1.1470618333811888
17330,1.0,299.98523,74723.996,0.0,-0.17330026893824757,0.0,0.0,0.0,0.0,-5.090216195340226,-11.06567698434729,-6.558335847457354,0.003990896477520816,0.01208707361515129,-1.143443821249119
17331,1.0,300.35188999999997,74704.269,0.0,-0.17331026492566692,0.0,0.0,0.0,0.0,-5.067683032991375,-11.07735165199949,-6.563197826737194,-0.012667605127445289,-0.005445014533131095,-1.1319583273905889
17332,1.0,300.0561,74570.63,0.0,-0.17332026091308605,0.0,0.0,0.0,0.0,-5.090741970817115,-11.06143754592889,-6.515429771972853,0.010827674668358291,0.0069079371241603125,-1.146866985386959
17333,1.0,299.75757000000004,74516.473,0.0,-0.17333025690050563,0.0,0.0,0.0,0.0,-5.097586272592595,-11.04525796833209,-6.508303280044524,0.016835732017057382,0.006347154970890424,-1.1503898533346388
17334,1.0,299.77127,74657.256,0.0,-0.17334025288792476,0.0,0.0,0.0,0.0,-5.116068157066615,-11.05908984544719,-6.518783933778884,0.009239653686857821,0.0036187398482918167,-1.1576052072967389
17335,1.0,299.03246,74655.378,0.0,-0.17335028186540158,0.0,0.0,0.0,0.0,-5.105550114403566,-11.04578891138449,-6.542031944073284,0.0031534576315220366,-0.008392143337515062,-1.154004825716409
17336,1.0,299.28227999999996,74656.933,0.0,-0.17336027785282093,0.0,0.0,0.0,0.0,-5.094144464652915,-11.058840585922589,-6.540858296482454,0.008308371466947424,0.005025872179539964,-1.1502892375997091
17337,1.0,299.86258,74713.84599999999,0.0,-0.17337027384024029,0.0,0.0,0.0,0.0,-5.075027576341225,-11.084267083931989,-6.551849324292184,0.009953240642658371,0.005203549536250355,-1.1617856745593187
17338,1.0,299.99376,74714.906,0.0,-0.17338026982765942,0.0,0.0,0.0,0.0,-5.105553964753945,-11.07342226811169,-6.5324891546314845,-0.015407522563854087,-0.009826481940573261,-1.1312005176407989
17339,1.0,300.29623,74790.15,0.0,-0.17339026581507888,0.0,0.0,0.0,0.0,-5.093075891097455,-11.105479474775489,-6.535782926731553,-0.02345864067218758,-0.008432011385224732,-1.1619477945753187
17340,1.0,300.02091,74756.202,0.0,-0.17340026180249812,0.0,0.0,0.0,0.0,-5.101462359525136,-11.08414853367029,-6.538407447140574,-0.033565272383884466,0.008172172921630673,-1.1360068694901488
17341,1.0,299.78802,74608.709,0.0,-0.17341025778991748,0.0,0.0,0.0,0.0,-5.0629961433288155,-11.08217472247549,-6.534013488081924,-0.0013004081167652887,0.01174381791852459,-1.1559566493840387
17342,1.0,300.0511,74591.44099999999,0.0,-0.17342025377733672,0.0,0.0,0.0,0.0,-5.066453960620075,-11.08133372489249,-6.526148032855664,0.008680962983119342,-0.0009601581151027281,-1.147288092128519
17343,1.0,300.08966000000004,74706.893,0.0,-0.17343028275481354,0.0,0.0,0.0,0.0,-5.098381268621055,-11.07039771656319,-6.5402513596725536,0.018785447111229283,-0.0047986512499150055,-1.1643187998093187
17344,1.0,300.01081,74757.677,0.0,-0.1734402787422329,0.0,0.0,0.0,0.0,-5.1264904475952155,-11.07971860423309,-6.518258462277024,0.006778137759850113,0.0008173513654162992,-1.1567879197660789
17345,1.0,299.40103999999997,74586.504,0.0,-0.17345027472965213,0.0,0.0,0.0,0.0,-5.093157660380525,-11.06067659510379,-6.518600940810824,0.013672212204092288,-0.004563054693638436,-1.1579945993101688
17346,1.0,299.54445,74675.897,0.0,-0.17346027071707137,0.0,0.0,0.0,0.0,-5.088004067721905,-11.07271501954189,-6.538889247563123,0.005961029067832765,-0.0038123672814513562,-1.1544649425868188
17347,1.0,299.70725,74831.811,0.0,-0.17347026670449073,0.0,0.0,0.0,0.0,-5.100715796851454,-11.08646178364859,-6.559824311854253,0.016356289427490085,0.001239074264362109,-1.141990516630689
17348,1.0,299.71061000000003,74916.61,0.0,-0.17348026269191008,0.0,0.0,0.0,0.0,-5.107159763512425,-11.08959171320749,-6.576027599503393,-0.0051621357755131355,0.011524000402080289,-1.136685443082119
17349,1.0,299.88926000000004,74762.396,0.0,-0.17349025867932943,0.0,0.0,0.0,0.0,-5.104500387299965,-11.08292554079959,-6.5384759428473345,-0.0004927459250327366,-0.0031104802232304967,-1.1370887166219188
17350,1.0,300.43493,74801.602,0.0,-0.17350025466674868,0.0,0.0,0.0,0.0,-5.112352974249955,-11.08645165114759,-6.539014890575523,-0.014986115900264487,-0.009227978107280531,-1.1285084134501089
17351,1.0,300.36983,74986.095,0.0,-0.1735102836442255,0.0,0.0,0.0,0.0,-5.129897095756425,-11.09288477603249,-6.5711189093939435,0.006020214931348954,-0.00973119650911932,-1.134037212620759
17352,1.0,300.72913,75010.337,0.0,-0.17352027963164485,0.0,0.0,0.0,0.0,-5.122065179108475,-11.09864611610109,-6.5805582460005345,-0.01827463936481648,-0.008888028848380152,-1.1327111722148888
17353,1.0,300.32291000000004,74823.201,0.0,-0.1735302756190641,0.0,0.0,0.0,0.0,-5.099198556151715,-11.08235508099329,-6.562831536826044,0.0025430455764290576,-0.0006077244294677315,-1.1260510793075889
17354,1.0,300.42762,74731.175,0.0,-0.17354027160648333,0.0,0.0,0.0,0.0,-5.093016919941635,-11.08395196315089,-6.539441975492673,-0.007995378308407403,8.306455714983351e-05,-1.1333956226574389
17355,1.0,299.98163,74776.525,0.0,-0.1735502675939028,0.0,0.0,0.0,0.0,-5.108858173330045,-11.09896326338239,-6.522375500083344,0.012833561308323888,0.006171736857928004,-1.156062331369469
17356,1.0,299.98749,74866.073,0.0,-0.17356026358132204,0.0,0.0,0.0,0.0,-5.131241475989104,-11.093336685577091,-6.532839029891013,-0.000988677822487404,0.0002597439476247318,-1.149336275880659
17357,1.0,300.24566,74844.609,0.0,-0.1735702595687414,0.0,0.0,0.0,0.0,-5.105231447247115,-11.10063715254759,-6.545023463668524,-0.015308663804597486,0.002623815997550478,-1.149085699130929
17358,1.0,299.67815,74624.51,0.0,-0.17358025555616063,0.0,0.0,0.0,0.0,-5.067191809342895,-11.08107129311659,-6.535724056900744,-0.0003440084198609877,-0.0006801722270502723,-1.153412074407909
17359,1.0,299.75226000000004,74756.68400000001,0.0,-0.17359028453363734,0.0,0.0,0.0,0.0,-5.062255862805754,-11.09818610055569,-6.563723399564064,-0.013612119380411587,-5.0488188492546246e-05,-1.146763532551749
17360,1.0,300.67975,75061.56599999999,0.0,-0.1736002805210568,0.0,0.0,0.0,0.0,-5.120114571340966,-11.111320861601989,-6.585406039778974,0.001029623005715879,-0.002488844295454808,-1.1715118622692187
17361,1.0,299.97421,74986.892,0.0,-0.17361027650847605,0.0,0.0,0.0,0.0,-5.121067229084986,-11.11025188274649,-6.5628232281752235,-0.013370374118553187,0.02048017275148568,-1.1496856445151389
17362,1.0,299.82615,74734.701,0.0,-0.1736202724958954,0.0,0.0,0.0,0.0,-5.096517901687155,-11.10623839910039,-6.514726576403453,-0.005867284688455915,0.0098759350302539,-1.174484839387629
17363,1.0,300.37696,74879.009,0.0,-0.17363026848331475,0.0,0.0,0.0,0.0,-5.108214759516545,-11.098064510543688,-6.555069635760003,-0.0029462598410982073,-0.008872684594165792,-1.1316181793320188
17364,1.0,300.48469,75054.94,0.0,-0.17364026447073388,0.0,0.0,0.0,0.0,-5.130211304612436,-11.116396231352889,-6.5682207101329135,0.016321816632587884,-0.0025009063286202376,-1.144820524159989
17365,1.0,300.5671,74917.197,0.0,-0.17365026045815335,0.0,0.0,0.0,0.0,-5.093124223127225,-11.10565375379269,-6.574179228670974,0.00885476607674737,0.0010901098823604689,-1.117779209466219
17366,1.0,300.41151,74837.637,0.0,-0.1736602564455726,0.0,0.0,0.0,0.0,-5.105005391149805,-11.10932678540519,-6.534440572999073,0.015920102484691785,-0.0017778519691853281,-1.1573407490206387
17367,1.0,299.80872,74874.357,0.0,-0.1736702854230494,0.0,0.0,0.0,0.0,-5.1235719833321856,-11.09737854022599,-6.538984594397534,-0.007485660717777193,0.0030497387168357776,-1.1501264083086389
17368,1.0,299.78784,75014.086,0.0,-0.17368028141046876,0.0,0.0,0.0,0.0,-5.166611706504875,-11.10868235834159,-6.527114673451064,0.01111168867138829,-0.004138575754420626,-1.172863639227629
17369,1.0,300.35171,75091.70599999999,0.0,-0.173690277397888,0.0,0.0,0.0,0.0,-5.151354997099155,-11.11568796953299,-6.558961022769053,-0.0017460471631214386,0.005366594953566684,-1.157421099753569
17370,1.0,299.48151,74908.007,0.0,-0.17370027338530725,0.0,0.0,0.0,0.0,-5.120959216624325,-11.101305897613589,-6.5478988648023035,-0.004218608630794256,-0.005020533668738095,-1.1561654802296488
17371,1.0,299.73471,74804.12700000001,0.0,-0.1737102693727267,0.0,0.0,0.0,0.0,-5.058971513931615,-11.11215071343389,-6.567464116283244,-0.004643476658050465,-0.016522565795400283,-1.1630652067855989
17372,1.0,300.26378,75078.05900000001,0.0,-0.17372026536014584,0.0,0.0,0.0,0.0,-5.117571313589965,-11.127093112658589,-6.5771909119432035,0.000916322767686516,-0.007273626279326024,-1.1491773982649789
17373,1.0,299.86712,75164.158,0.0,-0.1737302613475653,0.0,0.0,0.0,0.0,-5.125751585622296,-11.13123831881769,-6.591037177209723,0.012739671527557688,0.01946348064089598,-1.153279338644809
17374,1.0,300.35804,74915.792,0.0,-0.17374025733498455,0.0,0.0,0.0,0.0,-5.122978624073625,-11.11710854617319,-6.532443153076944,0.0002886977110872457,0.009009304448874121,-1.145126728340209
17375,1.0,300.68692999999996,74779.106,0.0,-0.1737502533224038,0.0,0.0,0.0,0.0,-5.087287699901205,-11.10330706656109,-6.540386425910884,-0.0068897139224368235,-0.0022471761419290176,-1.154639525579049
17376,1.0,299.94452,74952.562,0.0,-0.17376028229988072,0.0,0.0,0.0,0.0,-5.133651288701936,-11.09923886740959,-6.550817227740323,-0.009833416725582671,-0.011598213879154589,-1.1475927764335887
17377,1.0,300.37714,75088.308,0.0,-0.17377027828729996,0.0,0.0,0.0,0.0,-5.123299824355325,-11.12691478064099,-6.574756173277914,-0.005351973754623684,0.004703902739689056,-1.144608349589049
17378,1.0,300.56358,74957.878,0.0,-0.1737802742747192,0.0,0.0,0.0,0.0,-5.115462334831824,-11.125389839240489,-6.5444706344139645,-0.015829841152533684,-0.015388991232775186,-1.151497234368929
17379,1.0,300.08207000000004,75062.227,0.0,-0.17379027026213856,0.0,0.0,0.0,0.0,-5.1355351232878546,-11.12715998716519,-6.554347087113694,-0.015974458286306285,-0.012363918873723788,-1.149178208865059
17380,1.0,300.37219,75238.98700000001,0.0,-0.1738002662495579,0.0,0.0,0.0,0.0,-5.1549816218570745,-11.140485239230289,-6.575306165432194,-0.004149330390982027,-9.47291530960395e-05,-1.1416525977223388
17381,1.0,299.87696,75189.938,0.0,-0.17381026223697726,0.0,0.0,0.0,0.0,-5.140081880461586,-11.13401057109129,-6.581770701070194,0.02061166930971338,0.013860864173960789,-1.1298092239284887
17382,1.0,300.00038,75175.162,0.0,-0.1738202582243965,0.0,0.0,0.0,0.0,-5.129313058398785,-11.12694619139409,-6.595113077061984,0.016414236187458985,-0.005744008020339454,-1.1255018977533888
17383,1.0,300.39027999999996,75098.696,0.0,-0.17383025421181575,0.0,0.0,0.0,0.0,-5.119433261973725,-11.11253473522179,-6.596160676340374,0.01036950425139039,-0.0015399029501515886,-1.123809466111359
17384,1.0,299.43906,74952.281,0.0,-0.17384028318929268,0.0,0.0,0.0,0.0,-5.1019154849698545,-11.11771649623319,-6.563989580365335,0.003934234316028696,0.0021481549586813884,-1.1466841950689188
17385,1.0,299.51693,75030.113,0.0,-0.17385027917671192,0.0,0.0,0.0,0.0,-5.130877516553185,-11.10247721472919,-6.573926118795994,-0.006908552774921074,0.01889277866782208,-1.130866347757819
17386,1.0,300.04253,75224.836,0.0,-0.17386027516413116,0.0,0.0,0.0,0.0,-5.148956532787445,-11.136485941085589,-6.581029001996994,-0.017440166099210383,-0.007012817628761213,-1.162821013511499
17387,1.0,299.50819,74944.686,0.0,-0.17387027115155052,0.0,0.0,0.0,0.0,-5.113080994446805,-11.12029217798739,-6.547940306731394,-0.022614021733330183,-0.00952259668453212,-1.1517298765918889
17388,1.0,299.96143,74918.989,0.0,-0.17388026713896987,0.0,0.0,0.0,0.0,-5.107138282610305,-11.13530550471909,-6.531058040190244,-0.015725096423446185,0.007756134254420852,-1.173246546440419
17389,1.0,300.2418,75139.803,0.0,-0.17389026312638922,0.0,0.0,0.0,0.0,-5.118597026666196,-11.150490070717689,-6.571537179035224,-0.0025107148935632675,0.008555842807770941,-1.1455314204301488
17390,1.0,300.11281,75196.576,0.0,-0.17390025911380846,0.0,0.0,0.0,0.0,-5.154064225216535,-11.14883745980459,-6.5549792538510845,0.007400241099896932,-0.020172161946337377,-1.1507207808172988
17391,1.0,300.74275,75227.463,0.0,-0.1739102551012277,0.0,0.0,0.0,0.0,-5.1256845084656755,-11.16018586092459,-6.581400459483653,0.007268382507408503,-0.018509012218947282,-1.154736898913659
17392,1.0,300.30717999999996,75196.118,0.0,-0.17392028407870463,0.0,0.0,0.0,0.0,-5.138835177538545,-11.14903707007429,-6.569870382620723,0.03892547079089486,0.0027021696145333777,-1.152428512535839
17393,1.0,300.57386,75221.525,0.0,-0.17393028006612388,0.0,0.0,0.0,0.0,-5.114230222710225,-11.14667417084109,-6.604560620994384,0.01988339580033838,0.012266413816600789,-1.160132151721129
17394,1.0,300.62411000000003,75227.211,0.0,-0.17394027605354312,0.0,0.0,0.0,0.0,-5.129491086441355,-11.150818363750089,-6.586884169024853,0.017407526273739083,-0.0019039226744525383,-1.1558723469757188
17395,1.0,300.28562999999997,75187.81,0.0,-0.17395027204096247,0.0,0.0,0.0,0.0,-5.125177680765655,-11.12988562993419,-6.6001536923344535,-0.006737558207920224,0.004171185689013976,-1.1563617467740188
17396,1.0,299.8265,74982.692,0.0,-0.17396026802838171,0.0,0.0,0.0,0.0,-5.139230953027605,-11.12461571616409,-6.529019684964073,-0.0005292474796826595,0.017489008807030783,-1.168174115114809
17397,1.0,299.63364,74964.125,0.0,-0.17397026401580118,0.0,0.0,0.0,0.0,-5.124100089284305,-11.12960901265689,-6.533512537232484,-0.020082440676482582,0.003935248072753746,-1.161784965284249
17398,1.0,299.52991000000003,75174.863,0.0,-0.17398026000322042,0.0,0.0,0.0,0.0,-5.150076376797965,-11.14098375827949,-6.560221607218464,-0.024669980153487477,-0.025431939162436974,-1.1779892661834888
17399,1.0,300.02224,75423.179,0.0,-0.17399025599063966,0.0,0.0,0.0,0.0,-5.1575772646382445,-11.174105890798389,-6.595080349083753,-0.02063926416293678,-0.021847285250159183,-1.155071575421689
17400,1.0,299.99043,75211.211,0.0,-0.17400028496811648,0.0,0.0,0.0,0.0,-5.100097511640436,-11.16241095814419,-6.599821548951674,0.0011578853709493888,0.013506423209480188,-1.1814965300796287
17401,1.0,299.89135,75157.67599999999,0.0,-0.17401028095553583,0.0,0.0,0.0,0.0,-5.106646957636816,-11.162577131160589,-6.576832626707844,-0.007531909302691573,-0.0015783017852162586,-1.1393023641153888
17402,1.0,300.13334,75415.711,0.0,-0.17402027694295497,0.0,0.0,0.0,0.0,-5.156963741702695,-11.16058001521349,-6.6069489528050935,-0.009017138088047242,-0.025948616666679077,-1.1513294401523688
17403,1.0,300.40578999999997,75326.562,0.0,-0.17403027293037454,0.0,0.0,0.0,0.0,-5.160574357109035,-11.134972145436189,-6.6018476438516345,0.0014715076564764987,-0.0052024113524130255,-1.1265772600845188
17404,1.0,300.45017,75118.349,0.0,-0.17404026891779367,0.0,0.0,0.0,0.0,-5.1189376813498155,-11.154980795160888,-6.560184218289773,0.021728274972913776,0.014886686681201586,-1.1737630000163888
17405,1.0,300.65106000000003,75134.218,0.0,-0.17405026490521303,0.0,0.0,0.0,0.0,-5.125348008107466,-11.124740345926389,-6.588837917867673,0.0010254106210751488,0.0005822322323218474,-1.123862763066619
17406,1.0,300.82966,75340.96,0.0,-0.17406026089263238,0.0,0.0,0.0,0.0,-5.120123285291825,-11.170081261401188,-6.6115655229107135,-0.006478518489379994,0.0034622324272457366,-1.1566437342768487
17407,1.0,300.36611,75390.512,0.0,-0.17407025688005162,0.0,0.0,0.0,0.0,-5.1634550271433355,-11.16669801931729,-6.586680708404773,0.0003141864631827897,0.013972870866514987,-1.133505864268319
17408,1.0,300.09061,75391.44900000001,0.0,-0.17408028585752855,0.0,0.0,0.0,0.0,-5.185956677414075,-11.15541547945379,-6.575745713325573,0.013237800475469188,0.022431290183795978,-1.129264804649759
17409,1.0,299.78491,75220.137,0.0,-0.1740902818449478,0.0,0.0,0.0,0.0,-5.137115084168785,-11.16562904046179,-6.562298972573484,0.005381603416697906,-0.000994770941168748,-1.153584428249919
17410,1.0,299.76781,75166.958,0.0,-0.17410027783236703,0.0,0.0,0.0,0.0,-5.127295778774696,-11.149342058354389,-6.572239867979573,-0.007044182785606712,-0.025293589993782974,-1.130192637766329
17411,1.0,299.95107,75558.334,0.0,-0.1741102738197864,0.0,0.0,0.0,0.0,-5.141928832743865,-11.18614228873629,-6.639775925569864,-0.009422728424200891,-0.003124082497872937,-1.1683584253079988
17412,1.0,300.06896,75490.006,0.0,-0.17412026980720563,0.0,0.0,0.0,0.0,-5.123798343404525,-11.184686248342588,-6.638592246803044,-0.001220898584068309,0.014277678788097185,-1.136111132925439
17413,1.0,299.34528,75070.078,0.0,-0.17413026579462498,0.0,0.0,0.0,0.0,-5.089018635047036,-11.151789057345889,-6.578621418434384,0.0036989873310366264,-0.015892208722688882,-1.154988894213529
17414,1.0,300.16452999999996,75264.444,0.0,-0.17414026178204434,0.0,0.0,0.0,0.0,-5.129772465994125,-11.176585313793089,-6.572153741721074,-0.015422657480597785,-0.026056877373613577,-1.1308090991271689
17415,1.0,300.61201,75696.45,0.0,-0.17415025776946347,0.0,0.0,0.0,0.0,-5.199461072096854,-11.17588414472389,-6.634485341497724,0.013798406424546685,-0.00893877332531324,-1.144209433024679
17416,1.0,300.24439,75485.75200000001,0.0,-0.17416025375688293,0.0,0.0,0.0,0.0,-5.151391575427765,-11.18093215672209,-6.613459489997634,0.017194577579722686,0.01068442947522109,-1.1412711090596888
17417,1.0,300.25516,75269.7,0.0,-0.17417028273435964,0.0,0.0,0.0,0.0,-5.111977565087905,-11.17123636651519,-6.596895789287924,0.013869716940084488,-0.0008584222321871783,-1.149847055256069
17418,1.0,300.07576,75405.962,0.0,-0.174180278721779,0.0,0.0,0.0,0.0,-5.146244670219805,-11.16194384984809,-6.613341041060944,-0.006202287564343124,0.007209283175450853,-1.148494771672609
17419,1.0,299.90722999999997,75454.151,0.0,-0.17419027470919834,0.0,0.0,0.0,0.0,-5.202954454466625,-11.178084923941089,-6.555138131466764,-0.008414997193520561,0.02286867681471268,-1.1518306949768389
17420,1.0,300.54876,75418.37599999999,0.0,-0.1742002706966176,0.0,0.0,0.0,0.0,-5.173226608457716,-11.17914579679579,-6.572930600572744,-0.005578186399074135,0.021149973624089876,-1.1791367719217387
17421,1.0,299.99799,75237.912,0.0,-0.17421026668403705,0.0,0.0,0.0,0.0,-5.150079923173315,-11.15696068585629,-6.563406252282764,-0.0040134349087701865,-0.016404216157220087,-1.1536832201346687
17422,1.0,299.84471,75279.968,0.0,-0.17422026267145618,0.0,0.0,0.0,0.0,-5.0967824612882655,-11.196698328278089,-6.589750248257714,0.004580529610163075,-0.011108819147105091,-1.1907384855667387
17423,1.0,299.6599,75473.15299999999,0.0,-0.17423025865887554,0.0,0.0,0.0,0.0,-5.128097563578825,-11.18507432313089,-6.628781959334844,0.005859984525460444,0.001878840884127158,-1.158116999922249
17424,1.0,300.27799,75664.37299999999,0.0,-0.1742402546462949,0.0,0.0,0.0,0.0,-5.156128215670235,-11.204402068788388,-6.639549970797564,-0.0011858145967057888,0.015120713003798185,-1.1640975059874787
17425,1.0,300.05525,75436.991,0.0,-0.1742502836237716,0.0,0.0,0.0,0.0,-5.179184215070685,-11.188827401501289,-6.562950087087744,-0.014214700228131687,-0.008841132188701811,-1.143171358297229
17426,1.0,299.89856000000003,75290.011,0.0,-0.17426027961119095,0.0,0.0,0.0,0.0,-5.144970102919015,-11.17353137799169,-6.567781668864584,-0.009321444856129981,-0.01080040202866669,-1.1633156822103188
17427,1.0,299.91105,75636.509,0.0,-0.1742702755986103,0.0,0.0,0.0,0.0,-5.168488853640135,-11.21404719649029,-6.609073738264794,0.00916206821477573,0.001268872227277939,-1.1765753769939489
17428,1.0,299.98396,75616.989,0.0,-0.17428027158602954,0.0,0.0,0.0,0.0,-5.161977708497536,-11.17998983412909,-6.643709362458064,-0.0002961286137431187,0.007667512462249562,-1.152773828169919
17429,1.0,300.09475,75240.97099999999,0.0,-0.174290267573449,0.0,0.0,0.0,0.0,-5.087022025724986,-11.188702771738988,-6.595651923465164,0.0012092644464201088,-0.01046278912184689,-1.1646118317382388
17430,1.0,300.10489,75193.13,0.0,-0.17430026356086814,0.0,0.0,0.0,0.0,-5.126185256665095,-11.16736372463299,-6.563284864920784,0.0037253184587353063,5.690777939586054e-06,-1.147401981439759
17431,1.0,300.1832,75526.656,0.0,-0.1743102595482875,0.0,0.0,0.0,0.0,-5.195884603218885,-11.166169102765089,-6.596164121390713,0.013576917045437387,0.006766975594098494,-1.148977787995279
17432,1.0,299.7917,75554.122,0.0,-0.17432025553570685,0.0,0.0,0.0,0.0,-5.174355875694165,-11.20016769662049,-6.592042422633933,0.0021345973683683577,0.010390140102926989,-1.1537999465461888
17433,1.0,299.92235,75449.806,0.0,-0.17433028451318366,0.0,0.0,0.0,0.0,-5.140410072168975,-11.18170324004819,-6.612743628801984,-0.016274968000964285,-0.015954772863363487,-1.149152269662499
17434,1.0,299.87021,75530.635,0.0,-0.1743402805006028,0.0,0.0,0.0,0.0,-5.147491981092905,-11.19257642687129,-6.619358530754823,-0.025650599547267075,-0.004381962886741066,-1.1426476093205387
17435,1.0,300.5619,75553.625,0.0,-0.17435027648802226,0.0,0.0,0.0,0.0,-5.142829916057795,-11.207633323357289,-6.615952591868684,-0.017587476451748785,-0.006497934185146175,-1.1501720045631387
17436,1.0,299.82167999999996,75517.246,0.0,-0.1743602724754415,0.0,0.0,0.0,0.0,-5.172272937463595,-11.183900979515089,-6.599183201388673,-0.0039710957467166364,0.0025930811835921876,-1.132461811365279
17437,1.0,299.87417,75669.461,0.0,-0.17437026846286086,0.0,0.0,0.0,0.0,-5.197936839971424,-11.21942046177059,-6.584269375816794,0.005229440812080625,-0.0045547641799952255,-1.143937780672869
17438,1.0,299.45645,75610.614,0.0,-0.1743802644502801,0.0,0.0,0.0,0.0,-5.154842806593375,-11.19687463379549,-6.632021218579534,0.021755785726378877,0.002585552836674198,-1.1659546920957689
17439,1.0,298.89064,75408.193,0.0,-0.17439026043769945,0.0,0.0,0.0,0.0,-5.123798850029575,-11.193813605243388,-6.604595679447844,0.02806744117604077,-0.00019346118921563285,-1.1550764390221688
17440,1.0,299.45964,75508.69,0.0,-0.1744002564251188,0.0,0.0,0.0,0.0,-5.116715421230495,-11.19486535884719,-6.641175831908024,0.008408774318031413,-0.00087426137801538,-1.1546809675081386
17441,1.0,299.69259,75555.087,0.0,-0.17441028540259562,0.0,0.0,0.0,0.0,-5.147580741801665,-11.183877674762789,-6.635401522238144,0.005568270125645474,-0.007027702272730213,-1.129039356502509
17442,1.0,299.59394,75492.40299999999,0.0,-0.17442028139001475,0.0,0.0,0.0,0.0,-5.160658862167375,-11.19707120431489,-6.590075906839854,-0.02297460096691658,-0.004906962315379475,-1.142354070766569
17443,1.0,300.06299,75571.344,0.0,-0.1744302773774341,0.0,0.0,0.0,0.0,-5.1832288054948545,-11.198414773947489,-6.590158081422963,-0.01042734968634929,0.001003120405702776,-1.1524766419155887
17444,1.0,300.08441,75680.225,0.0,-0.17444027336485346,0.0,0.0,0.0,0.0,-5.171770162763975,-11.20555109440179,-6.627577508940973,-0.01872194672746228,-0.01109479475247099,-1.159776298286009
17445,1.0,299.6292,75630.814,0.0,-0.1744502693522728,0.0,0.0,0.0,0.0,-5.162745448098305,-11.23005958782059,-6.597073716005484,-0.008784093503472533,-0.0069909328451513535,-1.173028596343909
17446,1.0,299.99726,75655.209,0.0,-0.17446026533969217,0.0,0.0,0.0,0.0,-5.179980629649285,-11.20081516343439,-6.616498936322603,-0.01884514476737098,-0.0040496999404492666,-1.156050273693279
17447,1.0,299.94607,75594.18,0.0,-0.1744702613271113,0.0,0.0,0.0,0.0,-5.184174978438235,-11.21414446849989,-6.580423483737234,7.197543862442273e-06,0.006722194701953963,-1.163953624473279
17448,1.0,300.03463999999997,75453.655,0.0,-0.17448025731453076,0.0,0.0,0.0,0.0,-5.183191923191216,-11.19174860153959,-6.561086213528793,0.006894632846372283,0.004514731377819296,-1.147818731205889
17449,1.0,300.41497999999996,75679.63,0.0,-0.17449028629200747,0.0,0.0,0.0,0.0,-5.184443287064715,-11.21554680663829,-6.604728111235914,0.003985594747697576,-0.004763838306954235,-1.172878635329109
17450,1.0,300.90017,75851.948,0.0,-0.1745002822794267,0.0,0.0,0.0,0.0,-5.194656645422695,-11.221125761688889,-6.641316268371884,0.016369219512016184,0.00953198181225836,-1.158856976470279
17451,1.0,300.72241,75510.732,0.0,-0.17451027826684617,0.0,0.0,0.0,0.0,-5.124591414257795,-11.207029426297689,-6.621756488441484,-0.0064387807456331835,0.009340141448300192,-1.1742777310671888
17452,1.0,300.36831,75390.224,0.0,-0.17452027425426542,0.0,0.0,0.0,0.0,-5.096445454305004,-11.214417032776788,-6.605883013699893,0.012877469488157288,0.015783568046966883,-1.140841896317329
17453,1.0,300.32736,75785.647,0.0,-0.17453027024168477,0.0,0.0,0.0,0.0,-5.177420146646586,-11.21949645552809,-6.640027414244684,-0.007081016047941873,0.0005726429954954636,-1.148111560484789
17454,1.0,300.19936,75948.894,0.0,-0.174540266229104,0.0,0.0,0.0,0.0,-5.213749317056995,-11.227781801595789,-6.645036314789023,0.010760689717497388,0.0075607624098891525,-1.1292258958459187
17455,1.0,299.73495,75635.761,0.0,-0.17455026221652326,0.0,0.0,0.0,0.0,-5.160224785824536,-11.24073924387459,-6.5904183853736535,-1.5951874968077487e-05,-0.004402098598028306,-1.1725111295178388
17456,1.0,299.96425,75629.52799999999,0.0,-0.1745602582039426,0.0,0.0,0.0,0.0,-5.163398082487715,-11.224290141751188,-6.601799413146873,-0.002974605107345667,-0.011652611224023189,-1.160404614673019
17457,1.0,300.07777999999996,75807.032,0.0,-0.17457025419136196,0.0,0.0,0.0,0.0,-5.188238820614305,-11.234818823540289,-6.620386878281314,-0.008905699727474133,-0.004845252952489235,-1.1657562977261888
17458,1.0,299.97632000000004,75766.75200000001,0.0,-0.17458028316883878,0.0,0.0,0.0,0.0,-5.185451065614175,-11.22857618967419,-6.617173355589164,-0.006401032619782734,0.004119605888698446,-1.147834233932419
17459,1.0,300.32101,75653.819,0.0,-0.17459027915625813,0.0,0.0,0.0,0.0,-5.200645764113775,-11.19641157849979,-6.599815165476044,0.0025592532210536277,0.004292108881123166,-1.1346322944044889
17460,1.0,299.87619,75476.088,0.0,-0.17460027514367737,0.0,0.0,0.0,0.0,-5.1656907634889855,-11.19334548369719,-6.583809664246424,-0.018963483259800084,-0.013341972718250186,-1.1398505324194887
17461,1.0,298.96133,75469.20599999999,0.0,-0.17461027113109673,0.0,0.0,0.0,0.0,-5.143635145912265,-11.21561368114489,-6.5815052295439935,0.0008452428780039772,0.0013746241269648387,-1.1632844741072388
17462,1.0,298.96959,75921.262,0.0,-0.17462026711851597,0.0,0.0,0.0,0.0,-5.194599802092085,-11.23586551089359,-6.647702682427173,0.00990973067011427,0.004245557942378946,-1.1530491282220887
17463,1.0,299.3602,76054.157,0.0,-0.1746302631059352,0.0,0.0,0.0,0.0,-5.201907159163266,-11.24192778624189,-6.674729608969523,0.01048534609557309,0.01780196123291678,-1.152810406498529
17464,1.0,299.67436000000004,75641.887,0.0,-0.17464025909335468,0.0,0.0,0.0,0.0,-5.136518583834915,-11.230043375818989,-6.626683315727724,0.01050310431682569,-0.0097895807904814,-1.137894858401479
17465,1.0,300.15141,75677.969,0.0,-0.17465025508077392,0.0,0.0,0.0,0.0,-5.137824561888804,-11.244428487488689,-6.621959543761523,0.011916239648291289,-0.010686629241188189,-1.150767694296929
17466,1.0,300.56622000000004,76070.532,0.0,-0.17466028405825063,0.0,0.0,0.0,0.0,-5.209001024438375,-11.245530903597489,-6.669009913480034,0.0068523923748784734,0.0024176786746813077,-1.1393505948201488
17467,1.0,300.29701,76030.037,0.0,-0.1746702800456701,0.0,0.0,0.0,0.0,-5.2026407522356655,-11.24807517459859,-6.660517357766883,0.013921014752897184,-0.005777295819249704,-1.1552842566176789
17468,1.0,300.06301,75576.852,0.0,-0.17468027603308922,0.0,0.0,0.0,0.0,-5.162796921203386,-11.21210175629829,-6.598577480478894,0.006227800391261044,0.008387140921771362,-1.1554555972095888
17469,1.0,299.81097,75521.287,0.0,-0.17469027202050869,0.0,0.0,0.0,0.0,-5.137818887688245,-11.21605647143859,-6.602710122336753,-0.025723475534209374,0.012981660982690189,-1.1692160401926388
17470,1.0,299.83527000000004,75793.719,0.0,-0.17470026800792793,0.0,0.0,0.0,0.0,-5.191285359689975,-11.22313604988729,-6.624976901234314,-0.0048971801962640555,0.005498404099450235,-1.1391908052793789
17471,1.0,300.08121,75953.041,0.0,-0.17471026399534717,0.0,0.0,0.0,0.0,-5.205671079309735,-11.243915782938089,-6.638240952993374,-0.022364814897735376,-0.00958439480813112,-1.165968978922179
17472,1.0,300.50878,75985.358,0.0,-0.17472025998276663,0.0,0.0,0.0,0.0,-5.214173159573825,-11.25401079368439,-6.629467119052464,-0.005627836261924194,-0.02253480381401198,-1.146888972914129
17473,1.0,300.90004,75813.125,0.0,-0.17473025597018577,0.0,0.0,0.0,0.0,-5.1888242765220856,-11.241475876697288,-6.6149965903993335,-0.0007811037413739372,-0.02047262910449118,-1.172327629924729
17474,1.0,300.43601,75789.806,0.0,-0.17474028494766258,0.0,0.0,0.0,0.0,-5.183363567758155,-11.247684060059989,-6.607160316775953,-0.005829583476085094,-0.001683368930485578,-1.160563492288699
17475,1.0,299.97112999999996,76083.355,0.0,-0.17475028093508194,0.0,0.0,0.0,0.0,-5.200909918414845,-11.26182599170569,-6.664704715130144,-0.0004655440203306175,0.0019244026881237582,-1.1546283798279489
17476,1.0,300.08125,76083.322,0.0,-0.1747602769225013,0.0,0.0,0.0,0.0,-5.2033766757832955,-11.250609313098689,-6.673443794592623,0.01003444159374728,0.0015997160154796785,-1.154673064157359
17477,1.0,299.77414,75674.391,0.0,-0.17477027290992064,0.0,0.0,0.0,0.0,-5.129446706086974,-11.254933864525489,-6.618744906494264,0.005454199037337535,0.006201556200420944,-1.159579930416629
17478,1.0,299.60934,75633.11,0.0,-0.17478026889733989,0.0,0.0,0.0,0.0,-5.144408053088545,-11.23807236961139,-6.608096661193364,-0.002039058320414388,-0.007751412407629842,-1.1701224937320989
17479,1.0,299.86762999999996,75953.31599999999,0.0,-0.17479026488475913,0.0,0.0,0.0,0.0,-5.191661782102124,-11.25689349021889,-6.639355730753393,-0.00918886989582085,0.015811700935993385,-1.176339087070629
17480,1.0,299.90915,75940.533,0.0,-0.1748002608721786,0.0,0.0,0.0,0.0,-5.191141376850766,-11.265042047523089,-6.627842271192104,0.0013852549443640185,0.005151069969846026,-1.1719961958170189
17481,1.0,299.6798,75792.727,0.0,-0.17481025685959772,0.0,0.0,0.0,0.0,-5.153584248644165,-11.24743885353579,-6.638073564076853,0.0048543008705821955,0.004765854066703175,-1.1606878180759688
17482,1.0,299.68419,75863.49,0.0,-0.17482028583707454,0.0,0.0,0.0,0.0,-5.165531987198316,-11.25602412163309,-6.639050235848243,0.0030787925488781668,-0.005632432161727775,-1.1548891904036889
17483,1.0,300.15181,75953.952,0.0,-0.1748302818244939,0.0,0.0,0.0,0.0,-5.187635936804805,-11.26529434679799,-6.635174148915703,-0.0043108273594955355,-0.004794397828645225,-1.1488226594049689
17484,1.0,300.4338,76065.262,0.0,-0.17484027781191325,0.0,0.0,0.0,0.0,-5.224034210872036,-11.267258025491788,-6.630648264694034,-0.0064940922447420035,-0.007226710165245764,-1.1604671322041888
17485,1.0,300.48503,76090.918,0.0,-0.1748502737993326,0.0,0.0,0.0,0.0,-5.227960555009536,-11.269773925490089,-6.6320049052529235,-0.013488413702202788,-0.0014893948644668284,-1.148347343783059
17486,1.0,300.48995,75856.895,0.0,-0.17486026978675184,0.0,0.0,0.0,0.0,-5.190933863230286,-11.24311024910859,-6.624557922317964,-0.016197279076046987,-0.004079511683566456,-1.151691271763079
17487,1.0,299.85489,75879.253,0.0,-0.17487026577417109,0.0,0.0,0.0,0.0,-5.157598644215354,-11.26031118280619,-6.647488278706014,-0.008004009172759202,0.007713986191336163,-1.1661925018942387
17488,1.0,300.04348,76273.401,0.0,-0.17488026176159044,0.0,0.0,0.0,0.0,-5.229240593860865,-11.26599450261709,-6.689974362024064,0.006036524711583604,0.0004623674204721116,-1.134273806519109
17489,1.0,300.29278,76233.85,0.0,-0.1748902577490098,0.0,0.0,0.0,0.0,-5.229513056812755,-11.266043138621889,-6.677630544005823,0.006862541189205084,-0.0002439455040530468,-1.1444456216229888
17490,1.0,300.0979,75745.314,0.0,-0.1749002867264865,0.0,0.0,0.0,0.0,-5.159416617544775,-11.261889826461989,-6.603377347527603,0.03202916091428207,0.0008305589183497833,-1.156187265106799
17491,1.0,300.12574,75741.274,0.0,-0.17491028271390585,0.0,0.0,0.0,0.0,-5.153914669501775,-11.244802376775588,-6.624739192760853,0.02880982014005787,0.01086999001903449,-1.1614661968027888
17492,1.0,299.59314,76205.054,0.0,-0.1749202787013251,0.0,0.0,0.0,0.0,-5.207352263875655,-11.286915077431788,-6.670166133169143,0.01076283476795909,0.012668722742305589,-1.1512241634669789
17493,1.0,299.16159,76220.363,0.0,-0.17493027468874456,0.0,0.0,0.0,0.0,-5.190366341849275,-11.277542514006788,-6.701178375004814,0.001055955146664659,-0.00999281028821359,-1.149042332026649
17494,1.0,299.55906,76002.333,0.0,-0.1749402706761638,0.0,0.0,0.0,0.0,-5.180470130772595,-11.273294969587589,-6.649046353384785,-0.013828551628271787,-0.00952224022314694,-1.143196385574699
17495,1.0,299.68085,75922.962,0.0,-0.17495026666358304,0.0,0.0,0.0,0.0,-5.177989593202786,-11.279932770992689,-6.620762388768373,-0.018649280483290682,0.004761538330552245,-1.164875682064279
17496,1.0,299.97022000000004,76056.364,0.0,-0.1749602626510024,0.0,0.0,0.0,0.0,-5.219059254206045,-11.269435499956689,-6.630741078403194,-0.007907695697753804,0.003883090719881216,-1.1478055589545888
17497,1.0,300.40011,76238.432,0.0,-0.17497025863842175,0.0,0.0,0.0,0.0,-5.2310130722607955,-11.288977041385289,-6.6545897433568735,-0.016937432942844482,0.015845026731782383,-1.1622881452839091
17498,1.0,300.18154,76119.525,0.0,-0.17498028761589846,0.0,0.0,0.0,0.0,-5.2192365729735455,-11.260861377610489,-6.658337147526714,-0.002235019369879238,-0.0008026052327359692,-1.1422924651604889
17499,1.0,300.67335,75848.1,0.0,-0.17499028360331792,0.0,0.0,0.0,0.0,-5.1654334992885955,-11.25346971813099,-6.637025458173414,0.004670611597053476,0.0015878850033370483,-1.1548769300774788
17500,1.0,300.45468,75994.94099999999,0.0,-0.17500027959073705,0.0,0.0,0.0,0.0,-5.183106404882775,-11.276686317672288,-6.640771646443134,-5.724000991814914e-05,-0.00047897521782617363,-1.157982845609009
17501,1.0,300.06973999999997,76347.25200000001,0.0,-0.17501027557815652,0.0,0.0,0.0,0.0,-5.243368542655185,-11.281492162896589,-6.682797511565764,-0.004012846007812067,-0.010904716126461688,-1.161488488304989
17502,1.0,299.87964,76211.819,0.0,-0.17502027156557576,0.0,0.0,0.0,0.0,-5.209889036826015,-11.30004679872779,-6.6565539286757245,0.0010144483695682589,-0.017719037857982883,-1.171566983074659
17503,1.0,300.19164,75776.086,0.0,-0.175030267552995,0.0,0.0,0.0,0.0,-5.143753696173966,-11.27673394042699,-6.6135503785316025,-0.0009412227302814509,0.01017870723106019,-1.175883124525629
17504,1.0,300.12527,75919.325,0.0,-0.17504026354041435,0.0,0.0,0.0,0.0,-5.154996921933585,-11.27164134542439,-6.6509413337218035,0.008760132570407773,0.00848236211316896,-1.1692450191454988
17505,1.0,300.46487,76351.055,0.0,-0.1750502595278336,0.0,0.0,0.0,0.0,-5.217164172544015,-11.30461453017859,-6.687035227458993,0.004280216871324516,-0.005518765968159795,-1.147204195020239
17506,1.0,299.36463,76138.37,0.0,-0.17506025551525306,0.0,0.0,0.0,0.0,-5.210958015681515,-11.27379652838709,-6.659408355532435,0.0040996057502745865,-0.010202653370673491,-1.1628969059439889
17507,1.0,299.49811,76080.033,0.0,-0.17507028449272977,0.0,0.0,0.0,0.0,-5.208857345574195,-11.29328031455999,-6.624292957416814,-0.002462945116273758,-0.004588638448063355,-1.1463113190321188
17508,1.0,300.04578,76250.99900000001,0.0,-0.175080280480149,0.0,0.0,0.0,0.0,-5.245733569713595,-11.28335350333029,-6.649312128886014,0.0008632952254956053,0.01032132724888569,-1.165894302389809
17509,1.0,299.8206,76262.155,0.0,-0.17509027646756836,0.0,0.0,0.0,0.0,-5.2265789884981855,-11.28827283256579,-6.666938830275633,-0.018956154421826785,0.006648605184291244,-1.1426661517973689
17510,1.0,300.00994,76273.53,0.0,-0.17510027245498772,0.0,0.0,0.0,0.0,-5.202267673548845,-11.30818623678109,-6.674794862275965,-0.0018544612761210782,0.014795734312475288,-1.1664215977418488
17511,1.0,300.45075,76271.588,0.0,-0.17511026844240696,0.0,0.0,0.0,0.0,-5.212583471491936,-11.27787587328969,-6.694198601690965,0.001066540975759399,0.014854188710744287,-1.145487952000859
17512,1.0,299.88261,75944.133,0.0,-0.17512026442982642,0.0,0.0,0.0,0.0,-5.198107876588305,-11.276201984124489,-6.610810651586214,0.014747000022415586,0.007868169824602903,-1.1725820570248386
17513,1.0,300.16602,75980.011,0.0,-0.17513026041724555,0.0,0.0,0.0,0.0,-5.193925788125565,-11.295889433567488,-6.606211306732294,0.003289119660910837,-0.016278981484610384,-1.159152136224409
17514,1.0,300.3776,76287.36099999999,0.0,-0.1751402564046649,0.0,0.0,0.0,0.0,-5.242417303461305,-11.277724899024788,-6.669310544784703,-0.0007242452728074434,-0.012592213240504687,-1.1619496184254987
17515,1.0,300.16429,76318.476,0.0,-0.17515028538214172,0.0,0.0,0.0,0.0,-5.205515849394415,-11.31744430294479,-6.675951183290084,0.005206351476751885,-0.007212283611646973,-1.150093984305439
17516,1.0,300.12813,76190.445,0.0,-0.17516028136956108,0.0,0.0,0.0,0.0,-5.170529539341535,-11.30583043029859,-6.683633138923234,0.0007662013655281872,-0.023335417301026378,-1.167716126069609
17517,1.0,299.99459,76348.74799999999,0.0,-0.17517027735698043,0.0,0.0,0.0,0.0,-5.209149262928005,-11.30672918313729,-6.692234213722094,0.0099449495210651,-0.023900761207571477,-1.1413677731192289
17518,1.0,299.29557,76447.09599999999,0.0,-0.17518027334439967,0.0,0.0,0.0,0.0,-5.249913226376095,-11.32228054567209,-6.665814730614694,-0.019209382847068482,-0.0022301685363504977,-1.156016127164909
17519,1.0,299.48884,76303.843,0.0,-0.17519026933181892,0.0,0.0,0.0,0.0,-5.242679836562215,-11.296481171625889,-6.655301855527154,-0.00095109420792319,0.013307796805627287,-1.1408792852460188
17520,1.0,299.34567999999996,76184.87299999999,0.0,-0.17520026531923827,0.0,0.0,0.0,0.0,-5.216172302021125,-11.30350198156879,-6.638624873456264,-0.03259717169509037,0.014067786056382385,-1.1712790173962389
17521,1.0,299.38847999999996,76113.334,0.0,-0.1752102613066575,0.0,0.0,0.0,0.0,-5.189726373086115,-11.27612193736659,-6.670704371622263,-0.01958553168169148,0.004975245442268495,-1.145926385319129
17522,1.0,299.78212,76234.958,0.0,-0.17522025729407686,0.0,0.0,0.0,0.0,-5.191185554555125,-11.291486861882989,-6.690851026010584,-0.017127997928901784,0.006125380159227954,-1.164359836438369
17523,1.0,300.18517,76333.832,0.0,-0.17523028627155368,0.0,0.0,0.0,0.0,-5.225125481229735,-11.301094499331189,-6.6773589929790225,-0.006586825096544025,0.01055364523181369,-1.141432823775649
17524,1.0,300.02086,76297.76299999999,0.0,-0.17524028225897292,0.0,0.0,0.0,0.0,-5.255132376316186,-11.28565864730779,-6.651823266608843,-0.0018168768914867883,-0.008905237482778511,-1.156825410019779
17525,1.0,300.59585,76105.79400000001,0.0,-0.1752502782463924,0.0,0.0,0.0,0.0,-5.226048653395845,-11.30190915241159,-6.606302701891314,0.016671162975565684,-0.02440809249289118,-1.1575844356696887
17526,1.0,300.69929,76231.216,0.0,-0.17526027423381152,0.0,0.0,0.0,0.0,-5.225534327645086,-11.306567063121289,-6.640284881095094,0.024133729697063677,0.01978269393914988,-1.169490833619759
17527,1.0,300.27751,76600.741,0.0,-0.17527027022123087,0.0,0.0,0.0,0.0,-5.239163149440145,-11.33101577478419,-6.714533923247903,0.01915178363188388,-0.003917605463337556,-1.1481912019426488
17528,1.0,299.92266,76398.02799999999,0.0,-0.17528026620865023,0.0,0.0,0.0,0.0,-5.191241384635636,-11.335895587265789,-6.695956185314423,-0.0011466307967886488,-0.005481163851648755,-1.1667554636497988
17529,1.0,300.28382,76030.217,0.0,-0.17529026219606958,0.0,0.0,0.0,0.0,-5.168116990853435,-11.30568553553429,-6.637484561793723,-0.015014598360575485,-0.008908533484028803,-1.157419782528439
17530,1.0,299.84811,76219.056,0.0,-0.17530025818348893,0.0,0.0,0.0,0.0,-5.192534291763235,-11.32428779412019,-6.651867748288234,-0.0017569978635771884,0.00965664795023695,-1.158264225161779
17531,1.0,299.32316000000003,76486.808,0.0,-0.17531028716096564,0.0,0.0,0.0,0.0,-5.248209750307974,-11.327008370638689,-6.674861939432584,-0.00783141073217506,0.01128583089982479,-1.152844958326939
17532,1.0,299.35573999999997,76412.65299999999,0.0,-0.17532028314838488,0.0,0.0,0.0,0.0,-5.217530158480136,-11.32086807503269,-6.689140558516773,-0.01099730185434919,0.007538765763468252,-1.1492512641972688
17533,1.0,300.06548,76332.348,0.0,-0.17533027913580435,0.0,0.0,0.0,0.0,-5.195723901753025,-11.31346628305219,-6.693937487140194,-0.004125463487526545,-0.001288510331441069,-1.1649301949196589
17534,1.0,300.7526,76357.606,0.0,-0.1753402751232236,0.0,0.0,0.0,0.0,-5.220979768445585,-11.300424741015089,-6.689401065117485,0.0015774162046288582,0.01098757262688899,-1.147903337589239
17535,1.0,300.5111,76425.859,0.0,-0.17535027111064283,0.0,0.0,0.0,0.0,-5.258873802310435,-11.31700049940099,-6.6556782779393036,0.01120333714293329,-0.005071140748957625,-1.164901519941829
17536,1.0,299.8494,76490.054,0.0,-0.17536026709806218,0.0,0.0,0.0,0.0,-5.271744003755624,-11.315095589212989,-6.664226562407954,0.005438209444134485,-0.005865814462560814,-1.164692182471169
17537,1.0,300.00076,76322.69,0.0,-0.17537026308548143,0.0,0.0,0.0,0.0,-5.242265315946304,-11.30119683759129,-6.656729220943023,0.014515179545286687,0.007729869595928733,-1.160600070617309
17538,1.0,300.25264,76206.54400000001,0.0,-0.1753802590729009,0.0,0.0,0.0,0.0,-5.188875546977145,-11.319960202943088,-6.656051153976103,0.0061153509084131445,0.022847961929668276,-1.163935081996449
17539,1.0,299.77839,76404.821,0.0,-0.1753902880503776,0.0,0.0,0.0,0.0,-5.203290752174816,-11.317480779948388,-6.704386324821415,0.024191274196742878,0.006859479248727893,-1.1634534842239188
17540,1.0,300.14816,76632.729,0.0,-0.17540028403779684,0.0,0.0,0.0,0.0,-5.249241340234786,-11.339568618878289,-6.705626238968784,0.013580773475317987,-0.010606953332824789,-1.1427201580276989
17541,1.0,299.92208999999997,76373.27799999999,0.0,-0.1754102800252162,0.0,0.0,0.0,0.0,-5.2153182335118355,-11.331042119286789,-6.669209118449694,0.005402005004811385,-0.007387755730839723,-1.1511951845141188
17542,1.0,300.67107999999996,76350.23599999999,0.0,-0.17542027601263555,0.0,0.0,0.0,0.0,-5.202836309504965,-11.343501042516388,-6.662228230560735,0.01085156203946579,0.006077936040520584,-1.151990180542579
17543,1.0,300.44897000000003,76644.12700000001,0.0,-0.17543027200005468,0.0,0.0,0.0,0.0,-5.246452977284595,-11.350601899217189,-6.700845623671974,-0.008080715042429482,0.002138679854346268,-1.156572908094859
17544,1.0,300.45386,76674.116,0.0,-0.17544026798747414,0.0,0.0,0.0,0.0,-5.239967467369525,-11.344272125842489,-6.722776712811404,-0.015827290802031987,-0.005974149440727644,-1.150663228211619
17545,1.0,300.20759,76373.11200000001,0.0,-0.17545026397489338,0.0,0.0,0.0,0.0,-5.202714212867916,-11.34478584364319,-6.668019258857264,-0.014398807771301685,-0.009550544959390402,-1.170308526450459
17546,1.0,299.95327000000003,76305.089,0.0,-0.17546025996231274,0.0,0.0,0.0,0.0,-5.227211661860625,-11.313245394530389,-6.654384762861643,-0.016653757365347886,0.006401745238578063,-1.1715975832276788
17547,1.0,299.36255,76479.634,0.0,-0.1754702559497321,0.0,0.0,0.0,0.0,-5.250543062638254,-11.33659979608529,-6.660756282140464,-0.013873646323972288,-0.01882818600044728,-1.1809921341798488
17548,1.0,299.64693,76450.975,0.0,-0.1754802849272088,0.0,0.0,0.0,0.0,-5.245516328892155,-11.317585144708689,-6.676085438928334,-0.00974222847223309,-0.008241873788059613,-1.1549997359895987
17549,1.0,299.66952000000003,76440.674,0.0,-0.17549028091462815,0.0,0.0,0.0,0.0,-5.230007725511575,-11.31818296226769,-6.6878656872409525,-0.00026767845584530674,0.009641612028028022,-1.1623257368626188
17550,1.0,300.03565,76552.614,0.0,-0.1755002769020475,0.0,0.0,0.0,0.0,-5.225290640996036,-11.33839122226209,-6.706401780595323,0.00902265503219172,0.027322365953507573,-1.159671629550679
17551,1.0,300.48643,76652.078,0.0,-0.17551027288946663,0.0,0.0,0.0,0.0,-5.238560062980625,-11.35470049587169,-6.707057049434994,0.018418279725492682,0.012009871050281989,-1.164437147420999
17552,1.0,300.08965,76680.768,0.0,-0.1755202688768861,0.0,0.0,0.0,0.0,-5.2672533806374355,-11.356791844078089,-6.6849937311575145,0.005782898484352645,0.003355165835554087,-1.1426866194493888
17553,1.0,300.60451,76673.207,0.0,-0.17553026486430534,0.0,0.0,0.0,0.0,-5.254331199462115,-11.36389067427869,-6.688518017655333,0.02312319409408158,0.003482700180590747,-1.1426379834445888
17554,1.0,300.03074,76544.902,0.0,-0.1755402608517247,0.0,0.0,0.0,0.0,-5.230792690364045,-11.35530641943149,-6.6816393667014635,0.00044811555119056163,0.010562005558388791,-1.150430079363609
17555,1.0,300.22634,76564.276,0.0,-0.17555025683914405,0.0,0.0,0.0,0.0,-5.217339262161294,-11.359673527362489,-6.696615405829484,0.007111149700615833,-0.005837358448077425,-1.1707323689672888
17556,1.0,300.20498,76619.933,0.0,-0.17556028581662075,0.0,0.0,0.0,0.0,-5.226300344720685,-11.33576082500249,-6.7284849585747635,-0.008929424775915611,-0.019575299882181683,-1.1438602670402187
17557,1.0,300.4023,76514.174,0.0,-0.17557028180404022,0.0,0.0,0.0,0.0,-5.231809588164405,-11.329558721140389,-6.6970303317454345,0.008363014626290282,-0.006458656051644724,-1.162530312057809
17558,1.0,299.87697000000003,76443.08099999999,0.0,-0.17558027779145935,0.0,0.0,0.0,0.0,-5.230858044995495,-11.34372294428829,-6.662206547008593,-0.011858015257794988,-0.014814767202353684,-1.1448285288357791
17559,1.0,300.02078,76642.968,0.0,-0.1755902737788787,0.0,0.0,0.0,0.0,-5.253325852712895,-11.34768880517969,-6.696533839196434,-0.00966744098897714,-0.01940681260255328,-1.1687864221502389
17560,1.0,299.77814,76746.704,0.0,-0.17560026976629806,0.0,0.0,0.0,0.0,-5.252947707775575,-11.36257344914869,-6.713561000501883,-0.016218697156660786,-0.001717165279621018,-1.136103432224679
17561,1.0,300.14666,76667.103,0.0,-0.1756102657537173,0.0,0.0,0.0,0.0,-5.227142862178836,-11.36634780577119,-6.711394063838023,-0.0018097920441375686,0.025696342723031576,-1.162974824876679
17562,1.0,299.95267,76688.642,0.0,-0.17562026174113665,0.0,0.0,0.0,0.0,-5.221512028723115,-11.37007859263939,-6.719841327271704,-0.001932097309383158,0.007684769124702663,-1.161477241228879
17563,1.0,300.0162,76681.79400000001,0.0,-0.1756302577285559,0.0,0.0,0.0,0.0,-5.259798494351695,-11.36812200669629,-6.681430029230802,0.0057287401651826345,-0.01101576631092149,-1.178327489066869
17564,1.0,299.7562,76576.652,0.0,-0.1756402867060327,0.0,0.0,0.0,0.0,-5.2439373812613255,-11.36751506988639,-6.665937536526814,0.018730694115575583,0.0006276324533250004,-1.145022768879949
17565,1.0,300.58221000000003,76702.73599999999,0.0,-0.17565028269345218,0.0,0.0,0.0,0.0,-5.268324689968165,-11.36138389353129,-6.686007589207573,0.018213859557567984,0.005566332994104295,-1.166479454322559
17566,1.0,300.38174,76808.99799999999,0.0,-0.1756602786808713,0.0,0.0,0.0,0.0,-5.275128968364695,-11.35469036337069,-6.718198240909544,0.008534156215880643,-0.005355040964001395,-1.1422000567513688
17567,1.0,300.06356,76623.056,0.0,-0.17567027466829066,0.0,0.0,0.0,0.0,-5.2230991836797545,-11.357272124625489,-6.711124944611464,-0.020939498273567583,-0.007561387889175883,-1.161287054185109
17568,1.0,300.32308,76569.942,0.0,-0.17568027065571,0.0,0.0,0.0,0.0,-5.202881500459425,-11.35831171922809,-6.714157095535714,-0.0012947966363864789,0.005258555844429055,-1.146716011122059
17569,1.0,299.84882999999996,76740.97099999999,0.0,-0.17569026664312914,0.0,0.0,0.0,0.0,-5.260369562108055,-11.36143860903669,-6.705530486834334,-0.01100681728603829,0.011745280038418888,-1.1498398611803589
17570,1.0,299.07746000000003,76781.79,0.0,-0.17570026263054872,0.0,0.0,0.0,0.0,-5.262277512046355,-11.37125700250569,-6.706212708126664,-0.0037730950248004865,-0.003953610697690997,-1.155469884035999
17571,1.0,299.4391,76656.921,0.0,-0.17571025861796785,0.0,0.0,0.0,0.0,-5.252940615024875,-11.378408521711489,-6.670440622621235,-0.022628314639240775,-0.005256245532876045,-1.159208371604959
17572,1.0,299.47947999999997,76618.488,0.0,-0.17572028759544467,0.0,0.0,0.0,0.0,-5.235614848914955,-11.363856223775288,-6.690636419639403,-0.0068992467820276435,0.015465747967600486,-1.147043696204399
17573,1.0,299.64184,76858.473,0.0,-0.17573028358286402,0.0,0.0,0.0,0.0,-5.258363833535105,-11.385261132137789,-6.7194317715812835,0.00014995572563447786,0.024541670266824276,-1.1681552686629488
17574,1.0,299.71242,76904.323,0.0,-0.17574027957028326,0.0,0.0,0.0,0.0,-5.265568041746104,-11.385468848408289,-6.725956899575264,-0.0006105311525097335,-0.0036930316495988463,-1.184547932755779
17575,1.0,299.74236,76801.576,0.0,-0.1757502755577025,0.0,0.0,0.0,0.0,-5.273183832147725,-11.38631795199209,-6.686259888482473,0.008790128421068131,-0.002824860522767028,-1.175351674848179
17576,1.0,299.86062999999996,76636.442,0.0,-0.17576027154512197,0.0,0.0,0.0,0.0,-5.246533834642575,-11.369847571616589,-6.679183248459064,0.02026698898344608,-0.003808266354321626,-1.165802197955719
17577,1.0,300.49161000000004,76603.431,0.0,-0.1757702675325412,0.0,0.0,0.0,0.0,-5.236646134866736,-11.373974539273888,-6.674909460862274,0.02863888484818787,0.027790086252667972,-1.1677254479705288
17578,1.0,299.88032999999996,76787.694,0.0,-0.17578026351996057,0.0,0.0,0.0,0.0,-5.254986164326755,-11.380003377368888,-6.706552552210203,0.0016687424626420583,-0.008299368131858862,-1.160226485305439
17579,1.0,300.42621,76784.974,0.0,-0.1757902595073798,0.0,0.0,0.0,0.0,-5.249512181986515,-11.36121873376499,-6.729984062097714,0.005432401798536314,-0.004670094535527446,-1.1586616218509989
17580,1.0,300.27952,76450.211,0.0,-0.17580028848485663,0.0,0.0,0.0,0.0,-5.204991999092716,-11.358793013025588,-6.675170575413043,-0.002919751698607057,-0.0038172239918306764,-1.152965231113809
17581,1.0,300.65172,76609.63799999999,0.0,-0.17581028447227598,0.0,0.0,0.0,0.0,-5.232860227193095,-11.36569628595689,-6.688860698839154,-0.006059150890291635,-0.0001085310521936809,-1.1510863614533788
17582,1.0,300.01968999999997,77192.265,0.0,-0.17582028045969533,0.0,0.0,0.0,0.0,-5.322075885247995,-11.39630859797809,-6.746137092541894,-0.011305441342260188,-0.005751917957245104,-1.1441637354451688
17583,1.0,299.97309,77150.916,0.0,-0.17583027644711446,0.0,0.0,0.0,0.0,-5.322388472903845,-11.39516970486569,-6.734393827857924,-0.01845521370488778,0.0017813037069759883,-1.131351390580689
17584,1.0,300.15084,76789.02900000001,0.0,-0.17584027243453382,0.0,0.0,0.0,0.0,-5.256214730073005,-11.38677999403769,-6.698952365860123,0.010022757300219131,0.016669624861913885,-1.151745277993409
17585,1.0,300.05342,76839.234,0.0,-0.17585026842195317,0.0,0.0,0.0,0.0,-5.250434746202566,-11.39142979874659,-6.715343510077804,0.003998225518144136,0.021972924209558778,-1.152256462668859
17586,1.0,300.02636,76962.677,0.0,-0.17586026440937252,0.0,0.0,0.0,0.0,-5.278631571310375,-11.38470587108299,-6.731394708886934,0.013945581001571688,-0.004770640862825595,-1.1629164616709187
17587,1.0,300.04977,76880.25099999999,0.0,-0.17587026039679177,0.0,0.0,0.0,0.0,-5.274205998848605,-11.391701349773388,-6.703769154185503,0.0031756502405122775,-0.0032153690364822166,-1.1542140618620589
17588,1.0,300.19766,76711.166,0.0,-0.175880256384211,0.0,0.0,0.0,0.0,-5.253739562728725,-11.37450953532669,-6.690029989454553,0.004104852156642366,0.01153324428274259,-1.152440772862049
17589,1.0,300.40948,76716.682,0.0,-0.17589028536168794,0.0,0.0,0.0,0.0,-5.263046771522275,-11.355235491924489,-6.701673043703634,-0.015787891585143588,0.0027792121872118876,-1.141730820630059
17590,1.0,300.39615,76773.62700000001,0.0,-0.17590028134910718,0.0,0.0,0.0,0.0,-5.2436389791068745,-11.37978856834769,-6.713837921754214,-0.014004346467621383,-0.015434605725776984,-1.159034801862829
17591,1.0,299.76288,76943.367,0.0,-0.17591027733652642,0.0,0.0,0.0,0.0,-5.258316717405455,-11.39423650152359,-6.736309174521953,-0.011643176852342091,-0.0012683723910036089,-1.1485905238070588
17592,1.0,299.72727000000003,76928.371,0.0,-0.17592027332394577,0.0,0.0,0.0,0.0,-5.258984753196385,-11.39670680526739,-6.7286123241123335,0.0016772188063536083,-0.008415621254257152,-1.1697891344491989
17593,1.0,299.39285,76765.67599999999,0.0,-0.17593026931136513,0.0,0.0,0.0,0.0,-5.2531898745494745,-11.40745840207849,-6.674200489767304,0.0028735722173494974,0.01151958769789479,-1.1549153322562689
17594,1.0,299.49589,76829.63,0.0,-0.17594026529878448,0.0,0.0,0.0,0.0,-5.256203179021866,-11.40545824638109,-6.692627456085904,-0.01040139933803819,-0.005927452289993995,-1.163759384429109
17595,1.0,299.15146,77062.473,0.0,-0.17595026128620372,0.0,0.0,0.0,0.0,-5.292360502215315,-11.42541724685089,-6.707289691657953,0.006496900872694193,0.01786662786754888,-1.1497659952480688
17596,1.0,299.55851,76866.11,0.0,-0.17596025727362297,0.0,0.0,0.0,0.0,-5.227512698465335,-11.400659493907488,-6.7372054955604135,0.0011533488476016688,0.004209726176442626,-1.1669017769642387
17597,1.0,300.19154,76690.996,0.0,-0.1759702862510999,0.0,0.0,0.0,0.0,-5.216438482822395,-11.39175809177899,-6.703950931253444,0.02331184707720018,0.0048473662882228055,-1.1622165085018388
17598,1.0,299.92877000000004,76936.186,0.0,-0.17598028223851914,0.0,0.0,0.0,0.0,-5.2677235286838355,-11.399911715333689,-6.719044406068053,0.009367069380307772,0.0026547705854554574,-1.166372049811959
17599,1.0,300.4672,77025.899,0.0,-0.17599027822593838,0.0,0.0,0.0,0.0,-5.309639050870575,-11.37865778123609,-6.725653127195285,0.009688290028334781,0.016980581185102882,-1.1555023080391988
17600,1.0,300.62476000000004,76907.603,0.0,-0.17600027421335784,0.0,0.0,0.0,0.0,-5.278907985937654,-11.403840085971389,-6.695243262544064,-0.004636915559677935,0.006552623244718563,-1.169895323059679
17601,1.0,299.96619,76914.369,0.0,-0.17601027020077697,0.0,0.0,0.0,0.0,-5.287508554111465,-11.386745543534289,-6.705793627885304,-0.023660413217600977,0.0035590056138215067,-1.1546766105327089
17602,1.0,299.7818,77014.04400000001,0.0,-0.17602026618819644,0.0,0.0,0.0,0.0,-5.266850715047695,-11.40577539366239,-6.737720429261235,-0.004514538758975286,-0.01004695209140697,-1.160174505575309
17603,1.0,299.98404,76909.667,0.0,-0.17603026217561568,0.0,0.0,0.0,0.0,-5.2583713315858445,-11.418115766630288,-6.702131742023904,-0.013233788005073186,-0.012883610797013386,-1.1658382696592788
17604,1.0,299.50105,77034.02900000001,0.0,-0.17604025816303492,0.0,0.0,0.0,0.0,-5.284603566074765,-11.41784421560349,-6.713973798592622,0.0032095733472352265,-0.01781285468474188,-1.1607602654581188
17605,1.0,300.39367000000004,77203.382,0.0,-0.17605028714051185,0.0,0.0,0.0,0.0,-5.314814428406345,-11.42395208720629,-6.729133945263813,-0.005180905220365535,-0.013917656842065787,-1.138866869222409
17606,1.0,300.69761,77062.992,0.0,-0.1760602831279311,0.0,0.0,0.0,0.0,-5.279067471503395,-11.417391292808789,-6.728766236802524,0.014700147337791587,0.01022747901137359,-1.1528254026000089
17607,1.0,300.22673,76914.25200000001,0.0,-0.17607027911535034,0.0,0.0,0.0,0.0,-5.248752345736525,-11.407138215046889,-6.724122004969174,0.021881548302290683,0.017512848555383587,-1.1551772574071189
17608,1.0,300.36905,76984.703,0.0,-0.1760802751027698,0.0,0.0,0.0,0.0,-5.232112651269315,-11.417534161072888,-6.751780794273885,0.012442328219462187,0.005635206440501574,-1.169800381525309
17609,1.0,299.96781,76883.229,0.0,-0.17609027109018893,0.0,0.0,0.0,0.0,-5.2479007090274745,-11.412439539570089,-6.7102410865492335,0.0047721040972950055,-0.010164252205133591,-1.177084028544149
17610,1.0,299.95968999999997,76903.803,0.0,-0.1761002670776084,0.0,0.0,0.0,0.0,-5.244982346089454,-11.438403060132488,-6.693450417817124,-0.017867041273589682,-0.015828877551688585,-1.1805193516831889
17611,1.0,300.08956,77050.208,0.0,-0.17611026306502764,0.0,0.0,0.0,0.0,-5.299497531944685,-11.42500586731029,-6.696836395676294,-0.007966678708599973,0.010743292213280388,-1.172063171648629
17612,1.0,300.12362,77000.884,0.0,-0.17612025905244688,0.0,0.0,0.0,0.0,-5.269088477893545,-11.420651931630589,-6.716605918377394,-0.016892315955641782,0.017224307350906784,-1.1587177559065387
17613,1.0,300.10952000000003,76974.516,0.0,-0.1761302880299238,0.0,0.0,0.0,0.0,-5.256211386347674,-11.431206957922289,-6.710912770040523,0.0006357958446106644,0.018064403141317784,-1.1519536022139687
17614,1.0,300.21747,77232.709,0.0,-0.17614028401734305,0.0,0.0,0.0,0.0,-5.278318781004504,-11.426080925666389,-6.772415733885393,-0.004914631504061365,-0.0036382349828658366,-1.167630911736199
17615,1.0,299.92537000000004,77226.652,0.0,-0.1761502800047623,0.0,0.0,0.0,0.0,-5.306921412777365,-11.42708708301569,-6.740965565356503,0.015782603432871686,0.0036795968651979366,-1.1548241397472687
17616,1.0,300.08051,76926.15400000001,0.0,-0.17616027599218165,0.0,0.0,0.0,0.0,-5.272419638922305,-11.400819587423289,-6.7103909462390225,0.0005693434478698235,0.0028511512217867167,-1.164105308013249
17617,1.0,300.72778,77065.235,0.0,-0.1761702719796009,0.0,0.0,0.0,0.0,-5.305454530607595,-11.40593954017859,-6.714513354270874,-0.006243154575326384,-0.003184860582596267,-1.1281441500391591
17618,1.0,300.84488999999996,77259.582,0.0,-0.17618026796702035,0.0,0.0,0.0,0.0,-5.305993782310815,-11.418501814918388,-6.760488057683224,-0.022442337649636275,0.000996710514642669,-1.152238325492069
17619,1.0,300.7068,77163.838,0.0,-0.1761902639544396,0.0,0.0,0.0,0.0,-5.268667675127015,-11.438309841123289,-6.748902758689844,-0.016999177364188184,0.0013770242124767087,-1.1402944372882988
17620,1.0,300.48332,77201.672,0.0,-0.17620025994185884,0.0,0.0,0.0,0.0,-5.251985626805625,-11.44930157820809,-6.766093255911414,0.006109929513753094,0.007120623386400813,-1.158942393453709
17621,1.0,300.18862,77450.522,0.0,-0.17621028891933577,0.0,0.0,0.0,0.0,-5.322055316270965,-11.446611399192589,-6.774358134327094,0.004982386322348245,-0.008655224606729161,-1.1336013124277389
17622,1.0,299.49314,77342.701,0.0,-0.1762202849067549,0.0,0.0,0.0,0.0,-5.326657194250135,-11.442479365284788,-6.741113195896073,0.004537451991436646,-0.003185090083743917,-1.1462644055524889
17623,1.0,299.85972000000004,77139.04,0.0,-0.17623028089417425,0.0,0.0,0.0,0.0,-5.303311810621125,-11.434646942011788,-6.710382738913213,0.016512316770638785,-0.009437726754831111,-1.134364492403059
17624,1.0,299.52336,77181.161,0.0,-0.1762402768815936,0.0,0.0,0.0,0.0,-5.291998265304565,-11.431593006210388,-6.7375545602198645,0.012451903432907188,-0.0002815537304621897,-1.1548160337464688
17625,1.0,299.69043999999997,77125.68400000001,0.0,-0.17625027286901296,0.0,0.0,0.0,0.0,-5.271814931262625,-11.43211280351169,-6.740354474221193,0.018688517580163082,-0.004639421529825255,-1.160221013754899
17626,1.0,299.71672,76990.637,0.0,-0.1762602688564323,0.0,0.0,0.0,0.0,-5.244417661808725,-11.436835562227788,-6.721978474382623,0.003009847263048797,0.015350960916771884,-1.1937904961929489
17627,1.0,299.77777000000003,76960.959,0.0,-0.17627026484385155,0.0,0.0,0.0,0.0,-5.248163444778404,-11.42976206327969,-6.716284515445674,0.013322262977304988,0.011370932762473689,-1.183890434765889
17628,1.0,300.10185,77071.717,0.0,-0.1762802608312708,0.0,0.0,0.0,0.0,-5.270795702987035,-11.44496689428029,-6.712114484659124,-0.009770750550623,0.012983393640361189,-1.170345510079109
17629,1.0,300.33509,77205.72,0.0,-0.17629028980874772,0.0,0.0,0.0,0.0,-5.281370588980695,-11.455109527781289,-6.732131240384624,-0.004270533240118815,0.00973791537053242,-1.169462867916999
17630,1.0,299.96583,77383.299,0.0,-0.17630028579616697,0.0,0.0,0.0,0.0,-5.301011124944065,-11.45493018251359,-6.766649428891303,-0.016935392257143085,0.004259007925531356,-1.159701520428629
17631,1.0,300.04361,77299.535,0.0,-0.1763102817835862,0.0,0.0,0.0,0.0,-5.277084237082665,-11.455346628304689,-6.764698010523714,-0.016249420926192984,-0.018054562456346585,-1.1638540219884488
17632,1.0,300.05674,77191.667,0.0,-0.17632027777100556,0.0,0.0,0.0,0.0,-5.281358632629516,-11.449785911755889,-6.733195051664613,-0.002218956620018968,-0.017907219679804985,-1.154284685394029
17633,1.0,299.99916,77440.13799999999,0.0,-0.1763302737584248,0.0,0.0,0.0,0.0,-5.316805363527836,-11.45770142153709,-6.765360878739134,0.015732487069675585,-0.009216847352282011,-1.163250124928849
17634,1.0,299.89083999999997,77477.041,0.0,-0.17634026974584427,0.0,0.0,0.0,0.0,-5.329552252435854,-11.46479214573689,-6.756741160138433,0.01828815004164988,0.014303361638381884,-1.151361762830559
17635,1.0,299.31397999999996,77135.798,0.0,-0.1763502657332634,0.0,0.0,0.0,0.0,-5.265333676997974,-11.451916776716189,-6.7301063613847845,0.013819198316598688,-0.002181569616504158,-1.161726196778449
17636,1.0,299.95185,77020.835,0.0,-0.17636026172068275,0.0,0.0,0.0,0.0,-5.257934620792745,-11.43631981792689,-6.718155684405344,0.0005523413746368495,0.009526339934376552,-1.157659821477129
17637,1.0,299.52923,77340.88799999999,0.0,-0.1763702577081021,0.0,0.0,0.0,0.0,-5.290021009059425,-11.44791342557109,-6.771764315396102,0.0021685001087642978,0.008202331196282062,-1.1683989553119989
17638,1.0,299.69736,77472.274,0.0,-0.17638028668557892,0.0,0.0,0.0,0.0,-5.328004512908104,-11.452013035475689,-6.7696190622843835,-0.01031060807607779,0.012955272910335887,-1.1636214810904988
17639,1.0,299.65372,77297.614,0.0,-0.17639028267299806,0.0,0.0,0.0,0.0,-5.306879160248195,-11.449720050499389,-6.739945425155823,-0.01980630165322978,-0.0006261647909526534,-1.1750469905431091
17640,1.0,300.35784,77311.45,0.0,-0.17640027866041752,0.0,0.0,0.0,0.0,-5.304080259496965,-11.450483027824689,-6.746186640471784,-0.013980366890754787,0.007267140161460893,-1.1491104224333688
17641,1.0,300.41155,77330.991,0.0,-0.17641027464783676,0.0,0.0,0.0,0.0,-5.296128678012205,-11.452523713526089,-6.758037816291404,0.0058138115290035245,4.8726213443152856e-05,-1.154394116404829
17642,1.0,300.39973,77326.775,0.0,-0.17642027063525623,0.0,0.0,0.0,0.0,-5.273652764294005,-11.471196899618988,-6.760559187840243,0.008542775731831322,0.0013124402590527688,-1.1657284333484388
17643,1.0,299.96427,77258.939,0.0,-0.17643026662267547,0.0,0.0,0.0,0.0,-5.261140442784136,-11.468049744808388,-6.7555976060755745,0.017717061007037783,-0.02723333369372077,-1.1740487365445889
17644,1.0,300.14966,77163.145,0.0,-0.1764402626100947,0.0,0.0,0.0,0.0,-5.262713006939335,-11.462537664264389,-6.730418341090574,-0.0010186701774349191,-0.005107501634096165,-1.171642774182139
17645,1.0,300.1536,77308.742,0.0,-0.17645025859751406,0.0,0.0,0.0,0.0,-5.282333075250685,-11.471803836428888,-6.745790054382644,-0.004691718305911545,-0.008603090457283923,-1.1811767483480689
17646,1.0,300.03966,77570.963,0.0,-0.17646028757499088,0.0,0.0,0.0,0.0,-5.329886320993825,-11.483163383299988,-6.766585594135003,-0.012112085693869788,-0.004825602182699855,-1.1530492295470989
17647,1.0,299.75136000000003,77470.609,0.0,-0.17647028356241,0.0,0.0,0.0,0.0,-5.306872675447554,-11.46585301859159,-6.776405102179114,-0.01940612055273498,-0.0038925714984168963,-1.153141941931249
17648,1.0,299.99937,77270.848,0.0,-0.17648027954982948,0.0,0.0,0.0,0.0,-5.269974058480945,-11.466496432405089,-6.751938050689403,-0.004682582741684935,0.01027474712853859,-1.148348255708149
17649,1.0,300.04787999999996,77439.631,0.0,-0.17649027553724872,0.0,0.0,0.0,0.0,-5.296479667846845,-11.46703345495809,-6.776201540234022,0.0023591456482045473,0.01096768556717629,-1.162371941067179
17650,1.0,299.55255,77664.193,0.0,-0.17650027152466807,0.0,0.0,0.0,0.0,-5.355871221133335,-11.46742862249709,-6.784676161420403,0.016459579129433983,0.023828216553411878,-1.1512271018922688
17651,1.0,299.8367,77424.004,0.0,-0.17651026751208743,0.0,0.0,0.0,0.0,-5.313176813594724,-11.467117554716388,-6.754669266333953,0.014346426794132087,0.001135003954541169,-1.155404630729559
17652,1.0,300.61947000000004,77285.16900000001,0.0,-0.17652026349950656,0.0,0.0,0.0,0.0,-5.301201615962865,-11.46212729797389,-6.729432752718303,0.008652974786207121,0.0005620636208038604,-1.1361393012782188
17653,1.0,300.58423,77510.313,0.0,-0.17653025948692602,0.0,0.0,0.0,0.0,-5.3201751293854045,-11.465732441829688,-6.775292046944263,0.006715121810955924,-0.004397681030242326,-1.1498455353809187
17654,1.0,300.47626,77526.285,0.0,-0.17654028846440273,0.0,0.0,0.0,0.0,-5.312446462922645,-11.47072168532209,-6.782886559093783,-0.00962387883405289,-0.014615217727659686,-1.1439204540961592
17655,1.0,300.08515,77485.869,0.0,-0.17655028445182208,0.0,0.0,0.0,0.0,-5.3004865653672955,-11.485671177297489,-6.767611509861252,-0.004472646136240806,-0.013557929751813488,-1.161702689376129
17656,1.0,299.9897,77602.056,0.0,-0.17656028043924143,0.0,0.0,0.0,0.0,-5.331514512579515,-11.478376789827589,-6.779195998254552,-0.01812337429713778,0.0010553344296533988,-1.1494838050952187
17657,1.0,300.34577,77527.37,0.0,-0.17657027642666068,0.0,0.0,0.0,0.0,-5.314419058217325,-11.48230110746489,-6.769664759863893,0.008746725853034631,0.0037790422962624367,-1.1646951208964589
17658,1.0,300.11376,77309.644,0.0,-0.17658027241408003,0.0,0.0,0.0,0.0,-5.288250151859654,-11.481353718621389,-6.730597483708253,-0.014755610621765383,0.007735481380282572,-1.1628031803097387
17659,1.0,299.99753,77471.607,0.0,-0.17659026840149938,0.0,0.0,0.0,0.0,-5.299763307445915,-11.488010771778388,-6.761659881423872,-0.01123257244806859,0.012861838078864589,-1.1619265163232189
17660,1.0,299.94953,77431.201,0.0,-0.17660026438891852,0.0,0.0,0.0,0.0,-5.2853794116763355,-11.49035441925969,-6.761417815974984,-0.0045133958128624856,0.007662196141624883,-1.174999367788409
17661,1.0,300.21319,77267.015,0.0,-0.17661026037633798,0.0,0.0,0.0,0.0,-5.262527379521015,-11.494106484379989,-6.730609136084403,-0.00991899187735328,0.009079779843679501,-1.194426411955709
17662,1.0,300.38372000000004,77425.22200000001,0.0,-0.17662028935381469,0.0,0.0,0.0,0.0,-5.297268584374705,-11.49109206533249,-6.746973631824453,-0.008549095271380012,0.006062276665525125,-1.1983967311475487
17663,1.0,299.68685,77578.412,0.0,-0.17663028534123404,0.0,0.0,0.0,0.0,-5.328186593951075,-11.501178970077989,-6.752534854998303,0.004687037698399605,-0.007885971007659743,-1.1748360318722888
17664,1.0,299.46736,77545.75200000001,0.0,-0.1766402813286534,0.0,0.0,0.0,0.0,-5.314063711407255,-11.49940071615249,-6.758507356387743,0.017179609849245485,-0.0007890531139734793,-1.166070303932179
17665,1.0,299.16749,77486.089,0.0,-0.17665027731607263,0.0,0.0,0.0,0.0,-5.300898147557915,-11.491641246886688,-6.761297239213085,0.018182594712482382,-0.015638614514161087,-1.174733186987139
17666,1.0,299.7241,77536.789,0.0,-0.1766602733034921,0.0,0.0,0.0,0.0,-5.2846792558572355,-11.49514101273209,-6.789427392464313,0.007935212834694533,-0.01776278797080068,-1.1653077319069187
17667,1.0,300.42245,77514.031,0.0,-0.17667026929091123,0.0,0.0,0.0,0.0,-5.294447898746325,-11.49693547865919,-6.770946926540434,-0.02191074814367248,-0.015276311742154587,-1.1827103023744188
17668,1.0,300.47789,77671.65299999999,0.0,-0.17668026527833058,0.0,0.0,0.0,0.0,-5.325323047843465,-11.51244529793989,-6.772475009016244,-0.005435672468534105,0.001923387614173578,-1.165526999228559
17669,1.0,299.56788,77753.747,0.0,-0.17669026126574994,0.0,0.0,0.0,0.0,-5.371102396636535,-11.490964395819889,-6.773130784480965,-0.00919461289606264,0.002024541486231688,-1.1727009112615687
17670,1.0,300.01398,77515.609,0.0,-0.17670029024322675,0.0,0.0,0.0,0.0,-5.333320630882765,-11.474666267961389,-6.754822571074084,0.002354130769484618,0.006979970087019414,-1.142962628776629
17671,1.0,300.03289,77419.69900000001,0.0,-0.17671028623064589,0.0,0.0,0.0,0.0,-5.293800330607414,-11.47628746812139,-6.763567223412114,-0.001062682215403569,0.02215402543968208,-1.163566866910109
17672,1.0,300.64856000000003,77816.62700000001,0.0,-0.17672028221806535,0.0,0.0,0.0,0.0,-5.346097714643765,-11.482833063767389,-6.825380343112593,0.013818958176324987,0.017564673258248283,-1.1374580462833688
17673,1.0,300.08005,77796.246,0.0,-0.1767302782054846,0.0,0.0,0.0,0.0,-5.339191401962165,-11.49147304737009,-6.817452066380135,0.0022908820770424576,0.01180414885597879,-1.168669493088699
17674,1.0,299.32833,77381.973,0.0,-0.17674027419290395,0.0,0.0,0.0,0.0,-5.278291828551844,-11.480315137268889,-6.7635809022884645,0.0003134325341808827,-0.014398130920234887,-1.152709993413619
17675,1.0,299.36324,77463.011,0.0,-0.1767502701803232,0.0,0.0,0.0,0.0,-5.303644055328915,-11.493618097831789,-6.749558838129595,0.0014295235372579886,-0.018571824605896382,-1.1546009207502388
17676,1.0,299.64257000000003,77715.83099999999,0.0,-0.17676026616774254,0.0,0.0,0.0,0.0,-5.329689446499395,-11.507267589928889,-6.786715023271624,-0.006631458459473994,-0.008719369417559762,-1.152738668391449
17677,1.0,300.27907999999996,77673.343,0.0,-0.1767702621551619,0.0,0.0,0.0,0.0,-5.319026610397055,-11.518085047996488,-6.773644806256693,0.006851125508278442,-0.01107598376436449,-1.1765487285163188
17678,1.0,300.15094,77531.134,0.0,-0.17678025814258103,0.0,0.0,0.0,0.0,-5.272648937419936,-11.52040741722569,-6.774472327613363,0.026608422840296877,-0.015966622823282987,-1.1735566009710188
17679,1.0,299.69001000000003,77579.672,0.0,-0.17679028712005784,0.0,0.0,0.0,0.0,-5.313709681822315,-11.512121057907889,-6.756452079884903,0.002472944982835668,0.014989055338804586,-1.1674398127673387
17680,1.0,299.71241000000003,77673.496,0.0,-0.1768002831074773,0.0,0.0,0.0,0.0,-5.305405894602795,-11.519435710379788,-6.785961874472293,0.00966319334323293,0.0015090503965316784,-1.1663106468558988
17681,1.0,300.32838,77755.141,0.0,-0.17681027909489655,0.0,0.0,0.0,0.0,-5.345448727954715,-11.538552700016488,-6.751619788832994,-0.01017358727830489,0.0024918811073295177,-1.1662285735977989
17682,1.0,300.49104,77639.709,0.0,-0.1768202750823159,0.0,0.0,0.0,0.0,-5.311691084973095,-11.501086764318888,-6.7877549218492526,0.00043213030483044054,0.004740216002072896,-1.154370710327519
17683,1.0,300.52687000000003,77471.67599999999,0.0,-0.17683027106973526,0.0,0.0,0.0,0.0,-5.275488064200135,-11.513268057021088,-6.760698509728993,0.0097475430703326,0.008288557259916913,-1.1554950126384789
17684,1.0,299.8754,77689.704,0.0,-0.1768402670571544,0.0,0.0,0.0,0.0,-5.288912310800004,-11.527353246661189,-6.799464647954913,0.005105118267210945,0.021196367306418582,-1.1781030541697188
17685,1.0,299.69678999999996,78031.01400000001,0.0,-0.17685026304457385,0.0,0.0,0.0,0.0,-5.3807379997874945,-11.512787776473688,-6.825954653269274,-0.010826480046490389,0.02076954583429458,-1.1515233762215091
17686,1.0,299.94558,77771.734,0.0,-0.1768602590319931,0.0,0.0,0.0,0.0,-5.337551963300365,-11.51171069161739,-6.791402926184284,-0.0022653301386706777,-0.008986587685607152,-1.1547973899446289
17687,1.0,300.3202,77460.3,0.0,-0.1768702880094698,0.0,0.0,0.0,0.0,-5.314032300654155,-11.488112096788388,-6.7438525175414235,-0.011629919488033689,0.002498848620317158,-1.136183681632599
17688,1.0,299.9455,77884.661,0.0,-0.17688028399688926,0.0,0.0,0.0,0.0,-5.361900768503404,-11.507904924241789,-6.805185964644563,-0.007925475703883552,-0.008248681511506482,-1.158583398943279
17689,1.0,299.383,78151.093,0.0,-0.1768902799843085,0.0,0.0,0.0,0.0,-5.389548412057016,-11.53684537359799,-6.829586445602703,-0.01389108739794359,-0.025297133329382677,-1.1683601478331689
17690,1.0,299.67787999999996,77811.75,0.0,-0.17690027597172786,0.0,0.0,0.0,0.0,-5.340773186693275,-11.51294381698909,-6.7991125435451645,0.0012860091235692187,-0.019561204560040582,-1.1710084796195388
17691,1.0,300.47135,77607.99799999999,0.0,-0.17691027195914721,0.0,0.0,0.0,0.0,-5.316300866303045,-11.522826045214389,-6.751767115397533,0.00976098069183379,0.003615006224323337,-1.167450249243369
17692,1.0,300.4911,77692.655,0.0,-0.17692026794656635,0.0,0.0,0.0,0.0,-5.337073709253165,-11.51162456535889,-6.7679288597925735,0.013871508366261286,-0.001884905692600708,-1.1682127199436187
17693,1.0,300.67269,77804.452,0.0,-0.1769302639339857,0.0,0.0,0.0,0.0,-5.343353225422905,-11.53323820324199,-6.774019100843634,-0.013910997762408587,0.016551020897958586,-1.176187099555629
17694,1.0,300.37604,77815.295,0.0,-0.17694025992140505,0.0,0.0,0.0,0.0,-5.3124224488952745,-11.543921912296389,-6.797561966917134,-0.004953025272875535,0.013061584124077989,-1.1763650262731888
17695,1.0,300.12018,77791.9,0.0,-0.17695028889888187,0.0,0.0,0.0,0.0,-5.319440219087875,-11.52890858556469,-6.798445824979364,-0.01124328858112619,0.017955195045539784,-1.169165985637699
17696,1.0,300.11213,77671.9,0.0,-0.17696028488630122,0.0,0.0,0.0,0.0,-5.297947157966675,-11.538775615038489,-6.773595258326803,-0.017472809977682087,-0.0037340369692207566,-1.193885336402309
17697,1.0,299.65257,77752.26,0.0,-0.17697028087372046,0.0,0.0,0.0,0.0,-5.316425394740335,-11.54612674451399,-6.772193426813453,-0.012730594833161888,-0.009078618861714922,-1.178619507745689
17698,1.0,299.6629,77936.92,0.0,-0.17698027686113982,0.0,0.0,0.0,0.0,-5.337717731016724,-11.54783305768239,-6.805326705083453,0.006097583669234654,-0.005490540366749145,-1.159843375442629
17699,1.0,300.14518,77745.192,0.0,-0.17699027284855906,0.0,0.0,0.0,0.0,-5.311181217522774,-11.537062209119389,-6.784353947888603,0.013749650856234885,0.01075580889176569,-1.164114528589159
17700,1.0,299.81526,77493.203,0.0,-0.1770002688359783,0.0,0.0,0.0,0.0,-5.256509180552065,-11.525917471269489,-6.773572054899514,0.01957117798077488,-0.01030824517684459,-1.186514347224849
17701,1.0,300.21594,77766.288,0.0,-0.17701026482339777,0.0,0.0,0.0,0.0,-5.324224583410055,-11.530457844967588,-6.784327299410974,0.007861453293665032,-0.004969341031285776,-1.1726467023812188
17702,1.0,299.56225,77975.543,0.0,-0.177020260810817,0.0,0.0,0.0,0.0,-5.363432903979615,-11.532246231394089,-6.806938583342534,0.004206188515043486,0.008324255276840033,-1.170977474166479
17703,1.0,299.67627999999996,77893.382,0.0,-0.17703028978829372,0.0,0.0,0.0,0.0,-5.349888080617845,-11.53784849119699,-6.7899060518115535,-0.017227247802696983,0.004348189437057886,-1.147969401495759
17704,1.0,299.89765,77997.983,0.0,-0.17704028577571318,0.0,0.0,0.0,0.0,-5.360049459245695,-11.53983142164269,-6.8095581388260635,-0.021550823469650683,-0.00906919330530969,-1.1509072188356988
17705,1.0,299.54016,77993.508,0.0,-0.1770502817631323,0.0,0.0,0.0,0.0,-5.354172304690665,-11.530194399941589,-6.823712533447994,-0.022286747017280683,0.0064727905865646935,-1.148911116138699
17706,1.0,299.77001,77925.51400000001,0.0,-0.17706027775055178,0.0,0.0,0.0,0.0,-5.332773273178745,-11.54272729042849,-6.811910398933214,0.013990611862515885,0.017280338054936586,-1.1362640323655289
17707,1.0,299.84673,78103.833,0.0,-0.17707027373797102,0.0,0.0,0.0,0.0,-5.367003394681994,-11.543908740045088,-6.8307030472129036,0.0011418174535136089,0.009024516271300412,-1.1435959100891289
17708,1.0,299.77695,78103.522,0.0,-0.17708026972539037,0.0,0.0,0.0,0.0,-5.368325078112435,-11.54061162421969,-6.832584044698543,0.005480885309196265,-0.017808441980556384,-1.1449802123757489
17709,1.0,299.67255,77676.042,0.0,-0.17709026571280972,0.0,0.0,0.0,0.0,-5.300620415705505,-11.533343581252389,-6.777613200273344,0.01221532270680849,-0.01867010479934588,-1.1798979253968591
17710,1.0,300.09099,77760.098,0.0,-0.17710026170022886,0.0,0.0,0.0,0.0,-5.305749791686735,-11.546441865295089,-6.784936769346123,0.01024391190149539,0.013544604499748387,-1.155327015771899
17711,1.0,299.75022,78151.161,0.0,-0.17711029067770567,0.0,0.0,0.0,0.0,-5.360728438137704,-11.55734747612139,-6.837925899225743,-0.0014346095461349388,0.007561471684959153,-1.177037115064519
17712,1.0,300.28837000000004,77970.693,0.0,-0.17712028666512514,0.0,0.0,0.0,0.0,-5.341871144501635,-11.553830485024289,-6.805442316919865,-0.005202416114688495,-0.009426831479155831,-1.177483857033609
17713,1.0,299.99967000000004,77678.01,0.0,-0.17713028265254438,0.0,0.0,0.0,0.0,-5.297143447987355,-11.558344514219788,-6.756687761858163,0.002217196604595268,0.01238683656448559,-1.196054400891379
17714,1.0,300.34312,77838.515,0.0,-0.17714027863996373,0.0,0.0,0.0,0.0,-5.332913405667575,-11.54505067290779,-6.783000549730033,-0.002745168706377057,0.015725398371975983,-1.161862782891929
17715,1.0,300.13096,78032.322,0.0,-0.17715027462738298,0.0,0.0,0.0,0.0,-5.341522282492205,-11.56937272830819,-6.808982714094274,-0.003238202830135737,-0.0025928726567216076,-1.1802119316028488
17716,1.0,299.95822999999996,78065.892,0.0,-0.17716027061480222,0.0,0.0,0.0,0.0,-5.3575432864483545,-11.568337186705989,-6.804201592172413,-0.02293076675434048,-0.006229708746499384,-1.1663792438876688
17717,1.0,299.71347000000003,77970.965,0.0,-0.17717026660222168,0.0,0.0,0.0,0.0,-5.335037481852205,-11.551344982528988,-6.814843757972713,0.016719908411376484,-0.0014299820329282387,-1.160447576477259
17718,1.0,299.64997999999997,77841.345,0.0,-0.1771802625896408,0.0,0.0,0.0,0.0,-5.313913446417424,-11.54583999473569,-6.802071740462215,0.014314830616263789,-0.007257562009590603,-1.1619102029966089
17719,1.0,299.30089,77969.446,0.0,-0.17719025857706028,0.0,0.0,0.0,0.0,-5.334824395356175,-11.535651764980189,-6.830288627922004,0.0033662164424696967,-0.007723094499135082,-1.1502424254450887
17720,1.0,298.99388,78387.964,0.0,-0.17720028755453698,0.0,0.0,0.0,0.0,-5.395204678090245,-11.576620506273489,-6.856158726825184,-0.01079367506125279,-0.0003639764686541807,-1.170403265334809
17721,1.0,298.7093,78239.719,0.0,-0.17721028354195634,0.0,0.0,0.0,0.0,-5.388479534526525,-11.55787639267359,-6.836565306991464,0.003972493119929546,0.01967823292009038,-1.1509278891377388
17722,1.0,299.87935,77842.49799999999,0.0,-0.1772202795293757,0.0,0.0,0.0,0.0,-5.344427169203895,-11.54621591052279,-6.771533091723283,-0.00019042505621848983,0.041435981311912964,-1.1541064547014388
17723,1.0,300.10119,77948.273,0.0,-0.17723027551679493,0.0,0.0,0.0,0.0,-5.352087846584945,-11.56585168421069,-6.776389295477553,-0.0035636884504836666,0.006932911712625113,-1.160563188313669
17724,1.0,299.73902999999996,78237.204,0.0,-0.17724027150421418,0.0,0.0,0.0,0.0,-5.3965392297969546,-11.556992838586389,-6.8286247699327935,-0.003311421903561897,0.0066136228259137545,-1.158555838540559
17725,1.0,299.82236,78089.573,0.0,-0.17725026749163353,0.0,0.0,0.0,0.0,-5.355282320175215,-11.594030169491688,-6.7879678056952635,0.0034067776545727768,0.013442519552173387,-1.1927083450861489
17726,1.0,300.18352999999996,77837.363,0.0,-0.17726026347905288,0.0,0.0,0.0,0.0,-5.313215925048586,-11.583121518915089,-6.764277106432173,0.014832641947367787,0.006678701245386494,-1.1913394442010488
17727,1.0,299.96596,77996.603,0.0,-0.17727025946647224,0.0,0.0,0.0,0.0,-5.337378089583204,-11.57289985190629,-6.798741694008564,0.012395345838825388,-0.01996817544945548,-1.206552887827499
17728,1.0,300.5704,78144.516,0.0,-0.17728028844394894,0.0,0.0,0.0,0.0,-5.358021439170545,-11.596930091277889,-6.799030672937084,-0.004513671112914655,-0.0009158823889280541,-1.1813551816906789
17729,1.0,299.65001,77979.337,0.0,-0.1772902844313683,0.0,0.0,0.0,0.0,-5.315235332497886,-11.564479743575289,-6.824055923906883,0.01030642943266539,-0.008884936105099921,-1.1870789301805686
17730,1.0,299.51552000000004,77894.20599999999,0.0,-0.17730028041878765,0.0,0.0,0.0,0.0,-5.311370796616486,-11.559614116595089,-6.806909097764624,0.005243726625240525,-0.013063315768498888,-1.150037140974829
17731,1.0,299.9738,78027.692,0.0,-0.1773102764062069,0.0,0.0,0.0,0.0,-5.311729689801905,-11.586076156206689,-6.820663765222103,0.007262779335680514,-0.01675015797986188,-1.180266241808209
17732,1.0,300.22351000000003,78112.98,0.0,-0.17732027239362613,0.0,0.0,0.0,0.0,-5.352181673544204,-11.569702034590689,-6.822511325454444,-0.0009464662590189472,-0.0008413956180367821,-1.1504041401610487
17733,1.0,299.94032999999996,78276.413,0.0,-0.17733026838104549,0.0,0.0,0.0,0.0,-5.387480469927925,-11.588234378919688,-6.818359938469734,-0.0066380927145037434,0.007235923040455002,-1.168007131498329
17734,1.0,299.55097,78243.27900000001,0.0,-0.17734026436846484,0.0,0.0,0.0,0.0,-5.394821872202465,-11.571890654806689,-6.817289946364134,-0.02114820448941528,0.01004047610604284,-1.1298326300057988
17735,1.0,300.16531000000003,78108.049,0.0,-0.1773502603558842,0.0,0.0,0.0,0.0,-5.363250113661574,-11.57297888541409,-6.806667842915813,0.003819552744535507,-0.012427388859987789,-1.1665641620309188
17736,1.0,299.38081,78306.024,0.0,-0.177360289333361,0.0,0.0,0.0,0.0,-5.3969916459666045,-11.59572027065849,-6.810363773980574,-0.016090017433711086,0.008298671117115072,-1.1523997362329987
17737,1.0,300.16717,78430.982,0.0,-0.17737028532078014,0.0,0.0,0.0,0.0,-5.414460786965675,-11.566399852514788,-6.860199466898973,-0.016905439570936986,-0.003104402647805687,-1.148686883891569
17738,1.0,299.62982,78151.902,0.0,-0.1773802813081996,0.0,0.0,0.0,0.0,-5.3614321403321545,-11.589518166796388,-6.8052767518535235,-0.004051335427435676,-0.01085565658311989,-1.1567255035599189
17739,1.0,299.72853,77986.44099999999,0.0,-0.17739027729561885,0.0,0.0,0.0,0.0,-5.340962968437005,-11.557655504151787,-6.807312472629434,-0.009004842602058772,-0.006102832710052694,-1.1699629068413488
17740,1.0,299.3958,78265.483,0.0,-0.1774002732830381,0.0,0.0,0.0,0.0,-5.363684595304455,-11.56936766205769,-6.857700589502352,0.024659016787405477,0.007724632106161832,-1.1472909292287987
17741,1.0,300.83745,78147.807,0.0,-0.17741026927045744,0.0,0.0,0.0,0.0,-5.330365182991085,-11.583437652946289,-6.841178938671793,0.00985608860187021,-0.008546538942702723,-1.1501682555377688
17742,1.0,300.10582999999997,78010.00200000001,0.0,-0.17742026525787669,0.0,0.0,0.0,0.0,-5.321090195550715,-11.57492027260569,-6.817081824793593,0.004654497982038186,0.008740593258129392,-1.148650812188009
17743,1.0,300.32412,78191.072,0.0,-0.17743026124529615,0.0,0.0,0.0,0.0,-5.352020566778305,-11.58762136260919,-6.828491426219634,-0.0007644530430106414,-0.007130902504690284,-1.1686595632377188
17744,1.0,299.68484,78149.049,0.0,-0.17744029022277286,0.0,0.0,0.0,0.0,-5.352861260386274,-11.59715097979969,-6.805347274060483,-0.002304236612035448,0.0077383861656692525,-1.183712406723319
17745,1.0,300.1606,78143.2,0.0,-0.1774502862101921,0.0,0.0,0.0,0.0,-5.350830099235815,-11.601728843751488,-6.8010226213086735,-0.023905173911756977,-0.009413320903647441,-1.187899561436559
17746,1.0,300.35982,78361.072,0.0,-0.17746028219761145,0.0,0.0,0.0,0.0,-5.375584812428915,-11.62260686206199,-6.821617638866243,-0.017306537662772285,-0.006556602277861264,-1.1863346979821188
17747,1.0,299.4121,78243.32,0.0,-0.1774702781850308,0.0,0.0,0.0,0.0,-5.354174837815916,-11.609715281039689,-6.820125121468944,-0.0036119200671687565,-0.013268547549753687,-1.1902653990950487
17748,1.0,299.76665,78088.62,0.0,-0.17748027417244994,0.0,0.0,0.0,0.0,-5.340826179673504,-11.602283091556188,-6.793880829303834,0.006742386445971734,0.015997891721368986,-1.1784323604522189
17749,1.0,300.12145,78300.053,0.0,-0.1774902701598695,0.0,0.0,0.0,0.0,-5.364402888300345,-11.61443803975579,-6.822420132945443,0.017754202702703382,0.008241975721019673,-1.165126258814009
17750,1.0,300.09656,78368.754,0.0,-0.17750026614728864,0.0,0.0,0.0,0.0,-5.403460639905044,-11.589125025757589,-6.829558175924913,-0.008534086504273763,0.0036024333104574865,-1.1548543346002489
17751,1.0,299.73485,78158.759,0.0,-0.177510262134708,0.0,0.0,0.0,0.0,-5.359309280047645,-11.590021752096089,-6.808980079644014,-0.005712339395089004,0.008615092810018462,-1.1613751056187989
17752,1.0,299.78112999999996,78099.73599999999,0.0,-0.1775202911121848,0.0,0.0,0.0,0.0,-5.344719998482795,-11.575462361409189,-6.820187335025084,-0.007152044879951873,0.007236057194768244,-1.1664843179230386
17753,1.0,299.60927999999996,78349.204,0.0,-0.17753028709960406,0.0,0.0,0.0,0.0,-5.381127999750985,-11.58442253204349,-6.850650800606594,0.016902895299935883,-0.005030234018570445,-1.149014974273949
17754,1.0,300.38956,78506.396,0.0,-0.17754028308702352,0.0,0.0,0.0,0.0,-5.401806509116795,-11.612168359531788,-6.8500089066682435,-0.006828847887604813,0.0025489024659820876,-1.1764345352300487
17755,1.0,300.03206,78432.548,0.0,-0.17755027907444276,0.0,0.0,0.0,0.0,-5.388736596076895,-11.61281886609599,-6.839980973078564,0.014816864630060685,-0.0027297963851349275,-1.187623754759339
17756,1.0,300.68405,78397.632,0.0,-0.177560275061862,0.0,0.0,0.0,0.0,-5.385572317339604,-11.61126352719249,-6.8340868972468645,0.0065798895009345345,-0.0033247968048818973,-1.185048275655159
17757,1.0,300.55547,78311.84700000001,0.0,-0.17757027104928136,0.0,0.0,0.0,0.0,-5.3563634580319155,-11.618761577932489,-6.829721309191013,0.012527143332332787,-0.008439011322215572,-1.175655953853209
17758,1.0,300.14662000000004,78366.802,0.0,-0.1775802670367006,0.0,0.0,0.0,0.0,-5.357504782944555,-11.617280206286289,-6.846765898398184,0.01135694788459349,-0.017026097392844986,-1.1727040523368788
17759,1.0,300.0436,78510.957,0.0,-0.17759026302411995,0.0,0.0,0.0,0.0,-5.401621084348495,-11.61637638719709,-6.847372733883074,-0.007354454151728113,-0.011846549319663387,-1.1633467889883888
17760,1.0,299.77745,78223.40400000001,0.0,-0.1776002590115393,0.0,0.0,0.0,0.0,-5.360904946305125,-11.602986287125589,-6.814070141521364,-0.013799931365947185,0.01073013313423169,-1.1637209822503187
17761,1.0,299.68019,78013.363,0.0,-0.177610287989016,0.0,0.0,0.0,0.0,-5.3336557126908355,-11.596847004769689,-6.783611438215323,-0.013471395153523186,-0.0023595161937661176,-1.1597038509038589
17762,1.0,299.95183,78507.358,0.0,-0.17762028397643548,0.0,0.0,0.0,0.0,-5.396494748117566,-11.625385193836188,-6.842396662641974,-0.008345090333346293,0.019914859242443583,-1.1691017455813588
17763,1.0,300.14216,78675.973,0.0,-0.1776302799638546,0.0,0.0,0.0,0.0,-5.405794053560336,-11.639961809774789,-6.869775490944054,0.004632932169559806,0.02719251390019218,-1.1574601098824189
17764,1.0,300.00593,78310.656,0.0,-0.17764027595127396,0.0,0.0,0.0,0.0,-5.340392508630704,-11.629519254244189,-6.834571838744723,0.00965961616507989,0.007994290787075073,-1.167706398868649
17765,1.0,300.03089,78309.474,0.0,-0.17765027193869332,0.0,0.0,0.0,0.0,-5.361451898709104,-11.626637570959788,-6.816035238765304,0.00907513469992106,-0.009105663520134021,-1.1559020352036489
17766,1.0,299.83303,78644.063,0.0,-0.17766026792611256,0.0,0.0,0.0,0.0,-5.409633258189236,-11.628207095364688,-6.8679907522179136,0.017567226648500283,-0.016003234589146285,-1.165738667174449
17767,1.0,299.54522000000003,78600.063,0.0,-0.17767026391353202,0.0,0.0,0.0,0.0,-5.402326813043145,-11.64103788138099,-6.849092016652754,0.02136792372059988,-0.004340620357485876,-1.165836952434149
17768,1.0,299.15455,78409.276,0.0,-0.17768025990095127,0.0,0.0,0.0,0.0,-5.373817400279485,-11.61265370632969,-6.847990411144035,0.007035766426301083,0.0062015453586448735,-1.156114513749619
17769,1.0,300.36753999999996,78321.973,0.0,-0.17769028887842797,0.0,0.0,0.0,0.0,-5.353002203475185,-11.592266101067588,-6.862655889116404,-0.007723516213826703,0.001113021493621669,-1.146795348604889
17770,1.0,300.30627000000004,78285.033,0.0,-0.17770028486584744,0.0,0.0,0.0,0.0,-5.348655765846225,-11.607796185350288,-6.840243708829493,-0.0037621532409456166,-0.004042805685443856,-1.153513399417909
17771,1.0,300.13728,78492.031,0.0,-0.17771028085326657,0.0,0.0,0.0,0.0,-5.395357678855345,-11.616842482243088,-6.847417316887473,-0.013061506103820286,0.008550149355459042,-1.162857794490129
17772,1.0,298.78182000000004,78606.438,0.0,-0.17772027684068592,0.0,0.0,0.0,0.0,-5.406697771324525,-11.621563214458988,-6.866133566109624,-0.007150685503617713,-0.0032858236596605465,-1.160780125160079
17773,1.0,299.89555,78399.716,0.0,-0.17773027282810527,0.0,0.0,0.0,0.0,-5.3850950765425045,-11.628041935598388,-6.818419314925594,-0.020712913259705378,-0.011637880594069389,-1.1695208258227188
17774,1.0,300.40035,78452.218,0.0,-0.17774026881552452,0.0,0.0,0.0,0.0,-5.380702333383975,-11.624101405959488,-6.842711175473013,-0.007251119664129794,0.0001148130102961619,-1.160646882771929
17775,1.0,300.50562,78771.385,0.0,-0.17775026480294398,0.0,0.0,0.0,0.0,-5.421992477608995,-11.648759860393088,-6.873781476539413,0.007142618411621554,0.00034110505302444765,-1.160231956855979
17776,1.0,300.16309,78698.03,0.0,-0.1777602607903631,0.0,0.0,0.0,0.0,-5.420638268850345,-11.639986127777188,-6.861611937538374,0.016070159758251285,-0.0025003712312424275,-1.1580321908888789
17777,1.0,300.76378,78371.79,0.0,-0.17777028976783993,0.0,0.0,0.0,0.0,-5.361461929885095,-11.643782775901888,-6.817822409291685,-0.002758466094064407,0.00994038766646488,-1.187679179539809
17778,1.0,299.72427999999996,78393.66900000001,0.0,-0.17778028575525928,0.0,0.0,0.0,0.0,-5.356675437737704,-11.639772332006089,-6.833270116341253,-0.003950362927145466,-0.000883830826067311,-1.2029605109229589
17779,1.0,299.68177000000003,78551.439,0.0,-0.17779028174267864,0.0,0.0,0.0,0.0,-5.381552956842925,-11.640459315573889,-6.855664159451373,-0.004504904169074426,0.007252898323355333,-1.1916331854050388
17780,1.0,299.36536,78403.44900000001,0.0,-0.17780027773009777,0.0,0.0,0.0,0.0,-5.339357473653555,-11.653188776580189,-6.840144815619734,-0.014574135502355187,0.0038581409560438664,-1.1927326630885489
17781,1.0,299.5921,78394.352,0.0,-0.17781027371751723,0.0,0.0,0.0,0.0,-5.339461331788804,-11.649634295229388,-6.8408299753373525,-0.009168685244553781,-0.005365693566277725,-1.1865890237572188
17782,1.0,299.71072000000004,78506.55,0.0,-0.17782026970493647,0.0,0.0,0.0,0.0,-5.386974756803015,-11.64174715645099,-6.835309079517485,-0.017685433418416382,-0.020184622896067178,-1.1818173250612887
17783,1.0,299.92425,78543.808,0.0,-0.17783026569235583,0.0,0.0,0.0,0.0,-5.3817720215145455,-11.672120341448588,-6.821464232801103,-0.0035166333184896864,-0.003982481536765327,-1.1881780025640387
17784,1.0,299.52246,78621.531,0.0,-0.17784026167977507,0.0,0.0,0.0,0.0,-5.396762651444004,-11.658027045807689,-6.844192141819174,0.019312123367458182,-0.014965772878006786,-1.1782192739561888
17785,1.0,300.03985,78820.933,0.0,-0.17785029065725189,0.0,0.0,0.0,0.0,-5.4219573178305245,-11.66272751302159,-6.874910845100874,0.016468565644570884,-0.0011103650558344988,-1.160056157963629
17786,1.0,300.11847,78652.326,0.0,-0.17786028664467124,0.0,0.0,0.0,0.0,-5.393121131909615,-11.658385736343089,-6.8568361858420435,0.00971178273852833,-0.0050756151600742155,-1.162843001038669
17787,1.0,300.22632000000004,78507.444,0.0,-0.1778702826320906,0.0,0.0,0.0,0.0,-5.393341108506325,-11.62335362738569,-6.847607503931243,0.0024273489309856876,0.0062061643605507335,-1.1527188086894888
17788,1.0,300.77237,78612.516,0.0,-0.17788027861950972,0.0,0.0,0.0,0.0,-5.424644355770715,-11.621969527749089,-6.849627620655614,-0.009586225244436771,0.004477117304957075,-1.1546143969765688
17789,1.0,300.25571,78599.364,0.0,-0.17789027460692908,0.0,0.0,0.0,0.0,-5.400058855344315,-11.62623328416989,-6.865952194341723,-0.011210887882678489,0.023738017029509874,-1.1549085434805988
17790,1.0,299.76525,78623.307,0.0,-0.17790027059434843,0.0,0.0,0.0,0.0,-5.388649456568295,-11.638878645417888,-6.8719936980629726,-0.015354371516608487,-0.004783148726035026,-1.1653151286326489
17791,1.0,298.86098,78747.77900000001,0.0,-0.17791026658176778,0.0,0.0,0.0,0.0,-5.414631924907566,-11.636168201400388,-6.886558560300413,-0.016346031283477683,0.00987485774274758,-1.1451751616949888
17792,1.0,299.37681000000003,78701.807,0.0,-0.17792026256918714,0.0,0.0,0.0,0.0,-5.402535339913725,-11.63871855190209,-6.882130454713393,-0.0025572768767335775,-0.002719385848307487,-1.1251877902223888
17793,1.0,299.80933999999996,78695.85,0.0,-0.17793029154666384,0.0,0.0,0.0,0.0,-5.399253828139865,-11.659929929495489,-6.862390012290164,0.00894603447817986,0.003856285897760786,-1.161810093886729
17794,1.0,300.44056,78914.854,0.0,-0.1779402875340832,0.0,0.0,0.0,0.0,-5.434536108546954,-11.675216833754188,-6.878392169794453,-0.016012905048100684,-0.009267850815940662,-1.1543425419747386
17795,1.0,300.31538,78790.186,0.0,-0.17795028352150244,0.0,0.0,0.0,0.0,-5.403624381121205,-11.678593996337488,-6.868030471621834,0.004829710101255276,-0.002900976478229088,-1.1951884773559187
17796,1.0,300.323,78466.555,0.0,-0.17796027950892168,0.0,0.0,0.0,0.0,-5.350931018945775,-11.66824465981609,-6.8326980353347935,0.004406234178311456,-0.01060452659883529,-1.166109618036059
17797,1.0,299.89095,78612.451,0.0,-0.17797027549634115,0.0,0.0,0.0,0.0,-5.370938047470315,-11.65987521399009,-6.865408585663074,0.007699760565232202,0.008594331720769502,-1.1698705997572387
17798,1.0,300.55171,78844.59700000001,0.0,-0.1779802714837604,0.0,0.0,0.0,0.0,-5.401252970587166,-11.675436709025888,-6.890099058799833,0.01046041710336279,-0.015802143961050185,-1.1543197438474888
17799,1.0,300.15431,78556.812,0.0,-0.17799026747117974,0.0,0.0,0.0,0.0,-5.383739145258685,-11.66147817564829,-6.834091862172352,0.013223201568028387,-0.005067897031412495,-1.1743811839023988
17800,1.0,299.76318,78534.192,0.0,-0.17800026345859898,0.0,0.0,0.0,0.0,-5.384819371190295,-11.66080841733219,-6.826805682028264,0.0015167908166955986,0.017158321464644483,-1.159821286590449
17801,1.0,299.58565,78814.315,0.0,-0.1780102924360757,0.0,0.0,0.0,0.0,-5.4127745361492545,-11.66332634383069,-6.881483291874523,0.0036507336254993565,0.016412159024753986,-1.1703495630795089
17802,1.0,299.34292,78797.168,0.0,-0.17802028842349527,0.0,0.0,0.0,0.0,-5.415871535079904,-11.662365782735888,-6.874134188899223,-0.007141556424191743,0.004321517046725526,-1.169578479753409
17803,1.0,299.36575,78761.629,0.0,-0.1780302844109144,0.0,0.0,0.0,0.0,-5.403131232297535,-11.664932345239189,-6.873505264562153,-0.02731183625846837,0.0003131185989023997,-1.164426102994909
17804,1.0,300.20261,78840.935,0.0,-0.17804028039833375,0.0,0.0,0.0,0.0,-5.414044847799625,-11.66409641390669,-6.887534421471723,0.01065288193335759,-0.004348705485333816,-1.151866462705369
17805,1.0,300.4677,78725.436,0.0,-0.1780502763857531,0.0,0.0,0.0,0.0,-5.420040755266375,-11.65653250191019,-6.8539934113614835,-0.002915154278928327,-0.0034459623664150063,-1.165299727231129
17806,1.0,300.44244,78768.41,0.0,-0.17806027237317235,0.0,0.0,0.0,0.0,-5.408568636309165,-11.680309428756788,-6.8547512211112736,0.016587149343524184,-0.003464989379442827,-1.191403076307329
17807,1.0,300.25365,79014.959,0.0,-0.1780702683605917,0.0,0.0,0.0,0.0,-5.435746030491365,-11.687046528671688,-6.895781770660673,0.0091723473330652,-0.002140258295352048,-1.1883419464302187
17808,1.0,299.9183,78959.893,0.0,-0.17808026434801094,0.0,0.0,0.0,0.0,-5.435966716363145,-11.680259779501888,-6.885608840981685,0.008707412458429702,0.013204074445890687,-1.164134590941139
17809,1.0,300.30599,78759.83099999999,0.0,-0.17809026033543018,0.0,0.0,0.0,0.0,-5.400814131968855,-11.680020652478289,-6.860187307897773,-0.01141096931367499,0.003298961257807127,-1.1675146919497288
17810,1.0,299.73194,78844.011,0.0,-0.1781002893129071,0.0,0.0,0.0,0.0,-5.413061285927554,-11.684380667658589,-6.869168959434194,-0.0055247971367300246,0.0027836367464235574,-1.160626516444919
17811,1.0,300.30957,78901.19099999999,0.0,-0.17811028530032635,0.0,0.0,0.0,0.0,-5.423655322348104,-11.69191215565189,-6.868424524585724,-0.012279868764678688,0.009038908273070792,-1.1719977156921688
17812,1.0,299.72233,78683.808,0.0,-0.1781202812877456,0.0,0.0,0.0,0.0,-5.384659682974536,-11.700231952222989,-6.833021768741744,-0.002860606263769857,0.005449612256784854,-1.2077001909157288
17813,1.0,300.17379,78691.571,0.0,-0.17813027727516506,0.0,0.0,0.0,0.0,-5.384138163148065,-11.682152530688688,-6.853981556335314,0.005931237184417535,-0.01135561850046229,-1.1963695216724788
17814,1.0,299.96942,78714.577,0.0,-0.1781402732625842,0.0,0.0,0.0,0.0,-5.4133150037525954,-11.67418534515239,-6.839766164057364,0.005290960697202165,0.003335689547431927,-1.187134253636029
17815,1.0,299.70241,78641.203,0.0,-0.17815026925000366,0.0,0.0,0.0,0.0,-5.363093870496154,-11.67622299110349,-6.865645584861463,0.02869803737577577,0.007771094993472363,-1.167937115916419
17816,1.0,299.53681,78799.859,0.0,-0.1781602652374229,0.0,0.0,0.0,0.0,-5.391619900561454,-11.687840916750089,-6.873728990184233,0.019303684007375282,0.0026185124438770574,-1.176805182116629
17817,1.0,300.28582,79149.692,0.0,-0.17817026122484214,0.0,0.0,0.0,0.0,-5.427637597891125,-11.70984060292129,-6.922052204678363,0.002677704082918817,-0.004578039041417276,-1.1581977559552188
17818,1.0,299.95596,79010.614,0.0,-0.17818029020231907,0.0,0.0,0.0,0.0,-5.421206702156445,-11.69950545190129,-6.896541708235674,-0.02320219821762868,-0.00037137507902936667,-1.1828344255116687
17819,1.0,300.2433,78940.151,0.0,-0.1781902861897383,0.0,0.0,0.0,0.0,-5.410097428060045,-11.706760322617288,-6.878976409802114,-0.015769702732598485,-0.00897047113216657,-1.1451795186704188
17820,1.0,300.03519,79084.07,0.0,-0.17820028217715755,0.0,0.0,0.0,0.0,-5.461899940747554,-11.687986824764488,-6.889695379959994,-0.03672562072403657,0.008700422248639822,-1.145640344815899
17821,1.0,299.86815,79025.573,0.0,-0.1782102781645769,0.0,0.0,0.0,0.0,-5.416197092337035,-11.68636663785459,-6.9192371932505425,-0.016467662838731783,-0.0004393132854518455,-1.129249504573249
17822,1.0,300.60044,78850.455,0.0,-0.17822027415199626,0.0,0.0,0.0,0.0,-5.415036313022475,-11.689528991416688,-6.864004423674493,-0.002867925678517227,0.003737452027357796,-1.1577260880336688
17823,1.0,300.37442999999996,78865.175,0.0,-0.17823027013941561,0.0,0.0,0.0,0.0,-5.406843172713875,-11.675268509509289,-6.890931849057023,0.016174655227814184,0.000978581565443481,-1.155650343878809
17824,1.0,300.56531,78936.871,0.0,-0.17824026612683486,0.0,0.0,0.0,0.0,-5.420348783296775,-11.690779342040088,-6.883709098369193,0.03075815822734387,-0.01004485202924971,-1.171011924669879
17825,1.0,300.10301,78969.512,0.0,-0.1782502621142541,0.0,0.0,0.0,0.0,-5.423017278760135,-11.70099391629819,-6.880748584227014,0.03583198277184137,-0.025275847984531977,-1.159450741028879
17826,1.0,300.16996,79145.228,0.0,-0.17826029109173103,0.0,0.0,0.0,0.0,-5.433923193561466,-11.71506998668739,-6.909180483358023,0.01098325922121329,-0.005726230040709905,-1.1442259490013091
17827,1.0,299.42483,79079.296,0.0,-0.17827028707915027,0.0,0.0,0.0,0.0,-5.4165401788208944,-11.720582067231389,-6.901009431901603,0.013270663215962488,-0.01933504105821998,-1.1584767037077488
17828,1.0,299.80905,78905.076,0.0,-0.1782802830665695,0.0,0.0,0.0,0.0,-5.400821832669615,-11.724497265617789,-6.859853543314833,-0.011710462738482688,0.015722936174232986,-1.158948472954309
17829,1.0,299.76502,79014.644,0.0,-0.17829027905398886,0.0,0.0,0.0,0.0,-5.417546538820215,-11.72318409348819,-6.877747844055864,-0.018763433239556683,0.006033327806193094,-1.1948725459747387
17830,1.0,299.87735,79076.99799999999,0.0,-0.17830027504140822,0.0,0.0,0.0,0.0,-5.429757722400365,-11.727801474193889,-6.879873136140614,-0.02060456743976248,0.004747306016997625,-1.184070185333629
17831,1.0,299.60894,78696.054,0.0,-0.17831027102882757,0.0,0.0,0.0,0.0,-5.3958438362533245,-11.683339046555789,-6.842452188747453,-0.03139415707661207,0.005347044090237165,-1.211449925560799
17832,1.0,300.60171,78730.686,0.0,-0.17832026701624681,0.0,0.0,0.0,0.0,-5.373530245201144,-11.692024626412989,-6.866607767156423,-0.01873813846406028,0.01937654276906588,-1.185768899126279
17833,1.0,299.8506,78972.225,0.0,-0.17833026300366606,0.0,0.0,0.0,0.0,-5.410913297040565,-11.691319404343389,-6.903351660832763,-0.006894645410673523,-0.006174268868602895,-1.1844247215436188
17834,1.0,300.2984,79002.052,0.0,-0.17834029198114298,0.0,0.0,0.0,0.0,-5.425197894300346,-11.70255533470229,-6.886897492458863,-0.008895290001246772,0.01003672393959753,-1.170005969970599
17835,1.0,300.21981,79041.515,0.0,-0.17835028796856223,0.0,0.0,0.0,0.0,-5.426608338439545,-11.719153384590388,-6.880884967690473,0.007134663486411463,-0.007087146312371883,-1.192908461980899
17836,1.0,299.43644,79286.01299999999,0.0,-0.17836028395598147,0.0,0.0,0.0,0.0,-5.4701172977335455,-11.725496330216389,-6.905354349655414,0.02379025311191518,0.008497469064209902,-1.165266087327809
17837,1.0,299.74165,79384.683,0.0,-0.17837027994340082,0.0,0.0,0.0,0.0,-5.496262595363885,-11.726094147775388,-6.908604552001184,0.015916105213047285,-0.015428892008463086,-1.1705001320443689
17838,1.0,300.36925,79310.68,0.0,-0.17838027593082006,0.0,0.0,0.0,0.0,-5.444913309446105,-11.741349641280989,-6.922203381593283,0.003134472161748317,-0.007824542315047202,-1.147731996997329
17839,1.0,300.09812,79217.084,0.0,-0.17839027191823953,0.0,0.0,0.0,0.0,-5.455312396547415,-11.71427154560859,-6.910431441931484,0.0055627743584280845,-0.004629567672602756,-1.152974451689719
17840,1.0,300.03801,79123.401,0.0,-0.17840026790565877,0.0,0.0,0.0,0.0,-5.452677034362325,-11.70805120324469,-6.890809955069994,-0.003187058626038197,0.017484995323384683,-1.1588650824710789
17841,1.0,299.97587000000004,78976.102,0.0,-0.178410263893078,0.0,0.0,0.0,0.0,-5.428617106762795,-11.700401164989689,-6.877744399005524,-0.014712297219740687,-0.00033009566512290573,-1.171010100819699
17842,1.0,299.79902000000004,79007.988,0.0,-0.17842029287055494,0.0,0.0,0.0,0.0,-5.434630847431304,-11.69314730752379,-6.888676759634463,-0.011721846603356189,0.01097871276801459,-1.175704285882979
17843,1.0,300.08997,79157.818,0.0,-0.17843028885797418,0.0,0.0,0.0,0.0,-5.442527713410665,-11.71968635414299,-6.899786439030904,-0.0026198340259824876,-0.0026614730322169376,-1.173248167640579
17844,1.0,299.44903,79011.41900000001,0.0,-0.17844028484539343,0.0,0.0,0.0,0.0,-5.388119324115975,-11.724431404361289,-6.904947833715293,0.0016694718000640387,0.018204056362850485,-1.1944340113314589
17845,1.0,299.24973,79016.151,0.0,-0.1784502808328129,0.0,0.0,0.0,0.0,-5.385477679780265,-11.75173241505569,-6.881726573223534,0.009326355978039672,0.0008015382905131703,-1.1582648331118388
17846,1.0,299.77231,79184.942,0.0,-0.17846027682023202,0.0,0.0,0.0,0.0,-5.442831283140625,-11.73210170761829,-6.895312331889343,0.01009160784716415,0.018070994333218283,-1.1786890167025488
17847,1.0,299.99455,79185.732,0.0,-0.1784702728076515,0.0,0.0,0.0,0.0,-5.416470669864035,-11.75318541569909,-6.9008288707337835,0.013936911633716088,0.006652155207341604,-1.1731382300047288
17848,1.0,299.63998,79061.64,0.0,-0.17848026879507073,0.0,0.0,0.0,0.0,-5.424595821090925,-11.73793093544359,-6.870237938289693,0.01753887489745218,-0.0034345584391895266,-1.1975774171166889
17849,1.0,300.32371,79169.207,0.0,-0.17849026478248997,0.0,0.0,0.0,0.0,-5.422981308381585,-11.724674584385289,-6.917805977484293,0.002787958967375127,-0.022224943827431183,-1.147554171604779
17850,1.0,300.70001,79141.641,0.0,-0.17850026076990932,0.0,0.0,0.0,0.0,-5.420585073220095,-11.734689548373689,-6.901808075630424,0.014596956934357487,-0.020683941399596083,-1.173199328985759
17851,1.0,300.65751,79011.329,0.0,-0.17851028974738614,0.0,0.0,0.0,0.0,-5.405598496291035,-11.720106852934489,-6.891765855214334,0.02043887875691028,-0.01032544712379229,-1.141307991363329
17852,1.0,300.05239,79211.994,0.0,-0.17852028573480538,0.0,0.0,0.0,0.0,-5.452928827012175,-11.71704683763249,-6.908492993165173,0.01037458671389199,0.01187418267639059,-1.1718793680804889
17853,1.0,299.75031,79424.304,0.0,-0.17853028172222474,0.0,0.0,0.0,0.0,-5.458155373677995,-11.748292430966188,-6.936557183834894,-0.0028363885731297576,0.003756258050538807,-1.1474003602395988
17854,1.0,299.91916000000003,79367.383,0.0,-0.17854027770964398,0.0,0.0,0.0,0.0,-5.483441435223535,-11.735474817201188,-6.906786781321784,-0.01260476132974309,0.017347149740030383,-1.1614373191749388
17855,1.0,300.23051,79450.95,0.0,-0.17855027369706333,0.0,0.0,0.0,0.0,-5.478132612649595,-11.74747777788579,-6.9254945192430934,-0.00903328412706573,0.01010152422191782,-1.164255876978109
17856,1.0,300.04405,79401.607,0.0,-0.1785602696844827,0.0,0.0,0.0,0.0,-5.488705674793074,-11.72959290037069,-6.917806686759364,-0.004366312124371456,-0.01787989435110818,-1.1630576074098489
17857,1.0,300.07887999999997,79168.165,0.0,-0.17857026567190193,0.0,0.0,0.0,0.0,-5.453601118453524,-11.731866633595088,-6.879677680196323,-0.01763794035972918,-0.015557213040877383,-1.1499637816675887
17858,1.0,299.71873,79186.429,0.0,-0.1785802616593214,0.0,0.0,0.0,0.0,-5.449618133635435,-11.722027975124089,-6.899050920783313,-0.007278685234425303,-0.016060555160553384,-1.171074948826099
17859,1.0,299.15134,79359.201,0.0,-0.178590290636798,0.0,0.0,0.0,0.0,-5.4590552410918045,-11.731448161303788,-6.932712608980464,0.0004616868406449436,0.005828972080974755,-1.1811661092220187
17860,1.0,299.74258,79161.93400000001,0.0,-0.17860028662421734,0.0,0.0,0.0,0.0,-5.429665212666235,-11.740254317922888,-6.893331630593864,0.004479285660171076,0.020738118869192978,-1.1825273094063589
17861,1.0,299.74798,79160.484,0.0,-0.1786102826116367,0.0,0.0,0.0,0.0,-5.416248869417145,-11.75216912584879,-6.894392706098583,0.002163793764699818,0.010715959791832888,-1.1870365763263888
17862,1.0,299.88903,79346.165,0.0,-0.17862027859905605,0.0,0.0,0.0,0.0,-5.436089015650215,-11.768245351935388,-6.9149184173493135,0.004736221162228636,0.006406968846818593,-1.1870520790529189
17863,1.0,299.60717999999997,79221.329,0.0,-0.1786302745864754,0.0,0.0,0.0,0.0,-5.432668789937665,-11.762268189595488,-6.8863689812067035,0.0015469221388943284,0.011231677748230291,-1.1820002167043389
17864,1.0,299.69856,79193.457,0.0,-0.17864027057389464,0.0,0.0,0.0,0.0,-5.402848535519635,-11.768934362003389,-6.901050367205643,0.014108868281686886,0.005299507765770695,-1.1886431856849489
17865,1.0,299.67803,79286.348,0.0,-0.1786502665613139,0.0,0.0,0.0,0.0,-5.432728470368555,-11.76072298319299,-6.907618558328872,-0.001060979955235569,-0.0038455376446750165,-1.1978376197423688
17866,1.0,300.54328,79263.77900000001,0.0,-0.17866026254873324,0.0,0.0,0.0,0.0,-5.442076513141135,-11.755163279894289,-6.896969806402924,-0.006450510230115795,0.0030554398698484373,-1.1857898734033487
17867,1.0,300.39117999999996,79215.504,0.0,-0.17867029152621006,0.0,0.0,0.0,0.0,-5.435214175513875,-11.757810902405588,-6.886510228270644,-0.015376428958035385,-0.002145080859202998,-1.2082703467469988
17868,1.0,300.4693,79348.774,0.0,-0.1786802875136293,0.0,0.0,0.0,0.0,-5.468306721129855,-11.746124075752189,-6.905614552281094,-0.0025583229561368178,-0.015175370753942485,-1.1579275221535488
17869,1.0,300.31359,79322.645,0.0,-0.17869028350104865,0.0,0.0,0.0,0.0,-5.468180875467436,-11.745732961213589,-6.898189455548294,-0.01066910406745859,-0.016358431438201485,-1.171039789047629
17870,1.0,300.73172999999997,79376.543,0.0,-0.1787002794884679,0.0,0.0,0.0,0.0,-5.431422897614705,-11.765351509649788,-6.931712024506714,0.008573401824053882,-0.012294514281624088,-1.142451444101179
17871,1.0,300.2558,79620.115,0.0,-0.17871027547588736,0.0,0.0,0.0,0.0,-5.481857522667215,-11.762023996321389,-6.958645732039864,0.0007503674480705013,0.0026225361613491675,-1.1692150269425388
17872,1.0,299.51112,79765.118,0.0,-0.1787202714633065,0.0,0.0,0.0,0.0,-5.504800544681515,-11.770040831112588,-6.971763267834463,0.012137987406176089,0.013364858998258887,-1.128877743111559
17873,1.0,299.7813,79479.078,0.0,-0.17873026745072584,0.0,0.0,0.0,0.0,-5.4658403690614445,-11.754842079612589,-6.938972366773253,0.003607751353607337,0.01062279043188779,-1.1614267813738988
17874,1.0,300.60266,79345.79400000001,0.0,-0.1787402634381452,0.0,0.0,0.0,0.0,-5.459470268332765,-11.75156218903889,-6.908107451502124,0.024060859789621976,0.028339436006384576,-1.156300951768019
17875,1.0,300.39307,79506.851,0.0,-0.17875029241562201,0.0,0.0,0.0,0.0,-5.466515396278065,-11.76074324819499,-6.940838874782464,-0.00949759919661506,0.033070741487078066,-1.171902470182769
17876,1.0,299.99926,79434.634,0.0,-0.17876028840304126,0.0,0.0,0.0,0.0,-5.454964345138065,-11.75268487014969,-6.938495733926214,0.0045679948958259955,-0.015217111591811985,-1.1809449167251886
17877,1.0,299.14378999999997,79145.68400000001,0.0,-0.1787702843904606,0.0,0.0,0.0,0.0,-5.406164700446915,-11.754230076552188,-6.897917093921414,-0.031840011438614466,-0.026206635738393574,-1.184919998192499
17878,1.0,299.1503,79246.258,0.0,-0.17878028037787985,0.0,0.0,0.0,0.0,-5.458253962912725,-11.74448565034049,-6.8861437357094735,-0.0002048139169135598,-0.007152827210354083,-1.180091557490969
17879,1.0,299.20861,79457.673,0.0,-0.17879027636529932,0.0,0.0,0.0,0.0,-5.456226246812605,-11.778968577743688,-6.917953506698853,-0.008176709951603443,-0.014728689579858486,-1.1721532495825189
17880,1.0,299.93251000000004,79410.914,0.0,-0.17880027235271856,0.0,0.0,0.0,0.0,-5.457696168732674,-11.784923448581388,-6.8963152468383235,-0.007915751846648882,-0.010192187510390591,-1.178490723657979
17881,1.0,300.85765,79450.318,0.0,-0.1788102683401378,0.0,0.0,0.0,0.0,-5.424547286411135,-11.786224461709788,-6.940140644138554,-0.005166351301229175,0.0035786855652137667,-1.165966141821899
17882,1.0,300.59882000000005,79519.666,0.0,-0.17882026432755715,0.0,0.0,0.0,0.0,-5.4394246349794155,-11.79330505340859,-6.939262561601893,0.02690588672515427,0.005183011969973455,-1.1844769039237688
17883,1.0,300.32831,79531.315,0.0,-0.17883029330503397,0.0,0.0,0.0,0.0,-5.448016387877354,-11.79112048619299,-6.936397394294123,-0.01046930026698949,0.008495811893671351,-1.169254239721409
17884,1.0,299.89931,79545.337,0.0,-0.1788402892924531,0.0,0.0,0.0,0.0,-5.477293033616736,-11.79186623826659,-6.910636827726752,-0.004685194393817685,-0.012897747662408589,-1.1827573171790589
17885,1.0,300.18498,79465.406,0.0,-0.17885028527987257,0.0,0.0,0.0,0.0,-5.449778531126265,-11.779125631509189,-6.926595212826723,-0.017114347423554586,0.013797630274970087,-1.171343865402639
17886,1.0,300.21844,79296.079,0.0,-0.1788602812672918,0.0,0.0,0.0,0.0,-5.449641539712745,-11.759708719842887,-6.894677530701693,-0.013120854188677488,0.034165796333901564,-1.1832988993575089
17887,1.0,299.94023,79506.4,0.0,-0.17887027725471116,0.0,0.0,0.0,0.0,-5.446723886049795,-11.780837010928089,-6.940399124239064,-0.0063356084793758745,0.013252453085165287,-1.166284606328329
17888,1.0,299.33948,79738.452,0.0,-0.17888027324213052,0.0,0.0,0.0,0.0,-5.514002882089715,-11.779358679032189,-6.945137183031674,-0.009330377669011581,-0.012819795292465288,-1.169713140691699
17889,1.0,299.77853999999996,79672.804,0.0,-0.17889026922954965,0.0,0.0,0.0,0.0,-5.499323015965925,-11.783870681727489,-6.935349389715694,0.010477781170326491,-0.013093340395462089,-1.1590238587617487
17890,1.0,299.6458,79464.365,0.0,-0.1789002652169691,0.0,0.0,0.0,0.0,-5.484718332999555,-11.767574580369189,-6.902889517462153,0.036008313620493865,-0.00912013232626198,-1.170288464098479
17891,1.0,299.82554,79561.866,0.0,-0.17891026120438835,0.0,0.0,0.0,0.0,-5.471262574321575,-11.76950988806019,-6.944048040499184,0.022346545998432377,-0.001931218213596398,-1.1398843749728291
17892,1.0,299.97897,79670.683,0.0,-0.17892029018186517,0.0,0.0,0.0,0.0,-5.472336720752585,-11.80619460793069,-6.9393673316622335,0.0008584365392785903,-0.008149792253421871,-1.1726378871053489
17893,1.0,299.9263,79634.758,0.0,-0.17893028616928452,0.0,0.0,0.0,0.0,-5.452580876927835,-11.793120641890388,-6.961276534599503,-0.004327796866870296,0.00951995605344651,-1.169802104050479
17894,1.0,300.19392,79643.957,0.0,-0.17894028215670377,0.0,0.0,0.0,0.0,-5.474310126647345,-11.796773408500888,-6.938691088545494,-0.00940198395225357,0.006755534379269333,-1.172506265917359
17895,1.0,300.29355,79493.033,0.0,-0.17895027814412312,0.0,0.0,0.0,0.0,-5.4671405715897645,-11.782520019344188,-6.914236500032014,-0.0046751844960797855,-0.004096959546313426,-1.1669929694732388
17896,1.0,300.18543999999997,79439.424,0.0,-0.17896027413154247,0.0,0.0,0.0,0.0,-5.4429456790769155,-11.795470368872289,-6.909184840333452,-0.008213468334756212,-0.015579562298333087,-1.1804718302534989
17897,1.0,300.29292000000004,79720.683,0.0,-0.1789702701189616,0.0,0.0,0.0,0.0,-5.469414710114204,-11.813273173129287,-6.950408515351913,0.007197045039418044,0.006849546357997594,-1.1873284936801989
17898,1.0,300.21578999999997,79774.577,0.0,-0.17898026610638107,0.0,0.0,0.0,0.0,-5.479487834658345,-11.812144412517888,-6.957847392286073,0.005116537494512935,0.023001955679866275,-1.167248511148459
17899,1.0,299.3999,79465.399,0.0,-0.1789902620938003,0.0,0.0,0.0,0.0,-5.447319879758615,-11.790219706854089,-6.917957255724223,0.009495291215537282,0.005558011272358005,-1.195839389220159
17900,1.0,299.62832000000003,79468.17,0.0,-0.17900029107127713,0.0,0.0,0.0,0.0,-5.479281232962954,-11.784585023047988,-6.892472901134113,0.0023681192950651777,-0.0014611658180058386,-1.174123919702009
17901,1.0,299.96085,79729.444,0.0,-0.17901028705869648,0.0,0.0,0.0,0.0,-5.509478011118145,-11.79837333040879,-6.927908992906384,-0.007576966001513322,0.002310668622345238,-1.198969622754089
17902,1.0,300.97077,79772.975,0.0,-0.17902028304611572,0.0,0.0,0.0,0.0,-5.496518846314174,-11.807711443330389,-6.944761976519643,-0.001009975346604306,-0.003071274233136167,-1.1560258543658688
17903,1.0,300.91547,79671.885,0.0,-0.1790302790335352,0.0,0.0,0.0,0.0,-5.447316840008315,-11.805583618120387,-6.9653626682777725,-0.01092301137026729,-0.018093064946896484,-1.169959360465999
17904,1.0,300.49387,79647.031,0.0,-0.17904027502095432,0.0,0.0,0.0,0.0,-5.458619543548804,-11.78645953573299,-6.965629558354113,0.004403549876146536,0.002912327615124357,-1.123572162937939
17905,1.0,300.01387,79835.915,0.0,-0.17905027100837367,0.0,0.0,0.0,0.0,-5.476866556649645,-11.811083539663189,-6.980174864864623,-0.01003134287229146,0.008593101432498083,-1.167084263307249
17906,1.0,299.99539,80014.689,0.0,-0.17906026699579303,0.0,0.0,0.0,0.0,-5.551783533268375,-11.816846906231989,-6.953836847065263,-0.007364021360497323,0.02336445198264188,-1.134484765189929
17907,1.0,300.04769,79912.46,0.0,-0.17907026298321227,0.0,0.0,0.0,0.0,-5.523573029284215,-11.80592001715359,-6.961899480760984,-0.019083625337407182,-0.0016112833799462884,-1.162597693189459
17908,1.0,300.30461,79595.74900000001,0.0,-0.17908029196068898,0.0,0.0,0.0,0.0,-5.474268482068235,-11.80503038356579,-6.915821020538393,0.0026393924886877573,-0.011264243606444289,-1.158759096510619
17909,1.0,299.72699,79453.856,0.0,-0.17909028794810844,0.0,0.0,0.0,0.0,-5.418547427268995,-11.801376603705188,-6.932063622291414,-0.002287941726577268,-0.008852034759777812,-1.181409795871069
17910,1.0,299.48751,79828.946,0.0,-0.17910028393552768,0.0,0.0,0.0,0.0,-5.485333578460275,-11.827764676059488,-6.952908102023603,0.014651645082004786,-0.011696804127134688,-1.176217598383639
17911,1.0,299.62484,79910.31,0.0,-0.17911027992294715,0.0,0.0,0.0,0.0,-5.495066048320795,-11.827493125032689,-6.968179199580743,0.009461841093961011,-0.011843943240406189,-1.1941420939776488
17912,1.0,299.32672,79534.433,0.0,-0.17912027591036628,0.0,0.0,0.0,0.0,-5.475356307375595,-11.812231552026487,-6.888893595155864,0.0020297547593211983,0.012266042967064187,-1.189397854359429
17913,1.0,300.11008,79439.072,0.0,-0.17913027189778563,0.0,0.0,0.0,0.0,-5.4400836528444545,-11.806483384209189,-6.900926953343465,0.006027871555729604,0.013400577077533986,-1.1900515019989386
17914,1.0,300.44469,79756.594,0.0,-0.17914026788520498,0.0,0.0,0.0,0.0,-5.482927514772815,-11.816129525161188,-6.944956115238803,-0.01981591638342868,0.0022940951944345677,-1.180228751554509
17915,1.0,300.28465,79838.118,0.0,-0.17915026387262412,0.0,0.0,0.0,0.0,-5.446771914104535,-11.836692422690588,-6.985330382698433,-0.02005642142716468,-0.01044603908444379,-1.177262157911729
17916,1.0,300.3893,79739.822,0.0,-0.17916029285010093,0.0,0.0,0.0,0.0,-5.458570603568975,-11.824510116738288,-6.955834266987394,-0.00982819149614198,0.003932073256215416,-1.186107628634709
17917,1.0,300.48122,79686.595,0.0,-0.1791702888375204,0.0,0.0,0.0,0.0,-5.449559263804624,-11.821086344650388,-6.952089091967773,-0.0049911275296359355,-0.0015548208287238686,-1.183293427806969
17918,1.0,299.64898,79747.696,0.0,-0.17918028482493964,0.0,0.0,0.0,0.0,-5.512465781688015,-11.81969920526349,-6.909143499729373,5.704995257039194e-05,-0.00032616992893546567,-1.185239779924059
17919,1.0,300.47619,80042.63799999999,0.0,-0.179190280812359,0.0,0.0,0.0,0.0,-5.524387783689624,-11.836532329174789,-6.970043275789714,0.00979536351012711,-0.01101350271019809,-1.1734302486835488
17920,1.0,300.83504,80024.73700000001,0.0,-0.17920027679977824,0.0,0.0,0.0,0.0,-5.5394488345010355,-11.824383460475788,-6.961689231365233,0.006099035757952964,0.014088134144890588,-1.1697412077194689
17921,1.0,300.61837,79770.715,0.0,-0.17921027278719748,0.0,0.0,0.0,0.0,-5.472554366874065,-11.81839413913469,-6.957357181887693,0.01028859623090539,-0.01063904600324209,-1.136673892030979
17922,1.0,300.40745,79846.244,0.0,-0.17922026877461694,0.0,0.0,0.0,0.0,-5.501849960390315,-11.807035605513688,-6.962378748058283,-0.0026311768542269377,-0.011535211001186688,-1.1485131114994187
17923,1.0,300.15157,80201.394,0.0,-0.17923026476203618,0.0,0.0,0.0,0.0,-5.541281905256945,-11.83214292974159,-7.005795805568213,0.006713102099531593,-0.015024109739264185,-1.146991615149259
17924,1.0,299.28767,80054.746,0.0,-0.1792402937395129,0.0,0.0,0.0,0.0,-5.551903806055245,-11.829633109243888,-6.953107306993264,-0.006398550258362744,0.01136516736940469,-1.179181760226179
17925,1.0,299.63842999999997,79806.46,0.0,-0.17925028972693224,0.0,0.0,0.0,0.0,-5.494864512875904,-11.835760232598588,-6.928545820594233,0.0004332873655171336,0.011904729127155289,-1.1670531565291788
17926,1.0,299.73445,79686.463,0.0,-0.1792602857143516,0.0,0.0,0.0,0.0,-5.476456899634215,-11.81257301731019,-6.9336653680494935,-0.02095367566896678,0.014067512478855385,-1.1912452119417487
17927,1.0,299.61,79734.495,0.0,-0.17927028170177095,0.0,0.0,0.0,0.0,-5.449330877232085,-11.82949834698059,-6.958466082797134,0.00983279114497093,0.01139381802923229,-1.1812745269827187
17928,1.0,299.66325,79841.546,0.0,-0.1792802776891903,0.0,0.0,0.0,0.0,-5.448133722238935,-11.842757737789189,-6.978944981893243,-0.01896405473285648,0.004558717273935365,-1.193349529749429
17929,1.0,299.97007,79800.665,0.0,-0.17929027367660944,0.0,0.0,0.0,0.0,-5.463242598455065,-11.84959109646359,-6.944575639826252,-0.0008220887250663402,-0.02135679519475158,-1.1868639185093488
17930,1.0,299.96625,79674.845,0.0,-0.1793002696640288,0.0,0.0,0.0,0.0,-5.465557672283545,-11.847577768514888,-6.906028464946944,-0.017160657006124985,-0.018322972407836584,-1.1914612368630688
17931,1.0,300.66945,79814.966,0.0,-0.17931026565144814,0.0,0.0,0.0,0.0,-5.476689541857175,-11.86145625513459,-6.923610988632203,0.016356287400989884,-0.0005553899199477175,-1.191314416923579
17932,1.0,300.56588999999997,80065.398,0.0,-0.1793202616388675,0.0,0.0,0.0,0.0,-5.492254076643275,-11.87556880252739,-6.9700593864663025,-0.004453690253370006,0.024936498367040774,-1.1799727032542389
17933,1.0,300.23609,80056.38900000001,0.0,-0.1793302906163443,0.0,0.0,0.0,0.0,-5.480299245338425,-11.85984417422549,-6.994999423102694,0.018896395970679086,0.008209826004621742,-1.171942290911699
17934,1.0,300.29294,79946.776,0.0,-0.17934028660376355,0.0,0.0,0.0,0.0,-5.470727882243804,-11.857592732503289,-6.973502612956123,-0.0008391288053105652,0.007189042491453254,-1.164994232325979
17935,1.0,300.02986,79881.9,0.0,-0.1793502825911829,0.0,0.0,0.0,0.0,-5.498948012103915,-11.820172393060188,-6.962982746442893,0.008948090565282783,-0.012687771844185588,-1.1646350351655288
17936,1.0,300.10202999999996,80058.308,0.0,-0.17936027857860215,0.0,0.0,0.0,0.0,-5.564269814250674,-11.81350824715249,-6.9579489199460935,0.007702862225113313,0.008262240317719632,-1.146962433546379
17937,1.0,299.79823,80083.61200000001,0.0,-0.1793702745660214,0.0,0.0,0.0,0.0,-5.5423812816154445,-11.830905751369489,-6.970131833848453,0.0036034622659340365,-0.01105753855954409,-1.177472407307479
17938,1.0,299.65515,79979.461,0.0,-0.17938027055344075,0.0,0.0,0.0,0.0,-5.535215982208285,-11.805934202654988,-6.970608466695493,-0.01018575539875579,0.015837044347494587,-1.1472999471546887
17939,1.0,299.60925,80038.789,0.0,-0.1793902665408601,0.0,0.0,0.0,0.0,-5.499144683948325,-11.836772469448489,-6.993876134041834,-0.005760396530106874,0.0032490560559318665,-1.1692384330198489
17940,1.0,299.8396,80204.265,0.0,-0.17940026252827945,0.0,0.0,0.0,0.0,-5.532847307449515,-11.84786249179299,-6.999384262910443,0.01082142392849139,0.013375476846056788,-1.124990814402949
17941,1.0,299.72586,80212.659,0.0,-0.17941029150575627,0.0,0.0,0.0,0.0,-5.544863237735395,-11.854309802179287,-6.983472385990063,-0.004499994465714876,-0.029446833252676177,-1.1778128593410788
17942,1.0,300.33587,80201.025,0.0,-0.1794202874931754,0.0,0.0,0.0,0.0,-5.541432778196834,-11.87253513172799,-6.965140766505874,0.006498069960659573,-0.012454048483368887,-1.162681488972729
17943,1.0,300.24073,79998.50099999999,0.0,-0.17943028348059487,0.0,0.0,0.0,0.0,-5.487025300827235,-11.86032749452319,-6.970193946079584,-0.001886920439099548,-0.01097351580825169,-1.1946041360232489
17944,1.0,300.44917000000004,80030.148,0.0,-0.1794402794680141,0.0,0.0,0.0,0.0,-5.484624810015324,-11.87448361167029,-6.968058521493834,0.0026721615035468077,0.004904374474624076,-1.156736547986009
17945,1.0,300.22611,80084.496,0.0,-0.17945027545543335,0.0,0.0,0.0,0.0,-5.475569900496675,-11.869283612157089,-6.998832953531034,0.002161993928547188,-0.020206934663269182,-1.177360949796479
17946,1.0,300.17435,79954.836,0.0,-0.17946027144285281,0.0,0.0,0.0,0.0,-5.471663010761095,-11.864044095889989,-6.968566970394013,0.005545131749011895,0.005813909611613204,-1.1732713710678688
17947,1.0,300.19572,79749.23599999999,0.0,-0.17947026743027195,0.0,0.0,0.0,0.0,-5.465918895944195,-11.86080878832069,-6.915048316012134,0.01688534378170368,-0.005624827314427235,-1.1865451500278887
17948,1.0,299.97357,79863.808,0.0,-0.1794802634176914,0.0,0.0,0.0,0.0,-5.471571615602075,-11.85726849247129,-6.947763020665823,0.013450206067431988,0.0014405292571941686,-1.195465499933259
17949,1.0,299.28569,80030.43,0.0,-0.17949029239516823,0.0,0.0,0.0,0.0,-5.476842846597305,-11.87914962838079,-6.971259479884744,0.004405541925843136,-0.004216486378459806,-1.1887026634658189
17950,1.0,299.16831,80087.207,0.0,-0.17950028838258736,0.0,0.0,0.0,0.0,-5.494410475506095,-11.881744561886888,-6.968356113048203,-0.010801599690284889,0.023394576921364978,-1.2001653591970987
17951,1.0,299.78878,80109.205,0.0,-0.17951028437000682,0.0,0.0,0.0,0.0,-5.493721060138054,-11.86853482033319,-6.988942416654913,-0.0007941194455334872,0.017616267953340287,-1.1695689552024688
17952,1.0,300.7166,80222.378,0.0,-0.17952028035742607,0.0,0.0,0.0,0.0,-5.533264969140735,-11.876307461850288,-6.976026922930253,-0.015389403625565885,0.008511012063721492,-1.179495158482109
17953,1.0,300.15297000000004,80316.356,0.0,-0.1795302763448453,0.0,0.0,0.0,0.0,-5.558337741540225,-11.872248381949689,-6.983580297125713,-0.010070583718189231,-0.012191010783909089,-1.172534738245169
17954,1.0,299.90917,80325.618,0.0,-0.17954027233226477,0.0,0.0,0.0,0.0,-5.544787547952924,-11.883288755039288,-6.9889058383263025,-0.001885394585773958,-0.003480816346004827,-1.1910541129728887
17955,1.0,299.94546,80200.125,0.0,-0.1795502683196839,0.0,0.0,0.0,0.0,-5.504685135495125,-11.876634741632587,-6.997515525751013,0.0007275917744427173,-0.01230313197372459,-1.149851716206529
17956,1.0,299.89551,80159.766,0.0,-0.17956026430710337,0.0,0.0,0.0,0.0,-5.528047339075795,-11.841702944435088,-6.996816889807063,-0.004115070277275816,-0.005149042861695965,-1.163550148283459
17957,1.0,299.59483,80230.62599999999,0.0,-0.17957029328458007,0.0,0.0,0.0,0.0,-5.5184503407536445,-11.870760930802888,-6.998896180337273,0.007943629194000164,-0.00835408090148359,-1.152580702700859
17958,1.0,300.47262,80066.739,0.0,-0.17958028927199943,0.0,0.0,0.0,0.0,-5.539894056594974,-11.84074947609099,-6.9576457555161735,-0.007968690820648553,0.015988378316180087,-1.1702187524915988
17959,1.0,300.97343,80014.69,0.0,-0.17959028525941878,0.0,0.0,0.0,0.0,-5.499075985591545,-11.866901461171988,-6.956490346427143,-0.0038146755665041665,-0.015596355905490484,-1.1868577376837388
17960,1.0,300.78004,80137.688,0.0,-0.17960028124683802,0.0,0.0,0.0,0.0,-5.511847597802004,-11.884346588143687,-6.963661927984924,-0.007982030663515093,-0.007148518566953853,-1.2020689521599688
17961,1.0,300.11876,80273.55900000001,0.0,-0.17961027723425727,0.0,0.0,0.0,0.0,-5.503235883877094,-11.896752822368088,-7.0011685963365435,0.0054042721519101345,0.016057945028295783,-1.1853202319819989
17962,1.0,300.12765,80332.964,0.0,-0.17962027322167662,0.0,0.0,0.0,0.0,-5.534503870038004,-11.908192415997089,-6.976518653203783,0.00928249552228598,0.015292284616730985,-1.173655798155809
17963,1.0,300.12411000000003,80199.747,0.0,-0.17963026920909586,0.0,0.0,0.0,0.0,-5.484667974469585,-11.901503952086989,-6.992548371110794,-0.002446853995410688,0.0034656513357331567,-1.176896577275649
17964,1.0,300.25404,80098.82,0.0,-0.17964026519651533,0.0,0.0,0.0,0.0,-5.519414752198825,-11.881748614887288,-6.946878250678503,-0.010917815423754489,0.004815135714466895,-1.1750177076152188
17965,1.0,300.05537999999996,80219.44,0.0,-0.17965029417399203,0.0,0.0,0.0,0.0,-5.4922696806948155,-11.907594598438088,-6.984842908075323,0.01137182138281139,0.004672263498691506,-1.201443168898209
17966,1.0,299.4598,80239.457,0.0,-0.17966029016141138,0.0,0.0,0.0,0.0,-5.506817621655585,-11.88969553542159,-6.994278191681514,-0.017637456026181383,0.005715349051861035,-1.183192913397049
17967,1.0,299.99836,80129.982,0.0,-0.17967028614883074,0.0,0.0,0.0,0.0,-5.486017116977735,-11.878911514607289,-6.992585456064453,-0.0008782314844246992,-0.00982271629790162,-1.171849578527549
17968,1.0,300.57225,80201.887,0.0,-0.17968028213624987,0.0,0.0,0.0,0.0,-5.509690084364074,-11.88280543474159,-6.986875082475884,-0.0027593270526743777,-0.019025665405186982,-1.151558839975009
17969,1.0,300.12307000000004,80359.18400000001,0.0,-0.17969027812366922,0.0,0.0,0.0,0.0,-5.520059077937415,-11.897095300901888,-7.010031190986213,0.002952628320626727,0.0012342903053399689,-1.179616951144129
17970,1.0,300.50011,80410.254,0.0,-0.17970027411108858,0.0,0.0,0.0,0.0,-5.565867507008354,-11.888982207351189,-6.987859657598053,0.01985840398662188,0.008265174993984261,-1.1563870780265189
17971,1.0,299.98828,80364.841,0.0,-0.17971027009850793,0.0,0.0,0.0,0.0,-5.536452957930365,-11.90090309477769,-6.991549306512193,0.0027808532470738473,-0.005240673702689225,-1.1792107391790387
17972,1.0,299.61172999999997,80352.554,0.0,-0.17972026608592728,0.0,0.0,0.0,0.0,-5.5309295289852445,-11.883936221853189,-7.010304160563153,0.0025868397656262075,0.004037858289180587,-1.1500705782281289
17973,1.0,300.07714,80391.71,0.0,-0.179730295063404,0.0,0.0,0.0,0.0,-5.533736738387295,-11.890088676460389,-7.013246740178563,0.0009548064421820591,0.009000486538553861,-1.1646787062448387
17974,1.0,299.35506000000004,80470.781,0.0,-0.17974029105082323,0.0,0.0,0.0,0.0,-5.544811764630315,-11.897343547176389,-7.018952756791704,0.015872269987221084,0.0050184602550584646,-1.127531741678719
17975,1.0,298.94903,80381.761,0.0,-0.1797502870382427,0.0,0.0,0.0,0.0,-5.531285990370424,-11.897720476213589,-7.0050419474938135,-0.022313696430190377,-0.011911746897347888,-1.1872915100515489
17976,1.0,299.72766,80351.433,0.0,-0.17976028302566194,0.0,0.0,0.0,0.0,-5.549124562355955,-11.906863031865889,-6.968841257196083,-0.000960503238219289,0.007698244844407613,-1.175284800341579
17977,1.0,299.46168,80364.188,0.0,-0.17977027901308118,0.0,0.0,0.0,0.0,-5.521528290582415,-11.901038870291089,-7.006139297352114,-0.012202292310522488,0.013833378751748187,-1.2035530595814388
17978,1.0,299.71229,80366.144,0.0,-0.17978027500050053,0.0,0.0,0.0,0.0,-5.531935990309575,-11.909496468875789,-6.987869080823984,0.0066716799288185444,0.01155183134257699,-1.1761778789797188
17979,1.0,299.80994,80305.555,0.0,-0.17979027098791978,0.0,0.0,0.0,0.0,-5.5127835369193745,-11.906913694370889,-6.991186056351343,0.0010027645624001572,-0.005862080838592334,-1.183324939885079
17980,1.0,299.5247,80252.62299999999,0.0,-0.17980026697533924,0.0,0.0,0.0,0.0,-5.5211467005947545,-11.899776360666488,-6.9738706253924425,0.03138542691375047,-0.01023690730355409,-1.186463482069829
17981,1.0,299.77276,80173.342,0.0,-0.17981026296275837,0.0,0.0,0.0,0.0,-5.500581067290085,-11.914531308622688,-6.9555817650624725,0.005710838873015915,0.004943734681383626,-1.2240440163537387
17982,1.0,300.16767999999996,80143.057,0.0,-0.1798202919402352,0.0,0.0,0.0,0.0,-5.515123232725285,-11.910493506974188,-6.935871010867173,-0.0017978945627883784,-0.00015732608659687586,-1.2100574159483688
17983,1.0,300.20237000000003,80350.769,0.0,-0.17983028792765454,0.0,0.0,0.0,0.0,-5.503149352318554,-11.92310441771879,-6.998373951235734,-0.018578032789259083,-0.005810745130225895,-1.2100696762745788
17984,1.0,300.25389,80606.582,0.0,-0.1798402839150739,0.0,0.0,0.0,0.0,-5.540894134443675,-11.944410027571488,-7.017083715657244,-0.021035843159326082,0.007934178610317463,-1.1740357669433088
17985,1.0,300.24396,80546.561,0.0,-0.17985027990249303,0.0,0.0,0.0,0.0,-5.526349537208235,-11.914691402138489,-7.043101850400033,-0.015803273734911687,0.002848506740350727,-1.1525825265510388
17986,1.0,300.38978,80516.686,0.0,-0.1798602758899125,0.0,0.0,0.0,0.0,-5.534739653336274,-11.93256108090209,-7.007761308112194,-0.0019310059377004483,-0.037009630674066166,-1.1588099616656387
17987,1.0,300.11099,80706.24,0.0,-0.17987027187733173,0.0,0.0,0.0,0.0,-5.5733837962501545,-11.92825780772739,-7.031039715909594,0.008971632620756202,-0.008552935995884062,-1.173899383479849
17988,1.0,299.76576,80719.101,0.0,-0.1798802678647512,0.0,0.0,0.0,0.0,-5.608273442243495,-11.921437621304287,-7.006880287150243,0.03547396604775787,-0.007093008876125474,-1.1970555933151887
17989,1.0,299.05197999999996,80425.438,0.0,-0.17989026385217044,0.0,0.0,0.0,0.0,-5.5357440881604045,-11.905216500453388,-7.0063640362242925,0.019535705108023983,0.020428056232592178,-1.171532431246249
17990,1.0,299.63491,80196.93400000001,0.0,-0.17990029282964715,0.0,0.0,0.0,0.0,-5.5374418900279645,-11.875276986498589,-6.965146947331484,0.003024218189217097,0.011175114074647888,-1.1562883874667789
17991,1.0,300.35601,80340.198,0.0,-0.1799102888170665,0.0,0.0,0.0,0.0,-5.5145336224920944,-11.893888364335387,-7.012992211753444,-0.003324693453371697,0.004883580758721895,-1.1499264940639091
17992,1.0,299.71297000000004,80502.908,0.0,-0.17992028480448585,0.0,0.0,0.0,0.0,-5.554842839295304,-11.910116577936988,-7.005914355829913,0.0013861614992284887,0.005592686413305175,-1.1848103645316788
17993,1.0,300.04785,80670.325,0.0,-0.1799302807919051,0.0,0.0,0.0,0.0,-5.555360306121375,-11.942070433090588,-7.0243341280728036,0.004708972232589376,0.014243457279219785,-1.1805933189404887
17994,1.0,300.39902,80499.586,0.0,-0.17994027677932445,0.0,0.0,0.0,0.0,-5.547426861813404,-11.930412990690089,-6.992023912859034,0.007894642402015543,-0.017625222044473983,-1.202331383935869
17995,1.0,300.09854,80504.821,0.0,-0.1799502727667437,0.0,0.0,0.0,0.0,-5.499017115760735,-11.936894751579787,-7.035543207304054,0.00013769765897220088,0.004471067593910015,-1.153175379184549
17996,1.0,300.3096,80747.17599999999,0.0,-0.17996026875416304,0.0,0.0,0.0,0.0,-5.548183253013055,-11.958513455713389,-7.038428639613824,0.002874587392624687,0.013307773500874987,-1.1598620192444689
17997,1.0,300.43224,80676.727,0.0,-0.1799702647415824,0.0,0.0,0.0,0.0,-5.5140634744456944,-11.951989138319489,-7.057658302661642,-0.003693247269220127,-0.001119045265466169,-1.156769174639229
17998,1.0,299.92271,80329.93,0.0,-0.17998029371905921,0.0,0.0,0.0,0.0,-5.501628159943425,-11.945655311944389,-6.971010017710123,-0.01914752798146388,-0.02097729756854808,-1.185370489186959
17999,1.0,300.38467,80340.445,0.0,-0.17999028970647857,0.0,0.0,0.0,0.0,-5.514590871122745,-11.92841283499269,-6.978484966347843,-0.010479011255947891,-0.012818452736082788,-1.2014171283706387
18000,1.0,299.7103,80547.968,0.0,-0.1800002856938977,0.0,0.0,0.0,0.0,-5.5619000249167945,-11.927093583362488,-6.995577076984702,0.004193906302631326,0.005119958733475585,-1.1978001294886689
18001,1.0,299.63354,80630.157,0.0,-0.18001028168131705,0.0,0.0,0.0,0.0,-5.551605201250775,-11.92622826777709,-7.031720822626814,-0.00957125285300911,0.006886133907183504,-1.1705679184760591
18002,1.0,299.57686,80510.175,0.0,-0.1800202776687364,0.0,0.0,0.0,0.0,-5.536703636005105,-11.91258586843069,-7.023792849869383,-0.003191404658367117,0.003151990040077197,-1.1534802661396388
18003,1.0,299.5388,80491.283,0.0,-0.18003027365615565,0.0,0.0,0.0,0.0,-5.532929887332664,-11.910783296502789,-7.023626778177993,0.0013227719650224287,0.019116748483176182,-1.160603616992659
18004,1.0,299.67711,80692.44,0.0,-0.180040269643575,0.0,0.0,0.0,0.0,-5.586461511315824,-11.939720706108687,-7.002304551023653,0.015826603818464183,0.01083623561845319,-1.172333709425329
18005,1.0,300.13012000000003,80801.42,0.0,-0.18005026563099435,0.0,0.0,0.0,0.0,-5.603370426334604,-11.937508781140387,-7.0207351650426135,-0.0023169876552688777,-0.01890139737317268,-1.1773480815202089
18006,1.0,300.49411000000003,80736.05900000001,0.0,-0.18006029460847106,0.0,0.0,0.0,0.0,-5.566447592690604,-11.952295139849689,-7.023003021416433,0.009741288277465301,-0.026153463412895872,-1.166274271177309
18007,1.0,300.43417,80597.681,0.0,-0.18007029059589053,0.0,0.0,0.0,0.0,-5.526043130377995,-11.937191633859088,-7.036447938318344,0.0068333075052699425,0.004852753637679496,-1.164256079628129
18008,1.0,300.16733999999997,80754.271,0.0,-0.18008028658330966,0.0,0.0,0.0,0.0,-5.5379098089241445,-11.961520782010188,-7.047851561568794,0.008492887451232733,0.021304010944042183,-1.1543910766545291
18009,1.0,299.95817999999997,80822.671,0.0,-0.180090282570729,0.0,0.0,0.0,0.0,-5.561300687482644,-11.963357804441488,-7.043415248655964,-0.014398627412783886,0.0030251096466550774,-1.1737774894928188
18010,1.0,300.50583,80660.043,0.0,-0.18010027855814836,0.0,0.0,0.0,0.0,-5.564065340380495,-11.96666606601799,-6.987907888302814,-0.013077703919918887,-0.003007823599949077,-1.200054610961169
18011,1.0,300.04128,80503.337,0.0,-0.1801102745455676,0.0,0.0,0.0,0.0,-5.548568085401035,-11.956824367796688,-6.965611725152352,-0.0044802637504926055,-0.0035567975392035867,-1.2050207523512888
18012,1.0,299.93155,80602.885,0.0,-0.18012027053298707,0.0,0.0,0.0,0.0,-5.542027657330545,-11.961701140527989,-6.997535182802953,0.005920824722414905,-0.021845710659503775,-1.2030097548778187
18013,1.0,299.06064,80553.242,0.0,-0.1801302665204062,0.0,0.0,0.0,0.0,-5.527841649305495,-11.94429857006049,-7.014034440806303,-0.005149897639480325,-0.03097465836296077,-1.1811461481950487
18014,1.0,299.42918,80488.13799999999,0.0,-0.18014029549788302,0.0,0.0,0.0,0.0,-5.503629430215935,-11.95042569341519,-7.012329343538023,0.016266135499842585,-0.02009569398779058,-1.177305221040979
18015,1.0,299.53803,80554.387,0.0,-0.18015029148530237,0.0,0.0,0.0,0.0,-5.519882468444985,-11.962689059375489,-7.003950981111144,0.017692984158161583,0.009891539284443921,-1.2022391781767687
18016,1.0,299.79896,80583.48599999999,0.0,-0.18016028747272173,0.0,0.0,0.0,0.0,-5.547277103448624,-11.960901686199088,-6.987188683381834,0.003943319927025376,0.009514484908206552,-1.213245202087979
18017,1.0,299.86717999999996,80717.725,0.0,-0.18017028346014086,0.0,0.0,0.0,0.0,-5.569557358572514,-11.965138084867188,-7.001477232317003,0.016702298124638484,-0.018820437676932585,-1.188440231689919
18018,1.0,299.85801000000004,80847.497,0.0,-0.18018027944756032,0.0,0.0,0.0,0.0,-5.580062938259335,-11.95081478145359,-7.0447425049619525,0.002113514166912608,0.013250599850732386,-1.1733913398797091
18019,1.0,300.2709,80791.631,0.0,-0.18019027543497956,0.0,0.0,0.0,0.0,-5.563837663083024,-11.94856029998109,-7.046240493909793,-0.003669712509147426,0.007534519738924203,-1.149007982848259
18020,1.0,300.16848999999996,80693.108,0.0,-0.18020027142239903,0.0,0.0,0.0,0.0,-5.534024197440665,-11.95751337786469,-7.037151944487823,0.001908181060647808,-0.0012536830003288789,-1.168338261631009
18021,1.0,300.35348999999997,80884.57400000001,0.0,-0.18021026740981827,0.0,0.0,0.0,0.0,-5.579305229834555,-11.958209480683388,-7.0493765029692925,-0.010389929346906189,0.010623942497251489,-1.149776026424059
18022,1.0,300.02175,80952.796,0.0,-0.1802202633972375,0.0,0.0,0.0,0.0,-5.617498172478904,-11.961677835775689,-7.028452787079284,-0.003689501891550486,0.026770905599832678,-1.163126305766629
18023,1.0,299.67602999999997,80772.156,0.0,-0.18023029237471433,0.0,0.0,0.0,0.0,-5.585386959584774,-11.95271665189129,-7.0146147291385725,0.0068708507519501735,0.014306806688721883,-1.1518838906070887
18024,1.0,299.28277,80712.395,0.0,-0.18024028836213368,0.0,0.0,0.0,0.0,-5.566549829625695,-11.935048609897589,-7.032953846673503,-0.02089901791882248,-0.00024524936441422775,-1.166426461342329
18025,1.0,299.78814,80793.96,0.0,-0.18025028434955281,0.0,0.0,0.0,0.0,-5.546523144049215,-11.952722731391889,-7.060100336727654,0.007156201738487124,-0.016179498563292184,-1.1343471658263489
18026,1.0,299.19549,80887.625,0.0,-0.18026028033697228,0.0,0.0,0.0,0.0,-5.556469511005845,-11.970624834158688,-7.060724194814223,-0.0004700899263742636,0.00961067638789991,-1.175369609374949
18027,1.0,299.70307,80830.076,0.0,-0.18027027632439152,0.0,0.0,0.0,0.0,-5.5583697602433855,-11.97769022710599,-7.034265093627914,0.0068890576403470545,-0.00095919362259754,-1.1646908652460388
18028,1.0,299.59966000000003,80705.796,0.0,-0.18028027231181087,0.0,0.0,0.0,0.0,-5.558118372893575,-11.98138048397019,-6.993047903410093,-0.008653663998925143,-0.005043074025162655,-1.1992628573330288
18029,1.0,299.91925,80688.38,0.0,-0.18029026829923023,0.0,0.0,0.0,0.0,-5.539231087054545,-11.975900827429388,-7.012120512692413,0.01026390636571869,-0.0007961046152619082,-1.171085587952149
18030,1.0,299.88364,80817.315,0.0,-0.18030026428664936,0.0,0.0,0.0,0.0,-5.537099614144185,-11.980382432621688,-7.048963400903523,0.0006286116987516444,0.020135129681682584,-1.181622173092029
18031,1.0,299.75267,80852.619,0.0,-0.1803102932641263,0.0,0.0,0.0,0.0,-5.527681454464685,-11.989235198745387,-7.060260227593433,-0.0032931404399576566,0.005880489870384165,-1.179649172497309
18032,1.0,299.78136,80643.412,0.0,-0.18032028925154553,0.0,0.0,0.0,0.0,-5.515839904521014,-11.971293579224689,-7.026450199581642,-0.015615566114136385,0.003599102554728767,-1.1930769654725288
18033,1.0,300.25268,80613.86,0.0,-0.18033028523896477,0.0,0.0,0.0,0.0,-5.534624852099945,-11.986193421945188,-6.9837826431706835,-0.003509184207729517,0.007636674195456062,-1.198836583015959
18034,1.0,300.38892000000004,80935.894,0.0,-0.18034028122638424,0.0,0.0,0.0,0.0,-5.597560652911224,-11.987589680582989,-7.017340675882603,-0.005630709737882785,0.03846299203450176,-1.1905070592438989
18035,1.0,300.33601,81047.395,0.0,-0.18035027721380348,0.0,0.0,0.0,0.0,-5.606840706602094,-11.98629981320569,-7.043244110714073,0.00998038571416238,0.005007751822701625,-1.180621993918319
18036,1.0,299.92967999999996,80792.959,0.0,-0.18036027320122283,0.0,0.0,0.0,0.0,-5.538865101118425,-11.99105094292459,-7.029126294420753,-0.005572759330213525,0.005315172105691645,-1.1764345352300487
18037,1.0,299.97832,80880.104,0.0,-0.18037026918864218,0.0,0.0,0.0,0.0,-5.556299994264115,-11.97681275251939,-7.052419293019594,0.015861262038134684,-0.008977156860301403,-1.173259617366709
18038,1.0,300.43984,81150.21,0.0,-0.18038026517606132,0.0,0.0,0.0,0.0,-5.606013286570435,-12.000264426083888,-7.061360009251974,0.024549738777370576,-0.01145985356474949,-1.1678283941806888
18039,1.0,299.54915,81084.22,0.0,-0.18039029415353836,0.0,0.0,0.0,0.0,-5.623231242869715,-11.98786832436049,-7.036478842446393,0.014831216304477087,-0.032966260203016566,-1.1740522829199387
18040,1.0,299.78556000000003,80938.33099999999,0.0,-0.1804002901409575,0.0,0.0,0.0,0.0,-5.590713210060435,-11.97699919053779,-7.035519497251714,-0.004855299124580715,-0.03423621214960107,-1.1682963130768689
18041,1.0,299.5039,80802.428,0.0,-0.18041028612837684,0.0,0.0,0.0,0.0,-5.562179985919425,-11.962862325142588,-7.036878366960823,0.004501876881750655,-0.004019986482591777,-1.1636186439902187
18042,1.0,299.73341,80991.741,0.0,-0.1804202821157962,0.0,0.0,0.0,0.0,-5.571210374785655,-11.975603945150088,-7.072652377641444,-0.012376589566224288,0.03173393631214567,-1.1880504343764489
18043,1.0,300.29218,81053.89,0.0,-0.18043027810321544,0.0,0.0,0.0,0.0,-5.596061245413244,-11.987140810788688,-7.055156284189714,0.0012144773142095788,0.003527704393057317,-1.1956706830785089
18044,1.0,300.24226,80880.049,0.0,-0.1804402740906348,0.0,0.0,0.0,0.0,-5.579131558767415,-11.99906575121559,-7.007318213843464,-0.015998589850687885,0.007092731042948054,-1.1995416024355388
18045,1.0,300.50224,80721.19900000001,0.0,-0.18045027007805403,0.0,0.0,0.0,0.0,-5.5640933060832545,-11.989854294556489,-6.983281287021203,0.006718826658621563,-0.0036498459170867465,-1.1942879006670388
18046,1.0,300.14412999999996,80944.59700000001,0.0,-0.18046026606547327,0.0,0.0,0.0,0.0,-5.573295339516425,-12.01012942905749,-7.021711330188952,-0.0026615085972954474,-2.231760048282568e-05,-1.1787819317367187
18047,1.0,300.22792999999996,81203.039,0.0,-0.1804702950429502,0.0,0.0,0.0,0.0,-5.573546118916174,-12.021650082694489,-7.088500115830493,-0.008467534008555542,-0.027560471621006773,-1.176781370739279
18048,1.0,301.06014,80958.52900000001,0.0,-0.18048029103036944,0.0,0.0,0.0,0.0,-5.542850416411745,-11.989941434065088,-7.076578924428963,-0.004665598846158756,-0.005643009783496704,-1.158538106663809
18049,1.0,301.20637,80675.728,0.0,-0.1804902870177887,0.0,0.0,0.0,0.0,-5.511201650863254,-11.996947045256489,-7.015257940302052,0.008070325682529132,0.007014842305111033,-1.1949666769090288
18050,1.0,301.07555,80889.09,0.0,-0.18050028300520815,0.0,0.0,0.0,0.0,-5.580280685705825,-11.994176819483089,-7.013805750258735,-0.006962367197007144,-0.0012869331063354089,-1.186727332395869
18051,1.0,300.85083,81184.936,0.0,-0.18051027899262728,0.0,0.0,0.0,0.0,-5.617142724343825,-12.001085158664889,-7.059965473139343,-0.010081051199672291,-0.04101241034610976,-1.183837340460649
18052,1.0,300.08437000000004,81032.297,0.0,-0.18052027498004675,0.0,0.0,0.0,0.0,-5.578982003052654,-12.01153278044599,-7.041280432020272,0.0036623836711741267,-0.0024072755345795976,-1.1805974732658988
18053,1.0,300.17547,80918.37700000001,0.0,-0.180530270967466,0.0,0.0,0.0,0.0,-5.533322623071425,-11.992715712838889,-7.071127537565952,0.013363449567369786,0.028824955056801573,-1.1759245664547189
18054,1.0,300.2131,81153.997,0.0,-0.18054026695488534,0.0,0.0,0.0,0.0,-5.588694106586164,-12.008883131434489,-7.071211839974273,-0.006430631681703934,0.012015388197076489,-1.1758369203210688
18055,1.0,299.75657,81333.33099999999,0.0,-0.18055029593236216,0.0,0.0,0.0,0.0,-5.623084726905255,-12.022617736539988,-7.077599064629643,-0.013792740329987487,-0.02023089701488408,-1.1610456980112889
18056,1.0,299.97913,81226.96,0.0,-0.1805602919197814,0.0,0.0,0.0,0.0,-5.637891958566615,-12.008268088623788,-7.044807454293363,0.0016922855313655782,0.006091194620729105,-1.1636755886458388
18057,1.0,300.17888,80956.921,0.0,-0.18057028790720064,0.0,0.0,0.0,0.0,-5.5866632494107344,-11.983476898427089,-7.038741835219733,0.02636267422729337,0.014406205510281786,-1.141781280485039
18058,1.0,300.04867,80915.265,0.0,-0.1805802838946201,0.0,0.0,0.0,0.0,-5.5668577563310855,-11.97998422533239,-7.049377718869413,-0.000906622924479216,-0.01949119809738148,-1.1668408806332289
18059,1.0,299.97057,81104.73599999999,0.0,-0.18059027988203935,0.0,0.0,0.0,0.0,-5.546185630440904,-12.001202695676488,-7.106426232624663,-0.018476876992025784,-0.02161762198249318,-1.1646371629907388
18060,1.0,299.61832999999996,81193.784,0.0,-0.1806002758694587,0.0,0.0,0.0,0.0,-5.577992868305035,-12.029021477171987,-7.073868784386493,-0.00982952604784869,0.02137070813187468,-1.1827926796075487
18061,1.0,299.5384,81071.205,0.0,-0.18061027185687795,0.0,0.0,0.0,0.0,-5.560167063270765,-12.02814197608519,-7.055313439280224,0.004787346215899285,0.030873697109746672,-1.2015321322569887
18062,1.0,299.82099999999997,81046.321,0.0,-0.1806202678442972,0.0,0.0,0.0,0.0,-5.589397504805585,-12.02966590423559,-7.016994650973452,0.004319324373509126,-0.008832866803661082,-1.207776184673229
18063,1.0,300.44129,81242.092,0.0,-0.18063026383171665,0.0,0.0,0.0,0.0,-5.591688057981645,-12.04034556028959,-7.063534038666535,0.008493590342827102,-0.01969542574778718,-1.191653146432009
18064,1.0,300.89427,81261.67599999999,0.0,-0.18064029280919336,0.0,0.0,0.0,0.0,-5.607709467237835,-12.02037440081859,-7.073436734543853,0.01651227016113418,0.004356735289726296,-1.182005688254879
18065,1.0,300.9433,81121.15400000001,0.0,-0.1806502887966126,0.0,0.0,0.0,0.0,-5.5501986074619545,-12.029698328238789,-7.078908183758843,0.016566002813937185,0.016206528022959785,-1.191100823802499
18066,1.0,300.11661000000004,80997.536,0.0,-0.18066028478403195,0.0,0.0,0.0,0.0,-5.571345339698975,-12.006982274246889,-7.042901328205243,0.000944167235072051,-0.015522635881214884,-1.1964849308588688
18067,1.0,300.23266,81148.90400000001,0.0,-0.1806702807714513,0.0,0.0,0.0,0.0,-5.590871074426015,-12.023222646849689,-7.053147211891433,-0.013776931601927288,0.001058921537657419,-1.197135842723109
18068,1.0,299.90783,81175.437,0.0,-0.18068027675887066,0.0,0.0,0.0,0.0,-5.617289037658265,-12.026816644954389,-7.031200417375453,0.0005056962644283355,0.02470875926131468,-1.173271269742859
18069,1.0,299.57574,81195.155,0.0,-0.1806902727462899,0.0,0.0,0.0,0.0,-5.573000990362375,-12.022635975041787,-7.085663015550494,-0.0035022179106419964,0.005849810785181375,-1.181266522306929
18070,1.0,299.37144,81255.657,0.0,-0.18070026873370915,0.0,0.0,0.0,0.0,-5.586245790369535,-12.030935506610888,-7.082509679914284,-0.006184882866050415,-0.02660522806273158,-1.1623380985138387
18071,1.0,299.22244,81167.704,0.0,-0.1807102647211285,0.0,0.0,0.0,0.0,-5.557283860111215,-12.020424050073489,-7.095247348246393,0.0038667127479148364,-0.0013473967795527087,-1.1731504903309389
18072,1.0,299.50924,81331.261,0.0,-0.18072029369860532,0.0,0.0,0.0,0.0,-5.6199372681196245,-12.03469162473159,-7.068044217511653,0.008332771846580551,0.01141081833941009,-1.156737561236109
18073,1.0,300.36969,81461.445,0.0,-0.18073028968602456,0.0,0.0,0.0,0.0,-5.642520181048385,-12.040124671767789,-7.079600233577143,-0.017635920952279883,0.006794531639843063,-1.182025851931869
18074,1.0,299.98299,81269.553,0.0,-0.1807402856734439,0.0,0.0,0.0,0.0,-5.637104561913905,-12.028909006410888,-7.037901344261783,-0.021707417219605278,-0.02297742185519498,-1.178878798446279
18075,1.0,300.25912,81017.965,0.0,-0.18075028166086327,0.0,0.0,0.0,0.0,-5.557650352672385,-12.019228414955489,-7.0505594724610425,0.0008879955879533411,0.01086273109531809,-1.1872136924438688
18076,1.0,300.18351,81179.038,0.0,-0.18076027764828262,0.0,0.0,0.0,0.0,-5.568517459994885,-12.031293183896189,-7.076590272830084,-0.006648171209273413,0.02014387099029528,-1.180161066447829
18077,1.0,300.47364,81268.996,0.0,-0.18077027363570186,0.0,0.0,0.0,0.0,-5.567116439081615,-12.035044235766389,-7.101584923646864,-0.01060820874969869,-0.008202818772230181,-1.214371226924109
18078,1.0,300.24318999999997,81144.14,0.0,-0.1807802696231211,0.0,0.0,0.0,0.0,-5.582672867866915,-12.050896533580888,-7.032223090701384,0.01087033959031899,-0.035921137634890264,-1.2104955452916089
18079,1.0,299.80707,81033.786,0.0,-0.18079026561054046,0.0,0.0,0.0,0.0,-5.571305214995014,-12.036805264440188,-7.024137050928353,0.015875330002523086,0.02144264179622398,-1.2042122800964987
18080,1.0,299.85632999999996,81267.31,0.0,-0.18080029458801727,0.0,0.0,0.0,0.0,-5.613174735627215,-12.04254735275689,-7.047510906885173,0.03845664908887576,0.005993508901113274,-1.166972096521179
18081,1.0,299.6169,81452.585,0.0,-0.18081029057543652,0.0,0.0,0.0,0.0,-5.596470395803625,-12.074478916408289,-7.088602960715644,-0.012885291778929287,-0.016427036575972286,-1.1771701548026487
18082,1.0,299.86203,81402.548,0.0,-0.18082028656285598,0.0,0.0,0.0,0.0,-5.607896614531304,-12.045483751546689,-7.090961806948443,0.0090939410270771,-0.025762764306836876,-1.1558629237497888
18083,1.0,300.54037,81350.33,0.0,-0.1808302825502751,0.0,0.0,0.0,0.0,-5.572360008349115,-12.063670577591589,-7.092438416319173,0.009804446486673531,0.008234393165221333,-1.1733574973263687
18084,1.0,299.74762000000004,81255.58099999999,0.0,-0.18084027853769458,0.0,0.0,0.0,0.0,-5.611843223670805,-12.045404718038888,-7.042419831757724,0.022883324358158277,-5.336354909632225e-05,-1.167002190049149
18085,1.0,299.97619,81449.21,0.0,-0.1808502745251137,0.0,0.0,0.0,0.0,-5.632950439153924,-12.04546652629499,-7.080108783802333,-0.03843779250451476,-0.016810891177605786,-1.1778200534167886
18086,1.0,300.54374,81422.59599999999,0.0,-0.18086027051253306,0.0,0.0,0.0,0.0,-5.634989402330154,-12.036151718125689,-7.079295447947063,0.00021068408004289984,-0.007807388902779293,-1.173000427991129
18087,1.0,299.74495,81078.179,0.0,-0.18087026649995241,0.0,0.0,0.0,0.0,-5.561943797321115,-12.013428571383088,-7.070369423841133,-0.005298185474390195,0.04194948126384146,-1.160694505526629
18088,1.0,299.96801,81220.113,0.0,-0.18088029547742923,0.0,0.0,0.0,0.0,-5.5782785035082245,-12.026637299686689,-7.083970482583452,0.01951735008246248,0.014455748373921287,-1.1717881755714887
18089,1.0,300.79304,81618.322,0.0,-0.18089029146484847,0.0,0.0,0.0,0.0,-5.633966627679214,-12.056069175341388,-7.119895771504003,-0.0070148630767380826,-0.017096369327030285,-1.170693966788499
18090,1.0,299.67109,81554.442,0.0,-0.18090028745226783,0.0,0.0,0.0,0.0,-5.6554337495978535,-12.059911419720589,-7.075168784264793,0.02025871579637958,-0.004968946876996875,-1.182892282092379
18091,1.0,299.81759,81297.658,0.0,-0.18091028343968707,0.0,0.0,0.0,0.0,-5.610234689137054,-12.050302769022288,-7.051920571320373,0.022421647082594278,0.02933905991903977,-1.174265470740979
18092,1.0,300.10445,81414.599,0.0,-0.18092027942710642,0.0,0.0,0.0,0.0,-5.621644391888104,-12.065927085564288,-7.0604337973355635,0.011456015373370688,-0.01076769330218859,-1.181397130244819
18093,1.0,300.47094,81551.80099999999,0.0,-0.18093027541452578,0.0,0.0,0.0,0.0,-5.603638734961085,-12.06737198020689,-7.118699933735983,-0.013344142086714287,-0.015524179061117183,-1.1749731246108188
18094,1.0,300.3118,81452.944,0.0,-0.1809402714019449,0.0,0.0,0.0,0.0,-5.587274137896024,-12.076051480563489,-7.0963351735537525,-0.016704816051136984,-0.0025249916887972773,-1.2015851252372187
18095,1.0,300.65026,81196.255,0.0,-0.18095026738936448,0.0,0.0,0.0,0.0,-5.552618654000795,-12.056559588389788,-7.072456111097073,-0.003457434485372217,0.03214953705266227,-1.1875258747996789
18096,1.0,300.24811,81130.452,0.0,-0.1809602963668412,0.0,0.0,0.0,0.0,-5.586615322681004,-12.041875567940588,-7.033140082041883,-0.023907482095484777,-0.012473024631241688,-1.1820948542636789
18097,1.0,299.40855,81278.505,0.0,-0.18097029235426043,0.0,0.0,0.0,0.0,-5.587747528342745,-12.061513368128688,-7.057375403233722,-0.03908851387773596,-0.013389535691194287,-1.1787783853613687
18098,1.0,299.35551,81475.535,0.0,-0.18098028834167978,0.0,0.0,0.0,0.0,-5.627131850454675,-12.059255846905888,-7.0801400932304235,-0.0045405686474192354,0.0004687216942342296,-1.166344590734249
18099,1.0,300.01212999999996,81432.115,0.0,-0.18099028432909903,0.0,0.0,0.0,0.0,-5.585759936946586,-12.070757248790988,-7.096812414350853,-0.0005233332401739695,0.033095238834745765,-1.1949894750362788
18100,1.0,299.93135,81349.679,0.0,-0.1810002803165185,0.0,0.0,0.0,0.0,-5.5935586189912545,-12.074954130705189,-7.059758162168884,0.015047488458821486,-0.008019148547803341,-1.1903394676773589
18101,1.0,299.6796,81556.162,0.0,-0.18101027630393773,0.0,0.0,0.0,0.0,-5.628332957123215,-12.079010170855488,-7.083693460006114,0.009228061903063802,-0.01114883745980459,-1.2055084296244187
18102,1.0,300.85425,81689.814,0.0,-0.18102027229135698,0.0,0.0,0.0,0.0,-5.685371946327524,-12.071803936144288,-7.074487981522603,0.026804110818859774,0.008625692216664543,-1.183764487778459
18103,1.0,300.17432,81472.55900000001,0.0,-0.18103026827877633,0.0,0.0,0.0,0.0,-5.622720868794344,-12.072698635982588,-7.070203858774793,0.014528759123126886,0.008931470527867512,-1.1867252045706589
18104,1.0,300.33552000000003,81470.065,0.0,-0.18104026426619557,0.0,0.0,0.0,0.0,-5.6215428642280845,-12.054630360199388,-7.088691924074423,0.0030196145887127573,-0.028644482041740273,-1.1755873568214388
18105,1.0,300.1847,81562.372,0.0,-0.1810502932436724,0.0,0.0,0.0,0.0,-5.610525998540805,-12.059478761927888,-7.122920019077473,-0.002078719057153598,-0.015533110860748685,-1.177124558548149
18106,1.0,300.32759,81537.76,0.0,-0.18106028923109174,0.0,0.0,0.0,0.0,-5.608268072017965,-12.063301754555189,-7.113873215559623,0.017451960330374383,0.006784930385870494,-1.162949290974159
18107,1.0,299.97848999999997,81513.318,0.0,-0.1810702852185111,0.0,0.0,0.0,0.0,-5.626813284623235,-12.06611048383239,-7.085089515993893,-0.003892011981711676,0.017534233198744087,-1.177030427613859
18108,1.0,299.58274,81485.27799999999,0.0,-0.18108028120593045,0.0,0.0,0.0,0.0,-5.630323081644624,-12.065129657735588,-7.074036983903093,-0.014893444046118486,-0.011947408234617388,-1.164114123289119
18109,1.0,299.54753999999997,81398.635,0.0,-0.18109027719334958,0.0,0.0,0.0,0.0,-5.615727619254165,-12.059424046422489,-7.068000343782322,0.00015221138247709386,-0.007223454795324482,-1.1678182616796888
18110,1.0,299.40679,81516.927,0.0,-0.18110027318076893,0.0,0.0,0.0,0.0,-5.599630114915464,-12.092483357435189,-7.086997364607183,0.01100910925776449,0.008481015909086101,-1.174132025702809
18111,1.0,299.31459,81645.132,0.0,-0.1811102691681883,0.0,0.0,0.0,0.0,-5.623920252937715,-12.092449920181888,-7.101711681234373,-0.010484598316999291,-0.007898443305790662,-1.1817750725321188
18112,1.0,299.65382,81710.59599999999,0.0,-0.18112026515560753,0.0,0.0,0.0,0.0,-5.628172660957395,-12.108206972486988,-7.1016011356484645,0.00013077214520120588,-0.02160236142273708,-1.1980875885420388
18113,1.0,300.30484,81565.273,0.0,-0.18113029413308435,0.0,0.0,0.0,0.0,-5.629437805032254,-12.103120456984989,-7.061248349090953,0.007770478025486472,0.0023816769867032175,-1.1895429517737488
18114,1.0,300.1412,81568.517,0.0,-0.1811402901205037,0.0,0.0,0.0,0.0,-5.620093815260075,-12.081952649145888,-7.092746241699552,0.024390080959113578,0.014342937160787685,-1.1637120656494389
18115,1.0,300.51982000000004,81576.272,0.0,-0.18115028610792294,0.0,0.0,0.0,0.0,-5.595883825320735,-12.091304947568888,-7.109960651623483,-0.0015942680736670085,-0.007251553132522573,-1.176999320835789
18116,1.0,299.97423,81504.93,0.0,-0.1811602820953424,0.0,0.0,0.0,0.0,-5.5803162507843345,-12.085408845236989,-7.109738648526573,-0.009376361592999842,-0.008489995432797312,-1.176408697352499
18117,1.0,299.97337999999996,81558.492,0.0,-0.18117027808276154,0.0,0.0,0.0,0.0,-5.580377147115345,-12.090961455784988,-7.120406449554403,-0.009464943260467172,0.01200774119857179,-1.188786155274059
18118,1.0,300.08336,81612.51299999999,0.0,-0.1811802740701809,0.0,0.0,0.0,0.0,-5.630214562558915,-12.079811651684588,-7.0981393666818136,0.004573076041102465,0.021529420587788378,-1.174275907217009
18119,1.0,300.59207999999995,81619.525,0.0,-0.18119027005760024,0.0,0.0,0.0,0.0,-5.642305574677205,-12.08060401326279,-7.087387567220694,-0.015642731349317384,0.00023035005871628082,-1.1829893514519592
18120,1.0,300.05037000000004,81688.909,0.0,-0.1812002660450195,0.0,0.0,0.0,0.0,-5.647464334911335,-12.097334798913987,-7.086589024816883,-0.01211713978536859,0.0017631010742295281,-1.1744165463308889
18121,1.0,300.19844,81807.72200000001,0.0,-0.1812102950224962,0.0,0.0,0.0,0.0,-5.631575762743254,-12.111409856053088,-7.124519637010343,0.008141640453717352,0.015202474180867384,-1.186506241224049
18122,1.0,300.56329,81729.225,0.0,-0.18122029100991566,0.0,0.0,0.0,0.0,-5.639895457989344,-12.087044230898389,-7.116703425738944,0.006184306833368563,0.011460745224837489,-1.175770451114509
18123,1.0,300.64694,81661.431,0.0,-0.1812302869973349,0.0,0.0,0.0,0.0,-5.617373542716604,-12.099678446395288,-7.1059839489560135,0.007137641631105383,-0.015386062939986183,-1.1892384701186989
18124,1.0,300.39802000000003,81626.595,0.0,-0.18124028298475425,0.0,0.0,0.0,0.0,-5.648906088478625,-12.071945791158289,-7.0915943789858735,-0.01108932522843119,-0.018728278527337182,-1.180207675952429
18125,1.0,300.05863999999997,81689.505,0.0,-0.1812502789721736,0.0,0.0,0.0,0.0,-5.637812114458735,-12.104484291619588,-7.0892731243317835,0.0033109417243395067,-0.000909191614807726,-1.170750202169049
18126,1.0,299.31855,81687.488,0.0,-0.18126027495959274,0.0,0.0,0.0,0.0,-5.632677064276945,-12.095995282281788,-7.102284370190893,-0.008915954527761201,0.010030311890314711,-1.198501602532899
18127,1.0,299.78261000000003,81756.799,0.0,-0.1812702709470122,0.0,0.0,0.0,0.0,-5.622688343466135,-12.101581330083087,-7.127755653854714,0.018250024480137184,-0.004010836226238716,-1.1764582452823888
18128,1.0,299.77069,81772.357,0.0,-0.18128026693443144,0.0,0.0,0.0,0.0,-5.6157686558832145,-12.12083510848329,-7.120151313179223,0.002000490677883058,0.006938407074542464,-1.2007899265587387
18129,1.0,299.70655,81645.745,0.0,-0.18129029591190815,0.0,0.0,0.0,0.0,-5.619451921321724,-12.105143917434688,-7.093672048315923,0.011439507502741489,0.02000412758950368,-1.191220488639309
18130,1.0,299.81872000000004,81708.489,0.0,-0.18130029189932761,0.0,0.0,0.0,0.0,-5.644252230769324,-12.116457868051288,-7.076630296209034,-0.010026086029447651,0.004449229014504716,-1.2089481097388888
18131,1.0,300.81346,81804.504,0.0,-0.18131028788674686,0.0,0.0,0.0,0.0,-5.665343436900865,-12.112932770953389,-7.088249944380802,0.006890985551312323,-0.01119928920878379,-1.1802711054086887
18132,1.0,300.3924,81662.577,0.0,-0.1813202838741662,0.0,0.0,0.0,0.0,-5.632578069742174,-12.101259116551288,-7.089547208483834,-0.006354285718469174,-0.008228504256965143,-1.207167727988179
18133,1.0,300.06266,81675.696,0.0,-0.18133027986158556,0.0,0.0,0.0,0.0,-5.579498659278644,-12.131095278995888,-7.116778000946303,0.012474191895356887,0.0011986890538013988,-1.1843681821880387
18134,1.0,299.95198999999997,81857.788,0.0,-0.1813402758490047,0.0,0.0,0.0,0.0,-5.614016746460314,-12.133433860226688,-7.135273057671624,-0.0100848226178695,-0.0007463253198440742,-1.1923562406763988
18135,1.0,300.397,81933.771,0.0,-0.18135027183642416,0.0,0.0,0.0,0.0,-5.642461108567554,-12.12696425833819,-7.136395536132403,0.014774253410355286,-0.018268429154953584,-1.1767491493860989
18136,1.0,299.41956,81793.49799999999,0.0,-0.1813602678238434,0.0,0.0,0.0,0.0,-5.653053118487905,-12.114533706111388,-7.095594285080633,-0.0009198982334468871,7.914201168695843e-06,-1.1700014103451488
18137,1.0,299.47342000000003,81688.242,0.0,-0.18137029680132022,0.0,0.0,0.0,0.0,-5.638689690370345,-12.09742599142299,-7.095070536103943,-0.0011419427925509788,-0.00011638341622864888,-1.164692891746239
18138,1.0,299.55671,81832.65400000001,0.0,-0.18138029278873957,0.0,0.0,0.0,0.0,-5.636432675772594,-12.118638382266488,-7.120012903215564,-0.022330135399812778,-0.016012161322527283,-1.1664778331223988
18139,1.0,299.33836,81946.628,0.0,-0.18139028877615881,0.0,0.0,0.0,0.0,-5.6240066831712445,-12.124794889874089,-7.160927435628513,-0.0055748876620485745,-0.008496492595088532,-1.1813781824679488
18140,1.0,299.20702,81941.048,0.0,-0.18140028476357817,0.0,0.0,0.0,0.0,-5.639776806402635,-12.122777508924989,-7.145478614003833,-0.006700861430373534,0.01099069850344749,-1.1540791982737488
18141,1.0,300.20816,81755.212,0.0,-0.1814102807509974,0.0,0.0,0.0,0.0,-5.629962364609025,-12.10772669193959,-7.113853558507683,0.02038576823966868,0.0013811262541815485,-1.1874620400433789
18142,1.0,299.87354,81642.321,0.0,-0.18142027673841665,0.0,0.0,0.0,0.0,-5.631245240560635,-12.115627002969287,-7.070354225089634,-0.012914219056034187,0.012128419285481789,-1.173912353081129
18143,1.0,300.41989,81913.27900000001,0.0,-0.18143027272583612,0.0,0.0,0.0,0.0,-5.653723687404085,-12.136715777300589,-7.109152483343722,-0.001054893260559859,-0.005164698487666055,-1.2008009709848289
18144,1.0,300.47112000000004,82018.254,0.0,-0.18144026871325536,0.0,0.0,0.0,0.0,-5.649016431414515,-12.122984211945388,-7.159500678162702,0.00017590943793590984,0.0025456743524884975,-1.167854434708259
18145,1.0,300.23534,81713.72200000001,0.0,-0.18145029769073218,0.0,0.0,0.0,0.0,-5.586065229201714,-12.127693798410188,-7.125171967424723,-0.0024846118484620977,-0.016341640870794386,-1.200650705994999
18146,1.0,299.42245,81697.14,0.0,-0.18146029367815153,0.0,0.0,0.0,0.0,-5.599604074387894,-12.119927236393687,-7.1143594742826135,-0.0015523906496840284,-0.012266034861063388,-1.1658328994337488
18147,1.0,299.94047,82130.663,0.0,-0.18147028966557066,0.0,0.0,0.0,0.0,-5.678722999171325,-12.155272439631988,-7.131674905241513,-0.005579889571167225,-0.00036622834607392366,-1.1752939195924788
18148,1.0,299.73017000000004,82175.009,0.0,-0.18148028565299024,0.0,0.0,0.0,0.0,-5.686606287599345,-12.167152797054488,-7.125391336071372,0.006709710244821843,0.02815698208737777,-1.1805999050661389
18149,1.0,299.75548,81815.156,0.0,-0.18149028164040937,0.0,0.0,0.0,0.0,-5.628801686619474,-12.138541653980788,-7.1024207536543535,0.007206753900551233,-0.0040783660016783865,-1.1982790928109388
18150,1.0,300.11868,81717.579,0.0,-0.18150027762782872,0.0,0.0,0.0,0.0,-5.599210933349095,-12.142791224900188,-7.098101775103103,0.002312993929999728,-0.007684115477063152,-1.2096404635322189
18151,1.0,300.12692999999996,81790.42,0.0,-0.18151027361524807,0.0,0.0,0.0,0.0,-5.629984960086254,-12.11126800103909,-7.120992310762223,0.00968352521973953,0.0032194284203578465,-1.2007368322534988
18152,1.0,300.48812000000004,82013.507,0.0,-0.18152026960266732,0.0,0.0,0.0,0.0,-5.681552905375615,-12.135018583383088,-7.1134863566714435,0.008841337270522052,0.0072475781523802735,-1.197911992299709
18153,1.0,299.9899,82008.005,0.0,-0.18153026559008667,0.0,0.0,0.0,0.0,-5.699088312931225,-12.124906347385087,-7.1043913224488335,0.009727060422211121,-0.016894121567319984,-1.191010137918549
18154,1.0,299.9815,81815.477,0.0,-0.1815402945675635,0.0,0.0,0.0,0.0,-5.663764489270035,-12.121218117021089,-7.084879975873213,-0.006202862482449864,-0.007134960571340783,-1.1905731231504189
18155,1.0,299.70275,81936.287,0.0,-0.18155029055498273,0.0,0.0,0.0,0.0,-5.634556845862465,-12.14846238570989,-7.123565864691214,0.016377684203351586,0.008223337188080191,-1.188268891098009
18156,1.0,300.56969,82261.57,0.0,-0.18156028654240208,0.0,0.0,0.0,0.0,-5.660136952587025,-12.160053966853889,-7.185272289156163,0.006328525050576794,0.00985016858683595,-1.1819255401719688
18157,1.0,299.85095,82232.49799999999,0.0,-0.18157028252982133,0.0,0.0,0.0,0.0,-5.6574049263423944,-12.160852407932689,-7.178368914899852,-0.006673786881076484,-0.008589292017422121,-1.1640763290603888
18158,1.0,299.89617000000004,81861.775,0.0,-0.18158027851724057,0.0,0.0,0.0,0.0,-5.639490563249385,-12.147990211163288,-7.096454737065553,-0.008887473182025311,-0.006917621768616114,-1.1703884718833488
18159,1.0,299.28536,81815.887,0.0,-0.18159027450466003,0.0,0.0,0.0,0.0,-5.644089401478254,-12.131771116812589,-7.094125883035713,-0.003778104533294886,0.01084632860269929,-1.1724384794856688
18160,1.0,299.38844,82095.071,0.0,-0.18160027049207916,0.0,0.0,0.0,0.0,-5.672794270186205,-12.17283713011549,-7.109220371100424,-0.018143694014643184,0.014617399255124985,-1.1886317359588188
18161,1.0,299.5447,82147.15400000001,0.0,-0.18161026647949863,0.0,0.0,0.0,0.0,-5.654969275752015,-12.160381246636188,-7.155333079176393,-9.935130013020989e-05,-0.003956986036424116,-1.174111760700809
18162,1.0,299.87596,81934.01,0.0,-0.18162029545697533,0.0,0.0,0.0,0.0,-5.624496285619565,-12.151131286473289,-7.130265474352413,-0.002264229242437028,0.004216234281834926,-1.196214089107139
18163,1.0,299.52477000000005,81837.24799999999,0.0,-0.1816302914443947,0.0,0.0,0.0,0.0,-5.625533955046975,-12.13752536413049,-7.113420596739953,0.013269293301827287,0.008621543768105122,-1.1796683229241989
18164,1.0,299.79081,81879.073,0.0,-0.18164028743181404,0.0,0.0,0.0,0.0,-5.649514139863634,-12.134923337873689,-7.104756092484833,0.012464218474622589,-0.009454188015955711,-1.1871312138857288
18165,1.0,299.86959,82062.22099999999,0.0,-0.18165028341923328,0.0,0.0,0.0,0.0,-5.678915516690324,-12.160109695609389,-7.105840574066864,0.0006613581485309674,-0.0029988049647840073,-1.185010684076449
18166,1.0,299.68262000000004,82178.683,0.0,-0.18166027940665253,0.0,0.0,0.0,0.0,-5.6656160011777645,-12.167221698061288,-7.147429728396393,-0.013885302753122688,-0.003031946146404787,-1.186038423652879
18167,1.0,300.14583,81995.076,0.0,-0.18167027539407188,0.0,0.0,0.0,0.0,-5.636762286030125,-12.151287326988689,-7.136405871283422,0.002205582225324018,-0.002006559032731958,-1.179230396230979
18168,1.0,300.47521,81961.24,0.0,-0.18168027138149123,0.0,0.0,0.0,0.0,-5.608498181115674,-12.15545685115019,-7.150215659546343,-0.012461457368100089,0.01149680780914659,-1.1685030160972687
18169,1.0,300.56456000000003,82282.576,0.0,-0.18169026736891059,0.0,0.0,0.0,0.0,-5.691311415763704,-12.15191047580019,-7.168626819163384,0.005587487123067046,0.005625353292554145,-1.153787686219979
18170,1.0,300.25924,82395.137,0.0,-0.1817002963463874,0.0,0.0,0.0,0.0,-5.697003652175486,-12.181021151173189,-7.168039640730434,-0.0012486396492811388,-0.010369184064358791,-1.167667490064809
18171,1.0,300.23644,82163.146,0.0,-0.18171029233380664,0.0,0.0,0.0,0.0,-5.696873652187654,-12.156727466775589,-7.121943549956102,-0.0025470749681017276,-0.01065398738921669,-1.1835082368281689
18172,1.0,299.54792000000003,82023.56,0.0,-0.181720288321226,0.0,0.0,0.0,0.0,-5.644500375718815,-12.159807747079588,-7.128805988908374,0.0007347447628611623,-0.02128579878674478,-1.188313879402449
18173,1.0,299.44496000000004,82195.02799999999,0.0,-0.18173028430864524,0.0,0.0,0.0,0.0,-5.693051368835424,-12.16497329608939,-7.1272112345759835,0.01114120667330149,-0.0004112202982142836,-1.178263046360509
18174,1.0,299.94919,82283.116,0.0,-0.18174028029606448,0.0,0.0,0.0,0.0,-5.674915914570595,-12.164944925086589,-7.172151409636235,0.0014893484576122486,0.0059136371315055445,-1.176216787783559
18175,1.0,299.80723,82070.481,0.0,-0.18175027628348384,0.0,0.0,0.0,0.0,-5.674150404120044,-12.162492859844589,-7.110733052174714,0.0024672408913977177,-0.004955232942193416,-1.1913269812248188
18176,1.0,299.68043,81932.25,0.0,-0.1817602722709032,0.0,0.0,0.0,0.0,-5.645638052931095,-12.157002057552688,-7.1027182438837135,0.01018406428433889,-0.004077964551988766,-1.193726154811599
18177,1.0,300.5569,82028.546,0.0,-0.18177026825832254,0.0,0.0,0.0,0.0,-5.668833779520336,-12.159558487554989,-7.1062370588309935,-0.005454653277357365,0.015694163924393385,-1.1913151261986488
18178,1.0,300.37084,82258.954,0.0,-0.18178029723579936,0.0,0.0,0.0,0.0,-5.656859493813565,-12.197248351524689,-7.150560063255333,0.011253674394651188,0.009896023118786441,-1.2036187181879188
18179,1.0,300.69935,82249.507,0.0,-0.1817902932232185,0.0,0.0,0.0,0.0,-5.667935533306685,-12.180279452099988,-7.153581169753494,-0.0029235401394059474,0.008278244501724121,-1.201298983408979
18180,1.0,300.44532999999996,82101.125,0.0,-0.18180028921063796,0.0,0.0,0.0,0.0,-5.623884586534195,-12.190229568081987,-7.142577577642523,-0.001041644002252259,0.0038552379945073663,-1.183076693610579
18181,1.0,300.40223,82042.68,0.0,-0.1818102851980572,0.0,0.0,0.0,0.0,-5.652962331278944,-12.178971346220887,-7.106992943405593,0.006653276469902264,-0.002396688996209788,-1.193739631037929
18182,1.0,300.03827,82317.572,0.0,-0.18182028118547644,0.0,0.0,0.0,0.0,-5.669626242423545,-12.199537283500588,-7.153322588327972,0.0015302503243989486,-0.008524511594803792,-1.1916605431577387
18183,1.0,300.08063,82425.629,0.0,-0.1818302771728958,0.0,0.0,0.0,0.0,-5.687575359994985,-12.219940087514189,-7.147817397884653,-0.022958915855368578,-0.0019947125178627983,-1.2035722100083288
18184,1.0,299.89472,82113.011,0.0,-0.18184027316031515,0.0,0.0,0.0,0.0,-5.6344823719801145,-12.179613746784288,-7.146208964675914,-0.011161957022099388,-0.01125434820596769,-1.193139989628749
18185,1.0,299.44734,82030.29400000001,0.0,-0.1818502691477345,0.0,0.0,0.0,0.0,-5.651079205968094,-12.166677582757588,-7.1174043921581225,-0.016526894399827484,0.008967088295382711,-1.166402345989949
18186,1.0,300.05525,82286.425,0.0,-0.18186029812521132,0.0,0.0,0.0,0.0,-5.689687682478454,-12.159457162544989,-7.163873358969252,0.003999409095585946,0.005355653676336865,-1.1717210984148687
18187,1.0,300.57139,82299.52,0.0,-0.18187029411263045,0.0,0.0,0.0,0.0,-5.719499628245665,-12.155942197948088,-7.141556930816792,0.011029725857549189,-0.005219145177814526,-1.162583001063009
18188,1.0,300.22825,82065.147,0.0,-0.1818802901000499,0.0,0.0,0.0,0.0,-5.6560527440839445,-12.17680299100689,-7.112899786188553,0.009912661597353531,-0.008748720537181492,-1.1963858349990888
18189,1.0,300.12345,82181.959,0.0,-0.18189028608746916,0.0,0.0,0.0,0.0,-5.684270948768865,-12.16709200204849,-7.129900400341384,-0.00013181487074661488,0.0014617453970630387,-1.1684938968463687
18190,1.0,299.83554,82396.083,0.0,-0.1819002820748884,0.0,0.0,0.0,0.0,-5.678657948514904,-12.180409148112789,-7.187284502529753,0.020835593528812982,-0.0027775089137937873,-1.197953130253769
18191,1.0,299.2983,82426.80900000001,0.0,-0.18191027806230786,0.0,0.0,0.0,0.0,-5.685264136516885,-12.207444687280988,-7.162982306831313,-0.01048267516830949,0.021549070546977682,-1.153277312144609
18192,1.0,299.56808,82409.97,0.0,-0.181920274049727,0.0,0.0,0.0,0.0,-5.667520708715744,-12.202487867791788,-7.180564323891522,-0.005191325991018985,0.005766819421165764,-1.1995938861406987
18193,1.0,299.52396,82351.781,0.0,-0.18193027003714646,0.0,0.0,0.0,0.0,-5.6887932866151845,-12.201315537426089,-7.142776073337113,-0.005076350880971825,0.0036170868320786766,-1.1614281999240388
18194,1.0,299.63631000000004,82251.429,0.0,-0.1819402660245657,0.0,0.0,0.0,0.0,-5.657897467216004,-12.191342116691787,-7.153140304634984,-0.017308520593217983,-0.003031766497162057,-1.2048578217352088
18195,1.0,300.27288,82354.99,0.0,-0.18195029500204252,0.0,0.0,0.0,0.0,-5.694722826200385,-12.191927775249589,-7.147209751799683,0.005903267327332124,-0.007060929681934503,-1.159715401954999
18196,1.0,299.73977,82344.103,0.0,-0.18196029098946187,0.0,0.0,0.0,0.0,-5.657063562383705,-12.193978593451988,-7.179509023912373,-0.0035915230386807263,-0.03398511357606957,-1.2000928104899387
18197,1.0,299.68997,82170.89,0.0,-0.1819702869768811,0.0,0.0,0.0,0.0,-5.6622191815425245,-12.176662149242988,-7.139017118116134,-0.007428059070792353,-0.008116497767060962,-1.170990545092769
18198,1.0,299.45485,82278.495,0.0,-0.18198028296430035,0.0,0.0,0.0,0.0,-5.662026056073465,-12.197541180803588,-7.151040850427784,-0.002051795279471428,-0.02122420128666558,-1.1847056957963489
18199,1.0,300.00708,82507.62700000001,0.0,-0.1819902789517197,0.0,0.0,0.0,0.0,-5.731037101834325,-12.204298545720489,-7.144922643673963,0.0064076753861133234,0.016344013902528584,-1.1918384698752988
18200,1.0,299.93334,82378.026,0.0,-0.18200027493913895,0.0,0.0,0.0,0.0,-5.688551119841285,-12.216014756626787,-7.136296845572664,-0.009480837202860781,-0.000970053079881785,-1.1902944793729189
18201,1.0,300.37624,82353.98599999999,0.0,-0.1820102709265583,0.0,0.0,0.0,0.0,-5.684289288595674,-12.215191997545588,-7.134073876178273,0.007408849166121482,0.004219361272968535,-1.2056184685852789
18202,1.0,299.51533,82474.689,0.0,-0.18202026691397766,0.0,0.0,0.0,0.0,-5.674289118058735,-12.211364951917888,-7.184591891714013,-0.005280641454208735,0.005677626155938074,-1.1770979100705188
18203,1.0,300.30397,82477.315,0.0,-0.18203029589145447,0.0,0.0,0.0,0.0,-5.691110792243904,-12.212406573020688,-7.167526834854822,0.017944309699715482,0.018475384474628483,-1.189123567557359
18204,1.0,300.68889,82416.05,0.0,-0.18204029187887383,0.0,0.0,0.0,0.0,-5.658174692443365,-12.21568646359439,-7.178560115193722,0.02310257040154618,0.0014737927381020186,-1.1836062181128388
18205,1.0,300.2675,82424.337,0.0,-0.18205028786629307,0.0,0.0,0.0,0.0,-5.692974564477845,-12.209259418210088,-7.1527066335921825,0.01073994240844979,0.015155591098740385,-1.197424315026579
18206,1.0,299.32861,82459.828,0.0,-0.1820602838537123,0.0,0.0,0.0,0.0,-5.663447139338715,-12.224749985738889,-7.177531970317252,0.006179076639002384,-0.00857192440408307,-1.1951990151569591
18207,1.0,299.74691,82366.905,0.0,-0.18207027984113167,0.0,0.0,0.0,0.0,-5.688222826808885,-12.19014141532329,-7.159118074924943,-0.004707701312988945,-0.008761540582746731,-1.182096576788849
18208,1.0,299.42776000000003,82393.369,0.0,-0.18208027582855102,0.0,0.0,0.0,0.0,-5.654328699038794,-12.20400065019109,-7.187197666996184,-0.006645946416028843,-0.024474425923937775,-1.179995501381489
18209,1.0,299.64479,82458.384,0.0,-0.18209027181597037,0.0,0.0,0.0,0.0,-5.7015933711534545,-12.205283424817688,-7.158412751530333,-0.014871303518183386,-0.009543023603898101,-1.1871870439662389
18210,1.0,300.03695,82490.716,0.0,-0.18210026780338961,0.0,0.0,0.0,0.0,-5.680987714469835,-12.219745543494989,-7.174384207556593,0.0002796859153603508,-0.006144578310197665,-1.1991196850938988
18211,1.0,299.76017,82530.745,0.0,-0.18211029678086632,0.0,0.0,0.0,0.0,-5.725232394661444,-12.23038061654459,-7.131672777416303,-0.01071285620677659,0.005015008213292775,-1.1870802474056987
18212,1.0,299.79501,82510.745,0.0,-0.18212029276828579,0.0,0.0,0.0,0.0,-5.687143918102404,-12.211549363436088,-7.1825134117838845,-0.0025769172100469275,0.01038180510760439,-1.2041109550864988
18213,1.0,299.40921000000003,82474.01400000001,0.0,-0.18213028875570492,0.0,0.0,0.0,0.0,-5.691220932529774,-12.230060429512989,-7.148759112527593,0.014879339604726484,0.009952777283387641,-1.1852771688527488
18214,1.0,299.75925,82588.867,0.0,-0.18214028474312427,0.0,0.0,0.0,0.0,-5.663080140152495,-12.236431746141788,-7.205441741671733,0.015185595460701586,0.0037736275890530462,-1.196506614411009
18215,1.0,300.62458,82671.975,0.0,-0.18215028073054362,0.0,0.0,0.0,0.0,-5.716507804675395,-12.217937905316589,-7.195769864167193,-0.007529943293522543,0.008039694220081044,-1.1648548091122188
18216,1.0,300.48292999999995,82473.66,0.0,-0.18216027671796287,0.0,0.0,0.0,0.0,-5.661918651562865,-12.234214754922988,-7.173800372848973,0.005787342295316214,-0.011972668559610386,-1.1813702791171687
18217,1.0,300.09983,82487.583,0.0,-0.18217027270538233,0.0,0.0,0.0,0.0,-5.708364617596724,-12.212939542573288,-7.152861660857484,-0.014759786225427488,0.01239105675115209,-1.168269765924249
18218,1.0,300.25726000000003,82735.87700000001,0.0,-0.18218026869280146,0.0,0.0,0.0,0.0,-5.704276964043304,-12.239276952422587,-7.206086776685392,-0.0007970554896857522,0.008372707174096862,-1.188159156112179
18219,1.0,299.81136000000004,82615.547,0.0,-0.18219029767027828,0.0,0.0,0.0,0.0,-5.696065382582885,-12.22603782661599,-7.190960472567544,-0.004035560643253826,-0.0023337376926719777,-1.1677354791465189
18220,1.0,299.71937,82507.182,0.0,-0.18220029365769763,0.0,0.0,0.0,0.0,-5.669213241682785,-12.222787320295188,-7.188122764337484,0.003777631244173176,0.0009742662447250921,-1.1966830212534187
18221,1.0,300.55379,82631.491,0.0,-0.18221028964511699,0.0,0.0,0.0,0.0,-5.709096994769005,-12.227117951222588,-7.181694705703084,0.009319315207069802,-0.01034240690396609,-1.175545509592309
18222,1.0,299.62671,82566.64,0.0,-0.18222028563253623,0.0,0.0,0.0,0.0,-5.702316831724854,-12.230707896326889,-7.165172345597453,0.015141357974585686,-0.016827375743482684,-1.202729489900159
18223,1.0,299.1813,82593.728,0.0,-0.18223028161995558,0.0,0.0,0.0,0.0,-5.702109520754394,-12.249252399657088,-7.155069431500373,-0.018774188889368184,-0.003959212248218827,-1.186197706568599
18224,1.0,300.1871,82731.849,0.0,-0.18224027760737482,0.0,0.0,0.0,0.0,-5.712441429374074,-12.253250684551688,-7.182723965154664,0.002200773745649458,-0.0027851869177515473,-1.206224594795099
18225,1.0,300.59503,82705.945,0.0,-0.1822502735947943,0.0,0.0,0.0,0.0,-5.684508555917315,-12.243934863132289,-7.212098490853703,-0.0057583645583563344,0.016830918065832284,-1.176467972483349
18226,1.0,300.28,82603.994,0.0,-0.18226026958221353,0.0,0.0,0.0,0.0,-5.657247872576895,-12.250769235056788,-7.201534041336072,-0.008512069998150903,0.019322038019686683,-1.2002209866275886
18227,1.0,300.08832,82658.52799999999,0.0,-0.18227029855969024,0.0,0.0,0.0,0.0,-5.693943636873485,-12.240945775337288,-7.191238812370014,0.013495649321166887,-0.013207544827483188,-1.171350046228249
18228,1.0,299.9805,82606.709,0.0,-0.1822802945471096,0.0,0.0,0.0,0.0,-5.694521898705554,-12.243372509326788,-7.172482033143863,-0.0041109867780478055,-0.013082435797885886,-1.1987502541074386
18229,1.0,300.16106,82545.246,0.0,-0.18229029053452894,0.0,0.0,0.0,0.0,-5.710867750643764,-12.238125900308988,-7.142699674279573,-0.00034328461478455363,-0.006975133945617123,-1.167413974889789
18230,1.0,300.33263999999997,82615.606,0.0,-0.18230028652194807,0.0,0.0,0.0,0.0,-5.690874299670565,-12.247197528454288,-7.1750094841933025,-0.006697853901426714,-0.010645303835859689,-1.207712147266909
18231,1.0,299.74822,82784.057,0.0,-0.18231028250936754,0.0,0.0,0.0,0.0,-5.7198040085757045,-12.252603217737787,-7.191878983783194,0.014216186666028387,0.0071252407671065126,-1.1715997110528888
18232,1.0,299.71207999999996,82702.038,0.0,-0.18232027849678678,0.0,0.0,0.0,0.0,-5.676736421025264,-12.255139382738088,-7.2074781717227125,-0.003796110392871926,0.005087392469961545,-1.2132668856401188
18233,1.0,299.77018,82761.36099999999,0.0,-0.18233027448420613,0.0,0.0,0.0,0.0,-5.712318015511895,-12.260076950475387,-7.184991821528484,0.023046516392764078,-0.008558963618078941,-1.1845394214549387
18234,1.0,299.97847,82770.88799999999,0.0,-0.1823402704716255,0.0,0.0,0.0,0.0,-5.712542450409044,-12.241911402682588,-7.205829917785044,-0.02233924654471198,-0.014564806508684486,-1.204137096939079
18235,1.0,300.16247999999996,82653.878,0.0,-0.18235026645904462,0.0,0.0,0.0,0.0,-5.719435590839344,-12.238449127090888,-7.166830326736083,0.0028533865528323275,-0.014608291149976088,-1.1709178950605987
18236,1.0,299.93284,82694.98700000001,0.0,-0.18236029543652166,0.0,0.0,0.0,0.0,-5.696337440234735,-12.238382252584287,-7.2024918666556035,-0.020229845261280282,0.003169629103118037,-1.188896700859969
18237,1.0,299.92825,82863.273,0.0,-0.1823702914239408,0.0,0.0,0.0,0.0,-5.745561738042794,-12.225853415097788,-7.216951249557634,-0.00974382859679101,0.005119815155936415,-1.174683132432199
18238,1.0,299.7447,82733.796,0.0,-0.18238028741136014,0.0,0.0,0.0,0.0,-5.716073627007544,-12.249585758939988,-7.183349140466364,-0.024750734159957277,-0.000905999147452654,-1.1898958667835788
18239,1.0,299.66188,82548.93,0.0,-0.1823902833987795,0.0,0.0,0.0,0.0,-5.713924219570415,-12.234799400230688,-7.144089752091763,-0.013531636924968587,-0.017201405872146587,-1.183796101181579
18240,1.0,300.31561,82869.353,0.0,-0.18240027938619874,0.0,0.0,0.0,0.0,-5.744808994543504,-12.264860504197488,-7.180544160214533,0.003165721301457367,0.004173291526696806,-1.168736164945279
18241,1.0,300.74529,82989.217,0.0,-0.1824102753736181,0.0,0.0,0.0,0.0,-5.758436296463415,-12.26462036392379,-7.203592661564244,0.001063730625282039,-0.0055686839369863145,-1.1798436151914988
18242,1.0,300.16427000000004,82701.12400000001,0.0,-0.18242027136103744,0.0,0.0,0.0,0.0,-5.692709498251685,-12.260128626230488,-7.186238321801503,0.0023648229898398576,0.006729917998191193,-1.161441372175339
18243,1.0,300.28935,82663.662,0.0,-0.18243026734845658,0.0,0.0,0.0,0.0,-5.680675734764044,-12.26414210987659,-7.1828714943692225,0.0008400267982116901,0.01098062071795289,-1.200324540787809
18244,1.0,300.3986,82836.007,0.0,-0.18244029632593362,0.0,0.0,0.0,0.0,-5.7171782722665645,-12.266345928844089,-7.196553005169484,0.01816456797995328,0.02245074357246588,-1.168531285775059
18245,1.0,300.06237000000004,82926.545,0.0,-0.18245029231335275,0.0,0.0,0.0,0.0,-5.737787475325535,-12.283171960004688,-7.186639670166114,0.015160238876949086,-0.017505935149951284,-1.2182669709085887
18246,1.0,299.57686,82784.329,0.0,-0.1824602883007721,0.0,0.0,0.0,0.0,-5.698137985662435,-12.289345692863987,-7.176885415428443,0.0060869548783356745,-0.005386821654712905,-1.172424699284309
18247,1.0,299.56796,82668.47200000001,0.0,-0.18247028428819145,0.0,0.0,0.0,0.0,-5.697816988030754,-12.259131588132089,-7.172203085391334,-0.0027839104252755675,-0.004869599629867065,-1.2064011029625188
18248,1.0,299.82297,82760.90400000001,0.0,-0.1824802802756107,0.0,0.0,0.0,0.0,-5.672465673178774,-12.282539691942288,-7.202243316406072,0.018140484038326382,0.013154253951723788,-1.190130028881689
18249,1.0,300.26751,82885.02799999999,0.0,-0.18249027626303016,0.0,0.0,0.0,0.0,-5.732161100170254,-12.271406099843489,-7.191412078137113,0.0013155649197111486,0.011981176820700089,-1.205342864558079
18250,1.0,300.15303,82803.633,0.0,-0.1825002722504493,0.0,0.0,0.0,0.0,-5.718904647786944,-12.258958322364988,-7.192374159107063,0.004324092829804736,0.007201846730316932,-1.182576857336249
18251,1.0,299.6551,82629.57400000001,0.0,-0.18251026823786864,0.0,0.0,0.0,0.0,-5.736930975016004,-12.248280692811187,-7.132115567710002,-0.015721422378583587,-0.0077699879164131016,-1.1803639191178488
18252,1.0,300.43934,82868.035,0.0,-0.18252029721534546,0.0,0.0,0.0,0.0,-5.724822231020965,-12.268696669076089,-7.196294727718993,-0.009264044744590031,0.003101386506233017,-1.1809816977038188
18253,1.0,299.97339,83170.667,0.0,-0.1825302932027647,0.0,0.0,0.0,0.0,-5.785737003182785,-12.278740004067288,-7.217329090519923,-0.0011396212339218588,-0.02153088777393318,-1.1629074437450289
18254,1.0,299.42573,82967.925,0.0,-0.18254028919018395,0.0,0.0,0.0,0.0,-5.707261086912815,-12.283550915542088,-7.229365083157784,0.002906020741201917,0.0032041248987975074,-1.172513561318079
18255,1.0,299.08456,82704.026,0.0,-0.1825502851776034,0.0,0.0,0.0,0.0,-5.692007214607374,-12.272865179987487,-7.175085984575853,-0.006209166721922045,0.0006851782195668254,-1.182028993007179
18256,1.0,299.5678,82915.642,0.0,-0.18256028116502265,0.0,0.0,0.0,0.0,-5.721706588288474,-12.277476481192588,-7.205101694938173,0.003355411143403297,0.013927759958812886,-1.1899129907102688
18257,1.0,299.802,83174.832,0.0,-0.18257027715244212,0.0,0.0,0.0,0.0,-5.789869138415594,-12.287259410908089,-7.205943807096284,0.0033158093778199067,0.0012390011077048888,-1.167346796408159
18258,1.0,300.10592,82981.405,0.0,-0.18258027313986125,0.0,0.0,0.0,0.0,-5.738901847785515,-12.27077281853099,-7.214600813300662,0.003738566501142786,0.0012343465407205188,-1.182122515991409
18259,1.0,300.3679,82825.297,0.0,-0.1825902691272806,0.0,0.0,0.0,0.0,-5.738819065252344,-12.250000178230888,-7.188002694200633,0.008411601995085482,-0.01071550382928789,-1.161686680024549
18260,1.0,300.00959,82857.90299999999,0.0,-0.18260029810475742,0.0,0.0,0.0,0.0,-5.706753853912755,-12.262134861428489,-7.2178445308457935,-0.013010789896564987,0.014228232183217187,-1.183837644435679
18261,1.0,299.94473,82965.583,0.0,-0.18261029409217677,0.0,0.0,0.0,0.0,-5.726604639271874,-12.283223635759787,-7.209637711660844,0.01161099096291559,-0.0008083572813011522,-1.2108252568741489
18262,1.0,300.03281,82984.24,0.0,-0.1826202900795959,0.0,0.0,0.0,0.0,-5.727587086568835,-12.302273750889889,-7.195276208718473,-0.006613179934295045,0.0015894644575929285,-1.2007991471346489
18263,1.0,300.37403,82994.723,0.0,-0.18263028606701537,0.0,0.0,0.0,0.0,-5.731228302128194,-12.308848730788789,-7.188246178199663,0.017134800890073184,-0.0077757684069085925,-1.210144859431999
18264,1.0,299.89369,82765.878,0.0,-0.1826402820544346,0.0,0.0,0.0,0.0,-5.695494821451574,-12.293777648801388,-7.169487473798323,-0.016426085134128382,-0.01106614510589349,-1.1937825928421688
18265,1.0,300.09844,82834.393,0.0,-0.18265027804185396,0.0,0.0,0.0,0.0,-5.698143457212974,-12.307372425393089,-7.174071011950684,0.002086151955912168,-0.02557264008457308,-1.2040732621827788
18266,1.0,299.74548,83102.091,0.0,-0.1826602740292732,0.0,0.0,0.0,0.0,-5.722212301413386,-12.307610539166589,-7.231137460232702,-0.028815732454391372,-0.0008572212775061533,-1.180940458424749
18267,1.0,298.67991,83078.225,0.0,-0.18267027001669245,0.0,0.0,0.0,0.0,-5.7351316454884245,-12.304431973602888,-7.214142418955424,0.004989055635831455,0.013715837687147786,-1.186518501550259
18268,1.0,298.8224,82970.232,0.0,-0.18268029899416938,0.0,0.0,0.0,0.0,-5.724217422036274,-12.297117321130989,-7.199544423439714,0.008630217087636113,0.02161446570843168,-1.1825980342633389
18269,1.0,299.45592999999997,82951.417,0.0,-0.18269029498158862,0.0,0.0,0.0,0.0,-5.741885565354985,-12.279665101408588,-7.193609209653952,0.008427029335808042,0.016019677611769086,-1.181267940857069
18270,1.0,299.86796,82995.068,0.0,-0.18270029096900786,0.0,0.0,0.0,0.0,-5.727165371877215,-12.283787002815387,-7.217475606484383,0.011985912751667488,0.007912749991902623,-1.1682746295247288
18271,1.0,300.13094,82988.9,0.0,-0.18271028695642721,0.0,0.0,0.0,0.0,-5.735831598657504,-12.28413657409989,-7.206584890434552,0.013835154979173486,-0.006466718482690425,-1.1844431626954388
18272,1.0,299.88531,83036.93,0.0,-0.18272028294384657,0.0,0.0,0.0,0.0,-5.718929573739405,-12.291863619362488,-7.230359892105964,0.023731709547637377,0.002888530321950747,-1.1973496384942088
18273,1.0,299.71839,83032.943,0.0,-0.18273027893126592,0.0,0.0,0.0,0.0,-5.763843404297054,-12.297447640663588,-7.178650091802603,0.0037996190753182067,-0.01091851760607379,-1.189572133376629
18274,1.0,299.89895,83174.413,0.0,-0.18274027491868527,0.0,0.0,0.0,0.0,-5.745723452758754,-12.310462838198088,-7.226758497275534,-0.001160352128317839,-0.00012873152029481188,-1.1829520638482791
18275,1.0,299.775,83375.446,0.0,-0.1827502709061044,0.0,0.0,0.0,0.0,-5.816677810886404,-12.324150833798988,-7.203225459728002,-0.021572043966494977,0.0006877639932920213,-1.177596733094749
18276,1.0,300.31592,83264.734,0.0,-0.18276026689352376,0.0,0.0,0.0,0.0,-5.745057443468024,-12.304773438886588,-7.260569031912373,-0.0025574537902010377,0.004236651879299986,-1.182375929841419
18277,1.0,299.76833,82897.329,0.0,-0.18277029587100058,0.0,0.0,0.0,0.0,-5.719726089643015,-12.301762059589388,-7.177229819137434,-0.019127245754212183,-0.0018637236992602082,-1.2013255305615989
18278,1.0,300.1621,82903.631,0.0,-0.18278029185841982,0.0,0.0,0.0,0.0,-5.6687394459360245,-12.304963929905387,-7.226929939192453,-0.0004268054830374215,0.0018446283931756484,-1.1774366395789488
18279,1.0,300.02067,83254.088,0.0,-0.18279028784583928,0.0,0.0,0.0,0.0,-5.7809203161824145,-12.320085674397788,-7.206157906842413,-0.012888180554964388,-0.00915424784917892,-1.200819209486629
18280,1.0,299.55644,83151.008,0.0,-0.18280028383325853,0.0,0.0,0.0,0.0,-5.734297841981134,-12.31508832490459,-7.226443579144453,0.008786309684091253,-0.004868089076617985,-1.1784876839076788
18281,1.0,299.17196,82878.253,0.0,-0.18281027982067788,0.0,0.0,0.0,0.0,-5.715539948179874,-12.299815606147288,-7.177563786370393,-0.006164705611509074,-0.0024102378725719574,-1.1971026081198288
18282,1.0,299.6621,83114.451,0.0,-0.18282027580809712,0.0,0.0,0.0,0.0,-5.699757260647244,-12.316920281085388,-7.2480397891258335,0.02075773235137868,0.007500391449056003,-1.1689737720937288
18283,1.0,299.35859,83401.244,0.0,-0.18283027179551636,0.0,0.0,0.0,0.0,-5.751341113963174,-12.347411003094589,-7.253143732529552,-0.008926946670146043,0.014879960727037785,-1.202806598232769
18284,1.0,299.62667999999996,83379.012,0.0,-0.18284026778293572,0.0,0.0,0.0,0.0,-5.741576726724504,-12.343428930201588,-7.260132118469253,0.00898912040555711,0.008835618081657611,-1.1896429595586189
18285,1.0,299.14159,83138.311,0.0,-0.18285029676041253,0.0,0.0,0.0,0.0,-5.755934683291525,-12.322869072422488,-7.193166723335284,-0.007346080551576702,-0.001205182467067249,-1.2026743690947188
18286,1.0,299.40021,83086.527,0.0,-0.18286029274783178,0.0,0.0,0.0,0.0,-5.729605379443025,-12.319018722042488,-7.207605334610263,-0.002005687840295978,-0.0037591595935251667,-1.1714492434130388
18287,1.0,299.95692,83184.36200000001,0.0,-0.18287028873525124,0.0,0.0,0.0,0.0,-5.752023335255505,-12.318769462517887,-7.215175630082394,-0.013018715538847186,-0.005678885119187324,-1.200981126852609
18288,1.0,300.07903999999996,83264.733,0.0,-0.18288028472267037,0.0,0.0,0.0,0.0,-5.736454544818985,-12.318771489018088,-7.255173677779894,0.0007489035549885264,1.990301232227438e-06,-1.190588119251899
18289,1.0,300.31528,83023.20599999999,0.0,-0.18289028071008984,0.0,0.0,0.0,0.0,-5.7099854124566845,-12.306895184595989,-7.220101444118534,0.01283364946108259,0.00959771458864568,-1.1855329131779888
18290,1.0,300.01971000000003,83047.24799999999,0.0,-0.18290027669750908,0.0,0.0,0.0,0.0,-5.703503955542015,-12.300947406508987,-7.2398388467914625,0.02175019663882728,-0.004951875740637085,-1.1772912381895988
18291,1.0,300.29017000000005,83534.27,0.0,-0.18291027268492832,0.0,0.0,0.0,0.0,-5.809262036054524,-12.342368057346889,-7.240701730576623,0.0035416426614329165,0.003238708340610627,-1.173166398357509
18292,1.0,299.74812000000003,83722.827,0.0,-0.18292026867234779,0.0,0.0,0.0,0.0,-5.807740742354385,-12.346782788032588,-7.295125419947823,-0.0008120523916333312,-0.011854864049983989,-1.192827503297909
18293,1.0,299.96184,83301.416,0.0,-0.1829302976498245,0.0,0.0,0.0,0.0,-5.765587511694185,-12.33677795654519,-7.219184554103043,-0.007883924343782753,0.007684693637570213,-1.1759744183596388
18294,1.0,299.98546,83129.303,0.0,-0.18294029363724373,0.0,0.0,0.0,0.0,-5.710256456858435,-12.341890816549787,-7.217084795920813,-0.003354880605650937,0.003155115106035617,-1.199765429382629
18295,1.0,299.80821000000003,83393.588,0.0,-0.1829502896246632,0.0,0.0,0.0,0.0,-5.774673831965935,-12.339739686587489,-7.235155199529222,0.0007092935212843203,0.016889292417343382,-1.191986911014949
18296,1.0,299.87835,83267.557,0.0,-0.18296028561208233,0.0,0.0,0.0,0.0,-5.7352804919281155,-12.338104300926089,-7.237873040272453,-0.005409396360315855,0.0009656644910486649,-1.2313293858977488
18297,1.0,300.49162,83043.407,0.0,-0.1829702815995018,0.0,0.0,0.0,0.0,-5.723788614593954,-12.336054495973789,-7.183279428859484,0.008560283072359162,-0.0036848063892620767,-1.1885452044002789
18298,1.0,299.71884,83075.42599999999,0.0,-0.18298027758692104,0.0,0.0,0.0,0.0,-5.705368031750985,-12.309348263088088,-7.238139018423703,0.014428479787230086,-0.022660045579372377,-1.2168431518680687
18299,1.0,299.51479,83205.12400000001,0.0,-0.18299027357434028,0.0,0.0,0.0,0.0,-5.7512570142048745,-12.324072813541289,-7.2169498310074935,0.0013062526446670987,-0.01000678736406802,-1.187285531875959
18300,1.0,300.35758,83183.468,0.0,-0.18300026956175974,0.0,0.0,0.0,0.0,-5.7284618253801645,-12.32301194068659,-7.234223516062273,0.007106187308251083,-0.016497988400974682,-1.1993526312918887
18301,1.0,300.51094,83326.43400000001,0.0,-0.18301029853923645,0.0,0.0,0.0,0.0,-5.759017294070754,-12.341537192264889,-7.228600991257373,-0.017507838033639086,0.0035623354576251364,-1.168972454868599
18302,1.0,300.44726,83530.511,0.0,-0.1830202945266557,0.0,0.0,0.0,0.0,-5.777692202688825,-12.36031069011769,-7.253186593008783,0.0018779987719690482,-0.0027374789487181373,-1.183451798797599
18303,1.0,300.35469,83599.981,0.0,-0.18303029051407504,0.0,0.0,0.0,0.0,-5.796244204069764,-12.370890034411788,-7.245172595317863,-0.0039513787103707156,0.008285723604687252,-1.1883440742554288
18304,1.0,299.98221,83432.561,0.0,-0.1830402865014944,0.0,0.0,0.0,0.0,-5.751164301820724,-12.363066730389688,-7.247184302066404,0.006279049162768904,0.004609974252769036,-1.201399295168879
18305,1.0,299.86362,83319.872,0.0,-0.18305028248891375,0.0,0.0,0.0,0.0,-5.7555713318056645,-12.346022850457588,-7.2255662058828625,-0.006193662171541864,0.0068763599953938935,-1.1827602556043488
18306,1.0,300.02778,83360.769,0.0,-0.183060278476333,0.0,0.0,0.0,0.0,-5.756260645848695,-12.34460835331799,-7.238723562406393,0.0032503150191811165,-0.00031181107057585674,-1.199046832411709
18307,1.0,300.27288,83378.646,0.0,-0.18307027446375224,0.0,0.0,0.0,0.0,-5.778457206514324,-12.333402820462089,-7.233165986932903,-0.011242987645846489,0.011212057173293889,-1.205776839575909
18308,1.0,299.53696,83227.178,0.0,-0.1830802704511716,0.0,0.0,0.0,0.0,-5.756796553826585,-12.317005394093789,-7.225181981444942,0.015461712192452183,-7.937460020766311e-05,-1.1732996407456588
18309,1.0,299.73522,83195.22099999999,0.0,-0.1830902994286484,0.0,0.0,0.0,0.0,-5.730207655302465,-12.326475229528388,-7.232586711850734,-0.012645147452228887,0.006960289426352083,-1.1746254785015091
18310,1.0,300.14585,83451.11,0.0,-0.18310029541606765,0.0,0.0,0.0,0.0,-5.733075862360535,-12.367590892086188,-7.266387316636593,0.015982257272325984,-0.01274468610230259,-1.174474706886629
