,case,Temp,Pressure,e11,e22,e33,e12,e23,e13,s11,s22,s33,s12,s23,s13
0,0.0,300.0,-15.15538,0.0,0.0,0.0,0.0,0.0,0.0,-0.02041756706755698,-0.008226322526849822,0.03325074638059317,0.005122414243767926,0.011246325291675888,-0.012228097764069289
1,0.0,301.1281,-34.724599,-1.000967469733105e-05,0.0,0.0,0.0,0.0,-1.5276178857159817e-06,-0.005199447899845555,0.013153146469364487,0.0026017120479439873,0.0048465430225165555,0.012180007901073188,-0.00992268446469271
2,0.0,300.66407000000004,-83.551161,-1.9986314164999186e-05,0.0,0.0,0.0,0.0,-3.0501941282734535e-06,0.027186024033301677,-0.0028055381473350576,0.0010169807855431889,0.015904244107376685,-0.0019151381371594182,-0.007852456038077072
3,0.0,300.05497,219.21787999999998,-2.9995988862330236e-05,0.0,0.0,0.0,0.0,-4.577812013989435e-06,0.014834861978336883,-0.04006117013897966,-0.041410453488893564,-0.0015264245959963785,-0.007188675289617013,-0.001038798491996429
4,0.0,298.37973,398.85117,-4.000566355988333e-05,0.0,0.0,0.0,0.0,-6.105429899733172e-06,-0.02859768609912187,-0.028656229663399674,-0.06398687959051334,0.005328785931385225,-0.01254696047778859,0.005116474673006736
5,0.0,299.13793,412.87455,-5.001533825721438e-05,0.0,0.0,0.0,0.0,-7.633047785421399e-06,-0.05671333163542004,-0.04571593352231136,-0.023074287551504875,-0.0005482773196782585,-0.01068605878138189,0.030385751325340174
6,0.0,300.14697,320.76412,-5.9991977724771495e-05,0.0,0.0,0.0,0.0,-9.155624028006626e-06,-0.05406190436999454,-0.028597429746846575,-0.014844950909582587,-0.0009399745784107681,-0.01901884319226368,0.024189925560859776
7,0.0,300.29501,342.342,-7.000165242221357e-05,0.0,0.0,0.0,0.0,-1.0683241913694852e-05,-0.05814072339579264,-0.024456061779125376,-0.02146663353209178,-0.001877475022992358,-0.007583299118613353,0.02071215940163098
8,0.0,299.6972,381.41457,-8.001132711954462e-05,0.0,0.0,0.0,0.0,-1.2210859799410834e-05,-0.040392153350395164,-0.03264050130911667,-0.042907850698675164,-0.005866839871662015,0.013355321275067587,-0.012913369952450387
9,0.0,300.02532,320.51493,-8.998796658710173e-05,0.0,0.0,0.0,0.0,-1.3733436041968305e-05,-0.033631584536678964,-0.01930665080366808,-0.04449029910860066,0.002888464156719217,0.017536953775262584,0.007458711203542483
10,0.0,299.84812999999997,135.54506,-9.999764128443278e-05,0.0,0.0,0.0,0.0,-1.5261053927684287e-05,-0.01623781819929788,0.0012380883720148088,-0.026202582737993575,-0.007094053131678534,-0.0013741152727646186,0.006828405502611153
11,0.0,300.09837000000005,78.092378,-0.00011000731598198588,0.0,0.0,0.0,0.0,-1.6788671813428024e-05,-0.03180654682756177,0.007048943946501603,0.001019469935738849,0.0036158135820030164,-0.016694301554849283,0.012810433874791386
12,0.0,299.75786,238.71511,-0.00011998395544943197,0.0,0.0,0.0,0.0,-1.831124805595774e-05,-0.04961084258870895,-0.01035278663799049,-0.012599802483753688,0.00994145390954511,-0.005896959541484594,-0.0062200411246452645
13,0.0,298.89704,555.62005,-0.00012999363014698506,0.0,0.0,0.0,0.0,-1.9838865941701478e-05,-0.05369886293866515,-0.06588344161093944,-0.04931231681774675,0.003521126981358177,0.0015543429799767085,-0.004586880661789875
14,0.0,299.47652999999997,616.87729,-0.0001400033048443161,0.0,0.0,0.0,0.0,-2.1366483827389704e-05,-0.049499285779199154,-0.05945361688161514,-0.07856239007325422,-0.01148699144217779,-0.01011375972350037,0.002154289073461778
15,0.0,300.2125,360.68616000000003,-0.0001500129795418692,0.0,0.0,0.0,0.0,-2.289410171313344e-05,0.004736742986030136,-0.06449387852980024,-0.04988245137076465,-0.006911474988209473,-0.005005298440234495,-0.006005112337283444
16,0.0,299.81559,275.23845,-0.0001599896190093153,0.0,0.0,0.0,0.0,-2.4416677955663157e-05,-0.024595421158129075,-0.04501766741464786,-0.014052527523126485,0.005402426922153025,0.016292483042192885,0.0039836752467081364
17,0.0,300.34952999999996,369.38246000000004,-0.0001699992937068684,0.0,0.0,0.0,0.0,-2.5944295841406895e-05,-0.061885912600914035,-0.03372924968731777,-0.016667881058491783,0.00937295697133883,0.006835463802807753,0.018985580217980882
18,0.0,300.08974,188.9743,-0.00018000896840419944,0.0,0.0,0.0,0.0,-2.7471913727122876e-05,-0.029383524373178073,-0.02807569916435577,1.5755783715974784e-05,-0.013255396576705788,-0.0006642244101488453,0.007720356900014902
19,0.0,299.90695,98.461874,-0.00018998560787164553,0.0,0.0,0.0,0.0,-2.8994489969652593e-05,-0.011604712865295989,-0.009552420991950552,-0.008772816637809593,-0.001151264085520919,-0.0034394830373255464,-0.013885748583166685
20,0.0,299.53272000000004,192.23035,-0.00019999528256919863,0.0,0.0,0.0,0.0,-3.0522107855368574e-05,0.0062565513628485446,-0.02805786089634527,-0.03663191636803867,-0.002260500279419008,0.01042524111289119,-0.023809182650283377
21,0.0,299.49179,326.81576,-0.00021000495726652968,0.0,0.0,0.0,0.0,-3.2049725741084556e-05,-0.02970126744553687,-0.023154171176138775,-0.04648839081554696,-0.007718108599368012,0.02034825366796628,-0.01177093249120059
22,0.0,299.9245,605.65102,-0.00022001463196408277,0.0,0.0,0.0,0.0,-3.357734362682829e-05,-0.06235827155903224,-0.03405201037417177,-0.0876925070673266,-0.007242238729653312,-0.0016963528185919884,0.014390315722213588
23,0.0,300.40457000000004,658.9411,-0.00022999127143152887,0.0,0.0,0.0,0.0,-3.509991986935801e-05,-0.0986562966878684,-0.04686365609608275,-0.05478168887003175,0.00012793522730622387,0.00923856069397495,0.03372703370934907
24,0.0,300.5231,456.94957999999997,-0.00024000094612897094,0.0,0.0,0.0,0.0,-3.662753775510175e-05,-0.047617984318529157,-0.03729403173863437,-0.05398924420532355,5.3433575823983346e-05,0.004758900333916896,0.015243367941653287
25,0.0,300.8093,288.46972999999997,-0.000250010620826413,0.0,0.0,0.0,0.0,-3.815515564081773e-05,-0.05448317221832045,-0.021424336419917377,-0.011780084166103788,0.015007251284100385,-0.00019073136172371983,0.016172136288065585
26,0.0,300.1426,384.38783,-0.0002599872602937481,0.0,0.0,0.0,0.0,-3.9677731883347445e-05,-0.02090076374874478,-0.04569269564451796,-0.050250843775872155,-0.009311032698102382,-0.007613933316836712,0.007965287313562653
27,0.0,299.70653,386.40022999999997,-0.0002699969349913012,0.0,0.0,0.0,0.0,-4.1205349769063426e-05,-0.05999787100057885,-0.023049512573309776,-0.03440863894561826,0.0033006427463480774,0.0031065264200152865,0.012019575959739789
28,0.0,299.32703,211.9209,-0.00028000660968885427,0.0,0.0,0.0,0.0,-4.2732967654807164e-05,-0.029213608410908674,-0.025042822753034176,-0.010162229757933992,-0.004343589078953865,0.014373016503256286,0.0031610049262168973
29,0.0,299.57026,61.580216,-0.0002900162843861853,0.0,0.0,0.0,0.0,-4.4260585540523145e-05,-0.033665184923245065,0.005030549443326576,0.00991578706861199,0.01116064081021949,0.02107415819860748,0.0014946672100371685
30,0.0,299.62412,164.34447,-0.0002999929238536314,0.0,0.0,0.0,0.0,-4.578316178305286e-05,-0.025328428571971276,0.002895541809992727,-0.027523728132630477,0.002159934497718938,-0.003036747330678627,-0.0016553796189982485
31,0.0,300.4876,384.95617999999996,-0.0003100025985511845,0.0,0.0,0.0,0.0,-4.73107796687966e-05,-0.02023522865906158,-0.04014876561012466,-0.05663307209499904,-0.003344041464031197,-0.0073812021305179314,-0.033165769147706574
32,0.0,300.60077,511.00095999999996,-0.00032001227324851556,0.0,0.0,0.0,0.0,-4.883839755451258e-05,-0.024275807626085676,-0.06489143429928594,-0.06616429022065703,0.003123399871280567,0.009642395574330352,-0.026403364324809175
33,0.0,300.97193,397.22892,-0.00032998891271596165,0.0,0.0,0.0,0.0,-5.0360973797042297e-05,-0.039323965843223264,-0.043055213740218756,-0.038368493290425465,-0.004253057918294136,0.0008165520124124092,-0.02153446353353608
34,0.0,299.93647999999996,113.59881000000001,-0.00033999858741351474,0.0,0.0,0.0,0.0,-5.188859168275828e-05,-0.02213193962725238,-0.016375332449869485,0.003976069588807516,0.006949649084401962,0.003947897081702106,0.011964675029571489
35,0.0,299.68705,200.84215,-0.00035000826211106784,0.0,0.0,0.0,0.0,-5.3416209568502016e-05,-0.032563375751254967,-0.02596321354761968,-0.0025244105898649272,-0.0036855480883352765,-0.0009922947504418672,0.016157478612118987
36,0.0,298.79916000000003,483.03189000000003,-0.0003599849015782919,0.0,0.0,0.0,0.0,-5.4938785811003976e-05,-0.04058840672251386,-0.06028935670984625,-0.045951869821346455,0.02252578284837168,0.00936029620868931,0.012686391797549388
37,0.0,299.19077999999996,438.58994,-0.000369994576275845,0.0,0.0,0.0,0.0,-5.6466403696747713e-05,-0.04138861693598846,-0.03132257298354727,-0.06060920126291244,0.011296684834895989,-0.012081565587607689,0.014022899076952387
38,0.0,299.96022999999997,180.25683999999998,-0.00038000425097339807,0.0,0.0,0.0,0.0,-5.799402158249145e-05,-0.005867449442922175,-0.013257860800948987,-0.035668266886933864,0.012285364633221088,-0.017078979928814082,-0.004467839987041476
39,0.0,300.16438999999997,248.52057000000002,-0.00039001392567095117,0.0,0.0,0.0,0.0,-5.952163946823519e-05,-0.05095406771627495,-0.013561839883949385,-0.01102813910789259,0.0035269095996788764,-0.013012642117747787,0.011308027156515387
40,0.0,300.01052999999996,450.38344000000006,-0.0003999905651381752,0.0,0.0,0.0,0.0,-6.104421571073715e-05,-0.08206334446102152,-0.01134720852463229,-0.04349476771309936,0.01957277283643228,0.01078207436085789,-0.013187429786497987
41,0.0,300.76435,501.67232,-0.0004100002398357283,0.0,0.0,0.0,0.0,-6.257183359645313e-05,-0.08302947235187091,-0.031963346267286676,-0.037503040916261964,-0.0019551989050381083,0.015122855014509587,0.012202079528001489
42,0.0,300.54316,383.09077,-0.0004200099145331704,0.0,0.0,0.0,0.0,-6.409945148219687e-05,-0.03497089851885896,-0.018450825318704685,-0.06302830446590935,-0.00933821515853508,-0.017381943735214286,-0.009127531483792221
43,0.0,300.03012,367.43413,-0.00042998655400061647,0.0,0.0,0.0,0.0,-6.562202772472658e-05,-0.023476688682968778,-0.017861527166545484,-0.07035258686675973,-0.015030432419888185,-0.01223411444316309,0.015897845432995186
44,0.0,299.5808,425.19542,-0.0004399962286979475,0.0,0.0,0.0,0.0,-6.714964561044257e-05,-0.027230687084459578,-0.06320458262555664,-0.038813521853596364,-0.006863364556236344,0.0005535728686758885,-0.025817957053033976
45,0.0,299.63644,503.64311,-0.0004500059033955006,0.0,0.0,0.0,0.0,-6.86772634961863e-05,-0.07516714502866964,-0.03458790214006017,-0.043339880276313164,0.0008130025466496042,0.007339999429776543,0.028719247740119073
46,0.0,299.7915,337.70975,-0.0004600155780930537,0.0,0.0,0.0,0.0,-7.020488138193004e-05,-0.060187280881522136,-0.031237137761615467,-0.011230912744404789,-0.0053608408075737956,-0.011184812904605091,0.015895786508791986
47,0.0,299.95435,117.68948999999999,-0.00046999221756027776,0.0,0.0,0.0,0.0,-7.1727457624432e-05,-0.015869707477718185,-0.015325039952713684,-0.004579918316377746,0.012298054577473488,0.002932988392613417,0.022677954774889878
48,0.0,299.96265,136.1226,-0.00048000189225783085,0.0,0.0,0.0,0.0,-7.325507551014798e-05,-0.0022900439165597377,-0.01059858490024889,-0.028489244020419472,0.021141483601501983,0.012182761914844988,-0.012930001439591788
49,0.0,300.38554,458.52585999999997,-0.000490011566955384,0.0,0.0,0.0,0.0,-7.478269339589172e-05,-0.029749575157304472,-0.05284082958173386,-0.056790007310237346,0.011453144835837389,0.006151991349254275,-0.027140466282305473
50,0.0,301.28972000000005,491.16947999999996,-0.00049998820642283,0.0,0.0,0.0,0.0,-7.630526963842144e-05,-0.047419961811735856,-0.04090178876644226,-0.06098150683990615,-0.011690101477723189,-0.01026128508770999,-0.02835083304350937
51,0.0,300.34042999999997,247.71386,-0.0005099978811201611,0.0,0.0,0.0,0.0,-7.783288752413742e-05,-0.05240726290369415,-0.021539248100508276,-0.0013523174260133386,-0.0062796452578027335,-0.010649956680318888,-0.03440550496305897
52,0.0,300.13063,250.18026,-0.0005200075558179362,0.0,0.0,0.0,0.0,-7.936050540990891e-05,-0.04317170001146506,-0.02716892543786418,-0.005707925677653405,-0.008728251162636322,0.001137489153061439,-0.02117317907788008
53,0.0,299.68876,373.66772000000003,-0.0005299841952851603,0.0,0.0,0.0,0.0,-8.088308165241087e-05,-0.05219042940879436,-0.01245320444603559,-0.048942021528951454,0.005449568889680574,0.003372181344483387,0.012376231888938988
54,0.0,299.37214,353.41917,-0.0005399938699827134,0.0,0.0,0.0,0.0,-8.241069953815461e-05,-0.013781174080095987,-0.041598726503224666,-0.05205070120675425,-0.013319042868487188,-0.0028406348003238275,0.014005901806524886
55,0.0,300.05541,447.19365999999997,-0.0005500035446800444,0.0,0.0,0.0,0.0,-8.393831742384283e-05,-0.030722973117621368,-0.032638929758211574,-0.07257380333847673,-0.004150743368246476,0.009292241063072791,0.03676026273170546
56,0.0,300.09307,393.68303,-0.0005600132193775975,0.0,0.0,0.0,0.0,-8.546593530958657e-05,-0.03487637748328047,-0.031569854643952074,-0.05322357872750824,-0.0062758319923763945,0.02531428258732518,0.015652330880764787
57,0.0,298.89361,258.32256,-0.0005699898588449326,0.0,0.0,0.0,0.0,-8.698851155211629e-05,-0.06280491929586295,-0.01157949914980759,-0.004139190087956256,0.007605362031590793,0.021252226771181482,0.014407608861670288
58,0.0,300.00378,590.0298,-0.0005799995335423747,0.0,0.0,0.0,0.0,-8.851612943783227e-05,-0.08629325832848152,-0.03418099508540157,-0.05888007172876065,-0.019488425845107883,-0.0066153473775839525,0.00916578309361736
59,0.0,299.59729,702.80344,-0.0005900092082400388,0.0,0.0,0.0,0.0,-9.004374732360376e-05,-0.0929209262193314,-0.05261994308643405,-0.06809382745233752,0.008091889772482342,-0.004015520177475986,0.0031326578361192572
60,0.0,300.05015,459.45238,-0.0005999858477072628,0.0,0.0,0.0,0.0,-9.156632356610572e-05,-0.03445201111614877,-0.048521626088961656,-0.05668841378896085,0.017147738067349986,0.0009132398022697511,-0.023566270124309775
61,0.0,300.82576,264.47778,-0.0006099955224048159,0.0,0.0,0.0,0.0,-9.309394145184946e-05,-0.03290492716121347,-0.006126710252634224,-0.04136300399996066,0.01858011299171438,0.0027369474990406877,-0.018216657141094085
62,0.0,300.31819,268.32444,-0.000620005197102369,0.0,0.0,0.0,0.0,-9.462155933756544e-05,-0.018351146840117183,-0.036514338826434664,-0.02669844504543137,0.0004765488891367136,-0.013541668100958587,-0.01144990142226729
63,0.0,300.38943,367.55506,-0.0006300148717999221,0.0,0.0,0.0,0.0,-9.614917722330918e-05,-0.06898067865536293,-0.016613809980155384,-0.026133069728133174,-0.0056608367031060845,-0.007343552796552233,-0.0026483474917465477
64,0.0,300.56579,418.77999,-0.0006399915112671462,0.0,0.0,0.0,0.0,-9.767175346581114e-05,-0.042610021030531665,-0.040177899590249956,-0.04451074041611805,-0.007934589989858062,0.00974952508885321,0.005476410188804605
65,0.0,299.78802,292.55303,-0.0006500011859646992,0.0,0.0,0.0,0.0,-9.919937135155488e-05,-0.03461701686843357,-0.03978025465475546,-0.014531544547651785,-0.012562449018817187,-0.0051824302630910455,-0.008049323338431362
66,0.0,299.9298,342.59311,-0.0006600108606622523,0.0,0.0,0.0,0.0,-0.00010072698923729861,-0.004513024659350855,-0.030915998274921468,-0.06871072957697102,-0.010753404449278388,-0.003947231275061397,0.02031506567419088
67,0.0,299.01155,476.08543,-0.0006699875001296984,0.0,0.0,0.0,0.0,-0.00010224956547982833,-0.03541710650514626,-0.057201727302870944,-0.052099249058795545,-0.01062330212318829,0.015290584383063185,-0.015287860766794384
68,0.0,299.12671,668.6831900000001,-0.0006799971748270295,0.0,0.0,0.0,0.0,-0.00010377718336554431,-0.059688190359265744,-0.06640666369757743,-0.07716813969715243,0.022616488997323683,0.01984164482996788,0.009719049058970461
69,0.0,299.88092,517.5646,-0.0006900068495245826,0.0,0.0,0.0,0.0,-0.0001053048012512603,-0.09220570641099472,-0.027416634689811172,-0.03770437269788186,0.007964035240414082,0.007105651602923212,-0.0004356348734813146
70,0.0,300.07945,164.26674,-0.0006999834889919176,0.0,0.0,0.0,0.0,-0.00010682737749381777,-0.035396136281076664,-0.008060231077082872,-0.006476619152067545,0.006381894453218943,-0.007688068773653313,0.001841499983491898
71,0.0,300.57384,227.91796000000002,-0.0007099931636893597,0.0,0.0,0.0,0.0,-0.00010835499537950599,-0.043954429634214455,-0.0025994163271924175,-0.022727521956531774,0.01852671572469448,-0.018186728772890383,0.002057058404465858
72,0.0,300.60148,505.56619000000006,-0.0007200028383869128,0.0,0.0,0.0,0.0,-0.00010988261326524973,-0.05822339345820154,-0.02946064182503897,-0.06599546147574493,0.002252813764160408,-0.0017592589311753383,0.003328673094464457
73,0.0,299.30596,484.52672,-0.0007300125130844659,0.0,0.0,0.0,0.0,-0.00011141023115099347,-0.07027878375597593,-0.03004989742069397,-0.04695534307113155,-0.007649149634662293,-0.0029196317297952167,0.00897199272984174
74,0.0,299.53407999999996,420.26549000000006,-0.000739989152551801,0.0,0.0,0.0,0.0,-0.00011293280739352318,-0.04922145158852905,-0.02841900451023737,-0.050109758831948154,-0.025893125011702475,-0.007038558943576682,0.016466567515373686
75,0.0,299.86961,414.03545,-0.000749998827249132,0.0,0.0,0.0,0.0,-0.00011446042527923916,-0.06934291049986244,-0.04451180432872306,-0.012001723506227888,-0.015681088945102985,0.0006084959687563765,0.016827937084038083
76,0.0,299.89466,537.23146,-0.0007600085019466851,0.0,0.0,0.0,0.0,-0.00011598804316495515,-0.04933836747781775,-0.06387181896215774,-0.050094764756968356,0.0019507688742758978,0.013689617814310088,0.004699229832877876
77,0.0,299.77645,662.1,-0.0007699851414141312,0.0,0.0,0.0,0.0,-0.00011751061940751262,-0.07420549975626263,-0.06451218390610684,-0.06254418471388044,0.016642733204259883,0.004327196718836066,0.01055784515347819
78,0.0,300.13285,412.92975,-0.0007799948161116843,0.0,0.0,0.0,0.0,-0.0001190382372932286,-0.030525522083884468,-0.04385713533311226,-0.05113767572714565,0.013033384360544888,-0.0012230509299307288,-0.013225427678498087
79,0.0,299.85761,98.513538,-0.0007900044908090154,0.0,0.0,0.0,0.0,-0.00012056585517894458,-0.016262784681761882,-0.009743678027826152,-0.0039391925540680365,0.014405681659980086,-0.007382740548144763,-0.01804733798313358
80,0.0,300.48707,158.45023,-0.0008000141655065685,0.0,0.0,0.0,0.0,-0.00012209347306468832,-0.027173558017321374,-0.016331710006564287,-0.0046596440766460655,0.006770336848655223,0.009276350565729521,-0.021528482318195777
81,0.0,300.60558,435.20897,-0.0008099908049740145,0.0,0.0,0.0,0.0,-0.00012361604930721803,-0.07144271326509684,-0.032845847587632766,-0.028004098859289374,-0.01979839931569988,0.005355156170537765,-0.012629475512932187
82,0.0,300.12256,490.17942999999997,-0.0008200004796713456,0.0,0.0,0.0,0.0,-0.00012514366719293402,-0.06578008706098915,-0.034977822056792264,-0.048244399848351556,-0.02001077754990998,-0.01011572380749421,0.001115568905698079
83,0.0,299.97695,429.26652,-0.0008300101543688987,0.0,0.0,0.0,0.0,-0.00012667128507865,-0.037298816305606566,-0.05408101122713024,-0.039106474749008566,-0.008751706382576172,-0.004102346085170036,-0.0049482464814289044
84,0.0,299.74151,437.00845999999996,-0.0008399867938363448,0.0,0.0,0.0,0.0,-0.00012819386132120747,-0.04387467975859376,-0.039920428686839565,-0.049044552306570455,-0.0007706360572408572,0.0025694433759843177,0.000956605417072104
85,0.0,300.08789,574.4553099999999,-0.0008499964685338979,0.0,0.0,0.0,0.0,-0.00012972147920692345,-0.062448752766462036,-0.05713772130730404,-0.05503359500389295,0.008388000563156202,-0.003139665575135867,0.006868102209728914
86,0.0,300.6241,646.07632,-0.0008600061432312289,0.0,0.0,0.0,0.0,-0.00013124909709263943,-0.09146810897419952,-0.059768391131180945,-0.045154569662159055,0.001220801312058709,-0.01108865648336519,0.017887594038618084
87,0.0,299.62466,522.4847,-0.000870015817928782,0.0,0.0,0.0,0.0,-0.00013277671497838317,-0.06936401244644502,-0.04518709296386886,-0.04427119694672696,0.008539158631624341,0.008066530959579621,0.01010685219491865
88,0.0,299.62706000000003,304.98708,-0.0008799924573962281,0.0,0.0,0.0,0.0,-0.00013429929122091289,-0.030460233313690972,-0.035517493245553665,-0.026730730233367677,0.00027862963252860373,0.015986186656213784,0.003763187870622726
89,0.0,299.91168,336.50419,-0.0008900021320936702,0.0,0.0,0.0,0.0,-0.00013582690910665662,-0.04259237122703976,-0.02190905094975498,-0.037787449073580864,0.005034862545027245,0.015169428042105986,0.013454208405326988
90,0.0,299.93982,482.73168,-0.0009000118067911123,0.0,0.0,0.0,0.0,-0.00013735452699234485,-0.055794145595203445,-0.024478696773109276,-0.06646553454163753,-0.01128113651211149,0.009046342590379501,0.0038189326354743066
91,0.0,300.29413,484.99528,-0.0009099884462586694,0.0,0.0,0.0,0.0,-0.00013887710323493008,-0.07023832366623284,-0.03912516718685336,-0.03806296292152196,-0.01042313253943309,-0.002424762711430448,0.004057901288083676
92,0.0,300.2015,369.83055,-0.0009199981209560004,0.0,0.0,0.0,0.0,-0.0001404047211206183,-0.04875117992561686,-0.031878793586191966,-0.031789278006107466,0.002936793146738917,0.012419882703246989,-0.011537576940170189
93,0.0,300.14934,467.57547,-0.0009300077956534425,0.0,0.0,0.0,0.0,-0.00014193233900633428,-0.06469480906438053,-0.044061959787826864,-0.03337449968155667,0.0002854457051562977,-0.01055087601929039,-0.00013436467409326088
94,0.0,300.72137000000004,674.60721,-0.0009399844351209996,0.0,0.0,0.0,0.0,-0.00014345491524889176,-0.049280139034321054,-0.07067498075707752,-0.08510862609331743,0.0055542740006891645,-0.0024796040624928675,0.002758217341164857
95,0.0,299.97327,527.92904,-0.0009499941098183307,0.0,0.0,0.0,0.0,-0.00014498253313460774,-0.04768819849745875,-0.04763698681090455,-0.06515206046350773,-0.0036640945439679763,-0.00020759258306029282,0.01097306288545699
96,0.0,299.92841,343.19205,-0.0009600037845158838,0.0,0.0,0.0,0.0,-0.00014651015102035148,-0.014350826326066286,-0.05013094285178885,-0.03984004654315646,-0.004095177847337587,0.017905089828094783,0.004615793044118305
97,0.0,299.54005,338.78191,-0.0009700134592132148,0.0,0.0,0.0,0.0,-0.0001480377689060397,-0.04355834510387396,-0.04913322992882225,-0.01028966723626109,0.002348521214280998,-0.007626232146550512,-0.003008070427673437
98,0.0,299.4522,363.80572,-0.000979990098680883,0.0,0.0,0.0,0.0,-0.00014956034514862493,-0.05393824834104065,-0.040309501526488066,-0.016340103770392682,0.0002423333116864358,-0.006171449094899604,-0.004384565318297905
99,0.0,299.63084,420.09753,-0.000989999773378214,0.0,0.0,0.0,0.0,-0.00015108796303431316,-0.05604526240723675,-0.05262119546355765,-0.019032699387381183,0.01793862536665448,0.005030878546959055,-0.028670529662060972
100,0.0,299.72319,443.94527999999997,-0.001000009448075767,0.0,0.0,0.0,0.0,-0.0001526155809200569,-0.04406001637413506,-0.04598709242132266,-0.044901171010900555,0.011291626690396791,-0.0025175002241829276,-0.0002822552339039227
101,0.0,299.95541000000003,359.0588,-0.0010099860875432132,0.0,0.0,0.0,0.0,-0.0001541381571625866,-0.05455527408218635,-0.02326581512515718,-0.03132382029442037,0.004068946524773756,-0.006727797468381915,-0.00949511663254505
102,0.0,300.83387,491.9422,-0.0010199957622406552,0.0,0.0,0.0,0.0,-0.00015566577504833035,-0.060141662335519944,-0.03980536603198376,-0.049591116635762156,-0.001128859909909799,-0.017435015748952083,0.005855600800227805
103,0.0,300.18282,728.18014,-0.0010300054369380973,0.0,0.0,0.0,0.0,-0.00015719339293404633,-0.1072382869210949,-0.04756643420644155,-0.06654385877436754,0.0024403242064662475,-0.008902790483787011,0.0019236816593525981
104,0.0,300.55888,782.8834099999999,-0.0010400151116354284,0.0,0.0,0.0,0.0,-0.00015872101081973455,-0.09648773375759791,-0.07010705002302714,-0.07138222426062703,0.0003051440875678767,-0.0010664377255742092,0.006906915464084483
105,0.0,300.11662,558.4663,-0.0010499917511029855,0.0,0.0,0.0,0.0,-0.00016024358706229203,-0.07220317570364863,-0.04568321972958275,-0.051873413850007356,-0.008406251325282412,-0.004636404678977516,0.01026846497791859
106,0.0,299.50338999999997,464.12170999999995,-0.0010600014258004276,0.0,0.0,0.0,0.0,-0.000161771204948008,-0.03082353008404557,-0.05434642702457475,-0.055911453612280844,0.00914278616669774,0.002724544507216607,0.007430816428289483
107,0.0,299.55846,490.18829000000005,-0.0010700111004978696,0.0,0.0,0.0,0.0,-0.00016329882283375174,-0.05906017490753544,-0.04639963719953766,-0.04354518906457555,0.0025859053463839874,0.015951570993047486,0.024498809787594274
108,0.0,299.95179,505.01912999999996,-0.0010799877399653157,0.0,0.0,0.0,0.0,-0.00016482139907628146,-0.04076494832718717,-0.05111255523066645,-0.06163570062122004,0.01914692813740468,0.028291681529171577,0.0003990594731641036
109,0.0,299.21501,445.82048,-0.0010899974146628688,0.0,0.0,0.0,0.0,-0.0001663490169620252,-0.06691255211475473,-0.05439601649771885,-0.014209724156890589,-0.004139832893819697,-0.0029720620522446875,0.009210372785468022
110,0.0,298.65614,367.97137999999995,-0.0011000070893601999,0.0,0.0,0.0,0.0,-0.00016787663484774118,-0.05094836615796225,-0.036379024341830164,-0.024526722801349078,0.002446622771737868,-0.009321061340967132,-0.02178877512313468
111,0.0,298.77288,390.38369,-0.001109983728827868,0.0,0.0,0.0,0.0,-0.00016939921109029865,-0.05516641385350114,-0.03380804001509377,-0.02969244102391577,-0.001062571365842629,-0.016544002114515885,-0.012548400306180688
112,0.0,299.77443,600.41436,-0.001119993403525199,0.0,0.0,0.0,0.0,-0.00017092682897598688,-0.06299506378312873,-0.06212573674058284,-0.05739017256971904,0.01167918978739629,-0.005814231723819994,-0.019590822873713682
113,0.0,299.64103,701.33524,-0.0011300030782227521,0.0,0.0,0.0,0.0,-0.00017245444686173061,-0.08751048073986202,-0.03582575736322697,-0.08985216454246822,-0.017047496221706884,-0.008274410565995743,0.012083320536780887
114,0.0,300.15063,535.37994,-0.0011400127529200832,0.0,0.0,0.0,0.0,-0.0001739820647474466,-0.07014294947407014,-0.045962731862418456,-0.04663645299965955,-0.008902409096449371,-0.02297821826977358,0.006416547606638944
115,0.0,299.57399,360.36649,-0.0011499893923877513,0.0,0.0,0.0,0.0,-0.00017550464099000407,-0.05286348078771935,-0.03808659090060386,-0.018592343933671485,-0.007449981040680883,0.010340169647745291,0.009519062670833342
116,0.0,300.03581,467.48315,-0.0011599990670850824,0.0,0.0,0.0,0.0,-0.00017703225887572005,-0.05825267942584185,-0.04221645543993976,-0.04163406866671266,0.01060264600664969,0.021928868095210777,0.004894014296326605
117,0.0,301.11615,607.50356,-0.0011700087417824134,0.0,0.0,0.0,0.0,-0.00017855987676143603,-0.05800367524026704,-0.07273613512374763,-0.05392610251209195,0.007842364371056102,0.015352987416971884,0.001025552780064179
118,0.0,300.5507,378.29576000000003,-0.0011799853812499705,0.0,0.0,0.0,0.0,-0.0001800824530039935,-0.044747646395498865,-0.03297837766096247,-0.037266439925161265,-0.004193147175656406,0.0026853089302193572,0.015707652309724585
119,0.0,299.49884,218.36421,-0.0011899950559474126,0.0,0.0,0.0,0.0,-0.00018161007088968173,-0.01915166406837208,-0.02019015524161318,-0.027035447975690973,-0.006123633721355594,0.011826253920160387,0.0025668788399812177
120,0.0,299.95272,352.42722000000003,-0.0012000047306449657,0.0,0.0,0.0,0.0,-0.00018313768877542547,-0.040237949857426465,-0.02926136896762227,-0.03762975696051786,0.011461767594188389,0.009399696033527772,0.00915618214361982
121,0.0,299.79357000000005,607.4504900000001,-0.0012100144053422968,0.0,0.0,0.0,0.0,-0.00018466530666114145,-0.08749710279879173,-0.03570887592444167,-0.06144380321128125,-0.02011554761024998,0.00969351880415082,-0.004375197314498356
122,0.0,300.15903,798.58612,-0.0012199910448098539,0.0,0.0,0.0,0.0,-0.00018618788290369892,-0.10757244667157391,-0.06690595484335364,-0.06827183928290594,-0.007835296951608603,-0.011062435597277388,-0.014090642952138186
123,0.0,299.57235,573.70203,-0.001230000719507185,0.0,0.0,0.0,0.0,-0.0001877155007894149,-0.08313942214672213,-0.03641622784575187,-0.054835441787836746,-0.0028775867142456974,-0.004615876535926546,-0.0006233298995578714
124,0.0,299.6552,243.61373999999998,-0.001240010394204738,0.0,0.0,0.0,0.0,-0.00018924311867515864,-0.03402847257434877,-0.013349152608458788,-0.026674868742104577,0.00953074686303648,0.003418992992478337,0.0034285367951702368
125,0.0,300.31199,437.21729000000005,-0.0012499870336721841,0.0,0.0,0.0,0.0,-0.00019076569491768836,-0.051207491698785954,-0.04304208201892276,-0.03865356613980996,0.004374681164897415,-0.005202479240169725,0.014072713491618686
126,0.0,300.18432,719.46128,-0.0012599967083697372,0.0,0.0,0.0,0.0,-0.00019229331280340434,-0.09372419948785832,-0.04506337310015866,-0.07991069158382122,-0.0038625331925773465,-0.011210583907648489,0.009327873117414402
127,0.0,299.4295,527.69417,-0.0012700063830670683,0.0,0.0,0.0,0.0,-0.00019382093068912032,-0.06248613054940094,-0.06625734710984103,-0.03166237451058307,0.004253377396050666,0.004849307776739416,0.013016369864865688
128,0.0,299.30834,241.22365,-0.0012800160577643993,0.0,0.0,0.0,0.0,-0.0001953485485748363,-0.01833638074640988,-0.034419195998410174,-0.020570388487389284,0.004358410496116626,0.009240403998556872,-0.014170345205004185
129,0.0,299.15882999999997,358.61654,-0.0012899926972320674,0.0,0.0,0.0,0.0,-0.00019687112481739377,-0.036269402840011365,-0.03405274903349467,-0.038688320618239964,0.002356281595471888,0.007887671646627582,0.001047779231607759
130,0.0,299.49701,568.13546,-0.0013000023719293985,0.0,0.0,0.0,0.0,-0.00019839874270310975,-0.05325982167033515,-0.06371993581191804,-0.05571923601531045,-0.013334870848299287,-0.0014188254400521686,-0.01101592336468699
131,0.0,299.88459,568.49947,-0.0013100120466269516,0.0,0.0,0.0,0.0,-0.0001999263605888535,-0.06848029623922904,-0.033492223131175065,-0.07083712509107994,-0.005839815174269885,0.0077355251526868936,-0.015675633606564588
132,0.0,299.6937,381.19723999999997,-0.0013199886860943977,0.0,0.0,0.0,0.0,-0.0002014489368313832,-0.05461330798166385,-0.025824749881704377,-0.03543638561479896,-0.00035946572238900463,-0.006753155875984593,-0.012088035189496188
133,0.0,300.11566,366.08605,-0.0013299983607919508,0.0,0.0,0.0,0.0,-0.0002029765547170992,-0.062199489188861645,-0.02053444951959238,-0.028547080336127472,0.0022527176067259178,-0.01010042737868457,-0.020531775552578478
134,0.0,300.77423999999996,584.4456700000001,-0.0013400080354892818,0.0,0.0,0.0,0.0,-0.00020450417260281517,-0.08013972866292543,-0.03951492498356946,-0.058002236425125045,-0.00041347995739479454,-0.01862393707178948,0.008470473244445623
135,0.0,300.18959,689.88086,-0.001349984674956728,0.0,0.0,0.0,0.0,-0.0002060267488453449,-0.08776625039635451,-0.06395796244590944,-0.05798234227266164,0.0022907628175056877,-0.0047578230464105755,-0.008904389392444811
136,0.0,299.7506,566.5422599999999,-0.00135999434965417,0.0,0.0,0.0,0.0,-0.00020755436673108862,-0.06251955665694985,-0.03326011995726827,-0.07643502285229943,-0.0025174655710295075,-0.00040238807067011066,0.04216996549885156
137,0.0,299.45999,365.43985,-0.001370004024351723,0.0,0.0,0.0,0.0,-0.00020908198461683236,-0.04112518305573956,-0.024820156990558773,-0.04513924932064705,0.006114850768163785,-0.007981418559129682,0.011703599995555388
138,0.0,299.22933,484.42796,-0.0013800136990491652,0.0,0.0,0.0,0.0,-0.00021060960250254834,-0.07360331711583183,-0.036193684686538566,-0.037457003897968466,0.0017307068605824682,-0.005817158598058854,0.024947574203883875
139,0.0,299.16355,799.80786,-0.0013899903385165002,0.0,0.0,0.0,0.0,-0.00021213217874507806,-0.1089284184853979,-0.05832413584939403,-0.07586906491619372,0.008711262099534633,0.015717053244152384,0.0028877858871022774
140,0.0,300.25837,724.87677,-0.0014000000132140533,0.0,0.0,0.0,0.0,-0.00021365979663079404,-0.07607614689213113,-0.07941084517699022,-0.06485744583793154,0.0044839059793020655,0.007445505717639202,0.0002761029211517368
141,0.0,299.99949,412.84422,-0.0014100096879113844,0.0,0.0,0.0,0.0,-0.00021518741451651002,-0.05009044527179205,-0.03137615466208537,-0.04402773321269896,0.012769823824033489,0.0018148486687616183,-0.014426630605797587
142,0.0,300.1017,424.20462000000003,-0.0014199863273788305,0.0,0.0,0.0,0.0,-0.00021670999075903974,-0.044176635381144455,-0.024673012811036774,-0.06009796389845724,-0.0009188263161660973,-0.0039476811581057964,-0.007200256028984942
143,0.0,300.26762,534.81443,-0.0014299960020763836,0.0,0.0,0.0,0.0,-0.00021823760864478348,-0.06946191672410744,-0.04478069861376086,-0.04832761807906455,0.0017407467505233282,-0.004782468936542936,-0.002492346189125418
144,0.0,300.50855,626.62992,-0.0014400056767739366,0.0,0.0,0.0,0.0,-0.0002197652265305272,-0.10074662961766821,-0.024364719309110577,-0.06536849980411864,0.005835120887881594,-0.013624639098647187,0.002961165560669287
145,0.0,300.29261,572.9386099999999,-0.0014500153514712677,0.0,0.0,0.0,0.0,-0.0002212928444162432,-0.08172886958976142,-0.05319300289249065,-0.03923715766740596,0.007281685163996373,-0.018805274389186083,-0.007574117958132243
146,0.0,299.53842000000003,443.37262999999996,-0.0014599919909387138,0.0,0.0,0.0,0.0,-0.0002228154206587729,-0.04784727572340845,-0.04981323422993345,-0.03711369855208686,0.024963297818935675,-0.01116932740332679,-0.015998047761884383
147,0.0,299.35789,455.54749000000004,-0.0014700016656362669,0.0,0.0,0.0,0.0,-0.0002243430385444889,-0.044314763661276665,-0.043187084187733364,-0.050973214090164545,0.0049353675660328555,0.009218521038797192,-0.0030715008971835367
148,0.0,299.94136000000003,619.55259,-0.00148001134033382,0.0,0.0,0.0,0.0,-0.00022587065643023263,-0.04739170226644686,-0.07594421868936084,-0.06499259516276973,0.007250279983771923,0.027303619813407475,-0.002385040166435138
149,0.0,299.93575,599.35135,-0.001489987979801044,0.0,0.0,0.0,0.0,-0.0002273932326727346,-0.07195464065287013,-0.046923191632208455,-0.06331001433821194,-0.01973133533133118,0.007366756021192213,0.012141261217249188
150,0.0,299.84619,398.07838,-0.0014999976544987081,0.0,0.0,0.0,0.0,-0.00022892085055850608,-0.06647053999713154,-0.03268159670667247,-0.021853749785797183,-0.0014683186544367684,0.01071367288635719,0.01009454546185407
151,0.0,299.80352,401.23225,-0.0015100073291961502,0.0,0.0,0.0,0.0,-0.00023044846844422207,-0.06550111195070643,-0.03393775426639557,-0.022525719013615376,-0.007705351881934023,-0.0052062621080930654,-0.015731011777529984
152,0.0,300.34344,618.0286,-0.0015199839686634853,0.0,0.0,0.0,0.0,-0.00023197104468675178,-0.0887028288745376,-0.03718274850665157,-0.06197968484466864,0.007884541514418662,-0.006296709402736834,0.0003556852052058967
153,0.0,300.61139,642.86528,-0.0015299936433609274,0.0,0.0,0.0,0.0,-0.00023349866257246776,-0.07102379007750233,-0.053615218129660046,-0.07077598355354574,0.00014902901722551885,-0.009232754061626882,-0.01124516714681159
154,0.0,299.73495,476.68985999999995,-0.0015400033180583694,0.0,0.0,0.0,0.0,-0.00023502628045818375,-0.06499754387625814,-0.017643021808980683,-0.06226124779570674,0.005105419810440706,-0.006623803658943524,-0.003648102924264726
155,0.0,299.1024,391.95646,-0.0015500129927559225,0.0,0.0,0.0,0.0,-0.00023655389834392748,-0.05951456286188003,-0.02162774840399258,-0.03800266339482086,0.009131675068751162,0.008697750713426163,0.012043918280142188
156,0.0,299.38995,495.9073,-0.0015599896322231466,0.0,0.0,0.0,0.0,-0.00023807647458642944,-0.08277246855675661,-0.04158028636465476,-0.026390682486557574,-0.01059519659191449,0.014057573508624487,-0.0026890263421862374
157,0.0,299.90884,677.4594,-0.0015699993069209217,0.0,0.0,0.0,0.0,-0.00023960409247220094,-0.08610702802635202,-0.05524023114978636,-0.06458348226264345,0.0029877548644934473,0.0035836767338813568,0.01073532097474369
158,0.0,299.5371,613.40018,-0.0015800089816182528,0.0,0.0,0.0,0.0,-0.00024113171035791692,-0.07862241095617784,-0.06413303281143753,-0.04370289536313996,-0.010376211967052391,-0.003050514562437347,-0.017009235897930883
159,0.0,299.30098,446.64508,-0.0015899856210856989,0.0,0.0,0.0,0.0,-0.00024265428660044663,-0.04630412216561105,-0.04606351174386466,-0.04340131869612666,0.0015049602098530087,0.006509856389797804,0.0014003239998512187
160,0.0,299.87377999999995,438.71030999999994,-0.001599995295783252,0.0,0.0,0.0,0.0,-0.00024418190448619037,-0.033367564997872266,-0.038121747639323564,-0.061867668019613443,-0.008245821613099233,-0.0013350762662867686,-0.0015742907333703984
161,0.0,300.20062,599.3430400000001,-0.001610004970480805,0.0,0.0,0.0,0.0,-0.00024570952237190635,-0.06954661328671634,-0.05376246667394235,-0.058876239616882445,-0.0036747784556723966,-0.0006819094544792234,0.02107359584480198
162,0.0,299.6877,667.76599,-0.001620014645178136,0.0,0.0,0.0,0.0,-0.00024723714025762233,-0.08718861475284632,-0.05139445559398786,-0.06440111750964544,8.203526932725072e-05,0.0008533644524580142,-0.0041634619874767066
163,0.0,299.77546,521.7819900000001,-0.0016299912846455822,0.0,0.0,0.0,0.0,-0.00024875971650015205,-0.07581828994043263,-0.04302920968965236,-0.03976119744687467,0.02426239219476168,-0.006202830666396724,-0.007895100087085712
164,0.0,299.45266000000004,411.46932000000004,-0.0016400009593431353,0.0,0.0,0.0,0.0,-0.0002502873343858958,-0.06293419177012113,-0.031228592010272074,-0.03091361612393637,0.006589123755720884,0.01129678210690559,-0.012984830429002987
165,0.0,299.88125,553.38057,-0.0016500106340404663,0.0,0.0,0.0,0.0,-0.00025181495227161177,-0.06044227337518795,-0.03831702626484606,-0.06945457471388283,-0.00900963446443169,-0.01112486598893879,-0.002799400891479357
166,0.0,299.7516,686.34116,-0.0016599872735079124,0.0,0.0,0.0,0.0,-0.0002533375285141415,-0.07206743058775164,-0.06309146642414294,-0.07347167768934003,-0.016844490550921784,0.0009198603581581491,0.0015397535970868485
167,0.0,299.79124,688.00396,-0.0016699969482054655,0.0,0.0,0.0,0.0,-0.0002548651463998852,-0.08412285533602942,-0.04929906654618905,-0.07571410148565003,-0.006337148923502904,0.004167813086056126,0.004253004013388816
168,0.0,299.3507,523.24315,-0.0016800066229029076,0.0,0.0,0.0,0.0,-0.0002563927642856012,-0.08154874411948441,-0.04677097309618566,-0.03073313601612437,-0.012709205123550888,0.010367217345914689,0.01239490710153209
169,0.0,299.49072,521.99982,-0.0016900162976003497,0.0,0.0,0.0,0.0,-0.0002579203821713172,-0.07246651940463864,-0.05221391451961215,-0.03399447702024367,-0.0038794040093923666,-0.005048346168082975,-0.006542010868471204
170,0.0,299.08969,782.70116,-0.0016999929370676847,0.0,0.0,0.0,0.0,-0.0002594429584138469,-0.11355267915927689,-0.057856221006214445,-0.06651270234704264,-0.0005593855501270554,-0.0008329880942720241,0.016350630425681585
171,0.0,299.23551000000003,754.7737,-0.0017100026117652378,0.0,0.0,0.0,0.0,-0.00026097057629959064,-0.06591125532618444,-0.07966048973662822,-0.08386061303789812,0.017096949919337585,-0.0015999526093780285,-0.008833718339045121
172,0.0,299.6052,458.21252999999996,-0.001720012286462791,0.0,0.0,0.0,0.0,-0.0002624981941853344,-0.04310159830329655,-0.040268816495222765,-0.055914752754606445,0.012530888304702387,-0.0009193141251617401,0.017324233062518683
173,0.0,300.75511,307.20231,-0.001729988925930015,0.0,0.0,0.0,0.0,-0.00026402077042783634,-0.035406984136647265,-0.01052671912365629,-0.04744812915126575,-0.0024039837889797276,0.0018850973995196282,0.005904641091817704
174,0.0,299.65515,537.95692,-0.001739998600627568,0.0,0.0,0.0,0.0,-0.0002655483883135801,-0.07771527955240093,-0.03942467986341296,-0.046385512493143655,-0.004564626751168586,0.0047956846562722255,0.0043552363888533655
175,0.0,300.06642999999997,757.72717,-0.0017500082753251212,0.0,0.0,0.0,0.0,-0.00026707600619929606,-0.11286139941105289,-0.050704393772384046,-0.06676434706237803,0.0042527945745931455,0.0012213737983652088,-0.00975968981120639
176,0.0,300.25999,634.16676,-0.0017599849147925672,0.0,0.0,0.0,0.0,-0.00026859858244185353,-0.09768542982630131,-0.04928815586911225,-0.04579727217408886,0.004074338332530886,-0.0003460976098446747,-0.01936805679947838
177,0.0,299.67137,477.84716,-0.0017699945894898983,0.0,0.0,0.0,0.0,-0.00027012620032754175,-0.06057870648790285,-0.04832615291941995,-0.036348745389091865,-0.01228702028388449,-0.022329848650034477,-0.016962613221079583
178,0.0,299.81588,590.03746,-0.0017800042641874514,0.0,0.0,0.0,0.0,-0.0002716538182132855,-0.061365312805534845,-0.05165418604512125,-0.06633715372746735,0.01085733959153599,0.014430591400438486,-0.0036841451422468165
179,0.0,299.69307000000003,737.45092,-0.0017900139388850045,0.0,0.0,0.0,0.0,-0.00027318143609902923,-0.07192039381274024,-0.07812491326307863,-0.07412135845470853,0.0008797851514655342,0.008744715666161241,0.014734977809979085
180,0.0,299.46777000000003,750.26305,-0.0017999905783522285,0.0,0.0,0.0,0.0,-0.0002747040123415312,-0.08640232760899583,-0.07105155718324273,-0.07060734833940273,0.03056318965635197,0.02124239824521148,0.011444788562262689
181,0.0,299.9682,523.06126,-0.0018100002530497816,0.0,0.0,0.0,0.0,-0.0002762316302272749,-0.07202530876784452,-0.03891851482895836,-0.04805373860353475,-0.01147111786611119,-0.009188721758656232,0.024917349966650976
182,0.0,299.7761,362.49188,-0.0018200099277473347,0.0,0.0,0.0,0.0,-0.0002777592481129909,-0.054261456884438855,-0.035844966558622765,-0.02008205665469468,0.009017620192444821,0.010059719346642,-0.004681251432378546
183,0.0,300.3207,618.92008,-0.0018299865672146698,0.0,0.0,0.0,0.0,-0.0002792818243555206,-0.07339729094649863,-0.034572642593554165,-0.08016631533229933,-0.013059564716628686,-0.0025093404198026177,0.0024663646327112375
184,0.0,300.63698,902.45646,-0.0018399962419121119,0.0,0.0,0.0,0.0,-0.0002808094422412366,-0.1128444578693809,-0.07000308245676634,-0.09147669322904672,-0.0056231908141907245,-0.0012462700625972788,-0.00980484459263782
185,0.0,299.90916,717.6637900000001,-0.001850005916609665,0.0,0.0,0.0,0.0,-0.00028233706012698034,-0.08930928337739001,-0.05271744510380674,-0.07612514260071664,-0.01340563623528329,-0.025478968152578375,-0.0033406831478997572
186,0.0,300.37269,434.58199,-0.001860015591307107,0.0,0.0,0.0,0.0,-0.0002838646780127241,-0.06899020827255344,-0.03474351101091757,-0.028368353150988474,0.009628106924070172,-0.0038841684126875767,-0.005321451925836416
187,0.0,300.45572999999996,537.82469,-0.0018699922307745531,0.0,0.0,0.0,0.0,-0.0002853872542552538,-0.07967376229968813,-0.05467674757042486,-0.029134766407377572,0.017060782970268185,0.0064569559193019335,-0.01188766903522159
188,0.0,299.86435,764.2914099999999,-0.0018800019054718842,0.0,0.0,0.0,0.0,-0.0002869148721409698,-0.10909918152475091,-0.060292107683867745,-0.06293421507487344,0.002781496052937287,0.004865544197666825,-0.007077098721730264
189,0.0,299.79461000000003,728.90677,-0.0018900115801694373,0.0,0.0,0.0,0.0,-0.00028844249002668576,-0.08045878186766352,-0.062431428216252235,-0.07867924618078702,0.0006088496639687834,-0.011001027574966888,0.01042051835417509
190,0.0,299.55251,475.19046,-0.0018999882196368834,0.0,0.0,0.0,0.0,-0.0002899650662692155,-0.05693133948718574,-0.04815575262360275,-0.039358941210175066,-0.004282587369933465,-2.8325324472241875e-05,0.006537503222751334
191,0.0,299.87073,523.55577,-0.0019099978943342144,0.0,0.0,0.0,0.0,-0.00029149268415493146,-0.05005606265614875,-0.047061951167152956,-0.062029867069121246,0.004913640748113585,0.01771363824819998,0.026250611805983676
192,0.0,300.50953,705.0303,-0.0019200075690317675,0.0,0.0,0.0,0.0,-0.0002930203020406752,-0.08283013363319772,-0.07798819441383552,-0.053493279559625656,0.010928147535024189,0.007170850903132884,-0.001017552562574619
193,0.0,300.33507000000003,731.90541,-0.0019299842084992136,0.0,0.0,0.0,0.0,-0.0002945428782832049,-0.08783856402949132,-0.06619556722474385,-0.06844683669442683,-0.002649007421536677,-0.002078210608253418,0.003778697487253406
194,0.0,300.16321,622.65373,-0.0019399938831967667,0.0,0.0,0.0,0.0,-0.00029607049616894865,-0.07657230202884782,-0.04403282479445146,-0.06866605943306243,-0.012374303673998688,0.006831442213160854,-0.017265678352489783
195,0.0,300.10598999999996,550.36509,-0.0019500035578940977,0.0,0.0,0.0,0.0,-0.00029759811405466463,-0.06505471651315065,-0.057904376730467035,-0.04433815150008486,0.0062068036200388236,-0.0026026594367874875,-0.017952138069988084
196,0.0,300.93178,574.7397599999999,-0.001960013232591651,0.0,0.0,0.0,0.0,-0.0002991257319403806,-0.08118106301594713,-0.03617741796943316,-0.05734805581606245,-0.008130369667555013,-0.010916561020130689,-0.011641036868130889
197,0.0,300.67033,731.5464400000001,-0.001969989872059097,0.0,0.0,0.0,0.0,-0.00030064830818291033,-0.09550983392708672,-0.06199500113318024,-0.06486701699837615,-0.0095273800356042,-0.024957241623087975,0.007644433563396853
198,0.0,299.94292,691.27757,-0.00197999954675665,0.0,0.0,0.0,0.0,-0.00030217592606865407,-0.1018775555445319,-0.05589985392513604,-0.05235370959615886,0.006386617414585063,-0.006247041909335034,0.01103741541255809
199,0.0,300.16907000000003,557.6530799999999,-0.001990009221453981,0.0,0.0,0.0,0.0,-0.00030370354395437005,-0.08081267365058992,-0.03860264930903486,-0.050097287749717355,0.003939408984289397,0.017412807333260283,0.026186022178359174
200,0.0,300.26637,643.20772,-0.001999985860921538,0.0,0.0,0.0,0.0,-0.0003052261201969275,-0.07417076250308434,-0.07435896155015813,-0.046989361929988954,0.005514833341871675,0.01123369918217979,0.01011233478988474
201,0.0,299.7514,841.59604,-0.0020099955356188692,0.0,0.0,0.0,0.0,-0.0003067537380826435,-0.09555021093032161,-0.07234155425655553,-0.08793241530675373,-0.004220487399129676,-0.006798159379176093,0.02096317894165468
202,0.0,299.8163,871.9884900000001,-0.0020200052103163113,0.0,0.0,0.0,0.0,-0.0003082813559683595,-0.1056494702342909,-0.08283424337560333,-0.07657901683726052,-0.015580100334136185,0.007875277166104342,0.0026963352191325674
203,0.0,299.67723,718.95071,-0.0020300148850138644,0.0,0.0,0.0,0.0,-0.00030980897385407546,-0.08631636955001241,-0.07284430159842284,-0.05938239147908574,0.0034429754064452165,0.007702645997541973,-0.0034641545626854365
204,0.0,300.2754,551.29801,-0.0020399915244811995,0.0,0.0,0.0,0.0,-0.0003113315500966052,-0.08445516185207552,-0.04095100333704936,-0.04217466495281536,-0.005723165465782454,0.0015605556216398487,-0.0011288689278356888
205,0.0,300.47545,540.21019,-0.0020500011991787526,0.0,0.0,0.0,0.0,-0.0003128591679823489,-0.07656289906791983,-0.04488219688952796,-0.042765313767357864,-0.007459473572917722,-0.0011855054541002788,-0.005489577069879075
206,0.0,300.77719,644.44335,-0.0020600108738760836,0.0,0.0,0.0,0.0,-0.0003143867858680649,-0.07099448384486003,-0.06535796301632874,-0.05954224080161164,-0.002838115151300157,-8.708569894018932e-05,-0.008971559565423991
207,0.0,299.79862,597.66718,-0.0020699875133437518,0.0,0.0,0.0,0.0,-0.00031590936211062237,-0.08401912588354211,-0.03309051202302927,-0.06456626106394385,-0.00975605680297284,0.008199571710959723,-0.008861777260814321
208,0.0,300.01139,572.32419,-0.002079997188041083,0.0,0.0,0.0,0.0,-0.00031743697999633835,-0.08402002970263132,-0.052736042296142156,-0.03721619082620206,-0.002055325240169808,-0.012656143242314089,-0.015553000960211685
209,0.0,300.07407,594.32556,-0.002090006862738636,0.0,0.0,0.0,0.0,-0.0003189645978820821,-0.0929899488161434,-0.04221542496458806,-0.04545475716328525,0.012351177253716289,-0.02315277187775068,0.0017482357833374384
210,0.0,299.94329,729.58027,-0.002099983502206082,0.0,0.0,0.0,0.0,-0.0003204871741246118,-0.0982772752892119,-0.06542850042204024,-0.05806840773615565,0.018331990333726584,-0.004992090015905925,0.004043672014279356
211,0.0,299.38989,804.03728,-0.002109993176903635,0.0,0.0,0.0,0.0,-0.0003220147920103278,-0.08941790378811001,-0.08327525237562752,-0.07171410014538063,0.011531220822292888,0.004548561873483106,0.0035817884409949964
212,0.0,300.48123,642.62801,-0.002120002851600966,0.0,0.0,0.0,0.0,-0.00032354240989604377,-0.062286597286708545,-0.05174377052621255,-0.08131250080566901,0.004024837620095546,0.005309025730585045,0.004385571272997185
213,0.0,300.0275,561.30263,-0.002130012526298297,0.0,0.0,0.0,0.0,-0.00032507002778175975,-0.07294118553323452,-0.056148295756905345,-0.04153250250318886,-0.02390961194719498,-0.005712817649136204,0.003024339779229097
214,0.0,300.28965,686.09248,-0.0021399891657659653,0.0,0.0,0.0,0.0,-0.0003265926040243172,-0.09531718164582341,-0.05138169066922805,-0.061856110888972846,-0.013471926096575586,0.004949810027658215,0.007097578127451424
215,0.0,299.85562000000004,722.90261,-0.0021499988404632964,0.0,0.0,0.0,0.0,-0.0003281202219100332,-0.11811476680701989,-0.050529114677335354,-0.051100457024472454,-0.015720681692760485,0.006418519290008534,-0.01088028261355029
216,0.0,300.22433,691.31673,-0.0021600085151608495,0.0,0.0,0.0,0.0,-0.00032964783979577694,-0.10645741559902891,-0.048697276033546955,-0.05498833312192594,-0.0008939823052416841,0.0006542963120915184,-0.0013549198575701785
217,0.0,299.96025,731.0554099999999,-0.0021699851546281845,0.0,0.0,0.0,0.0,-0.00033117041603830666,-0.0939604265896721,-0.04431245345104866,-0.08394971115894141,-0.0031298361372407773,-0.001968065053482898,0.005476500165413485
218,0.0,300.05312999999995,763.53763,-0.0021799948293257376,0.0,0.0,0.0,0.0,-0.00033269803392402264,-0.07676820481643193,-0.07385566907973702,-0.08147250008920971,0.014793498069504587,0.012951077041671788,0.007922741144513674
219,0.0,299.61217,848.5759,-0.0021900045040231797,0.0,0.0,0.0,0.0,-0.0003342256518097386,-0.1025394307748539,-0.06462970065270485,-0.09077675829846851,0.004593287644822195,0.012513574900243688,-0.0027000304409222574
220,0.0,299.45271,839.22196,-0.0022000141787206218,0.0,0.0,0.0,0.0,-0.00033575326969548236,-0.1122799255761659,-0.06386332184681914,-0.07895927507117373,-0.007681381019018284,-0.001205203745319349,0.0061120529819876646
221,0.0,299.07102000000003,544.07332,-0.002209990818188068,0.0,0.0,0.0,0.0,-0.0003372758459380121,-0.07321538114279554,-0.057330611702340856,-0.034838711937313166,-0.003094714862274577,-0.014189445982639286,-7.510181268872182e-05
222,0.0,300.164,445.0501,-0.002220000492885621,0.0,0.0,0.0,0.0,-0.0003388034638237558,-0.06901848808284443,-0.03743552400909857,-0.02883010540705987,-0.0006398425628600443,-0.002340448650734298,-0.0024530522489224077
223,0.0,300.15947,594.64979,-0.002230010167582952,0.0,0.0,0.0,0.0,-0.0003403310817094718,-0.06015233084582284,-0.05266277418141115,-0.06794358171425943,0.012732056953056188,0.007232883087504983,-0.0015447012973251483
224,0.0,300.64162999999996,732.02027,-0.00223998680705062,0.0,0.0,0.0,0.0,-0.00034185365795202927,-0.08575340272820192,-0.061552730636781544,-0.07520975219537462,0.004410102159243196,-0.005706427283405525,-0.0028624799658547775
225,0.0,299.92908,624.62535,-0.002249996481747951,0.0,0.0,0.0,0.0,-0.0003433812758377175,-0.07702106239213702,-0.03794611289348976,-0.07490333320613343,-0.005948767525722645,5.2980540558522244e-05,0.011056951887736189
226,0.0,299.73747000000003,617.9881799999999,-0.0022600061564452822,0.0,0.0,0.0,0.0,-0.0003449088937234335,-0.091921361075182,-0.06382241896678234,-0.032109195513180866,-0.006847705079915873,0.0052958792158375855,-0.016886505979568384
227,0.0,299.64509,735.5326,-0.0022700158311428353,0.0,0.0,0.0,0.0,-0.0003464365116091772,-0.11453776090649688,-0.05300228085266786,-0.05604349732556254,-0.0023747589203204577,0.02125827992727888,-0.007450161095223653
228,0.0,299.65157999999997,849.8865800000001,-0.0022799924706102814,0.0,0.0,0.0,0.0,-0.00034795908785170693,-0.13054570406885788,-0.060849105449339136,-0.06694949217365044,-0.00962565262967795,0.004970283252553766,0.0037614225862985066
229,0.0,299.34231,816.00556,-0.0022900021453078345,0.0,0.0,0.0,0.0,-0.00034948670573745066,-0.09063079658181322,-0.07217357968147774,-0.08524093933112573,0.006160021761596813,-0.0017306562994024784,-0.004504200973505026
230,0.0,299.42708,620.2466099999999,-0.0023000118200051656,0.0,0.0,0.0,0.0,-0.00035101432362316665,-0.08178742632629052,-0.03595535103776686,-0.07079670654459094,-0.001157757093486729,-0.00037235724261629866,0.02127244009742638
231,0.0,299.67902000000004,493.98141,-0.0023099884594727227,0.0,0.0,0.0,0.0,-0.0003525368998657241,-0.05259138159261525,-0.05466233206125215,-0.04290429824382455,-0.0002217639901514018,0.009070025284966803,-0.009081870482610832
232,0.0,300.07402,617.46485,-0.0023199981341701648,0.0,0.0,0.0,0.0,-0.00035406451775141234,-0.08302515691969502,-0.04085189126526776,-0.06381684710448245,-0.002243850249800778,-0.014290846986396787,0.007097421175010933
233,0.0,299.82374,825.5686,-0.002330007808867607,0.0,0.0,0.0,0.0,-0.0003555921356371561,-0.11677525017481989,-0.052581966472686044,-0.08159502127805163,-0.003194598118707287,-0.01166908971039949,0.0013940720440841989
234,0.0,299.49276000000003,732.9992,-0.002339984448335053,0.0,0.0,0.0,0.0,-0.0003571147118796858,-0.09753631994158532,-0.07485375893174083,-0.05042337392339955,0.004937820745849965,-0.011147072378130389,-0.009194801461906252
235,0.0,299.44464,637.05813,-0.002349994123032606,0.0,0.0,0.0,0.0,-0.00035864232976542954,-0.07302767554852042,-0.05142076665933455,-0.06920132298388883,0.0051624915276232445,-0.0034212191029480365,-0.0056423242184790445
236,0.0,299.73601,703.86311,-0.002360003797729937,0.0,0.0,0.0,0.0,-0.0003601699476511455,-0.09428744596669641,-0.06089161331753434,-0.058777751707162436,-0.011676323302863388,-0.016369920681085382,-8.316666236241052e-05
237,0.0,300.27476,821.1919,-0.002370013472427379,0.0,0.0,0.0,0.0,-0.00036169756553683374,-0.10935934362042689,-0.06805647297415095,-0.07220602192317953,-0.007109394042167563,-0.014401392572306788,0.014527432778745984
238,0.0,300.41487,752.30915,-0.0023799901118949363,0.0,0.0,0.0,0.0,-0.00036322014177941897,-0.1061809705742459,-0.051280117412953546,-0.07122210440032443,-6.068029494292884e-06,-1.1746687442807788e-05,-0.01018778088570569
239,0.0,300.19843,640.97087,-0.0023899997865922673,0.0,0.0,0.0,0.0,-0.0003647477596651072,-0.08774826419382942,-0.07113633379260953,-0.03595454145093697,0.004839328276504516,0.02351754191375068,-0.008610953683359962
240,0.0,299.9919,719.93281,-0.0024000094612898204,0.0,0.0,0.0,0.0,-0.00036627537755085093,-0.09565601551901372,-0.05499897326122605,-0.06818660772424423,-0.00028005968305723874,-0.007391813696165213,-0.009610785413610672
241,0.0,299.92751,859.8721199999999,-0.0024099861007572665,0.0,0.0,0.0,0.0,-0.00036779795379338065,-0.11732528285910389,-0.06744761301556114,-0.07660675658524822,0.0005013609117554695,-0.008746647326151881,-0.0036101251959416167
242,0.0,300.36692,864.3828599999999,-0.0024199957754548196,0.0,0.0,0.0,0.0,-0.0003693255716791244,-0.09832769866718831,-0.08330886593444492,-0.08111424018510222,-0.004395945636796055,6.827382018685143e-05,-0.0059899858305155745
243,0.0,299.7519,618.9223900000001,-0.0024300054501521506,0.0,0.0,0.0,0.0,-0.00037085318956484037,-0.07276901103649222,-0.049761222075800256,-0.06560672098212923,0.004249661807933966,0.008757777878500381,-0.008267827682746061
244,0.0,299.53495,501.50685,-0.0024400151248497037,0.0,0.0,0.0,0.0,-0.0003723808074505841,-0.06023261977049674,-0.053541325852867444,-0.038671615163841266,-0.017134875870580588,-0.005543360283862065,0.0019396317358017481
245,0.0,299.76172,731.24579,-0.00244999176431715,0.0,0.0,0.0,0.0,-0.0003739033836931138,-0.11024713309304489,-0.05270325554940636,-0.05933007332342234,-0.006184880636900194,0.006987019673265154,-0.005691624814019635
246,0.0,299.70311,1019.3146,-0.002460001439014703,0.0,0.0,0.0,0.0,-0.0003754310015788298,-0.13058104623234587,-0.06398975519429714,-0.11527537658179389,0.004938857807327316,-0.0015389358029311386,0.012438226583057387
247,0.0,300.21167,811.87832,-0.002470011113712034,0.0,0.0,0.0,0.0,-0.0003769586194645458,-0.1038740939390749,-0.06875802707838893,-0.07415861768738573,0.017110650073939682,0.004806678318532215,-0.015922609265439185
248,0.0,300.24557000000004,552.34985,-0.002479987753179591,0.0,0.0,0.0,0.0,-0.00037848119570710326,-0.08248585252746983,-0.023672465827540477,-0.06174224386923503,0.002934132048001287,-0.01109331743382519,0.014891821832708384
249,0.0,300.30281,772.94014,-0.002489997427876922,0.0,0.0,0.0,0.0,-0.00038000881359281924,-0.10945995935535689,-0.05127687703913375,-0.07421766585021333,-0.0035154242071453565,-0.01029803870858729,-0.0035135112922815665
250,0.0,300.23605,957.03529,-0.002500007102574364,0.0,0.0,0.0,0.0,-0.0003815364314785352,-0.13646771520581488,-0.06945451898512733,-0.08499259173161572,0.006123684991810654,0.022654109960286578,0.006648426142998574
251,0.0,300.34745,771.0615700000001,-0.0025099837420419213,0.0,0.0,0.0,0.0,-0.0003830590077210927,-0.10564900413924491,-0.05031016551622675,-0.07842429421712523,-0.0014568443063293385,0.02336899336959008,-0.014005040543939886
252,0.0,299.98315,596.51689,-0.0025199934167392524,0.0,0.0,0.0,0.0,-0.0003845866256068087,-0.06585365712424993,-0.07016300878629984,-0.04530957463595686,-0.006211918506543624,0.0009146733079812272,-0.014110864384383885
253,0.0,299.66019,554.8901900000001,-0.0025300030914368055,0.0,0.0,0.0,0.0,-0.00038611424349252466,-0.07624954640824433,-0.03986205129557816,-0.052561165461383154,-0.015166303178797587,-0.014512515710773787,-0.0005162816274280295
254,0.0,299.40191,796.16355,-0.0025400127661341365,0.0,0.0,0.0,0.0,-0.00038764186137824064,-0.1025957168179089,-0.06714263486796214,-0.07227548528378502,-0.009340953770905361,0.0013094025352529688,-0.008571569158598013
255,0.0,300.13072,966.68174,-0.0025499894056018046,0.0,0.0,0.0,0.0,-0.0003891644376207981,-0.12222679915784587,-0.08961223502478902,-0.08200807572106693,0.001048765833230129,-0.004010223311253226,-0.006432176482806394
256,0.0,299.43464,745.2823599999999,-0.0025599990802991357,0.0,0.0,0.0,0.0,-0.0003906920555065141,-0.098492531153706,-0.04736913718671986,-0.08068556041229483,-0.004479899284431635,-0.007748860739903013,0.004776341914513245
257,0.0,299.91377,629.91072,-0.002570008754996689,0.0,0.0,0.0,0.0,-0.00039221967339225783,-0.07904607514099021,-0.05901130585521244,-0.053419750026368854,0.0029639071114648573,0.0007102973177608873,0.005403155651624944
258,0.0,300.26752,822.7543599999999,-0.002579985394464135,0.0,0.0,0.0,0.0,-0.00039374224963478754,-0.09776703597610523,-0.053765483119490046,-0.09856426216803531,0.004278872795066865,0.0033447213548482967,-0.004809650181075516
259,0.0,300.11602999999997,892.9292199999999,-0.002589995069161688,0.0,0.0,0.0,0.0,-0.0003952698675205313,-0.11447058242486688,-0.05693749194179295,-0.10002010801771609,-0.0001068380328665929,0.004391953431402055,-0.004885353541096855
260,0.0,300.44344,731.74541,-0.002600004743859019,0.0,0.0,0.0,0.0,-0.0003967974854062195,-0.0913570456174884,-0.06283342810067655,-0.06824185822569703,0.0020391744388758484,-0.008435336466752893,-0.014109340456233485
261,0.0,300.57473,481.81407,-0.00261001441855635,0.0,0.0,0.0,0.0,-0.0003983251032919355,-0.07534675374139564,-0.021547046073277877,-0.04956564454149825,0.002226221319260938,0.0016308467062520387,-0.006405725082320843
262,0.0,300.12324,510.79009,-0.002619991058023907,0.0,0.0,0.0,0.0,-0.00039984767953449296,-0.08338665111812171,-0.036216467615037065,-0.03566431622479396,-0.0008795868482884631,0.015535524422486886,-0.0003119904665060617
263,0.0,300.56532000000004,820.3177900000001,-0.0026300007327213493,0.0,0.0,0.0,0.0,-0.00040137529742020894,-0.09912218199109772,-0.06347354581160124,-0.08676039499558433,-0.012726455706503386,0.006894186205728203,0.0046171146262237355
264,0.0,299.8145,905.1604800000001,-0.0026400104074189024,0.0,0.0,0.0,0.0,-0.0004029029153059527,-0.1038389442931059,-0.06281468398707664,-0.1084925588223819,-0.015447594578808883,-0.006218322449825645,0.015874813244972086
265,0.0,299.95052000000004,798.89139,-0.0026499870468862374,0.0,0.0,0.0,0.0,-0.0004044254915484824,-0.09543668841561781,-0.07030168016848563,-0.07710466565788802,-0.002859252460311247,-0.0016218814693672384,0.012530004750615187
266,0.0,299.58554,733.21027,-0.0026599967215837905,0.0,0.0,0.0,0.0,-0.00040595310943422613,-0.10815575448914189,-0.044132350272273864,-0.07058950297864153,0.005604793333450035,0.01009009232898958,0.005839242991938415
267,0.0,299.82522,790.38264,-0.0026700063962811216,0.0,0.0,0.0,0.0,-0.00040748072731991436,-0.1252922860103859,-0.05921690443300344,-0.055747395248839544,-0.002856191127784117,-0.005491223297316545,-0.0033994003832446967
268,0.0,299.92341,985.5743,-0.0026800160709786747,0.0,0.0,0.0,0.0,-0.0004090083452056581,-0.13557903407310887,-0.08528975062819301,-0.07872118966867651,-0.006479680383269664,-0.018941366036617283,-0.0025229782595235675
269,0.0,299.94674,910.8493599999999,-0.0026899927104461208,0.0,0.0,0.0,0.0,-0.0004105309214481878,-0.1192773902367619,-0.06454800635014224,-0.0930500649445764,0.007635426580607931,-0.003785962389145397,0.00875651324105057
270,0.0,299.63296,590.2294400000001,-0.002700002385143674,0.0,0.0,0.0,0.0,-0.00041205853933393155,-0.05808726837351704,-0.04941638874876785,-0.07191135460859814,0.014260345118636487,0.008731331746915353,-0.011049597718510388
271,0.0,300.55037000000004,568.14189,-0.002710012059841005,0.0,0.0,0.0,0.0,-0.00041358615721964753,-0.07329824878897392,-0.04115796980247536,-0.05824472946555725,0.00999351571293321,0.009242300498769042,-0.006140671724437114
272,0.0,299.89793,769.85461,-0.002719988699308451,0.0,0.0,0.0,0.0,-0.00041510873346217725,-0.08639086471061451,-0.06649151630070174,-0.08113419715907183,-0.008975431295381102,-0.004528494252602586,-0.0067753435200493435
273,0.0,300.28443,900.6497699999999,-0.002729998374006004,0.0,0.0,0.0,0.0,-0.000416636351347921,-0.1299007602477069,-0.08683357799730691,-0.057040703623479155,0.0004604222538576386,0.006964304125898303,-0.00986378839070512
274,0.0,300.49829,820.43802,-0.002740008048703335,0.0,0.0,0.0,0.0,-0.0004181639692336092,-0.10204724453877889,-0.07510750816753393,-0.07223792106282773,-0.003767613848384536,0.01104188789849949,-0.0005730993430755015
275,0.0,300.18032999999997,691.3468799999999,-0.0027499846881707812,0.0,0.0,0.0,0.0,-0.00041968654547613893,-0.08830419399369542,-0.06563935776785024,-0.056208636826860545,0.0028750593645212675,-0.007277281173761733,0.00021151263491467177
276,0.0,300.51023,773.27401,-0.0027599943628683343,0.0,0.0,0.0,0.0,-0.00042121416336188267,-0.08877595513425461,-0.06331966250566415,-0.08296037173480122,-0.014866257532685384,-0.007547837695588583,0.006259097356374813
277,0.0,300.16685,947.2167699999999,-0.0027700040375658874,0.0,0.0,0.0,0.0,-0.0004227417812476264,-0.12371507103722688,-0.07405681644983873,-0.09015836162993751,0.006911990935160394,0.006148063890541664,0.009131843876217821
278,0.0,299.78767999999997,908.01425,-0.0027800137122632185,0.0,0.0,0.0,0.0,-0.0004242693991333424,-0.12117285693382988,-0.07882696284661553,-0.07601383910373183,0.008685128150305413,0.008817645152708822,0.0009720837546721971
279,0.0,299.96557,754.12905,-0.0027899903517306646,0.0,0.0,0.0,0.0,-0.0004257919753758721,-0.13215988240566487,-0.04841084948202885,-0.048665664656927156,0.005126294079725835,-0.0017327609211851885,-0.010547322551189689
280,0.0,299.89419,683.41544,-0.0028000000264281066,0.0,0.0,0.0,0.0,-0.00042731959326161584,-0.0996384673675511,-0.058875966039355444,-0.04922679749605665,-0.0019342562413712282,-0.016723919868522383,-0.007512740434649753
281,0.0,299.35677999999996,732.8011799999999,-0.0028100097011256597,0.0,0.0,0.0,0.0,-0.0004288472111473318,-0.09464961498968971,-0.05653959065402315,-0.07156405604407243,0.0026714928598058174,-0.0033836818344433967,-0.005947136497036674
282,0.0,299.46121,805.02956,-0.0028199863405928838,0.0,0.0,0.0,0.0,-0.0004303697873898338,-0.08558653563548342,-0.05671365080920154,-0.10240870124695191,-0.0038076348968593067,0.016183125998650183,0.011631267110666688
283,0.0,299.7022,653.14698,-0.002829996015290437,0.0,0.0,0.0,0.0,-0.0004318974052755775,-0.08059284498839452,-0.05555685660728485,-0.062390671244229846,-0.000894748636424815,-0.0003614617845560007,0.0030618643821074872
284,0.0,299.60134,675.1927900000001,-0.00284000568998799,0.0,0.0,0.0,0.0,-0.00043342502316132125,-0.09063470975369942,-0.05558964335402065,-0.05901739650156355,0.0023215620741703375,-0.015451653658709485,0.005952896013255094
285,0.0,300.26156000000003,971.17123,-0.002850015364685321,0.0,0.0,0.0,0.0,-0.00043495264104703724,-0.15318706126338585,-0.07483813258869863,-0.06718660485605164,0.0005104917339716115,0.005285910658703766,-0.002272828189410678
286,0.0,300.608,1124.8516,-0.002859992004152767,0.0,0.0,0.0,0.0,-0.00043647521728956695,-0.14586381643063784,-0.1011674972322046,-0.0948954841794551,0.014565618122014587,4.586302906582856e-05,-0.0052770099658503355
287,0.0,300.43895,942.90178,-0.00287000167885032,0.0,0.0,0.0,0.0,-0.0004380028351753107,-0.11832503646777189,-0.08121947026098762,-0.08707409317354392,-0.009638024920024,-0.013150497833603088,-0.006526877268952635
288,0.0,300.17461000000003,693.31025,-0.0028800113535478733,0.0,0.0,0.0,0.0,-0.00043953045306102667,-0.07246071145506543,-0.06733551817024823,-0.07095277441774363,-0.007132565957379453,0.00021542816767360478,-0.00936861549863536
289,0.0,300.23974,561.00713,-0.0028899879930150973,0.0,0.0,0.0,0.0,-0.00044105302930352863,-0.08007183583997492,-0.04003279406992916,-0.05042752824880955,-0.003235924334635867,0.008383888490275371,-0.010922366943203688
290,0.0,299.43326,691.1915799999999,-0.0028999976677126504,0.0,0.0,0.0,0.0,-0.00044258064718927237,-0.09150975152680932,-0.061516628535718536,-0.05707860120371935,0.005159442962047375,0.020222549860560282,-0.015590096046372685
291,0.0,299.72175,811.96298,-0.0029100073424102035,0.0,0.0,0.0,0.0,-0.0004441082650750161,-0.12327993078178189,-0.06623102084574284,-0.05730551957686445,-0.007873419473371002,0.0009450835677999862,-0.00931613410838085
292,0.0,299.27479,698.80576,-0.0029199839818776496,0.0,0.0,0.0,0.0,-0.0004456308413175458,-0.09771321719704372,-0.046520482472714154,-0.06818580320366484,0.013163099625096788,-0.016456470478127184,-0.018344092592920982
293,0.0,299.45931,600.99295,-0.0029299936565749807,0.0,0.0,0.0,0.0,-0.0004471584592032618,-0.08154532845339733,-0.04692274884191475,-0.054218773723976356,0.0005635432597923894,-0.0075019378713586235,-0.0011014208945517789
294,0.0,299.96831000000003,856.7069,-0.0029400033312725338,0.0,0.0,0.0,0.0,-0.00044868607708900554,-0.10074791441879499,-0.06609890519170404,-0.09357068601820773,0.012358013652140988,-0.0071528499071563225,0.0037611617757227662
295,0.0,300.70658,1077.1897,-0.002950013005970087,0.0,0.0,0.0,0.0,-0.0004502136949747215,-0.13385083470254885,-0.08242869002307832,-0.11115926083306489,-0.01179813724313549,-0.016916444480273084,0.01753060880313638
296,0.0,300.52244,865.827,-0.002959989645437422,0.0,0.0,0.0,0.0,-0.00045173627121725124,-0.11952211040091389,-0.07281755584878323,-0.07085012508986294,-0.010530250300254791,-0.002291436324847158,0.012949077899224488
297,0.0,300.72607999999997,701.7285400000001,-0.002969999320134864,0.0,0.0,0.0,0.0,-0.0004532638891029672,-0.1075300522873899,-0.051576982467001854,-0.054200923296964645,-0.00989138314260351,0.014549225761896788,0.006476671030472665
298,0.0,300.03386,721.9667400000001,-0.002980008994832417,0.0,0.0,0.0,0.0,-0.00045479150698871096,-0.08880698186556672,-0.06816925075003123,-0.06248362782165394,-0.002150412175929158,0.004557741514089065,-0.002857812733244157
299,0.0,299.79929,758.9950200000001,-0.002989985634299752,0.0,0.0,0.0,0.0,-0.0004563140832312407,-0.09313498543545741,-0.06943439381164114,-0.06814615574050194,-0.015350803863006387,0.0038478678159299864,-0.016344977503373683
300,0.0,299.85764,819.7316400000001,-0.0029999953089970832,0.0,0.0,0.0,0.0,-0.00045784170111695666,-0.1021000652664919,-0.058755350773951644,-0.08832253787350582,-0.004690023543794285,-0.01057032332845969,-0.005959643448321015
301,0.0,299.59337,775.3998,-0.0030100049836946363,0.0,0.0,0.0,0.0,-0.0004593693190027004,-0.1012840564574581,-0.06723768785984315,-0.06718043416294264,0.027498559000146475,0.0002952918312805347,-0.005068357046957896
302,0.0,299.51448999999997,707.5496099999999,-0.0030200146583921894,0.0,0.0,0.0,0.0,-0.0004608969368884164,-0.1081995572909649,-0.05453950385762995,-0.05233835480414345,0.017039978919214986,-0.00014963279269510687,0.0008134404530778221
303,0.0,300.27263,921.37345,-0.0030299912978596355,0.0,0.0,0.0,0.0,-0.0004624195131309461,-0.1275384284345629,-0.07453944571097053,-0.07799665099917012,-0.002073335152747248,-0.0065698641004701035,0.0012530355335149787
304,0.0,300.46785,1034.368,-0.0030400009725569666,0.0,0.0,0.0,0.0,-0.0004639471310166621,-0.13661452501280388,-0.07545241242207333,-0.1023551104491629,-0.013944185756183988,-0.006576039049229524,0.002302729605161718
305,0.0,300.34909,952.5663199999999,-0.0030500106472547417,0.0,0.0,0.0,0.0,-0.00046547474890243357,-0.11730695316479488,-0.07882824866099242,-0.0934211698202016,-0.01148042558152979,0.0034505922100969365,0.0034871549346553966
306,0.0,300.07405,752.02996,-0.0030599872867219657,0.0,0.0,0.0,0.0,-0.0004669973251449355,-0.0936036754149635,-0.06559881459159894,-0.06939583964533615,-0.006938068243709024,0.0023775057400165474,-0.014665033155576088
307,0.0,299.957,791.71975,-0.003069996961419519,0.0,0.0,0.0,0.0,-0.00046852494303067926,-0.1013423264442089,-0.07419123522135483,-0.06512947005252824,9.17628796402911e-06,-0.012616731866424487,-0.003062534951023667
308,0.0,299.60881,820.42318,-0.00308000663611685,0.0,0.0,0.0,0.0,-0.00047005256091639525,-0.1119428375328979,-0.07102997698261293,-0.06641534725093444,-0.003859970987049476,-0.006181237800140674,-3.279477066334187e-05
309,0.0,300.14583,731.4523,-0.003090016310814403,0.0,0.0,0.0,0.0,-0.00047158017880211123,-0.1039429138858669,-0.060301654526309936,-0.058098668450392146,0.008279724252170162,0.00943866624032383,0.0005481310468938224
310,0.0,299.49537999999995,728.80832,-0.003099992950281849,0.0,0.0,0.0,0.0,-0.00047310275504464094,-0.08007328985386843,-0.06028124665604585,-0.08118499341308501,0.000892689773016621,0.0011457684196285389,-0.007462677165758894
311,0.0,299.43615,803.29688,-0.00311000262497918,0.0,0.0,0.0,0.0,-0.0004746303729303569,-0.10294145801703089,-0.05988051232099644,-0.08136022488537901,-0.009969980547560469,0.006826288519177223,-0.003385783619125827
312,0.0,299.644,899.0762300000001,-0.0031200122996768442,0.0,0.0,0.0,0.0,-0.0004761579908161284,-0.10999271612543589,-0.07727328466002943,-0.08603072421432141,-0.006592310325960373,-0.007661424551673733,-0.0049053435470197155
313,0.0,299.7422,1014.6808,-0.0031299889391441793,0.0,0.0,0.0,0.0,-0.0004776805670586304,-0.14967728450699785,-0.07476997530747202,-0.08399035667345282,0.006236411193260864,0.01013672726616709,-0.0014744023093621785
314,0.0,299.60179,1001.8362,-0.0031399986138416214,0.0,0.0,0.0,0.0,-0.0004792081849443741,-0.15758657293258385,-0.06879510899229864,-0.07815149993245252,-0.008263524713546393,-0.016830432719034383,0.014367422349454187
315,0.0,299.87973,792.17519,-0.0031500082885390635,0.0,0.0,0.0,0.0,-0.0004807358028300901,-0.12184039623221088,-0.06238500109667024,-0.056576083869624746,-0.00033614422106485167,-0.00907735037391473,-0.001284003496321279
316,0.0,300.14542,744.4031200000001,-0.0031599849280066206,0.0,0.0,0.0,0.0,-0.00048225837907264757,-0.09391974561140722,-0.05677566374182175,-0.07558455138086442,-0.002623629964832117,-0.01084137887596079,0.011836328665904687
317,0.0,300.37725,856.6846,-0.0031699946027039516,0.0,0.0,0.0,0.0,-0.0004837859969583358,-0.0989509893337023,-0.07463117524252352,-0.08682856342256201,0.0029689378982113573,0.01025076957817219,-0.01052147859413909
318,0.0,300.13648,841.21367,-0.0031800042774015047,0.0,0.0,0.0,0.0,-0.00048531361484407953,-0.1082376656272259,-0.07287915638861273,-0.07459112551907093,0.01054974117917839,-0.005979904802620654,-0.008161616071488794
319,0.0,299.94621,734.66843,-0.003190013952099058,0.0,0.0,0.0,0.0,-0.00048684123272982327,-0.1119962358131679,-0.06580739921743464,-0.04551722605845046,0.0026130297475859573,-0.019620464492139084,-0.022328129164614775
320,0.0,299.9052,762.15841,-0.003199990591566504,0.0,0.0,0.0,0.0,-0.000488363808972353,-0.12629037788888986,-0.05669520256463085,-0.04869154002473086,0.01049226963350639,-0.006287374228240525,-0.004788207174509256
321,0.0,299.30567,791.12487,-0.003210000266263835,0.0,0.0,0.0,0.0,-0.000489891426858069,-0.1029741353327559,-0.05973608061199214,-0.07777199014724782,-0.007190288485101223,0.005853960246990895,-0.007832351230917883
322,0.0,299.75651,886.9349300000001,-0.003220009940961388,0.0,0.0,0.0,0.0,-0.0004914190447438127,-0.10105086302644371,-0.07397703111046453,-0.0945781798443896,-0.019226433819751282,0.007795435996649633,-0.0024827249741258776
323,0.0,299.43491,930.5215800000001,-0.003229986580428834,0.0,0.0,0.0,0.0,-0.0004929416209863424,-0.10848479732661588,-0.08137722519555683,-0.0929933036872245,-0.027837105110308374,0.007229776260048363,-0.002314179128641698
324,0.0,300.25517,878.27325,-0.003239996255126165,0.0,0.0,0.0,0.0,-0.0004944692388720306,-0.1105543809208679,-0.07283244251925243,-0.08358631103707663,0.005433294573199425,0.007606328064236133,-0.005574045347240444
325,0.0,300.53697,868.6263,-0.0032500059298237183,0.0,0.0,0.0,0.0,-0.0004959968567577744,-0.13682291002836988,-0.06827811434077523,-0.058939684271893944,0.016743942703748484,0.016147035043338285,-0.008151740226739122
326,0.0,300.53853,1015.6832,-0.0032600156045212714,0.0,0.0,0.0,0.0,-0.0004975244746435181,-0.14743056453026385,-0.07736726360680442,-0.08394449697392682,0.02145188972988668,-0.00937704016659181,-0.01082280498837769
327,0.0,300.31761,1002.2725,-0.0032699922439886064,0.0,0.0,0.0,0.0,-0.0004990470508860478,-0.13649416103342488,-0.08043096612591834,-0.0877406871095816,-0.0007877599028708493,-0.014990391815686484,-0.007473687850620563
328,0.0,300.63863,831.7543099999999,-0.0032800019186860485,0.0,0.0,0.0,0.0,-0.0005005746687717638,-0.09160799220350492,-0.06430615672352354,-0.0969183913946005,-0.018013550145298984,-0.017276155358523785,0.008187089685627843
329,0.0,300.13941,734.0505099999999,-0.0032900115933836016,0.0,0.0,0.0,0.0,-0.0005021022866575076,-0.08776227744271242,-0.04436126373486586,-0.09100948360793672,-0.008293907828394972,0.007721319183634874,0.017298274608206786
330,0.0,299.89742,849.4816599999999,-0.0032999882328509367,0.0,0.0,0.0,0.0,-0.0005036248629000373,-0.1132889605557499,-0.06974306930885503,-0.07518918321834463,-0.0028215849891687576,-0.011980545565887788,0.009036448405803022
331,0.0,299.70558,894.0052,-0.0033099979075484898,0.0,0.0,0.0,0.0,-0.0005051524807857533,-0.14593230200489687,-0.05032396395608855,-0.07549899659542084,0.00030729227910488674,-0.005153734310983975,0.00846860319006106
332,0.0,299.46746,919.1696599999999,-0.003320007582245821,0.0,0.0,0.0,0.0,-0.0005066800986714692,-0.13664808385611588,-0.06934401190272113,-0.07341252820150243,0.016380581085387484,-0.005125456831168205,0.006854755274111673
333,0.0,299.50677,959.0289,-0.003329984221713489,0.0,0.0,0.0,0.0,-0.0005082026749140267,-0.12344208119528487,-0.06806886198312363,-0.1000098914169578,0.008685096739552312,0.008853082865681252,-0.006074630312069334
334,0.0,299.55457,903.7180800000001,-0.00333999389641082,0.0,0.0,0.0,0.0,-0.0005097302927997427,-0.11736356344788189,-0.06032220830458844,-0.0970219627800722,0.017170849288880883,0.007001617466130843,-0.0016220989128386987
335,0.0,299.89837,924.12412,-0.003350003571108151,0.0,0.0,0.0,0.0,-0.0005112579106854587,-0.0982136958719371,-0.08977840196168842,-0.09291856129359802,-0.011177445563127988,-0.009491572891645312,-0.02282479700588208
336,0.0,300.20427,905.3082300000001,-0.003360013245805704,0.0,0.0,0.0,0.0,-0.0005127855285711747,-0.12412500163018388,-0.06652331512859003,-0.08454277454847221,-0.007143244498858343,-0.003088518939238087,-0.007597546732244483
337,0.0,299.8694,728.10766,-0.0033699898852731502,0.0,0.0,0.0,0.0,-0.0005143081048137321,-0.1118300425317659,-0.06100274557525224,-0.04849375867146136,-0.013969978037479487,0.01050670034143059,-0.013288485271971386
338,0.0,300.10997000000003,601.95093,-0.0033799995599707033,0.0,0.0,0.0,0.0,-0.0005158357226994481,-0.0950191564204106,-0.04624635171115955,-0.04171254387370756,-0.008162783842229043,-0.0006027561703849024,-0.019944101640329583
339,0.0,300.858,813.23288,-0.0033900092346680344,0.0,0.0,0.0,0.0,-0.0005173633405851641,-0.09163882844379821,-0.07193521158220263,-0.08362845109548551,-0.0036283874077939564,-0.016623355809347484,-0.005219686759992975
340,0.0,299.93447000000003,855.7788199999999,-0.0033999858741357025,0.0,0.0,0.0,0.0,-0.0005188859168277216,-0.10304998723524189,-0.06367146496688435,-0.09341394129398822,-0.004357774884328897,-0.003369283753172416,-0.017082210170132884
341,0.0,299.17116,913.4596,-0.0034099955488330336,0.0,0.0,0.0,0.0,-0.0005204135347134375,-0.1060740118936899,-0.07301278989130133,-0.0985821115817969,0.02356066077175618,-0.001756173584620838,0.005246532213442415
342,0.0,300.10449,1018.9871,-0.0034200052235305867,0.0,0.0,0.0,0.0,-0.0005219411525991813,-0.14706025201621686,-0.07384246237793363,-0.08884393408346361,0.008322216313663802,0.0015753519102001286,0.0013224142877371289
343,0.0,299.87765,1045.7013,-0.0034300148982279177,0.0,0.0,0.0,0.0,-0.0005234687704848695,-0.15932358757901385,-0.07749504457691543,-0.08104843567060782,0.00979468189678484,0.0029157654713886476,0.009107554042170602
344,0.0,300.36581,989.0730699999999,-0.003439991537695475,0.0,0.0,0.0,0.0,-0.0005249913467274547,-0.14820976398966487,-0.06446765156421184,-0.08797610361131541,0.0016859277922881182,0.002396595777200588,-0.008083308354735422
345,0.0,299.85617,879.81337,-0.003450001212392917,0.0,0.0,0.0,0.0,-0.000526518964613143,-0.12642750102492287,-0.057720498181819645,-0.08329329734665841,-0.006837076896966952,0.018643149306935582,0.0036496615055685465
346,0.0,299.99262999999996,840.3842,-0.003460010887090248,0.0,0.0,0.0,0.0,-0.0005280465824988589,-0.1085816640361759,-0.06451132872302244,-0.08236281964732742,-0.023904564948446876,-0.006833954769433823,-0.00932502112235793
347,0.0,300.78696,758.06978,-0.003469987526557805,0.0,0.0,0.0,0.0,-0.0005295691587414164,-0.0983930289806359,-0.05127132544183585,-0.08076992868187133,-0.008551137578281572,-0.014267517916094387,-0.003539087649980757
348,0.0,301.31971,837.72224,-0.003479997201255136,0.0,0.0,0.0,0.0,-0.0005310967766271324,-0.12024887416763988,-0.08269232959309751,-0.051705442314679856,-0.00986365697216715,0.002844853771090208,-0.006194115398311594
349,0.0,300.33697,922.5564400000001,-0.003490006875952689,0.0,0.0,0.0,0.0,-0.0005326243945128761,-0.13223101256268485,-0.06412006523665774,-0.08408304473960042,0.029935337337887773,0.0028719447350388774,-0.0058035483187406246
350,0.0,299.98278999999997,970.80892,-0.0034999835154201353,0.0,0.0,0.0,0.0,-0.0005341469707554058,-0.13059750141396986,-0.07516648438960444,-0.08933768781744332,0.00012079794426432888,0.009153788745558611,-0.008974046587794441
351,0.0,299.53899,954.5228099999999,-0.0035099931901176884,0.0,0.0,0.0,0.0,-0.0005356745886411496,-0.10918838806355488,-0.09083894854985622,-0.09012376420527302,0.005630686129155454,-0.0019685832295840383,-0.024534224905089476
352,0.0,300.2859,871.80966,-0.0035200028648150194,0.0,0.0,0.0,0.0,-0.0005372022065268378,-0.10492118659241491,-0.06060726696847154,-0.0994799119654029,-0.0035533829876915964,-0.016743929531497184,0.004224327313033646
353,0.0,299.64055,805.30289,-0.0035300125395125725,0.0,0.0,0.0,0.0,-0.0005387298244125815,-0.09567916929704881,-0.07839705704118712,-0.07071574279535042,-0.0016017609568314984,-0.0024705422628735377,-0.01858437269513478
354,0.0,299.71124,798.7067,-0.0035399891789800186,0.0,0.0,0.0,0.0,-0.0005402524006551113,-0.1318866899137029,-0.05448019022327615,-0.05642000991697144,-0.01075630943731509,-0.002115956504953648,0.005779760854092984
355,0.0,299.73087999999996,880.58099,-0.0035499988536775717,0.0,0.0,0.0,0.0,-0.000541780018540855,-0.13443949248064488,-0.06766633115564694,-0.06556881225613793,0.004920075392873635,-0.0016950151258099684,-0.0053940261668989345
356,0.0,300.12216,1013.6353,-0.0035600085283749028,0.0,0.0,0.0,0.0,-0.000543307636426571,-0.1252404582677709,-0.09302541054314321,-0.08985395090239451,-0.004667204644917235,0.011868033261533687,0.006036732630504124
357,0.0,300.34446,937.0048199999999,-0.00356998516784246,0.0,0.0,0.0,0.0,-0.0005448302126691285,-0.11905773788008388,-0.06645177561852963,-0.0993165517312805,0.013908887162450286,0.004431298642060126,0.004063180625079706
358,0.0,300.70923,972.47535,-0.003579994842539902,0.0,0.0,0.0,0.0,-0.0005463578305548444,-0.1128049411154809,-0.08442469240831842,-0.0983785921932111,-0.005338179367762285,0.01125308974934349,-0.0065846190484263045
359,0.0,300.47778999999997,1086.9977,-0.003590004517237233,0.0,0.0,0.0,0.0,-0.0005478854484405327,-0.15121739426149486,-0.08102278929732672,-0.09817996984235859,-0.008282459014190061,-0.014916300941874287,0.001836985548996358
360,0.0,300.66709,1053.7793,-0.003600014191934786,0.0,0.0,0.0,0.0,-0.0005494130663262764,-0.15976160546474286,-0.07812539050387572,-0.08243559734901001,-0.009915880895571251,-0.007414561870185283,-0.0035193616970339565
361,0.0,300.06633,871.60464,-0.003609990831402121,0.0,0.0,0.0,0.0,-0.0005509356425688061,-0.12064274474651189,-0.07796304149335313,-0.06634025731252365,-0.0007889161428249612,-0.0003783053652083326,0.005771725882124995
362,0.0,299.85677000000004,851.57894,-0.0036200005060996743,0.0,0.0,0.0,0.0,-0.0005524632604545499,-0.1140101413144249,-0.05513015469867265,-0.08971843275451992,0.006184375734375364,0.006866350806931062,-0.0004019808454549206
363,0.0,299.59424,879.3335199999999,-0.0036300101807971163,0.0,0.0,0.0,0.0,-0.0005539908783402658,-0.10745024870951389,-0.06799642777322494,-0.09184875461276631,-0.011747433194881389,0.0013803692550318387,0.011448562918885189
364,0.0,299.60737,960.6102300000001,-0.0036399868202646735,0.0,0.0,0.0,0.0,-0.0005555134545828233,-0.11993862711952089,-0.07859313208128822,-0.0934697683347479,0.004896480952370046,-0.003190997129176897,-0.010146725004903791
365,0.0,299.94972,1018.1004,-0.0036499964949620045,0.0,0.0,0.0,0.0,-0.0005570410724685393,-0.15178711439522186,-0.06443933426366714,-0.0932506550271231,0.006916071394638103,-0.012322502275886289,-0.0014236144653248085
366,0.0,300.01687000000004,997.01825,-0.0036600061696595576,0.0,0.0,0.0,0.0,-0.0005585686903542553,-0.16882805590203184,-0.08002155634351271,-0.05421903919550254,0.016229323110459486,0.00023920427378762378,-0.002147007452943138
367,0.0,299.6277,989.8960300000001,-0.0036700158443568887,0.0,0.0,0.0,0.0,-0.0005600963082399713,-0.12695276987676288,-0.08111097042702951,-0.0928399381520885,0.013483842931001687,-0.015461753735706286,-0.011780185491113789
368,0.0,300.3301,1067.3595,-0.003679992483824557,0.0,0.0,0.0,0.0,-0.0005616188844825287,-0.13571454614148287,-0.08344361198574332,-0.1052924920915599,-0.004751414948803145,0.002291043487783388,0.005841830123418745
369,0.0,299.64585,1015.8330000000001,-0.003690002158521888,0.0,0.0,0.0,0.0,-0.0005631465023682447,-0.0945271981656081,-0.09963399690810991,-0.11462667360277189,-0.016673184409515183,0.000993513639649662,-0.013315314108119189
370,0.0,299.64337,855.63101,-0.003700011833219219,0.0,0.0,0.0,0.0,-0.0005646741202539607,-0.1105794081983379,-0.07535757626571372,-0.07415347442987813,0.0009674737402947242,-0.002639994967197218,-0.012164266047519589
371,0.0,300.18969,839.8414300000001,-0.003709988472686887,0.0,0.0,0.0,0.0,-0.0005661966964965182,-0.1274247924358479,-0.07303290290578633,-0.054833123471607945,-0.012779308858219589,0.006170394909495564,-0.01210697384711529
372,0.0,300.08529,872.96148,-0.003719998147384218,0.0,0.0,0.0,0.0,-0.0005677243143822341,-0.16294788186170384,-0.055318432779254245,-0.04709218249713655,0.0011463102044570088,-0.0007298181179599402,-0.00825795224329643
373,0.0,300.56979,908.1143400000001,-0.003730007822081771,0.0,0.0,0.0,0.0,-0.0005692519322679501,-0.12241310545373288,-0.05706726901460095,-0.09656370319709551,0.006106852678499434,-0.002995543920662167,0.007529873277940633
374,0.0,300.62004,916.91797,-0.0037399844615491062,0.0,0.0,0.0,0.0,-0.0005707745085104798,-0.11952904103159788,-0.07022509061992684,-0.08896603173376373,-0.0009390240890219621,0.0061417011865387144,0.0001163344965138209
375,0.0,300.27035,1084.3364,-0.0037499941362466593,0.0,0.0,0.0,0.0,-0.0005723021263962236,-0.12435724868560488,-0.07051939823072273,-0.13473453064476287,0.01089724543347439,-0.007276076520717843,0.022608545116539678
376,0.0,299.96952999999996,1149.5218,-0.0037600038109441014,0.0,0.0,0.0,0.0,-0.0005738297442819396,-0.14908405697095087,-0.09003142267065961,-0.11031044095929289,-0.014781567049577086,0.0049454902385068856,-0.007365739933991933
377,0.0,299.66137000000003,1063.6541,-0.0037700134856416545,0.0,0.0,0.0,0.0,-0.0005753573621676833,-0.16334581557347685,-0.07360679864317543,-0.0863716595682191,-0.0038455890164550864,-0.0007877862068434452,0.002039353885468558
378,0.0,299.49354,1019.5928,-0.0037799901251089896,0.0,0.0,0.0,0.0,-0.000576879938410213,-0.16014763348784086,-0.07478148785510823,-0.07500162555858414,0.002615146629694878,-0.003763696927472966,-0.012967151241258187
379,0.0,299.66694,807.96078,-0.0037899997998065427,0.0,0.0,0.0,0.0,-0.0005784075562959567,-0.12045384453036889,-0.05812676587566514,-0.06701928990678893,0.01226540056650079,-0.0013836020294758888,-0.003916184988022367
380,0.0,299.60431,738.6021900000001,-0.0038000094745038737,0.0,0.0,0.0,0.0,-0.000579935174181645,-0.09686196957603209,-0.04934686256665615,-0.07830779072062723,0.002278962608166098,-0.008713320922412822,0.0006957195061871694
381,0.0,300.0144,901.8769,-0.00380998611397132,0.0,0.0,0.0,0.0,-0.0005814577504241747,-0.08530341835879192,-0.07915467933970863,-0.10968995699555589,0.001846177449928528,0.002144248778220878,-0.004491297537456556
382,0.0,299.69301,1004.7315,-0.003819995788668873,0.0,0.0,0.0,0.0,-0.0005829853683099184,-0.11942410885124188,-0.09200781360021422,-0.09398137249573932,-0.015530975942787984,0.005072860842327385,-0.004084845634742876
383,0.0,299.84578,978.0192699999999,-0.003830005463366204,0.0,0.0,0.0,0.0,-0.0005845129861956344,-0.14640834716687884,-0.07657003741487434,-0.07431505539682493,0.017291500018038183,0.005008076366708655,-0.018236578651310183
384,0.0,300.5265,1017.6506,-0.003840015138063757,0.0,0.0,0.0,0.0,-0.0005860406040813781,-0.15857996333062385,-0.08496914917730213,-0.06579124902409074,-0.003283560464237187,0.0065083438100485246,-0.0012060693648797787
385,0.0,300.59621,977.7143199999999,-0.003849991777531203,0.0,0.0,0.0,0.0,-0.0005875631803239079,-0.12675419312216488,-0.08366718866005862,-0.08677935695795573,0.010664074293962189,0.0042003635428686055,-0.025358915240980075
386,0.0,300.6034,876.9286900000001,-0.0038600014522287562,0.0,0.0,0.0,0.0,-0.0005890907982096516,-0.0981390233925675,-0.07140905208352473,-0.09701634937451821,-0.011314302214384689,-0.005438016723965464,-0.003352289421170207
387,0.0,300.26909,902.7129,-0.0038700111269260873,0.0,0.0,0.0,0.0,-0.0005906184160953398,-0.0897961814611931,-0.08783775241616122,-0.0967682459682823,0.004446084190169346,0.004142518310559726,-0.03026683224060377
388,0.0,300.00318,979.5414699999999,-0.0038799877663935334,0.0,0.0,0.0,0.0,-0.0005921409923378695,-0.14446872303045286,-0.05880405466650835,-0.09448336597953222,0.00947546697733078,0.012292525271677788,0.013900957467167687
389,0.0,299.88464,898.5169300000001,-0.0038899974410910865,0.0,0.0,0.0,0.0,-0.0005936686102236133,-0.14323292267848886,-0.07671009796294723,-0.05318369213732174,0.004753332220642365,0.01193543364493559,-0.020529197844324082
390,0.0,299.63285,940.3117199999999,-0.0039000071157886396,0.0,0.0,0.0,0.0,-0.000595196228109357,-0.14822070709074486,-0.07342514316524744,-0.06418543202710894,0.005866022482806345,-0.003393739557586017,0.008598450481100993
391,0.0,299.45825,1128.1151,-0.003909983755255864,0.0,0.0,0.0,0.0,-0.000596718804351859,-0.15457766596562786,-0.087320111311074,-0.1010210309169995,-0.008370836917062283,-0.012077900661995988,-0.0003880950431694986
392,0.0,299.47573,1113.7644,-0.003919993429953306,0.0,0.0,0.0,0.0,-0.0005982464222376027,-0.1284568585902049,-0.0949299286033545,-0.11516977565637188,-0.005191257596637236,-0.004358538976229306,0.018563418683066782
393,0.0,300.14965,1025.6903,-0.003930003104650859,0.0,0.0,0.0,0.0,-0.0005997740401233465,-0.1218644811870879,-0.07998314605872192,-0.10993662259989989,0.0004025266528862876,-0.01021641533353169,0.008970106868755622
394,0.0,300.55723,1091.6527,-0.003940012779348301,0.0,0.0,0.0,0.0,-0.0006013016580090347,-0.14824239064288486,-0.08762941806310022,-0.0959633636585966,-0.010892200461226489,0.01042927384828919,0.014599470807855588
395,0.0,300.31227,1032.6387,-0.003949989418815636,0.0,0.0,0.0,0.0,-0.0006028242342515644,-0.16462381779210586,-0.08142080204260752,-0.06785176301669764,0.004627094734408695,0.00989982088148625,-0.0026810393982729876
396,0.0,300.11047,1025.0978,-0.003959999093513189,0.0,0.0,0.0,0.0,-0.0006043518521373081,-0.16217176268260686,-0.06335794714744254,-0.08607440643938251,0.02145500446069408,0.015650976165381084,0.006655766126722974
397,0.0,300.39459,1074.1684,-0.003970008768210742,0.0,0.0,0.0,0.0,-0.0006058794700230519,-0.14698820993410686,-0.0901695641230431,-0.08936259249165122,0.01960373978598848,0.00949080180831921,-0.019297058364971382
398,0.0,299.98135,1012.6060000000001,-0.003979985407677966,0.0,0.0,0.0,0.0,-0.0006074020462655538,-0.11142118598391489,-0.07823450538064453,-0.1181512539431209,0.022277851694652778,-0.016381124187441087,-0.002973657617177157
399,0.0,300.07441,914.2557,-0.003989995082375519,0.0,0.0,0.0,0.0,-0.0006089296641512976,-0.0898616779476571,-0.09545387921681442,-0.09259534768394932,-0.013852163395352089,-0.008147677904438202,-0.02014859374901138
400,0.0,300.11526000000003,1001.9347,-0.004000004757073072,0.0,0.0,0.0,0.0,-0.0006104572820370413,-0.14086609203490086,-0.08516947074857233,-0.07852755554806633,-0.013871949130054788,0.001935713295015028,0.008276313348358533
401,0.0,299.77342999999996,1029.823,-0.0040100144317706254,0.0,0.0,0.0,0.0,-0.0006119848999227573,-0.14813075074686685,-0.0865680578351021,-0.07834166063171993,-0.007670059063725893,0.005254479843251785,-0.015031406153234287
402,0.0,299.65615,897.7987400000001,-0.0040199910712378495,0.0,0.0,0.0,0.0,-0.0006135074761652592,-0.13756336280394688,-0.08152447677958942,-0.053820564408176154,-0.011203518514701189,0.015393435347713785,0.010842798439350888
403,0.0,299.39738,897.49997,-0.004030000745935625,0.0,0.0,0.0,0.0,-0.0006150350940510307,-0.10251458588240189,-0.08913562649575142,-0.08116736894084563,-0.0012575842158638988,-0.0037975741339663868,-0.02112494634661988
404,0.0,298.93124,1113.4911,-0.004040010420632956,0.0,0.0,0.0,0.0,-0.0006165627119367467,-0.14438588983477785,-0.07712488506363353,-0.11696270144331988,0.006745381613267333,-0.0031816570910801066,0.010198918530804891
405,0.0,299.21807,1163.3476,-0.004049987060100402,0.0,0.0,0.0,0.0,-0.0006180852881792764,-0.14745095112227585,-0.09654205206895872,-0.10963560626019189,-0.008266152679005753,-0.004704098094308336,-0.011430729717125188
406,0.0,299.67973,1103.8015,-0.004059996734797733,0.0,0.0,0.0,0.0,-0.0006196129060649924,-0.17618037088014882,-0.06345844129236053,-0.09588927177153432,0.014383767086817286,-0.004828704146555995,0.009287050081485481
407,0.0,299.44948999999997,1032.0973,-0.004070006409495286,0.0,0.0,0.0,0.0,-0.0006211405239507362,-0.15209070439018385,-0.08393227109822023,-0.07770881603001302,-0.008398103173278252,0.004513181611791346,0.005763990730861594
408,0.0,300.25836,1003.3296,-0.004080016084192839,0.0,0.0,0.0,0.0,-0.0006226681418364521,-0.16190457876373784,-0.06161587131676304,-0.08146670125888741,0.004102226217683206,0.008166707653241293,0.005113288812042315
409,0.0,300.5817,1063.1724,-0.004089992723660063,0.0,0.0,0.0,0.0,-0.0006241907180789541,-0.13328104364131488,-0.07635007095066533,-0.1135467617786929,-0.011022015024288189,0.005782796956692624,0.005404085207266684
410,0.0,300.32624,1054.1641,-0.004100002398357727,0.0,0.0,0.0,0.0,-0.0006257183359647256,-0.12934566131292288,-0.08867093682764011,-0.10242296780835991,0.003908902759553666,-0.01063077585592589,-0.002686782702489807
411,0.0,299.80284,931.74727,-0.004110012073055058,0.0,0.0,0.0,0.0,-0.0006272459538504416,-0.11657147544720889,-0.07276236107608593,-0.09389407086712331,-0.0034992743177764862,-0.005464750922553926,0.008009499164451024
412,0.0,300.06096,950.21732,-0.004119988712522504,0.0,0.0,0.0,0.0,-0.0006287685300929713,-0.14621857555564988,-0.07175623716403924,-0.07086752867358052,-0.002927580474179697,0.008462498155558542,0.012403880444417687
413,0.0,299.9512,1085.3764,-0.004129998387220057,0.0,0.0,0.0,0.0,-0.000630296147978715,-0.16053591092616085,-0.08499066047692512,-0.08440075234820571,-0.004896248614122116,0.02028013894324388,0.002114259007061118
414,0.0,300.20206,1170.7267,-0.0041400080619176105,0.0,0.0,0.0,0.0,-0.0006318237658644588,-0.16964138162480083,-0.07418092236183703,-0.1120493909134139,-0.0063946664707294435,0.012532551048116488,0.008210909878253712
415,0.0,299.3141,1058.0689,-0.0041499847013848346,0.0,0.0,0.0,0.0,-0.0006333463421069607,-0.10524296442667191,-0.09723382526998141,-0.11914975112166488,0.0015647689182056686,0.014461812675769787,-0.01220828568486399
416,0.0,299.91491,1019.5021,-0.004159994376082388,0.0,0.0,0.0,0.0,-0.0006348739599926767,-0.11577951916904888,-0.08068196540094003,-0.1134416978758239,0.01118367502474279,-0.003054305739011507,-0.01212488304263279
417,0.0,300.21873999999997,1033.479,-0.004170004050779941,0.0,0.0,0.0,0.0,-0.0006364015778784204,-0.14000571097748787,-0.07248323803128863,-0.1016628579808429,0.002021728501304068,0.00011790749636656387,-0.019613086004910883
418,0.0,300.75609,937.14389,-0.004180013725477272,0.0,0.0,0.0,0.0,-0.0006379291957641364,-0.15441064181914385,-0.06996954894470683,-0.06048815333971594,0.008040337836544563,-0.025676238827797477,-0.0018203262988022184
419,0.0,300.34004,879.52366,-0.004189990364944718,0.0,0.0,0.0,0.0,-0.0006394517720066661,-0.13316565471992686,-0.06697712249062733,-0.06721045271040524,0.01197580152891959,-0.010823255884672188,-0.0014964182075349786
420,0.0,300.00359,984.6498300000001,-0.004200000039642271,0.0,0.0,0.0,0.0,-0.0006409793898924099,-0.14798439690242285,-0.06723812862363664,-0.08408643507443501,0.0019563232073490683,0.008534086098973721,0.014159744582457987
421,0.0,299.9962,1060.2698,-0.004210009714339824,0.0,0.0,0.0,0.0,-0.0006425070077781536,-0.12256447488617188,-0.09002290123731861,-0.1097081650998529,0.007142712643880854,0.012079384060142388,-0.00848403377318394
422,0.0,299.99392,1147.4981,-0.004219986353807048,0.0,0.0,0.0,0.0,-0.0006440295840206556,-0.15069196328963885,-0.09020852865563861,-0.10791026425491392,-0.007371659645051163,-0.0013466074577248087,0.00934970744116928
423,0.0,299.77738999999997,1230.3980000000001,-0.004229996028504601,0.0,0.0,0.0,0.0,-0.0006455572019063716,-0.16984104255700583,-0.1005141241834717,-0.1036550900624609,-0.01964949208100388,0.0062988826215513135,-0.00981543639990815
424,0.0,299.81644,1145.1382,-0.004240005703202154,0.0,0.0,0.0,0.0,-0.0006470848197921153,-0.1794276246681278,-0.07767927978959803,-0.0909865112016695,6.828071839353223e-05,-0.005662094551780224,0.012337329164599588
425,0.0,299.69007999999997,1015.3679,-0.004250015377899596,0.0,0.0,0.0,0.0,-0.000648612437677859,-0.15321307139345286,-0.07211883276532463,-0.08331457965175883,-0.0059514118045086144,0.01012811403236703,-0.004868076107016705
426,0.0,299.87396,1028.5025,-0.00425999201736682,0.0,0.0,0.0,0.0,-0.000650135013920361,-0.14464737928808488,-0.06985290764619524,-0.09813878527879401,0.008327641254699203,-0.0019080152929314483,0.003065590710675247
427,0.0,300.34912,981.7823400000001,-0.0042700016920643735,0.0,0.0,0.0,0.0,-0.0006516626318061047,-0.11080350872295489,-0.06330708908517324,-0.12432670932759088,0.017380828146854183,-0.00046415002124054056,-0.004529459981272896
428,0.0,299.83142999999995,861.3136400000001,-0.004280011366761927,0.0,0.0,0.0,0.0,-0.0006531902496918207,-0.1070787101628459,-0.07401215542518103,-0.08072697093063172,0.01878805724348688,-0.0028356484952567172,-0.01303328708853529
429,0.0,300.14031,1003.2332,-0.004289988006229373,0.0,0.0,0.0,0.0,-0.0006547128259343782,-0.15195313542410685,-0.07623669434397592,-0.07676800723266243,0.014404960225908885,-0.011422478821560889,-0.009267583723214302
430,0.0,299.95002999999997,1142.2375,-0.004299997680926704,0.0,0.0,0.0,0.0,-0.0006562404438200664,-0.17753132710597783,-0.0903316314500379,-0.07934873091936002,0.014862323082547086,-0.023087909685849277,-0.00887012644163832
431,0.0,299.50343,1091.9036,-0.004310007355624257,0.0,0.0,0.0,0.0,-0.0006577680617058101,-0.15535872980521287,-0.09511709008232591,-0.08143560258681821,-0.0032318689024356272,0.002963948553393947,-0.004700061711209976
432,0.0,300.0867,1147.0965,-0.004319983995091703,0.0,0.0,0.0,0.0,-0.0006592906379483399,-0.13441767720599188,-0.1040452724109689,-0.1102257433834339,0.004224079472059186,0.013856759497805687,-0.00018801822246095382
433,0.0,299.47342000000003,1090.9598,-0.004329993669789034,0.0,0.0,0.0,0.0,-0.0006608182558340558,-0.11855561166052787,-0.09521151384589481,-0.11785741141412089,-0.012781882513473588,0.003712531647773346,-0.012905656079439089
434,0.0,299.29815,1017.5504,-0.004340003344486587,0.0,0.0,0.0,0.0,-0.0006623458737197996,-0.12962137679763389,-0.08239042260655162,-0.0972981078828256,-0.003153884513789167,0.004921728611736795,-0.010143077304543792
435,0.0,299.42894,933.01444,-0.00435001301918414,0.0,0.0,0.0,0.0,-0.0006638734916055156,-0.14867372107795385,-0.06490207849158644,-0.07003729383314274,-0.006325707506023724,-0.0013655628339705587,-0.005240761450147885
436,0.0,300.43345,963.6008199999999,-0.004359989658651586,0.0,0.0,0.0,0.0,-0.000665396067848073,-0.15226858044523883,-0.07522495499987503,-0.06541705576216074,0.01039620744452579,0.008911597957631242,-0.003168006484407897
437,0.0,300.23222999999996,1028.5743,-0.004369999333348917,0.0,0.0,0.0,0.0,-0.0006669236857337613,-0.14648524271696786,-0.07950422326645593,-0.08667142758380392,-0.005229867289047715,-0.01090071986806729,-0.003989048511988436
438,0.0,300.15215,1146.2314,-0.00438000900804647,0.0,0.0,0.0,0.0,-0.000668451303619505,-0.13525788445391387,-0.09488553102372281,-0.11828229757855388,0.007624614391440853,-0.009296047134423422,0.006615769598900624
439,0.0,300.04053,1251.8073,-0.0043899856475138055,0.0,0.0,0.0,0.0,-0.0006699738798620347,-0.14207222442393688,-0.08952914243708841,-0.14891679977694386,-0.006167319695442064,0.0003669606827161996,0.0012962264336025889
440,0.0,300.06822999999997,1169.6109,-0.004399995322211359,0.0,0.0,0.0,0.0,-0.0006715014977477785,-0.16032267244261586,-0.07981842502971523,-0.11539142411574688,0.012362182163052387,0.017211021615595585,0.015081820411959785
441,0.0,299.4951,1117.9229,-0.004410004996908801,0.0,0.0,0.0,0.0,-0.0006730291156334944,-0.17183991142677882,-0.09879599753215582,-0.06918472189425044,-0.007164992189729673,0.001946097386014858,-0.0038144365408055766
442,0.0,299.44129,1179.5897,-0.004420014671606354,0.0,0.0,0.0,0.0,-0.0006745567335192104,-0.18664228962015983,-0.086340440319388,-0.08558307842614223,0.0019322465611228883,-0.008589393950382182,0.00024843609677373377
443,0.0,299.09867,1092.4389,-0.004429991311073689,0.0,0.0,0.0,0.0,-0.0006760793097617679,-0.15507626607483585,-0.07918859788680613,-0.09780926925352332,-0.0024072421986513076,-0.008664626858382091,0.0100827454551645
444,0.0,299.05023,944.9141699999999,-0.00444000098577102,0.0,0.0,0.0,0.0,-0.0006776069276474561,-0.1064628668845669,-0.07665404699391543,-0.1041134033476929,-0.0009139997398447511,-0.004343046382200306,-0.008353890005164753
445,0.0,299.92335,1014.6349,-0.004450010660468573,0.0,0.0,0.0,0.0,-0.0006791345455331999,-0.10368655147806591,-0.07686355063759183,-0.12787358117013986,-0.01039980245588059,-0.001095866156178569,0.0008242063975103384
446,0.0,299.79177000000004,994.3033300000001,-0.004459987299936019,0.0,0.0,0.0,0.0,-0.0006806571217757296,-0.12770499661850188,-0.08401244147263241,-0.09052594242171491,-0.015930377853955884,0.004365701945161235,-0.027522858764044675
447,0.0,300.45947,1034.8653,-0.004469996974633572,0.0,0.0,0.0,0.0,-0.0006821847396614733,-0.15717622690708585,-0.07121278047290423,-0.08618419411421772,-0.0022095122171618777,0.01829587810016258,-0.01158367070046929
448,0.0,300.45063,1101.8973,-0.004480006649330903,0.0,0.0,0.0,0.0,-0.0006837123575471893,-0.17072487022173283,-0.08476174194808261,-0.07946264556185252,-1.7990340638508383e-05,0.02373170144163658,-0.029077567425982474
449,0.0,300.009,1160.8741,-0.004490016324028456,0.0,0.0,0.0,0.0,-0.0006852399754329053,-0.16483917396835984,-0.09271873013537622,-0.09531884033623711,-0.0026568635548620176,-0.0005636203579924985,-0.003922736865818986
450,0.0,299.97416,1155.5011,-0.004499992963495902,0.0,0.0,0.0,0.0,-0.0006867625516754627,-0.12029623347731387,-0.09746256141380591,-0.13348469677891386,0.006708410244943544,-0.01161386757994949,-0.011575530249165888
451,0.0,300.44444,1117.6809,-0.0045100026381934555,0.0,0.0,0.0,0.0,-0.0006882901695611787,-0.12416628143925788,-0.08121495420529191,-0.13436585959587788,0.013081920053584987,-0.016134498099850982,0.02073160164454978
452,0.0,300.30253999999996,1092.7849,-0.0045200123128907865,0.0,0.0,0.0,0.0,-0.0006898177874468947,-0.15079268034957888,-0.07735444903278973,-0.1040321913521779,0.022333106249105977,-0.004551621990110115,0.0006674153576287673
453,0.0,300.05134,1144.0296,-0.004529988952358344,0.0,0.0,0.0,0.0,-0.0006913403636894522,-0.17374012013431483,-0.07796916253720722,-0.09604715741536642,0.008092325368700332,0.0038240301954023965,0.008581858308063472
454,0.0,300.21533,1170.359,-0.004539998627055786,0.0,0.0,0.0,0.0,-0.0006928679815751682,-0.17692873713900684,-0.0975942231317999,-0.08123695085171283,-0.015305223820507986,0.009670438790723001,-0.008844237800258312
455,0.0,300.65392,1156.8067,-0.004550008301753117,0.0,0.0,0.0,0.0,-0.0006943955994608841,-0.16599414735984683,-0.07420304161152003,-0.1114431735110849,-0.004180443552527655,0.008176261284459163,0.01092565595302829
456,0.0,300.15332,1092.5686,-0.004559984941220674,0.0,0.0,0.0,0.0,-0.0006959181757034416,-0.14171757675643587,-0.06887517500195053,-0.12152081715067088,-0.01065101046042289,0.0033685955537044966,-0.0029200647928879575
457,0.0,299.43138999999996,1078.4708,-0.004569994615918116,0.0,0.0,0.0,0.0,-0.0006974457935891576,-0.13758814690139287,-0.07941901906554692,-0.11082103794968488,-0.0027270665880405175,0.0015885034911980885,-0.013925557153095488
458,0.0,299.66256,1224.4872,-0.004580004290615558,0.0,0.0,0.0,0.0,-0.0006989734114748736,-0.16634698130966882,-0.09414085400847891,-0.11172568790396689,0.0018789586237887782,-0.003946971376410746,-0.0071680651746329534
459,0.0,300.07417999999996,1282.8298,-0.004590013965313,0.0,0.0,0.0,0.0,-0.0007005010293605896,-0.1891831966309278,-0.10054592301136,-0.10021911135060621,0.01210872879628849,0.005386467625127965,-0.0027077961923386773
460,0.0,299.94031,1179.7444,-0.004599990604780557,0.0,0.0,0.0,0.0,-0.000702023605603147,-0.18699397859736883,-0.09300804140992901,-0.07861083558703542,0.0013707899885864387,0.011506419499595189,0.0021018893511653277
461,0.0,299.85752,1100.1165,-0.004610000279477888,0.0,0.0,0.0,0.0,-0.000703551223488863,-0.15533085529496185,-0.07815175932447813,-0.1009253304583046,0.003762533412383136,0.00018516927728728482,0.015354319840853385
462,0.0,300.13747,1023.9976,-0.004620009954175441,0.0,0.0,0.0,0.0,-0.0007050788413746067,-0.1066910710720889,-0.09400273687409783,-0.11057589222049088,-0.012590872710622387,-0.012850385312984288,-0.007840479928520123
463,0.0,300.78925,957.2389099999999,-0.0046299865936428874,0.0,0.0,0.0,0.0,-0.0007066014176171365,-0.1173893911929309,-0.07250909718709073,-0.1010782369911453,-0.002997157724096437,-0.0037018064967898564,0.007685354985910484
464,0.0,300.70411,1023.57,-0.0046399962683404405,0.0,0.0,0.0,0.0,-0.0007081290355028802,-0.12419581767967289,-0.08850739218199952,-0.0984365126086774,0.01135654055805329,0.0032954443680350363,-0.019919135157865583
465,0.0,300.08804,1120.5447,-0.004650005943037772,0.0,0.0,0.0,0.0,-0.0007096566533885684,-0.17246082095555784,-0.08319430585163871,-0.08496246983264293,0.004727321887925346,0.008826793483886692,-0.013401834520908089
466,0.0,299.37472,1002.3037,-0.004660015617735103,0.0,0.0,0.0,0.0,-0.0007111842712742844,-0.14843529319692286,-0.08431596459308782,-0.07192403138059923,-0.0032794971286861665,0.022952612426496478,-0.03136155879439487
467,0.0,299.74132000000003,1000.4895,-0.004669992257202771,0.0,0.0,0.0,0.0,-0.0007127068475168419,-0.14375090626210987,-0.08090431401613413,-0.07946860549894072,0.0007886643603076122,0.007796693946648782,-0.013443173098487887
468,0.0,300.21156,1247.4953,-0.004680001931900102,0.0,0.0,0.0,0.0,-0.0007142344654025579,-0.15130149401979484,-0.0966667791032683,-0.13123916230479687,0.005685016599517454,0.004741969026070905,-0.015868050813804685
469,0.0,299.75421,1296.1169,-0.004690011606597655,0.0,0.0,0.0,0.0,-0.0007157620832883016,-0.18656474559000683,-0.08038544687842591,-0.12703699122507486,-0.0016859128975116482,-0.014510572297081987,0.0093748301667987
470,0.0,299.89566,1150.1236,-0.004699988246065101,0.0,0.0,0.0,0.0,-0.0007172846595308313,-0.16037750953802785,-0.09773630004757182,-0.09149505230760861,0.00991670142550223,-0.012282538678692188,-0.0013670097551133585
471,0.0,300.2821,1098.1355,-0.004709997920762543,0.0,0.0,0.0,0.0,-0.000718812277416575,-0.17959769869741282,-0.06572756726855584,-0.0884805167363471,-0.005072394747281385,-0.0037015533869148767,0.02314746346047678
472,0.0,300.06135,1195.1846,-0.004720007595459985,0.0,0.0,0.0,0.0,-0.0007203398953022633,-0.17136297460470884,-0.0971522707959326,-0.0947910262001459,-0.0009055912332273961,0.01105495173203879,0.013961882169180486
473,0.0,299.89601,1231.7041,-0.004729984234927542,0.0,0.0,0.0,0.0,-0.0007218624715448207,-0.15977451427101685,-0.09577314317757331,-0.1188596272205319,0.005018910644727916,-0.00012469372877881287,0.011301571740128288
474,0.0,300.17072,1178.4641,-0.004739993909624873,0.0,0.0,0.0,0.0,-0.0007233900894305367,-0.13862057782578588,-0.08661179882866901,-0.13299127437771688,0.017141704163004486,0.015356395990308287,-0.006166722283183104
475,0.0,300.50414,1078.1825,-0.004750003584322426,0.0,0.0,0.0,0.0,-0.0007249177073162805,-0.12994583974465587,-0.09472140882552521,-0.1030733021200429,0.007834012049156793,-0.005236881715514985,-0.004911210366423726
476,0.0,300.57286,1012.4566,-0.0047600132590197575,0.0,0.0,0.0,0.0,-0.0007264453252019965,-0.13604993192458287,-0.08087290224978402,-0.09083869929033161,0.02216326628059408,-0.006749995954222733,-0.01938560629121038
477,0.0,300.56293999999997,1147.5274,-0.004769989898487426,0.0,0.0,0.0,0.0,-0.0007279679014445539,-0.1781396925985188,-0.08635681241450383,-0.08432316677479862,-0.004423117660752726,-0.0028222277950321973,-0.003116471875046827
478,0.0,300.20952,1170.6752,-0.004779999573184757,0.0,0.0,0.0,0.0,-0.0007294955193302699,-0.17044126151874284,-0.08867432310947432,-0.09674044339878841,-0.012718523984720589,0.009013803684618162,-0.030804112159129173
479,0.0,300.08308999999997,1036.4015,-0.004790009247882088,0.0,0.0,0.0,0.0,-0.0007310231372159581,-0.13436093520039186,-0.07460105638330103,-0.1060781966166029,-0.027390306399212774,-0.0003629685685147087,0.01119933683153849
480,0.0,299.54371000000003,1040.6997,-0.004799985887349756,0.0,0.0,0.0,0.0,-0.0007325457134585156,-0.12811006361097887,-0.0885477560129831,-0.0996889049310289,-0.017218920913375183,0.012717589768128387,-0.014711407586152886
481,0.0,299.81931000000003,1316.7332,-0.004809995562047087,0.0,0.0,0.0,0.0,-0.0007340733313442316,-0.17539301475744284,-0.1056688435762029,-0.11919216577085089,-0.002117874182092908,-0.004209628499132987,0.011979815012565688
482,0.0,299.44923,1218.6481,-0.00482000523674464,0.0,0.0,0.0,0.0,-0.0007356009492299753,-0.18068053881428084,-0.09470448856210532,-0.095053570446807,0.02628430743805918,-0.0031737191884716968,-0.025205142379303873
483,0.0,299.68795,1096.0357,-0.004830014911441971,0.0,0.0,0.0,0.0,-0.0007371285671156913,-0.16502093077129784,-0.1007868870573913,-0.06735967303938213,0.023804174155039076,-0.010743632665313991,0.016761977542278383
484,0.0,300.14404,1083.6196,-0.004839991550909639,0.0,0.0,0.0,0.0,-0.0007386511433582488,-0.14835728307172386,-0.08362785631767683,-0.0974081620424371,0.017538658061930786,-0.005966824554429735,-0.014411426788047087
485,0.0,300.3065,1188.3677,-0.00485000122560697,0.0,0.0,0.0,0.0,-0.0007401787612439648,-0.14026015834259986,-0.08872431180315782,-0.13224964623202387,0.0056692889314652545,-0.005774417479690634,0.007083359087473114
486,0.0,300.33099,1223.9226,-0.004860010900304523,0.0,0.0,0.0,0.0,-0.0007417063791296807,-0.14477848371852386,-0.097891278676867,-0.12937214767053687,-0.013256336872798587,0.011141134732544388,-0.015598123013664884
487,0.0,300.35357,1145.7618,-0.004869987539771858,0.0,0.0,0.0,0.0,-0.0007432289553722105,-0.16743691417723683,-0.061684383235524644,-0.11916167707534189,0.0018349722210476583,-0.002303328942595868,-0.0016963996307466083
488,0.0,299.83083999999997,1143.0725,-0.0048799972144694115,0.0,0.0,0.0,0.0,-0.0007447565732579542,-0.17360679668615683,-0.09552477429981122,-0.07833393257320723,-0.012908141581934386,0.004125331157063486,-0.009847517215299282
489,0.0,299.66931,1202.0123,-0.0048900068891668536,0.0,0.0,0.0,0.0,-0.0007462841911436702,-0.19640283664095082,-0.07760040536206372,-0.0913784829498541,0.006093370777968874,-0.0016929387737050483,0.0002813701700740738
490,0.0,299.90347,1334.8358,-0.004899983528634189,0.0,0.0,0.0,0.0,-0.0007478067673861999,-0.19028632201479784,-0.1026480714505759,-0.1128223588846999,-0.0063439800530270835,0.004898910928759865,0.004931978447098376
491,0.0,299.39169,1333.3455,-0.004909993203331742,0.0,0.0,0.0,0.0,-0.0007493343852719436,-0.16568265401410484,-0.11101489295881689,-0.1286061913899429,0.01064943283001719,-0.0025325873155219074,0.007044822754369874
492,0.0,299.36287000000004,1160.145,-0.004920002878029073,0.0,0.0,0.0,0.0,-0.0007508620031576596,-0.14733170171800686,-0.08185483886869363,-0.12346856755289888,4.909046165535135e-05,-0.0063804164252980735,0.012415027208767788
493,0.0,300.01248,1223.8652,-0.004930012552726626,0.0,0.0,0.0,0.0,-0.0007523896210433756,-0.15034525950292188,-0.11969669339314389,-0.1019825181223909,0.013908086694871287,-0.005072031193145505,-0.01080926290079119
494,0.0,299.95521,1332.1753,-0.004939989192194072,0.0,0.0,0.0,0.0,-0.0007539121972859053,-0.18402902641975083,-0.1146466650272449,-0.1062723150707609,-0.005000091246645586,-0.002171847076494618,-0.007806751467141383
495,0.0,299.7227,1242.4563,-0.004949998866891625,0.0,0.0,0.0,0.0,-0.000755439815171649,-0.18011238921820882,-0.1022827947895259,-0.09528051212470441,0.009050442402934122,-0.005094679156730685,-0.01144802285658189
496,0.0,299.84736000000004,1046.2392,-0.004960008541588956,0.0,0.0,0.0,0.0,-0.000756967433057365,-0.12764299584488287,-0.09206010845112532,-0.09832748183166691,-0.006432674191255513,0.0006997995603648394,-0.0049758825739313756
497,0.0,300.48892,1024.0935,-0.004969985181056402,0.0,0.0,0.0,0.0,-0.0007584900092998947,-0.12563174505888788,-0.07573430467939393,-0.10993280264702289,0.009153617911591751,0.001263387200511609,-0.0038976661199196967
498,0.0,300.52502000000004,1035.9059,-0.004979994855753955,0.0,0.0,0.0,0.0,-0.0007600176271856385,-0.13434928282424186,-0.07588505704252202,-0.1046551983086639,-0.0057847162550320455,0.011745058136646988,-0.004434083559959976
499,0.0,299.55206,1128.8437,-0.004990004530451508,0.0,0.0,0.0,0.0,-0.0007615452450713822,-0.16747687676118084,-0.08109097900255652,-0.09457244282232341,0.005181247394924305,0.003012807777190977,-0.01087816390759119
500,0.0,299.79045,1262.5563,-0.005000014205148839,0.0,0.0,0.0,0.0,-0.0007630728629570704,-0.1934115095632298,-0.09455515981536772,-0.0958189045918396,-0.003950375694096726,0.0071901658818391235,0.0026011242615609775
501,0.0,300.41112999999996,1185.0772,-0.0050099908446163965,0.0,0.0,0.0,0.0,-0.0007645954391996279,-0.1896093898879898,-0.09259164932108431,-0.07803282605424033,-0.006646421529000733,-0.0037066744542452864,-0.010596977885590289
502,0.0,300.15716000000003,1251.5322,-0.005020000519313839,0.0,0.0,0.0,0.0,-0.0007661230570853439,-0.16324473374350085,-0.09457966121603581,-0.12261014206817888,-0.011006986498804988,-0.013148919189947289,0.007895281256203592
503,0.0,299.74429,1367.7736,-0.00503001019401117,0.0,0.0,0.0,0.0,-0.0007676506749710599,-0.18002964721504283,-0.09451140463629941,-0.14122797430811587,-0.017649764988396183,-0.008910659992013672,0.015210214398381286
504,0.0,299.51532000000003,1355.9717,-0.005039986833478616,0.0,0.0,0.0,0.0,-0.0007691732512135896,-0.16221131996651084,-0.10177770987967791,-0.14819252860546386,0.008065985223075764,0.004619551695364255,0.028713941349345375
505,0.0,300.24886000000004,1216.5935,-0.005049996508176058,0.0,0.0,0.0,0.0,-0.0007707008690993333,-0.17122264959835984,-0.08963803034583481,-0.1089533647028599,0.014406600677820788,-0.004194432382083246,-0.011361642272306788
506,0.0,300.91047000000003,1208.8464,-0.005060006182873611,0.0,0.0,0.0,0.0,-0.0007722284869850771,-0.17913145166389782,-0.1051946121318999,-0.08313306501559473,0.02233800733983968,0.02653560359536018,0.00023434301391535477
507,0.0,300.39983,1121.7633,-0.005070015857571053,0.0,0.0,0.0,0.0,-0.0007737561048707653,-0.19084959787788883,-0.07319182915747113,-0.07694659458928763,0.015752776389677987,-0.0005672394543021755,-0.013576808627676688
508,0.0,299.92745,1112.1161,-0.00507999249703861,0.0,0.0,0.0,0.0,-0.0007752786811133228,-0.15700325498251486,-0.07444800090269564,-0.10660425580352091,0.004368233449211076,0.005971781373918934,0.001921545424166768
509,0.0,300.16511,1157.1142,-0.005090002171735941,0.0,0.0,0.0,0.0,-0.0007768062989990387,-0.13462339737379486,-0.1089452181720559,-0.10816519798007389,-0.022823941822797678,-0.014193362194275787,-0.02216554609331908
510,0.0,299.97773,1208.8682,-0.005100011846433494,0.0,0.0,0.0,0.0,-0.0007783339168847825,-0.14871929706745188,-0.08116304236291863,-0.13758340489092485,-0.008438267191342132,-0.014897859790054285,0.0014174074978622287
511,0.0,299.63032999999996,1252.5616,-0.00510998848590094,0.0,0.0,0.0,0.0,-0.0007798564931273122,-0.15795323774627085,-0.11937005195840689,-0.1034241602321699,-0.025602439770014074,-0.0100674514581551,-0.03651553952780317
512,0.0,299.21684,1243.8497,-0.0051199981605984934,0.0,0.0,0.0,0.0,-0.0007813841110130559,-0.2006058284532538,-0.08776914525189022,-0.08972427414134641,-0.008721137538984262,0.01880026386744158,0.007663486211652202
513,0.0,299.81207,1312.0242,-0.0051300078352958245,0.0,0.0,0.0,0.0,-0.0007829117288987442,-0.18047675395416882,-0.11298033470779088,-0.1053654967612649,-0.0020274082747396183,0.004194943668083706,-0.023481025393396776
514,0.0,299.91056000000003,1241.4926,-0.005139984474763271,0.0,0.0,0.0,0.0,-0.0007844343051413016,-0.15579651464341884,-0.1068734358250869,-0.1147128099937729,0.008456057735272924,0.008730923407125052,0.014431885320816188
515,0.0,300.03634,1129.9781,-0.005149994149460824,0.0,0.0,0.0,0.0,-0.0007859619230270176,-0.14194031952591885,-0.07979081295124012,-0.12175398626368289,0.025473676960556177,-0.009117912295292881,-0.00026491289102236674
516,0.0,300.30868,1206.0787,-0.005160003824158155,0.0,0.0,0.0,0.0,-0.0007874895409127336,-0.15115791648062485,-0.08790103799090702,-0.1275588656890799,0.019051771794013482,-0.003077724177972727,0.016376335567468484
517,0.0,301.15672,1289.8166,-0.005170013498855708,0.0,0.0,0.0,0.0,-0.0007890171587984773,-0.17365837111624685,-0.10890002721759591,-0.10951365147815588,0.012589247457461988,-0.012938736668703887,0.0024372237624852577
518,0.0,299.97977000000003,1256.0669,-0.005179990138323043,0.0,0.0,0.0,0.0,-0.000790539735041007,-0.1983317507238198,-0.08826567326464373,-0.09521555570054373,-0.0019607180783328083,-0.014192092591900489,-0.0003331340880652747
519,0.0,300.40072999999995,1305.2246,-0.005189999813020596,0.0,0.0,0.0,0.0,-0.0007920673529267508,-0.1972114608832558,-0.0968244529778295,-0.10271975889515089,-0.006216327563028764,-0.011000541214918887,-0.011531629162083189
520,0.0,300.40032,1251.9168,-0.005200009487718038,0.0,0.0,0.0,0.0,-0.000793594970812439,-0.1814356837163078,-0.07459382279083712,-0.12452194235685887,-0.015280861235103586,0.0006331075907703545,-0.005082444871048255
521,0.0,300.3152,1069.8329,-0.005209986127185373,0.0,0.0,0.0,0.0,-0.0007951175470549965,-0.14275673566149286,-0.07363487175044603,-0.10881089160629889,-0.010776696029327092,0.002140377149588778,-0.008557261965861002
522,0.0,299.98098,1181.7374,-0.005219995801882926,0.0,0.0,0.0,0.0,-0.0007966451649407125,-0.15029341149530487,-0.1043428133028339,-0.1045824266864819,-0.008193589786344352,0.005611863286022785,-0.0070803174119979245
523,0.0,300.19248999999996,1335.7992,-0.005230005476580479,0.0,0.0,0.0,0.0,-0.0007981727828264562,-0.19189034758560283,-0.09711422629442791,-0.1170450280139449,0.01007518630544347,0.008420860263899202,0.006158342299556063
524,0.0,300.16827,1238.3997,-0.00524001515127781,0.0,0.0,0.0,0.0,-0.0007997004007121722,-0.19615425599391784,-0.0916144942293966,-0.08867383674942632,0.004913645611714065,0.02161512736074698,0.008340420972910462
525,0.0,300.23973,1157.6392,-0.0052499917907452565,0.0,0.0,0.0,0.0,-0.0008012229769547019,-0.15220705589916686,-0.09320113546823591,-0.1064852293142739,0.0038574116186218866,0.008129079394877673,-0.007863273394819662
526,0.0,299.63166,1251.1415,-0.0052600014654428096,0.0,0.0,0.0,0.0,-0.0008027505948404456,-0.15404870888342384,-0.09878210688653491,-0.12748496935928688,-0.026821262103302473,-0.003290808850152547,0.007114710464117252
527,0.0,299.31458,1266.5234,-0.005270011140140141,0.0,0.0,0.0,0.0,-0.0008042782127261339,-0.14478720780188487,-0.10819522058053689,-0.13200906012827987,-0.0013163254652362088,-0.003296392567478617,-0.025243288205818577
528,0.0,298.94264,1181.0771,-0.005279987779607587,0.0,0.0,0.0,0.0,-0.0008058007889686913,-0.15892637327481185,-0.07757711276876492,-0.1225144709937369,0.019072858541844585,0.005017458252034575,0.0033030981553154068
529,0.0,299.76446,1066.1232,-0.00528999745430514,0.0,0.0,0.0,0.0,-0.0008073284068544073,-0.16931138633223286,-0.08299006908198213,-0.07177336717022983,0.026321216086201773,-0.002572203671906737,-0.024362956253936578
530,0.0,300.01594,996.67375,-0.005300007129002693,0.0,0.0,0.0,0.0,-0.0008088560247401511,-0.16981273234921185,-0.06479161295243434,-0.06835959079456634,0.0011275428874298191,-0.011938757105263589,-0.0016388944451712884
531,0.0,299.99473,1200.272,-0.005309983768469917,0.0,0.0,0.0,0.0,-0.000810378600982653,-0.15989952906835483,-0.0960206507927504,-0.1089325424133049,0.009256112110882142,0.003109832553766577,-0.023331678408157377
532,0.0,300.27801,1444.3614,-0.00531999344316747,0.0,0.0,0.0,0.0,-0.0008119062188683968,-0.1929347044636728,-0.10842136787035589,-0.13769371742931186,-0.003373942373157187,0.017085101985918283,0.00812884644867968
533,0.0,300.55728999999997,1425.0599,-0.005330003117865023,0.0,0.0,0.0,0.0,-0.0008134338367541405,-0.18316906079487882,-0.1092429515814399,-0.14077060334547686,0.002953741578511597,0.01213152895003869,-0.007147195363648264
534,0.0,299.79929,1240.2149,-0.005340012792562576,0.0,0.0,0.0,0.0,-0.0008149614546398565,-0.16848214245039284,-0.0984779940545213,-0.1100342391145339,-0.026751356965653374,0.002366206582851408,0.005971002488567064
535,0.0,300.01785,1227.9333,-0.0053499894320298,0.0,0.0,0.0,0.0,-0.0008164840308823862,-0.1961306067365838,-0.0949869847164855,-0.08214348139818042,-0.02244814863895978,0.0035584919973458166,0.007331746507712043
536,0.0,299.80543,1404.7631,-0.005359999106727353,0.0,0.0,0.0,0.0,-0.0008180116487681022,-0.20815809820610479,-0.09644196525058091,-0.12241284200870688,-0.001729044421143398,-0.0011178774947259188,0.019027272419845583
537,0.0,299.61359,1260.6682,-0.005370008781424795,0.0,0.0,0.0,0.0,-0.0008195392666538459,-0.16056812214683985,-0.1007820366291626,-0.12186148196679189,-0.0026498958392243573,-0.0026278231990459573,-0.016095378539990185
538,0.0,300.24408999999997,1116.0204,-0.0053799854208922415,0.0,0.0,0.0,0.0,-0.0008210618428963756,-0.14610773612721087,-0.08449606473211232,-0.1086385377642889,0.007823458542740242,-0.014670912032656285,-0.01941162148752788
539,0.0,300.66492999999997,1178.7484,-0.005389995095589573,0.0,0.0,0.0,0.0,-0.0008225894607820916,-0.14604910947642485,-0.08992125908003731,-0.12233971574898987,-0.0014551197546591387,-0.009942587736407011,-0.018972548808444782
540,0.0,300.79056,1295.385,-0.005400004770287126,0.0,0.0,0.0,0.0,-0.0008241170786678353,-0.18591082437296982,-0.10506665890927191,-0.1027872109543079,0.014176615196622985,0.009269838103361792,-0.013762679226020686
541,0.0,300.44413,1449.8461,-0.005410014444984679,0.0,0.0,0.0,0.0,-0.0008256446965535513,-0.23473207155625178,-0.09317010772367372,-0.1128148405689579,-0.00024044727834779875,-0.0028577502157129875,-0.01218916160247659
542,0.0,300.33645,1402.6995,-0.005419991084451903,0.0,0.0,0.0,0.0,-0.000827167272796081,-0.20545892152971681,-0.1042112326448479,-0.11671547855142089,-0.004453866558887406,-0.016092071291663786,0.0025931613316750976
543,0.0,300.29677999999996,1131.3238,-0.005430000759149456,0.0,0.0,0.0,0.0,-0.000828694890681797,-0.14068790187231486,-0.08962006238181151,-0.1135862177375869,-0.015355697860989384,-0.008013430574839022,-0.009937614299616171
544,0.0,300.20117999999997,1222.7946,-0.005440010433847009,0.0,0.0,0.0,0.0,-0.0008302225085675408,-0.14765281080719786,-0.08741045978274073,-0.13663576273489986,-0.0015387219058350286,0.011037510658067488,0.012273252241525687
545,0.0,300.23401,1443.1611,-0.005449987073314455,0.0,0.0,0.0,0.0,-0.0008317450848100705,-0.16839797176458585,-0.12169063786743088,-0.14859632903531586,-0.007610161189364432,0.0037748589918995767,-0.015792160407814882
546,0.0,299.64408,1340.0329,-0.005459996748011786,0.0,0.0,0.0,0.0,-0.0008332727026957865,-0.2019147955949388,-0.09366648881516271,-0.1117552545418849,0.007369098452773393,0.004465585302918956,0.012986953187962487
547,0.0,299.89751,1116.6831,-0.005470006422709339,0.0,0.0,0.0,0.0,-0.0008348003205815302,-0.1826075175894588,-0.07965087703292952,-0.07718539433310533,0.0010995547918426088,0.007816757717178923,-0.008281495312019951
548,0.0,300.28031,1183.0277,-0.005480016097406892,0.0,0.0,0.0,0.0,-0.0008363279384672462,-0.17879708926339882,-0.08541499847305402,-0.09539880198112873,0.014015234853195987,0.000998187377325924,0.0024990499531120274
549,0.0,300.34292999999997,1419.0833,-0.005489992736874338,0.0,0.0,0.0,0.0,-0.0008378505147098037,-0.17917282266548082,-0.09823269836431249,-0.15396037373970586,0.003033635740946537,-0.004908976251278235,-0.009050210469986232
550,0.0,299.44171,1408.7973,-0.0055000024115716695,0.0,0.0,0.0,0.0,-0.0008393781325954919,-0.17937028484496884,-0.10754083326845389,-0.14132807328549488,0.0024566163561491575,-0.02064701045995128,-0.00919267991884687
551,0.0,298.8443,1293.1915,-0.0055100120862692226,0.0,0.0,0.0,0.0,-0.0008409057504812356,-0.16801533812932284,-0.09866236504271732,-0.12642022588920487,0.0036879391559212567,-0.012059753352704988,0.004653714638385875
552,0.0,299.39125,1215.887,-0.005519988725736558,0.0,0.0,0.0,0.0,-0.0008424283267237653,-0.1987340110135198,-0.07907300124914762,-0.0917922790919426,-0.0061687098745792646,0.004938913333432795,0.013569644949469686
553,0.0,299.7954,1170.8989,-0.005529998400434,0.0,0.0,0.0,0.0,-0.0008439559446094813,-0.1879727072664618,-0.07843842500301984,-0.0895129101704864,8.978098169644302e-05,0.011551437188288091,0.01124409310170559
554,0.0,299.9639,1381.6277,-0.005540008075131553,0.0,0.0,0.0,0.0,-0.000845483562495225,-0.1936181315236218,-0.0965753170697417,-0.12978687093646687,-0.004845189421707965,0.003036077977662567,-0.003223845076218737
555,0.0,300.39938,1423.6714,-0.005549984714598888,0.0,0.0,0.0,0.0,-0.0008470061387377548,-0.16801819549460484,-0.1107340909586039,-0.15400825993943185,0.0018191748413885784,0.017752192414504982,0.009205042076691922
556,0.0,300.44657,1221.5569,-0.005559994389296441,0.0,0.0,0.0,0.0,-0.0008485337566234985,-0.14597286240639987,-0.10245531075155191,-0.1228946221662549,-0.004276183021351406,0.0055464419827162045,-0.029255186115512075
557,0.0,299.62121,1296.4918,-0.005570004063993772,0.0,0.0,0.0,0.0,-0.0008500613745091867,-0.15572966040182085,-0.11222562550330689,-0.1261458377621249,-0.010490494419331189,0.007054812285780764,-0.02106984479293178
558,0.0,300.14451,1422.6876,-0.005580013738691547,0.0,0.0,0.0,0.0,-0.0008515889923949582,-0.2268002991109468,-0.1123067159088099,-0.0933544969503715,-0.01889746798928488,-0.013884040243498087,-0.026349573916750475
559,0.0,299.93795,1252.1578,-0.005589990378158771,0.0,0.0,0.0,0.0,-0.0008531115686374602,-0.19373838404548982,-0.08963392465642961,-0.0972523890250635,0.005244748285316354,-0.004258370895193486,-0.004022525282042336
560,0.0,300.34207999999995,1073.0333,-0.005600000052856324,0.0,0.0,0.0,0.0,-0.0008546391865232039,-0.16139009089296186,-0.08246499984041183,-0.08232024085162523,0.00856239093654219,0.010667390661539489,-0.007889967468704163
561,0.0,300.6179,1163.8608,-0.005610009727553655,0.0,0.0,0.0,0.0,-0.0008561668044089199,-0.14519374400700688,-0.09153647599819682,-0.11705440057736989,0.015012391501857684,0.009313738278519402,-0.005771599428512515
562,0.0,299.99753,1352.6361,-0.0056199863670213235,0.0,0.0,0.0,0.0,-0.0008576893806514774,-0.17275221141931582,-0.10275974174409691,-0.1356556357806689,0.0100102139732562,-0.018726721161933482,-0.0026992843848736275
563,0.0,300.35151,1492.3076,-0.0056299960417186545,0.0,0.0,0.0,0.0,-0.0008592169985371934,-0.1900205465135678,-0.12223085215824588,-0.14137285893991489,0.0005369540775582415,0.003764372967939686,-0.007736651177523023
564,0.0,300.19073,1548.2111,-0.005640005716415986,0.0,0.0,0.0,0.0,-0.0008607446164228816,-0.25042609970513174,-0.1064987359381069,-0.11369266979309288,0.013499702321566887,0.005304102956299205,0.0023394724855879574
565,0.0,299.70627,1432.7457,-0.005650015391113761,0.0,0.0,0.0,0.0,-0.0008622722343086531,-0.1981178434952088,-0.1048415552670559,-0.1325595386426079,-0.00047605597336056654,0.015679092842405984,0.012950929107157188
566,0.0,299.62062000000003,1244.7823,-0.005659992030580985,0.0,0.0,0.0,0.0,-0.000863794810551155,-0.17601551508887883,-0.09847592094481672,-0.10389130905827389,-0.007371283830589073,-0.004599355898346086,-0.0063665723891817745
567,0.0,299.29384,1315.7134,-0.005670001705278538,0.0,0.0,0.0,0.0,-0.0008653224284368988,-0.15753266802726384,-0.08595000769810532,-0.15646135869653385,-0.013333026733117289,-0.0025555394567871076,0.007428535095689333
568,0.0,300.00248999999997,1429.8867,-0.005680011379975869,0.0,0.0,0.0,0.0,-0.0008668500463226148,-0.18535188522030682,-0.1128805802354459,-0.13641738707334788,0.007692172436558312,0.004062129884726006,-0.013467447531133589
569,0.0,300.53413,1249.0368,-0.005689988019443426,0.0,0.0,0.0,0.0,-0.0008683726225651722,-0.18252248564106682,-0.09425254254050172,-0.1029009584105339,-0.000999228370213662,0.010022808773324211,-0.01034130448785729
570,0.0,300.20971000000003,1162.9456,-0.005699997694140757,0.0,0.0,0.0,0.0,-0.0008699002404508882,-0.2099364230591118,-0.08112839934199963,-0.06244159212800534,-0.0038158705936721066,-0.016306305800057087,-0.017524463441279885
571,0.0,299.91708,1370.4035,-0.00571000736883831,0.0,0.0,0.0,0.0,-0.0008714278583366042,-0.2068099993455578,-0.10037825747756271,-0.10938019630748488,-0.02129334749998978,-0.005551443891834855,0.0052082644929406854
572,0.0,300.08105,1486.0306,-0.005719984008305756,0.0,0.0,0.0,0.0,-0.0008729504345791339,-0.1974557149523618,-0.11710916674527488,-0.13715130438577985,0.01029527760206479,-0.004342390708060596,-0.0008498228495159852
573,0.0,299.78077,1393.5787,-0.005729993683003309,0.0,0.0,0.0,0.0,-0.0008744780524648776,-0.16473738286331385,-0.1076083258576149,-0.15126742855143285,-0.0007438120745610362,-0.00039113289869181165,0.001871179902771078
574,0.0,300.52387000000004,1355.7995,-0.00574000335770064,0.0,0.0,0.0,0.0,-0.0008760056703505936,-0.15113042700541185,-0.12340525968665088,-0.13759351712692286,0.015587372430103883,-0.023966137117273578,-0.015674145142167684
575,0.0,299.83744,1223.4075,-0.0057500130323979715,0.0,0.0,0.0,0.0,-0.0008775332882363096,-0.18458268653939283,-0.08319320546203013,-0.1041094415398019,-0.007081730389262374,-0.011708601398048989,-0.004382543681698386
576,0.0,299.5321,1229.6425,-0.00575998967186564,0.0,0.0,0.0,0.0,-0.0008790558644788671,-0.2027483457897038,-0.09564127273005871,-0.07539099629376203,0.0025039405060446876,0.0064312742849173534,-0.015687677097253185
577,0.0,299.50092,1334.7093,-0.005769999346562971,0.0,0.0,0.0,0.0,-0.0008805834823645831,-0.19280191803806782,-0.0993277967808903,-0.11358856847781888,0.0013997922461987387,0.01697580877713188,-0.011831929133970487
578,0.0,299.9173,1279.3379,-0.005780009021260524,0.0,0.0,0.0,0.0,-0.000882111100250299,-0.17764261236446083,-0.09200237447367741,-0.1192417846282479,0.006755524044118313,0.0028911325508575673,-0.001161191606025689
579,0.0,300.45085,1189.0983,-0.00578998566072797,0.0,0.0,0.0,0.0,-0.0008836336764928288,-0.12529024937768488,-0.10469311412740591,-0.13147281777785685,-0.009766760473054211,0.0008797107282456891,-0.01939683614206868
580,0.0,299.99192,1266.0263,-0.005799995335425523,0.0,0.0,0.0,0.0,-0.0008851612943785725,-0.16816073951867283,-0.0982956830037786,-0.11838396709358788,-0.004204031609555616,0.0037800926313160963,-0.015751549343806886
581,0.0,300.32732999999996,1525.6996,-0.005810005010122854,0.0,0.0,0.0,0.0,-0.0008866889122642885,-0.2265101954748158,-0.11333697847798889,-0.1239274178606839,-0.0068980058546301735,-0.0005170506234589236,-0.008564594350209651
582,0.0,300.42089,1546.3767,-0.005820014684820407,0.0,0.0,0.0,0.0,-0.0008882165301500322,-0.2532425296830918,-0.1151675769036549,-0.1016497870545529,0.00952831050317103,-0.014917170310460087,0.0025835272483992876
583,0.0,300.2129,1456.7578,-0.005829991324287853,0.0,0.0,0.0,0.0,-0.0008897391063925619,-0.20384256470519482,-0.1068668598319379,-0.13210858155310187,0.008323213047787173,-0.006076130732817414,0.02108811977173538
584,0.0,300.11866000000003,1423.8058,-0.005840000998985295,0.0,0.0,0.0,0.0,-0.0008912667242783057,-0.20130763587001682,-0.09668667122923151,-0.1348071097494259,0.015692397829469087,0.017787293424469185,0.01886560127363988
585,0.0,300.02864,1477.9118,-0.005850010673682737,0.0,0.0,0.0,0.0,-0.0008927943421639939,-0.15934823995394684,-0.1178374605196519,-0.17206257313625384,0.00907899913447745,0.009751472048920361,0.015507895118760088
586,0.0,299.83203,1328.9411,-0.005859987313150294,0.0,0.0,0.0,0.0,-0.0008943169184065514,-0.15969235995290884,-0.10709483097193691,-0.13717772994838787,-0.010277205273281189,0.01094704870238959,-0.003096727278298187
587,0.0,300.26397000000003,1249.3863,-0.0058699969878476255,0.0,0.0,0.0,0.0,-0.0008958445362922673,-0.18933157697557182,-0.08554554764243823,-0.10490511644582891,-0.008465693439748892,0.0045048822828722655,0.00918935554659378
588,0.0,300.16834,1208.0683,-0.0058800066625450675,0.0,0.0,0.0,0.0,-0.0008973721541779833,-0.1912093928558978,-0.09125675209609022,-0.08475646595481191,-0.01789545483289388,0.012269729170927989,-0.01957292685044748
589,0.0,299.26715,1224.9072,-0.00589001633724251,0.0,0.0,0.0,0.0,-0.0008988997720637271,-0.19266874657742483,-0.09112607221744311,-0.08854639623134891,-0.023010284595688275,0.015798623930202784,-0.013801059113308487
590,0.0,299.94987000000003,1541.6027,-0.005899992976709956,0.0,0.0,0.0,0.0,-0.0009004223483062568,-0.19604637525577082,-0.13495532797405388,-0.13760702375075587,-0.018521684937947983,-0.00994685574847823,-0.02118377767392608
591,0.0,299.79244,1493.6401,-0.005910002651407509,0.0,0.0,0.0,0.0,-0.0009019499661920005,-0.16887592183675584,-0.1153913734532419,-0.16976199891670482,0.006342718455327574,-0.0030504644065573972,0.003053541140486047
592,0.0,299.85488,1304.3639,-0.00592001232610484,0.0,0.0,0.0,0.0,-0.0009034775840776887,-0.17070746258501485,-0.11310077974717789,-0.1126858031687229,0.01026984401130469,0.005572055222719035,-0.022892789127342376
593,0.0,300.14265,1363.2238,-0.005929988965572508,0.0,0.0,0.0,0.0,-0.0009050001603202462,-0.2069833259076638,-0.09096549639459552,-0.11643715901395288,0.026229020459602775,-0.007511045773857503,0.0022766493581877975
594,0.0,300.48845,1403.7552,-0.005939998640269839,0.0,0.0,0.0,0.0,-0.0009065277782059622,-0.22530585653845678,-0.1050857789386589,-0.0963148935555399,0.00936996737691878,-0.01965208397475968,-0.008729902152349261
595,0.0,300.25174,1323.6984,-0.005950008314967392,0.0,0.0,0.0,0.0,-0.0009080553960917059,-0.18909996826771383,-0.10336686093901491,-0.1099044316442229,0.013646536446558288,-0.008734674560320262,-0.0004357853411211646
596,0.0,300.54499,1304.8767,-0.005959984954434838,0.0,0.0,0.0,0.0,-0.0009095779723342357,-0.18020369318471985,-0.08680534277002032,-0.1296409021270609,0.006581000327019165,0.006557802776579743,-0.0008610643932804392
597,0.0,299.34682999999995,1346.3645,-0.00596999462913228,0.0,0.0,0.0,0.0,-0.0009111055902199794,-0.14023608352022388,-0.12361872108521788,-0.14540637454049185,-0.008532145015757152,0.011074572306975188,-0.013334902259052385
598,0.0,299.62225,1338.4289999999999,-0.005980004303829722,0.0,0.0,0.0,0.0,-0.0009126332081056676,-0.17800382589260982,-0.09976006345905171,-0.12908510404970788,-0.020881023610296583,0.018707151249502084,-0.012079937294696988
599,0.0,299.87449,1463.0169,-0.005990013978527053,0.0,0.0,0.0,0.0,-0.0009141608259913836,-0.20691391827581382,-0.1105390403143539,-0.12726765761033987,-0.013264755967879486,-9.65282313375947e-05,-0.0094400834732387
600,0.0,299.21227999999996,1529.4994,-0.0059999906179946105,0.0,0.0,0.0,0.0,-0.0009156834022339411,-0.23815350303642077,-0.11096668251905889,-0.1158094404445019,-0.006650238644777454,0.016458675310344784,0.00974698466820249
601,0.0,299.37228,1448.8599,-0.006010000292692053,0.0,0.0,0.0,0.0,-0.000917211020119657,-0.22018051329262478,-0.10005269718068241,-0.12018403629374089,0.008300222706993201,-0.007607674977594063,-0.0017019888196232185
602,0.0,299.52567,1370.6686,-0.006020009967389495,0.0,0.0,0.0,0.0,-0.0009187386380054008,-0.18793357554759982,-0.1035088679405299,-0.1252065954494289,0.0039452358816394655,-0.00917418972572203,0.0027020677828983276
603,0.0,299.90207999999996,1463.7141,-0.006029986606856941,0.0,0.0,0.0,0.0,-0.0009202612142479305,-0.18305703586382283,-0.10691169614886288,-0.15496382571123885,0.020726283094774877,-0.01086216975476269,0.01022092328322659
604,0.0,299.93896,1502.045,-0.006039996281554494,0.0,0.0,0.0,0.0,-0.0009217888321336742,-0.2017891525825388,-0.11186701602791489,-0.14292799519339486,0.014708601896625985,0.0029027044749496272,-6.361962810501844e-05
605,0.0,299.83348,1384.5092,-0.006050005956251825,0.0,0.0,0.0,0.0,-0.0009233164500193625,-0.1983490874330308,-0.11285726535064489,-0.1096498829541009,0.015500838845063685,-0.0038436654624652462,-0.008785418024003252
606,0.0,299.80364,1394.1157,-0.006060015630949378,0.0,0.0,0.0,0.0,-0.0009248440679051062,-0.20604163152972582,-0.1135327485298099,-0.10420199180393591,-0.008786923713651851,-0.008596715087654722,-0.018768369794043883
607,0.0,300.07692000000003,1400.9927,-0.006069992270416824,0.0,0.0,0.0,0.0,-0.0009263666441476359,-0.2004530607356768,-0.10774285507339189,-0.11767087207071088,0.0037163080308960463,-0.011863997486385388,-0.0023895495346801777
608,0.0,299.89463,1390.9535,-0.006080001945114377,0.0,0.0,0.0,0.0,-0.0009278942620333797,-0.16685561259486684,-0.13218359245800487,-0.12377591670573189,-0.003999935782987926,0.010149736384200992,-0.029684301585862473
609,0.0,300.05534,1445.2888,-0.006090011619811708,0.0,0.0,0.0,0.0,-0.0009294218799190956,-0.17409410918925083,-0.11247410482532991,-0.15276347205908086,0.0006882107555261134,0.004574078348101386,-0.008083549406934211
610,0.0,299.95617000000004,1352.9224,-0.006099988259279376,0.0,0.0,0.0,0.0,-0.0009309444561616531,-0.18838290130444482,-0.11461513268413288,-0.1082565830065929,-0.02253613117164298,0.002247685502754288,-0.015635530180856685
611,0.0,299.9784,1203.0552,-0.006109997933976707,0.0,0.0,0.0,0.0,-0.0009324720740473691,-0.17996524503868683,-0.08271017292735852,-0.1030233083601089,-0.008335288253203902,0.016506134931778684,0.0028897322392193673
612,0.0,299.89068,1394.0049,-0.0061200076086740385,0.0,0.0,0.0,0.0,-0.0009339996919330573,-0.2063662667292648,-0.09172300419585572,-0.12565340834602587,0.0016535645840941185,0.02061747016653588,0.008417402953232992
613,0.0,299.21276,1649.8498,-0.006129984248141596,0.0,0.0,0.0,0.0,-0.0009355222681756425,-0.22736773943194877,-0.12292922465716986,-0.15121617836137485,0.013804193095867789,-0.015197676441643885,-0.0061509515520016544
614,0.0,299.25062,1483.0575,-0.006139993922839038,0.0,0.0,0.0,0.0,-0.0009370498860613308,-0.1985767545979998,-0.0957653978938089,-0.15647030569491685,0.01024948477704539,-0.023220257374160978,0.005784231718834225
615,0.0,299.17638,1386.0359,-0.006150003597536591,0.0,0.0,0.0,0.0,-0.0009385775039470745,-0.19153672330070282,-0.11101066770589989,-0.11877293354197588,0.011849300293684889,-0.016595997043397384,-0.016845872624058185
616,0.0,299.40196000000003,1453.5505,-0.006160013272233922,0.0,0.0,0.0,0.0,-0.0009401051218327905,-0.2204969209013518,-0.0997958200418306,-0.1215503229935829,0.016589105929467284,0.008639802028282071,0.0083401548934342
617,0.0,299.76063999999997,1442.3410000000001,-0.006169989911701479,0.0,0.0,0.0,0.0,-0.000941627698075348,-0.20856805919656482,-0.11062435597277388,-0.11924322344338988,0.006506086187500713,0.0024649233857689974,-0.012369257688500689
618,0.0,300.16651,1324.4342,-0.00617999958639881,0.0,0.0,0.0,0.0,-0.0009431553159610639,-0.1935218018366148,-0.1084294941361579,-0.10064363274500321,-0.009438231961330971,0.0016167723583880086,0.004293601905145516
619,0.0,299.88305,1305.2327,-0.006190009261096363,0.0,0.0,0.0,0.0,-0.0009446829338467799,-0.18242158619610882,-0.09244954302105951,-0.12188702600181288,0.0018750152570495982,0.0077600994060371825,0.004627244087473436
620,0.0,299.9392,1371.8063,-0.006199985900563809,0.0,0.0,0.0,0.0,-0.0009462055100893374,-0.17249810855923783,-0.10854931096048288,-0.13594744167696787,-0.02442649716770758,0.018379755956690683,-0.0032697081194700667
621,0.0,300.00275,1422.1557,-0.006209995575261362,0.0,0.0,0.0,0.0,-0.0009477331279750534,-0.1988621567536668,-0.1041050541668689,-0.1293326106516349,-0.02086784325299578,-0.002240356664780988,-0.018752516482979282
622,0.0,299.95302000000004,1588.8288,-0.006220005249958693,0.0,0.0,0.0,0.0,-0.0009492607458607694,-0.22521575833956475,-0.1134491351315579,-0.14429939880624185,-0.03768509358822917,-0.002333620560960418,-0.0035380607210044063
623,0.0,300.13679,1568.6591,-0.006230014924656024,0.0,0.0,0.0,0.0,-0.0009507883637464853,-0.2154827413239908,-0.12006031845653088,-0.14129013720175085,-0.0026452132052122174,0.014417580255904386,0.00013915836031636088
624,0.0,300.07865,1318.1623,-0.0062399915641236925,0.0,0.0,0.0,0.0,-0.0009523109399890428,-0.18358327743575883,-0.1137786845940819,-0.1033264423925259,0.006155400530540734,0.02048998202570378,-0.007083066562169243
625,0.0,300.22062,1370.3703,-0.0062500012388210235,0.0,0.0,0.0,0.0,-0.0009538385578747588,-0.18954577804671183,-0.1031877588513389,-0.12382481615555789,0.02428459757070318,-0.018584244012372082,-0.01016301097376109
626,0.0,300.45973,1579.2422,-0.006260010913518577,0.0,0.0,0.0,0.0,-0.0009553661757604748,-0.19013512483487582,-0.13690615865658587,-0.15300893189580586,0.013641979860858588,-0.039463990927542665,-0.023918970325118576
627,0.0,300.65227000000004,1329.5048,-0.006269987552986023,0.0,0.0,0.0,0.0,-0.0009568887520030323,-0.1968825599007958,-0.10049632239246481,-0.10675738829113389,0.03395089713344267,-0.026230344777483476,-0.007860156536187053
628,0.0,299.79835,1313.694,-0.006279997227683576,0.0,0.0,0.0,0.0,-0.0009584163698887482,-0.1869617471116878,-0.1122009325983699,-0.10016750348326289,0.01232456221333959,0.0009792820961651181,-0.018410741144748683
629,0.0,300.04988,1531.6770000000001,-0.006290006902380907,0.0,0.0,0.0,0.0,-0.0009599439877744642,-0.2302912496804768,-0.1190251010943629,-0.1162751909854679,-0.0018356259700121782,-0.008698423308842542,-0.014953893533834386
630,0.0,299.57842,1445.9293,-0.006299983541848353,0.0,0.0,0.0,0.0,-0.0009614665640169939,-0.20989551815257482,-0.0937830895836703,-0.13584780879463487,-0.03110925850624477,0.004936975087316505,0.014327626951776687
631,0.0,300.26287,1504.8937,-0.006309993216545795,0.0,0.0,0.0,0.0,-0.0009629941819027377,-0.1955340354752068,-0.11623923073941889,-0.14567683125718386,-0.017115978756215584,0.018720916252110583,0.0025810113484009876
632,0.0,300.04295,1651.2482,-0.006320002891243348,0.0,0.0,0.0,0.0,-0.0009645217997884814,-0.22335765017368378,-0.10564039151339491,-0.17294018957786783,-0.006106348485249675,0.026187302926485575,0.02751166437693987
633,0.0,300.55709,1551.9752,-0.00633001256594079,0.0,0.0,0.0,0.0,-0.0009660494176741696,-0.22836449382032079,-0.1104791876309469,-0.1329180062629859,0.003951438694776636,-0.005557666564673985,-0.0012798309324094789
634,0.0,300.53452000000004,1473.9662,-0.006339989205408125,0.0,0.0,0.0,0.0,-0.0009675719939167271,-0.2178030941854918,-0.1154846329924459,-0.1147611825535469,-0.0015864566246710783,-0.013035937750796886,-0.007827780155741752
635,0.0,300.75806,1617.4692,-0.006349998880105678,0.0,0.0,0.0,0.0,-0.0009690996118024431,-0.23203024016460178,-0.1119848468820439,-0.14765517167993086,0.00918037490830746,0.001156787615791049,-0.008742239688216882
636,0.0,300.07828,1546.3195,-0.006360008554803009,0.0,0.0,0.0,0.0,-0.0009706272296881591,-0.21463450913527682,-0.12661240903567186,-0.12879560836363688,0.013617699348712287,0.014125388311317287,-0.01054578950378839
637,0.0,299.85476,1373.3531,-0.0063699851942704555,0.0,0.0,0.0,0.0,-0.0009721498059306888,-0.16791735684465284,-0.11935582592700289,-0.1301918670014369,0.003138111148157457,-0.012023739404400689,-0.02029430215314168
638,0.0,299.52871,1304.0787,-0.006379994868968009,0.0,0.0,0.0,0.0,-0.0009736774238164325,-0.16509151377326384,-0.1025323278916529,-0.12878351015744288,-0.013623375575772487,-0.02144575551378128,-0.015145079642202986
639,0.0,299.39964,1339.6326,-0.006390004543665562,0.0,0.0,0.0,0.0,-0.0009752050417021763,-0.19462567702555883,-0.1036988016717749,-0.10889038107664388,0.004392822698662846,-0.014002258159165287,0.002180725781820878
640,0.0,299.84279,1500.1622,-0.006400014218362893,0.0,0.0,0.0,0.0,-0.0009767326595878645,-0.1949226302323658,-0.12134856463367087,-0.13974063461882688,0.011704157283110389,0.015729331808864183,-0.01771025297961588
641,0.0,299.83288,1612.5856,-0.006409990857830339,0.0,0.0,0.0,0.0,-0.000978255235830422,-0.2419677310503558,-0.12273482249298387,-0.12548321272672888,-0.004450192514024806,0.005728828925891395,-0.002206469325786568
642,0.0,300.07105,1653.3954,-0.006420000532527892,0.0,0.0,0.0,0.0,-0.000979782853716138,-0.2240506321820758,-0.12407210997496389,-0.15446817415982184,-0.007375533705483503,-0.006048534055743834,-0.004277348461616426
643,0.0,300.27788,1471.3885,-0.006430010207225445,0.0,0.0,0.0,0.0,-0.0009813104716018817,-0.19828402664410982,-0.10126825380889849,-0.14771307892314586,-0.0033529982909401663,0.02624357782378947,0.017919499257766883
644,0.0,300.28292999999996,1478.985,-0.006439986846692669,0.0,0.0,0.0,0.0,-0.0009828330478443836,-0.2047117306409748,-0.1108281408328859,-0.13403462813818787,0.0029411088828898467,0.01950334595283038,0.00031640159002140577
645,0.0,300.40767,1700.7079,-0.006449996521390222,0.0,0.0,0.0,0.0,-0.0009843606657301274,-0.24827954963328375,-0.12075089906218588,-0.14794228622826686,-0.0034776442652417667,-0.014654037365490886,-0.0004703757540949726
646,0.0,300.73092,1527.6209,-0.006460006196087775,0.0,0.0,0.0,0.0,-0.000985888283615871,-0.2294202396295148,-0.10476095122160091,-0.13017741805501087,-0.008573837116296841,-0.032279937274281766,-0.01025661197824879
647,0.0,299.93773,1195.5018,-0.006470015870785106,0.0,0.0,0.0,0.0,-0.0009874159015015593,-0.1985435807897258,-0.09363527361933201,-0.07122383705799543,0.009116752123928382,-0.002905313999257167,-0.018757788423249582
648,0.0,300.04701,1387.7596,-0.006479992510252552,0.0,0.0,0.0,0.0,-0.0009889384777441168,-0.1997365713249648,-0.09253079757307872,-0.12957691538324587,0.01021479615987189,0.014172521666218988,0.004834701168597855
649,0.0,299.92161,1619.69,-0.0064900021849499945,0.0,0.0,0.0,0.0,-0.0009904660956298328,-0.1930562032831638,-0.13969704459952487,-0.15959206845801083,0.0013296775684289587,0.008188541976996174,-0.016261602218895183
650,0.0,300.44091000000003,1465.2909,-0.006500011859647548,0.0,0.0,0.0,0.0,-0.0009919937135155765,-0.1958888655277258,-0.1005092595697416,-0.14901372728150986,-0.0006218645372632514,-0.016603250900863287,0.022489797271070183
651,0.0,301.0423,1519.5322,-0.006509988499114772,0.0,0.0,0.0,0.0,-0.0009935162897580785,-0.2084183210967868,-0.1098104324324459,-0.14367109255173285,-0.002110960270035558,0.002356165679660448,-0.0006042771094475074
652,0.0,300.6086,1504.1608,-0.006519998173812325,0.0,0.0,0.0,0.0,-0.0009950439076438222,-0.21664864768405678,-0.1069900203815929,-0.13358864610667287,0.0023936984898646476,0.01057172566659809,0.01682868486261188
653,0.0,299.73118,1516.0137,-0.006530007848509878,0.0,0.0,0.0,0.0,-0.000996571525529566,-0.2286211703356528,-0.12235710312070588,-0.10985202634905089,-0.015514688960680586,-0.010792899924926292,-0.02882587711439257
654,0.0,299.56888,1750.0387,-0.006539984487977324,0.0,0.0,0.0,0.0,-0.0009980941017720957,-0.21762453925286981,-0.13863686075489287,-0.17570665619339684,-0.017871351639515084,-0.023693333713349977,-0.0023882713196790276
655,0.0,299.3888,1521.9511,-0.006549994162674655,0.0,0.0,0.0,0.0,-0.0009996217196578117,-0.2036750440661618,-0.11473313579077889,-0.14422697168909387,7.554755559321323e-05,0.01192286326419499,-0.01916105487029888
656,0.0,299.74082999999996,1182.815,-0.00656000383737243,0.0,0.0,0.0,0.0,-0.0010011493375435554,-0.15994350412269487,-0.09615899489515391,-0.1034437463566029,0.020037771545824083,0.028046536813227673,-0.012871072840275988
657,0.0,299.87961,1253.4688,-0.006570013512069761,0.0,0.0,0.0,0.0,-0.0010026769554292714,-0.18434169513560883,-0.1068100570313319,-0.08987145175812172,0.004958803838195836,0.008054293228846852,-0.02843533303559887
658,0.0,299.71532,1569.4481,-0.006579990151537207,0.0,0.0,0.0,0.0,-0.001004199531671801,-0.2330502891727728,-0.11581653319520188,-0.12820621091296788,-0.0037338220588745467,-0.01964091593215748,0.002899627741020977
659,0.0,300.46167,1585.0416,-0.006589999826234538,0.0,0.0,0.0,0.0,-0.001005727149557517,-0.2442438048824868,-0.11797504975073089,-0.11959423354303189,0.0071563770307544235,0.0023588518056755475,-0.0008719028458901111
660,0.0,300.89917,1474.7661,-0.006600009500932091,0.0,0.0,0.0,0.0,-0.0010072547674432608,-0.17328002352890684,-0.12351342413482588,-0.15149863195925084,0.010677734931810389,-0.004122447143303856,-0.004517220831989986
661,0.0,299.98744,1461.0196,-0.0066099861403995375,0.0,0.0,0.0,0.0,-0.0010087773436857905,-0.1970503642498568,-0.0998598138783963,-0.14720330266533485,-0.01635478272459138,-0.0022384052464133977,-0.0013648139408216485
662,0.0,300.30285,1614.6447,-0.0066199958150968685,0.0,0.0,0.0,0.0,-0.0010103049615715065,-0.2170572610518838,-0.1142179791749369,-0.15953642076251884,-0.015927458680417783,-0.022716572775951183,0.015025711687672288
663,0.0,300.28991,1645.5096,-0.006630005489794533,0.0,0.0,0.0,0.0,-0.0010118325794572502,-0.23316580981667376,-0.12246297762365489,-0.14456505271745987,-0.0003313700804361807,0.02096750957258208,-0.0057643048383925945
664,0.0,299.89538999999996,1552.6801,-0.006640015164491975,0.0,0.0,0.0,0.0,-0.0010133601973429662,-0.24017624407854976,-0.1002550006691482,-0.13154472813745388,0.009235513040324172,0.010066702362356171,0.00986134108773859
665,0.0,300.0706,1355.1924,-0.00664999180395931,0.0,0.0,0.0,0.0,-0.001014882773585496,-0.2166103670952788,-0.1039208351661879,-0.09141344210480432,0.002409227459572238,-0.006577380389711904,-0.028103886768887677
666,0.0,300.19611000000003,1253.9234,-0.006660001478656752,0.0,0.0,0.0,0.0,-0.001016410391471212,-0.16216673696211084,-0.0971653721197256,-0.12182930114361588,-0.005034336060275285,-0.03253860077305987,-0.008377189184589202
667,0.0,300.07587,1514.1147,-0.006670011153354416,0.0,0.0,0.0,0.0,-0.0010179380093569834,-0.1992665043385728,-0.12971759502712987,-0.13126898225523986,0.004711867594750126,0.013173511783124387,-0.023529236846404875
668,0.0,299.93362,1722.5963,-0.00667998779282164,0.0,0.0,0.0,0.0,-0.0010194605855994854,-0.2186262990967358,-0.14128803977404386,-0.16371192309960886,0.02142099877408798,0.004610863683706816,0.006729196665445004
669,0.0,299.84535,1494.4232,-0.006689997467519193,0.0,0.0,0.0,0.0,-0.0010209882034852291,-0.21511460729765877,-0.1205033215327519,-0.11864940822228488,-0.013638571287522185,-0.0016538112091684584,-0.01909059345834488
670,0.0,299.88182,1425.1278,-0.006700007142216524,0.0,0.0,0.0,0.0,-0.0010225158213709173,-0.21469996509173678,-0.10929759615933289,-0.10920570450776389,-0.006637394889159874,-0.015382294662864286,0.001165146625141019
671,0.0,300.37565,1734.2235,-0.006709983781684192,0.0,0.0,0.0,0.0,-0.0010240383976134748,-0.24355916192241775,-0.12138717959498188,-0.16221429892180483,-0.003421059820032317,0.01895099292581738,0.010767204915640389
672,0.0,300.7788,1739.85,-0.006719993456381523,0.0,0.0,0.0,0.0,-0.0010255660154991908,-0.2248138222898968,-0.13273745522766686,-0.17131968856043683,0.012513492826985589,0.02156414872171578,-0.008677200481523012
673,0.0,301.32322999999997,1510.5733,-0.0067300031310790764,0.0,0.0,0.0,0.0,-0.0010270936333849345,-0.2058928762825448,-0.1128816238830489,-0.14040207415160585,-0.006828875954632583,-0.0026406809375149175,0.002056885746648818
674,0.0,300.57441,1436.5271,-0.0067400128057766295,0.0,0.0,0.0,0.0,-0.0010286212512706783,-0.2034628087002158,-0.09867323113678972,-0.13453232645480687,0.0027122536821785974,-0.014127112862987488,-0.020018116520384283
675,0.0,300.40877,1438.5081,-0.006749989445243854,0.0,0.0,0.0,0.0,-0.0010301438275131802,-0.2118174509422548,-0.11190074712374388,-0.11355233465424289,0.003104495157539817,0.026128531380935273,0.005108889888058175
676,0.0,300.7136,1546.1788,-0.006759999119941407,0.0,0.0,0.0,0.0,-0.001031671445398924,-0.2285271305938718,-0.12164520373294688,-0.11982742292104588,0.01921152587102998,0.004559704280857776,-0.026438984118824574
677,0.0,300.1736,1685.4695,-0.00677000879463896,0.0,0.0,0.0,0.0,-0.00103319906328464,-0.2247401792726288,-0.13037456612696788,-0.15722589642698784,-0.0016390836189649584,-0.025244866849474374,-0.0032632572627084165
678,0.0,299.96477999999996,1471.4129,-0.006779985434106295,0.0,0.0,0.0,0.0,-0.0010347216395271697,-0.1978209713484098,-0.12281539614093588,-0.12663640279803987,-0.0028410537792401772,-0.03968904694700396,-0.01799557407527488
679,0.0,299.88289,1344.5824,-0.006789995108803737,0.0,0.0,0.0,0.0,-0.0010362492574128856,-0.1886132333171768,-0.09399316875340351,-0.1261130692538909,0.016043937858913386,0.003052884351771227,0.006194041836354334
680,0.0,299.7401,1587.4512,-0.00680000478350129,0.0,0.0,0.0,0.0,-0.0010377768752986294,-0.2122335927583248,-0.12409404683962888,-0.14621787641308084,0.002054719215284998,0.0031000458750257073,0.0033289940920961368
681,0.0,299.60474,1742.2138,-0.006810014458198732,0.0,0.0,0.0,0.0,-0.0010393044931843731,-0.2571530164565268,-0.12370032824827187,-0.14873616768161688,-0.007107505141331144,0.0034906958384548566,0.007654561808746432
682,0.0,300.13468,1545.3272,-0.006819991097666178,0.0,0.0,0.0,0.0,-0.0010408270694269028,-0.22698405201658176,-0.11234712432279789,-0.13040969550793488,-0.005857199303585564,0.00027660426716871576,0.0007650904989135533
683,0.0,299.78314,1461.4872,-0.006830000772363509,0.0,0.0,0.0,0.0,-0.001042354687312591,-0.19400662174446281,-0.11796071226181587,-0.13228829159083788,0.006137576144056604,0.04219750462331946,-0.015422708143102787
684,0.0,300.07662999999997,1680.5405,-0.006840010447061062,0.0,0.0,0.0,0.0,-0.0010438823051983348,-0.21663167574488176,-0.1293416184450239,-0.16486904458130783,-0.008232013547361482,0.013104931976606088,-0.007779114260063803
685,0.0,300.48121000000003,1794.7747,-0.006849987086528508,0.0,0.0,0.0,0.0,-0.0010454048814408645,-0.23805929104212278,-0.14664633935036686,-0.16086106288325086,-0.023428173254930677,-0.02420080178743318,-0.018166359406130084
686,0.0,300.54492,1655.3061,-0.0068599967612258395,0.0,0.0,0.0,0.0,-0.0010469324993265805,-0.22384958309723377,-0.13217956985510787,-0.14714255832183987,-0.01028805414210189,-0.02479982511405218,-0.008916713958711152
687,0.0,300.44614,1480.7907,-0.0068700064359233926,0.0,0.0,0.0,0.0,-0.0010484601172123242,-0.23869684827004478,-0.09597129943337981,-0.1154552487395459,0.013482857038654386,0.01177389624774309,0.013223793306086787
688,0.0,300.81863,1306.0795,-0.006880016110620946,0.0,0.0,0.0,0.0,-0.001049987735098068,-0.1836653912238628,-0.11034957267815489,-0.1030005912928669,0.018882491139556784,0.008787707158629171,-0.006371625467430473
689,0.0,300.50165,1464.0510000000002,-0.006889992750088392,0.0,0.0,0.0,0.0,-0.0010515103113405977,-0.19262102249771482,-0.1111960316791939,-0.14121791273462286,0.0002524208243819957,-0.018012038376149783,-0.0017263487705773582
690,0.0,300.43189,1786.3894,-0.006900002424785723,0.0,0.0,0.0,0.0,-0.001053037929226286,-0.2323321076343938,-0.14044490423333286,-0.17024076972145585,0.0004549294858605446,-0.019714205325140583,-0.008772471018200481
691,0.0,299.47275,1584.1448,-0.006910012099483276,0.0,0.0,0.0,0.0,-0.0010545655471120297,-0.22981827466629778,-0.1220717414950429,-0.1296504469430029,0.02156550850334998,0.008893353376330642,0.0003334060139946117
692,0.0,300.13236,1376.4563,-0.006919988738950722,0.0,0.0,0.0,0.0,-0.0010560881233545594,-0.19305271770281984,-0.1165184115394719,-0.10883720571139589,0.00896043397800098,0.005415932634060935,-0.023285168202067177
693,0.0,300.2155,1658.0612,-0.006929998413648275,0.0,0.0,0.0,0.0,-0.0010576157412403031,-0.26526189488681073,-0.1140894787972549,-0.12465783946027088,-0.016835085563493585,-0.020958473408190282,6.627783401361295e-05
694,0.0,300.10008999999997,1893.4902,-0.006940008088345606,0.0,0.0,0.0,0.0,-0.001059143359126019,-0.24052975690593875,-0.14384251420365085,-0.1912014793726168,-0.011314058021110589,-0.011983290460408687,-0.008695002069879892
695,0.0,299.44964,1509.9943,-0.006949984727813163,0.0,0.0,0.0,0.0,-0.0010606659353685766,-0.2062569471759758,-0.11338939390566188,-0.13935420129568887,-0.002091950279609418,0.03619124478029777,0.0035913506848387166
696,0.0,300.19687999999996,1398.2222,-0.006959994402510494,0.0,0.0,0.0,0.0,-0.0010621935532542925,-0.17856455849794983,-0.1021402710304599,-0.14431982592825787,0.0020277979707280782,0.029219561255246173,-0.0029637998082792673
697,0.0,300.12715,1498.2992,-0.006970004077207936,0.0,0.0,0.0,0.0,-0.0010637211711399808,-0.22518080121111478,-0.1012933347886238,-0.12897141738848789,-0.015389858574860785,-0.00992623509569313,0.005736180561991944
698,0.0,300.6222,1550.4463,-0.0069800137519054894,0.0,0.0,0.0,0.0,-0.0010652487890257245,-0.22409687691663976,-0.12305735013231489,-0.1241427436394349,0.002144952176440298,-0.004866645195225485,0.006252581752931774
699,0.0,300.98139,1645.2965,-0.0069899903913728245,0.0,0.0,0.0,0.0,-0.0010667713652682542,-0.2655524747504887,-0.11117459130707788,-0.12340198688882789,0.019152113951416482,0.01362180605136759,0.009967503353715991
700,0.0,300.42586,1647.7391,-0.007000000066070378,0.0,0.0,0.0,0.0,-0.001068298983153998,-0.2135259223333678,-0.12438800082613989,-0.16295761919516483,0.01737735269901118,-0.006830496141542484,0.007676470606383663
701,0.0,299.74698,1464.2921,-0.007010009740767709,0.0,0.0,0.0,0.0,-0.001069826601039714,-0.19378735442282283,-0.11998086951618987,-0.13134001108724985,-0.016701578717067483,-0.03659646983979036,-0.011415670794138988
702,0.0,299.97539,1603.4815,-0.007019986380235377,0.0,0.0,0.0,0.0,-0.0010713491772822714,-0.21108542840750982,-0.12086897309633889,-0.15546392543059487,0.0008114284524867533,-0.019886245059619584,-0.01812498637804688
703,0.0,299.67509,1841.0113,-0.007029996054932708,0.0,0.0,0.0,0.0,-0.0010728767951679874,-0.25967528979795573,-0.14171143646082984,-0.15823474902155385,0.013830381557952387,0.015290948139849086,-0.015395433476910986
704,0.0,299.53657999999996,1582.692,-0.007040005729630261,0.0,0.0,0.0,0.0,-0.0010744044130537034,-0.24844293621190877,-0.11732664061423789,-0.11532928148711388,0.014972228294393885,0.027075946568937876,-0.02234310196134248
705,0.0,300.08075,1342.0893,-0.007050015404327592,0.0,0.0,0.0,0.0,-0.0010759320309394194,-0.21169202071237578,-0.09177048205579141,-0.10449914766076289,0.005163159664739184,-0.002218526292701498,-0.0089496724513389
706,0.0,299.35913999999997,1442.7754,-0.00705999204379526,0.0,0.0,0.0,0.0,-0.0010774546071819768,-0.18178861899113982,-0.11327172517154889,-0.14350734120307185,-0.009081790030552891,0.0028819784441541274,-0.008377158787086201
707,0.0,300.01832,1652.4966,-0.007070001718492591,0.0,0.0,0.0,0.0,-0.0010789822250676928,-0.2139487414675968,-0.12803226626830086,-0.16033670595650085,0.0058374844963898645,0.019014401103825282,0.014443774797489588
708,0.0,300.38992,1633.1887,-0.007080011393189922,0.0,0.0,0.0,0.0,-0.0010805098429534088,-0.20980307934595183,-0.12968668076657888,-0.15695882396562985,-0.014211312933047386,0.01139365793571649,-0.014659540326783987
709,0.0,299.89056,1632.8207,-0.00708998803265759,0.0,0.0,0.0,0.0,-0.0010820324191959663,-0.2253420903620328,-0.1294567337888849,-0.14153788698370187,-0.02227744436811258,-0.01936433918486148,0.01128470619221379
710,0.0,299.9224,1632.9777,-0.007099997707354921,0.0,0.0,0.0,0.0,-0.0010835600370816822,-0.25013866091676373,-0.1225768770673959,-0.12366890736267089,-0.012268673364323789,-0.014947529309956287,-0.01227307390950809
711,0.0,300.42438,1706.4189999999999,-0.0071100073820524745,0.0,0.0,0.0,0.0,-0.0010850876549673982,-0.2431718572041938,-0.13189526200954887,-0.14364165763632789,0.015754860645133685,0.007812620920995652,0.004220977812178076
712,0.0,300.18131,1831.9101,-0.00711998402151981,0.0,0.0,0.0,0.0,-0.0010866102312099557,-0.23500296397048676,-0.14486806515986486,-0.17698390860695185,0.021501747714307278,0.002983853142333377,-0.02195440503748108
713,0.0,300.93736,1774.1005,-0.007129993696217363,0.0,0.0,0.0,0.0,-0.0010881378490956717,-0.24028341554162674,-0.1328181504656309,-0.16618066643825483,0.02136203876401908,-0.013523534977168988,0.008565396135013783
714,0.0,300.44607,1322.4844,-0.007140003370914805,0.0,0.0,0.0,0.0,-0.0010896654669813877,-0.18558356485567182,-0.08761558517273502,-0.12880307601687388,0.015135091022717184,-0.006083886959682894,-0.02044050704982098
715,0.0,300.60791,1364.8417,-0.007150013045612247,0.0,0.0,0.0,0.0,-0.0010911930848671314,-0.21573830326421278,-0.09090004550438602,-0.10823943881490089,0.02069638715057438,0.016820376211791884,0.002064355223735998
716,0.0,300.66791,1630.4182,-0.007159989685079693,0.0,0.0,0.0,0.0,-0.0010927156611096611,-0.2597036304032527,-0.11061858044720389,-0.12528419014208686,-0.007288298343424044,0.01802535146921368,-0.017622650415720184
717,0.0,299.60393999999997,1623.4370000000001,-0.007169999359777246,0.0,0.0,0.0,0.0,-0.0010942432789954049,-0.23619142527777878,-0.1190680730311039,-0.13822479220422484,-0.02772548953229277,-0.012756554300723887,-0.002459936371426818
718,0.0,299.55463,1567.7654,-0.007180009034474577,0.0,0.0,0.0,0.0,-0.001095770896881093,-0.2051819901448858,-0.13191105857860785,-0.13946849590696886,-0.024852942724044477,-0.0036754902638676465,-0.013031422708351288
719,0.0,299.95901000000003,1646.4492,-0.007189985673942245,0.0,0.0,0.0,0.0,-0.0010972934731236783,-0.2172971581455598,-0.12923285617928987,-0.15394943063862584,-0.007816223835701233,0.012399149579700789,0.013771477276638988
720,0.0,299.71499,1640.4614,-0.007199995348639576,0.0,0.0,0.0,0.0,-0.0010988210910093665,-0.19834183256231483,-0.1390820220538269,-0.16123542839769786,0.005526859404658555,0.022284022387761778,-0.0037761027563973266
721,0.0,300.37154,1716.1461,-0.007210005023336907,0.0,0.0,0.0,0.0,-0.0011003487088950825,-0.24352379949392777,-0.12695137159162487,-0.15119040127883085,-0.004468327866964625,0.0014448735669979186,0.0048228091587992055
722,0.0,300.06815,1745.0526,-0.00722001469803446,0.0,0.0,0.0,0.0,-0.0011018763267808263,-0.26360482567327076,-0.12387511389052189,-0.14297248700528586,0.007621574945115882,0.010726428691866092,-0.0028898703452079973
723,0.0,300.26982000000004,1552.1087,-0.0072299913375019065,0.0,0.0,0.0,0.0,-0.001103398903023356,-0.23797834249163377,-0.10444299334022089,-0.12938093254890387,0.020993215727619082,0.008179041744058571,-0.008323877841177782
724,0.0,300.40882,1378.9879999999998,-0.00724000101219946,0.0,0.0,0.0,0.0,-0.0011049265209090997,-0.18538274881835282,-0.10802636245137189,-0.1257688073999149,0.007113318055829833,0.001056822691400279,-0.016216950313488382
725,0.0,299.9766,1554.7688,-0.007250010686896791,0.0,0.0,0.0,0.0,-0.001106454138794788,-0.2145686276137748,-0.1162841785138549,-0.14175808649543387,-0.013369675989234288,-0.04863263371691725,-0.014625461686170687
726,0.0,299.76229,1713.1472,-0.007259987326364348,0.0,0.0,0.0,0.0,-0.0011079767150373732,-0.22895542127864077,-0.12378354647898489,-0.16801500375678982,-0.005208051811744695,-0.023147511083231476,-0.013711369254206789
727,0.0,299.46019,1535.9152,-0.00726999700106179,0.0,0.0,0.0,0.0,-0.0011095043329230614,-0.2405049829409938,-0.10559513976392891,-0.1207797462925329,-0.0006525027580895085,0.015285628576824088,-0.013299682698826488
728,0.0,299.37339,1565.9208,-0.007280006675759232,0.0,0.0,0.0,0.0,-0.0011110319508088051,-0.2167408737081588,-0.12347059405309888,-0.13578936452886686,0.001125506356053829,0.023437084789560178,-0.014105657292119989
729,0.0,299.7381,1782.4287,-0.007290016350456674,0.0,0.0,0.0,0.0,-0.001112559568694521,-0.25247759678509873,-0.1299795809729859,-0.15935663979727585,-0.014185285577728687,-0.004071336072484586,0.0006035288445136594
730,0.0,299.85365,1825.4865,-0.007299992989924231,0.0,0.0,0.0,0.0,-0.0011140821449370786,-0.2380272419414598,-0.13945905241603684,-0.17741601924459785,0.000920958163978994,0.013805479923494787,0.01999898939824658
731,0.0,300.32953,1800.9793,-0.007310002664621562,0.0,0.0,0.0,0.0,-0.0011156097628227946,-0.2371387127962688,-0.14330191487779786,-0.16701209894031083,0.008662964520268032,0.016763273489156284,0.008428666950619662
732,0.0,300.50161,1718.0785,-0.007320012339319004,0.0,0.0,0.0,0.0,-0.0011171373807084828,-0.23318555806112276,-0.11387071810066489,-0.17519668741806685,-0.003200134517253687,0.006506032586570425,0.016670852921035085
733,0.0,299.69689,1474.2315,-0.007329988978786561,0.0,0.0,0.0,0.0,-0.001118659956951068,-0.23457910118865477,-0.0989776925268377,-0.1145727686974519,-0.014764598150152386,-0.025172684938850578,-0.008820139977105042
734,0.0,300.26506,1543.8973,-0.007339998653483892,0.0,0.0,0.0,0.0,-0.0011201875748367562,-0.22601668188110977,-0.10858107635111788,-0.13470846985219087,-0.016230659587341382,0.01053296074427229,-0.0038176648569491862
735,0.0,300.68228,1654.4767,-0.0073500083281814454,0.0,0.0,0.0,0.0,-0.0011217151927225,-0.24660347184786774,-0.1144517157080049,-0.14186441696092786,0.014179532343660886,0.012856502303837987,-0.029035904608370675
736,0.0,300.54809,1520.8747,-0.0073599849676488915,0.0,0.0,0.0,0.0,-0.0011232377689650297,-0.20768074595149377,-0.11252097777495589,-0.14210622909729287,0.016277038070918584,0.002235363266963178,-0.018159969850999484
737,0.0,300.4742,1381.3038,-0.007369994642346445,0.0,0.0,0.0,0.0,-0.0011247653868507734,-0.1934559405801148,-0.1032163932991649,-0.12320954029733489,0.01858047066899968,-0.032519186901143866,-0.03512981159829247
738,0.0,299.31417000000005,1646.1428,-0.007380004317043776,0.0,0.0,0.0,0.0,-0.0011262930047364894,-0.2267547332539498,-0.12498529149508789,-0.14864628226524584,0.006015292866338184,-0.01961125202222988,0.0029017962988849974
739,0.0,299.48184,1877.1868,-0.007390013991741329,0.0,0.0,0.0,0.0,-0.0011278206226222054,-0.2825964053450937,-0.13442822513953287,-0.15359328336097686,0.01707270588419488,0.011540762598484591,0.0018318023694348185
740,0.0,299.50843,1720.5791,-0.007399990631208775,0.0,0.0,0.0,0.0,-0.0011293431988647629,-0.2332183367018578,-0.14071820818280587,-0.14907653865520887,-0.014885021911287285,0.00016570455034876585,0.010010132507948162
741,0.0,299.44293,1568.7028,-0.007410000305906328,0.0,0.0,0.0,0.0,-0.0011308708167504788,-0.20987941760848577,-0.1300697298343829,-0.13689733324821488,-0.006660568020271884,-0.008526431095793232,-0.0027398593771780677
742,0.0,299.59206,1680.4948,-0.007420009980603659,0.0,0.0,0.0,0.0,-0.0011323984346361948,-0.22024406433889682,-0.11856941212688987,-0.17201499091155784,-0.033799241964475465,0.01051368568761999,0.007284206434220203
743,0.0,300.10697999999996,1714.6202,-0.007429986620070994,0.0,0.0,0.0,0.0,-0.0011339210108787245,-0.23273729621688274,-0.13375582224067187,-0.15470859814354984,0.016455476479779085,0.019280434983830783,-0.014131758614695988
744,0.0,299.77466,1632.6238,-0.007439996294768547,0.0,0.0,0.0,0.0,-0.0011354486287644683,-0.2353958820942648,-0.12097979225977588,-0.13990120436217388,0.006301078537168034,-0.0018419591884372183,-0.02184783747146368
745,0.0,300.21506,1640.8298,-0.007450005969465989,0.0,0.0,0.0,0.0,-0.0011369762466501843,-0.24974234840515078,-0.11467486377752789,-0.13435405523221286,0.01063484202857719,-0.025764823231040075,-0.017857016177100282
746,0.0,300.21382,1526.9623,-0.007460015644163542,0.0,0.0,0.0,0.0,-0.0011385038645359002,-0.21795642932312478,-0.11503107185018288,-0.13117091991056187,0.013812673999204788,0.0026082234970616174,-0.022386498449875378
747,0.0,300.48597,1568.4925,-0.007469992283630877,0.0,0.0,0.0,0.0,-0.0011400264407784577,-0.2224325224348808,-0.11191147744230288,-0.14243856499759186,0.005390129004364314,0.034424639177947365,-0.017954409776712286
748,0.0,300.46592999999996,1779.1636,-0.0074800019583284305,0.0,0.0,0.0,0.0,-0.0011415540586641737,-0.24726601582325577,-0.14009807885660386,-0.15345720387254685,-0.0046886976047134255,0.006355142117453694,-0.0064021167973897335
749,0.0,299.86677000000003,1766.4714,-0.0074900116330257616,0.0,0.0,0.0,0.0,-0.0011430816765498897,-0.2362972187207198,-0.14427372304870786,-0.15639223477471184,-0.024394080257258276,-0.022264898305374377,0.006021060893857444
750,0.0,299.75751,1606.4564,-0.007499988272493208,0.0,0.0,0.0,0.0,-0.0011446042527924194,-0.24152513327417477,-0.1103471408779149,-0.13645036836410288,-0.017759258820702385,-0.015667505314262385,0.02114563083416128
751,0.0,299.64769,1747.4375,-0.007509997947190761,0.0,0.0,0.0,0.0,-0.0011461318706781631,-0.2501920287995308,-0.13970998380330188,-0.14127536401529286,0.00998405479409949,-0.0007667410123989463,0.006641636050103443
752,0.0,299.53056000000004,1834.9370000000001,-0.007520007621888314,0.0,0.0,0.0,0.0,-0.0011476594885639069,-0.24530765669248075,-0.13477247686100788,-0.17769490620212183,0.0095925320170342,0.0016298831054069385,0.008483627966518891
753,0.0,299.3901,1714.714,-0.007529984261355538,0.0,0.0,0.0,0.0,-0.0011491820648064088,-0.22085478057166977,-0.14385038715692786,-0.15652505159781988,0.007061874537652754,-0.003179794737396307,-0.02625153892982518
754,0.0,299.68317,1556.1960000000001,-0.007539993936053313,0.0,0.0,0.0,0.0,-0.0011507096826921803,-0.2120278016630148,-0.11086509406403289,-0.15015181992633087,0.012192878203843387,0.007721237819651843,-0.013078927926039687
755,0.0,300.39361,1509.5279999999998,-0.007550003610750644,0.0,0.0,0.0,0.0,-0.0011522373005778686,-0.2277175944264768,-0.10431868781795291,-0.1268225368414099,0.009280663363455162,0.03144901950327657,-0.03237977381988487
756,0.0,300.31094,1497.9632,-0.007560013285447975,0.0,0.0,0.0,0.0,-0.0011537649184635845,-0.23790265270916378,-0.10336529040135992,-0.11407546554837189,-0.01249802961720949,0.0037561081908490165,-0.017890738153678382
757,0.0,300.09377,1627.6166,-0.007569989924915421,0.0,0.0,0.0,0.0,-0.0011552874947061142,-0.25233840661886175,-0.1104219693977999,-0.1319944186643349,-0.02223667929008938,-0.016314395588855484,-0.015027825327380884
758,0.0,300.23737,1814.0665,-0.007579999599612974,0.0,0.0,0.0,0.0,-0.001156815112591858,-0.24118654562075875,-0.14026997673606886,-0.16997440653516785,-0.014053523547974787,-0.0005493129930029716,-0.004025708711206516
759,0.0,299.96582,1751.4629,-0.007590009274310527,0.0,0.0,0.0,0.0,-0.0011583427304776017,-0.23660461853605774,-0.13773727705111088,-0.15805909198421786,0.0064980292280055535,0.019674862850257782,0.002570508403164427
760,0.0,300.41142,1777.2179999999998,-0.0075999859137777515,0.0,0.0,0.0,0.0,-0.0011598653067201037,-0.22320181230830377,-0.13226423703346388,-0.18476383539227084,0.0036948511428034165,0.0025218261941598675,0.01089656858240759
761,0.0,299.90826,1927.2762,-0.007609995588475416,0.0,0.0,0.0,0.0,-0.0011613929246058752,-0.27132600421779174,-0.14397768176699086,-0.17054016486100385,-0.013548546042637387,-0.013848060745697185,0.016914488907580082
762,0.0,299.99252,1889.3938,-0.007620005263172747,0.0,0.0,0.0,0.0,-0.0011629205424915634,-0.26960333719277774,-0.13155620826108688,-0.17316899158294885,0.0071407691288640435,-0.0032192925435194373,0.025510175242408274
763,0.0,300.55089,1669.3046,-0.0076300149378703,0.0,0.0,0.0,0.0,-0.0011644481603773071,-0.2548800836997058,-0.11247959664087188,-0.14006723552355987,0.002350068041883658,0.01034564727778589,0.0012594746365754688
764,0.0,300.97744,1682.2591,-0.007639991577337746,0.0,0.0,0.0,0.0,-0.0011659707366198369,-0.22103501749945778,-0.1267543451096799,-0.16357540791363584,0.0005193672272950546,-0.0015901304668836586,-0.008089341549805852
765,0.0,300.32337,1646.2735,-0.007650001252035299,0.0,0.0,0.0,0.0,-0.0011674983545055806,-0.2360526302790808,-0.1122831173139809,-0.15209027882514187,-0.02293618358937508,-0.018645775651194785,-0.030928698351674867
766,0.0,300.48736,1634.3239,-0.00766001092673263,0.0,0.0,0.0,0.0,-0.0011690259723912966,-0.20360965903720882,-0.13271318788777187,-0.16047081973973684,1.0877794071304688e-05,-0.005168288027470315,-0.02326510179708678
767,0.0,300.24637,1671.6035,-0.007669987566200076,0.0,0.0,0.0,0.0,-0.0011705485486338263,-0.26131685628496576,-0.12255865883059788,-0.12425019881253987,0.008302432504136292,0.03083539118971617,-0.03289032825377267
768,0.0,300.0066,1686.4927,-0.007679997240897629,0.0,0.0,0.0,0.0,-0.00117207616651957,-0.26844496941345575,-0.11322078908902189,-0.13098591057480288,0.0026398302127309575,-0.002369197899796628,0.000971568810838876
769,0.0,299.83348,1596.7478,-0.00769000691559496,0.0,0.0,0.0,0.0,-0.0011736037844052583,-0.23781785380829476,-0.1304440953488299,-0.11710952138280989,-0.0013123024570391687,-0.0010974930305391291,-0.02703776831841997
770,0.0,299.93711,1758.2884,-0.007699983555062406,0.0,0.0,0.0,0.0,-0.001175126360647788,-0.2320112214602248,-0.12311402121040788,-0.17935052646801883,-0.008215099870067232,-0.015248507146160486,0.022111296682965083
771,0.0,300.00183,1918.2312,-0.007709993229759959,0.0,0.0,0.0,0.0,-0.0011766539785335317,-0.24206596564755076,-0.15450531990848784,-0.1865231111433978,0.014552176346187986,0.01061256876487899,-0.005244342073351265
772,0.0,299.96772000000004,1803.9492,-0.0077200029044575125,0.0,0.0,0.0,0.0,-0.0011781815964192754,-0.21712406463097678,-0.14240448939672887,-0.18882695816076983,-0.012907207365342187,-0.026933307299360477,0.015513088025522585
773,0.0,299.88608999999997,1589.004,-0.0077300125791548435,0.0,0.0,0.0,0.0,-0.0011797092143049914,-0.24242917527839677,-0.09971373766447972,-0.14087463373324385,-0.02132711000657188,-0.005522926474395405,-0.006486012993744644
774,0.0,300.23062000000004,1684.5815,-0.00773998921862229,0.0,0.0,0.0,0.0,-0.0011812317905475211,-0.26190015397003275,-0.1172836585449959,-0.13288690961741687,-0.01043782466588309,-0.009619000642771451,0.0037593544415193965
775,0.0,300.70862,1714.3156,-0.007749998893319732,0.0,0.0,0.0,0.0,-0.0011827594084332371,-0.26744545898481176,-0.1156732089685569,-0.13799048825110088,0.012122047968852988,0.02571007834138718,-0.016493249430256984
776,0.0,300.44306,1662.4632,-0.007760008568017285,0.0,0.0,0.0,0.0,-0.0011842870263189809,-0.23201248802284977,-0.12140234794897888,-0.15193244485706486,0.011877548693222788,-0.01075251177594029,-0.015395675643684884
777,0.0,300.15231,1798.1329,-0.007769985207484509,0.0,0.0,0.0,0.0,-0.0011858096025614828,-0.2319687662810348,-0.15237537700577886,-0.16224336906717385,0.006535798429458084,-0.015553297842490986,-0.01115782904119199
778,0.0,300.47795,1807.6427,-0.007779994882182062,0.0,0.0,0.0,0.0,-0.0011873372204472266,-0.2277372413459158,-0.14413306366982587,-0.17760792881353785,0.018612229980134083,-0.009270756513252432,-0.015190912997226386
779,0.0,300.54294,1802.01,-0.007790004556879615,0.0,0.0,0.0,0.0,-0.0011888648383329703,-0.27389604216893476,-0.13878687243219787,-0.13508313934166788,0.009141326478603681,0.025489827153900076,0.014820243819144187
780,0.0,300.69507000000004,1952.9658,-0.007800014231576946,0.0,0.0,0.0,0.0,-0.0011903924562186863,-0.27793912285045574,-0.15962239503350384,-0.15609131976001386,-0.005505085369284624,-0.01075000600844299,-0.007181264885010664
781,0.0,299.86329,1808.0983,-0.007809990871044392,0.0,0.0,0.0,0.0,-0.001191915032461216,-0.27422303824120675,-0.12030640650831788,-0.15508728010342285,-0.023017287167129377,0.001106310231584319,0.022772799037250276
782,0.0,299.96909,1542.4739,-0.007820000545741945,0.0,0.0,0.0,0.0,-0.001193442650346932,-0.2123295272777928,-0.11563890032017089,-0.14090511229625186,-0.01183028564230829,0.0070938662883600935,-0.014545278139507185
783,0.0,300.09799,1665.0046,-0.007830010220439498,0.0,0.0,0.0,0.0,-0.0011949702682326757,-0.21060677919277077,-0.12402012011233289,-0.17149292393003385,0.00015955974577982086,0.025679690970888177,0.011340121853432888
784,0.0,299.9785,1724.8953,-0.007839986859906722,0.0,0.0,0.0,0.0,-0.0011964928444751777,-0.22370630953309378,-0.13169253092954086,-0.16892626010172382,-0.004787015389741636,-0.008532609286952972,-0.02202028453248288
785,0.0,299.4896,1574.731,-0.007849996534604275,0.0,0.0,0.0,0.0,-0.0011980204623609214,-0.23516982599695477,-0.1162349142939929,-0.12727415254348087,-0.007890126548969863,-0.004399859619282336,-0.01143846588163869
786,0.0,299.77886,1656.2618,-0.007860006209301829,0.0,0.0,0.0,0.0,-0.0011995480802466651,-0.24598573379190178,-0.1217454546978409,-0.13573103172060988,0.026301436430999674,0.0026950534577560676,-0.02130902754528728
787,0.0,299.71956,1781.6608,-0.007870015883999382,0.0,0.0,0.0,0.0,-0.0012010756981324089,-0.26919265679474674,-0.13028435647056485,-0.14210338186451185,0.007758535657157852,0.019779346160819482,-0.009901344708311641
788,0.0,300.43548,1751.9421,-0.007879992523466606,0.0,0.0,0.0,0.0,-0.0012025982743749108,-0.24593873925226375,-0.13693528959696086,-0.14967263368903885,0.008849611065538613,-0.015970910897706185,-0.018107724649343283
789,0.0,300.50481,1857.3098,-0.007890002198164159,0.0,0.0,0.0,0.0,-0.0012041258922606268,-0.2418180436130828,-0.14352450565976585,-0.17923323263644284,-0.017181006107883284,-0.02679625306433427,-0.016847051033924483
790,0.0,300.27516,1880.5868,-0.007900011872861712,0.0,0.0,0.0,0.0,-0.0012056535101463706,-0.2597346459888138,-0.14049648879592386,-0.17142030429536684,0.013434479412629886,-0.013768271353322587,0.00903411549877278
791,0.0,300.00698,1726.3476,-0.007909988512329047,0.0,0.0,0.0,0.0,-0.0012071760863889003,-0.26337397690298775,-0.12371998530021187,-0.13767259116472688,-0.008497105611399032,0.01029637799167339,0.013091562141536589
792,0.0,300.03976,1677.1365,-0.007919998187026489,0.0,0.0,0.0,0.0,-0.0012087037042746163,-0.2377570182722908,-0.12716636299784287,-0.14488424676396186,0.008341612251053033,0.0017087224744877785,0.0005643632830983194
793,0.0,299.89351,1824.65,-0.007930007861723931,0.0,0.0,0.0,0.0,-0.00121023132216036,-0.2737958823965498,-0.13831307668543785,-0.14253907940751187,-0.02163524240173218,0.015459433392977286,0.00017288085365201183
794,0.0,299.82968,1856.2016,-0.007939984501191377,0.0,0.0,0.0,0.0,-0.0012117538984028897,-0.23522592965499178,-0.1337039235705499,-0.1953091040855078,0.01061377554574809,0.013955378116788587,-0.003227020602032137
795,0.0,300.4066,1792.0502,-0.007949994175888708,0.0,0.0,0.0,0.0,-0.0012132815162886057,-0.23273923152457376,-0.14763850371578585,-0.16436077806614585,0.0037904892866171664,0.022272097447334875,-0.01051540821278999
796,0.0,300.03497999999996,1760.3836,-0.007960003850586261,0.0,0.0,0.0,0.0,-0.0012148091341743217,-0.2345850590992428,-0.13373238576585889,-0.16679522288890683,-0.007773366497546543,-0.015958487438230088,-0.0074209260940633825
797,0.0,299.63921,1710.9007,-0.007970013525283814,0.0,0.0,0.0,0.0,-0.0012163367520600654,-0.26771724305913475,-0.11881483143361089,-0.13353902724927588,-0.013847108290603186,-0.019226039665462383,-0.0026741579102188377
798,0.0,299.42197999999996,1675.9354,-0.00797999016475126,0.0,0.0,0.0,0.0,-0.0012178593283025951,-0.23751607753101178,-0.1259437348971789,-0.14598271119737186,0.0027082560052340576,-0.008471021716724751,-0.006376437696130405
799,0.0,299.34792999999996,1761.8792,-0.007989999839448592,0.0,0.0,0.0,0.0,-0.0012193869461883111,-0.2806595271164387,-0.11509117784611489,-0.13981656758132088,0.01837526421899738,0.017624447921397585,0.00016968566065417087
800,0.0,299.22462,1883.5903,-0.008000009514146145,0.0,0.0,0.0,0.0,-0.0012209145640740549,-0.24109260720398776,-0.14825700170932687,-0.18321480903689383,0.006604020052066033,-0.019438706675950983,-0.00944351464205233
801,0.0,299.93445,1701.836,-0.00800998615361359,0.0,0.0,0.0,0.0,-0.0012224371403165846,-0.23064713351309976,-0.12614743869728287,-0.16052107694469686,0.0024836077176129973,-0.012527828289400387,-0.020740668206444584
802,0.0,299.91123,1702.6566,-0.008019995828311144,0.0,0.0,0.0,0.0,-0.0012239647582023283,-0.22574531323932778,-0.1335086905412819,-0.15831109741658883,-0.005135086050843535,-0.008574642042176282,-0.005799111093902704
803,0.0,300.4023,1874.149,-0.008030005503008475,0.0,0.0,0.0,0.0,-0.0012254923760880165,-0.27079478758786474,-0.14125705458598586,-0.15764266645811986,-0.0001027101836817059,0.0026433864166069275,-0.002474115692001208
804,0.0,299.84049,1769.6473,-0.008040015177706028,0.0,0.0,0.0,0.0,-0.0012270199939737603,-0.25625761747565773,-0.12647036150415286,-0.15520060199460686,-0.016048950407158088,-0.004682033661455746,0.003370795117021577
805,0.0,299.95722,1667.6073,-0.008049991817173474,0.0,0.0,0.0,0.0,-0.00122854257021629,-0.24134449104634678,-0.13309606470305888,-0.1324704131638119,-0.013226226119576887,-0.004338679071619286,-0.013443502404770385
806,0.0,300.5777,1774.7979,-0.008060001491870805,0.0,0.0,0.0,0.0,-0.001230070188102006,-0.22469489712565982,-0.13607237541429787,-0.17872697235647883,-0.006026734081167343,0.02025241743375798,-0.0034861303361542768
807,0.0,300.11265,1746.3228,-0.008070011166568358,0.0,0.0,0.0,0.0,-0.0012315978059877497,-0.25078619865817076,-0.1154124085253179,-0.16463991833619485,-0.0001080804700067119,0.026786828825154176,-0.012852611423453987
808,0.0,300.55835,1803.8641,-0.008079987806035693,0.0,0.0,0.0,0.0,-0.0012331203822302794,-0.26899899430313373,-0.12314953562641288,-0.15618112411637686,-0.0018955541405516283,-0.0023062351465326877,-0.004924466413506996
809,0.0,300.00736,1865.6313,-0.008089997480733246,0.0,0.0,0.0,0.0,-0.0012346480001160232,-0.2803505364984437,-0.12460500860005687,-0.16214977515543683,0.01028798726759529,-0.025843137331269077,0.005518994456057345
810,0.0,299.82106,1708.6406,-0.008100007155430688,0.0,0.0,0.0,0.0,-0.0012361756180017114,-0.25469646251658373,-0.12024600666985688,-0.14444159832527584,0.003317449525756777,-0.008353139186840651,0.0016444675233713085
811,0.0,300.0681,1652.8738,-0.008109983794898246,0.0,0.0,0.0,0.0,-0.0012376981942442966,-0.24020598296898474,-0.1143703010624699,-0.14785605864475684,0.02063289689930838,0.0003149648013796057,0.004619626473221636
812,0.0,299.92973,1818.5652,-0.008119993469595577,0.0,0.0,0.0,0.0,-0.0012392258121299848,-0.2293169387818198,-0.14585431214469988,-0.17762716030043582,-0.002024972016199178,-0.007867511921312973,-0.02259894153209188
813,0.0,299.5519,1781.2808,-0.00813000314429313,0.0,0.0,0.0,0.0,-0.0012407534300157286,-0.2391316845504598,-0.14159399064173886,-0.16073919929372385,-0.005135771717186205,-0.00040357642051989164,-0.01193002998215229
814,0.0,300.30915,1629.1934,-0.00814001281899046,0.0,0.0,0.0,0.0,-0.0012422810479014446,-0.22312604146582582,-0.13473338567214987,-0.13737468550282586,-0.012726894443796688,0.01257161791897209,-0.03474043681011417
815,0.0,299.78531,1629.72,-0.008149989458458129,0.0,0.0,0.0,0.0,-0.001243803624144002,-0.2338030732020668,-0.12853242678266288,-0.1330586859068699,-0.007836609617113154,0.025296759440095774,-0.0036796025393984965
816,0.0,300.20021,1727.9801,-0.00815999913315546,0.0,0.0,0.0,0.0,-0.001245331242029718,-0.26118095918155376,-0.12178498158424188,-0.14229686197110686,-0.01091270965650059,0.001112518516272029,-0.014988769602276386
817,0.0,300.0802,1795.2588,-0.008170008807852791,0.0,0.0,0.0,0.0,-0.0012468588599154062,-0.25484227933847475,-0.12401946149976788,-0.16685211688202184,-0.0027741175657090876,-0.004972918614738855,0.009549435855830941
818,0.0,300.20475,1800.2673,-0.00817998544732046,0.0,0.0,0.0,0.0,-0.0012483814361579915,-0.2384667797023388,-0.15066312619179287,-0.15810641076388784,0.0048746315311886754,0.013758299959088487,-0.02056825762242898
819,0.0,300.82829,1963.9727,-0.00818999512201779,0.0,0.0,0.0,0.0,-0.0012499090540436797,-0.28248575843417373,-0.14240972789974587,-0.17210317406776085,0.00921335082883693,0.0007414292244333673,0.01231869042901009
820,0.0,300.06073,1881.3022,-0.008200004796715343,0.0,0.0,0.0,0.0,-0.0012514366719294234,-0.2754863989958908,-0.13814423882127488,-0.15823825486689985,0.001035245834495809,-0.004045943822328566,-0.02228584421144158
821,0.0,300.00968,1799.5533,-0.008210014471412674,0.0,0.0,0.0,0.0,-0.0012529642898151394,-0.2585546453198568,-0.14766315609071884,-0.14080146694352286,-0.0018130065800798182,-0.024701735411621475,-0.0001059520368466519
822,0.0,300.36975,1806.3169,-0.008219991110880231,0.0,0.0,0.0,0.0,-0.0012544868660576969,-0.24894226586118876,-0.12785309325311786,-0.17227987475269985,0.023505846981096475,-0.0030256716964855474,-0.0033475302867755174
823,0.0,298.95079,1684.9527,-0.008230000785577674,0.0,0.0,0.0,0.0,-0.0012560144839434129,-0.21676818079835378,-0.12845610878513086,-0.16695924781509483,0.012623247064567487,-0.0012331274995252088,0.008455661149183781
824,0.0,299.89412999999996,1605.9973,-0.008240010460275227,0.0,0.0,0.0,0.0,-0.0012575421018291288,-0.20868356970796478,-0.12291167516543787,-0.15658783257401584,-0.0036214004404043964,-0.010188586419535189,-0.016417455283026683
825,0.0,300.55726,1889.0453,-0.008249987099742562,0.0,0.0,0.0,0.0,-0.0012590646780716863,-0.2734497966923937,-0.12682748150189788,-0.17394531341206584,-0.004182077215663886,-0.018144659641988484,0.0028483887980390874
826,0.0,299.68164,1908.5371,-0.008259996774440115,0.0,0.0,0.0,0.0,-0.0012605922959574023,-0.27022041663617874,-0.15483882104640187,-0.15508839467853286,-0.00034736050450431263,0.023830043443342178,-0.015755036950651086
827,0.0,300.21141,1838.5667,-0.008270006449137446,0.0,0.0,0.0,0.0,-0.0012621199138431183,-0.2781485515136248,-0.13131648341992788,-0.14941332272344687,0.015421410169724684,0.011971818442776488,0.004504198035079735
828,0.0,300.12774,1928.9701,-0.008280016123834888,0.0,0.0,0.0,0.0,-0.0012636475317288343,-0.2795375147507047,-0.14248417138459285,-0.16433705788130484,-0.008463419605199482,0.010757495953182188,0.0015720524638994987
829,0.0,299.75456,1949.1993,-0.008289992763302445,0.0,0.0,0.0,0.0,-0.0012651701079713917,-0.26889576438294577,-0.13535355552835587,-0.18825857551717481,-0.00964250105366576,-0.02021128859894888,0.005462184968000684
830,0.0,300.31698,1797.2420000000002,-0.008300002437999776,0.0,0.0,0.0,0.0,-0.0012666977258571077,-0.2339957629735838,-0.13859704002596285,-0.17372388786771284,0.0004931264916377955,0.01121930799100949,-0.013636555933073289
831,0.0,299.53933,1669.0744,-0.00831001211269733,0.0,0.0,0.0,0.0,-0.0012682253437428237,-0.23880904545361778,-0.12314794482375589,-0.14539994040235685,0.0013106576481518386,0.0020178136068926982,-0.02313677975142238
832,0.0,298.96589,1752.1284,-0.008319988752164775,0.0,0.0,0.0,0.0,-0.0012697479199853812,-0.25944505911023374,-0.1323222861316929,-0.14083593771192487,0.005716824546656655,-0.015351379389063185,-0.02111601049398798
833,0.0,299.14252999999997,1657.3379,-0.008329998426862328,0.0,0.0,0.0,0.0,-0.0012712755378710971,-0.2677147808613918,-0.11239065354709389,-0.12368389333164988,-0.017245320131480585,-0.02142100181383828,-0.02023791073207628
834,0.0,299.63222,1614.4696,-0.00834000810155966,0.0,0.0,0.0,0.0,-0.0012728031557568131,-0.2285663535052428,-0.1254344449994159,-0.13675764658942888,0.013350447542086589,0.005472222122166275,-0.0006469379378778034
835,0.0,299.64026,1796.5213,-0.008349984741027217,0.0,0.0,0.0,0.0,-0.0012743257319993706,-0.23776833627590777,-0.13607146348920787,-0.17225780616552183,0.010585087395666791,-0.014331196631878988,0.006942261984547914
836,0.0,300.17163999999997,1893.231,-0.008359994415724659,0.0,0.0,0.0,0.0,-0.0012758533498850866,-0.24821984893739177,-0.13950892458595887,-0.18776616636607782,-0.00872238687635756,-0.004105473380278676,0.008200312092807792
837,0.0,300.08477,1920.6891,-0.008370004090422212,0.0,0.0,0.0,0.0,-0.0012773809677708303,-0.27461718239760574,-0.14663369398911888,-0.16259064027394685,-0.0026102951882160776,-0.011588394472435488,-0.009267308929787181
838,0.0,300.5007,1950.9255,-0.008380013765119543,0.0,0.0,0.0,0.0,-0.0012789085856565185,-0.2867034727704297,-0.1305752301767719,-0.17575394457556381,-0.005215582793112945,0.03076920670643427,0.003339235618806897
839,0.0,299.84446,1928.3373,-0.0083899904045871,0.0,0.0,0.0,0.0,-0.0012804311618991038,-0.2988433032785377,-0.14607789591176587,-0.14124519955981588,0.006503624496382764,0.03788715187017076,-0.013159818721272986
840,0.0,300.01099,1803.9681,-0.008400000079284431,0.0,0.0,0.0,0.0,-0.001281958779784792,-0.25994422663949773,-0.13118588561453887,-0.15723114506250585,-0.006285730939228343,0.009323051769463572,-0.0002140686190869278
841,0.0,299.58026,1837.9731,-0.008410009753981873,0.0,0.0,0.0,0.0,-0.001283486397670508,-0.2732655878242138,-0.1262529585626969,-0.15917937169228086,-0.000874708383429496,-0.012696963035842689,-0.0033910092538665566
842,0.0,300.75237000000004,1850.2894,-0.00841998639344943,0.0,0.0,0.0,0.0,-0.0012850089739130655,-0.25800868590097475,-0.13313009977391788,-0.17130299019878883,-0.001182507551029409,0.0009232736431075141,-0.004457253955296715
843,0.0,300.39926,1688.3036,-0.008429996068146761,0.0,0.0,0.0,0.0,-0.0012865365917987814,-0.24661625906412976,-0.11549502893847188,-0.15109085958900684,0.01997005198864068,-0.01165238121625049,-0.01911904856090318
844,0.0,300.71405,1805.1722,-0.008440005742844314,0.0,0.0,0.0,0.0,-0.0012880642096845252,-0.24820327216575577,-0.14514651641984586,-0.15537748506456386,0.0016971060687163285,-0.004642965980000066,-0.02184544924097798
845,0.0,300.28688999999997,1913.0756,-0.008450015417541645,0.0,0.0,0.0,0.0,-0.0012895918275702134,-0.2909308940426437,-0.13504287278269386,-0.15555344607692986,0.016466396276106784,0.0003790235872767157,-0.008981149470995441
846,0.0,300.37911,1853.5889,-0.008459992057009313,0.0,0.0,0.0,0.0,-0.0012911144038127986,-0.24770292926637577,-0.14306222043414185,-0.17267958165214783,0.003933780582633916,0.02106579077928168,-0.0009833855766851
847,0.0,299.99244,1798.3963,-0.008470001731706644,0.0,0.0,0.0,0.0,-0.0012926420216984869,-0.23750768782018378,-0.15170642928975886,-0.15745343186944386,-0.004711680751431685,-9.451002154991291e-05,-0.0019401542688783182
848,0.0,300.37195,1941.9679999999998,-0.008480011406404198,0.0,0.0,0.0,0.0,-0.0012941696395842306,-0.26012339965468073,-0.14824716305085586,-0.18193920822100185,-0.02361228079810068,-0.014445069731117385,0.003114085772386337
849,0.0,299.80931,1913.3497,-0.008489988045871644,0.0,0.0,0.0,0.0,-0.0012956922158267603,-0.2766895422971318,-0.13787538303974087,-0.16704559698861685,-0.008410010685803432,-0.02091045751245148,-0.007225236089000283
850,0.0,299.80532,1770.2666,-0.008499997720569197,0.0,0.0,0.0,0.0,-0.001297219833712504,-0.2676531448578088,-0.1218963175052299,-0.14856739061245985,-0.006117989006373504,0.02205610798976838,-0.016937604182111383
851,0.0,299.90205,1817.4586,-0.008510007395266528,0.0,0.0,0.0,0.0,-0.00129874745159822,-0.27119381560974576,-0.12349428384043688,-0.15777393300857487,-0.0021180839248636078,0.009204989995636782,-0.011172409710130988
852,0.0,300.04168,1768.9691,-0.008519984034734085,0.0,0.0,0.0,0.0,-0.0013002700278407775,-0.2454765452191488,-0.13502524223095386,-0.15722063765896885,-0.014874535786002386,0.004952988998521955,-0.019389255004820482
853,0.0,299.33406,1722.8489,-0.008529993709431527,0.0,0.0,0.0,0.0,-0.0013017976457264935,-0.23785438147439977,-0.12146275791994088,-0.16438589653612484,0.010728005309021689,0.0013274204525061987,-0.01061920352653379
854,0.0,299.44064,1822.9965,-0.008540003384128858,0.0,0.0,0.0,0.0,-0.0013033252636121817,-0.2692742234277967,-0.11835010427524588,-0.16652109820685285,0.011744867645628189,0.007764283723650143,-0.005658277638653525
855,0.0,299.15521,1876.6222,-0.008550013058826411,0.0,0.0,0.0,0.0,-0.0013048528814979254,-0.25571988564758774,-0.15239439571015584,-0.16233200818592186,0.02070078465600838,-0.01033695764492829,-0.0002438511502037348
856,0.0,299.7847,1755.9472,-0.008559989698293746,0.0,0.0,0.0,0.0,-0.0013063754577404552,-0.2526130176609637,-0.13137943664864088,-0.14977164848881086,-0.0037399011541745064,-0.018212243423658483,-0.0038914963387357863
857,0.0,300.24394,1957.9073,-0.0085699993729913,0.0,0.0,0.0,0.0,-0.001307903075626199,-0.2664838745074108,-0.15197743316150486,-0.17669362258580285,-0.0037475647699808465,-0.013617179551410986,0.0039316133419950265
858,0.0,300.1335,2043.6922,-0.008580009047688741,0.0,0.0,0.0,0.0,-0.0013094306935119149,-0.27756656092118676,-0.14760290823977287,-0.19606193877730682,0.004440813161824137,0.017605072552985383,0.0040886297185663365
859,0.0,299.52648999999997,1809.6836,-0.008589985687156299,0.0,0.0,0.0,0.0,-0.0013109532697544724,-0.26286823338057475,-0.1149398793411829,-0.17229051387874983,-0.006295078374050864,0.007601016505886923,0.00962933721234159
860,0.0,299.99518,1787.6216,-0.00859999536185363,0.0,0.0,0.0,0.0,-0.0013124808876401606,-0.2586562439073838,-0.13445084088176487,-0.15028525483199986,-0.002060684522598728,0.0013535715256621085,-0.0064026573663180835
861,0.0,300.34571,1873.8693,-0.008610005036551183,0.0,0.0,0.0,0.0,-0.0013140085055259043,-0.2903824521610167,-0.1216215443431119,-0.15760548017944984,-0.00934801804927755,-0.02227276213940048,-0.008932336755378
862,0.0,300.39326,1830.5468,-0.008620014711248514,0.0,0.0,0.0,0.0,-0.0013155361234116203,-0.26988276117285476,-0.14022295179892788,-0.14633479534211988,0.014395778153502686,0.021934551415021684,-0.03005737621968207
863,0.0,299.82822999999996,1770.4121,-0.008629991350716182,0.0,0.0,0.0,0.0,-0.0013170586996541778,-0.25348906356492273,-0.13102300566096386,-0.15364900198397585,-0.0013061949907364088,-0.001013221850587211,-0.016596874517983983
864,0.0,299.56719,1852.4189999999999,-0.008640001025413513,0.0,0.0,0.0,0.0,-0.0013185863175398937,-0.24681066122831577,-0.1375115046638289,-0.17876697547042683,0.002363151025849848,0.0022911399491929076,-0.016276455452111083
865,0.0,299.83387,1925.1172,-0.008650010700110844,0.0,0.0,0.0,0.0,-0.0013201139354256097,-0.26683342552690875,-0.15336155306310686,-0.16499258003349984,-0.02123320705355438,-0.014612243838616184,0.008808332573689742
866,0.0,299.56642999999997,1936.0793,-0.008659987339578512,0.0,0.0,0.0,0.0,-0.0013216365116681672,-0.2667900685551297,-0.13926156997154687,-0.18246813490570282,0.006768203551894682,0.005687061135569235,-0.002983564974004937
867,0.0,300.1128,2018.4639,-0.008669997014275843,0.0,0.0,0.0,0.0,-0.0013231641295538554,-0.2821620452922257,-0.16146410881276685,-0.16993646031892284,0.0027549273180901574,-0.006140463602866573,0.0021737422594816577
868,0.0,299.43622999999997,1877.1258,-0.008680006688973396,0.0,0.0,0.0,0.0,-0.0013246917474395992,-0.2683311510297227,-0.15193864594767686,-0.15032956425887287,0.0018561618137639083,-0.006364856044837384,-0.006181052172722354
869,0.0,299.23498,1761.8937,-0.008690016363670727,0.0,0.0,0.0,0.0,-0.0013262193653253151,-0.2575144832972008,-0.13416861019891088,-0.14388859681819885,0.004294555272164606,0.006223573111843844,-0.01078655799255039
870,0.0,299.45249,1865.1848,-0.008699993003138284,0.0,0.0,0.0,0.0,-0.0013277419415678726,-0.26893131932895475,-0.14449005194505785,-0.15354824439403186,-0.0026811661558604973,0.024775027844354876,-0.005391217640271755
871,0.0,299.79016,1853.4608,-0.008710002677835726,0.0,0.0,0.0,0.0,-0.0013292695594535886,-0.2841682399602217,-0.11981637849495588,-0.15942118382864587,-0.001119071913943799,0.018131617086701284,-0.0017308104147426885
872,0.0,300.1039,1791.9807,-0.008720012352533169,0.0,0.0,0.0,0.0,-0.0013307971773393323,-0.26267376028888173,-0.13059852479657086,-0.15144509182396684,-0.0017712643236601781,-0.010916157746590889,-0.00958589056792874
873,0.0,300.11473,1945.3632,-0.008729988992000615,0.0,0.0,0.0,0.0,-0.001332319753581862,-0.2817527530468317,-0.14820045222124587,-0.16138863181281785,-0.0006393174054657153,-0.01957578117597918,-0.01950882864912148
874,0.0,299.94782999999995,2068.8916,-0.008739998666698168,0.0,0.0,0.0,0.0,-0.001333847371467578,-0.28261504914693375,-0.13935218492798987,-0.2069241521018238,0.00989770106095204,0.0005079020085710256,0.002174184036525258
875,0.0,300.52738,1918.0016,-0.008750008341395499,0.0,0.0,0.0,0.0,-0.001335374989353294,-0.24860403284530777,-0.15281088203125986,-0.18160967902347983,0.003284906972295077,-0.004290051274145096,-0.006798860142945253
876,0.0,300.43827999999996,1844.2955,-0.008759984980862945,0.0,0.0,0.0,0.0,-0.0013368975655958237,-0.2570946329857648,-0.13168080762588388,-0.17184434946221686,0.0036955598099233564,-0.0026615128529458676,0.004375566036209746
877,0.0,299.60882000000004,1915.9938,-0.008769994655560498,0.0,0.0,0.0,0.0,-0.0013384251834815675,-0.2920033888759907,-0.1285474735466479,-0.16186341041217484,-0.0009005272321426181,0.008888031584155423,0.015337023661646383
878,0.0,299.49592,1895.7957,-0.008780004330257829,0.0,0.0,0.0,0.0,-0.0013399528013672835,-0.27924889045971973,-0.15757381611382484,-0.13945186847282787,-0.005919600614969094,0.016513413107246987,-0.005743625721076725
879,0.0,299.09777,1843.0918,-0.008790014004955382,0.0,0.0,0.0,0.0,-0.0013414804192530272,-0.27409294706086773,-0.14168506156072685,-0.14447586644365787,-0.004316456470426086,0.011720151435938887,-0.014782048343374586
880,0.0,299.38997,1962.3699,-0.008799990644422828,0.0,0.0,0.0,0.0,-0.001343002995495557,-0.27294848107291775,-0.16336332453520486,-0.16019963348297284,-0.019224582611818582,-0.01003078011318592,-0.023423520410471476
881,0.0,299.78192,1923.2057,-0.008810000319120381,0.0,0.0,0.0,0.0,-0.0013445306133812729,-0.2592602321594928,-0.14383708318311486,-0.18150919501106283,0.01179037372086929,-0.006835929391228702,-0.014783369621504986
882,0.0,300.22914,1842.2128,-0.008820009993817712,0.0,0.0,0.0,0.0,-0.0013460582312669889,-0.26575036249501877,-0.12048152652310087,-0.17375478186326182,-0.008641469331321622,0.003885656877084476,-0.015337322570425884
883,0.0,300.33284,1875.4591,-0.008829986633285158,0.0,0.0,0.0,0.0,-0.0013475808075095186,-0.26756824463192974,-0.13844357316581687,-0.16408093865352782,0.001974136346757088,-0.005733403851417905,-0.004658879680770625
884,0.0,300.19809,1875.6279,-0.008839996307982712,0.0,0.0,0.0,0.0,-0.0013491084253952623,-0.2776260589670587,-0.12147769322641488,-0.17104029497786283,-0.01095250505417809,-0.03412117786574807,-0.0006604420995130602
885,0.0,299.9324,1847.335,-0.008850005982680265,0.0,0.0,0.0,0.0,-0.001350636043281006,-0.2541904859466478,-0.13737569875292588,-0.16997752734547586,0.012217702831293387,0.008426070395913404,-0.017686711126792484
886,0.0,299.37565,1930.9469,-0.008860015657377596,0.0,0.0,0.0,0.0,-0.001352163661166722,-0.2624066472975197,-0.16178436677187386,-0.16276862778651285,0.016307078909883383,0.008161409875093442,-0.0033462295776221468
887,0.0,299.8696,1917.7684,-0.00886999229684493,0.0,0.0,0.0,0.0,-0.0013536862374092518,-0.24647389742507975,-0.14112651757560288,-0.1953532817898678,0.0025387594271810477,0.020108271461281878,0.003048391904802857
888,0.0,299.96238999999997,1885.3713,-0.008880001971542484,0.0,0.0,0.0,0.0,-0.0013552138552949677,-0.2709656418197267,-0.15349603161637884,-0.14864411391003188,-0.02130473339136348,-0.012010645173358387,0.0027957440718684575
889,0.0,299.78274,1975.7958,-0.008890011646239926,0.0,0.0,0.0,0.0,-0.0013567414731806837,-0.2952805234094187,-0.14356697097145688,-0.16174507293299586,-0.00997666992339566,-0.0019465219378067581,0.003632288522003966
890,0.0,300.09648,2047.1738,-0.008899988285707261,0.0,0.0,0.0,0.0,-0.0013582640494232134,-0.3246997334378687,-0.13370974975862487,-0.16388023407371985,0.012121889901837388,0.017152700966339786,-0.006277546208895574
891,0.0,300.5446,1956.0296,-0.008909997960404814,0.0,0.0,0.0,0.0,-0.0013597916673089572,-0.2735652666737898,-0.16712781210173083,-0.15389105730036484,0.0037911117261535962,0.01111955149216429,-0.02660646929410408
892,0.0,300.34632999999997,1941.533,-0.008920007635102367,0.0,0.0,0.0,0.0,-0.001361319285194701,-0.2634324616987598,-0.14010400636968887,-0.18664108385254083,0.010894372869440888,-0.024091450823391078,-0.02133654640475318
893,0.0,300.33353999999997,2049.0991,-0.008929984274569591,0.0,0.0,0.0,0.0,-0.0013628418614372029,-0.2538089364889917,-0.16536240618749884,-0.20370361771898182,-0.013152753328325687,-0.005165033265499094,0.0016581875376753686
894,0.0,299.78909,1807.5397,-0.008939993949267144,0.0,0.0,0.0,0.0,-0.0013643694793229466,-0.2700684797836837,-0.1143111880516359,-0.16506725656586987,0.026620876697275975,-0.0025444027236129975,-0.0009228085309141111
895,0.0,299.93885,1733.9248,-0.008950003623964697,0.0,0.0,0.0,0.0,-0.0013658970972086626,-0.25808558145106375,-0.11454071959678891,-0.15444353191738985,-0.017987201589698586,0.003109150231149237,0.008127849714556313
896,0.0,299.96721,1956.9142,-0.00896001329866225,0.0,0.0,0.0,0.0,-0.0013674247150944063,-0.28844579684738375,-0.14347139108952386,-0.16293586471551785,0.0032385439914444066,-0.016851884236901482,-0.00972150750768809
897,0.0,299.80877999999996,2175.21,-0.008969989938129475,0.0,0.0,0.0,0.0,-0.0013689472913369083,-0.2986708177140147,-0.16337846249169885,-0.1991602448005858,-0.01022060816244549,-0.003028371298726977,-0.008728348029345882
898,0.0,300.03847,2161.6939,-0.008979999612827028,0.0,0.0,0.0,0.0,-0.001370474909222652,-0.2855703045210947,-0.17192679762285384,-0.1996038760918688,0.03277121259851687,0.012995140248770487,-0.014750877730548288
899,0.0,300.19385,1978.0159,-0.00899000928752458,0.0,0.0,0.0,0.0,-0.0013720025271083958,-0.2614672833948118,-0.15761775063816086,-0.18218239837750283,0.004944099755394655,-0.006322867872618474,-0.018088380691684183
900,0.0,299.74813,1951.1104,-0.008999985926992027,0.0,0.0,0.0,0.0,-0.0013735251033509255,-0.2865779918780457,-0.13126106877195887,-0.17524978172330682,0.012810401450788189,-0.02763718681257797,0.016643739361609185
901,0.0,300.67342,1891.319,-0.009009995601689358,0.0,0.0,0.0,0.0,-0.0013750527212366415,-0.26787615107231777,-0.15739728768140285,-0.14964032114334985,-0.019323987512879084,0.003662323686768207,-0.014215191654430186
902,0.0,299.91731,1863.5672,-0.009020005276386911,0.0,0.0,0.0,0.0,-0.0013765803391223574,-0.28348965623575073,-0.13362753464551086,-0.14936069451325285,0.01039343924525259,0.025652321059186977,0.0006632419527193844
903,0.0,300.20176000000004,1886.211,-0.009030014951084464,0.0,0.0,0.0,0.0,-0.0013781079570081012,-0.26136380016209876,-0.14634128014275988,-0.16565596500647084,-0.016645153858748783,0.02347721455977068,-0.028144156367611972
904,0.0,300.2832,1766.4241,-0.009039991590551688,0.0,0.0,0.0,0.0,-0.0013796305332506031,-0.23956401810312777,-0.13111317478736287,-0.16627161576723085,-0.016325815930732585,-0.008335267988201903,-0.02383374687245768
905,0.0,299.82565,1911.085,-0.009050001265249241,0.0,0.0,0.0,0.0,-0.0013811581511363469,-0.26035334663237475,-0.14295500844106085,-0.17761376513411384,-0.009477007218807792,-0.0033887483889184266,-0.019465267000822285
906,0.0,299.75719,2172.9696,-0.009060010939946683,0.0,0.0,0.0,0.0,-0.0013826857690220906,-0.3115210479997337,-0.14895691434840286,-0.20005052686844982,0.004949428437670556,-0.004314733134656005,0.016980859828880382
907,0.0,300.17888,2020.6211,-0.00906998757941413,0.0,0.0,0.0,0.0,-0.0013842083452646203,-0.2773141501887757,-0.16330927777487084,-0.1735949315274858,0.015575878120969484,-0.0027945350618491377,-0.007243494247852224
908,0.0,299.3895,1849.1405,-0.00907999725411146,0.0,0.0,0.0,0.0,-0.0013857359631503363,-0.2649692986554337,-0.13801876806139188,-0.15910445197988685,0.010398430515245189,-0.026620618318500475,0.008398898067981702
909,0.0,300.17926,2021.5636,-0.009090006928809236,0.0,0.0,0.0,0.0,-0.00138726358103608,-0.28357256035893275,-0.16261608298395785,-0.16831622274651786,0.029626045784613076,0.01117098001423989,-0.018521605904440182
910,0.0,299.89375,2037.5261,-0.00909998356827646,0.0,0.0,0.0,0.0,-0.0013887861572786098,-0.29148509118483873,-0.14196636005348887,-0.18590561626745583,0.012886621163060488,0.00954974256663621,-0.0046521628458577255
911,0.0,300.33254,1795.0023,-0.009109993242974013,0.0,0.0,0.0,0.0,-0.0013903137751643257,-0.26158680637660775,-0.12337508509867287,-0.16067398651728787,-0.005853027854248874,0.025100153456942276,-0.00959957977942976
912,0.0,300.42647999999997,1863.1205,-0.009120002917671344,0.0,0.0,0.0,0.0,-0.0013918413930500417,-0.2745556173215297,-0.13311988621290988,-0.15866660634667484,-0.026700060166090774,-0.016568913881474485,0.01010611120512052
913,0.0,300.30138999999997,1985.8109,-0.009130012592368897,0.0,0.0,0.0,0.0,-0.0013933690109357855,-0.2860473325356737,-0.13417412227945488,-0.1834154730866978,-0.022025126854710777,0.018850164408366378,-0.007580347014447003
914,0.0,299.98122,2080.3346,-0.009139989231836343,0.0,0.0,0.0,0.0,-0.0013948915871783152,-0.30609928856964774,-0.15396609860277086,-0.17230438527261882,-0.010732207257186389,0.026526692060730675,-0.019223031325915484
915,0.0,299.83832,2150.6484,-0.009149998906533674,0.0,0.0,0.0,0.0,-0.0013964192050640312,-0.28912591057950576,-0.16555147865615885,-0.1990660125412858,-0.006638249362969204,-0.0019875599854068983,-0.03000615845362727
916,0.0,299.43437,2080.4537,-0.009160008581231449,0.0,0.0,0.0,0.0,-0.001397946822949775,-0.3019147075116617,-0.15276575187180585,-0.17772552662014382,-0.007747082283327493,-0.03358371961520507,-0.015238132478386587
917,0.0,299.69665,1780.8893,-0.009169985220698673,0.0,0.0,0.0,0.0,-0.0013994693991923046,-0.25373562784425674,-0.13966692067405187,-0.14794331974336886,0.010432178836325889,-0.018525227260297584,-0.011332169866648091
918,0.0,299.90324,1816.5283,-0.009179994895396226,0.0,0.0,0.0,0.0,-0.0014009970170780206,-0.28671454759402276,-0.13208639137591188,-0.13337829538591287,0.03207204875126477,-0.011490858004559387,0.011761504199020091
919,0.0,299.42498,1984.9628,-0.009190004570093557,0.0,0.0,0.0,0.0,-0.0014025246349637366,-0.2893387133655077,-0.14864942334055584,-0.16539100010532085,0.0048043202828994954,-0.008169395704431582,0.0025094667720900877
920,0.0,299.47598999999997,1892.3492,-0.009200014244791221,0.0,0.0,0.0,0.0,-0.001404052252849508,-0.27656550021988974,-0.14244142236287385,-0.15621997212521085,-0.01650491092565788,-0.022816466063559877,-0.0010571397373565692
921,0.0,299.67294,1893.4936,-0.009209990884258445,0.0,0.0,0.0,0.0,-0.00140557482909201,-0.25430650308309777,-0.14878757999169087,-0.17248070092251985,-0.01137899823326969,0.005892157647935684,-0.026079820395627874
922,0.0,299.93757999999997,2089.4219,-0.009220000558955999,0.0,0.0,0.0,0.0,-0.0014071024469777538,-0.3029252117038907,-0.14649101824253785,-0.18571586492122882,-0.005287857517445905,0.026033912060097076,-0.020047092433493983
923,0.0,299.41629,2135.4908,-0.009230010233653552,0.0,0.0,0.0,0.0,-0.0014086300648634698,-0.2983830648181157,-0.15129121966378084,-0.19946158538032582,-0.003969777609661546,0.017178296677115883,-0.016781303261435683
924,0.0,299.92049,1982.6042,-0.009239986873120998,0.0,0.0,0.0,0.0,-0.0014101526411060272,-0.29390696157385876,-0.13849067916296587,-0.17026452030379985,-0.005902841356990084,-0.012910232930140788,-0.01164547490356889
925,0.0,299.29557,1954.1484,-0.009249996547818329,0.0,0.0,0.0,0.0,-0.0014116802589917155,-0.27631343399251274,-0.14162422602472285,-0.17607466862971685,-0.007201336862866613,0.013649889291139188,-0.003721259277509697
926,0.0,299.94781,1924.9995,-0.00926000622251566,0.0,0.0,0.0,0.0,-0.0014132078768774314,-0.28783365193196975,-0.14548712044096085,-0.15183101852205486,0.019865541320326283,0.00998655123969587,-0.010768546458772791
927,0.0,299.79512,1861.4573,-0.009270015897213435,0.0,0.0,0.0,0.0,-0.001414735494763203,-0.25347776582630777,-0.14271344961722085,-0.16964531303518884,0.0018707949690580882,-0.005728786673362224,-0.0010018552312304131
928,0.0,299.83303,1988.2404,-0.009279992536680659,0.0,0.0,0.0,0.0,-0.0014162580710057049,-0.3017596295838567,-0.14089296342755286,-0.16172284222580185,0.01067008489355539,-0.02126103090130038,-0.003193111275510547
929,0.0,299.99082000000004,2117.2965,-0.009290002211378212,0.0,0.0,0.0,0.0,-0.0014177856888914486,-0.28883125745042576,-0.14886605621193585,-0.2059079737090348,-0.0071357076406395135,-0.012264756139437187,0.015822421122051383
930,0.0,300.95591,1934.8066,-0.009300011886075765,0.0,0.0,0.0,0.0,-0.0014193133067771646,-0.2933641229652847,-0.14254811759840386,-0.15222065371550886,0.028297823851277774,0.008229895145377412,-0.003959894469511156
931,0.0,300.07069,1995.9360000000001,-0.009309988525543211,0.0,0.0,0.0,0.0,-0.001420835883019722,-0.28091247487140275,-0.14163727668601087,-0.18416495392066584,-0.004828278986814035,-0.0032892032540440875,0.005241281754074235
932,0.0,300.12252,2199.7112,-0.009319998200240542,0.0,0.0,0.0,0.0,-0.0014223635009054103,-0.3092258237407127,-0.15779490728564485,-0.2016365672499798,0.008788859325317882,-0.017012254369978785,-0.004318572643259936
933,0.0,299.69581,2066.9935,-0.009330007874938095,0.0,0.0,0.0,0.0,-0.001423891118791154,-0.27339392608187973,-0.15086239195645884,-0.2040580931339658,-0.009290898709340311,-0.0005199973270022405,-0.016558826976728985
934,0.0,299.88998,1962.3139,-0.00933998451440543,0.0,0.0,0.0,0.0,-0.0014254136950336838,-0.2805322527713777,-0.13403455721068086,-0.18192761663985782,0.007541191180232623,0.01967522356729338,-0.015097053613963185
935,0.0,300.00652,1931.7074,-0.009349994189102984,0.0,0.0,0.0,0.0,-0.0014269413129194275,-0.2641835130703828,-0.13636848762352188,-0.18663880403981584,-0.012268806100086887,0.0027470292362106775,-0.014281248468199488
936,0.0,299.57427,1804.7160000000001,-0.009360003863800426,0.0,0.0,0.0,0.0,-0.0014284689308051435,-0.28019415147800975,-0.11771982218304189,-0.15067462658042785,-0.016166200668979783,-0.006349163333913634,0.002946270784199287
937,0.0,299.71022999999997,1942.5761,-0.009370013538497979,0.0,0.0,0.0,0.0,-0.0014299965486908595,-0.28392114879083574,-0.14452108779562087,-0.16205239168832583,-0.014888079900089085,0.003002878534161037,-0.016643679579853285
938,0.0,300.05875,2159.0918,-0.009379990177965314,0.0,0.0,0.0,0.0,-0.001431519124933417,-0.3116457689545427,-0.16814732408734884,-0.17651691176836282,-0.007381556160102874,0.008507681915942832,-6.0422597071496044e-05
939,0.0,300.13236,2019.3254,-0.009389999852662645,0.0,0.0,0.0,0.0,-0.0014330467428191052,-0.28761262155515577,-0.15157506141429386,-0.1746368160753118,0.00048416394999826155,0.009017559701413852,-0.014008170473498789
940,0.0,300.05212,1852.6825,-0.009400009527360198,0.0,0.0,0.0,0.0,-0.001434574360704849,-0.26940452739065673,-0.1322779260423149,-0.16148677521750385,0.0003275030316945327,-0.007664661379118182,-0.006847864768131633
941,0.0,300.51245,2109.9987,-0.009409986166827644,0.0,0.0,0.0,0.0,-0.0014360969369473786,-0.28200853790207575,-0.16222422877278483,-0.19715414132509881,0.03506679048182276,0.0025101693597094276,-0.007138016938942424
942,0.0,300.08451,2207.55,-0.009419995841525197,0.0,0.0,0.0,0.0,-0.0014376245548331223,-0.3103742008740487,-0.16051377141147585,-0.20015210519097482,0.0067267700327805135,0.015666894324452087,0.006730574685581004
943,0.0,299.75838999999996,1969.3745,-0.009430005516222528,0.0,0.0,0.0,0.0,-0.0014391521727188383,-0.28076233147158475,-0.13820418269719087,-0.17967415854995883,0.007295036456589044,-0.014106464852449686,-0.014311796945464384
944,0.0,299.98143,1904.1315,-0.009440015190920081,0.0,0.0,0.0,0.0,-0.0014406797906045543,-0.27527803424532676,-0.13423611292057286,-0.16929429280304584,-0.007543839005393942,-0.004528246816928165,-0.008579614871017062
945,0.0,299.14835,1945.2684,-0.009449991830387527,0.0,0.0,0.0,0.0,-0.001442202366847084,-0.2874659536031807,-0.12548570532197487,-0.17836136132289584,-0.0034923508811681965,0.006249050981633314,-0.006558700617493354
946,0.0,299.26686,2067.3999,-0.00946000150508508,0.0,0.0,0.0,0.0,-0.0014437299847328278,-0.2969752348641737,-0.14261455640746087,-0.18884816548536282,-0.0025791905379712876,0.023464602635775978,-0.0037001288585992863
947,0.0,299.26727,2106.5389999999998,-0.009470011179782412,0.0,0.0,0.0,0.0,-0.0014452576026185437,-0.3040455116769557,-0.15159662337642185,-0.18469313080029282,-0.009629770883384391,-0.008468350282836101,-0.0065881313785729435
948,0.0,298.97731,2054.8377,-0.009479987819249969,0.0,0.0,0.0,0.0,-0.0014467801788611012,-0.3094404301118927,-0.15445606582112684,-0.16072285556961086,-0.007646849759585312,-0.0057734754610726646,0.01182214215125459
949,0.0,299.90905,1929.4059,-0.00948999749394741,0.0,0.0,0.0,0.0,-0.0014483077967468172,-0.2844219071227567,-0.14672422788555387,-0.15534508132636585,0.015158722041549385,-0.004412900452044366,-0.016643087841794885
950,0.0,300.45738,2061.5867,-0.009500007168644742,0.0,0.0,0.0,0.0,-0.0014498354146325332,-0.3030495374911607,-0.16233943530915484,-0.16128190617978483,0.0015833953934689584,0.013424885960683088,-0.0035157157191991265
951,0.0,300.48638,2245.7161,-0.009509983808112299,0.0,0.0,0.0,0.0,-0.0014513579908750907,-0.3102356794528777,-0.16962089370777883,-0.2027850659733278,0.005315880975461605,-0.010308991942168291,-0.017481153079005485
952,0.0,300.27002000000005,1961.2798,-0.009519993482809741,0.0,0.0,0.0,0.0,-0.0014528856087607789,-0.2831738768420857,-0.13101722000289287,-0.18198898919841483,-0.017378605076134784,-0.00838978053960687,-0.009746335377538412
953,0.0,299.74572,1684.4323,-0.009530003157507183,0.0,0.0,0.0,0.0,-0.0014544132266465226,-0.22440238195429077,-0.12494647388375689,-0.16267650308742085,0.012115696917226188,-0.0022537258919004275,-0.021918684931705776
954,0.0,300.13088,1859.8088,-0.009540012832204625,0.0,0.0,0.0,0.0,-0.0014559408445322386,-0.2883284928833067,-0.12635325005759487,-0.15065370296586286,-0.0022473492050460978,0.007383417500536573,-0.012426438431393988
955,0.0,299.74651,2067.8738,-0.009549989471672182,0.0,0.0,0.0,0.0,-0.001457463420774796,-0.28269904758022374,-0.15806368200717086,-0.18781926067131782,0.001133775084819889,-0.009532815514440641,0.0027423905772528774
956,0.0,299.71051,1980.7776,-0.009559999146369513,0.0,0.0,0.0,0.0,-0.001458991038660512,-0.30689458857313767,-0.14391454615325985,-0.15129779565692986,-0.014435204728143787,-0.0014863961507958787,-0.01881529847242538
957,0.0,299.6667,2018.7052,-0.009570008821067066,0.0,0.0,0.0,0.0,-0.0014605186565462558,-0.2756867793356667,-0.15782406862352286,-0.18012511563946482,0.011674691970202388,0.0006677397091182784,0.0015071436624934985
958,0.0,299.09356,2045.432,-0.009579985460534512,0.0,0.0,0.0,0.0,-0.0014620412327887855,-0.29500469646719674,-0.15735834848005986,-0.16939719848320184,0.008102760527505201,0.017418247473047183,-0.033173260105695865
959,0.0,299.42118,2187.9335,-0.009589995135232066,0.0,0.0,0.0,0.0,-0.0014635688506745015,-0.29201495005963174,-0.17523286044663683,-0.1978293407942358,0.0024576965820807674,-0.015808886127215586,0.004417260264574646
960,0.0,300.19937999999996,2175.4564,-0.009600004809929397,0.0,0.0,0.0,0.0,-0.0014650964685602175,-0.3216479457266807,-0.16019743473025583,-0.17943903386425383,-0.007478590562554423,0.013353587604146486,-0.02022748438854728
961,0.0,300.3229,2013.973,-0.009610014484626728,0.0,0.0,0.0,0.0,-0.0014666240864459335,-0.2825799602959707,-0.14653294653167587,-0.18308458613404183,-0.0015264211509460387,-0.006487768854842933,0.013210227913747987
962,0.0,300.39502999999996,1798.5532,-0.009619991124094396,0.0,0.0,0.0,0.0,-0.001468146662688491,-0.28155535166234974,-0.12161148276961889,-0.14354843862712788,0.011038594835674488,0.025316776195821275,-0.015379594351347786
963,0.0,299.67846000000003,1927.3774,-0.009630000798791727,0.0,0.0,0.0,0.0,-0.001469674280574207,-0.2759933888159268,-0.11585945446943789,-0.19402174956845583,-0.001984532495433108,-0.007782756792848293,0.004802971444366375
964,0.0,299.79958999999997,2213.6848,-0.00964001047348928,0.0,0.0,0.0,0.0,-0.0014712018984599506,-0.3211612918361517,-0.15474791224742984,-0.1969957196719638,0.005747656835274564,0.003405622448133767,-0.008098347519344672
965,0.0,300.71707000000004,2201.8936,-0.009649987112956726,0.0,0.0,0.0,0.0,-0.0014727244747024804,-0.3143390789128517,-0.15002619717893284,-0.2049554071575238,0.01165753865925949,-0.007915176523242102,0.004177635633850535
966,0.0,300.10812000000004,2059.8961,-0.009659996787654168,0.0,0.0,0.0,0.0,-0.0014742520925881963,-0.3069578255118787,-0.16362600962362983,-0.15557312339387183,-0.003859680792220836,0.02058121709120798,-0.0036899189452916465
967,0.0,300.14596,2186.3759,-0.00967000646235161,0.0,0.0,0.0,0.0,-0.0014757797104739123,-0.3086354434374467,-0.16531480369780083,-0.1906534427910298,0.0016107138320650785,-0.01122667026623609,0.00988398894999876
968,0.0,299.40637999999996,2183.6648,-0.009680016137049163,0.0,0.0,0.0,0.0,-0.001477307328359656,-0.3321938223699777,-0.14883674288654286,-0.18274901796592383,-0.016152058737334087,0.0017201304547136583,0.006151765901107024
969,0.0,299.37626,2222.0638,-0.009689992776516498,0.0,0.0,0.0,0.0,-0.0014788299046021858,-0.2930045205047947,-0.17683562958731783,-0.2056117703073018,-0.005263702141686956,-0.004537779575193975,-0.022637221107619777
970,0.0,300.71723,2166.2036,-0.009700002451214051,0.0,0.0,0.0,0.0,-0.0014803575224879295,-0.2986156867760737,-0.15942920876943784,-0.2004269188830968,-0.01030929389069809,0.005936631525299914,-0.017640331629965183
971,0.0,300.12317,1848.1328,-0.009710012125911383,0.0,0.0,0.0,0.0,-0.0014818851403736455,-0.26940364586306975,-0.13725804015131388,-0.15512452717709885,-0.0011132565676448688,-0.006396606642020924,-0.03034195662951797
972,0.0,300.1151,1773.3724,-0.00971998876537905,0.0,0.0,0.0,0.0,-0.001483407716616203,-0.26583797823116573,-0.13084138058053887,-0.14238154941446488,0.003677135782030046,-0.0026667438579121273,-0.015575399866922286
973,0.0,300.6686,2030.1943,-0.009729998440076382,0.0,0.0,0.0,0.0,-0.0014849353345018912,-0.3027460488212087,-0.13197235007715688,-0.18240997434996284,0.014799609994107786,-0.004881002847817476,-0.008294823097210304
974,0.0,300.6361,2146.9456,-0.009740008114773713,0.0,0.0,0.0,0.0,-0.0014864629523876072,-0.30907751432357566,-0.15256618213210985,-0.1909741668451828,0.0013578355860579387,0.023444514952543478,0.0006803882925015964
975,0.0,300.62717999999995,2082.7311,-0.009749984754241381,0.0,0.0,0.0,0.0,-0.0014879855286301646,-0.28150806328018274,-0.15082854940311885,-0.2007616460536318,0.004065750126008297,-0.01105537121758019,-0.015652616617292985
976,0.0,300.80726,2163.7262,-0.009759994428938712,0.0,0.0,0.0,0.0,-0.0014895131465158806,-0.3008436413609557,-0.15969289697546185,-0.19718220835286882,-0.010330193187260691,0.002672725478552467,-0.01118072545370169
977,0.0,299.68077999999997,2318.4001,-0.009770004103636265,0.0,0.0,0.0,0.0,-0.0014910407644016244,-0.3428625454553987,-0.16408196203612885,-0.19779125272297682,-0.0004535051196649705,-0.011636676852950589,-0.006191980277700874
978,0.0,300.37788,2378.2256,-0.009780013778333596,0.0,0.0,0.0,0.0,-0.0014925683822873403,-0.3383264172752177,-0.16922814783651785,-0.21536661273002977,0.004167413966841736,0.01113645047733209,0.005354048586853455
979,0.0,300.09868,2085.3455,-0.009789990417801264,0.0,0.0,0.0,0.0,-0.0014940909585298978,-0.3172691854195307,-0.14178530239311987,-0.17483847311021383,0.004340799297453536,-0.002207978156510478,0.01090318814531089
980,0.0,300.08297999999996,1910.2887,-0.009800000092498595,0.0,0.0,0.0,0.0,-0.001495618576415586,-0.2787698663424437,-0.11986775027502589,-0.18204244827369082,0.0008190321852121834,0.008533129286904292,0.017449316760863483
981,0.0,299.97672,1876.6581,-0.009810009767196148,0.0,0.0,0.0,0.0,-0.0014971461943013298,-0.25662632905454674,-0.12886882581586287,-0.1849620473768328,0.0064214532569980935,-0.0015622483572569085,-0.01984435932698578
982,0.0,299.46326,2059.5296,-0.009819986406663483,0.0,0.0,0.0,0.0,-0.0014986687705438595,-0.29366435910241573,-0.15127161327434585,-0.18110960970162684,-0.002774166607013927,0.006674640645610744,-0.016101340503578584
983,0.0,299.97042999999996,2218.7899,-0.009829996081361037,0.0,0.0,0.0,0.0,-0.0015001963884296032,-0.3217676409609937,-0.16198590221676384,-0.19070318323843882,0.015872048085449182,-0.014169594386680088,-0.025214668956744075
984,0.0,300.04454,2180.7969,-0.009840005756058479,0.0,0.0,0.0,0.0,-0.0015017240063153192,-0.32439445131523975,-0.15986416663986486,-0.17864917501380084,-0.0060842142394651934,0.002285454096256758,-0.0032949199097832772
985,0.0,299.64046,2059.7626,-0.00985001543075581,0.0,0.0,0.0,0.0,-0.0015032516242010352,-0.30383013523569974,-0.14752263856685086,-0.17476362432532683,0.006028518718568474,0.003841584956034916,-0.015108659380608586
986,0.0,300.47623,2264.5645,-0.009859992070223367,0.0,0.0,0.0,0.0,-0.0015047742004435927,-0.3245871714842597,-0.15535577111492085,-0.20842810909275278,-0.008441664213627393,-0.005425258081356285,0.020360384298163482
987,0.0,300.77772000000004,2361.1039,-0.009870001744920698,0.0,0.0,0.0,0.0,-0.001506301818329281,-0.2935869873247797,-0.19185497502461182,-0.23227466648622477,0.004151327709579146,-0.004757116203140816,-0.014799127687060185
988,0.0,300.5255,2059.6223,-0.009880011419618251,0.0,0.0,0.0,0.0,-0.0015078294362150246,-0.3003168222364627,-0.15424285773508484,-0.17151409072462281,-0.006715101140653885,-0.0044907667970541755,-0.003050533712864237
989,0.0,299.9883,1961.411,-0.009889988059085697,0.0,0.0,0.0,0.0,-0.0015093520124575543,-0.2764333217443447,-0.16382944997870783,-0.15595719584427684,0.004321243469198526,0.0026212909783012777,-0.021455259799719278
990,0.0,300.08036,1994.5539999999999,-0.00989999773378325,0.0,0.0,0.0,0.0,-0.001510879630343298,-0.3064430437985737,-0.15517894883996985,-0.14467260921557484,-0.004763125688158905,0.008794929605341973,-0.016009913933805485
991,0.0,299.65108,1983.4719,-0.009910007408480581,0.0,0.0,0.0,0.0,-0.001512407248229014,-0.29478227793774575,-0.13491970210053786,-0.17322393000337083,-0.008212824110342633,0.0066158951405880136,-0.012628879721873388
992,0.0,300.07858,2075.7129,-0.009919984047948027,0.0,0.0,0.0,0.0,-0.0015139298244715438,-0.2857649802628077,-0.15148629057303287,-0.1937136100805448,-0.007595709405838154,-0.006472709425231683,-0.016139512674595884
993,0.0,299.90743,2104.9927,-0.00992999372264558,0.0,0.0,0.0,0.0,-0.0015154574423572875,-0.27073826849728677,-0.16389007273219083,-0.20523686777030178,-0.004156902712954356,-0.0013291062980225784,-0.017563722829654484
994,0.0,299.64999,2035.7467,-0.009940003397343133,0.0,0.0,0.0,0.0,-0.0015169850602430035,-0.3033270565610497,-0.14511544003927884,-0.17037365747207084,0.0076215406972625025,-0.00868311279585651,-0.02013844199625948
995,0.0,299.84119,2233.1892,-0.009950013072040464,0.0,0.0,0.0,0.0,-0.0015185126781287195,-0.3178350248053747,-0.17518845982725484,-0.1858102491680438,0.016830783303568984,-0.0064437873157022945,-0.005428313334382814
996,0.0,300.45029,2393.9027,-0.00995998971150791,0.0,0.0,0.0,0.0,-0.0015200352543712492,-0.36283529572905565,-0.16364224189023185,-0.2012090972977918,0.02194763551356298,-0.013323948012221287,0.013113252786427288
997,0.0,300.22411,2186.95,-0.009969999386205464,0.0,0.0,0.0,0.0,-0.001521562872256993,-0.3150825815712297,-0.16032138561498885,-0.18937421453977982,-0.009782029138811111,0.006028741836240494,0.016002553685079086
998,0.0,300.25937000000005,1964.7871,-0.009980009060902795,0.0,0.0,0.0,0.0,-0.001523090490142709,-0.2733958411245688,-0.14088421907918985,-0.18296615746235384,-0.004362184548764096,0.006280610783823024,0.0008251374122322221
999,0.0,300.47312999999997,2068.8192,-0.00998998570037024,0.0,0.0,0.0,0.0,-0.0015246130663852386,-0.2786964259751957,-0.14487677911072486,-0.20529617329865482,-0.024697373369940975,0.005531501204691665,-0.0040871430780196165
1000,0.0,300.64117999999996,2178.221,-0.009999995375067683,0.0,0.0,0.0,0.0,-0.0015261406842709824,-0.32177688180190567,-0.17280772739229483,-0.16754018462742884,-0.003294557267572487,0.004904076275119645,-0.02275607635759988
1001,0.0,300.27107,2095.5265,-0.010010005049765236,0.0,0.0,0.0,0.0,-0.0015276683021566984,-0.2999658830643277,-0.16680878017524484,-0.17021304719871985,-0.013302006081305788,0.007583706850453593,-0.03617308632525567
1002,0.0,299.76845,1955.2204,-0.010020014724462678,0.0,0.0,0.0,0.0,-0.0015291959200424143,-0.3143502955914587,-0.13248167037242287,-0.14750622391523088,0.005376982692266875,-0.006361851555640864,-0.018303536244418384
1003,0.0,299.71066,2014.7164,-0.010029991363930013,0.0,0.0,0.0,0.0,-0.001530718496284944,-0.28848480697623374,-0.14590204635691087,-0.17803663493084784,-0.007223024265356994,-0.003605227246283226,-0.02096529764761378
1004,0.0,299.63914,2161.0898,-0.010040001038627566,0.0,0.0,0.0,0.0,-0.0015322461141706878,-0.29876937655124175,-0.14363091718526788,-0.2145170531836848,0.013820247030452187,-0.01673960498007038,-0.0004624049208583125
1005,0.0,299.5244,2345.1712,-0.01005001071332512,0.0,0.0,0.0,0.0,-0.0015337737320564315,-0.3034723870228927,-0.18606585163826986,-0.2233352472139728,0.002317532175872618,-0.0011288916246379288,-0.01192409031006609
1006,0.0,299.59148999999996,2220.5172,-0.010059987352792343,0.0,0.0,0.0,0.0,-0.0015352963082989335,-0.3265646607769227,-0.15684867354725884,-0.1915684380288328,0.016796378396423485,-0.013232237732420186,0.004584891550518566
1007,0.0,299.95362,1975.1591,-0.010069997027490118,0.0,0.0,0.0,0.0,-0.001536823926184705,-0.29086875141401075,-0.13731339400427686,-0.17221689112648383,-0.004342139118060766,-0.002093699858557088,-0.01345532905993759
1008,0.0,300.23978999999997,2074.7191,-0.01008000670218745,0.0,0.0,0.0,0.0,-0.0015383515440703932,-0.3220093619048497,-0.14643144926915885,-0.16222200975506584,-0.002071487187214868,-0.012772300207277886,0.013736289127166188
1009,0.0,300.52872,2236.3289999999997,-0.01009001637688478,0.0,0.0,0.0,0.0,-0.0015398791619561092,-0.3194668539589237,-0.14506895212469087,-0.2152523789137558,-0.014924951057977986,0.014808003757936186,-5.7191623172873745e-05
1010,0.0,300.28771,2174.4631,-0.010099993016352227,0.0,0.0,0.0,0.0,-0.001541401738198639,-0.2787992607278448,-0.17569179181442984,-0.2064914233816168,-0.0004442624245052876,0.0015350763333002383,-0.002004174247296598
1011,0.0,299.90432999999996,1985.8553,-0.01011000269104978,0.0,0.0,0.0,0.0,-0.0015429293560843826,-0.2786881477218787,-0.15530729723013684,-0.16965497944114283,-0.008525410144992472,0.021420581315046778,-0.032358029472738865
1012,0.0,300.08279,2195.2752,-0.010120012365747333,0.0,0.0,0.0,0.0,-0.0015444569739701264,-0.31590180440958066,-0.15448996916947286,-0.19691706106670082,0.0032418284416435568,0.0075902206300464525,-0.01880381834879238
1013,0.0,299.95976,2299.1965,-0.010129989005214557,0.0,0.0,0.0,0.0,-0.0015459795502126283,-0.33041511248193267,-0.17864679387606583,-0.18983642883789684,-0.0049615089119878055,0.013177402663508387,-0.027146277271628973
1014,0.0,299.20586000000003,2236.4986,-0.010139998679912221,0.0,0.0,0.0,0.0,-0.0015475071680983998,-0.34651945625880765,-0.14196300619565788,-0.1913572767079928,0.01097671869181779,-0.0007243363133289284,0.0077888885771534525
1015,0.0,298.98783,2146.0849,-0.010150008354609663,0.0,0.0,0.0,0.0,-0.001549034785984088,-0.3122638211180397,-0.1268397316956069,-0.2132526589138988,-0.007402097779380174,0.0005890999097771344,0.007727481872068082
1016,0.0,299.59942,2061.0315,-0.010159984994076998,0.0,0.0,0.0,0.0,-0.0015505573622266455,-0.2880318031215257,-0.13415687676275287,-0.2043134321591658,-0.0008285715093386413,-0.019997358065585582,0.016754964838336283
1017,0.0,299.60607999999996,2138.1045,-0.01016999466877444,0.0,0.0,0.0,0.0,-0.0015520849801123338,-0.2906115074786227,-0.14558923578603886,-0.2137296463984738,-0.005284930643207045,0.001018941829786729,-0.007960019426292752
1018,0.0,299.81599,2471.9466,-0.010180004343472104,0.0,0.0,0.0,0.0,-0.0015536125979981052,-0.33746594502529564,-0.2028614650308678,-0.21108265210223578,0.007356472140627273,-0.006625123011898733,-0.01206942279840929
1019,0.0,299.56997,2311.7884,-0.010190014018169435,0.0,0.0,0.0,0.0,-0.0015551402158838212,-0.3401702791446927,-0.17085600504967483,-0.19169966404928382,0.017316688402274082,0.008075285035143582,-0.027237010778333678
1020,0.0,299.67482,1982.2351,-0.010199990657636882,0.0,0.0,0.0,0.0,-0.001556662792126351,-0.31139404723219966,-0.14328105205823888,-0.14787487469911387,0.0034257560315957966,-0.010863059388350488,-0.002121809037531248
1021,0.0,300.16733,2025.8753,-0.010210000332334435,0.0,0.0,0.0,0.0,-0.0015581904100120947,-0.27251793084042575,-0.16575964075670285,-0.17753795376163184,0.006825010101526054,0.0037754987580127164,-0.023001004238022378
1022,0.0,300.30076,2220.6605,-0.010220010007031766,0.0,0.0,0.0,0.0,-0.001559718027897783,-0.29709218419071576,-0.16067762408514685,-0.21725555409645378,-0.009224204257283082,-0.0005493390436630424,0.0018222851138955383
1023,0.0,300.49174,2146.7816,-0.010229986646499212,0.0,0.0,0.0,0.0,-0.0015612406041403126,-0.3053894055495877,-0.15740812945747285,-0.18977046625638683,-0.012888862472281687,0.024158034527212376,-0.01937831798324108
1024,0.0,299.6573,2029.9962,-0.010239996321196765,0.0,0.0,0.0,0.0,-0.0015627682220260564,-0.3097611744310477,-0.14220515270455586,-0.16510182865928186,-0.013290161187636788,-0.011724265231344887,-0.01920884987751588
1025,0.0,299.47983999999997,2128.6431,-0.010250005995894318,0.0,0.0,0.0,0.0,-0.0015642958399118,-0.3340939196200027,-0.14289100143224387,-0.17006943926204685,-0.012508263443219488,0.025001659467721676,-0.006292275318974224
1026,0.0,300.14447,2213.5383,-0.010260015670591649,0.0,0.0,0.0,0.0,-0.001565823457797516,-0.3286466769499017,-0.16028412840881184,-0.18392955565743382,0.01061525995714459,-0.006016924908274254,-0.00938345637020004
1027,0.0,299.80256,2323.3375,-0.010269992310059095,0.0,0.0,0.0,0.0,-0.0015673460340400458,-0.3102896046231997,-0.17168996054447982,-0.2242570413599468,0.011514203286863388,-0.014231560709795685,0.009204503939563811
1028,0.0,299.31917000000004,2288.7293,-0.010280001984756648,0.0,0.0,0.0,0.0,-0.0015688736519257895,-0.3073970289002247,-0.17376676861194484,-0.2145527499847078,0.01907706251650948,-0.027128859502409973,-0.013825816866251886
1029,0.0,299.36519,2097.2437,-0.010290011659454201,0.0,0.0,0.0,0.0,-0.0015704012698115055,-0.28256336325933273,-0.16800583384338486,-0.18694052965459382,0.007852481369329572,-0.01020983528738229,0.002922203662524047
1030,0.0,299.8257,1993.8572,-0.010299988298921425,0.0,0.0,0.0,0.0,-0.0015719238460540075,-0.28985383958384675,-0.15838465937384885,-0.15784429309551884,0.01758140100414918,-0.001947281368756708,-0.03282763036408487
1031,0.0,300.58995,2229.9797,-0.010309997973618978,0.0,0.0,0.0,0.0,-0.0015734514639397512,-0.32952300656388867,-0.17236766274136384,-0.17596747690163783,-0.015805254638857184,0.01216451429379409,0.004466678295801826
1032,0.0,300.80117,2221.7351,-0.01032000764831642,0.0,0.0,0.0,0.0,-0.001574979081825495,-0.3430449203408977,-0.14683741805422484,-0.18546965527942982,0.008730375238820951,0.0006934478805229774,-0.01141024889285389
1033,0.0,300.26915,2055.13,-0.010329984287783867,0.0,0.0,0.0,0.0,-0.0015765016580680247,-0.2751204738547767,-0.14608269871723986,-0.2035050206993818,-0.014377980415496186,0.009697819138900231,0.008284435459835123
1034,0.0,299.70741,2064.1031,-0.010339993962481198,0.0,0.0,0.0,0.0,-0.0015780292759537407,-0.29660903614553275,-0.14685125905059085,-0.1839754964169678,0.005546939184540274,0.0023762981485473678,-0.01900550578119738
1035,0.0,300.19164,2434.1891,-0.01035000363717875,0.0,0.0,0.0,0.0,-0.0015795568938394844,-0.33628084770833566,-0.17531985810022285,-0.22833200902211478,-0.005051386931633075,0.01246404115585509,-0.007754228634957783
1036,0.0,300.0193,2463.7052,-0.010360013311876304,0.0,0.0,0.0,0.0,-0.0015810845117252004,-0.3761207777277306,-0.1873103355435908,-0.18547376907483581,-0.005876632528578474,-0.004949302490683125,-0.024172509818140977
1037,0.0,299.97700000000003,2235.4785,-0.010369989951343528,0.0,0.0,0.0,0.0,-0.0015826070879677023,-0.3422885190087467,-0.16112544009934285,-0.17611567486126384,-0.0018613367859996385,0.018106989029770683,-0.015737958620215587
1038,0.0,299.58763,2068.5128,-0.010379999626041081,0.0,0.0,0.0,0.0,-0.001584134705853446,-0.3007952181386767,-0.15469297382700786,-0.17328802820469685,0.0028593773940485774,-0.004846793295291255,-0.0014703129332835885
1039,0.0,299.4946,2049.466,-0.010390009300738634,0.0,0.0,0.0,0.0,-0.0015856623237391898,-0.2539806925134428,-0.17144847264814683,-0.1975573135398888,0.0009283231749808641,-0.002279059474875658,-0.005305396471376864
1040,0.0,299.75813,2260.6043,-0.01039998594020608,0.0,0.0,0.0,0.0,-0.0015871848999817195,-0.3110862117193187,-0.16242551090514987,-0.2136555372861598,-0.003874963339504106,-0.037900936124531166,0.002353455539617978
1041,0.0,300.23287999999997,2312.8511,-0.010409995614903411,0.0,0.0,0.0,0.0,-0.0015887125178674355,-0.3152470421949607,-0.17455062902180582,-0.21325130115876478,0.005206755054266715,0.001987671746892928,-0.007956187010439522
1042,0.0,299.84734,1998.7523,-0.010420005289600964,0.0,0.0,0.0,0.0,-0.0015902401357531792,-0.3146116229247497,-0.14221218466024987,-0.15074699290256988,0.012186129958177387,0.006324226438352554,-0.015665346078299284
1043,0.0,300.1974,2028.1107,-0.010430014964298517,0.0,0.0,0.0,0.0,-0.0015917677536388952,-0.3071400484098627,-0.14279961640572486,-0.16655534606023284,-0.0015580091214885286,0.016963621404929085,-0.014509060527932788
1044,0.0,300.10265,2412.6745,-0.010439991603765963,0.0,0.0,0.0,0.0,-0.001593290329881425,-0.33856148116591667,-0.1773974565027658,-0.21743387598155278,-0.004774248641131655,0.005716720789846415,-0.009545559971548422
1045,0.0,299.95136,2421.1499,-0.010450001278463295,0.0,0.0,0.0,0.0,-0.001594817947767141,-0.3427654558308167,-0.15456687485206286,-0.23863677267161576,-0.005518186085127564,0.006316442043134294,-0.005776015881723385
1046,0.0,300.8287,2185.3368,-0.010460010953160848,0.0,0.0,0.0,0.0,-0.0015963455656528847,-0.3148848964767197,-0.15278598647630287,-0.19661693638708083,0.002165178066986438,0.00981686346134899,-0.003510945945678387
1047,0.0,300.66595,2009.4131,-0.010469987592628183,0.0,0.0,0.0,0.0,-0.0015978681418954144,-0.30037755644745673,-0.15387280866606384,-0.15656103210887085,-0.0028440497571358575,-0.005948747260720645,-0.019112362123493282
1048,0.0,299.66177999999996,2191.6267,-0.010479997267325625,0.0,0.0,0.0,0.0,-0.0015993957597811304,-0.33913881080789465,-0.13987447482453588,-0.18718651638137082,-0.0016897777373680782,-0.012587875516826589,-0.0052921750774470155
1049,0.0,299.77642000000003,2437.5086,-0.010490006942023178,0.0,0.0,0.0,0.0,-0.001600923377666874,-0.3697175031907766,-0.17683081664934283,-0.1943934198376368,0.011548610220509091,0.014519041041417787,-0.016529224875057483
1050,0.0,299.25335,2295.6419,-0.010499983581490513,0.0,0.0,0.0,0.0,-0.0016024459539094038,-0.2948334673327977,-0.17692829130896284,-0.2260560567799958,0.008058406821602832,0.01967045115932238,-0.00037702691715965967
1051,0.0,299.36575,1973.2315,-0.010509993256188066,0.0,0.0,0.0,0.0,-0.0016039735717951198,-0.2644010882643557,-0.14326493124914785,-0.19214706463093884,-0.00026834616739620474,0.002052079293474458,-0.0009625681304655781
1052,0.0,299.65884,2017.8704,-0.010520002930885397,0.0,0.0,0.0,0.0,-0.0016055011896808358,-0.26669939280368077,-0.15527392077184285,-0.1914089018005878,-0.017271043511769283,-0.009112232927157371,0.006795185692782613
1053,0.0,299.67267000000004,2287.6171,-0.01053001260558295,0.0,0.0,0.0,0.0,-0.0016070288075665795,-0.34168724626690566,-0.15589115220275887,-0.1978000679988468,0.008877254757416832,-0.005869046426404785,-0.003170683795147127
1054,0.0,300.03277,2439.6809,-0.010539989245050396,0.0,0.0,0.0,0.0,-0.0016085513838091092,-0.3719245544260956,-0.17090702219220985,-0.1987705082821218,-0.008318958005317232,-0.004894695403043825,0.0023910809608813175
1055,0.0,300.06198,2224.427,-0.01054999891974795,0.0,0.0,0.0,0.0,-0.001610079001694853,-0.33922538289643867,-0.16707389706390985,-0.16987099422996185,0.003304971958725337,-0.006017164339272885,-0.026927301766017774
1056,0.0,299.72308,2055.8479,-0.01056000859444528,0.0,0.0,0.0,0.0,-0.001611606619580569,-0.27328013809564977,-0.16099244089121684,-0.19065384809106983,-0.013997559718451588,-0.003190916575793947,-0.02219510259873608
1057,0.0,299.785,2244.911,-0.010569985233912949,0.0,0.0,0.0,0.0,-0.0016131291958231264,-0.3186649576972827,-0.16389373056505185,-0.1998382003099948,0.01035151095611459,0.021022427728002082,-0.013688098952410186
1058,0.0,300.21769,2442.2073,-0.01057999490861028,0.0,0.0,0.0,0.0,-0.0016146568137088146,-0.34402518915014263,-0.17204311873433384,-0.2263017192667408,-0.0007106638508520614,0.01754404449946238,-0.008379866191353403
1059,0.0,299.997,2158.5235,-0.01059000458330761,0.0,0.0,0.0,0.0,-0.0016161844315945306,-0.3308826159455717,-0.14747802516494785,-0.17777658429268284,0.011139467936129887,-0.014301258131174287,-0.009347857449136701
1060,0.0,300.4674,1925.4119,-0.010600014258005164,0.0,0.0,0.0,0.0,-0.0016177120494802744,-0.31530785746596274,-0.13108873519495087,-0.13888055753644385,-0.007024394517778763,-0.02244518386916718,-0.005511969491789035
1061,0.0,300.07338,2071.8587,-0.01060999089747261,0.0,0.0,0.0,0.0,-0.001619234625722804,-0.29377665761099875,-0.14545561849535185,-0.19056102424940882,0.008641322612707142,-0.013821281558804287,0.001171935704786049
1062,0.0,299.98438,2313.5016,-0.010620000572170163,0.0,0.0,0.0,0.0,-0.0016207622436085478,-0.3084904980106417,-0.16498201183495684,-0.2297742185519498,0.003055736752127737,0.007376202247899483,0.00015653202275850786
1063,0.0,299.91369,2498.6143,-0.010630010246867494,0.0,0.0,0.0,0.0,-0.0016222898614942638,-0.3175407769763347,-0.1968735217099038,-0.24510205811468977,0.003393434265330887,-0.008136638949898743,0.015035683081906386
1064,0.0,299.78878,2298.3403,-0.010639986886335051,0.0,0.0,0.0,0.0,-0.0016238124377368213,-0.3227872948016257,-0.16579981612316785,-0.2100509608504158,0.001126998974776139,0.0026949407843449473,0.001251183413657189
1065,0.0,299.43831,2148.7094,-0.010649996561032382,0.0,0.0,0.0,0.0,-0.0016253400556225095,-0.33227916842590066,-0.16237720927288285,-0.15849763675999884,0.005453872973455355,0.004681518727754926,-0.008167629001557222
1066,0.0,299.87408999999997,2350.4943,-0.010660006235729935,0.0,0.0,0.0,0.0,-0.0016268676735082532,-0.3849336927249976,-0.16053318528339183,-0.16902470748143983,-0.005014734737090785,-1.4766528391592884e-05,-0.011788503261184689
1067,0.0,299.54066,2443.2838,-0.010670015910427377,0.0,0.0,0.0,0.0,-0.0016283952913939692,-0.35150332952567764,-0.17902434099582681,-0.2121695958820088,0.003091759211732877,-0.023598762015266478,-0.02289534961034508
1068,0.0,300.13984,2202.5697,-0.010679992549894934,0.0,0.0,0.0,0.0,-0.0016299178676365267,-0.30153346202903575,-0.17218692932102683,-0.19580580941702883,0.0001000323389596732,0.004541639348799906,-0.03661003928512957
1069,0.0,300.74115,1930.1958,-0.010690002224592265,0.0,0.0,0.0,0.0,-0.0016314454855222427,-0.26295126922626977,-0.14063109907170887,-0.18314896804539582,0.0032461018239403065,0.008444386917971102,-0.015421591541492587
1070,0.0,300.40339,1999.7883,-0.010700011899289597,0.0,0.0,0.0,0.0,-0.0016329731034079586,-0.29349850019354673,-0.14715094803266787,-0.16723628052493583,-0.0026377760508032276,0.016322100342615886,-0.02378819520096208
1071,0.0,300.09046,2431.6999,-0.010709988538757265,0.0,0.0,0.0,0.0,-0.0016344956796505161,-0.36872730453055164,-0.17400804372575684,-0.1964407017971878,-0.0018626791397321184,-0.012711417048519188,-0.004500456102460436
1072,0.0,299.69706,2558.1795,-0.010719998213454596,0.0,0.0,0.0,0.0,-0.0016360232975362043,-0.37178215225704164,-0.19559458730118282,-0.2102459506996598,-0.001907525285183088,-0.005164494723070945,-0.008664202002615163
1073,0.0,299.19107,2436.8425,-0.010730007888152149,0.0,0.0,0.0,0.0,-0.001637550915421948,-0.3269211525596057,-0.1973253197969928,-0.21649280981867677,0.01732467585281238,0.0048239149186333355,-0.003336051986992697
1074,0.0,299.43754,2380.5656,-0.010739984527619595,0.0,0.0,0.0,0.0,-0.0016390734916644778,-0.31298955136966367,-0.19171695009598982,-0.2189259880788128,0.0005378728623514185,0.01112596029904679,0.0005424404215497015
1075,0.0,299.26394,2292.8557,-0.010749994202317148,0.0,0.0,0.0,0.0,-0.0016406011095502215,-0.3186196350203097,-0.17099122327551985,-0.20736001176483979,0.007019294424725425,-0.005991451699435244,0.006813704054260234
1076,0.0,299.02086,2335.6515,-0.010760003877014479,0.0,0.0,0.0,0.0,-0.0016421287274359375,-0.3431326677995577,-0.16608004057082384,-0.2007670365441638,-0.014054044358526186,0.017529334134510584,0.004282095943634966
1077,0.0,300.07612,2240.9753,-0.010770013551712032,0.0,0.0,0.0,0.0,-0.0016436563453216813,-0.3683643482122307,-0.14765544525745786,-0.16518075070957086,0.011541969379353688,0.024718505714026576,-0.008048591974509182
1078,0.0,299.86803,2001.5266,-0.010779990191179367,0.0,0.0,0.0,0.0,-0.001645178921564211,-0.3204749364834137,-0.14010344908213387,-0.14783572271524986,-0.010186900371368792,0.014750569702517884,-0.02244803312844838
1079,0.0,300.38096,2184.7083,-0.01078999986587692,0.0,0.0,0.0,0.0,-0.001646706539449927,-0.3156730328020027,-0.15577764792655685,-0.1926460903051888,0.009457618576819283,-0.02876974204560247,-0.03431015914189907
1080,0.0,300.31699,2540.5443,-0.010800009540574362,0.0,0.0,0.0,0.0,-0.001648234157335643,-0.33249678414987766,-0.19209713166601083,-0.24766812412544076,-0.01073782775549109,-0.01114487869166389,-0.005816851076653504
1081,0.0,300.54875,2542.9824,-0.01080998618004192,0.0,0.0,0.0,0.0,-0.0016497567335782004,-0.3353522141241867,-0.1958408881354908,-0.24181004906979378,0.015145382603982885,-0.0005729123984320515,-0.01161937054124259
1082,0.0,300.10007,2318.1252,-0.01081999585473925,0.0,0.0,0.0,0.0,-0.0016512843514639164,-0.3255486242391477,-0.16152770038904285,-0.21757587285056681,-0.006080386383237415,0.014251100224724087,0.017384753477741585
1083,0.0,300.04852,2188.2508,-0.010830005529436582,0.0,0.0,0.0,0.0,-0.0016528119693496324,-0.3458424532044927,-0.15245636608627183,-0.16687478328675884,0.004916788612199256,-0.005908037810127934,0.0006453587875969534
1084,0.0,299.91414,2284.5392,-0.010840015204134135,0.0,0.0,0.0,0.0,-0.001654339587235376,-0.3302022894309287,-0.16593097121611186,-0.19830961120913482,-0.006090962383806184,0.01618461547629718,0.004774786271634715
1085,0.0,299.98396,2360.0272,-0.01084999184360158,0.0,0.0,0.0,0.0,-0.0016558621634779058,-0.32647156335773464,-0.18181738516147883,-0.2091004005341028,0.01165696211995259,0.0013940483340318585,-0.018654080249014382
1086,0.0,299.41682000000003,2268.1415,-0.010860001518299134,0.0,0.0,0.0,0.0,-0.0016573897813636218,-0.29412593505296974,-0.17733618526921885,-0.2179962703170568,-0.007030397517996213,-0.003008297598345857,-0.011752300848361789
1087,0.0,299.09584,2069.2046,-0.010870011192996465,0.0,0.0,0.0,0.0,-0.0016589173992493378,-0.3073989540754147,-0.14659096523240187,-0.17499660092081984,-0.005463636144793905,-0.02484045137681168,-0.025074896171699577
1088,0.0,299.67661,2092.2977,-0.010879987832464133,0.0,0.0,0.0,0.0,-0.0016604399754918953,-0.3213192169967377,-0.13782510556977887,-0.17686193355991384,-0.01675566803390568,0.0027198200259753377,-0.01929304589457538
1089,0.0,300.08142000000004,2349.8243,-0.010889997507161464,0.0,0.0,0.0,0.0,-0.0016619675933776112,-0.37040503391363067,-0.16604968359782785,-0.17783319457576985,0.00923272721049923,0.01850404830670738,-0.02328292689284598
1090,0.0,300.32226,2451.0662,-0.010900007181859017,0.0,0.0,0.0,0.0,-0.001663495211263355,-0.35362268396484164,-0.16273061064276084,-0.22870962706938275,-0.014420680801210384,0.013919416857489488,-0.022981782883625377
1091,0.0,300.03839,2282.3397,-0.010909983821326463,0.0,0.0,0.0,0.0,-0.0016650177875058847,-0.3188811346061177,-0.16679632733151584,-0.20809681684005682,0.0034023686994126474,-0.014522921789300787,-0.018007797924481282
1092,0.0,300.3817,2190.2933,-0.010919993496023905,0.0,0.0,0.0,0.0,-0.0016665454053916284,-0.2996648464596177,-0.15735709204993586,-0.20877253306674481,0.006465372886557624,-0.013168423241122188,0.0016939573940305784
1093,0.0,300.29489,2275.4242,-0.010930003170721347,0.0,0.0,0.0,0.0,-0.0016680730232773167,-0.3312000368043987,-0.15047165232039586,-0.2100004503329308,0.027527007009954075,-0.005340846140700475,0.008334981846373662
1094,0.0,299.85649,2480.8962,-0.010940012845418678,0.0,0.0,0.0,0.0,-0.0016696006411630326,-0.36955764272249964,-0.18022627852944884,-0.2043465857024378,-0.008062395987246533,-0.01001066476822569,0.017787622730751684
1095,0.0,299.6047,2396.3536,-0.010949989484886236,0.0,0.0,0.0,0.0,-0.0016711232174055901,-0.37000519529166964,-0.16491761979110184,-0.1935088525003368,-0.003482691871939927,-0.01214273650939479,0.014224577390106486
1096,0.0,299.76158,2249.3081,-0.010959999159583678,0.0,0.0,0.0,0.0,-0.001672650835291306,-0.3255854660127837,-0.16733189080437186,-0.1908161403595868,-0.016738563358967586,0.008355805554478802,-0.017060851871274985
1097,0.0,300.08038999999997,2306.2473,-0.01097000883428112,0.0,0.0,0.0,0.0,-0.0016741784531770498,-0.3069956400056107,-0.17593078711551682,-0.21811515495128977,0.005857126146928344,0.01025419436351019,-0.013490474652906186
1098,0.0,300.38761,2370.9758,-0.010979985473748566,0.0,0.0,0.0,0.0,-0.0016757010294195795,-0.3284099209315357,-0.16617468826266485,-0.22613282060757178,-0.005451200830291636,0.006465055131326264,-0.01966372520515858
1099,0.0,299.60264,2358.8622,-0.010989995148446119,0.0,0.0,0.0,0.0,-0.0016772286473053233,-0.3444888219983997,-0.17421517231119882,-0.1983312137012668,-0.005378232536265225,-0.02010334402604558,-0.013014597690440789
1100,0.0,300.02783999999997,2234.1373,-0.01100000482314345,0.0,0.0,0.0,0.0,-0.0016787562651910115,-0.36713437404834165,-0.13854243597807386,-0.17344514276520281,0.005233587538114875,-0.0015920622281993086,-0.006299006846013574
1101,0.0,300.44183,2182.4973,-0.011010014497841003,0.0,0.0,0.0,0.0,-0.0016802838830767552,-0.3481338879081397,-0.14741198152342985,-0.16787880267834784,0.013009339935671887,-0.003003570280004307,-0.009417205096580781
1102,0.0,300.63743999999997,2376.3811,-0.01101999113730845,0.0,0.0,0.0,0.0,-0.001681806459319285,-0.32779758349860266,-0.18575350716244382,-0.20880942550288578,0.006362599942164724,0.006433995266735894,-0.023449008716736976
1103,0.0,300.53294,2558.4998,-0.011030000812006002,0.0,0.0,0.0,0.0,-0.0016833340772050287,-0.3432988712134607,-0.1957542653844418,-0.23866692699459174,-0.007771973278659043,-0.005644937289161934,-0.0037643475353621764
1104,0.0,300.24698,2369.9770000000003,-0.011040010486703333,0.0,0.0,0.0,0.0,-0.0016848616950907447,-0.3198017331169737,-0.18764272210639482,-0.2129693643184398,-0.008901707522080131,-0.0026511117393443573,-0.014516771361193788
1105,0.0,299.89713,2166.9919,-0.011049987126171001,0.0,0.0,0.0,0.0,-0.0016863842713333022,-0.32242804697867067,-0.16098617900559883,-0.17529720182798683,0.013289646456585988,0.01011634320728034,-0.0006417346959642834
1106,0.0,299.84225,2185.7497,-0.011059996800868332,0.0,0.0,0.0,0.0,-0.0016879118892190181,-0.34505245249902566,-0.15279784150247286,-0.16656303662849184,-0.0036448450212181968,-0.0007829183912430293,-0.0027581999132631377
1107,0.0,299.78807,2343.8381,-0.011070006475565664,0.0,0.0,0.0,0.0,-0.0016894395071047064,-0.3561972308789297,-0.17065964731279584,-0.18561136843841583,-0.0071583854951026435,-0.005127295069499625,-0.007162343959268313
1108,0.0,299.80827999999997,2370.3861,-0.011080016150263217,0.0,0.0,0.0,0.0,-0.00169096712499045,-0.3271994822295747,-0.16605892443873985,-0.22727978932326878,-0.017465001872411484,0.0018507093123257881,-0.018598001922229882
1109,0.0,299.65924,2347.5139,-0.011089992789730663,0.0,0.0,0.0,0.0,-0.0016924897012329798,-0.32374173586582167,-0.17198243518584483,-0.2178614168612478,-0.004452527751530276,0.025380511653611475,-0.02135594203816738
1110,0.0,299.9293,2363.9892,-0.011100002464428216,0.0,0.0,0.0,0.0,-0.0016940173191187236,-0.3181938673282897,-0.17223984124124883,-0.2281599591551348,-0.005990237319190394,0.005005421955421686,-0.017432704525473984
1111,0.0,300.09182000000004,2505.8103,-0.011110012139125547,0.0,0.0,0.0,0.0,-0.0016955449370044395,-0.38581367003934464,-0.16295268466717783,-0.2129373962777848,-0.006141192433663505,-0.008030529474251553,0.005973559627844434
1112,0.0,300.21011,2627.0715,-0.011119988778593104,0.0,0.0,0.0,0.0,-0.001697067513246997,-0.3909498449287456,-0.1915639493308898,-0.21605034376500878,-0.0040393064262235065,-0.01315763111430709,0.009579611659709062
1113,0.0,299.83302000000003,2484.6097,-0.011129998453290435,0.0,0.0,0.0,0.0,-0.001698595131132713,-0.38508196161213065,-0.17025677907303582,-0.1999205775431248,0.00921353209927982,0.004083580693318036,0.01058893470629649
1114,0.0,299.78885,2264.9021,-0.011140008127987988,0.0,0.0,0.0,0.0,-0.001700122749018429,-0.2969590633925777,-0.18113797057192585,-0.2103766498300588,0.006749498043123593,-0.003132783783106687,-0.01025095601619059
1115,0.0,300.11335,2253.0292,-0.011149984767455434,0.0,0.0,0.0,0.0,-0.0017016453252609864,-0.3035899645644967,-0.18401031169040383,-0.19726435253847582,-0.00892196796445468,-0.003784792389254926,-0.008745562439269812
1116,0.0,300.35889,2373.4908,-0.011159994442152987,0.0,0.0,0.0,0.0,-0.0017031729431467024,-0.3133016121354617,-0.17059313757623185,-0.23758718742302976,0.004351269717361886,0.001043762404236329,-0.009717930329535052
1117,0.0,300.46887999999996,2385.0879999999997,-0.011170004116850318,0.0,0.0,0.0,0.0,-0.0017047005610324184,-0.3668666227094166,-0.1787860954998138,-0.17935447814340882,-0.004865362521923895,0.012787877914315288,-0.009420900217045461
1118,0.0,300.33321,2251.8186,-0.01118001379154765,0.0,0.0,0.0,0.0,-0.0017062281789181344,-0.3385064110229817,-0.16289623650410684,-0.1830939688299678,0.006264422188300333,-0.0069589073532156836,-0.016739130779023583
1119,0.0,299.70538999999997,2340.5927,-0.011189990431015318,0.0,0.0,0.0,0.0,-0.0017077507551606919,-0.3522071330451377,-0.16507817940194783,-0.19419643388569582,-0.009574703982849712,-0.017440544041497683,-0.024654922243751376
1120,0.0,300.19941,2600.0718,-0.011200000105712649,0.0,0.0,0.0,0.0,-0.0017092783730464078,-0.3326869205311427,-0.2060779362808088,-0.25159206686020374,-0.003058374546113067,-0.01881830681197228,-0.022664924378603877
1121,0.0,299.73523,2530.7145,-0.011210009780410202,0.0,0.0,0.0,0.0,-0.0017108059909321238,-0.34270983853282766,-0.18757617183982683,-0.2389879854212778,-0.0016845235289745285,0.012911218822488088,-0.018110454345112683
1122,0.0,299.6234,2307.5553,-0.011219986419877648,0.0,0.0,0.0,0.0,-0.0017123285671746535,-0.31574651369925466,-0.17621133580320483,-0.2094813521741998,0.0037105536822531365,0.005036341383548195,-0.0016431202047133384
1123,0.0,300.09063,2116.6246,-0.011229996094575201,0.0,0.0,0.0,0.0,-0.0017138561850603973,-0.3427708463213487,-0.13607326707438586,-0.16455691288800287,-0.008580041347984152,0.006303810158112624,-0.0025335565905675677
1124,0.0,300.04464,2192.0570000000002,-0.011240005769272532,0.0,0.0,0.0,0.0,-0.0017153838029461133,-0.33001105873955566,-0.14952984648494685,-0.18678969724470781,-0.0012612749793531489,-0.0075524651074702735,0.014204956815170087
1125,0.0,300.63394,2417.1907,-0.011250015443970085,0.0,0.0,0.0,0.0,-0.001716911420831857,-0.35016517064861163,-0.17325331425627083,-0.2113471407758388,-0.000981962710099674,0.022608140829749778,-0.0007010931970325114
1126,0.0,300.54957,2470.6533,-0.01125999208343742,0.0,0.0,0.0,0.0,-0.0017184339970743867,-0.3240994638136267,-0.18779985693190282,-0.23911761050657077,0.003831338363073656,-0.013153854731184385,-0.007889426089175733
1127,0.0,300.16048,2305.5062,-0.011270001758134973,0.0,0.0,0.0,0.0,-0.0017199616149601304,-0.3070914732000687,-0.17491976616573682,-0.2188050972093818,-0.0064737870167130345,-0.005200770191226055,-0.02086740755545278
1128,0.0,300.14142999999996,2383.6853,-0.011280011432832415,0.0,0.0,0.0,0.0,-0.0017214892328458187,-0.3340058884513147,-0.17904434255280083,-0.21153057957394278,0.0013239289953116188,-0.016708903502040382,-0.01808825606192188
1129,0.0,299.72343,2579.6671,-0.01128998807229975,0.0,0.0,0.0,0.0,-0.0017230118090883484,-0.39881561426253664,-0.16697988771963182,-0.2183588922628448,0.012689079950064687,0.019171947308873883,0.001930325337608278
1130,0.0,299.16744,2577.52,-0.011299997746997303,0.0,0.0,0.0,0.0,-0.0017245394269740921,-0.3817197546003066,-0.18141170008644084,-0.2203702747713528,0.012631812067662788,0.006860074533161643,-0.007932661977567783
1131,0.0,299.36161,2393.2009,-0.011310007421694634,0.0,0.0,0.0,0.0,-0.001726067044859808,-0.3508433186755397,-0.16806702401692383,-0.20856296254856183,-5.9022047319522546e-05,0.0071794599826075335,-0.0021252419288700477
1132,0.0,299.33759,2189.8829,-0.01131998406116208,0.0,0.0,0.0,0.0,-0.0017275896211023378,-0.3007883077729947,-0.15514378906149986,-0.20973761325699078,0.0038598267002352363,-0.007587003358328933,-0.01006730565146571
1133,0.0,299.7904,2292.2602,-0.011329993735859634,0.0,0.0,0.0,0.0,-0.0017291172389880816,-0.3120109645555847,-0.17877177827590082,-0.20600713036382082,0.002070952089837058,0.01799176932114938,-0.007766465757740493
1134,0.0,299.74141000000003,2470.6782,-0.011340003410557187,0.0,0.0,0.0,0.0,-0.0017306448568738253,-0.35383061301786267,-0.18042795582935284,-0.21676591111812982,0.0010427202765084791,-0.00957261425584347,-0.013393633274598686
1135,0.0,299.47105,2525.9219,-0.011350013085254518,0.0,0.0,0.0,0.0,-0.0017321724747595135,-0.38395566319847363,-0.18236518869554283,-0.2014963435686408,-0.0035121420874214366,0.0025341371828748673,-0.008101136996869972
1136,0.0,300.33711,2305.2427,-0.011359989724721964,0.0,0.0,0.0,0.0,-0.0017336950510020432,-0.34496459358285464,-0.16947460065834083,-0.18629701451608383,0.0051885912289990855,-0.0033487317987440962,-0.03182055906319468
1137,0.0,300.32038,2198.3626,-0.011369999399419517,0.0,0.0,0.0,0.0,-0.001735222668887787,-0.3243334333942177,-0.15312380405964288,-0.19079012009701882,-0.0007578219695862052,0.017829919842926083,-0.017082096686121682
1138,0.0,300.25383,2426.2019,-0.01138000907411707,0.0,0.0,0.0,0.0,-0.0017367502867735307,-0.31209147740853066,-0.2005594621286778,-0.22485383553634578,-0.004356342452662526,-0.002388062083533378,-0.03767726116495616
1139,0.0,299.92906,2519.5023,-0.011389985713584294,0.0,0.0,0.0,0.0,-0.0017382728630160327,-0.3505159173032277,-0.17762446505516982,-0.23772541500167177,-0.0024913480364519075,-0.0026099867548856374,-0.015556790515585684
1140,0.0,300.32485,2298.2157,-0.011399995388281847,0.0,0.0,0.0,0.0,-0.0017398004809017764,-0.3393007687038787,-0.15456093720647684,-0.2047384804436148,0.01123022069458649,-0.012419305150689989,-0.0099688885679277
1141,0.0,299.88997,2137.2487,-0.0114100050629794,0.0,0.0,0.0,0.0,-0.0017413280987875202,-0.3448444930485017,-0.14344026404645185,-0.16138546034000487,-0.005302606689876535,0.007701203433374602,0.008765024541890572
1142,0.0,299.80672000000004,2339.6563,-0.011420014737676731,0.0,0.0,0.0,0.0,-0.0017428557166732084,-0.3570248332956077,-0.14954943260937983,-0.2046228280772008,0.016840809413308483,-0.027389077326841472,-0.00037227884745606174
1143,0.0,299.31614,2627.5286,-0.011429991377144177,0.0,0.0,0.0,0.0,-0.001744378292915738,-0.3847995080142546,-0.18262316217100283,-0.23128041482559977,-0.015963777617002184,-0.0029999752686495074,0.002071394778805748
1144,0.0,299.86127999999997,2606.7587,-0.01144000105184162,0.0,0.0,0.0,0.0,-0.0017459059108014818,-0.34814699936443366,-0.19420439803148182,-0.25003816677184576,0.02138550259658478,-0.008355230839022083,-0.018489902322061283
1145,0.0,299.92137,2323.696,-0.011450010726539173,0.0,0.0,0.0,0.0,-0.0017474335286872256,-0.3322330250163467,-0.16249933630743585,-0.2116131999870968,-0.0025433044618296077,0.018069658869586485,-0.017095370262431683
1146,0.0,299.95637999999997,2174.7798,-0.011459987366006397,0.0,0.0,0.0,0.0,-0.0017489561049297275,-0.3248297334256987,-0.16605440534329385,-0.17019459591439884,0.0075880763901848315,-0.004422475361514335,-0.026247590294185472
1147,0.0,299.72123,2418.1284,-0.01146999704070395,0.0,0.0,0.0,0.0,-0.0017504837228154713,-0.3736730491961586,-0.16214619838258384,-0.1992314053551088,-0.0065455584597213234,0.00966138793420475,-0.0029503558033024476
1148,0.0,300.08803,2582.5358,-0.011480006715401503,0.0,0.0,0.0,0.0,-0.001752011340701215,-0.36507654415524965,-0.1918560085397138,-0.22809386485111177,0.005163455432443375,-0.0003086056741495087,-0.0017556742549715582
1149,0.0,300.41679,2316.4207,-0.011490016390099056,0.0,0.0,0.0,0.0,-0.001753538958586931,-0.3249656102641087,-0.17456286908301383,-0.2046055825604988,-0.00926262801830021,0.016019487120750284,-0.010299096541691689
1150,0.0,299.77078,2200.2206,-0.01149999302956628,0.0,0.0,0.0,0.0,-0.001755061534829433,-0.27786200438534475,-0.17019230596917284,-0.22075780240459877,0.011466667671671989,-0.013900308987103687,-0.016910771292963183
1151,0.0,299.88846,2425.4845,-0.011510002704263833,0.0,0.0,0.0,0.0,-0.0017565891527151767,-0.34314541448581565,-0.17828311815017384,-0.21585819101604478,-0.0012540348007635989,-0.0074583081326527025,-0.013516605359735088
1152,0.0,299.54957,2726.6783,-0.011520012378961386,0.0,0.0,0.0,0.0,-0.0017581167706009204,-0.3985019829590836,-0.1983450344326308,-0.2319950905186328,0.017308345300950684,-0.015148809415821087,0.000993145667743346
1153,0.0,300.39128,2608.8059,-0.011529989018428832,0.0,0.0,0.0,0.0,-0.0017596393468434501,-0.39548897232922264,-0.18397423998684384,-0.21354861913560783,0.01090301589279389,0.005294978740473715,0.0070174434194427435
1154,0.0,299.93859,2300.0218,-0.011539998693126163,0.0,0.0,0.0,0.0,-0.0017611669647291661,-0.3395439385953777,-0.16462909682512683,-0.1949761805001508,0.003505016304768176,-0.004639660150223806,-0.009224585948595751
1155,0.0,300.09598,2282.3256,-0.011550008367823716,0.0,0.0,0.0,0.0,-0.0017626945826149099,-0.3309420734614397,-0.15761766957815285,-0.2052102395576738,-0.02145394054808908,0.006024984603544684,-0.021582886755815083
1156,0.0,299.86462,2474.246,-0.011559985007291163,0.0,0.0,0.0,0.0,-0.0017642171588574396,-0.33890582407990066,-0.18211246385560081,-0.2310907141418778,-0.01181387403043859,-0.001040029286892899,-0.024523194664500873
1157,0.0,300.67321,2569.6345,-0.011569994681988494,0.0,0.0,0.0,0.0,-0.0017657447767431278,-0.37307469461460563,-0.19483770974148482,-0.2131923300029448,-0.006779127907847833,0.023543015021264678,-0.01933740091770288
1158,0.0,300.53617,2451.5274,-0.011580004356686047,0.0,0.0,0.0,0.0,-0.0017672723946288715,-0.3620509692241487,-0.17765502467818584,-0.2054971311909878,-0.01026729872705349,-0.0015941545896558085,0.004882806129020445
1159,0.0,300.14333,2203.9445,-0.0115900140313836,0.0,0.0,0.0,0.0,-0.0017688000125146153,-0.3284826317587117,-0.16426015219871484,-0.17720131154840782,-0.014332631394020589,-0.002788500853528607,-0.001032137791139069
1160,0.0,299.50901,2389.6732,-0.011599990670850935,0.0,0.0,0.0,0.0,-0.001770322588757145,-0.3385709145243477,-0.16830138876505385,-0.2195286793707938,-0.005695074829285125,-0.011577096733820489,0.01893138248338198
1161,0.0,299.57754,2771.9022,-0.011610000345548377,0.0,0.0,0.0,0.0,-0.001771850206642861,-0.3783045343432506,-0.18890809922877783,-0.2753764309625377,0.01011905456322293,0.00997462700854404,0.0047691927257826755
1162,0.0,299.485,2674.9844,-0.011620010020246041,0.0,0.0,0.0,0.0,-0.0017733778245286325,-0.35292290304827867,-0.20043160009855882,-0.25977394996019276,0.001025427947651859,-0.015710353634491185,-0.0068561037073447545
1163,0.0,299.71816,2370.3489,-0.011629986659713265,0.0,0.0,0.0,0.0,-0.0017749004007711344,-0.3523964588263227,-0.16907971682936884,-0.1990506921997738,0.0036485425734831163,-0.0071931191005805825,-0.013752366366502887
1164,0.0,300.06627000000003,2343.7754,-0.011639996334410818,0.0,0.0,0.0,0.0,-0.0017764280186568504,-0.35995388602218265,-0.17153794263197683,-0.18095735874160082,-0.002216011507278308,-0.005246047271944555,-0.011634389947474887
1165,0.0,299.95677,2517.0121,-0.01165000600910815,0.0,0.0,0.0,0.0,-0.0017779556365425664,-0.3853449810730886,-0.18386132339569983,-0.19590251400657283,0.011633408108127989,0.022120642901887477,-0.005407391847643025
1166,0.0,300.22285,2591.3,-0.011660015683805702,0.0,0.0,0.0,0.0,-0.0017794832544283101,-0.37287423321482166,-0.18785950696528983,-0.2269567449263868,-0.007557231638590693,0.0008137007468960112,-0.019041450828494882
1167,0.0,300.87001000000004,2479.0517,-0.011669992323273148,0.0,0.0,0.0,0.0,-0.0017810058306708398,-0.33974478503019967,-0.2043525030830218,-0.20947253689832981,0.003965467041086126,0.006188814783063464,-0.018712706899800383
1168,0.0,299.96607,2256.8699,-0.01168000199797048,0.0,0.0,0.0,0.0,-0.0017825334485565558,-0.3045159333008827,-0.17510455258647384,-0.2064115995387388,0.004383221546015286,0.009440336380463661,-0.03724964834450406
1169,0.0,300.09327,2415.052,-0.011690011672668255,0.0,0.0,0.0,0.0,-0.0017840610664423273,-0.35317654994581166,-0.17238436110301184,-0.20855458297023477,0.014414622578862486,-0.00010206318296285189,-0.006106477877287444
1170,0.0,299.67704,2687.55,-0.011699988312135479,0.0,0.0,0.0,0.0,-0.0017855836426848293,-0.38499116427066965,-0.2089690427911388,-0.22298788481469076,0.002916164793253057,-0.01232498777838159,-0.013552263657254286
1171,0.0,300.06709,2660.0293,-0.011709997986833032,0.0,0.0,0.0,0.0,-0.0017871112605705453,-0.38824303847910463,-0.18846182335473383,-0.23187761430203876,-0.01211526527268359,-0.019037591358863983,0.017723240819397683
1172,0.0,299.94757000000004,2366.2871,-0.011720007661530363,0.0,0.0,0.0,0.0,-0.0017886388784562612,-0.3369656933184247,-0.16930083839869184,-0.21302566049399582,-0.004676454098455086,-0.0002869247159297647,0.006766640816265453
1173,0.0,300.33282,2341.6835,-0.01172998430099792,0.0,0.0,0.0,0.0,-0.0017901614546988187,-0.3252750264471457,-0.17002203942236885,-0.2165162462934898,-0.005046841086384435,0.008588146740834092,0.00975845435535946
1174,0.0,299.45475,2595.6278,-0.011739993975695362,0.0,0.0,0.0,0.0,-0.0017916890725845347,-0.3685730068053237,-0.17083326771743082,-0.2495997537185778,-0.006886915629635655,0.0026169903395768376,-0.013614126628859687
1175,0.0,299.91901,2737.7751,-0.011750003650392915,0.0,0.0,0.0,0.0,-0.0017932166904702784,-0.4105997635880416,-0.20826353701151082,-0.21335197768870082,0.0017646498270073785,-0.015311083445836286,-0.01909256929603988
1176,0.0,299.69242,2435.6559,-0.011760013325090357,0.0,0.0,0.0,0.0,-0.0017947443083560222,-0.38208987459683463,-0.17411132430844983,-0.18417737636689183,0.013199474290436686,0.00012644816119446186,-0.020346747978317682
1177,0.0,299.92984,2256.2656,-0.011769989964557803,0.0,0.0,0.0,0.0,-0.0017962668845985519,-0.3543272372893757,-0.15157818222460184,-0.17994299406649084,0.02367708726124658,-0.002202719591141498,-0.011432974066096687
1178,0.0,299.83038,2334.1484,-0.011779999639255134,0.0,0.0,0.0,0.0,-0.0017977945024842401,-0.3357911034050017,-0.17753814627915082,-0.19619359036279982,-0.008013423988713372,-0.00942400704450208,-0.008312845472763971
1179,0.0,299.68122,2518.9772,-0.011790009313952576,0.0,0.0,0.0,0.0,-0.001799322120369956,-0.3404132159886687,-0.18027196597645784,-0.24502099810668976,-0.017179312966966183,-0.010232959681164491,-0.005197182272621955
1180,0.0,300.34182999999996,2599.6347,-0.011799985953420133,0.0,0.0,0.0,0.0,-0.0018008446966125136,-0.3505535291469397,-0.19114871943990983,-0.24852178733469074,-0.008241966399118752,0.017982474777982087,-0.007110859911087233
1181,0.0,300.51316,2463.6238,-0.011809995628117465,0.0,0.0,0.0,0.0,-0.0018023723144982295,-0.35929905288005565,-0.17523497813934583,-0.2143460976268128,-0.004243180654994326,0.017354631578768785,0.0011063960538677889
1182,0.0,300.34516,2356.4432,-0.011820005302815018,0.0,0.0,0.0,0.0,-0.0018038999323839733,-0.3561192815487367,-0.15955145739400284,-0.2006291636030568,0.003419004138229437,0.005172615314672386,-0.013323479890675088
1183,0.0,300.5835,2584.3177,-0.01183001497751257,0.0,0.0,0.0,0.0,-0.001805427550269717,-0.3707803924131756,-0.1953675990137808,-0.21942007922507578,0.01105092608939149,-0.008766276412389121,-0.008438015094717252
1184,0.0,300.26732999999996,2670.9222,-0.011839991616980017,0.0,0.0,0.0,0.0,-0.0018069501265122467,-0.3794788810766496,-0.1811881669818798,-0.25122661794663675,0.008677090138587121,0.01925238416806238,-0.0013212975848019186
1185,0.0,299.84526,2474.3849,-0.011850001291677348,0.0,0.0,0.0,0.0,-0.001808477744397935,-0.3479863384285777,-0.18199087384360083,-0.22217401193686778,0.012390070858804789,0.00048329599996260156,-0.014301184163916986
1186,0.0,300.20506,2320.0492,-0.011860010966374901,0.0,0.0,0.0,0.0,-0.0018100053622836787,-0.3367243574096067,-0.17393549501859684,-0.1945771727432718,0.0007064352947397353,-0.0017417976935270483,-0.03182808649818757
1187,0.0,299.92221,2286.6541,-0.011869987605842347,0.0,0.0,0.0,0.0,-0.0018115279385262084,-0.3605977760632296,-0.15380162784653886,-0.18068635486985482,-0.003009383903778067,-0.019600310947650083,-0.025817827357021178
1188,0.0,299.41347,2489.2707,-0.0118799972805399,0.0,0.0,0.0,0.0,-0.0018130555564119522,-0.36180232778210963,-0.19730142735963482,-0.19757238056887583,-0.009508080356974471,0.007687666614688623,-0.027081039163940474
1189,0.0,300.053,2580.6498,-0.011890006955237231,0.0,0.0,0.0,0.0,-0.0018145831742976681,-0.38323649880749766,-0.17174106887952384,-0.22947552255497078,-0.015201893588560087,0.0056666612699809256,-0.004848338501693755
1190,0.0,299.35132999999996,2417.6685,-0.011899983594704788,0.0,0.0,0.0,0.0,-0.0018161057505402256,-0.33262430167496265,-0.16539276316049484,-0.23689381024709877,-0.02379900556627898,-0.0019233258059174782,0.006694463769242134
1191,0.0,299.91201,2437.5829,-0.01190999326940212,0.0,0.0,0.0,0.0,-0.0018176333684259416,-0.3403487327523047,-0.17265632756235283,-0.2279592647078278,1.3981693235135687e-05,-0.011518005001238589,0.002733964490746287
1192,0.0,300.23686000000004,2654.3487,-0.011920002944099561,0.0,0.0,0.0,0.0,-0.0018191609863116298,-0.36563232196760065,-0.18654503787556181,-0.25467838613479976,-0.001264937777139639,0.020613363463880582,0.0009389429884839581
1193,0.0,300.22573,2748.6863,-0.011930012618797114,0.0,0.0,0.0,0.0,-0.0018206886041973736,-0.4120326410844556,-0.19779895342373682,-0.22570040599489577,0.017092425757641083,0.00014151593998653586,-0.005379589075499105
1194,0.0,300.21409,2590.8527,-0.01193998925826445,0.0,0.0,0.0,0.0,-0.0018222111804399033,-0.38100156292942666,-0.17413352461814083,-0.23241942952801176,-0.016483186843513884,-0.0030324385859533875,-0.015028674430964686
1195,0.0,299.96302000000003,2255.4186,-0.011949998932962003,0.0,0.0,0.0,0.0,-0.001823738798325647,-0.3619952303361476,-0.14435845102206987,-0.17923725523933984,0.01044810206164739,-0.015278112287582286,-0.014255048860363788
1196,0.0,300.02378999999996,2188.7871,-0.011960008607659334,0.0,0.0,0.0,0.0,-0.001825266416211363,-0.31568779585595963,-0.15798396962180383,-0.1916648690408498,-0.01151471903116429,0.01013697652569169,-0.012173963864226688
1197,0.0,300.48013,2451.9069,-0.011969985247127002,0.0,0.0,0.0,0.0,-0.0018267889924539205,-0.34869726509624066,-0.17104445943577382,-0.22557675908519279,-0.0036674629926004166,0.004737215059251725,-0.0058077738756326545
1198,0.0,299.49216,2616.0033,-0.011979994921824333,0.0,0.0,0.0,0.0,-0.0018283166103396364,-0.35643117006201763,-0.1976648497730018,-0.24110365163007777,-0.01764786717095888,0.006481256493800214,-0.01771825664215578
1199,0.0,298.78247999999996,2546.9418,-0.011990004596521886,0.0,0.0,0.0,0.0,-0.0018298442282253524,-0.36633947934489164,-0.1905357436594138,-0.21733147692644678,0.009217402309361782,0.0022187939933779183,-0.01630458428813718
1200,0.0,299.07771,2460.0654,-0.012000014271219217,0.0,0.0,0.0,0.0,-0.0018313718461110684,-0.3549832964641237,-0.17472718785173083,-0.2180879795836078,0.006742199298678264,0.018974990741185783,-0.014267516902844286
1201,0.0,299.49127999999996,2582.5679999999998,-0.012009990910686885,0.0,0.0,0.0,0.0,-0.0018328944223536259,-0.35927808873548667,-0.20055454786569282,-0.22520354867585982,0.010746265089073791,-0.018022029022135785,-0.0002518864464117568
1202,0.0,300.24531,2759.4588,-0.012020000585384216,0.0,0.0,0.0,0.0,-0.0018344220402393419,-0.36582975374958565,-0.2022568384311958,-0.27071997933298175,-0.025301766922089977,-0.008799232675866651,0.003108312475966557
1203,0.0,300.02373,2665.0759999999996,-0.012030010260081547,0.0,0.0,0.0,0.0,-0.0018359496581250578,-0.37686946822662065,-0.19066612868228183,-0.24258095001087576,-0.00034170130004579266,-0.017186867759711785,0.009855344774971802
1204,0.0,300.03569,2337.4437,-0.012039986899549104,0.0,0.0,0.0,0.0,-0.0018374722343676153,-0.34685582489450467,-0.16713530001996985,-0.1965333939163358,0.004580568822941946,0.008246651464931132,-0.014088369218913786
1205,0.0,299.96497999999997,2326.9894,-0.012049996574246546,0.0,0.0,0.0,0.0,-0.0018389998522533313,-0.3515966295948857,-0.16612221203998584,-0.18962784117231082,0.015681872187430286,-0.0025055330312268574,-0.012352915990887888
1206,0.0,300.26698,2704.8054,-0.0120600062489441,0.0,0.0,0.0,0.0,-0.0018405274701390473,-0.3965581133047386,-0.2038065537966408,-0.2218286557727838,-0.009381750361006672,0.0006081010038673964,-0.03141499456491857
1207,0.0,300.36629,2820.539,-0.01207001592364143,0.0,0.0,0.0,0.0,-0.0018420550880247633,-0.4027832179441086,-0.19846125421910082,-0.2561289549779598,-0.0008719818793979112,-0.006776594377297795,-0.00854778270720047
1208,0.0,300.00306,2468.3902,-0.012079992563108988,0.0,0.0,0.0,0.0,-0.0018435776642673207,-0.34627336820702065,-0.17913669016691483,-0.22491892672276978,-0.0018373664297089483,0.006564567639547384,-0.01807236323410338
1209,0.0,299.98312999999996,2348.4693,-0.012090002237806319,0.0,0.0,0.0,0.0,-0.0018451052821530367,-0.3277720191985797,-0.16868202629761986,-0.2174219702928778,0.0032744517511382265,-0.005984482869222474,0.004334246710381845
1210,0.0,300.58216,2582.3204,-0.012100011912503872,0.0,0.0,0.0,0.0,-0.0018466329000387804,-0.36703211684824966,-0.18011973528143382,-0.23780905879742675,-0.018101840706012583,0.0001076641762031269,-0.01152136392532009
1211,0.0,300.53139,2658.8661,-0.012109988551971318,0.0,0.0,0.0,0.0,-0.0018481554762813102,-0.3727085465584697,-0.19772435795137483,-0.23779601826863977,-0.009973101864493522,-0.0013500783459423585,-0.001046426137424219
1212,0.0,300.50684,2608.6112,-0.012119998226668871,0.0,0.0,0.0,0.0,-0.001849683094167054,-0.39445028965171264,-0.1906614373343188,-0.2078409205273018,0.0028019773838336374,0.013227393383692089,-0.003984665597355877
1213,0.0,300.08134,2441.4219,-0.012130007901366202,0.0,0.0,0.0,0.0,-0.0018512107120527421,-0.35040408488969066,-0.17300068060883783,-0.2187265196641268,0.008454388203083151,-0.009607775655513632,0.002785908757122787
1214,0.0,299.39736,2381.0123,-0.01213998454083387,0.0,0.0,0.0,0.0,-0.0018527332882953274,-0.3460518109401547,-0.17216349284621382,-0.2055529815364998,0.0061532125182747945,-0.008405213250554962,-0.01119952022980659
1215,0.0,300.05343999999997,2678.5917,-0.012149994215531201,0.0,0.0,0.0,0.0,-0.0018542609061810156,-0.37971676180262665,-0.1933971518093128,-0.24111107875331075,0.013412706694481087,-0.015133139503024586,-0.003670926180117207
1216,0.0,299.63422,2853.5283,-0.012160003890228532,0.0,0.0,0.0,0.0,-0.0018557885240667316,-0.4144620601867206,-0.2170218783583918,-0.23591742218573677,0.023475889228639878,0.01005371523184944,-0.022287310384336276
1217,0.0,299.62832000000003,2579.0777,-0.012170013564926085,0.0,0.0,0.0,0.0,-0.0018573161419524753,-0.3690827627981326,-0.1988152939365418,-0.21607716449515582,0.0033614015793195064,-0.004062897725651786,-0.02641332558654227
1218,0.0,299.65259,2331.1019,-0.012179990204393532,0.0,0.0,0.0,0.0,-0.001858838718195005,-0.3459535256804547,-0.17009158890923284,-0.19255165539586883,-0.008113692482834103,0.005541660860794345,-0.019547593571447284
1219,0.0,300.21056,2555.6609,-0.012189999879091085,0.0,0.0,0.0,0.0,-0.0018603663360807488,-0.35003434992820065,-0.19156471940096584,-0.23525800915315775,-0.01932280099701198,0.013108816777489488,-0.009429653988634391
1220,0.0,300.64575,2725.1055,-0.012200009553788416,0.0,0.0,0.0,0.0,-0.001861893953966437,-0.37353121444716064,-0.1815569089582718,-0.2732759027102317,-0.015216316190483485,0.02085861457108498,0.011113776979844388
1221,0.0,300.3043,2526.6012,-0.012209986193255973,0.0,0.0,0.0,0.0,-0.0018634165302089944,-0.3643278739213616,-0.17908989827729685,-0.2246058932368758,-0.0090284708851157,-0.002446477674323548,0.005720688981213045
1222,0.0,300.23011,2372.2272,-0.012219995867953415,0.0,0.0,0.0,0.0,-0.0018649441480947104,-0.33838598624859667,-0.17599374034422982,-0.2067180975614878,0.007229078738679524,-0.008160692595347652,-0.01155406049279699
1223,0.0,300.63903,2493.4547,-0.012230005542650857,0.0,0.0,0.0,0.0,-0.0018664717659804542,-0.37533155722484063,-0.17914193880243284,-0.2034744610763658,0.003994145463966466,-0.011886055941062387,-0.010564618730396689
1224,0.0,299.75381,2609.2747,-0.012240015217348299,0.0,0.0,0.0,0.0,-0.0018679993838661701,-0.38817589039497763,-0.1911726118772678,-0.2138058630709958,0.004033043020730356,0.004705639653010475,-0.01929439554370858
1225,0.0,299.61904,2635.3613,-0.012249991856815856,0.0,0.0,0.0,0.0,-0.0018695219601087276,-0.39495534416405764,-0.17622739581728983,-0.2299012801144898,-0.0018620912520240984,0.007823753094544311,-0.016312278909396585
1226,0.0,300.16629,2539.5482,-0.012260001531513187,0.0,0.0,0.0,0.0,-0.0018710495779944436,-0.37098181640055466,-0.16847739030742384,-0.23250002344096576,-0.00837194946567208,-0.0006384106276862234,-0.005159070086010575
1227,0.0,299.99403,2325.9687,-0.01227001120621063,0.0,0.0,0.0,0.0,-0.0018725771958801318,-0.35640518019695266,-0.16007886420355383,-0.19055235082855282,-0.0032261829481744666,0.0016048226946586686,-0.012864740027150988
1228,0.0,300.02168,2599.2157,-0.012279987845678186,0.0,0.0,0.0,0.0,-0.0018740997721226893,-0.3835699188854036,-0.1758715322496688,-0.23065521924889779,0.00905777944823323,-0.0060517046166317446,-0.007424216927738164
1229,0.0,299.94019,2868.5339,-0.012289997520375517,0.0,0.0,0.0,0.0,-0.0018756273900084053,-0.4205196239220556,-0.1952622817983868,-0.25618077258807376,0.011002089461071689,-0.015907427739190884,-0.01694537581037838
1230,0.0,299.49797,2648.6201,-0.01230000719507307,0.0,0.0,0.0,0.0,-0.001877155007894149,-0.37351858935091464,-0.1931061869105968,-0.23848959809459078,0.012502152531866387,-0.01310827570193609,0.002082462509648048
1231,0.0,299.85556,2399.1942,-0.012309983834540517,0.0,0.0,0.0,0.0,-0.0018786775841366787,-0.3331470272690517,-0.16386260352197984,-0.23228550826229477,-0.004587812750556866,-0.0023622369729346376,-0.01098028229241949
1232,0.0,300.09927999999996,2500.9912,-0.01231999350923807,0.0,0.0,0.0,0.0,-0.0018802052020224225,-0.36033502004729767,-0.17156475322962284,-0.2283391017728148,-0.00029767875467360573,0.015648261668363184,0.008707708834083951
1233,0.0,299.87203,2612.5383,-0.0123300031839354,0.0,0.0,0.0,0.0,-0.0018817328199081385,-0.37534826571898966,-0.1895203758667048,-0.2292777766654548,-0.005115771173462305,0.022088626225227684,-0.011736178012770588
1234,0.0,300.28674,2587.0903,-0.012340012858632954,0.0,0.0,0.0,0.0,-0.0018832604377938544,-0.37677130455693264,-0.19631900032767682,-0.2133205568030998,-0.003815851341920207,-0.0027179948585702076,-0.023201742255083677
1235,0.0,300.01995,2458.6277,-0.0123499894981004,0.0,0.0,0.0,0.0,-0.0018847830140363842,-0.36900121643008466,-0.18651859204795182,-0.19184161025579283,-0.01250059921946309,-0.004199061719140126,-0.03516783076854467
1236,0.0,300.01194,2454.064,-0.012359999172797842,0.0,0.0,0.0,0.0,-0.0018863106319221279,-0.3683666989524626,-0.17382084576978182,-0.2037866434321758,-0.007171758268597433,-0.011137752503710591,-0.025586341252425274
1237,0.0,300.31647000000004,2559.8821,-0.012370008847495284,0.0,0.0,0.0,0.0,-0.0018878382498078439,-0.37249750682764166,-0.17927630589819385,-0.2263664355506278,0.006104556552447824,0.0013238943421581988,-0.02093967457908498
1238,0.0,299.95801,2673.4671,-0.01237998548696262,0.0,0.0,0.0,0.0,-0.0018893608260503736,-0.40047056578336765,-0.17203117251565483,-0.24016548336248775,-0.006059351919111474,-0.005043448421074605,-0.006245654567298114
1239,0.0,299.59047999999996,2621.3527,-0.012389995161660172,0.0,0.0,0.0,0.0,-0.0018908884439361173,-0.36590090417160764,-0.19017970783927582,-0.24074513334719477,-0.0008242935471514392,-0.001220009963730609,0.0037084180550173667
1240,0.0,299.47481,2426.2614,-0.012400004836357614,0.0,0.0,0.0,0.0,-0.0018924160618218333,-0.3639515123042177,-0.16252865976532985,-0.2110427199157948,-0.005611154720227855,-0.01182044698383729,-0.004048425575798496
1241,0.0,299.06743,2492.9653,-0.012410014511055056,0.0,0.0,0.0,0.0,-0.0018939436797075493,-0.36432267594834866,-0.18219456751120383,-0.2112819685294068,-0.0035435001515162364,0.005841521284788265,-0.004253097739023066
1242,0.0,299.83313,2756.2047,-0.012419991150522502,0.0,0.0,0.0,0.0,-0.001895466255950079,-0.3843467777370736,-0.21198260057605378,-0.24148803818801376,0.0001084838854015259,-0.01049439847196649,-0.004181225173654796
1243,0.0,300.12181,2660.2625,-0.012430000825220056,0.0,0.0,0.0,0.0,-0.0018969938738358227,-0.37005180479626965,-0.1938434986108638,-0.24475806983824075,-0.015220829206428884,0.005245754037365615,0.002493934154682138
1244,0.0,299.77737,2514.9244,-0.012440010499917387,0.0,0.0,0.0,0.0,-0.0018985214917215387,-0.37832764657803164,-0.18058279057713383,-0.2055637929150668,-0.01899950024785468,0.0026914707067274774,0.0034366365138196165
1245,0.0,300.64457000000004,2675.8755,-0.012449987139384833,0.0,0.0,0.0,0.0,-0.0019000440679640684,-0.3833741488335826,-0.1929371666614158,-0.23708800976126476,-0.0015566751777318787,0.014190835148526386,-0.009988949197382531
1246,0.0,300.23121000000003,2779.6921,-0.012459996814082386,0.0,0.0,0.0,0.0,-0.0019015716858498122,-0.4281992794774786,-0.18306936711753982,-0.2336883327607428,0.009340474300958041,0.0015284164430429583,-0.004589078603906796
1247,0.0,300.07676000000004,2747.2772,-0.012470006488779939,0.0,0.0,0.0,0.0,-0.001903099303735556,-0.4033344563960116,-0.1951970588894498,-0.23657214387035277,0.005647058629571295,0.0016186075569691286,-0.015230772229660187
1248,0.0,300.17797,2628.7431,-0.01248001616347727,0.0,0.0,0.0,0.0,-0.0019046269216212441,-0.37668201695812065,-0.17994608447929583,-0.2424441511148748,0.01125539286682079,-0.016175813372678486,-0.004067373960618556
1249,0.0,299.99952,2505.4706,-0.012489992802944716,0.0,0.0,0.0,0.0,-0.0019061494978637739,-0.35192955318024266,-0.17198475552857384,-0.23768618195779978,-0.0044540047662010454,-0.0035893029063866167,0.0003577796336926007
1250,0.0,300.3923,2558.7996,-0.012500002477642269,0.0,0.0,0.0,0.0,-0.0019076771157495176,-0.3564060110620347,-0.1941736256259448,-0.2272315687510098,0.007118900962555823,-0.02087128627683558,-0.005591119219375504
1251,0.0,300.38563999999997,2711.1805,-0.0125100121523396,0.0,0.0,0.0,0.0,-0.0019092047336352336,-0.36790307623670665,-0.2112762335338408,-0.2449518539198658,-0.01106497784177829,0.0008108538282225422,-0.01049904726342529
1252,0.0,300.04336,2676.5505,-0.012519988791807046,0.0,0.0,0.0,0.0,-0.0019107273098777633,-0.40029447304848864,-0.2082163803518568,-0.2050936550011678,0.002391166479189758,0.007817996415426173,-0.015107065538201287
1253,0.0,300.42548999999997,2584.5231,-0.0125299984665046,0.0,0.0,0.0,0.0,-0.001912254927763507,-0.3724814772110596,-0.20446564258918778,-0.20868337719044583,-0.011959312910042288,0.005476837577696785,-0.02424055665510668
1254,0.0,300.27668,2519.7741,-0.012540008141202152,0.0,0.0,0.0,0.0,-0.0019137825456492508,-0.35789353313634165,-0.1984290632634238,-0.20962581124095678,0.00861014814953046,0.005696797151805105,-0.02872428359311607
1255,0.0,299.91406,2600.7468,-0.012549984780669377,0.0,0.0,0.0,0.0,-0.0019153051218917527,-0.36796288839010965,-0.1949756536100988,-0.22762353441969377,-0.002271489483378558,0.0062135234947020244,-0.006998600412633083
1256,0.0,299.82228,2706.9514,-0.012559994455366819,0.0,0.0,0.0,0.0,-0.0019168327397774687,-0.3829870062353746,-0.19548034335240783,-0.2443782733032578,0.003925338993400796,-0.005852882047559484,-0.010791821826819889
1257,0.0,299.32223999999997,2570.7929999999997,-0.012570004130064372,0.0,0.0,0.0,0.0,-0.0019183603576632124,-0.38339999684363363,-0.17767457027261485,-0.22038230205003978,-0.029668624580315273,0.0026163291938865875,-0.010621928156052689
1258,0.0,299.96195,2535.4102,-0.012580013804761925,0.0,0.0,0.0,0.0,-0.0019198879755489562,-0.3971981327304036,-0.16648275682306884,-0.2070205020538328,-0.002127565919299408,-0.014296644803468987,0.00027513187291840175
1259,0.0,300.32398,2644.5347,-0.012589990444229149,0.0,0.0,0.0,0.0,-0.0019214105517914581,-0.3958465888195166,-0.17779516729951683,-0.2302307687820078,-0.017170920216387883,0.00790320973558607,-0.006477916213520554
1260,0.0,299.79177999999996,2814.9278,-0.012600000118926924,0.0,0.0,0.0,0.0,-0.0019229381696772296,-0.40159140277898564,-0.19854330721219882,-0.25553307272665077,0.009347853700111331,-0.0027275041094336973,0.014860999777916486
1261,0.0,300.30945,2907.5697,-0.012610009793624255,0.0,0.0,0.0,0.0,-0.0019244657875629456,-0.4091280988777996,-0.2064198777920558,-0.26828059998223375,0.007893482635951082,-0.007543990891583932,0.003107314323293047
1262,0.0,300.64776,2772.2059,-0.012619986433091701,0.0,0.0,0.0,0.0,-0.0019259883638054753,-0.38489233185591565,-0.2003576024437558,-0.25743143731900475,0.0099425339328267,-0.017819213842369484,0.008199181001721163
1263,0.0,300.83149,2532.3768,-0.012629996107789032,0.0,0.0,0.0,0.0,-0.0019275159816911636,-0.3622264236114646,-0.1971636050810328,-0.21038930532380778,0.012400402970074489,0.0007503742875086762,-0.016716109736751587
1264,0.0,300.495,2608.9548,-0.012640005782486585,0.0,0.0,0.0,0.0,-0.0019290435995769073,-0.3990444567976216,-0.19169893450921183,-0.2023137324243108,0.004741987568547735,-0.004119349536423146,-0.008812799588080601
1265,0.0,300.46002999999996,2681.8937,-0.012650015457184138,0.0,0.0,0.0,0.0,-0.001930571217462651,-0.38759088031724165,-0.2056711163656588,-0.22196672123140979,-0.005572301037193295,0.008026610830814813,-0.027483625720172676
1266,0.0,300.28489,2522.7967,-0.012659992096651362,0.0,0.0,0.0,0.0,-0.001932093793705153,-0.3728968793545566,-0.1812876276116958,-0.21268268546764682,0.0025234673553468376,-0.0034986264456625463,-0.016691769442849384
1267,0.0,299.82122999999996,2419.8307,-0.012670001771349138,0.0,0.0,0.0,0.0,-0.0019336214115909245,-0.33343252061722767,-0.16969883290547083,-0.23243676623722276,0.0005810901778691354,0.01010300559356402,-0.01139233969733639
1268,0.0,299.20293,2504.9829999999997,-0.012680011446046469,0.0,0.0,0.0,0.0,-0.0019351490294766127,-0.3619392381356216,-0.16737084013821585,-0.23214219416815077,0.0055567002280536145,-0.007328814263247654,-0.008969642192259762
1269,0.0,299.70568,2807.3677,-0.012689988085513915,0.0,0.0,0.0,0.0,-0.0019366716057191702,-0.4097778759019276,-0.1921555657992778,-0.2514362593923268,0.0012421440068650688,-0.0008699752186348692,-0.013109702358076887
1270,0.0,300.04971,2902.8592,-0.012699997760211246,0.0,0.0,0.0,0.0,-0.0019381992236048584,-0.4359990153022526,-0.20836624004164678,-0.23803145706187578,-0.005910661621261884,-0.003118181025315507,-0.016896033570258682
1271,0.0,300.26011,2701.3938,-0.01271000743490891,0.0,0.0,0.0,0.0,-0.00193972684149063,-0.3869297548919936,-0.19981324396003183,-0.2344132726772888,0.006511017270437373,0.01053272161724869,-0.02065009074025528
1272,0.0,300.74871,2569.7879,-0.012719984074376134,0.0,0.0,0.0,0.0,-0.0019412494177331319,-0.37487267651955264,-0.1919482041663128,-0.2143304631777698,-0.00912322354966706,0.002618868398637188,-0.008403048137741282
1273,0.0,300.92649,2579.0263,-0.012729993749073687,0.0,0.0,0.0,0.0,-0.0019427770356188756,-0.36298690834151864,-0.18851600183758083,-0.2324566867341888,-0.0030338558188682573,0.0017700815568184483,0.0014656355681719685
1274,0.0,299.8523,2717.8776,-0.01274000342377124,0.0,0.0,0.0,0.0,-0.0019443046535046193,-0.37588723371218163,-0.2000023468261948,-0.25027735459045175,-0.005724592831198324,-0.019741405010824983,0.0012410831340103688
1275,0.0,300.21383,2722.5092,-0.012750013098468571,0.0,0.0,0.0,0.0,-0.0019458322713903076,-0.41587202809837365,-0.18091605866752483,-0.23078672897937677,0.004004593288397587,-0.0034869433680345167,0.005784787993139125
1276,0.0,299.4242,2547.4992,-0.012759989737936017,0.0,0.0,0.0,0.0,-0.001947354847632865,-0.38926117244458663,-0.17896225916219982,-0.2061527344031908,0.01095250708067829,0.0014913382781586285,-0.007337481908578082
1277,0.0,299.47549,2668.0825,-0.012769999412633348,0.0,0.0,0.0,0.0,-0.0019488824655185533,-0.4041685740108326,-0.1802013627094898,-0.2266605212596518,0.014047484577378786,0.007916532049225882,-0.005870281375626665
1278,0.0,299.75405,2874.3497,-0.012780009087331123,0.0,0.0,0.0,0.0,-0.0019504100834043248,-0.4213480470713146,-0.19872363533249582,-0.25365884375167874,0.0032165722709759665,-0.0031602596807683465,-0.008286177338082032
1279,0.0,299.79317000000003,2838.9790000000003,-0.012789985726798347,0.0,0.0,0.0,0.0,-0.0019519326596468267,-0.3863613722483986,-0.2035367050300088,-0.2730806595484628,-0.0058420973174701145,0.008027243605502263,-0.004175977551386896
1280,0.0,299.55355,2564.6146,-0.0127999954014959,0.0,0.0,0.0,0.0,-0.0019534602775325705,-0.37304880607455065,-0.17952202917994484,-0.22700794445393976,-0.004387904382677446,0.009222173704082681,-0.013353637253401385
1281,0.0,300.80036,2493.5416,-0.012810005076193454,0.0,0.0,0.0,0.0,-0.001954987895418314,-0.37233634939923665,-0.18023866044567083,-0.2053993829538408,-0.018194840853190983,0.007600044191090963,-0.013855815148712487
1282,0.0,300.66011000000003,2505.2438,-0.012820014750891007,0.0,0.0,0.0,0.0,-0.00195651551330403,-0.37664269272173967,-0.1885314133716018,-0.19635743290396984,-0.009627375357497971,-0.00926863274104283,-0.03131323081762527
1283,0.0,299.82538,2672.3934,-0.01282999139035823,0.0,0.0,0.0,0.0,-0.00195803808954656,-0.38439570758440267,-0.19700906417578082,-0.23093608204411678,0.0003971902496446257,-0.012603315421850387,-0.015502902835517383
1284,0.0,299.69734,2772.9115,-0.012840001065055784,0.0,0.0,0.0,0.0,-0.001959565707432276,-0.3959391998786566,-0.21209592246723782,-0.23486073405394978,0.017767218913487984,0.0019684389427697983,-0.025347015631805678
1285,0.0,299.74009,2602.4808,-0.012850010739753337,0.0,0.0,0.0,0.0,-0.0019610933253180196,-0.34973775135892865,-0.18766259194085583,-0.25368882582213775,0.00882514877632437,-0.0063418614483929945,-0.007311172768406573
1286,0.0,300.17534,2495.1206,-0.012859987379220672,0.0,0.0,0.0,0.0,-0.0019626159015605493,-0.35964551348674867,-0.18635060531387282,-0.2124582303054948,0.012298525738769989,-0.01031966754522189,-0.02229353072670018
1287,0.0,299.74637,2711.8619,-0.012869997053918114,0.0,0.0,0.0,0.0,-0.0019641435194462653,-0.4073881762035826,-0.1969631842112528,-0.21998694199352078,-0.006799457656529223,-0.009518765585904022,0.007692831758398384
1288,0.0,299.3941,2848.1604,-0.012880006728615556,0.0,0.0,0.0,0.0,-0.001965671137332009,-0.43243298290031257,-0.19159859235180882,-0.24173806778268975,-0.002151174747954418,-0.0015793062200403886,-0.024270327969544876
1289,0.0,299.79542999999995,2786.9635,-0.01289001640331311,0.0,0.0,0.0,0.0,-0.001967198755217725,-0.4216826323868356,-0.2020692757051848,-0.22341539529688276,-0.012548167258657688,-0.009711057960731802,-0.004251148043180646
1290,0.0,299.75106,2581.7222,-0.012899993042780333,0.0,0.0,0.0,0.0,-0.0019687213314602547,-0.38465086422458467,-0.17156573608221987,-0.2285624626248588,-0.01820034685423438,0.0011708336939772889,-0.021069283452376377
1291,0.0,299.85801000000004,2652.1051,-0.012910002717477886,0.0,0.0,0.0,0.0,-0.0019702489493459707,-0.3606606786294377,-0.18892649985059384,-0.25658654885562077,-0.013798366907792788,-0.001121601898118489,-0.0013724721864024586
1292,0.0,300.44757000000004,2864.5371,-0.01292001239217544,0.0,0.0,0.0,0.0,-0.0019717765672317145,-0.39903839756202364,-0.2103620286311158,-0.2613473247154728,-0.01051095903160089,0.014815543351930286,0.0015800474124885386
1293,0.0,300.04532,2846.282,-0.012929989031642886,0.0,0.0,0.0,0.0,-0.001973299143474244,-0.4066684241275486,-0.18612645412675083,-0.27240375781915777,-0.0032481857754209763,-0.0032123755917117867,0.014865049738566184
1294,0.0,300.14526,2661.9812,-0.012939998706340217,0.0,0.0,0.0,0.0,-0.00197482676135996,-0.3888374920477726,-0.1967380400390328,-0.2236002931751308,0.0032697674959259273,-0.005573668316878235,-0.004556307461222536
1295,0.0,300.23738,2548.971,-0.01295000838103777,0.0,0.0,0.0,0.0,-0.001976354379245704,-0.37377167896089264,-0.16836813154914085,-0.23268372568409576,0.010359494353652491,0.004006248027135896,0.0006135832847259554
1296,0.0,300.28677999999996,2755.6799,-0.012959985020505216,0.0,0.0,0.0,0.0,-0.0019778769554882336,-0.39092421983371667,-0.2028539061851218,-0.24387974412155675,0.007080870747877534,-0.0006950694961155183,-0.0050999512996510055
1297,0.0,300.03584,2932.7438,-0.012969994695202769,0.0,0.0,0.0,0.0,-0.0019794045733739773,-0.40116592892949465,-0.22863850704486377,-0.26167643848045374,0.014357512763476186,-0.0038537599665864966,-0.017912501752576283
1298,0.0,299.05182,2728.5726,-0.0129800043699001,0.0,0.0,0.0,0.0,-0.0019809321912596656,-0.4090916826692056,-0.19257937791860483,-0.2277468672218658,-0.015379967227384586,-0.0025230090623266075,-0.008962479932602902
1299,0.0,298.77112999999997,2485.7714,-0.012990014044597653,0.0,0.0,0.0,0.0,-0.0019824598091454093,-0.36444680921809963,-0.19348970207344682,-0.1976759144640938,0.002781921415329267,-0.008954623900602572,-0.024061310685916475
1300,0.0,299.31345,2628.5788,-0.0129999906840651,0.0,0.0,0.0,0.0,-0.001983982385387939,-0.3917976110224136,-0.1967454874272678,-0.21047921100518077,-0.015746158853274884,0.009003247442426341,-0.019300515574312584
1301,0.0,300.02062,2772.0638,-0.01301000035876243,0.0,0.0,0.0,0.0,-0.001985510003273655,-0.41801311675218267,-0.18582994674998782,-0.23879511326474276,0.013187149116220287,0.0025476997381133877,-0.02986864926930617
1302,0.0,299.8608,2727.6672,-0.013020010033459983,0.0,0.0,0.0,0.0,-0.0019870376211593987,-0.37873305807554264,-0.2081911909543708,-0.2422184699201018,-0.0004663924956993556,0.011808793594437188,-0.027865374788098373
1303,0.0,299.38333,2561.8027,-0.013029986672927318,0.0,0.0,0.0,0.0,-0.0019885601974019285,-0.3650634732289596,-0.16593735469174184,-0.24772322466587876,-0.0004511053077306275,0.006608492031382383,-0.02187860582400028
1304,0.0,299.67346000000003,2550.1727,-0.013039996347624871,0.0,0.0,0.0,0.0,-0.001990087815287672,-0.3706826036460246,-0.17623303962034684,-0.22827316958880778,-0.007101229272861764,0.007839844519382412,0.005251348089842705
1305,0.0,300.50473,2860.4037,-0.013050006022322314,0.0,0.0,0.0,0.0,-0.0019916154331733604,-0.4080103421624856,-0.21784812301993578,-0.24363283533718874,0.006448370853854654,-0.0064705183732154435,-0.005812710227469834
1306,0.0,299.97298,2955.8675,-0.013060015697019867,0.0,0.0,0.0,0.0,-0.001993143051059104,-0.43747066987999356,-0.1998780210389248,-0.26116123120210677,-0.0090453800027845,-0.008735130624190271,0.025597247876501677
1307,0.0,299.81602999999996,2761.1062,-0.013069992336487202,0.0,0.0,0.0,0.0,-0.001994665627301634,-0.4113911524461456,-0.20316596695091982,-0.22475023071362077,0.014388182830753087,-0.01872486083474988,-8.901169182302002e-05
1308,0.0,299.92854,2692.5757,-0.013080002011184755,0.0,0.0,0.0,0.0,-0.0019961932451873776,-0.3801881054841446,-0.19155987606548783,-0.24672780776763875,-0.00890529381948407,0.007649387748435794,0.0010629440392294091
1309,0.0,299.81096,2798.4181,-0.013090011685882086,0.0,0.0,0.0,0.0,-0.0019977208630730936,-0.4111805484128606,-0.18650729430933682,-0.2529613831778448,0.01032675117667099,-0.0033839699014468266,-0.015562546789403785
1310,0.0,299.12793999999997,2923.8048,-0.013099988325349754,0.0,0.0,0.0,0.0,-0.001999243439315651,-0.44606972831115455,-0.2038059762440838,-0.23888794723890477,-0.016305964334773382,4.8083595030981356e-05,-0.015920809733261584
1311,0.0,299.23426,2737.2459,-0.013109998000047085,0.0,0.0,0.0,0.0,-0.002000771057201367,-0.4123632747245866,-0.17638750959809182,-0.24330361011469678,-0.003301234383081467,-0.01111040994976209,-0.012952432770305588
1312,0.0,299.64068,2537.5175,-0.013120007674744416,0.0,0.0,0.0,0.0,-0.0020022986750870553,-0.3952008040007826,-0.16984858113774984,-0.2062925730494918,0.006445683207964404,-0.005782499669113285,-0.01862196224734458
1313,0.0,299.76397000000003,2600.774,-0.013129984314212084,0.0,0.0,0.0,0.0,-0.0020038212513296128,-0.36797714481901667,-0.19463225301870782,-0.22796094670299377,0.02284938453280868,-0.01042329668594929,-0.017563701551402383
1314,0.0,299.72735,2703.7912,-0.013139993988909415,0.0,0.0,0.0,0.0,-0.0020053488692153287,-0.3787723823119236,-0.1971507368047628,-0.24596188188454776,0.015628013891614886,-0.006590923693198524,-0.022870991077941077
1315,0.0,300.13145,2758.0404,-0.013150003663606968,0.0,0.0,0.0,0.0,-0.0020068764871010725,-0.37315438673497064,-0.22933792319139076,-0.23588311353735075,0.005030368172883685,-0.017138716088459585,-0.030106833970313173
1316,0.0,299.94911,2697.9636,-0.0131600133383043,0.0,0.0,0.0,0.0,-0.0020084041049867885,-0.40255798257937964,-0.1913388254236718,-0.22621675824585577,0.0009864394820889972,0.014751659959625485,-0.009686807440788462
1317,0.0,300.57851,2687.1658,-0.013169989977771857,0.0,0.0,0.0,0.0,-0.002009926681229346,-0.3815377444848436,-0.20920029686146183,-0.22609326332366778,-0.006016113801569204,-0.007983094778770112,-0.014195519403738687
1318,0.0,299.79192,2705.8799,-0.013179999652469299,0.0,0.0,0.0,0.0,-0.002011454299115062,-0.4146408481668656,-0.1880718740537488,-0.2198072015582818,-0.001100012983537829,0.014349199046405685,-0.008019158072354282
1319,0.0,299.56471,2852.3647,-0.013190009327166852,0.0,0.0,0.0,0.0,-0.002012981917000778,-0.39063657839532867,-0.2003050856910728,-0.27610596090203676,-0.005942697144373545,-0.012711397796767287,-0.004753970264230336
1320,0.0,300.23132000000004,2802.8016,-0.013199985966634187,0.0,0.0,0.0,0.0,-0.0020145044932433076,-0.3947348102797926,-0.20260051260011383,-0.2546463978291427,0.011676759000406387,-0.0014595141190178287,-0.018651250241485083
1321,0.0,299.91278,2648.7904,-0.01320999564133174,0.0,0.0,0.0,0.0,-0.0020160321111290513,-0.3825517241249156,-0.17801279315599483,-0.24460161389029977,-0.00039920198679066867,-0.010778423620747591,-0.021098833878292783
1322,0.0,299.37715,2684.637,-0.013220005316029071,0.0,0.0,0.0,0.0,-0.0020175597290147673,-0.4231564755847926,-0.17167303926780983,-0.2212330876290058,0.008628693868760782,0.0034415201766515966,-0.01286627611430259
1323,0.0,299.21946,2844.696,-0.013230014990726513,0.0,0.0,0.0,0.0,-0.0020190873469004833,-0.4150785215475606,-0.20349679310856983,-0.2461412372847488,-0.003546866877623507,-0.006776662265054493,0.0005805950430752694
1324,0.0,299.37137,2864.2382,-0.01323999163019407,0.0,0.0,0.0,0.0,-0.0020206099231430408,-0.44398737776564257,-0.1809218139280928,-0.2457476909459088,-0.01046676004898879,0.014422053755095886,0.01066732986653349
1325,0.0,300.17708,2870.0827,-0.013250001304891401,0.0,0.0,0.0,0.0,-0.0020221375410287568,-0.3831301379445006,-0.2138578529336268,-0.27544546369185074,0.0025537040555559673,0.0022935113597269477,0.011207325295326889
1326,0.0,300.23442,2822.0141,-0.013260010979588954,0.0,0.0,0.0,0.0,-0.0020236651589144727,-0.4031252810453676,-0.20255986100610182,-0.25213668878895373,-0.006727262472329113,0.004756524161107385,0.00037774789526831467
1327,0.0,299.5898,2794.1277,-0.0132699876190564,0.0,0.0,0.0,0.0,-0.0020251877351570025,-0.39628392782767863,-0.1832963250074388,-0.2697647985962127,0.014826495572261187,-0.0012791405037913387,0.01168878323934309
1328,0.0,300.29162,2868.4619,-0.013279997293753953,0.0,0.0,0.0,0.0,-0.002026715353042746,-0.4187006474750366,-0.22058069641961978,-0.23265943807919875,-0.01016942282039389,-0.004172316374800566,-0.01747382728078248
1329,0.0,299.86318,2759.1542,-0.013290006968451284,0.0,0.0,0.0,0.0,-0.002028242970928462,-0.4117012779042526,-0.18375456736516382,-0.24325814558270978,0.0011947384929865087,0.002945512974449497,-0.009680830177123552
1330,0.0,299.95855,2599.3401,-0.013299983607918842,0.0,0.0,0.0,0.0,-0.0020297655471710196,-0.4076547521723916,-0.18441510510535383,-0.1980646174674558,-0.0038342032264063962,0.0071517208425698935,-0.028599115795012973
1331,0.0,300.68264,2597.6643,-0.013309993282616284,0.0,0.0,0.0,0.0,-0.0020312931650567356,-0.35167554151267366,-0.1998880724799168,-0.23806146952983778,0.0023054648738066678,0.00019737636733703086,-0.028761126380002177
1332,0.0,300.96581000000003,2711.3136,-0.013320002957313837,0.0,0.0,0.0,0.0,-0.0020328207829424794,-0.37721681036090066,-0.1957230674138628,-0.25123175512464374,-0.01046482778104809,0.021528299933177775,-0.024654984052007476
1333,0.0,300.34017,2819.9953,-0.013330012632011168,0.0,0.0,0.0,0.0,-0.0020343484008281676,-0.3960912583211636,-0.2144999799194998,-0.24661693794169676,0.00031678408180165466,0.01013296101554539,-0.028041033851934575
1334,0.0,300.47395,2787.2933,-0.013339989271478725,0.0,0.0,0.0,0.0,-0.002035870977070725,-0.4132728896043586,-0.1988715698470958,-0.2351230949023428,0.002698892054434907,0.02204190424986658,-0.023444778397569477
1335,0.0,299.94658,2699.1335,-0.013349998946176056,0.0,0.0,0.0,0.0,-0.002037398594956441,-0.4111281329851876,-0.19251548236729882,-0.21682558141651878,0.0016814556103217483,-0.0033179022459014574,-0.0090863639428293
1336,0.0,299.86234,2688.8158,-0.013360008620873498,0.0,0.0,0.0,0.0,-0.002038926212842157,-0.3998317318603196,-0.2067901903061028,-0.2107109615680528,0.0036872875347819466,-0.0070119645735020235,-0.0009697545460048221
1337,0.0,299.94903999999997,2848.5571,-0.013369985260341055,0.0,0.0,0.0,0.0,-0.0020404487890847145,-0.3847594441053006,-0.2090147099731458,-0.27211607585076575,0.006706202676950674,-0.020624006642930983,-0.008010635524438172
1338,0.0,299.37768,2954.5570000000002,-0.013379994935038386,0.0,0.0,0.0,0.0,-0.0020419764069704305,-0.4250387396330576,-0.2219070610655218,-0.2511657520131298,0.0033207795722104264,-0.00974974800387521,0.0056250468857239055
1339,0.0,299.38605,2902.7891,-0.01339000460973594,0.0,0.0,0.0,0.0,-0.0020435040248561742,-0.4232112214876956,-0.20196191172458883,-0.25720228067638873,-0.0026608324555037173,-0.017788939955881683,-0.0050826054711891056
1340,0.0,300.48945,2930.4841,-0.01340001428443327,0.0,0.0,0.0,0.0,-0.0020450316427418624,-0.4324660857810796,-0.2060779362808088,-0.25224997015013373,-0.0027769661157152174,0.0004305100875230376,0.008539940962026552
1341,0.0,300.32104,2903.0009,-0.013409990923900938,0.0,0.0,0.0,0.0,-0.00204655421898442,-0.4348747332562946,-0.2098300216661108,-0.23773503074512076,-0.007303717578145803,0.026234566990650177,-0.018542054304708285
1342,0.0,300.242,2977.2917,-0.01342000059859827,0.0,0.0,0.0,0.0,-0.002048081836870136,-0.44092045209796055,-0.1997640405351758,-0.26433783106061276,-0.005416750934841694,0.017464048404067383,0.01055178490463009
1343,0.0,300.17946,2825.9348,-0.013430010273295823,0.0,0.0,0.0,0.0,-0.0020496094547558796,-0.3920352080383626,-0.2010486390119558,-0.26592976855772477,0.006182184682359124,0.012457755965484789,-0.022040257718454078
1344,0.0,300.20002999999997,2660.3189,-0.013439986912763269,0.0,0.0,0.0,0.0,-0.0020511320309984094,-0.3878858982163576,-0.19288898661916082,-0.2278956224690468,0.0027557222127936073,-0.01047875794342289,-0.0033139108511075367
1345,0.0,300.22715,2660.3249,-0.013449996587460822,0.0,0.0,0.0,0.0,-0.002052659648884153,-0.37562005992581365,-0.19029770081342082,-0.24275458054801174,0.004905242728634766,-0.003874730089331086,-0.012821756944658886
1346,0.0,300.05487999999997,2768.1402,-0.013460006262158153,0.0,0.0,0.0,0.0,-0.002054187266769869,-0.39258723682534363,-0.2143430781415148,-0.23451519550484778,-0.004974805286425055,-0.02039409512899048,-0.009938641431242541
1347,0.0,299.33402,2766.3527,-0.013470015936855484,0.0,0.0,0.0,0.0,-0.0020557148846555573,-0.4048068911763296,-0.1999147108250458,-0.2361805227067028,-0.006565023703417394,-0.013230527366251387,-0.015759718166113088
1348,0.0,299.17183,2841.6013,-0.013479992576323152,0.0,0.0,0.0,0.0,-0.0020572374608981148,-0.4110812600355616,-0.20553524965974979,-0.24715934085272778,0.01219101787665979,-0.0030851902100095673,-0.014471040344430487
1349,0.0,299.83336,2885.3653,-0.013490002251020483,0.0,0.0,0.0,0.0,-0.0020587650787838307,-0.3953093028214906,-0.21898459446459678,-0.2627850962098698,0.0034353916347467568,0.003665824465863707,-0.026322104706539475
1350,0.0,299.62309,2851.5613,-0.013500011925718036,0.0,0.0,0.0,0.0,-0.0020602926966695745,-0.42337043347590864,-0.19387623672159482,-0.24955678178183677,0.01804440259759388,-0.012255476795021387,-0.00981327878514521
1351,0.0,300.62628,2860.4996,-0.013509988565185371,0.0,0.0,0.0,0.0,-0.002061815272912104,-0.39980389788007265,-0.2067373999758928,-0.26297916400152277,0.007528744213354203,-0.004026650831149496,-0.016419371338965785
1352,0.0,300.48851,2767.8029,-0.013519998239882924,0.0,0.0,0.0,0.0,-0.002063342890797848,-0.4261236569126306,-0.17968075480810985,-0.23553854770834476,0.018206730329864383,0.008799964546413882,-0.012896588504294189
1353,0.0,300.03205,2657.1994,-0.013530007914580366,0.0,0.0,0.0,0.0,-0.002064870508683536,-0.38870963001765363,-0.18697617579311182,-0.23203645138771475,-0.008342218478587862,0.010959444804112988,-0.009869551453298892
1354,0.0,300.42103,2693.5466,-0.013539984554047702,0.0,0.0,0.0,0.0,-0.0020663930849260936,-0.39895770232405964,-0.18857798234619783,-0.23123521373863876,-0.011252328798518388,0.0003783249412002646,0.0015414019523495286
1355,0.0,300.68183999999997,2856.6356,-0.013549994228745255,0.0,0.0,0.0,0.0,-0.0020679207028118096,-0.3975599035461076,-0.2012565883299788,-0.2695294104654818,-0.017007507293260286,0.0009749901105965321,-0.0026448307032994676
1356,0.0,300.09766,2876.0434,-0.013560003903442808,0.0,0.0,0.0,0.0,-0.0020694483206975534,-0.4422209282038076,-0.19382814787184882,-0.2381963128531458,0.012746102625942387,0.01026976801754719,0.005608229568514166
1357,0.0,299.4823,2917.1658,-0.013570013578140139,0.0,0.0,0.0,0.0,-0.0020709759385832693,-0.4026077027617866,-0.2177745002676698,-0.26636334840801573,0.0016517858235435686,0.015209037001765088,-0.013018260589552287
1358,0.0,299.68228,2903.9275,-0.013579990217607807,0.0,0.0,0.0,0.0,-0.002072498514825827,-0.4443638103102936,-0.18262957604413582,-0.25572804231089274,0.004832242922530245,-0.0066548250200300935,0.005537722155005625
1359,0.0,299.44662,2882.3874,-0.013589999892305138,0.0,0.0,0.0,0.0,-0.002074026132711543,-0.4042164602105586,-0.21782288295994476,-0.25413444308361677,0.003375476839108627,-0.0017222646633992885,-0.014391477920078288
1360,0.0,300.35337000000004,2901.5348,-0.013600009567002469,0.0,0.0,0.0,0.0,-0.002075553750597231,-0.42357756206135067,-0.1996920693805728,-0.25872449643411977,0.023136466657141478,-0.013581678307657287,-0.011204538857551889
1361,0.0,299.81244,2849.6253,-0.013609986206469915,0.0,0.0,0.0,0.0,-0.0020770763268397885,-0.4043631180300326,-0.1965145677294778,-0.26533723003174575,0.012392322300526988,-0.01132676823036499,-0.014309325628470485
1362,0.0,300.01087,2724.9016,-0.013619995881167468,0.0,0.0,0.0,0.0,-0.0020786039447255045,-0.4160760156085056,-0.1961581975368068,-0.2160678425942358,0.008925653256393393,-0.029219446757984872,-0.0077821748833158625
1363,0.0,300.03456,2680.0723,-0.013630005555865021,0.0,0.0,0.0,0.0,-0.002080131562611248,-0.37510033355202066,-0.1945746700155248,-0.2450000542271228,-0.01167283569601919,-0.005323243655988245,-0.014051358232511088
1364,0.0,300.03878,2803.4499,-0.013640015230562352,0.0,0.0,0.0,0.0,-0.002081659180496964,-0.4167302509330736,-0.2106396388935138,-0.22480886749690776,0.0018658076507408782,0.00967781150242563,-0.017779662637966084
1365,0.0,300.01411,2900.3817,-0.01364999187002991,0.0,0.0,0.0,0.0,-0.0020831817567395217,-0.4011642469343286,-0.23095066271305578,-0.24952870462156573,-0.002190932756703228,0.028845884750867176,-0.02366788796358868
1366,0.0,299.83844,2785.3848,-0.013660001544727352,0.0,0.0,0.0,0.0,-0.0020847093746252376,-0.4072171801167066,-0.21292247110381177,-0.2265477769210248,0.0029489599499646873,0.016730384404160383,-0.014177302180190787
1367,0.0,300.32412999999997,2765.3156,-0.013670011219424794,0.0,0.0,0.0,0.0,-0.0020862369925109536,-0.3937646334415436,-0.2110612927901278,-0.23576096623779577,-0.008642675200265633,0.014803819035023185,-0.018019526294388785
1368,0.0,299.95713,2941.4781,-0.013679987858892018,0.0,0.0,0.0,0.0,-0.0020877595687534833,-0.43503993355259857,-0.20938668421735682,-0.24970926578938576,0.009326367123790771,-0.005798810969223084,-0.001045856994843049
1369,0.0,299.75625,2903.7089,-0.013689997533589793,0.0,0.0,0.0,0.0,-0.002089287186639227,-0.4036364657208176,-0.2178184550570078,-0.26120005894593873,-0.0026153429975642574,0.008756592173233362,-0.018449860704609484
1370,0.0,299.45119,2829.2459999999996,-0.013700007208287124,0.0,0.0,0.0,0.0,-0.002090814804524943,-0.42849397313656257,-0.19012473902135082,-0.24140142556946578,-0.001965416012421458,-0.01216943260977949,0.005681412570236764
1371,0.0,299.67832999999996,2834.1179,-0.01370998384775457,0.0,0.0,0.0,0.0,-0.0020923373807674728,-0.40445204085880865,-0.2036424174129418,-0.2534066255367868,-0.014290222824335185,-0.011063185402351388,-0.024781527843746376
1372,0.0,299.59011,2825.81,-0.013719993522451901,0.0,0.0,0.0,0.0,-0.0020938649986531888,-0.4176162469530146,-0.2002606850716908,-0.24109874749959379,0.0022567348393973882,-0.014103688547175686,0.0007246261332550314
1373,0.0,299.66316,2843.5451,-0.013730003197149454,0.0,0.0,0.0,0.0,-0.0020953926165389325,-0.4265291697351516,-0.20174972702114782,-0.2360878001900518,0.005810090975961334,0.013558794054148789,-0.013912290669536186
1374,0.0,299.87721,2872.7391,-0.013740012871847007,0.0,0.0,0.0,0.0,-0.0020969202344246485,-0.44278162027914353,-0.18114233767985682,-0.24931700627817277,0.013953437742847087,-0.008201779886902653,0.023381423921816878
1375,0.0,300.25176,2823.6185,-0.013749989511314453,0.0,0.0,0.0,0.0,-0.002098442810667206,-0.4059155489057456,-0.21667476927163482,-0.23571918993617277,-0.006538392349714084,0.01231879884677079,-0.024517363410175377
1376,0.0,300.64059,2790.2729,-0.013759999186012006,0.0,0.0,0.0,0.0,-0.002099970428552922,-0.4124907415871666,-0.18922242967479982,-0.24646012735622078,-0.013709139090736686,0.0037773646580718666,0.0100334113210456
1377,0.0,300.07061,2957.2207,-0.013770008860709337,0.0,0.0,0.0,0.0,-0.002101498046438638,-0.40334299809435464,-0.2249515432434888,-0.27062668939627477,-0.016677668041207683,0.01063242948008909,-0.024911559242329476
1378,0.0,300.51937999999996,3166.7983,-0.013779985500176783,0.0,0.0,0.0,0.0,-0.0021030206226811676,-0.45413681017481355,-0.23771106738025577,-0.27077974082387973,-0.015381691779054787,-1.726721443964138e-06,0.01130070237154249
1379,0.0,300.29886,2966.6991,-0.013789995174874337,0.0,0.0,0.0,0.0,-0.0021045482405669114,-0.43739680394770364,-0.1977587476597688,-0.26664688618349874,-0.011301035730825389,-0.0074309512918777935,-0.006610920690547074
1380,0.0,299.49498,2828.1243,-0.01380000484957189,0.0,0.0,0.0,0.0,-0.002106075858452655,-0.4016269475924936,-0.2274878703638048,-0.23056436111243078,0.001182692063872619,-0.01654298177166518,-0.019086549577195782
1381,0.0,300.15314,2767.5345,-0.01381001452426922,0.0,0.0,0.0,0.0,-0.0021076034763383433,-0.39098660564237364,-0.19524813682699083,-0.25502664019416976,0.001995126633178668,0.0027371350516341973,-0.018770676964521584
1382,0.0,300.14949,2811.9998,-0.013819991163736556,0.0,0.0,0.0,0.0,-0.002109126052580901,-0.4080904902453956,-0.2077156524174388,-0.23897159103465976,0.014923202188305385,-0.00997012361847459,-0.025527917251659274
1383,0.0,299.74976000000004,2808.3969,-0.013830000838434109,0.0,0.0,0.0,0.0,-0.0021106536704666168,-0.3890152566453166,-0.2051710977063108,-0.2594961877102797,-0.0040209963889664465,0.007314077148493212,-0.03596522009374087
1384,0.0,299.73167,2753.4635,-0.013840010513131551,0.0,0.0,0.0,0.0,-0.0021121812883523328,-0.4211285061721476,-0.19183564221270383,-0.22402000163155278,0.00964948498130502,0.002347887223693428,-0.018406686117848483
1385,0.0,299.23757,2714.0436,-0.013849987152598886,0.0,0.0,0.0,0.0,-0.0021137038645948625,-0.4023496076963146,-0.2013571230049008,-0.22129474389759082,0.0030809145985625968,0.00896528075852932,-0.013883097920905087
1386,0.0,299.57226,3047.2405,-0.013859996827296439,0.0,0.0,0.0,0.0,-0.0021152314824806062,-0.4496343725604576,-0.2144854093830618,-0.2621652404611947,0.007933350683660752,-0.0016655785892048084,-0.006943368251007094
1387,0.0,300.15321,3235.5581,-0.013870006501993992,0.0,0.0,0.0,0.0,-0.00211675910036635,-0.45957610896413054,-0.2245901979928268,-0.2993625736897857,-0.006782664961296914,-0.010003600895153541,0.004117260620016987
1388,0.0,299.47039,3014.9253,-0.013880016176691323,0.0,0.0,0.0,0.0,-0.002118286718252038,-0.4338062610258446,-0.2195594821738338,-0.2630962754480808,-0.0016709007866800684,0.0006398285496111614,0.0005508472259068885
1389,0.0,299.90154,2913.0033,-0.01388999281615877,0.0,0.0,0.0,0.0,-0.0021198092944945957,-0.40749147705127764,-0.19390698886212981,-0.2840818097266917,-0.020512894650215083,0.0025141498114022677,-0.004387307882343577
1390,0.0,300.53836,2921.868,-0.013900002490856322,0.0,0.0,0.0,0.0,-0.0021213369123803116,-0.45751272646049057,-0.1909495043377488,-0.23971268215779978,0.004441182896785626,-0.006331945681589384,0.015951042076495284
1391,0.0,300.53472999999997,2911.8478,-0.013910012165553876,0.0,0.0,0.0,0.0,-0.0021228645302660554,-0.42796359750421864,-0.2021279631509768,-0.2550374617052378,-0.0062158580229324245,0.002103687262142768,-0.008364836145995052
1392,0.0,300.58552000000003,2813.1738,-0.0139199888050211,0.0,0.0,0.0,0.0,-0.0021243871065085573,-0.43343883627458263,-0.17173259810868782,-0.24996317613194477,0.011078384153851388,0.010233140039682292,-0.006744526835482974
1393,0.0,300.09727000000004,2731.9590000000003,-0.013929998479718653,0.0,0.0,0.0,0.0,-0.002125914724394301,-0.38940885364666167,-0.1994950226336258,-0.24154345283598277,0.00038009829099528065,0.005064053469808165,-0.024782621140604272
1394,0.0,299.85411,2799.5452,-0.013940008154416206,0.0,0.0,0.0,0.0,-0.002127442342280045,-0.4079006781041626,-0.2017511354387868,-0.24134002261340576,-0.0010004169835084692,-0.0017417760099749083,-0.02058797344287478
1395,0.0,300.24115,3022.1439,-0.013949984793883652,0.0,0.0,0.0,0.0,-0.0021289649185225745,-0.4121791874464186,-0.2279863083529968,-0.27849079699990176,-0.0013336419094452086,-0.00956288563633333,-0.02256097606409498
1396,0.0,299.57923999999997,3043.5265,-0.013959994468580983,0.0,0.0,0.0,0.0,-0.0021304925364082905,-0.4581993756557575,-0.23014813823635277,-0.23680855538368478,0.006243475471633055,-0.004250862610627476,-0.02220480548169368
1397,0.0,299.98076000000003,2904.1374,-0.013970004143278536,0.0,0.0,0.0,0.0,-0.0021320201542940065,-0.4098955649010426,-0.20253306054095682,-0.27035660758211977,0.0005186837799701035,0.0028021333230240277,0.003059356689434997
1398,0.0,300.09902999999997,2764.6189,-0.013980013817976089,0.0,0.0,0.0,0.0,-0.0021335477721797502,-0.4085468479579346,-0.20855605218287981,-0.2232722129252518,0.0033266291663627367,-0.014289633112776987,-0.02102234970774438
1399,0.0,299.79522000000003,2860.7548,-0.013989990457443313,0.0,0.0,0.0,0.0,-0.002135070348422252,-0.3993728511550316,-0.2143126299760098,-0.2559125450216017,-0.0021561587225462976,-0.005002335494292075,-0.003757138868850736
1400,0.0,299.25338,2953.6661,-0.014000000132140866,0.0,0.0,0.0,0.0,-0.002136597966307996,-0.42995709614846156,-0.19553870655816782,-0.27234492851835174,-0.007005703802459132,0.004692472569285985,-0.017740408315841984
1401,0.0,299.89002999999997,2845.0166,-0.014010009806838308,0.0,0.0,0.0,0.0,-0.0021381255841937397,-0.4051416082143636,-0.20965848855668182,-0.25001391969695275,-0.008778578079203202,0.005297502543822795,-0.02276732546021008
1402,0.0,299.9021,2757.455,-0.014019986446305754,0.0,0.0,0.0,0.0,-0.0021396481604362694,-0.43546723125226955,-0.17388936174154382,-0.22884087335483577,-0.005227923571380885,0.007309052745222342,-0.008082259134256873
1403,0.0,300.54183,2947.9927,-0.014029996121003085,0.0,0.0,0.0,0.0,-0.0021411757783219854,-0.42948123337149763,-0.2025451283496478,-0.2640898178336358,0.008211943596005732,0.0015943698039770483,-0.01750243031785538
1404,0.0,300.00347999999997,3126.1763,-0.014040005795700639,0.0,0.0,0.0,0.0,-0.0021427033962077013,-0.4689856560177806,-0.21622493688973982,-0.26506895180276874,0.01133495123817259,0.008558417982900092,-0.001035633706634089
1405,0.0,299.84123,3147.1377,-0.014050015470398192,0.0,0.0,0.0,0.0,-0.002144231014093445,-0.4425970770384306,-0.2107758906344608,-0.3032782888337367,0.0016920457963919184,-0.0042899807519381356,-0.009694148032462921
1406,0.0,300.22115,3104.4811,-0.014059992109865638,0.0,0.0,0.0,0.0,-0.002145753590335975,-0.44153424861103757,-0.2256765236900388,-0.2764739834708577,-0.008140444615949332,-0.009703766916987232,0.019694246324670782
1407,0.0,300.37315,2900.7657,-0.014070001784562969,0.0,0.0,0.0,0.0,-0.0021472812082216908,-0.41486856599433963,-0.19424847441083182,-0.27264330027529876,-0.007926048190190053,-0.008500496655508703,-0.0067851474240419145
1408,0.0,300.0819,2835.4549,-0.014080011459260522,0.0,0.0,0.0,0.0,-0.0021488088261074345,-0.4471724281299826,-0.1915031137948858,-0.22323195649877878,-0.0072318405544770925,0.00940424512117673,0.008686817846172172
1409,0.0,299.83821,2963.804,-0.014089988098727968,0.0,0.0,0.0,0.0,-0.0021503314023499642,-0.4200619793818896,-0.2224133922729928,-0.25844703815923675,-0.0031281947734037867,0.005077969548006576,-0.01953735366593668
1410,0.0,299.9849,2887.0645,-0.014099997773425299,0.0,0.0,0.0,0.0,-0.00215185902023568,-0.43720893724666254,-0.19354812607421282,-0.24683843441355677,-0.022631264210281877,0.0015105040051251386,-0.007827873273425942
1411,0.0,299.79747000000003,2806.2889,-0.014110007448122852,0.0,0.0,0.0,0.0,-0.002153386638121396,-0.3908287108792906,-0.2136202255201748,-0.2485928364317028,0.00996106232548031,-0.016510340932943783,-0.03629960073274167
1412,0.0,300.05897999999996,2949.6381,-0.014119984087590298,0.0,0.0,0.0,0.0,-0.002154909214363926,-0.41847094367736665,-0.22834911268380276,-0.2497962735754728,0.006753216063040534,-0.00884565067619775,-0.031808553062759766
1413,0.0,299.77914,3071.6114,-0.014129993762287851,0.0,0.0,0.0,0.0,-0.0021564368322496696,-0.4416644208513846,-0.2161164684665348,-0.27591225788041973,0.02475654616253088,-0.011465623010818889,-0.027670428508608673
1414,0.0,300.12441,3098.7588,-0.014140003436985182,0.0,0.0,0.0,0.0,-0.0021579644501353856,-0.4531735133047436,-0.23514179949918879,-0.2536299863888308,3.652637725087277e-05,-0.015235971215923287,-0.03332415229733777
1415,0.0,300.36411,2906.243,-0.014150013111682735,0.0,0.0,0.0,0.0,-0.0021594920680211294,-0.41724105057348565,-0.2052993042414638,-0.26088493816483876,-0.0009693965444794901,0.004196972701408956,-0.015957145895097686
1416,0.0,300.20932999999997,2792.1147,-0.01415998975115007,0.0,0.0,0.0,0.0,-0.002161014644263659,-0.4113412194812176,-0.19908985431613882,-0.23830205563358178,-0.006113084470589464,0.019796761903538282,-0.004109645133590396
1417,0.0,300.18026000000003,2857.9551,-0.014169999425847624,0.0,0.0,0.0,0.0,-0.002162542262149403,-0.4086289313485356,-0.21426044759585983,-0.24585760831675674,-0.01125325389585969,0.015353712904043484,-0.004492626212312685
1418,0.0,299.53821,2956.0988,-0.014180009100545066,0.0,0.0,0.0,0.0,-0.002164069880035091,-0.4359175094642086,-0.2020107098494048,-0.26065201223185075,-0.02096673038325518,0.006603872826826503,3.502919485011236e-05
1419,0.0,299.64135,2921.7363,-0.014189985740012623,0.0,0.0,0.0,0.0,-0.0021655924562776485,-0.4348767496239936,-0.2015274807442138,-0.25173063894387976,-0.006094867652341604,-0.014319207856695786,0.0023959220672090976
1420,0.0,299.79155,2889.2968,-0.014199995414709954,0.0,0.0,0.0,0.0,-0.0021671200741633645,-0.4447090246193635,-0.20187190471820582,-0.23169316225383477,0.00986864408783434,0.01026513949109039,-0.024315827965285374
1421,0.0,299.75043,2921.8773,-0.014210005089407285,0.0,0.0,0.0,0.0,-0.0021686476920490805,-0.4193525219268716,-0.2017171510304328,-0.2671080669665138,0.021813523756827182,0.003574495573400246,-0.02027944284042518
1422,0.0,299.90294,3081.3226,-0.01422001476410506,0.0,0.0,0.0,0.0,-0.002170175309934852,-0.47004618436744655,-0.2094134644174998,-0.2571855012547328,0.0052128287793411455,-0.0007741924536343464,-0.024158940372801776
1423,0.0,299.73559,3104.6914,-0.014229991403572284,0.0,0.0,0.0,0.0,-0.002171697886177354,-0.4300263011302916,-0.2077079314516768,-0.3060144187412717,-0.0009948959255685831,-0.0014295936541649085,-0.008409991636701553
1424,0.0,300.11097,2880.1941,-0.014240001078269837,0.0,0.0,0.0,0.0,-0.0021732255040630977,-0.44786406251574157,-0.19264790402286783,-0.2349951214147128,0.004516020839896556,0.013898942112718788,-0.014485215713329487
1425,0.0,300.15193999999997,2806.2345,-0.014250010752967168,0.0,0.0,0.0,0.0,-0.002174753121948786,-0.4103560870714926,-0.18993878736299882,-0.2527303418900428,-0.009288728732926152,-0.011438994798190888,0.002990863211825217
1426,0.0,300.34488999999996,2909.8721,-0.014259987392434836,0.0,0.0,0.0,0.0,-0.0021762756981913434,-0.4355594876738746,-0.18965303056979682,-0.25931594064999075,-0.005930868868006183,-0.01308041335068629,-0.0016985322182320782
1427,0.0,299.96693,3081.619,-0.014269997067132167,0.0,0.0,0.0,0.0,-0.0021778033160770593,-0.4064585800318386,-0.24100858850569576,-0.2892680391710327,0.0022802165051648477,-0.012715243080896789,-0.004323880351258766
1428,0.0,299.80477,3123.86,-0.01428000674182972,0.0,0.0,0.0,0.0,-0.002179330933962803,-0.44923333830337864,-0.22865153744114977,-0.27169056147127074,0.005462086074790926,0.014043826744517787,-0.007527501462106554
1429,0.0,299.62607,3019.1136,-0.014290016416527274,0.0,0.0,0.0,0.0,-0.002180858551848547,-0.4136003112416726,-0.22926222327641982,-0.2748726328803167,-0.0009977112409714332,0.015281845100950684,-0.01216388810523229
1430,0.0,300.53881,2965.3822,-0.014299993055994609,0.0,0.0,0.0,0.0,-0.0021823811280910765,-0.4453325989959056,-0.22473236711435782,-0.2313371669637008,-0.021898253756689377,0.020090199132498283,-0.028059935019299972
1431,0.0,300.41942,3115.6619,-0.01431000273069205,0.0,0.0,0.0,0.0,-0.0021839087459767925,-0.4545957618076086,-0.21306994965586679,-0.2794177080588807,-0.016160453514412587,-0.0017983564021839583,-0.008914727076590061
1432,0.0,300.19891,3075.5396,-0.014320012405389382,0.0,0.0,0.0,0.0,-0.0021854363638624807,-0.4575531146094765,-0.2242504552342968,-0.2530836621999128,-0.0072227631508062235,0.011947639255640187,-0.04853929210445516
1433,0.0,299.82042,2804.8307,-0.014329989044856939,0.0,0.0,0.0,0.0,-0.0021869589401050382,-0.40313831144165363,-0.1956908460606828,-0.2537693386750838,-0.008660517014651483,-0.015669977644506384,-0.00996868004105712
1434,0.0,299.94374,2796.9719,-0.01433999871955427,0.0,0.0,0.0,0.0,-0.002188486557990754,-0.4243078519384246,-0.18130212722062683,-0.24459964818510577,0.004410537046186116,-0.012185673995632388,-0.01051692808793999
1435,0.0,300.08873,3041.2911,-0.014350008394251823,0.0,0.0,0.0,0.0,-0.002190014175876498,-0.43527660851095656,-0.21084136685592278,-0.27835855772935075,0.006691387541938534,-0.01076168574234569,0.01024045874515459
1436,0.0,299.99235,3168.2917,-0.01435998503371927,0.0,0.0,0.0,0.0,-0.0021915367521190277,-0.48702486165561154,-0.2129275778843158,-0.26312913514882375,0.01123912412321519,0.0043067364635417955,0.006894986470657182
1437,0.0,300.13506,3220.0093,-0.014369994708416822,0.0,0.0,0.0,0.0,-0.0021930643700047714,-0.4605675741869805,-0.22660807543447578,-0.29162677394632175,0.024594395749027876,-0.01723254507421978,0.0016549309518539682
1438,0.0,300.39037,3183.8929,-0.014380004383114153,0.0,0.0,0.0,0.0,-0.0021945919878904596,-0.4662662852668995,-0.23266215358946676,-0.26889551107042076,-0.010413580630740391,-0.002379500829463448,-0.0012612500534006888
1439,0.0,300.63066000000003,3013.425,-0.014390014057811706,0.0,0.0,0.0,0.0,-0.0021961196057762034,-0.43462663896930953,-0.2010252430671468,-0.28035407274129276,0.016244117575169588,-0.0038479513077382265,-0.0027975821075498573
1440,0.0,300.78097,2976.8374,-0.014399990697279152,0.0,0.0,0.0,0.0,-0.002197642182018733,-0.4309035528018696,-0.22998798392554679,-0.24399269111020375,-0.02292050861032808,0.015336066140301885,-0.011680495866775189
1441,0.0,300.46237,2929.4454,-0.014410000371976706,0.0,0.0,0.0,0.0,-0.002199169799904477,-0.43048205089277064,-0.19177835305204982,-0.26821784940354076,-0.0017356624641715482,0.005383397882625005,-0.02202284197573528
1442,0.0,300.69703,2797.952,-0.014420010046674037,0.0,0.0,0.0,0.0,-0.002200697417790193,-0.44770882246792054,-0.18517473870532383,-0.2176239819653148,-0.03403978551171527,0.0007428578665443634,-0.01024379233798359
1443,0.0,300.22614,2667.9582,-0.014429986686141594,0.0,0.0,0.0,0.0,-0.0022022199940327503,-0.39430565833243864,-0.19827040856276582,-0.21841659685603979,-0.005191638781324855,0.0046897289919902154,-0.04487958371752005
1444,0.0,300.04827,2923.6487,-0.014439996360839036,0.0,0.0,0.0,0.0,-0.0022037476119184662,-0.4292565147643196,-0.2001710225703418,-0.2592886639572987,0.008259309390480371,0.006071868597596774,-0.017117078132574085
1445,0.0,300.59352,3213.303,-0.014450006035536367,0.0,0.0,0.0,0.0,-0.0022052752298041545,-0.4505990778481666,-0.24557286477365475,-0.28059192306976677,0.026178859513402274,-0.0064071726114137036,-0.023460633735134274
1446,0.0,300.61656,3136.2958,-0.01446001571023392,0.0,0.0,0.0,0.0,-0.002206802847689898,-0.44962690490722057,-0.22157484675523476,-0.28215387849641976,0.00794669701132793,-0.00988765792861086,0.006720440462055833
1447,0.0,299.79444,3014.2311,-0.014469992349701255,0.0,0.0,0.0,0.0,-0.002208325423932428,-0.45173152668993055,-0.2122427728042308,-0.25227667942276977,0.002071188177110358,-0.015528316161275486,0.0005420568557243465
1448,0.0,300.1112,3099.9763,-0.014480002024398808,0.0,0.0,0.0,0.0,-0.0022098530418181717,-0.4669626717956275,-0.23239852617844878,-0.24295418068521077,-0.002249949002152678,0.007576076975875583,0.010051372496293232
1449,0.0,299.74192999999997,3058.6422,-0.01449001169909625,0.0,0.0,0.0,0.0,-0.0022113806597038876,-0.43840009379922057,-0.2243372806353658,-0.2670134699371777,-0.008435880480731581,-0.015309769260456586,-0.01969840571633128
1450,0.0,300.01881000000003,3053.1836,-0.014499988338563807,0.0,0.0,0.0,0.0,-0.002212903235946445,-0.43882845541149657,-0.22654289305554276,-0.2627202380709687,-0.003332543304546416,0.005073766485266765,-0.012892342986375187
1451,0.0,300.29200000000003,3005.5959,-0.014509998013261138,0.0,0.0,0.0,0.0,-0.002214430853832161,-0.4364422615584976,-0.20987560778810982,-0.2673082345237688,0.0007793753494858582,-0.0007556723797640573,-0.015794770540072486
1452,0.0,300.43883999999997,2822.8984,-0.014520007687958691,0.0,0.0,0.0,0.0,-0.002215958471717877,-0.4173893903881256,-0.1959095662272688,-0.24479167934405777,0.012920362391390487,0.023315746063584976,-0.013569210265176788
1453,0.0,299.91659,2828.8703,-0.014529984327426138,0.0,0.0,0.0,0.0,-0.0022174810479604345,-0.4304420477788226,-0.18799222246338781,-0.2414716539338968,0.0038840885685796967,0.01083421013150329,-0.015806401637970386
1454,0.0,300.41331,3230.1979,-0.01453999400212369,0.0,0.0,0.0,0.0,-0.0022190086658461505,-0.4788425631230816,-0.2239906680411578,-0.27906628252669774,-0.005705780728516714,0.0021414672040463577,-0.008612004626363681
1455,0.0,300.46095,3244.2504,-0.014550003676821022,0.0,0.0,0.0,0.0,-0.0022205362837318665,-0.45823738266700853,-0.2316300063751018,-0.29630372362540075,0.0042990346482066856,-0.004336625213666586,-0.018186534228871183
1456,0.0,300.1782,3021.8617,-0.014560013351518353,0.0,0.0,0.0,0.0,-0.0022220639016175825,-0.43218687458352356,-0.23409614566099077,-0.2522874806688358,-0.0005768263302558265,-0.005034623012703605,-0.02090931456633868
1457,0.0,300.21893,3170.5986,-0.014569989990986021,0.0,0.0,0.0,0.0,-0.00222358647786014,-0.4376002747002846,-0.2305573696867408,-0.2956251601659317,0.017056482736843785,-0.02864693714673257,0.0012663336304773987
1458,0.0,300.50151,3194.1724,-0.014579999665683352,0.0,0.0,0.0,0.0,-0.002225114095745856,-0.46186710797023456,-0.2301930049507808,-0.2788885483266567,0.002957817681013877,-0.02175205899251108,0.006996680506343603
1459,0.0,300.26808,3024.2257,-0.014590009340380905,0.0,0.0,0.0,0.0,-0.002226641713631572,-0.45445994576420456,-0.2217088085509558,-0.24312033343660874,0.01146115153812759,-0.003018602047887827,0.0016495227294452185
1460,0.0,299.59226,2965.6078,-0.014599985979848351,0.0,0.0,0.0,0.0,-0.0022281642898741294,-0.4465158724626856,-0.2058987835306278,-0.24905606397991978,0.014661587091985987,0.013627852114714288,-0.013429916747429589
1461,0.0,299.88135,2910.3372,-0.014609995654545793,0.0,0.0,0.0,0.0,-0.0022296919077598454,-0.4164207334250266,-0.22496885968769778,-0.24328025469989176,-0.00995659936408985,0.006155678870343204,-0.037787918208377166
1462,0.0,299.88494,2866.9135,-0.014620005329243235,0.0,0.0,0.0,0.0,-0.0022312195256455614,-0.4250580217824606,-0.2020867441369088,-0.2443253613830358,-0.005801780501291155,0.008004410217148783,-0.04423288190744556
1463,0.0,300.3349,3072.8888,-0.014630015003940788,0.0,0.0,0.0,0.0,-0.002232747143531305,-0.43484035368040164,-0.21919257418012278,-0.2800485170411367,-0.024482470116481678,0.0024095952693585377,-0.02953393324452227
1464,0.0,300.2387,3030.2452,-0.014639991643408123,0.0,0.0,0.0,0.0,-0.002234269719773835,-0.46091538241630653,-0.20197990704636481,-0.2582235962471848,-0.00900904921117393,0.016038436924120485,-0.011339849289155988
1465,0.0,300.42516,2877.0985,-0.014650001318105677,0.0,0.0,0.0,0.0,-0.0022357973376595786,-0.4345065283024556,-0.18128550991898681,-0.25877406462901176,-0.025732786289378272,-0.012969653969005186,0.0065876952757299035
1466,0.0,300.18939,3052.3509,-0.014660010992803008,0.0,0.0,0.0,0.0,-0.0022373249555452668,-0.4427929484152616,-0.2226266104915358,-0.26241888735872776,-0.002434440161810538,-0.0050915364602205256,-0.000827983378450597
1467,0.0,299.89171,3448.6542,-0.014669987632270676,0.0,0.0,0.0,0.0,-0.002238847531787852,-0.47631735135636255,-0.25179574026280477,-0.3201916824179587,0.004821947288264145,0.0038213131652592466,0.014142090725965688
1468,0.0,299.65898,3358.1486,-0.014679997306968007,0.0,0.0,0.0,0.0,-0.0022403751496735402,-0.47760735045617553,-0.24381883765804577,-0.29936713331523573,0.022224326758120277,-0.0045660977876637665,-0.018284970462836083
1469,0.0,299.8419,2963.0893,-0.014690006981665338,0.0,0.0,0.0,0.0,-0.002241902767559256,-0.4210736792092366,-0.2201961477416678,-0.25943531164427175,0.016037197719248185,-0.005134474250433155,-0.0031543281146829472
1470,0.0,299.40781,2798.4657,-0.014699983621133006,0.0,0.0,0.0,0.0,-0.0022434253438018137,-0.4277784665784476,-0.19660898237379582,-0.22627623602672578,0.005535068858293765,-0.013341066872660786,-0.007928956420627072
1471,0.0,299.99732,2853.0995,-0.014709993295830337,0.0,0.0,0.0,0.0,-0.0022449529616875297,-0.44308633498171657,-0.17811880951395784,-0.24606585147730878,0.006444829038130104,-0.0007218399791900593,-0.006276208718763573
1472,0.0,300.36671,2969.2145,-0.01472000297052789,0.0,0.0,0.0,0.0,-0.0022464805795732734,-0.4485187031403496,-0.2000941574177558,-0.25395421628832976,-0.025083449015793676,0.00926558934304247,-0.030302420623866073
1473,0.0,300.49486,2938.6595,-0.014730012645225221,0.0,0.0,0.0,0.0,-0.0022480081974589616,-0.4296210922828006,-0.2056275668763608,-0.25803046064562374,-0.024614266596738977,0.0017956409932409682,-0.01995165845957538
1474,0.0,300.65763,2899.8356,-0.014739989284692778,0.0,0.0,0.0,0.0,-0.002249530773701547,-0.4165559921808756,-0.20147247139628482,-0.26344916006040775,-0.027165347651761075,0.007302769074727192,-0.024464797008237477
1475,0.0,300.94795,3098.5229999999997,-0.01474999895939022,0.0,0.0,0.0,0.0,-0.002251058391587235,-0.4405519229040896,-0.2304318077343488,-0.27088989124225077,-0.01692376622549568,0.030097471539389173,-0.024805248028587377
1476,0.0,299.98624,3392.2029,-0.014760008634087773,0.0,0.0,0.0,0.0,-0.002252586009472979,-0.4984095168641895,-0.23023535880496077,-0.30250011275693667,0.012242978355037886,0.01893421147766118,0.01008694061455353
1477,0.0,300.16506,3382.4169,-0.014769985273555108,0.0,0.0,0.0,0.0,-0.0022541085857155085,-0.4967072566961896,-0.24603376184664177,-0.28542926010717473,-0.007369128242326333,-0.009296350704153382,0.0017527405919570283
1478,0.0,299.58647,2887.1988,-0.014779994948252662,0.0,0.0,0.0,0.0,-0.0022556362036012523,-0.4242049462582686,-0.2015422843281748,-0.25188912139202074,0.009162443725262792,-0.017105052880387283,0.013578397403833488
1479,0.0,299.37714,2800.7366,-0.014790004622949993,0.0,0.0,0.0,0.0,-0.0022571638214869683,-0.4006436896954536,-0.21715664062169177,-0.23355368195495377,-0.001217907368448099,-0.005322366080076635,-0.019309262962425883
1480,0.0,299.17905,3087.5681,-0.014800014297647435,0.0,0.0,0.0,0.0,-0.0022586914393726565,-0.4428004667310036,-0.2141781311577358,-0.2815650180683037,8.753120170440701e-05,0.005022171384874725,-0.006507399663605343
1481,0.0,299.83497,3041.8914,-0.014809990937114992,0.0,0.0,0.0,0.0,-0.0022602140156152417,-0.45581719427315454,-0.2035944602857088,-0.26524737501287776,-0.014372371062942589,0.0034949492597246366,-0.024096440066883478
1482,0.0,300.00437999999997,2893.1234,-0.014820000611812323,0.0,0.0,0.0,0.0,-0.00226174163350093,-0.4351721626906486,-0.2009683085440278,-0.24329681120652577,0.0009138335364308482,-0.008272784907535302,-0.009334339882202622
1483,0.0,300.39205,2991.7033,-0.014830010286509876,0.0,0.0,0.0,0.0,-0.0022632692513866737,-0.4590828284179475,-0.1999428285153208,-0.2503774333028288,0.007712007313890863,0.015563714053518985,-0.012124871896881688
1484,0.0,299.96595,3173.1472,-0.014839986925977322,0.0,0.0,0.0,0.0,-0.0022647918276292034,-0.46080530292544253,-0.2247526625138608,-0.2789995600076127,-0.003560260524070357,0.01030726029774739,-0.014851965640024884
1485,0.0,299.86635,3388.6686,-0.014849996600674875,0.0,0.0,0.0,0.0,-0.002266319445514947,-0.4852188142798685,-0.24308968262108377,-0.3017621525766057,-0.00033253086988324165,0.0013591397402616487,-0.01604209880998188
1486,0.0,300.05564,3458.4148,-0.014860006275372206,0.0,0.0,0.0,0.0,-0.002267847063400663,-0.47038992946387154,-0.25891706461562475,-0.3219647383704457,-0.0013367883549807386,-0.012707413697374088,0.0004098339694274636
1487,0.0,300.46103999999997,2985.6467,-0.01487001595006976,0.0,0.0,0.0,0.0,-0.002269374681286379,-0.4549375006688356,-0.20905462189458482,-0.24356992263847976,0.003088868105222547,-0.00014582879850718184,0.0100698589403927
1488,0.0,300.72539,2806.0158,-0.014879992589537205,0.0,0.0,0.0,0.0,-0.0022708972575289366,-0.41934007921564365,-0.19999827356079283,-0.2336203740765358,0.00933403144887218,-0.014638168855674786,-0.0026836587511064975
1489,0.0,300.50275,3053.9225,-0.014890002264234758,0.0,0.0,0.0,0.0,-0.0022724248754146525,-0.47268204304508554,-0.2081681800445998,-0.24746595033298777,-0.008679241268549421,-0.018480466937130083,0.003445548251099137
1490,0.0,299.77896,3127.7525,-0.01490001193893209,0.0,0.0,0.0,0.0,-0.0022739524933003685,-0.4541963487506896,-0.2195786326007238,-0.27698366853615974,0.01090869921260479,-0.015133852831094986,-0.02028269537324618
1491,0.0,299.93579,2961.0928,-0.014909988578399536,0.0,0.0,0.0,0.0,-0.0022754750695428982,-0.4215436347381176,-0.22841933091573277,-0.25013529692643177,0.007031026442333285,0.0019456560142712982,-0.04193182436759886
1492,0.0,299.64431,2925.1258,-0.014919998253097089,0.0,0.0,0.0,0.0,-0.002277002687428642,-0.4125498849955036,-0.21769549715737277,-0.25891981052339574,0.015262577137049085,0.00975743614033397,-0.03675064293525606
1493,0.0,299.50547,3141.2149,-0.01493000792779442,0.0,0.0,0.0,0.0,-0.002278530305314358,-0.4645989214323436,-0.2290778826857268,-0.2611741096108777,-0.005185878251856336,0.004227743080445756,-0.02030629903432568
1494,0.0,299.78278,3212.2438,-0.014939984567261755,0.0,0.0,0.0,0.0,-0.0022800528815568877,-0.4832964052626415,-0.20978521574668882,-0.2833602743304817,-0.004930473466724845,0.003165780069963167,-0.009619963939641521
1495,0.0,300.09233,3122.9268,-0.014949994241959308,0.0,0.0,0.0,0.0,-0.0022815804994426314,-0.4664988261648495,-0.2150536501716428,-0.26773929138131075,-0.016765632335389084,0.007994542883699952,-0.003165972080857117
1496,0.0,300.1193,3076.8004,-0.014960003916656861,0.0,0.0,0.0,0.0,-0.0022831081173283474,-0.4581377497846756,-0.2096154456924338,-0.26751730854940275,-0.009103602569430621,-0.005133367578673935,0.0022292108123559778
1497,0.0,300.46921000000003,3137.9984,-0.014970013591354303,0.0,0.0,0.0,0.0,-0.0022846357352140634,-0.4547122653041066,-0.2087183748488998,-0.29044251762694473,-0.016344368540063586,-0.006688866474364723,-0.005897405979478654
1498,0.0,299.62915,3242.8662,-0.014979990230821638,0.0,0.0,0.0,0.0,-0.002286158311456593,-0.4625168951268635,-0.24293184865300674,-0.28030161678361576,0.005452290479449175,-0.0012761351026697287,-0.00037226914052010363
1499,0.0,299.8277,3396.4495,-0.014989999905519191,0.0,0.0,0.0,0.0,-0.002287685929342337,-0.4944947845728355,-0.22982476959943882,-0.30811628448370965,0.014697407509521187,0.01653742916111718,0.010153736695595791
1500,0.0,299.65195,3150.5263,-0.015000009580216744,0.0,0.0,0.0,0.0,-0.0022892135472280806,-0.46263831288634655,-0.23225758308953878,-0.2627854407149038,0.024703016159747876,-0.01004663737592591,0.0007327344138677562
1501,0.0,299.84307,2845.2095,-0.015009986219683968,0.0,0.0,0.0,0.0,-0.0022907361234705825,-0.4268244105492896,-0.2086171714289118,-0.2294310611405828,0.012490452532961688,-0.015115812926314587,-0.014659930428072487
1502,0.0,300.0055,3045.1186,-0.015019995894381521,0.0,0.0,0.0,0.0,-0.0022922637413563263,-0.4465917750276766,-0.21053805043848783,-0.26851021258739477,0.005906046165731375,-0.00964371290078536,-0.024489931690218077
1503,0.0,299.84407999999996,3192.5690000000004,-0.015030005569079075,0.0,0.0,0.0,0.0,-0.0022937913592420422,-0.45820940683174755,-0.23277821125592077,-0.27947363946440074,-0.00894649662155047,-0.001028493637154419,-0.035265636760947364
1504,0.0,299.61027,2971.8059,-0.015040015243776406,0.0,0.0,0.0,0.0,-0.0022953189771277582,-0.42211130810664266,-0.2102230411148988,-0.27102043838513473,-0.015079535532984285,0.00986040879632158,-0.034440442839757064
1505,0.0,300.41983999999997,2873.2070000000003,-0.015049991883243852,0.0,0.0,0.0,0.0,-0.002296841553370288,-0.4361621080383486,-0.18128983649691383,-0.25593123948594676,-0.022286536261259877,-0.007928558415987793,-0.0014736210935350786
1506,0.0,299.9537,2968.2222,-0.015060001557941405,0.0,0.0,0.0,0.0,-0.0022983691712560317,-0.4399518559298676,-0.19933094704493282,-0.26298263944936573,-0.0063174700866857544,0.008840730840337202,0.0014649994497591887
1507,0.0,299.52772999999996,3126.1488,-0.015070011232638958,0.0,0.0,0.0,0.0,-0.0022998967891417754,-0.4657762065910325,-0.2172347622044018,-0.26726018620402675,-0.001980611622846148,0.030277297087636573,0.006573186344897983
1508,0.0,299.27996,3364.3303,-0.015079987872106182,0.0,0.0,0.0,0.0,-0.0023014193653842774,-0.46785714871890555,-0.25694719496371377,-0.29786806018978873,0.007425593833299053,-0.004104419701499686,-0.02156662713146038
1509,0.0,299.3384,3334.199,-0.015089997546803735,0.0,0.0,0.0,0.0,-0.002302946983270021,-0.4765022391021095,-0.24608749449944478,-0.29092349731691375,8.322400421206973e-05,-0.014420702079462486,-0.011836498891921489
1510,0.0,300.4183,3017.6083,-0.015100007221501288,0.0,0.0,0.0,0.0,-0.002304474601155737,-0.44004346387140864,-0.2068735503918298,-0.27036054912500873,-0.0015836932889983584,-0.007616129941728503,-0.01889893010917918
1511,0.0,300.75981,2982.1954,-0.015109983860968623,0.0,0.0,0.0,0.0,-0.002305997177398267,-0.4516887270057066,-0.21240932072316782,-0.24241489858448778,0.00921414258246507,-0.007253110295276253,0.0002332486734098518
1512,0.0,300.31647999999996,3129.1904,-0.015119993535666065,0.0,0.0,0.0,0.0,-0.002307524795283983,-0.46393913349722754,-0.20006596879997382,-0.28719063328600875,-0.01213374695450759,-0.005368495304129235,0.006635708131718405
1513,0.0,300.51183,3136.5836,-0.01513000321036373,0.0,0.0,0.0,0.0,-0.0023090524131697543,-0.4763546896225475,-0.2067373797108908,-0.2703510144415678,0.006589488221781853,-0.0047123949914271756,-0.0029976361807936567
1514,0.0,300.28821,2940.6016,-0.01514001288506106,0.0,0.0,0.0,0.0,-0.0023105800310554703,-0.4251208736861636,-0.2100682570296228,-0.2586803187297598,0.004154588044425916,-0.002158377132315238,-0.02433030933571458
1515,0.0,299.60911,3025.7074,-0.015149989524528507,0.0,0.0,0.0,0.0,-0.002312102607298,-0.4600163965300835,-0.19152911379245183,-0.2681939974961867,-0.0037637897411821265,0.014597938773704385,-0.021990387575032275
1516,0.0,299.04315,3324.2251,-0.015159999199225838,0.0,0.0,0.0,0.0,-0.002313630225183716,-0.4703234602573116,-0.25130376680925076,-0.2888542075651907,-0.008397867491304991,0.0018500434043600684,-0.023238265868188276
1517,0.0,299.03557,3318.7003,-0.01517000887392339,0.0,0.0,0.0,0.0,-0.002315157843069432,-0.5047054071555456,-0.22053914303301878,-0.2835574831974447,-0.012286809527863688,-0.012533726418232489,-0.006310720726444644
1518,0.0,299.50497,3242.7881,-0.015179985513390837,0.0,0.0,0.0,0.0,-0.0023166804193119617,-0.45520769394050153,-0.24009396817042974,-0.2904249276052087,-0.0025055940288828777,0.018414979569916983,0.004337580505860866
1519,0.0,300.38944,3060.2642,-0.015189995188088168,0.0,0.0,0.0,0.0,-0.0023182080371976777,-0.4675892352599646,-0.22236103764032578,-0.24029362910263477,-0.014001483022838788,-0.0012346049194960189,-0.004404785838618515
1520,0.0,300.30912,2961.2723,-0.015200004862785943,0.0,0.0,0.0,0.0,-0.002319735655083449,-0.42400071556811264,-0.2102088860110018,-0.26594324478405473,-0.005609879950277045,-0.014104449498000788,-0.017399784029724984
1521,0.0,300.1704,3158.191,-0.015210014537483274,0.0,0.0,0.0,0.0,-0.002321263272969165,-0.4796594453537016,-0.23442942388388277,-0.24592233473314476,-0.009552249651358641,-0.020892689158697877,-0.03657303843122787
1522,0.0,300.07437000000004,3187.5335,-0.01521999117695072,0.0,0.0,0.0,0.0,-0.002322785849211695,-0.4617832311269566,-0.2174506452707078,-0.28969671489083976,0.022880609861140377,-0.007224526509955254,-0.02113311314242588
1523,0.0,299.56945,2881.4618,-0.015230000851648051,0.0,0.0,0.0,0.0,-0.002324313467097383,-0.4542496051759456,-0.2048764344447298,-0.2167664076106788,0.023300956665125376,-0.0038890231978917066,-0.024471318285881078
1524,0.0,299.33659,2823.8253,-0.015240010526345826,0.0,0.0,0.0,0.0,-0.0023258410849831546,-0.4006492119084986,-0.2121102599561528,-0.24561292868260878,-0.007033004205203473,0.006061450360068574,-0.026313508292691076
1525,0.0,299.67312999999996,3229.7401,-0.01524998716581305,0.0,0.0,0.0,0.0,-0.0023273636612256565,-0.4842806764097815,-0.2150110126074348,-0.2824686547724857,-0.012185576723622788,0.013950649278571885,-0.0027366627757625874
1526,0.0,300.03163,3442.0255,-0.015259996840510492,0.0,0.0,0.0,0.0,-0.0023288912791114003,-0.46890218447454257,-0.2667648487601407,-0.3106227815210817,-0.013641309089292385,0.03192027807178618,-0.02050788919472108
1527,0.0,300.0861,3287.0937,-0.015270006515208046,0.0,0.0,0.0,0.0,-0.002330418896997144,-0.4911688316495895,-0.23246167192468078,-0.27556389236353873,-0.013172705236044788,0.024847875460294374,-0.013037713978222185
1528,0.0,300.44686,3232.3564,-0.015280016189905488,0.0,0.0,0.0,0.0,-0.00233194651488286,-0.47104888653390553,-0.21196122099894382,-0.29954552612784174,-0.013849931205381789,-0.017256344292568584,-0.007437736419847432
1529,0.0,300.98829,3195.8876,-0.015289992829372823,0.0,0.0,0.0,0.0,-0.0023334690911253897,-0.4884243728262326,-0.22224972198433976,-0.26079592414355374,-0.005141585543609985,-0.024222012151776478,-0.00019608148437173583
1530,0.0,300.36197000000004,3199.3217,-0.015300002504070265,0.0,0.0,0.0,0.0,-0.002334996709011078,-0.4570078847306666,-0.21072687972712378,-0.3047791452793597,0.015671855196941687,-0.00972263454577432,0.012951130743927088
1531,0.0,300.17287000000005,3320.355,-0.015310012178767929,0.0,0.0,0.0,0.0,-0.0023365243268968494,-0.49253355794427756,-0.2277065297353848,-0.2890649433209887,0.014010239530202986,0.005117948951902236,0.012233755752627688
1532,0.0,299.76758,3151.1191,-0.015319988818235153,0.0,0.0,0.0,0.0,-0.0023380469031393514,-0.4472324328009046,-0.22506513871219977,-0.28556395144296776,-0.0019961519409548577,0.008752480404327561,-0.007912936531246032
1533,0.0,299.36073999999996,2871.3914,-0.015329998492932706,0.0,0.0,0.0,0.0,-0.002339574521025095,-0.45204339493820955,-0.19082048720251582,-0.2299674149485168,-0.011101261314609189,0.0018543737313124382,-0.026554613180486273
1534,0.0,300.08035,3128.3427,-0.015340008167630259,0.0,0.0,0.0,0.0,-0.002341102138910839,-0.44366950094427055,-0.23538984312366878,-0.27187872201484076,-0.005879487664710255,0.026792347998448877,-0.03216910797834377
1535,0.0,300.02038999999996,3387.0459,-0.015349984807097705,0.0,0.0,0.0,0.0,-0.0023426247151533686,-0.5105443115193005,-0.22710114319813776,-0.2919319142139367,0.0006245974653004704,-0.0048935628934070555,-0.02318015800145348
1536,0.0,299.93748999999997,3217.9678,-0.015359994481795036,0.0,0.0,0.0,0.0,-0.0023441523330390845,-0.4544655490372576,-0.2253158877144468,-0.2984004319248297,0.004952576099106205,-0.012346030956458387,-0.010739449968901188
1537,0.0,300.17277,3101.6047,-0.01537000415649259,0.0,0.0,0.0,0.0,-0.0023456799509248005,-0.4633581054923846,-0.2232061996812368,-0.25624607655701875,0.0045306983755451155,-0.009812917257509532,0.00014198388928021887
1538,0.0,300.615,3241.3759,-0.015380013831190142,0.0,0.0,0.0,0.0,-0.0023472075688105443,-0.46004468647287555,-0.2174811137012148,-0.3077715261371847,0.014069526820054188,0.006979136688812164,0.0009610425000550102
1539,0.0,299.88377,3342.4987,-0.015389990470657589,0.0,0.0,0.0,0.0,-0.002348730145053074,-0.4946806653036805,-0.25019987135530475,-0.27115559581597376,0.005378736729514985,0.01083536219686699,-0.008570833539025411
1540,0.0,300.09927000000005,3209.0551,-0.01540000014535492,0.0,0.0,0.0,0.0,-0.00235025776293879,-0.45653056287355853,-0.22865985622447077,-0.2902822113286237,0.0031232302532138274,-0.005843576257316074,-0.023975551223952677
1541,0.0,299.70682,3159.3252,-0.015410009820052473,0.0,0.0,0.0,0.0,-0.0023517853808245337,-0.4775853527965045,-0.2253835018936198,-0.25738712789213175,0.008386193532927862,-0.013883611638705787,-0.00879469392336871
1542,0.0,300.34451,3052.2296,-0.015419986459519808,0.0,0.0,0.0,0.0,-0.0023533079570670634,-0.4206237252373296,-0.2339019765443278,-0.2732758925777307,-0.005554369043548545,-0.003899541848504816,-0.019762306333887782
1543,0.0,300.06945,3088.9379,-0.01542999613421725,0.0,0.0,0.0,0.0,-0.0023548355749527794,-0.4760241877049295,-0.2059224429204628,-0.25701336019524373,0.0007622112676943952,-0.02053458124210538,0.0009780997346234281
1544,0.0,299.79554,3345.1297,-0.015440005808914803,0.0,0.0,0.0,0.0,-0.0023563631928384954,-0.46821094525632256,-0.24282605521006578,-0.3057989207100037,-0.01213777968990559,-0.01198475562005329,-0.015722020196142588
1545,0.0,299.96198,3338.2883,-0.015450015483612245,0.0,0.0,0.0,0.0,-0.002357890810724239,-0.5126239972170495,-0.23009419280102877,-0.2720380961230698,0.01149612589182929,0.004672761004490605,-0.0063808348975893745
1546,0.0,299.77491000000003,3168.9388,-0.015459992123079691,0.0,0.0,0.0,0.0,-0.002359413386966769,-0.45584424805082463,-0.21617004913182278,-0.2912639797480167,0.024084770465481777,0.012341474370758687,-0.02048123767734078
1547,0.0,300.10875,3326.6443,-0.015470001797777022,0.0,0.0,0.0,0.0,-0.002360941004852485,-0.49982949568683055,-0.23934064711858277,-0.27204665808641476,0.0055513249362731144,0.004532475514895506,-0.004373281359884266
1548,0.0,300.82695,3463.2116,-0.015480011472474575,0.0,0.0,0.0,0.0,-0.0023624686227382286,-0.4829685479277846,-0.23978590974252678,-0.3299753923360357,-0.005674640715843434,-0.007477726665519164,0.002172245486433938
1549,0.0,300.66261000000003,3226.1462,-0.015489988111942021,0.0,0.0,0.0,0.0,-0.0023639911989807583,-0.4942502670587035,-0.2122235311848318,-0.27419408968584974,0.0016918325072458685,-0.018195981772803585,0.011709861881173388
1550,0.0,300.43316,3091.864,-0.015499997786639574,0.0,0.0,0.0,0.0,-0.002365518816866502,-0.4414261348253676,-0.2233243851729008,-0.2750989422901517,-0.00956088649388603,0.010049275777861301,-0.013704747664803289
1551,0.0,300.55075,3191.4427,-0.015510007461336905,0.0,0.0,0.0,0.0,-0.0023670464347521902,-0.49161839045395755,-0.2099909764444958,-0.26850952357732677,-0.0005153559727991745,-0.00968022921848924,-0.006562716228964664
1552,0.0,300.01027999999997,3251.8381,-0.015519984100804574,0.0,0.0,0.0,0.0,-0.0023685690109947755,-0.45093228514355155,-0.25010095788054276,-0.28744432071354575,-0.02173225907230698,0.002901133835969617,-0.034502099108342066
1553,0.0,299.61977,3318.5621,-0.015529993775501905,0.0,0.0,0.0,0.0,-0.0023700966288804637,-0.4899019650495596,-0.2372027907325928,-0.2816552581222097,0.006294045162923894,-0.003000321901508717,-0.017028567696588785
1554,0.0,299.25232,3192.1921,-0.015540003450199236,0.0,0.0,0.0,0.0,-0.0023716242467661797,-0.4469507492731045,-0.22570680973552779,-0.2976891404871307,0.019051740383260383,0.0012936732460006087,-0.01788174961204128
1555,0.0,298.76976,2944.3816,-0.015550013124896789,0.0,0.0,0.0,0.0,-0.0023731518646519234,-0.45718691589083554,-0.19509992873486381,-0.24273165069824879,0.016004779795548783,-0.0027334644518219376,-0.007342394550362924
1556,0.0,299.57996,3055.5690000000004,-0.015559989764364235,0.0,0.0,0.0,0.0,-0.002374674440894453,-0.4455110424710166,-0.2023531478532008,-0.2809524678528497,-0.005928954939892295,-0.002118650432994518,-0.02146933080385798
1557,0.0,300.03054,3358.5786,-0.015569999439061788,0.0,0.0,0.0,0.0,-0.002376202058780197,-0.5197503371578646,-0.22405627598513278,-0.2771174175493597,-0.002037251290186048,0.007705364142260233,-0.009715389807559321
1558,0.0,300.25973999999997,3310.2185,-0.015580009113759119,0.0,0.0,0.0,0.0,-0.002377729676665885,-0.4690802834446196,-0.24273477150855677,-0.2944087331558797,-0.010191725468344992,0.025755714112641076,-0.023876416860668877
1559,0.0,299.90136,3163.5593,-0.015589985753226676,0.0,0.0,0.0,0.0,-0.0023792522529084703,-0.4813139713094905,-0.20722383095139982,-0.2731052105983857,-0.014191000308292687,0.001188424931613409,-0.004180587535366866
1560,0.0,300.01549,3274.844,-0.015599995427924007,0.0,0.0,0.0,0.0,-0.0023807798707941585,-0.4599287807939365,-0.24490346109508976,-0.2906385511237917,-0.01870825163911068,-0.018100341095864583,-0.015115593051042884
1561,0.0,300.1264,3372.5558,-0.01561000510262156,0.0,0.0,0.0,0.0,-0.0023823074886799023,-0.5150104545150744,-0.21380992620389683,-0.2963523697627017,-0.006194011945476384,-0.0009795078888174022,0.011936767082067189
1562,0.0,299.9933,3324.4787,-0.015620014777319002,0.0,0.0,0.0,0.0,-0.0023838351065656183,-0.4642722192026006,-0.2486043165553358,-0.2976819869414247,0.010823520342948291,0.018275122685114182,-0.022407334924931775
1563,0.0,299.45464,3180.5802,-0.01562999141678656,0.0,0.0,0.0,0.0,-0.0023853576828081757,-0.48885144761088156,-0.2211215186604948,-0.25684399544102876,0.007040691328412133,-0.004617309980843015,-0.014859016847470787
1564,0.0,299.76504,3175.1351,-0.01564000109148389,0.0,0.0,0.0,0.0,-0.0023868853006938917,-0.4474374538261386,-0.2296115209833928,-0.2881128124670207,-0.005696687112844244,-0.009408711324967511,-0.03054403821621187
1565,0.0,300.0203,3084.7522,-0.01565001076618122,0.0,0.0,0.0,0.0,-0.00238841291857958,-0.47322898531656454,-0.21467684272445478,-0.24978182462904677,-0.002934494994187107,-0.0032887992712292164,-0.00927244580381915
1566,0.0,299.79616,3175.1962,-0.01565998740564889,0.0,0.0,0.0,0.0,-0.002389935494822165,-0.4566175503946435,-0.2207953331883028,-0.2877674664354377,-0.0017707828272126582,-0.001914326625154328,-0.014454286254026987
1567,0.0,299.86141000000003,3331.2052,-0.01566999708034622,0.0,0.0,0.0,0.0,-0.0023914631127078534,-0.5187397721706295,-0.2089073155950468,-0.28495612297297973,-0.0043746344540678056,-0.013932601267790685,0.02222780625896368
1568,0.0,300.05406,3201.6605,-0.015680006755043774,0.0,0.0,0.0,0.0,-0.002392990730593597,-0.4572434653789166,-0.2366178718473658,-0.2793634991785307,-0.008552095099626072,-0.021125295917904376,-0.016030409956828286
1569,0.0,300.30708,3313.9134,-0.015690016429741105,0.0,0.0,0.0,0.0,-0.002394518348479313,-0.49623989508756455,-0.22783193970026175,-0.2832750802620737,0.008893308286701191,0.012768836918436088,-0.011189708929088289
1570,0.0,300.03938,3539.8726,-0.015699993069208773,0.0,0.0,0.0,0.0,-0.0023960409247218706,-0.4870900744320476,-0.2699743083193898,-0.31896848689723867,-0.0025809938191742577,0.020918184557714083,-0.02986728442142147
1571,0.0,299.89652,3302.0364,-0.015710002743906104,0.0,0.0,0.0,0.0,-0.0023975685426075866,-0.4903546851942395,-0.2365585257890088,-0.27682341290034373,0.004417423904465795,0.006163802906994984,-0.014469270196505787
1572,0.0,299.05543,2896.5826,-0.015720012418603657,0.0,0.0,0.0,0.0,-0.0023990961604933025,-0.42024828567777656,-0.2048314664052918,-0.2554090306494088,-0.00959708647490869,-0.006939646684714805,-0.025517960042926578
1573,0.0,299.2176,2917.7186,-0.015729989058070992,0.0,0.0,0.0,0.0,-0.00240061873673586,-0.4555444273462345,-0.1953964563766288,-0.23597270511119275,-0.0033480168494735363,0.004980652752752155,-0.005046381678789094
1574,0.0,299.38293999999996,3033.1801,-0.015739998732768545,0.0,0.0,0.0,0.0,-0.002402146354621576,-0.44476407449729655,-0.20814932346023882,-0.26909760380286574,-0.0011406347879968888,0.0016293596604052786,-0.02372991913471068
1575,0.0,299.4945,3191.2495,-0.015750008407465987,0.0,0.0,0.0,0.0,-0.002403673972507292,-0.4847606225846485,-0.2220188225515518,-0.2632807072312827,-0.015074341612971684,-0.02101272484504448,-0.007756166171799003
1576,0.0,299.52687000000003,3399.0515,-0.015759985046933545,0.0,0.0,0.0,0.0,-0.0024051965487498495,-0.4772053333464995,-0.25401114067894776,-0.3020103177910977,-0.002752904060290477,-0.030099022825292268,-0.030844238889589367
1577,0.0,300.07431,3455.7011,-0.015769994721630876,0.0,0.0,0.0,0.0,-0.0024067241666355654,-0.5138394819045085,-0.2303098225548098,-0.30629754108421375,0.007096588790053784,-0.00951496579670401,0.012080686086520888
1578,0.0,300.047,3328.6543,-0.015780004396328207,0.0,0.0,0.0,0.0,-0.0024082517845212814,-0.47497430861381457,-0.24024063612240476,-0.2966128560984097,0.02353745734446618,0.018160708510322383,-0.0039600093720724965
1579,0.0,300.18266,3379.9243,-0.01579001407102576,0.0,0.0,0.0,0.0,-0.0024097794024069974,-0.5125592100056555,-0.2282420425457358,-0.2866113379388367,-0.001022849226147359,0.0029214370374983875,0.013295174749131588
1580,0.0,300.12731,3404.4415,-0.015799990710493206,0.0,0.0,0.0,0.0,-0.002411301978649555,-0.4888100462117956,-0.23679998328783877,-0.3092551674636087,0.007596178945934493,-0.005164196118266475,-0.016984911816030283
1581,0.0,300.26232999999996,3159.4322,-0.01581000038519076,0.0,0.0,0.0,0.0,-0.002412829596535271,-0.4853131883941826,-0.22499600465787678,-0.2500793047259058,0.0021315349212661177,0.003419060576260007,-0.02022995165254078
1582,0.0,299.76322000000005,2968.3346,-0.01582001005988809,0.0,0.0,0.0,0.0,-0.002414357214420987,-0.4343818174801476,-0.20799565395007283,-0.25992213778731776,-0.003905139042057216,0.004511199795920756,-0.03070928917502087
1583,0.0,299.82153,3119.5087,-0.015829986699355758,0.0,0.0,0.0,0.0,-0.0024158797906635443,-0.47386663373699556,-0.21545605231635678,-0.25893008487940977,-0.02015632282077418,-0.008932086381278292,-0.005839483132212114
1584,0.0,300.64237,3238.1837,-0.01583999637405309,0.0,0.0,0.0,0.0,-0.0024174074085492603,-0.4753649773223706,-0.21523389723193181,-0.29372811279870775,-0.016844504736423186,-0.010068956843828672,-0.011138764740560489
1585,0.0,300.19362,3322.0174,-0.015850006048750642,0.0,0.0,0.0,0.0,-0.002418935026435004,-0.48071505944038256,-0.2285907120376468,-0.30050456734749176,0.025021459387925774,0.022939924508744276,-0.01165780007778529
1586,0.0,299.94424,3425.6102,-0.015860015723447973,0.0,0.0,0.0,0.0,-0.0024204626443206922,-0.47950787327124256,-0.24969395558037474,-0.3120981344616877,0.01149943415340579,0.012962186315768186,-0.00966896886880293
1587,0.0,300.06647999999996,3517.123,-0.01586999236291553,0.0,0.0,0.0,0.0,-0.0024219852205632775,-0.5158744832728476,-0.2574607607768987,-0.2957823253889427,0.012187320527044888,-0.011691685187629489,-0.018762302452445083
1588,0.0,300.38227,3430.3341,-0.015880002037612972,0.0,0.0,0.0,0.0,-0.0024235128384489657,-0.4737256602505825,-0.2601922297339737,-0.30881802097296573,-0.016273763246595383,-0.011506791362381889,-0.024177729069406077
1589,0.0,300.65323,3376.0049,-0.015890011712310304,0.0,0.0,0.0,0.0,-0.0024250404563346817,-0.5066628340962286,-0.2394926751635868,-0.2800656713653297,0.006267671985346063,0.01036533574047899,-0.012527751282392788
1590,0.0,300.26916,3321.6114,-0.01589998835177786,0.0,0.0,0.0,0.0,-0.002426563032577239,-0.47965018424778755,-0.22687124688294877,-0.3031654938326047,0.004420670155136175,0.018788864803816585,0.002924293389530287
1591,0.0,300.56012999999996,3088.7396,-0.015909998026475303,0.0,0.0,0.0,0.0,-0.002428090650462955,-0.47009465825223057,-0.21219834178734578,-0.25660671253261075,-0.017058350156778083,-0.0006088909741753603,-0.023655503007616378
1592,0.0,300.44691,3218.9681,-0.015920007701172745,0.0,0.0,0.0,0.0,-0.002429618268348699,-0.45931997960385257,-0.23794568544091077,-0.2812202698542797,-0.0029680144220702166,-0.011088557184855389,-0.01155780141216619
1593,0.0,299.99195,3340.5691,-0.01592998434064019,0.0,0.0,0.0,0.0,-0.0024311408445912286,-0.5064596774511786,-0.2302033806318048,-0.27878654443908973,0.0020698846308567077,0.017333913653974086,-0.016059879322736684
1594,0.0,299.85856,3353.2707,-0.015939994015337744,0.0,0.0,0.0,0.0,-0.0024326684624769723,-0.4741267249051645,-0.24411287270456475,-0.3010709437558887,0.023483838175674378,0.006116551711106655,-0.015027776691376086
1595,0.0,299.80212,3336.9047,-0.015950003690035075,0.0,0.0,0.0,0.0,-0.0024341960803626606,-0.5101999686053165,-0.2170802314316508,-0.28705550625267273,0.007032707829549223,-0.024256618695691876,0.005744376032775775
1596,0.0,299.72244,3411.4403,-0.015960013364732628,0.0,0.0,0.0,0.0,-0.0024357236982484043,-0.49276736540485255,-0.22797112986649878,-0.3162541621318557,-0.014846038126939886,-0.004202166317446527,0.0009867390393485608
1597,0.0,300.30317,3551.7839,-0.015969990004200074,0.0,0.0,0.0,0.0,-0.002437246274490934,-0.5121849458162185,-0.24135027670441778,-0.3261184051678807,-0.009657042611150902,0.014675204160079886,0.0019757538992167282
1598,0.0,300.43242000000004,3486.6378,-0.015979999678897627,0.0,0.0,0.0,0.0,-0.0024387738923766777,-0.4874985358123595,-0.23891152556873177,-0.33344078873804367,-0.0034222561644253868,0.016333775010268087,-0.001032078212033189
1599,0.0,300.51628999999997,3328.4079,-0.01599000935359496,0.0,0.0,0.0,0.0,-0.0024403015102623937,-0.49598584288999154,-0.23992824098407378,-0.27583881751317174,-0.019451191943683183,-0.00973113267436302,-0.019443270354401382
1600,0.0,301.00304,3157.5165,-0.015999985993062404,0.0,0.0,0.0,0.0,-0.0024418240865049234,-0.4580161699051766,-0.22214423251642876,-0.27964576025888777,0.007438127027760983,-0.024768412334451977,-0.01760420318439958
1601,0.0,300.01991,3030.7894,-0.016009995667759958,0.0,0.0,0.0,0.0,-0.002443351704390667,-0.47187726915316053,-0.21769746286256678,-0.2317095769054548,0.004016138564012017,0.0026299005644009775,-0.029440766924327472
1602,0.0,299.57372999999995,3188.8262,-0.01602000534245729,0.0,0.0,0.0,0.0,-0.0024448793222763554,-0.46935499581173157,-0.2286482747758278,-0.27132025908972474,0.016011855320997085,-0.00017644807155656883,-0.01053836339380549
1603,0.0,299.75801,3383.2981,-0.01603001501715484,0.0,0.0,0.0,0.0,-0.002446406940162099,-0.5015679592809035,-0.24471783367676977,-0.28215233835626774,0.005585553436576204,-0.015390223344896784,-0.031715764684852266
1604,0.0,299.98742000000004,3255.3414,-0.016039991656622288,0.0,0.0,0.0,0.0,-0.002447929516404629,-0.4704860362358565,-0.23630267000625776,-0.28275381374812875,0.001033530604726529,0.006844846701383775,-0.009945117416606671
1605,0.0,300.02839,3314.8745,-0.01605000133131973,0.0,0.0,0.0,0.0,-0.0024494571342903726,-0.4916482509344045,-0.23970961200999677,-0.27628121263933275,-0.007913241316876112,0.01168478495444849,-0.02838404738178737
1606,0.0,299.7965,3432.8702,-0.016060011006017172,0.0,0.0,0.0,0.0,-0.0024509847521760886,-0.4926715828728995,-0.2355106731980938,-0.3153245456951097,-0.008692319591565151,0.006042728132670833,-0.0029681828242368374
1607,0.0,300.37306,3395.1487,-0.016069987645484507,0.0,0.0,0.0,0.0,-0.0024525073284186183,-0.5054764499516415,-0.23401297809278276,-0.29255099989253575,-0.024923557136763575,-0.024268835452147575,-0.0074347090311986525
1608,0.0,300.66243,3317.8861,-0.01607999732018206,0.0,0.0,0.0,0.0,-0.002454034946304362,-0.4770448953256656,-0.22608875436072276,-0.3054208770976937,0.011071542689176189,-0.013039705014668687,0.0029261876605922374
1609,0.0,299.97418,3263.4397,-0.016090006994879613,0.0,0.0,0.0,0.0,-0.002455562564190078,-0.48294239594270355,-0.2226761077589208,-0.2863856871415667,0.011499070396619888,0.02204981368014718,0.005114916497002955
1610,0.0,299.90099,3260.2888,-0.016099983634346837,0.0,0.0,0.0,0.0,-0.00245708514043258,-0.46501430331083854,-0.23844159030485276,-0.28759050230547273,0.018060360273418785,0.02274221306973168,-0.010938136154509991
1611,0.0,300.06858,3314.0586,-0.016109993309044612,0.0,0.0,0.0,0.0,-0.0024586127583183515,-0.5077057318941546,-0.22195094492735276,-0.2777343754027487,-0.0037088912428140663,-0.006858466910552983,-0.008788243370582092
1612,0.0,299.8998,3436.0964,-0.016120002983741943,0.0,0.0,0.0,0.0,-0.0024601403762040674,-0.5061452254151445,-0.25713748333249375,-0.28120479752525274,0.0016320802369237785,-0.01011452462600086,-0.018336646217936084
1613,0.0,300.00777,3343.889,-0.016130012658439274,0.0,0.0,0.0,0.0,-0.0024616679940897834,-0.5129829917274795,-0.2284177907755808,-0.2750579867211097,-0.0038637710802245165,-0.008606371665082753,-0.0010358629038067092
1614,0.0,300.99301,3330.7857,-0.01613998929790672,0.0,0.0,0.0,0.0,-0.002463190570332313,-0.4776951080473365,-0.23251250668219775,-0.3022680582190347,-0.012418249344085789,-0.007597245391664743,-0.009452917906955361
1615,0.0,300.82016,3495.9477,-0.016149998972604274,0.0,0.0,0.0,0.0,-0.002464718188218029,-0.5089577645127206,-0.25475596056245575,-0.29896710217575573,-0.011404530109289488,-0.01839327372627478,-0.009629379667520782
1616,0.0,301.10334,3475.2269,-0.016160008647301827,0.0,0.0,0.0,0.0,-0.002466245806103773,-0.4927392882445815,-0.23462925706860474,-0.3290136457386187,-0.007245177053618304,-0.003029340168472597,-0.015627425193306784
1617,0.0,300.34907999999996,3296.5493,-0.01616998528676905,0.0,0.0,0.0,0.0,-0.002467768382346275,-0.47677841054936554,-0.24332219312153078,-0.2819680686930817,0.012745823982164887,0.021970013142021478,-0.03077065058782677
1618,0.0,299.84884,3269.5672,-0.016179994961466826,0.0,0.0,0.0,0.0,-0.0024692960002320463,-0.47592207235985157,-0.22864987571098577,-0.28929484976867875,0.01107425819944419,0.018993609211773285,-0.012943461453920188
1619,0.0,299.89827,3350.829,-0.016190004636164157,0.0,0.0,0.0,0.0,-0.0024708236181177623,-0.49984836240369257,-0.23155533997523275,-0.28716463328844277,-0.008416761160619653,0.0020548707974999583,-0.02099632032592548
1620,0.0,299.89792,3304.1401,-0.01620001431086171,0.0,0.0,0.0,0.0,-0.002472351236003506,-0.4757376507091506,-0.24174189786806774,-0.28689654757698474,-0.0007083041534891774,-0.0023407724854662575,-0.004876768678299595
1621,0.0,299.17967000000004,3281.9037,-0.016209990950328934,0.0,0.0,0.0,0.0,-0.002473873812246008,-0.4933362344084955,-0.23408965072784976,-0.2701908905282648,0.014980420421452385,0.0055956607076487145,-0.02182741642894828
1622,0.0,299.93101,3278.1248,-0.016220000625026598,0.0,0.0,0.0,0.0,-0.0024754014301317795,-0.48805165890944857,-0.22455978022482478,-0.28385664528946974,0.0038516304188513264,0.004984569471013706,-0.0022214928863442777
1623,0.0,300.19325,3173.3286,-0.01623001029972404,0.0,0.0,0.0,0.0,-0.0024769290480174677,-0.48220273350220455,-0.22792608076705279,-0.25448384211559977,-0.015968866159004384,-0.012008101915607387,-0.027754016575608175
1624,0.0,299.73495,3284.248,-0.016239986939191375,0.0,0.0,0.0,0.0,-0.0024784516242599974,-0.4848335563268465,-0.2131829675720208,-0.30031287056107275,-0.015526666590112684,-0.006831974676088404,-0.000930096940208421
1625,0.0,299.74721,3534.7659999999996,-0.01624999661388893,0.0,0.0,0.0,0.0,-0.002479979242145741,-0.5268584689943825,-0.2378080962098318,-0.3098140255562637,0.000886730950503531,0.0022919271431955978,-0.013903764169944688
1626,0.0,299.28789,3516.5271,-0.01626000628858626,0.0,0.0,0.0,0.0,-0.002481506860031457,-0.4989636025488735,-0.23800591302685478,-0.3319669252750847,0.010897042783454387,-0.006700061165444555,0.0013133770087702186
1627,0.0,299.2094,3349.6466,-0.016270015963283813,0.0,0.0,0.0,0.0,-0.002483034477917201,-0.5077485417108795,-0.22139892627287278,-0.28906145774064473,0.0014139605223470388,-0.012721409721005387,-0.015682540932496287
1628,0.0,298.57822999999996,3470.8366,-0.016279992602751037,0.0,0.0,0.0,0.0,-0.002484557054159703,-0.48425905365264754,-0.25994872546994174,-0.31083988048750766,0.0025628919034877376,0.0051947459127565055,-0.012434558617695388
1629,0.0,298.83165,3425.4459,-0.016290002277448812,0.0,0.0,0.0,0.0,-0.0024860846720454466,-0.5072182775360465,-0.2402106945819498,-0.29382103796537873,-7.151473913520522e-05,0.0017027910097273883,0.0003531369014693987
1630,0.0,299.71301,3256.1349,-0.016300011952146143,0.0,0.0,0.0,0.0,-0.0024876122899311626,-0.47258258241526957,-0.23757131992646377,-0.27962978130481075,-0.015153581823792086,-0.006041543136678884,-0.017151830584503883
1631,0.0,299.83504,3256.7196,-0.01630998859161359,0.0,0.0,0.0,0.0,-0.0024891348661736923,-0.48950486220286854,-0.2377686909134428,-0.26268789512777674,-0.01125743253927209,-0.002245705612058888,-0.0065579416931684535
1632,0.0,299.80793,3226.0481,-0.016319998266311142,0.0,0.0,0.0,0.0,-0.002490662484059436,-0.47156879529271656,-0.2250070896139708,-0.2840621729397537,0.01021753092189179,0.007047240875733524,-0.018877901116603785
1633,0.0,299.99589,3292.1527,-0.016330007941008695,0.0,0.0,0.0,0.0,-0.0024921901019451798,-0.49702003686955853,-0.24225811839651476,-0.2614540604810067,0.002228931763278438,0.006847372531233055,-0.02061921396995798
1634,0.0,299.99618,3500.6299,-0.01633998458047592,0.0,0.0,0.0,0.0,-0.0024937126781876817,-0.5039940853203435,-0.24519379777874378,-0.31491618563980767,-0.0017851447354550686,-0.00046934649464339253,-0.03139136455933647
1635,0.0,300.14406,3568.1546,-0.016349994255173472,0.0,0.0,0.0,0.0,-0.0024952402960734255,-0.5132079535146815,-0.26007779326767977,-0.3113441345322737,-0.012887852261931988,-0.013498135836912287,-0.02139231062400668
1636,0.0,300.00062,3385.1421,-0.016360003929871025,0.0,0.0,0.0,0.0,-0.0024967679139591414,-0.48549555314718057,-0.2406389143392118,-0.30286421404787073,-0.0015129119939877886,0.01215142310250209,-0.02002250693306758
1637,0.0,299.91668,3373.9049,-0.016370013604568356,0.0,0.0,0.0,0.0,-0.0024982955318448574,-0.5010294067202525,-0.21834563895153677,-0.3062077873903557,-0.005816290850673214,-0.0002987940694561787,0.0019045349814879682
1638,0.0,299.69952,3410.6368,-0.016379990244035803,0.0,0.0,0.0,0.0,-0.002499818108087387,-0.5017164814805615,-0.23972367592138477,-0.2953082763296577,-0.002664888191678987,-0.016009432640007985,-0.005766857215394495
1639,0.0,299.64832,3276.1673,-0.016389999918733245,0.0,0.0,0.0,0.0,-0.002501345725973131,-0.5010335813106646,-0.21398972743414182,-0.2808497546902127,0.009689141665043829,-0.017075603779480884,-0.012042226152475187
1640,0.0,299.34511000000003,3253.0559,-0.016400009593430798,0.0,0.0,0.0,0.0,-0.0025028733438588746,-0.48408898975586356,-0.2349204043523388,-0.2698383808184747,0.016791938334485286,-0.002453183667460378,-0.021642934996491378
1641,0.0,299.37957,3369.9604,-0.01640998623289802,0.0,0.0,0.0,0.0,-0.0025043959201013766,-0.49585505256708357,-0.24669452250185375,-0.2818342386198737,0.018614400361848284,0.009033545646916542,-0.007402301442650274
1642,0.0,299.6988,3481.6123,-0.016419995907595575,0.0,0.0,0.0,0.0,-0.0025059235379871203,-0.5154026734962834,-0.23460997491920177,-0.3083105447928817,-0.005808694312023494,0.007389506424362503,-0.011758340832207888
1643,0.0,300.27702,3567.9639,-0.016430005582293128,0.0,0.0,0.0,0.0,-0.0025074511558728363,-0.5145209533917645,-0.2618001360526618,-0.30825085422949067,-0.01237667366598259,0.0037541601162067568,0.003968838934768906
1644,0.0,299.78789,3430.2125,-0.01644001525699068,0.0,0.0,0.0,0.0,-0.00250897877375858,-0.5020286334388686,-0.2378955700909648,-0.3027747541965417,-0.0011738585495008188,0.018431916045338483,-0.015622985131368585
1645,0.0,300.75153,3350.9504,-0.016449991896457905,0.0,0.0,0.0,0.0,-0.002510501350001082,-0.5006606748763616,-0.2110524369842538,-0.3068921263753947,-0.007562211053557122,0.017425866100549085,0.002461247314406198
1646,0.0,300.48546,3414.7931,-0.016460001571155458,0.0,0.0,0.0,0.0,-0.0025120289678868257,-0.49193710827291254,-0.25237769032523877,-0.2936970364181407,-0.016062386103484087,-0.020738291121709978,-0.03460647298789297
1647,0.0,300.02334,3554.2218,-0.01647001124585301,0.0,0.0,0.0,0.0,-0.0025135565857725695,-0.5179957527547004,-0.23566209329303778,-0.3267368221014137,-0.013615759988020885,-0.018575285868237982,-0.0018792585458183783
1648,0.0,299.64718,3449.3208,-0.016479987885320457,0.0,0.0,0.0,0.0,-0.002515079162015099,-0.5087208666393406,-0.2392408825137368,-0.3005456242415437,0.012923984760497989,-0.0009376204640559352,-0.027288002589616174
1649,0.0,300.06082999999995,3216.9225,-0.01648999756001779,0.0,0.0,0.0,0.0,-0.002516606779900815,-0.48205839602545947,-0.2263821510596788,-0.2694235663600357,0.025777959005336474,0.01049639660116369,0.003307453408220237
1650,0.0,300.33962,3230.775,-0.01650000723471534,0.0,0.0,0.0,0.0,-0.002518134397786531,-0.4847563669342285,-0.2217343019234718,-0.27558425869054876,0.012692472311399488,0.009800412636700421,-0.014079936951581589
1651,0.0,300.27696000000003,3498.3671,-0.016509983874182788,0.0,0.0,0.0,0.0,-0.0025196569740290886,-0.5118853176291475,-0.24973592439951678,-0.30179501227734873,-0.009265306747589581,-0.01190804650798269,-0.008182010465526562
1652,0.0,299.26372000000003,3505.5518,-0.01651999354888012,0.0,0.0,0.0,0.0,-0.002521184591914777,-0.5030966801042766,-0.25460422635998076,-0.3078993172397967,-0.01014520411650369,-0.006818029213637093,-0.02595688073449468
1653,0.0,299.62125,3420.9325,-0.01653000322357767,0.0,0.0,0.0,0.0,-0.0025227122098005206,-0.5026299973732186,-0.24417575500577077,-0.2930722968039837,-0.011998031222863489,0.010084483584386041,-0.013086691448305886
1654,0.0,299.98918,3457.5842,-0.016540012898275225,0.0,0.0,0.0,0.0,-0.0025242398276862643,-0.5004019110658235,-0.2495008199788138,-0.30111654001038873,-0.00891704397426872,0.0017042522176965982,-0.011842200450234189
1655,0.0,299.88964,3408.546,-0.01654998953774256,0.0,0.0,0.0,0.0,-0.002525762403928794,-0.5183677776614165,-0.22594276528631477,-0.2918023397911487,-0.0064253665302093045,0.006030348141624025,-0.009394064997422031
1656,0.0,299.66834,3430.0991,-0.016559999212440002,0.0,0.0,0.0,0.0,-0.00252729002181451,-0.5003720201878735,-0.2552047188992448,-0.2870877377383537,-0.0014154232501913987,0.011045742301879888,-0.02160294809454498
1657,0.0,299.64695,3377.9083,-0.016570008887137444,0.0,0.0,0.0,0.0,-0.002528817639700226,-0.5190206957608545,-0.21918476202185178,-0.28859433931204376,0.016240347271547485,-0.005056465746434316,-0.01152716072914219
1658,0.0,300.4048,3265.6282,-0.01657998552660489,0.0,0.0,0.0,0.0,-0.0025303402159427835,-0.4796535786356225,-0.22168255524086478,-0.2913333063198587,0.01109553949129449,-0.013836035493510387,-0.016375308131867085
1659,0.0,300.60262,3296.5725,-0.016589995201302443,0.0,0.0,0.0,0.0,-0.0025318678338284994,-0.4971209869770215,-0.2408898558589778,-0.26406489188117577,0.006484648247184953,-0.015823312782139384,-0.013697313448819587
1660,0.0,300.21786000000003,3460.8222,-0.016600004875999774,0.0,0.0,0.0,0.0,-0.0025333954517142154,-0.5102978384324754,-0.22905547972601578,-0.3126502240436747,-0.005317399330736454,-0.0015570735876711988,-0.007781270760251632
1661,0.0,299.96719,3613.5493,-0.016610014550697327,0.0,0.0,0.0,0.0,-0.002534923069599959,-0.5287898959374995,-0.26507471719583775,-0.30456416400564273,-0.013649905503140786,0.014500173311305686,-0.012928503855943987
1662,0.0,299.48534,3505.2745,-0.016619991190164773,0.0,0.0,0.0,0.0,-0.002536445645842489,-0.5002552127163455,-0.24892876936985678,-0.3163319594745337,-0.016652603273483984,0.01121541812387559,-0.016532347711865684
1663,0.0,299.56705,3438.2234,-0.016630000864862104,0.0,0.0,0.0,0.0,-0.002537973263728205,-0.5116589980868115,-0.2341392999827498,-0.2993357630921398,0.004500628760277475,0.010764529935376388,-0.01098425929906199
1664,0.0,299.35541,3427.4699,-0.016640010539559658,0.0,0.0,0.0,0.0,-0.002539500881613921,-0.4887805302363825,-0.2521109623689148,-0.30097376293879774,0.0029290219237719573,0.008675318876087312,-0.017164243911478982
1665,0.0,299.19049,3384.5456,-0.016649987179027104,0.0,0.0,0.0,0.0,-0.0025410234578564783,-0.5165369056582235,-0.21628317850548778,-0.2959972762651567,0.001883368389548988,-0.0011868494290329188,0.004412239812979166
1666,0.0,299.80215,3366.0570000000002,-0.016659996853724657,0.0,0.0,0.0,0.0,-0.0025425510757421943,-0.4971540999902896,-0.23636217818463076,-0.2896809993817887,-0.004223665559393336,-0.02128328896624708,-0.017087430434648086
1667,0.0,300.24519,3335.0068,-0.016670006528421988,0.0,0.0,0.0,0.0,-0.0025440786936279103,-0.5077235549634136,-0.2220949075015608,-0.28394031948272774,0.004963803214189235,-0.012510223068912887,-0.00938168531035025
1668,0.0,299.8967,3397.6859999999997,-0.01668001620311954,0.0,0.0,0.0,0.0,-0.002545606311513654,-0.5044711133349226,-0.2373528429399018,-0.29098774750575473,-0.008729726758756952,0.0008992455822236292,-0.02108084463601738
1669,0.0,300.3023,3587.2702,-0.016689992842586987,0.0,0.0,0.0,0.0,-0.0025471288877561837,-0.5282904548307085,-0.25450954827063677,-0.3076405534292587,-0.00982492264999437,0.006521781532874723,-0.010448162856653391
1670,0.0,300.26065,3724.6726,-0.01670000251728454,0.0,0.0,0.0,0.0,-0.0025486565056419275,-0.5284183573908315,-0.26709245278247273,-0.3366966551518727,-0.01995152471056218,-0.012408203982594387,-0.013375673416576188
1671,0.0,300.47361,3595.4084,-0.01671001219198187,0.0,0.0,0.0,0.0,-0.0025501841235276157,-0.5233437678425085,-0.25181705904490875,-0.3177535594973347,0.001736593438363428,-0.0013763457402097487,-0.002183904854009628
1672,0.0,300.53718,3359.728,-0.01671998883144943,0.0,0.0,0.0,0.0,-0.002551706699770201,-0.4860552522374185,-0.2389515084176778,-0.2962666488042417,0.00886511227219346,-0.014044215832556186,-0.02138883416291358
1673,0.0,300.15488,3290.5579,-0.01672999850614676,0.0,0.0,0.0,0.0,-0.002553234317655889,-0.49212023296348556,-0.21398315144099278,-0.2941440316997557,0.01828847428168188,-7.413067832912834e-05,0.0025040259230281175
1674,0.0,299.64549,3330.0316,-0.0167400081808442,0.0,0.0,0.0,0.0,-0.002554761935541605,-0.4904046992191755,-0.24490839562307676,-0.27693336066869473,-0.004220134180144816,0.005278821555704125,-0.011887196860674989
1675,0.0,299.70512,3347.1,-0.01674998482031176,0.0,0.0,0.0,0.0,-0.0025562845117841626,-0.5003004239358075,-0.2210447750979208,-0.2960896036142687,0.002096201066428938,0.008776171711540711,-0.004575596804701246
1676,0.0,299.85421,3418.0881,-0.01675999449500909,0.0,0.0,0.0,0.0,-0.0025578121296698786,-0.5046228880674015,-0.23062081940800278,-0.3037697151322367,-0.00993661462706751,0.013302918006395787,-0.011473328777829387
1677,0.0,299.68039,3506.6647,-0.016770004169706643,0.0,0.0,0.0,0.0,-0.0025593397475556223,-0.5260571097552945,-0.24917614424927076,-0.29070526351037573,-0.016315908371254784,-0.0008489784676776512,-0.0044126189711665865
1678,0.0,299.63156000000004,3609.8590000000004,-0.016780013844403974,0.0,0.0,0.0,0.0,-0.0025608673654413106,-0.5198857985637335,-0.2450602615480648,-0.3323609275764697,-0.023901061129601078,-0.02105367940083638,-0.023109680377497877
1679,0.0,299.3636,3683.0019,-0.016789990483871642,0.0,0.0,0.0,0.0,-0.0025623899416838958,-0.5428215859723194,-0.26612701795469174,-0.31059200911554474,-0.005768080106940183,-0.005958284983911944,-0.014408163109474985
1680,0.0,299.86537999999996,3520.2235,-0.016800000158568973,0.0,0.0,0.0,0.0,-0.002563917559569584,-0.5206485732390135,-0.24293537476335478,-0.30647610614933674,0.025431521703395774,0.005967766775697724,-0.028368267024729974
1681,0.0,300.5035,3334.9523,-0.016810009833266526,0.0,0.0,0.0,0.0,-0.0025654451774553277,-0.4994795292347915,-0.22741172461878978,-0.2868509817199877,0.024844819497992776,0.01121497938658229,-0.0053614977989386355
1682,0.0,300.27083,3252.4955,-0.016819986472733972,0.0,0.0,0.0,0.0,-0.0025669677536978575,-0.4825705939510095,-0.2309621631016908,-0.2751446803996658,-0.007214648233405343,0.005446735031800895,-0.00895174515574346
1683,0.0,299.8423,3389.5481,-0.016829996147431525,0.0,0.0,0.0,0.0,-0.002568495371583601,-0.5063892970992325,-0.23051370873993177,-0.2934349795447777,-0.0027327833451047173,0.0003165814115166527,0.006155618277987223
1684,0.0,299.78072000000003,3478.9377,-0.016840005822128856,0.0,0.0,0.0,0.0,-0.002570022989469317,-0.5017528875566545,-0.24632840484322074,-0.3094288993257547,-0.013229370234637187,-0.0008432462788144283,-0.018417334363149383
1685,0.0,300.05432,3505.0974,-0.016850015496826187,0.0,0.0,0.0,0.0,-0.0025715506073550054,-0.5240986594320105,-0.2411957661966688,-0.30016767182174275,-0.004757241136878146,0.01108658641341089,-0.003303891428818697
1686,0.0,300.33499,3676.2207,-0.016859992136293744,0.0,0.0,0.0,0.0,-0.0025730731835975906,-0.5323219034010814,-0.26205481646529677,-0.3231025675702407,-0.008850146264241432,-0.013375079652017589,-0.014858844594953787
1687,0.0,300.47864,3751.0246,-0.016870001810991186,0.0,0.0,0.0,0.0,-0.002574600801483279,-0.5477821848843925,-0.27430142326894275,-0.3181341970299007,-0.008102822943711362,0.003048350057573727,-0.015963107858686085
1688,0.0,300.12755,3611.3645,-0.01688001148568874,0.0,0.0,0.0,0.0,-0.0025761284193690226,-0.5310906626745675,-0.24342000215368376,-0.3232539775326837,0.010042466939839319,0.004384640704105346,-0.017759376357713984
1689,0.0,300.60549,3495.6481,-0.016889988125156075,0.0,0.0,0.0,0.0,-0.0025776509956115523,-0.5291678078272964,-0.23408061253695778,-0.2993413157026877,0.016024975896541983,-0.0015265888438375885,-0.0009277040183747581
1690,0.0,300.25574,3322.3672,-0.016899997799853628,0.0,0.0,0.0,0.0,-0.002579178613497296,-0.4814651988869156,-0.22828640263511377,-0.3001650779014867,0.00948695936128999,-0.004576639540379156,-0.016088039569515884
1691,0.0,300.06525,3312.1925,-0.01691000747455096,0.0,0.0,0.0,0.0,-0.002580706231383012,-0.5087713163618195,-0.21856352825304076,-0.2794889699384137,-0.004301823923081966,-0.01116812670195829,-0.007195927931182794
1692,0.0,299.39983,3431.7288,-0.016919984114018627,0.0,0.0,0.0,0.0,-0.0025822288076255695,-0.49384824994902754,-0.24901148097551978,-0.3003001238748147,0.005617751485003905,0.0037846050393114364,-0.018073529484968483
1693,0.0,299.93552999999997,3465.4346,-0.016929993788715958,0.0,0.0,0.0,0.0,-0.0025837564255112855,-0.5264905680155735,-0.23900938526338977,-0.2879056230865727,-0.006054868287418975,0.0003447171680409357,-0.01059250539964889
1694,0.0,299.837,3506.7298,-0.01694000346341351,0.0,0.0,0.0,0.0,-0.0025852840433970015,-0.5127752045294725,-0.25519502209578776,-0.2979880796641337,-0.007929256443981682,-0.0029774746316288668,-0.008158226547254272
1695,0.0,299.89806,3611.489,-0.016950013138110842,0.0,0.0,0.0,0.0,-0.0025868116612827174,-0.5360216544187185,-0.25850059855952273,-0.30328022414142775,-0.015019144813774185,0.008005761183507112,-0.012970963088134387
1696,0.0,299.81677,3649.8287,-0.01695998977757851,0.0,0.0,0.0,0.0,-0.002588334237525275,-0.5253481285278235,-0.26199440649433475,-0.32211424342270073,-0.0039438661701542855,0.01826560826667518,-0.017044531451914285
1697,0.0,300.12761,3554.9215,-0.01696999945227584,0.0,0.0,0.0,0.0,-0.002589861855410991,-0.5312257289128974,-0.24641869555963178,-0.30296294513761474,0.011823131083352189,0.01674008627386788,-0.00995559259879049
1698,0.0,299.80726,3473.4181,-0.016980009126973172,0.0,0.0,0.0,0.0,-0.002591389473296707,-0.5079964232153434,-0.2280997822316958,-0.3197361657030027,0.005562379292214094,-0.006076601995438925,-0.007641677624449862
1699,0.0,299.17408,3450.1962,-0.01698998576644073,0.0,0.0,0.0,0.0,-0.0025929120495392644,-0.5069802448225545,-0.24199225170277575,-0.2998010171405567,0.012477392752422788,0.00037207633929107564,0.0014249128440029489
1700,0.0,298.88388,3318.9028,-0.01699999544113817,0.0,0.0,0.0,0.0,-0.0025944396674249526,-0.49877616141287456,-0.2165420537735368,-0.29354534274566974,-0.024346407853303376,-0.013766433317641186,-0.01169829968428229
1701,0.0,299.17797,3485.7987,-0.017010005115835725,0.0,0.0,0.0,0.0,-0.0025959672853106963,-0.5109161236434955,-0.23996984503317975,-0.3087097855972837,-2.8240122297833075e-05,-0.005864732412779025,-0.014483623897422386
1702,0.0,300.32988,3577.637,-0.017020014790533056,0.0,0.0,0.0,0.0,-0.0025974949031964123,-0.5197649076943025,-0.2566919775285258,-0.3110554393137817,-0.014816945690068684,-0.012689656489371589,-0.001025857565694259
1703,0.0,300.1324,3524.3822,-0.017029991430000613,0.0,0.0,0.0,0.0,-0.0025990174794389698,-0.5186892008581385,-0.25558217482649676,-0.2970527991593287,0.014460318131872287,0.015756890185083985,-0.013962430337484587
1704,0.0,300.15157,3636.7785,-0.017040001104697944,0.0,0.0,0.0,0.0,-0.0026005450973246858,-0.5143277873927005,-0.26800864365539373,-0.3231534124602587,0.004335591495914566,0.00965633090428066,-0.00046016068334432355
1705,0.0,300.34125,3660.7631,-0.017050010779395497,0.0,0.0,0.0,0.0,-0.0026020727152104295,-0.5391539752478545,-0.25706734616057175,-0.3165592618694667,-0.012362377720321688,0.004720253252577726,-0.008867449941499173
1706,0.0,300.00292,3534.6132,-0.017059987418862943,0.0,0.0,0.0,0.0,-0.002603595291452959,-0.5220282551051775,-0.23819329336784775,-0.3142126151678707,-0.006509056023543813,0.007954483433046394,-0.002222983985191438
1707,0.0,299.59022999999996,3496.7613,-0.017069997093560496,0.0,0.0,0.0,0.0,-0.002605122909338703,-0.5233935690849235,-0.23347724236740977,-0.3060573096180047,0.001943488267007358,0.016217469097539586,-0.013011404939375686
1708,0.0,299.49293,3547.7073,-0.017080006768257827,0.0,0.0,0.0,0.0,-0.002606650527224391,-0.5312549206482785,-0.23826761526268278,-0.3088918970377567,0.0014973460406515484,0.017916506116971483,-0.02097541697636248
1709,0.0,299.68215,3477.0341,-0.017090016442955158,0.0,0.0,0.0,0.0,-0.002608178145110107,-0.5253798533884545,-0.2241433445662258,-0.3074083671688437,-0.006809451848890573,-0.00948505789615233,-0.013973402822817485
1710,0.0,299.8726,3432.9471,-0.017099993082422826,0.0,0.0,0.0,0.0,-0.0026097007213526646,-0.4998837045671805,-0.23997089881328376,-0.3036755943304477,-0.008316674747541893,-0.01860573302049288,-0.018612297867890783
1711,0.0,299.21281,3470.643,-0.017110002757120157,0.0,0.0,0.0,0.0,-0.0026112283392383806,-0.5157787514033996,-0.2311587741510948,-0.3080512844897947,0.0004972181475291105,-0.0072809311032719535,-0.0009849078025753323
1712,0.0,300.08037,3544.8499,-0.01712001243181771,0.0,0.0,0.0,0.0,-0.0026127559571241243,-0.5191132460249884,-0.2517473271730268,-0.3066852916324817,0.017652855401201185,0.007393700874476463,-0.017569753694249683
1713,0.0,300.4669,3624.4219,-0.017129989071285157,0.0,0.0,0.0,0.0,-0.002614278533366654,-0.5317139837385845,-0.26595268827498675,-0.3040670736390837,0.0036630316446130766,0.004737803453584795,-0.015609051929243485
1714,0.0,300.46837,3636.9947,-0.01713999874598271,0.0,0.0,0.0,0.0,-0.00261580615125237,-0.5401786041464774,-0.25651594558865276,-0.3088610131747087,-0.006014528470462744,0.006427764487895963,-0.017412614815741283
1715,0.0,300.59597,3667.2979,-0.01715000842068004,0.0,0.0,0.0,0.0,-0.002617333769138086,-0.5437897059128656,-0.2602883567709608,-0.3106889163551087,-0.004620225101380715,0.013707773229601887,-0.004712755809787785
1716,0.0,300.54839,3535.1464,-0.017159985060147598,0.0,0.0,0.0,0.0,-0.0026188563453806435,-0.5184800052424925,-0.23439310900029878,-0.3217231288841007,0.003033162857124867,-0.001203881859238889,-0.0007049385014270134
1717,0.0,300.39896,3573.7515,-0.01716999473484504,0.0,0.0,0.0,0.0,-0.0026203839632663595,-0.5251928074199945,-0.2431752515920288,-0.3179631705455217,-0.012169234012759888,-0.004458675443862006,0.003284865935666027
1718,0.0,300.70835,3593.3118,-0.017180004409542482,0.0,0.0,0.0,0.0,-0.002621911581152103,-0.5212641936022705,-0.2334105502458278,-0.33760230822375364,-0.0038819274074414056,-0.01060368154825189,0.0023208666806267078
1719,0.0,299.64912999999996,3476.5411,-0.017190014084239924,0.0,0.0,0.0,0.0,-0.002623439199037819,-0.5177590777963424,-0.23362680821467077,-0.30539579915771875,-0.006066184163210764,0.014273035062888887,-0.01924022111386198
1720,0.0,299.24592,3562.5435,-0.01719999072370748,0.0,0.0,0.0,0.0,-0.0026249617752803767,-0.5352454440471125,-0.24343245499741278,-0.3042463682442787,0.01826193320856248,0.024783226050913976,-0.01322418138087509
1721,0.0,299.76799,3714.4682,-0.017210000398404812,0.0,0.0,0.0,0.0,-0.002626489393166065,-0.5597262453406795,-0.26325299484104775,-0.30612633221481667,0.0076201225524225435,-0.004174532454094277,-0.018674313840261282
1722,0.0,299.60289,3585.388,-0.017220010073102254,0.0,0.0,0.0,0.0,-0.002628017011051781,-0.5234073695512855,-0.25855894150028075,-0.3079021036775717,0.013527062100767087,-0.006719280594666364,-0.007585619967967403
1723,0.0,299.76718,3479.7368,-0.01722998671256981,0.0,0.0,0.0,0.0,-0.0026295395872943383,-0.5214772598332985,-0.25149281901290876,-0.28478302945839673,-0.009089696117108163,0.00030748095640600767,-0.007339602235737343
1724,0.0,300.45299,3623.9865,-0.017239996387267142,0.0,0.0,0.0,0.0,-0.0026310672051800543,-0.5295674235342355,-0.26601500315613674,-0.3060189783667217,0.012903740023499987,0.003893526689286166,-0.007879592496955232
1725,0.0,300.29495,3586.8798,-0.017250006061964696,0.0,0.0,0.0,0.0,-0.002632594823065798,-0.5363534532964644,-0.24734086460814275,-0.3066275769067857,-0.006375813331418784,0.0026720383936596572,-0.014116317696422088
1726,0.0,300.2252,3482.8717,-0.017260015736662027,0.0,0.0,0.0,0.0,-0.002634122440951514,-0.5287793784014615,-0.24000497441414675,-0.2899216665455407,0.0018177885126017584,0.008173751362636452,-0.02200275733225308
1727,0.0,299.9369,3493.4349,-0.017269992376129695,0.0,0.0,0.0,0.0,-0.0026356450171940715,-0.5136976370230094,-0.24210858294675675,-0.3061107585607797,0.007889967367379153,-0.0012441123465093287,-0.017195785373841883
1728,0.0,299.9787,3480.8694,-0.017280002050827026,0.0,0.0,0.0,0.0,-0.0026371726350797597,-0.5031091937430116,-0.23524815022968476,-0.3197400261858837,-0.015268644478647885,0.012741522735490387,-0.0025716511466272072
1729,0.0,299.66085,3505.2162,-0.01729001172552458,0.0,0.0,0.0,0.0,-0.0026387002529655035,-0.5156195799451906,-0.2379854656398368,-0.31189315396645767,-0.008654064232714642,-0.02456944243881518,-0.016001704581495284
1730,0.0,299.28334,3612.9061,-0.017299988364992025,0.0,0.0,0.0,0.0,-0.002640222829208033,-0.5106584946730695,-0.25680777174995373,-0.3307669737116587,-0.007616505249565543,-0.004660516383657155,-0.01098946132507539
1731,0.0,298.7079,3600.6121,-0.017309998039689467,0.0,0.0,0.0,0.0,-0.002641750447093777,-0.5340893054180105,-0.26241002142035275,-0.29799685440999973,0.002310419666795668,-0.001998967256357708,-0.025794846844753177
1732,0.0,299.67634,3619.8711,-0.01732000771438691,0.0,0.0,0.0,0.0,-0.002643278064979493,-0.5470803166726235,-0.2530947775535098,-0.30017532185999773,0.0092806799807568,-0.003060452722068167,-0.01197316910515979
1733,0.0,300.04059,3637.7673,-0.017329984353854244,0.0,0.0,0.0,0.0,-0.0026448006412220226,-0.5450549614452365,-0.25697451218640976,-0.3037609707838737,-0.006292738374269925,-0.0036628032580405365,-0.01763896982183078
1734,0.0,300.24282999999997,3629.776,-0.017339994028551797,0.0,0.0,0.0,0.0,-0.0026463282591077664,-0.5425540474159155,-0.24533268396995078,-0.3154745269749117,0.013691797315275187,0.00015933107549725284,0.011265873925855189
1735,0.0,299.69289,3572.4935,-0.01735000370324924,0.0,0.0,0.0,0.0,-0.0026478558769934546,-0.5256263264752795,-0.24860399231530378,-0.3117184899142197,0.018473274887920284,0.004635445739082876,-0.0012572549095813987
1736,0.0,300.13626,3694.7257,-0.01736001337794668,0.0,0.0,0.0,0.0,-0.0026493834948791983,-0.5340858299701675,-0.26153910256189977,-0.3274794330997037,0.006849341073527334,0.017605087751736883,0.004504749648434176
1737,0.0,300.23778,3799.5908,-0.017369990017414128,0.0,0.0,0.0,0.0,-0.002650906071121728,-0.5627640704654895,-0.26055975581024576,-0.3316568910094867,-0.0006950873698472823,-0.00877357779128471,-0.0047624605907932655
1738,0.0,300.48489,3608.7788,-0.01737999969211168,0.0,0.0,0.0,0.0,-0.002652433689007472,-0.5418659391405045,-0.24370140197145576,-0.3114112826164007,-0.007282652209891812,-0.0026897253834302273,-0.008322987498314912
1739,0.0,299.87006,3495.638,-0.01739000936680901,0.0,0.0,0.0,0.0,-0.0026539613068931878,-0.5154845441043635,-0.23935455904245578,-0.30774757290482074,0.0006448461337088585,0.00882566239280006,-0.02269790769585908
1740,0.0,300.11152999999996,3621.6933,-0.017399986006276458,0.0,0.0,0.0,0.0,-0.0026554838831357175,-0.5375057010451825,-0.24662184207218077,-0.3167767762684337,0.007983073601843024,-0.0015494003459889086,-0.017164748510028784
1741,0.0,299.89564,3618.2322,-0.01740999568097401,0.0,0.0,0.0,0.0,-0.0026570115010214612,-0.5265329421347554,-0.24750711868455078,-0.32581218072265866,-0.011776496247499688,-0.007243292307107294,-0.007559259759990852
1742,0.0,299.75113,3450.2696,-0.017420005355671564,0.0,0.0,0.0,0.0,-0.002658539118907177,-0.49454342057763556,-0.26026392731104975,-0.2939884471469007,-0.009356431267507872,-0.0097835620848874,-0.03208889910042777
1743,0.0,299.37829,3439.0557,-0.017430015030368895,0.0,0.0,0.0,0.0,-0.002660066736792893,-0.5274912031518285,-0.24184657673589877,-0.2760492898239438,0.017639479486631082,0.006290948163993244,-0.015013405765207787
1744,0.0,299.60222000000005,3551.6678,-0.01743999166983634,0.0,0.0,0.0,0.0,-0.002661589313035423,-0.5339569242924455,-0.2523390145689217,-0.2933223770611647,0.015811006859674882,0.025755298680100076,-0.02953967431958887
1745,0.0,299.16664,3657.8759999999997,-0.017450001344533894,0.0,0.0,0.0,0.0,-0.0026631169309211666,-0.5383956284755115,-0.27242182406844073,-0.3010855041598257,0.007557326174825023,0.0037440886128627766,-0.018559234973403883
1746,0.0,300.19563999999997,3741.9667,-0.017460011019231225,0.0,0.0,0.0,0.0,-0.0026646445488068826,-0.5508293420426235,-0.2449671843938788,-0.34166790332249664,-0.01127975038597469,-0.003127557945715937,-0.010048223314982431
1747,0.0,299.79571,3697.3625,-0.01746998765869867,0.0,0.0,0.0,0.0,-0.0026661671250494123,-0.5231317047290794,-0.25342345562094776,-0.3473507063758457,-0.015632169230274984,-0.0031284661217805673,-0.0034678672123768465
1748,0.0,300.64612999999997,3626.0642,-0.017479997333396224,0.0,0.0,0.0,0.0,-0.002667694742935156,-0.5210422411678656,-0.24832632125789977,-0.3328644115511597,-0.0020304949385192483,-0.007031895202969024,-0.007755144207748144
1749,0.0,300.39943999999997,3699.7759,-0.017490007008093778,0.0,0.0,0.0,0.0,-0.002669222360820872,-0.5581010023127805,-0.2445871953413768,-0.3219512925416187,-0.016749969515343285,-0.017278959021550484,-0.006836591246194023
1750,0.0,300.37512999999996,3719.2601,-0.017499983647561,0.0,0.0,0.0,0.0,-0.0026707449370634018,-0.5549272496870555,-0.2549236129240018,-0.32071134799674567,-0.0014130675450339087,-0.0022735476983066875,-0.0026444961281164477
1751,0.0,299.55125,3523.9654,-0.017509993322258444,0.0,0.0,0.0,0.0,-0.0026722725549491178,-0.5278914774713326,-0.2354131478759688,-0.3078928729691607,-0.003209792918531897,0.006491959859906553,-0.01936960301913098
1752,0.0,300.48165,3403.9616,-0.017520002996955997,0.0,0.0,0.0,0.0,-0.0026738001728348615,-0.5238841138558366,-0.2218411592790178,-0.2889940462114917,0.022053096610471182,0.017967298317984284,-0.009731394802163892
1753,0.0,299.59179,3585.1741,-0.01753001267165355,0.0,0.0,0.0,0.0,-0.0026753277907206052,-0.5096076833918626,-0.2584784489123368,-0.3217172824310237,0.007436151494041014,-0.0004911158893318645,-0.017043575957069984
1754,0.0,299.88345,3781.966,-0.017539989311120774,0.0,0.0,0.0,0.0,-0.002676850366963107,-0.5522781073006054,-0.26395527848535777,-0.3333898526555167,-0.001123652311020849,0.0015065017685551485,-0.0033812469944530963
1755,0.0,299.51056,3721.0717,-0.017549998985818327,0.0,0.0,0.0,0.0,-0.002678377984848851,-0.5478592932170026,-0.26899136452988076,-0.3142622238927667,-0.0026999421868385476,0.0016622935310555986,-0.013109771259083686
1756,0.0,300.38201000000004,3667.4714,-0.01756000866051588,0.0,0.0,0.0,0.0,-0.002679905602734567,-0.5387395660894555,-0.27135653344330474,-0.3047236191738797,-0.0024540291233438177,-0.002172927403751238,-0.00987301605936582
1757,0.0,300.09722,3616.6476,-0.017569985299983326,0.0,0.0,0.0,0.0,-0.0026814281789771244,-0.5393149502912415,-0.24018760261217076,-0.3198679996735137,-0.004164493982703556,0.008550643010907763,-0.010469888965297589
1758,0.0,300.66704,3677.5645,-0.017579994974680657,0.0,0.0,0.0,0.0,-0.0026829557968628126,-0.5339864807978625,-0.26190644625315374,-0.32199486229591867,0.002199918663890068,-0.004281097486986426,-0.022812006749869777
1759,0.0,300.19692000000003,3648.9366,-0.01759000464937821,0.0,0.0,0.0,0.0,-0.0026844834147485563,-0.5206393526631036,-0.24695840322539675,-0.34158784643209567,-0.0024495871362304276,0.0020797980671850877,-0.015133391802299485
1760,0.0,300.59567000000004,3524.8857,-0.017600014324075763,0.0,0.0,0.0,0.0,-0.0026860110326343,-0.5235137608117855,-0.24458898879405377,-0.3033744867982307,0.0029790101108304067,0.005479176868202655,-0.028289848559740673
1761,0.0,299.95269,3409.2546,-0.017609990963542987,0.0,0.0,0.0,0.0,-0.002687533608876802,-0.5266661237278994,-0.24172636474403475,-0.26793578084070274,0.0027248176794435674,-0.016947344555322683,-0.027036731763567676
1762,0.0,299.98282,3663.3167,-0.01762000063824054,0.0,0.0,0.0,0.0,-0.0026890612267625458,-0.5358532117220944,-0.25674149506091276,-0.3209620868664917,-0.0006627910564248844,-0.01838133865334688,-0.00968952457225662
1763,0.0,299.75732,3823.7154,-0.017630010312938094,0.0,0.0,0.0,0.0,-0.0026905888446482618,-0.5674963942625334,-0.25905478556921674,-0.33576281346220965,-0.015425051790584088,-0.02091652890705068,-0.0008992404247806201
1764,0.0,299.92792000000003,3698.5134,-0.01763998695240543,0.0,0.0,0.0,0.0,-0.0026921114208908192,-0.5331127147066285,-0.2534621719072688,-0.3376808452390047,-0.0034605283432275562,2.017410029377868e-05,0.0024193645201976877
1765,0.0,299.73422999999997,3644.4759999999997,-0.01764999662710287,0.0,0.0,0.0,0.0,-0.0026936390387765075,-0.5195128921294305,-0.25048455410340076,-0.33783224506894666,-0.019801395496245582,-0.0021445538678259877,0.0022336308119421983
1766,0.0,299.75324,3687.8153,-0.017660006301800424,0.0,0.0,0.0,0.0,-0.002695166656662251,-0.5489960382391905,-0.24825856522371273,-0.3237491427240527,0.013951206566126887,0.014598436279503484,-0.0014037604375653687
1767,0.0,299.32964,3717.3085,-0.017670015976497977,0.0,0.0,0.0,0.0,-0.002696694274547995,-0.5578139789569534,-0.24620887172892378,-0.3259461121208767,0.009847017682999979,0.008440460675158612,-0.014608377276234586
1768,0.0,300.04332999999997,3773.9949,-0.017679992615965312,0.0,0.0,0.0,0.0,-0.0026982168507905246,-0.5698565881179665,-0.2638949394419028,-0.31344868538747667,0.016983542915145183,0.0097177707426443,-0.012537851359389588
1769,0.0,299.68818999999996,3674.6797,-0.017690002290662643,0.0,0.0,0.0,0.0,-0.0026997444686762406,-0.5544539403003435,-0.2455034470093038,-0.31705348473824274,-0.0032581700379313468,-0.016054575971713288,-0.0028921484354078276
1770,0.0,299.71262,3533.4435,-0.017700011965360196,0.0,0.0,0.0,0.0,-0.0027012720865619566,-0.5143626837261445,-0.24248623139152775,-0.3172296990631337,-0.006222860189073484,-0.02003800054034668,-0.018572826710245283
1771,0.0,299.94347999999997,3598.5909,-0.017709988604827642,0.0,0.0,0.0,0.0,-0.002702794662804514,-0.5120174657071895,-0.26004011049646075,-0.3218241904490747,-0.0013698226387159687,0.0008767088127044232,-0.020784577399528083
1772,0.0,300.76707000000005,3798.7928,-0.017719998279524973,0.0,0.0,0.0,0.0,-0.0027043222806902023,-0.5732838863162145,-0.26118664351461474,-0.32026763564545474,-0.01842086047349738,0.004519747776414376,-0.018019181789354785
1773,0.0,300.29778,3734.5237,-0.01773000795422275,0.0,0.0,0.0,0.0,-0.002705849898575974,-0.5447419076943405,-0.27013562786781076,-0.3203244384460607,-0.006400712027451094,0.017113215623192884,-0.012412394785007988
1774,0.0,299.89107,3485.7703,-0.017739984593689972,0.0,0.0,0.0,0.0,-0.0027073724748184758,-0.5217810220807775,-0.2520600972138948,-0.28574599195593375,-0.01208125046682659,0.0005687852889197375,-0.028027460353594977
1775,0.0,299.71447,3530.0477,-0.017749994268387526,0.0,0.0,0.0,0.0,-0.0027089000927042195,-0.5175084807816105,-0.23289002340445578,-0.3226478411903627,0.02209529847713618,0.00966367514365548,0.007114408414262442
1776,0.0,299.77438,3703.1202,-0.017760003943084857,0.0,0.0,0.0,0.0,-0.0027104277105899355,-0.5228337990671784,-0.26948139254324277,-0.3333408822781837,0.01849999024005688,0.0036824860465330764,-0.030384236516440673
1777,0.0,299.55419,3702.2543,-0.017770013617782632,0.0,0.0,0.0,0.0,-0.002711955328475679,-0.5458054251318014,-0.24212307242318676,-0.33746437448764066,0.01819846727529888,-0.008371786433730991,-0.003980989222018046
1778,0.0,299.63063,3583.6085,-0.017779990257249856,0.0,0.0,0.0,0.0,-0.002713477904718209,-0.5615242576431295,-0.23904767598466875,-0.28875555753545473,-0.0065802209350422445,-0.0054539326538862445,-0.038128876867027164
1779,0.0,299.73025,3608.5057,-0.01778999993194741,0.0,0.0,0.0,0.0,-0.002715005522603925,-0.5513078899323525,-0.24707885839728477,-0.2985088902155337,-0.0016924608236328785,-0.012154876258842888,-0.015561332915783984
1780,0.0,300.41123999999996,3689.5431,-0.017800009606644962,0.0,0.0,0.0,0.0,-0.0027165331404896687,-0.5728236681207944,-0.24661643131664673,-0.30208888520385174,-0.023701956471700977,-0.009665099570646062,-0.03332642197756177
1781,0.0,300.63071,3893.0943,-0.017809986246112297,0.0,0.0,0.0,0.0,-0.0027180557167321984,-0.5629052364694215,-0.2669020124261777,-0.35359620773972866,-0.020852272638709084,-0.017089174238070184,0.006122843082302563
1782,0.0,300.0916,3796.627,-0.01781999592080974,0.0,0.0,0.0,0.0,-0.0027195833346179143,-0.5295290416204474,-0.2684210465785947,-0.3561297281572677,-0.015796209355214485,0.0012126645084556689,-0.013152248729775886
1783,0.0,300.20974,3536.2113,-0.01783000559550707,0.0,0.0,0.0,0.0,-0.0027211109525036303,-0.5126322653378655,-0.24103055576786378,-0.32125712503060966,0.01166305681930409,0.005966775918424934,0.01274325741966159
1784,0.0,300.18031,3562.1518,-0.017840015270204734,0.0,0.0,0.0,0.0,-0.002722638570389374,-0.5410933562042565,-0.25798711380634576,-0.28372474039145174,0.0012553322675166489,0.007592420497338562,-0.01166760631225309
1785,0.0,299.73877999999996,3850.4529,-0.01784999190967196,0.0,0.0,0.0,0.0,-0.002724161146631876,-0.5810091786561414,-0.2514220434934238,-0.3380103136415207,0.00933370508101497,-0.0032681679793180665,-0.0029513558811511474
1786,0.0,300.03184,3861.0874,-0.01786000158436951,0.0,0.0,0.0,0.0,-0.0027256887645176198,-0.5925005493652514,-0.26480568916178676,-0.3163679298530837,-0.012203228553614888,-0.01104966965926749,-0.014857410846062288
1787,0.0,300.10636,3571.3212,-0.017870011259067065,0.0,0.0,0.0,0.0,-0.0027272163824033635,-0.5155462105054495,-0.24602701360097576,-0.3240192448032097,0.003047266994541837,-0.006477075114612545,-0.008979453290328041
1788,0.0,299.4914,3525.1727,-0.01787998789853451,0.0,0.0,0.0,0.0,-0.0027287389586458932,-0.4980525995164645,-0.25005279810328973,-0.3234590694854247,0.005272521470557355,-0.01164569781859089,-0.02136265279357968
1789,0.0,299.79416000000003,3711.6055,-0.01788999757323184,0.0,0.0,0.0,0.0,-0.002730266576531609,-0.5395560024900315,-0.25830193061241574,-0.3303774499757157,0.021305359579925277,-0.012172551393587288,-0.0031083507768203374
1790,0.0,299.24854,3767.2312,-0.017900007247929395,0.0,0.0,0.0,0.0,-0.002731794194417353,-0.5690438602127564,-0.26302645238368977,-0.3130738943079877,0.0073298359233234835,0.005929392866585515,-0.016749586506805487
1791,0.0,299.20131000000003,3695.9773,-0.01790998388739684,0.0,0.0,0.0,0.0,-0.0027333167706598827,-0.5499718690129974,-0.2664416017132387,-0.3070713399205817,0.0017847911111701685,0.01751560256915538,-0.006242480358709844
1792,0.0,300.03058,3543.0274,-0.017919993562094394,0.0,0.0,0.0,0.0,-0.0027348443885456264,-0.5380184258607844,-0.24704542114398476,-0.29192800306855077,-0.0026095071836133073,0.023402925088938875,-0.02212517415633468
1793,0.0,299.5518,3588.8183,-0.017930003236791725,0.0,0.0,0.0,0.0,-0.0027363720064313146,-0.5138922519697166,-0.24579042983512678,-0.3312284787347057,-0.02122168234691698,0.0058930727141009945,-0.007029282638911182
1794,0.0,299.5287,3775.8336,-0.017940012911489278,0.0,0.0,0.0,0.0,-0.0027378996243170584,-0.5290045631036855,-0.27289111085225576,-0.34586345787906564,-0.009447326894228572,0.002823146306247847,-0.015478653734124185
1795,0.0,300.15097000000003,3787.6558,-0.017949989550956724,0.0,0.0,0.0,0.0,-0.002739422200559588,-0.5600897893440584,-0.2516095758219318,-0.33965341013618167,-0.013827176647886089,-0.005801919519204874,0.019715892386557084
1796,0.0,300.32967,3620.5013,-0.017959999225654055,0.0,0.0,0.0,0.0,-0.002740949818445304,-0.5380020922691725,-0.2520640083592808,-0.3104758906540847,-0.004143367515468535,-0.010332013997690391,-0.016569253320257986
1797,0.0,300.04988,3656.8711,-0.01797000890035161,0.0,0.0,0.0,0.0,-0.002742477436331048,-0.5747860194569634,-0.2401811279440318,-0.2966303447951357,-0.0011929810106880588,-0.03030210347658477,-0.003139261997621037
1798,0.0,299.97299,3827.0095,-0.017979985539818943,0.0,0.0,0.0,0.0,-0.0027440000125735775,-0.5904620320190654,-0.2536491672132238,-0.3192041283404947,0.013272054408349788,-0.0007963647570925822,-0.016690763285500083
1799,0.0,299.74036,3746.272,-0.017989995214516497,0.0,0.0,0.0,0.0,-0.0027455276304592935,-0.5415919765784665,-0.25625779986067576,-0.34092337728151767,0.03554206354722857,0.008962642964543991,-0.012647586345219588
1800,0.0,299.61257,3656.6195,-0.01800000488921394,0.0,0.0,0.0,0.0,-0.0027470552483450095,-0.5237331091934335,-0.24700188178718777,-0.3407860413629637,0.012038259278333689,0.015315727171044586,-0.015744655190126487
1801,0.0,299.2369,3680.309,-0.01801001456391149,0.0,0.0,0.0,0.0,-0.002748582866230753,-0.5472050882899375,-0.24820326203325477,-0.3233136883610767,-0.008201943729443823,-0.011559480367581887,-0.008224400594060143
1802,0.0,299.45507000000003,3743.3983,-0.018019991203378827,0.0,0.0,0.0,0.0,-0.002750105442473283,-0.5656294708207825,-0.2635582566986747,-0.30871187289248975,-0.02079772735932588,-0.014993601792003286,-0.010607083028837588
1803,0.0,299.78328,3742.8051,-0.01803000087807638,0.0,0.0,0.0,0.0,-0.0027516330603590267,-0.5761859460601254,-0.2405342152063788,-0.3209991211576467,-0.002329278885606928,0.0027406190107780374,-0.01036284010548269
1804,0.0,300.13219,3725.4238,-0.01804001055277371,0.0,0.0,0.0,0.0,-0.0027531606782447426,-0.5654374396618305,-0.2621963573717657,-0.30480201433411674,-0.014490313374582587,0.012797609168275687,-0.009356189607359022
1805,0.0,300.23613,3720.8776,-0.01804998719224138,0.0,0.0,0.0,0.0,-0.0027546832544873,-0.5227636517627555,-0.26678333044196473,-0.34150689788160665,-0.005018314651019096,0.006029134774629275,-0.018175945765326183
1806,0.0,300.22089,3692.7892,-0.01805999686693871,0.0,0.0,0.0,0.0,-0.0027562108723729883,-0.5357960036214485,-0.26094048453532076,-0.3257792298294067,-0.007050442948699544,0.011880789067042591,-0.012981372206411686
1807,0.0,299.7252,3772.5316,-0.01807000654163604,0.0,0.0,0.0,0.0,-0.0027577384902587043,-0.5429284129303624,-0.2765082414567387,-0.3273187417663447,0.023753374861275576,0.004749602953649315,-0.016226407989921785
1808,0.0,299.90993,3775.6808,-0.018080016216333594,0.0,0.0,0.0,0.0,-0.002759266108144448,-0.5609670207506345,-0.26995563412004675,-0.3167900295797417,0.01034122342784929,0.006516833933961433,-0.018709481724732083
1809,0.0,299.72256,3624.4975,-0.01808999285580104,0.0,0.0,0.0,0.0,-0.0027607886843869778,-0.5593846584669674,-0.2518678330074198,-0.2905042245580347,0.005639575270957745,-0.015590420286404684,-0.018381405527853483
1810,0.0,299.49821000000003,3589.6314,-0.018100002530498593,0.0,0.0,0.0,0.0,-0.0027623163022727215,-0.5459260322912045,-0.25570129250825274,-0.2895309978369847,-0.008112058921022881,-0.02013757870717428,-0.035062886429187465
1811,0.0,300.24275,3696.0791,-0.018110012205195924,0.0,0.0,0.0,0.0,-0.0027638439201584375,-0.5297501125272654,-0.2521943933821488,-0.3415712595279587,-0.001710554835968618,0.00858177126987988,-0.01727948591160248
1812,0.0,300.55501,3710.1385,-0.01811998884466348,0.0,0.0,0.0,0.0,-0.002765366496400995,-0.5499916071249454,-0.26030732481283275,-0.3174905400363767,-0.005905740366851194,-0.0026016433495872075,-0.021568431729888482
1813,0.0,299.96834,3807.2878,-0.018129998519360924,0.0,0.0,0.0,0.0,-0.002766894114286683,-0.5465824359709864,-0.2722315964946667,-0.3385064008904807,0.0016116407532565586,-0.013009657082953187,0.003125250167288177
1814,0.0,300.09609,3856.1825,-0.018140008194058477,0.0,0.0,0.0,0.0,-0.002768421732172427,-0.5947478570270434,-0.2562245449923938,-0.3212107992360377,-0.024473407607587275,-0.007339055992608433,0.0005552517835615844
1815,0.0,300.48702000000003,3746.6025,-0.018149984833525812,0.0,0.0,0.0,0.0,-0.0027699443084149566,-0.5758717068066125,-0.25223933102408375,-0.31076255937237673,0.005902716929877805,0.0012922430434844589,0.01012190037745379
1816,0.0,300.3967,3783.7131,-0.018159994508223365,0.0,0.0,0.0,0.0,-0.0027714719263007004,-0.5668274262815115,-0.2504104855210908,-0.3329163912812897,-0.02168881496101938,0.006706877501517273,-0.0076611950505260824
1817,0.0,299.95292,3934.698,-0.018170004182920696,0.0,0.0,0.0,0.0,-0.0027729995441864164,-0.5514617012975325,-0.2781265133239497,-0.3664617279694567,0.00020683562444058682,-0.0032599162731536866,-0.004904508932912345
1818,0.0,299.69723,3897.5648,-0.018180013857618138,0.0,0.0,0.0,0.0,-0.0027745271620721323,-0.5829556320982414,-0.26936566924932176,-0.33244108579188064,-0.009341487551058042,0.005489977101018555,-0.007821957108742061
1819,0.0,299.66188,3764.2535,-0.018189990497085695,0.0,0.0,0.0,0.0,-0.00277604973831469,-0.5384229456982075,-0.26073622344766173,-0.34507990144423467,0.001143534709783089,0.014365985560812386,-0.015665889180352884
1820,0.0,299.96296,3660.3121,-0.018200000171783026,0.0,0.0,0.0,0.0,-0.002777577356200378,-0.5648684895981795,-0.25205468645836077,-0.2957203144828227,0.02011127574782838,0.008080335884242063,-0.01024549358490149
1821,0.0,299.96806000000004,3653.5972,-0.01821000984648058,0.0,0.0,0.0,0.0,-0.0027791049740861218,-0.5445641430967965,-0.2354387831034988,-0.3305993821451187,0.010244417513295292,-0.019553551482035282,-0.01033629497936289
1822,0.0,299.55489,3652.3051,-0.018219986485948025,0.0,0.0,0.0,0.0,-0.0027806275503286515,-0.5373900486787685,-0.2544861624583287,-0.31833335133705565,0.014711776409189286,-0.006799345489743153,-0.014961769526861686
1823,0.0,299.45799999999997,3715.2837,-0.01822999616064558,0.0,0.0,0.0,0.0,-0.0027821551682143952,-0.5201164446839965,-0.26842956801193574,-0.3408074513375767,0.007035041749829562,-0.00943892563234943,-0.02725545294340377
1824,0.0,299.61238,3688.2982,-0.01824000583534291,0.0,0.0,0.0,0.0,-0.0027836827861001112,-0.5409833577734006,-0.25344766216583675,-0.32671954618720866,0.004225732690922346,0.006233568520105314,-0.013727679541066486
1825,0.0,299.89056,3712.6333,-0.018250015510040463,0.0,0.0,0.0,0.0,-0.002785210403985855,-0.5427779655555144,-0.27200944141024175,-0.3137604117807417,-0.007962287890616633,-0.0056040450482511845,-0.018866296363208482
1826,0.0,300.23567,3840.1117,-0.01825999214950791,0.0,0.0,0.0,0.0,-0.0027867329802283847,-0.6045806893099684,-0.25635225503499776,-0.30636510460088173,-0.00941811367794545,0.01236168465725329,0.002077504068958688
1827,0.0,299.93977,3894.4209,-0.018270001824205462,0.0,0.0,0.0,0.0,-0.0027882605981141007,-0.5926056132681204,-0.26198741506864476,-0.32921367144085967,-0.016994164815943482,0.014781056371526685,-0.0005751822813060715
1828,0.0,300.08123,3777.8505,-0.018280011498902793,0.0,0.0,0.0,0.0,-0.0027897882159998166,-0.5478057024192134,-0.26892384154321675,-0.33164267511058365,-0.0019908483872814377,-0.005277575156756115,-0.016291041187300587
1829,0.0,300.33653,3800.5995,-0.01828998813837035,0.0,0.0,0.0,0.0,-0.002791310792242374,-0.5401464841183075,-0.25493113123974376,-0.36020974180493365,-0.0011379165419536188,-0.01972719215167228,-0.008254839437664222
1830,0.0,300.33117999999996,3832.4975,-0.01829999781306768,0.0,0.0,0.0,0.0,-0.00279283841012809,-0.5714601171962225,-0.2546034765549067,-0.33891993865379366,0.014919560567445984,-0.017192725358539884,-0.013714349222750886
1831,0.0,299.79553,3667.4903,-0.018310007487765123,0.0,0.0,0.0,0.0,-0.002794366028013806,-0.5464381086267425,-0.2518320652788898,-0.3165553000615757,0.0066668708411939245,0.013998032906248287,-0.02096023545011418
1832,0.0,299.73424,3621.8278,-0.01831998412723268,0.0,0.0,0.0,0.0,-0.0027958886042563635,-0.5817549712597454,-0.2339580903348658,-0.2852321626977227,0.006453625872848284,0.014606829030081788,-0.0026989665283172573
1833,0.0,299.66736000000003,3730.8039,-0.01832999380193001,0.0,0.0,0.0,0.0,-0.0027974162221420795,-0.5628961172185215,-0.24904514114384177,-0.3221299690642527,-0.014091846693256988,-0.00945993689304808,-0.005792649294039974
1834,0.0,300.05397,3813.4417,-0.018340003476627564,0.0,0.0,0.0,0.0,-0.0027989438400277955,-0.5603310745903715,-0.25709959791125475,-0.3417603927916247,0.004226836728231306,-0.00989923096727803,0.011096645960403688
1835,0.0,299.80467999999996,3846.4996,-0.018350013151324895,0.0,0.0,0.0,0.0,-0.0028004714579135115,-0.5481722456428885,-0.26843485717745774,-0.3526327183521397,-0.0037577834985643562,-0.006815986704085513,-0.018525679169842182
1836,0.0,299.69453,4032.4936,-0.018359989790792564,0.0,0.0,0.0,0.0,-0.002801994034156069,-0.5826394372720354,-0.30039884483205775,-0.3427390707982127,0.006338984020759014,-0.003484674802385627,-0.003083204138488557
1837,0.0,299.35643999999996,3914.8358,-0.018369999465489895,0.0,0.0,0.0,0.0,-0.002803521652041785,-0.5838129126103484,-0.26414817090689474,-0.3420512462328297,-0.018754469015921982,-0.011590857683428591,-0.01978235754011668
1838,0.0,300.43561,3793.0571,-0.018380009140187448,0.0,0.0,0.0,0.0,-0.0028050492699275287,-0.5966528584075524,-0.25907361175607474,-0.2972681553355827,0.0039058386912512663,0.0060233883293371445,0.0017357025888755085
1839,0.0,300.13907,3746.1901,-0.018389985779654894,0.0,0.0,0.0,0.0,-0.0028065718461700584,-0.5460530735887426,-0.26561791044194677,-0.3270772640025127,-0.002060754031555588,0.011441703215708188,-0.029059673429216473
1840,0.0,300.34819,3649.4883,-0.018399995454352447,0.0,0.0,0.0,0.0,-0.002808099464055802,-0.5266330917746395,-0.2446220207473138,-0.33809821308769566,0.0016962051880524186,0.002328250842055468,-0.002214513214355438
1841,0.0,299.82217,3532.3885,-0.018410005129049778,0.0,0.0,0.0,0.0,-0.0028096270819414904,-0.4973044156426245,-0.2626326425998237,-0.3138208622817077,0.014462181498806185,-0.012216779760452288,-0.034604116168160365
1842,0.0,299.721,3660.8646,-0.01842001480374711,0.0,0.0,0.0,0.0,-0.0028111546998272063,-0.5484979650200345,-0.23291819175723577,-0.3313952698336667,0.0074279530848318925,-0.023710309705525377,-0.013422456186943288
1843,0.0,299.12921,3818.015,-0.018429991443214666,0.0,0.0,0.0,0.0,-0.002812677276069764,-0.5706718187509235,-0.27581114565294074,-0.31409826989408574,0.02164881387357158,0.014864664703528187,-0.038049503920443664
1844,0.0,299.50681000000003,3825.0043,-0.018440001117912108,0.0,0.0,0.0,0.0,-0.00281420489395548,-0.5957304056490134,-0.27370491280257175,-0.29327046825854175,-0.01140629620421379,0.006939483044823654,-0.014631022402719487
1845,0.0,298.73786,3891.803,-0.01845001079260966,0.0,0.0,0.0,0.0,-0.0028157325118412235,-0.5597207839226405,-0.27657306919813673,-0.3467170805583117,-0.01246416274586709,0.016680281213215586,-0.016732248784344383
1846,0.0,299.81842,4098.1638,-0.018459987432076996,0.0,0.0,0.0,0.0,-0.0028172550880837532,-0.6066727467914385,-0.27648229212167774,-0.36258441500429567,-0.013617810806223289,0.0055051237714634155,0.01866156411425298
1847,0.0,299.67445,3940.3881,-0.01846999710677455,0.0,0.0,0.0,0.0,-0.002818782705969497,-0.5688137713800484,-0.26065584231722877,-0.36830998734436565,-0.0015435018118567685,0.0006739611559247875,-0.000944664436896121
1848,0.0,299.9832,3693.1402,-0.01848000678147188,0.0,0.0,0.0,0.0,-0.002820310323855185,-0.5733667296443904,-0.24094471321939176,-0.3083109500929217,0.0006436288555687224,-0.01875647018486948,5.930987418267884e-05
1849,0.0,300.25928,3730.9196,-0.018490016456169434,0.0,0.0,0.0,0.0,-0.002821837941740929,-0.5830746889849915,-0.23649477209271674,-0.3145369362598787,-0.021174806357540682,-0.023174508118895876,-0.0033449438645702565
1850,0.0,300.06528,3800.0701,-0.01849999309563688,0.0,0.0,0.0,0.0,-0.0028233605179834587,-0.6084263078120015,-0.23060371574631477,-0.3160963990912857,0.004011914020370087,-0.015548114054979384,0.0009149836158243521
1851,0.0,299.78861,3787.4222,-0.018510002770334433,0.0,0.0,0.0,0.0,-0.0028248881358692024,-0.5440608313746235,-0.2754365876209747,-0.3317843680045677,-0.01119467689432859,0.008290219192730932,-0.03539832490129267
1852,0.0,299.61045,3858.9095,-0.018520012445031764,0.0,0.0,0.0,0.0,-0.0028264157537549184,-0.5615780916209424,-0.26486594714523376,-0.3465680821311067,0.01157464770832879,0.016007609803078086,-0.00875757482318034
1853,0.0,299.31351,3888.3023,-0.01852998908449921,0.0,0.0,0.0,0.0,-0.002827938329997448,-0.5394558021876424,-0.2824095822916557,-0.3600814238122697,0.0015562640008412983,-6.221620882876174e-05,-0.01933634916409908
1854,0.0,299.47916000000004,3836.2085,-0.018539998759196763,0.0,0.0,0.0,0.0,-0.002829465947883192,-0.5656892627091834,-0.27101762154985676,-0.3294046994822127,0.014215593914719885,0.0034886269844006767,-0.005654336602389574
1855,0.0,300.09996,3898.8979,-0.018550008433894094,0.0,0.0,0.0,0.0,-0.00283099356576888,-0.5931610060454334,-0.27975232377190473,-0.3122542864345987,0.0027969122479087473,0.0028603832474228467,-0.023517170050963977
1856,0.0,300.07318,3907.5023,-0.01855998507336154,0.0,0.0,0.0,0.0,-0.0028325161420114375,-0.5988508410544764,-0.2729816852786947,-0.3159506227993987,-0.002248640997598588,-0.0042948756618462255,-0.013016592779887686
1857,0.0,300.44723,3798.0879999999997,-0.018569994748059093,0.0,0.0,0.0,0.0,-0.0028340437598971535,-0.5375655942585935,-0.2768673271596777,-0.34009097205936567,-0.020415784760631082,0.018187055039422584,-0.03307231303798317
1858,0.0,300.03206,3739.9640000000004,-0.018580004422756646,0.0,0.0,0.0,0.0,-0.0028355713777828973,-0.5606153723034295,-0.24661380699888777,-0.3296264796641007,-0.01049401141042829,0.002222923595485478,-0.006412189820608863
1859,0.0,299.90796,3813.6746,-0.018590014097453977,0.0,0.0,0.0,0.0,-0.0028370989956686132,-0.5451677969763725,-0.26875927959447576,-0.3453347743743887,-0.007329144481455244,0.016839058517135685,-0.029589414766997873
1860,0.0,300.38266,3705.6799,-0.018599990736921423,0.0,0.0,0.0,0.0,-0.002838621571911143,-0.5817901918332214,-0.23940680221761176,-0.30523715458956174,0.012694151266815189,-0.008546900065038361,-0.008657352837239202
1861,0.0,300.05717000000004,3672.6925,-0.018610000411618977,0.0,0.0,0.0,0.0,-0.0028401491897968867,-0.5616079217038865,-0.2449671134663718,-0.3098317776980157,0.008879106167999553,-0.02606414946958127,-0.027044671591351273
1862,0.0,299.6755,3917.5497,-0.01862001008631642,0.0,0.0,0.0,0.0,-0.0028416768076826027,-0.6016410683848504,-0.2535112030796077,-0.33568499585452966,0.01180901042995859,-0.02138165731245528,0.006486757124618083
1863,0.0,299.64455,3946.1527,-0.018629986725783643,0.0,0.0,0.0,0.0,-0.0028431993839251046,-0.5507033646576905,-0.2827619197489287,-0.3660666110929617,-0.007068843367865524,-0.002316371396558058,-0.02284572669994768
1864,0.0,300.01389,3849.9155,-0.018639996400481418,0.0,0.0,0.0,0.0,-0.002844727001810876,-0.5731187670799185,-0.26101703558037576,-0.3361423769496697,0.01066704311675519,0.01022396607327689,0.01031364478662749
1865,0.0,300.1432,3987.9323,-0.01865000607517875,0.0,0.0,0.0,0.0,-0.002846254619696592,-0.5787650627321645,-0.26179375257703175,-0.37167303535377266,-0.02109756832891788,-9.9633704078831e-05,-0.0019122529074996682
1866,0.0,300.17365,4025.2583,-0.01866001574987619,0.0,0.0,0.0,0.0,-0.002847782237582308,-0.6281620994172723,-0.26111363884490973,-0.3343022843705667,-0.0014234559930091687,0.004826001099264225,0.03605066950117407
1867,0.0,299.6307,3789.817,-0.018669992389343526,0.0,0.0,0.0,0.0,-0.002849304813824838,-0.5931377823531414,-0.25009196021965474,-0.3087799835642117,-0.009483976555645611,-0.0017586139974866885,-0.01163992229302089
1868,0.0,299.36226,3838.5848,-0.01868000206404108,0.0,0.0,0.0,0.0,-0.0028508324317105815,-0.5705383534477515,-0.2580346960310418,-0.3382608802587497,-0.004304190875315566,0.0035219459914140067,0.001173476959513159
1869,0.0,299.85941,3806.1393,-0.018690011738738632,0.0,0.0,0.0,0.0,-0.0028523600495962975,-0.5371835077783844,-0.2658863913209437,-0.35390141893485066,-0.012780203558057887,-0.0004371721664005336,-0.02899543843912697
1870,0.0,299.92171,3707.324,-0.018699988378205856,0.0,0.0,0.0,0.0,-0.0028538826258387995,-0.5411887537011715,-0.24741744605070076,-0.3383277243678467,-0.006482640086811764,0.005920210490204285,-0.014687471579040585
1871,0.0,299.72302,3729.6005,-0.01870999805290363,0.0,0.0,0.0,0.0,-0.002855410243724571,-0.5391569846006515,-0.2637435193469588,-0.3308049199279037,0.014656893717522788,0.014234220491308186,-0.045331679700138454
1872,0.0,299.6738,3772.955,-0.018720007727600962,0.0,0.0,0.0,0.0,-0.002856937861610287,-0.5894279697620115,-0.25933382451425574,-0.29812230490488073,0.006155248948325775,-0.005087589749756015,-0.02895414647105177
1873,0.0,299.7082,3749.9637,-0.01872998436706841,0.0,0.0,0.0,0.0,-0.0028584604378528167,-0.5550357383752625,-0.26443330961753575,-0.3204262903461127,0.021372573525308778,-0.023158420747058178,-0.02896167998554527
1874,0.0,299.92516,3870.9439,-0.01873999404176574,0.0,0.0,0.0,0.0,-0.0028599880557385327,-0.5607675523359484,-0.28334241073121874,-0.3325603250636487,0.01067363633515589,-0.03230648544015187,-0.008446320199161902
1875,0.0,300.25768999999997,4040.8898,-0.018750003716463404,0.0,0.0,0.0,0.0,-0.002861515673624304,-0.5608813808521825,-0.2912124053179267,-0.3762358018790826,0.017277692458925485,-0.007988815892809743,-0.0077775445330088835
1876,0.0,300.48569,3973.4618,-0.018760013391160846,0.0,0.0,0.0,0.0,-0.0028630432915099924,-0.5939206497779045,-0.27089620379037377,-0.34301631629057466,0.01041776434040329,0.008203848335656792,0.007823270382196674
1877,0.0,300.20442,3832.5439,-0.01876999003062818,0.0,0.0,0.0,0.0,-0.002864565867752522,-0.5695590066960975,-0.2676476429097657,-0.3277910075054537,-0.012638118536285187,0.013009062305144488,-0.004716348085367315
1878,0.0,300.57882,3977.1223,-0.018779999705325734,0.0,0.0,0.0,0.0,-0.002866093485638266,-0.6489259143090014,-0.2430939686690068,-0.3169259773456587,-0.013554223282947687,0.016966745254987384,0.024487177676446276
1879,0.0,300.3703,4004.2658,-0.018790009380023176,0.0,0.0,0.0,0.0,-0.002867621103523982,-0.5994015323513254,-0.26372305169493876,-0.35407222250420767,-0.022591482998105778,0.01054158350262329,-0.023672322959276376
1880,0.0,300.08026,3850.5969,-0.01879998601949051,0.0,0.0,0.0,0.0,-0.0028691436797665115,-0.5565774794624205,-0.27035461147942275,-0.3435532273860637,-0.003677247847491106,0.005766744238008344,-0.021346118578447877
1881,0.0,299.98852999999997,3826.022,-0.018809995694187953,0.0,0.0,0.0,0.0,-0.0028706712976522275,-0.5496580451920254,-0.2520611307289968,-0.3612959763096366,-0.017488481916978785,-0.027359546152676974,-0.015840058766542087
1882,0.0,300.25667999999996,3877.1535,-0.018820005368885617,0.0,0.0,0.0,0.0,-0.002872198915537999,-0.5886303494157925,-0.24772469387852378,-0.3422028081827877,-0.002931768034192977,-0.02326893492221508,-0.0026538067819603375
1883,0.0,299.56493,3829.4178,-0.01883001504358295,0.0,0.0,0.0,0.0,-0.0028737265334236872,-0.5790306963783804,-0.25711718793299077,-0.32789950632616166,0.009700988281238002,0.004018820231726676,-0.02825128426093467
1884,0.0,299.88905,3937.9429,-0.018839991683050394,0.0,0.0,0.0,0.0,-0.002875249109666217,-0.6370739785518064,-0.26187147899220276,-0.29809085362177673,0.006596879881261353,0.006416198541979494,-0.018409387442615083
1885,0.0,300.06257999999997,3999.5307,-0.018850001357747947,0.0,0.0,0.0,0.0,-0.0028767767275519607,-0.5757036390125254,-0.3034290807136187,-0.33662473465977466,0.006924463739916363,-0.00044982673809194256,-0.004782548881975825
1886,0.0,300.81338999999997,3861.9673,-0.0188600110324455,0.0,0.0,0.0,0.0,-0.0028783043454377044,-0.5622949761991934,-0.26863570361227973,-0.3430109663300467,-0.013333279032392186,-0.003343365119589447,-0.0017144301123010782
1887,0.0,300.47585,3876.6465,-0.018869987671912725,0.0,0.0,0.0,0.0,-0.0028798269216802064,-0.5360449085085135,-0.27742798883751074,-0.3649308286583686,0.005370113869838974,0.0034022767976285766,0.006096987270225795
1888,0.0,300.53778,3890.5216,-0.018879997346610278,0.0,0.0,0.0,0.0,-0.00288135453956595,-0.5738462097242114,-0.27034885621885474,-0.33842634400007965,0.00019264727580780582,-0.005454077751300564,-0.017436158695064884
1889,0.0,300.15929,3757.7474,-0.01889000702130761,0.0,0.0,0.0,0.0,-0.002882882157451666,-0.5584253538022914,-0.25497873372944174,-0.3288573012481887,-0.001101075173617659,-0.01001276807278327,-0.01808492753534338
1890,0.0,300.36451,3818.2955,-0.018899983660775166,0.0,0.0,0.0,0.0,-0.0028844047336942236,-0.6164628503176464,-0.26144283366989873,-0.28276081530631975,-0.01173737364788859,0.01001749863352514,-0.035457585846641264
1891,0.0,300.0201,4014.952,-0.018909993335472608,0.0,0.0,0.0,0.0,-0.002885932351579912,-0.5785991835582934,-0.2824265744958327,-0.35941938646193167,-0.010381425138816892,0.026668970613272475,-0.04900474677639195
1892,0.0,299.85335,3922.0627,-0.01892000301017016,0.0,0.0,0.0,0.0,-0.0028874599694656555,-0.5761231042889234,-0.2817147561680817,-0.3343712563048737,-0.0037958578909470064,0.024312070833914578,-0.028591971368557872
1893,0.0,299.95231,3828.2782,-0.018930012684867714,0.0,0.0,0.0,0.0,-0.0028889875873513993,-0.5395286751348345,-0.2662220405490698,-0.35795027514194167,-0.015298885941132484,-0.028703347819549873,-0.009721404460152922
1894,0.0,299.71689,3972.7769,-0.018939989324334938,0.0,0.0,0.0,0.0,-0.0028905101635939012,-0.5918683522303584,-0.25222621956778973,-0.36353040556265764,0.0057311369069691755,-0.014239070919536885,0.02875965311435677
1895,0.0,300.20777999999996,4072.9176,-0.01894999899903238,0.0,0.0,0.0,0.0,-0.002892037781479645,-0.6172490310702364,-0.27047756937905776,-0.35033864919823265,0.009673807644655481,-0.016075599898038185,0.01995053983146498
1896,0.0,300.01517,4050.9014,-0.018960008673729933,0.0,0.0,0.0,0.0,-0.0028935653993653887,-0.6354329085573454,-0.28385294692660473,-0.3120870089755897,0.01883540439415968,0.0025328101292188977,0.015435491306364383
1897,0.0,300.28843,4017.4245,-0.01896998531319738,0.0,0.0,0.0,0.0,-0.0028950879756079184,-0.5841743693185215,-0.27649999360092475,-0.36052238012328863,0.004522530161188975,-0.018911679835187482,0.0035736022921120866
1898,0.0,300.02506,3921.1038,-0.01897999498789471,0.0,0.0,0.0,0.0,-0.0028966155934936066,-0.5804870508796114,-0.26229845245184175,-0.34913214190665964,0.005995509259460694,-0.0002264687535457258,-0.0016012597020070285
1899,0.0,300.46495,3803.0091,-0.018990004662592264,0.0,0.0,0.0,0.0,-0.0028981432113793504,-0.5423999827382104,-0.24934367502080476,-0.36427614750375664,0.011149592331129091,0.007098670411059224,-0.005381913572553515
1900,0.0,299.89726,3894.8067,-0.019000014337289817,0.0,0.0,0.0,0.0,-0.002899670829265094,-0.5764073310744745,-0.27070619913162175,-0.33681045327060366,-0.014262105134060187,0.007807078442948654,-0.04204202950147526
1901,0.0,299.51685,3956.7468,-0.019009990976757263,0.0,0.0,0.0,0.0,-0.002901193405507624,-0.6008610684578704,-0.27159141494898575,-0.33029975395804767,-0.007340502812426222,-0.02007239835474148,-0.013375391733048388
1902,0.0,299.27759,3835.9854,-0.019020000651454594,0.0,0.0,0.0,0.0,-0.00290272102339334,-0.6141074187376834,-0.25048675285611777,-0.30144960545075966,-0.02652097834341677,-0.0016506030567018384,-0.04336139968193695
1903,0.0,299.52078,3898.7239,-0.019030010326152147,0.0,0.0,0.0,0.0,-0.0029042486412790836,-0.5669695346080365,-0.2812789978300757,-0.33686619215860464,-0.0038124534077098563,0.022933631212373178,-0.028552500210912376
1904,0.0,299.45152,3996.5321,-0.019039986965619593,0.0,0.0,0.0,0.0,-0.0029057712175216133,-0.5912086858852544,-0.28123670477090174,-0.3424005642048047,-0.01371837587864829,0.02135358217868448,-0.028811500108723673
1905,0.0,300.14306,3948.2626,-0.019049996640316924,0.0,0.0,0.0,0.0,-0.0029072988354073015,-0.5587158931359655,-0.27247140239583373,-0.36898592648607564,-0.0002863355413941177,-0.008214017212335382,0.00869926602895071
1906,0.0,300.29939,3910.2098,-0.019060006315014477,0.0,0.0,0.0,0.0,-0.0029088264532930452,-0.5809075294061095,-0.27228719352765374,-0.33541141832752963,0.01110494853172309,-0.02125064610102548,0.006534220900377394
1907,0.0,300.50084,3953.2924,-0.01907001598971203,0.0,0.0,0.0,0.0,-0.002910354071178789,-0.6012738868136124,-0.26763240362826174,-0.3327958854468967,0.03158159010661027,-0.02316925644362758,0.017619943011452983
1908,0.0,300.11707,3992.4704,-0.019079992629179476,0.0,0.0,0.0,0.0,-0.0029118766474213187,-0.6014985547582854,-0.28438958444456675,-0.32772316027875764,0.01980509689886088,-0.005835992890917655,-0.02039080105291538
1909,0.0,299.75894,3925.8581,-0.019090002303876807,0.0,0.0,0.0,0.0,-0.0029134042653070347,-0.5646023898569175,-0.26686590019261375,-0.36189452340870865,0.001958195794858878,-0.02272059943184858,-0.03081440880664537
1910,0.0,299.33158,3884.5853,-0.01910001197857436,0.0,0.0,0.0,0.0,-0.0029149318831927784,-0.5830756110425825,-0.24787430025578877,-0.34986703193918767,-0.005078047872239305,0.02240854373230108,-0.017229529641922182
1911,0.0,299.73555,3897.8837,-0.019109988618041696,0.0,0.0,0.0,0.0,-0.002916454459435308,-0.5676713318922985,-0.2501437069022618,-0.36704426571694865,-0.011988483367171187,0.027598056106966078,-0.02057077352242728
1912,0.0,299.63174,3835.8491,-0.01911999829273925,0.0,0.0,0.0,0.0,-0.002917982077321024,-0.6107876162425444,-0.24409280022008378,-0.31112191865284267,-0.01234371264022959,0.018621684616817184,-0.00961633194465807
1913,0.0,299.73925,3911.4590000000003,-0.01913000796743669,0.0,0.0,0.0,0.0,-0.00291950969520674,-0.6201725311862634,-0.24533175177985878,-0.3234816041676487,-0.02018517207762138,-0.03099660839987707,0.014209825481900586
1914,0.0,300.46271,4075.4855,-0.019139984606904248,0.0,0.0,0.0,0.0,-0.0029210322714492976,-0.6179151518184773,-0.2804097103042837,-0.3405209548718017,-0.009057946837149751,-0.015571727848559883,-0.003923227684167426
1915,0.0,300.4734,4036.7666,-0.01914999428160158,0.0,0.0,0.0,0.0,-0.0029225598893350135,-0.5781031875018424,-0.27902620848524273,-0.36994687261591364,0.012001728572478387,-0.0029110496027732274,0.004381825084727466
1916,0.0,300.03717,4007.6696,-0.01916000395629891,0.0,0.0,0.0,0.0,-0.0029240875072207295,-0.5801831771746214,-0.2979980297801157,-0.3400502596703477,0.0007112264073075812,0.012736114006456589,-0.025372309394051978
1917,0.0,300.12687999999997,4032.929,-0.019170013630996463,0.0,0.0,0.0,0.0,-0.0029256151251064733,-0.5638815232057734,-0.2831809087977797,-0.37884727162681464,0.01005040443714769,-0.006229111638215454,0.01152639471206659
1918,0.0,299.96974,3872.1595,-0.01917999027046391,0.0,0.0,0.0,0.0,-0.002927137701349003,-0.5901134334546614,-0.27237472820379277,-0.31455164865133073,0.004497141153433276,0.005804449402054555,-0.02343028588138918
1919,0.0,300.02097000000003,3849.8299,-0.019189999945161462,0.0,0.0,0.0,0.0,-0.002928665319234719,-0.5839398323178745,-0.2742096633398867,-0.3121026738221357,0.026665021977632774,0.0016250104870010483,-0.006620993004491134
1920,0.0,299.7231,3804.6364,-0.019200009619858793,0.0,0.0,0.0,0.0,-0.002930192937120435,-0.5734472830273404,-0.2646786681292507,-0.3183885025399987,0.008321961886563691,-0.0055621299313644845,-0.05618660572993625
1921,0.0,299.50663,3684.1609999999996,-0.01920998625932646,0.0,0.0,0.0,0.0,-0.0029317155133629924,-0.5427318626759644,-0.24866190969101978,-0.3284991781328447,-0.0054591654827026844,-0.028723766835565073,-0.024349736379881876
1922,0.0,299.74953999999997,3785.6813,-0.019219995934023792,0.0,0.0,0.0,0.0,-0.0029332431312487084,-0.5533363761025485,-0.2608573068346118,-0.3365589139332787,-0.012684941836656288,-0.0072338003828205134,-0.036824702398315166
1923,0.0,300.16213,4163.9756,-0.019230005608721346,0.0,0.0,0.0,0.0,-0.002934770749134452,-0.5941898095344684,-0.2827632167090567,-0.38879160195074364,-0.02083282735603998,0.02023595414613318,-0.006994529579031323
1924,0.0,299.44736,4198.6411,-0.019240015283418677,0.0,0.0,0.0,0.0,-0.002936298367020168,-0.6624097602797534,-0.28332810363980676,-0.3305441802796707,-0.01020001486741309,0.026009301228418175,0.00020691642100356084
1925,0.0,299.5935,4093.5904,-0.019249991922886234,0.0,0.0,0.0,0.0,-0.0029378209432627256,-0.6342695657200325,-0.27387326430668674,-0.33620644475349265,-0.0006105952709760615,-0.014952340221431088,0.01097981113112299
1926,0.0,299.83767,4109.209,-0.019260001597583676,0.0,0.0,0.0,0.0,-0.002939348561148414,-0.6176265680574965,-0.2910754037719057,-0.3403949470893657,0.01021828477996619,-0.014576566289345087,0.017262340706660384
1927,0.0,299.91621000000004,4121.9714,-0.019270011272281007,0.0,0.0,0.0,0.0,-0.00294087617903413,-0.5974442270006544,-0.27861977360513074,-0.37691236923585464,0.028014010471767575,-0.0014171890411406687,-0.004570355667233986
1928,0.0,300.66771,4030.3438,-0.019279987911748564,0.0,0.0,0.0,0.0,-0.0029423987552766873,-0.5710498117007284,-0.2810911311290347,-0.37298294481805067,0.014698180619347486,-0.002166900693481448,-0.009113874088344341
1929,0.0,300.37408999999997,3836.7566,-0.019289997586445895,0.0,0.0,0.0,0.0,-0.0029439263731624032,-0.5575697451528494,-0.25903561487732474,-0.3496728628225247,0.0038860787944261163,-0.004913140810514246,-0.0037757718289146663
1930,0.0,300.40725,3766.8808,-0.019300007261143448,0.0,0.0,0.0,0.0,-0.002945453991048147,-0.6002350724135894,-0.2426293934981568,-0.30217323827467674,0.0014437237307844387,0.005453838016326905,-0.0008752908097194772
1931,0.0,300.11584,3861.5372,-0.019309983900610894,0.0,0.0,0.0,0.0,-0.0029469765672906767,-0.5925675049318594,-0.2638161795116297,-0.3174271916401247,0.01131748179319849,0.0026013161711299177,-0.025321190926506976
1932,0.0,299.46442,4029.4911,-0.019319993575308447,0.0,0.0,0.0,0.0,-0.0029485041851764204,-0.6038048234433965,-0.2745541278438827,-0.34650572671995267,-0.0002321994630638028,-0.005919587240067774,-0.027329291517941074
1933,0.0,299.45714,4096.0348,-0.01933000325000578,0.0,0.0,0.0,0.0,-0.0029500318030621087,-0.5976135309598634,-0.27040722955711577,-0.3770715508265646,0.0014200098280940587,-0.02900922573323767,-0.018888640554413683
1934,0.0,299.32345,3974.9339,-0.01934001292470333,0.0,0.0,0.0,0.0,-0.0029515594209478524,-0.5519282827035805,-0.2837013647116447,-0.37265100408529067,-0.006645933851727603,-0.0028793913126737973,-0.015005094074637485
1935,0.0,299.88544,3967.5463,-0.019349989564170778,0.0,0.0,0.0,0.0,-0.002953081997190382,-0.5863174946050315,-0.2809189495395417,-0.33879857155681564,0.00015388911186017286,0.01956568920498318,-0.007548671803070904
1936,0.0,300.248,4146.6073,-0.01935999923886833,0.0,0.0,0.0,0.0,-0.002954609615076126,-0.6505157645109074,-0.2846085984536817,-0.3253407255836297,-0.013849175320807188,0.014532542599000286,-0.0051415582871822945
1937,0.0,300.39451,4016.2596,-0.01937000891356566,0.0,0.0,0.0,0.0,-0.002956137232961842,-0.6101345461555914,-0.28988377099180074,-0.3208243152503947,-0.008625920096612031,0.01234971108082159,-0.005868708203521405
1938,0.0,299.84778,3762.6538,-0.01937998555303322,0.0,0.0,0.0,0.0,-0.0029576598092043993,-0.5630400797927295,-0.2584939617713678,-0.3222187500380147,-0.007963193837531043,0.014841834152274984,-0.012122505957898188
1939,0.0,300.34159,3858.5021,-0.01938999522773066,0.0,0.0,0.0,0.0,-0.0029591874270901153,-0.5419774270490075,-0.27353205233551176,-0.35737881221804263,0.025285852816019375,0.007568780460580473,-0.03307556253105387
1940,0.0,300.02608,3959.0875,-0.019400004902427992,0.0,0.0,0.0,0.0,-0.0029607150449758035,-0.5592473529459164,-0.2623619832331118,-0.3818544054060956,0.01002022549219426,-0.01033334439507169,-0.01979731209834258
1941,0.0,300.32218,3977.423,-0.019410014577125545,0.0,0.0,0.0,0.0,-0.0029622426628615472,-0.5929701806541005,-0.26154202072218774,-0.3545250541063987,0.013211038513827988,-0.016957680719592784,-0.014003836802821086
1942,0.0,299.83752999999996,4022.1778,-0.01941999121659288,0.0,0.0,0.0,0.0,-0.002963765239104077,-0.6492130693873414,-0.2532602108973368,-0.3201683168706527,-0.0008462548716738533,-0.008970044857849501,0.004995006656318775
1943,0.0,299.71263999999996,4146.8171,-0.019430000891290433,0.0,0.0,0.0,0.0,-0.0029652928569898207,-0.6293529722598025,-0.2771018438953227,-0.35407403622188666,0.006836768970261562,0.024546175176768877,-0.002991366695799907
1944,0.0,299.77786000000003,4166.8152,-0.019440010565987875,0.0,0.0,0.0,0.0,-0.0029668204748755367,-0.6322931403399744,-0.28419043013741174,-0.3501242049470687,-0.020058347615604783,0.006301326175492474,0.003589819765262627
1945,0.0,300.49059,4249.187,-0.019449987205455432,0.0,0.0,0.0,0.0,-0.002968343051118094,-0.5955259317788334,-0.28468925316164173,-0.4114315507276326,-0.02041443916449828,0.0015170941837755387,0.0016668056350759085
1946,0.0,300.49452,4252.1857,-0.019459996880152763,0.0,0.0,0.0,0.0,-0.00296987066900381,-0.5937496638235294,-0.29915708656950574,-0.3996515253300346,-0.01041212763009699,-0.00887551551362018,0.007670866928030622
1947,0.0,300.22622,4008.9617,-0.019470006554850317,0.0,0.0,0.0,0.0,-0.002971398286889526,-0.5949650573184795,-0.28785809152438174,-0.3358011041834887,0.002985479307418867,0.006245614037294114,-0.0039078047004202955
1948,0.0,299.97938999999997,3875.6869,-0.019480016229547648,0.0,0.0,0.0,0.0,-0.002972925904775242,-0.6011771619590663,-0.26309161449762075,-0.3138432753739197,0.01060403111953639,0.00010465118583826791,-0.012697006605596988
1949,0.0,300.41132000000005,3969.0826,-0.019489992869015316,0.0,0.0,0.0,0.0,-0.0029744484810177996,-0.5922067980287605,-0.27719186103420673,-0.33710333321200864,-0.006178275056848274,-0.007610081750556593,-0.014883688474155686
1950,0.0,300.62442999999996,3796.2673,-0.019500002543712647,0.0,0.0,0.0,0.0,-0.0029759760989035156,-0.5652852393643094,-0.26257673145930577,-0.3261084854494017,0.014353303722560787,0.0037903389203023264,-0.030535668770385868
1951,0.0,299.94862,3719.2579,-0.019510012218409978,0.0,0.0,0.0,0.0,-0.0029775037167892315,-0.5128857399828816,-0.2587221051638837,-0.3589536764509697,-0.001042808834567219,0.008613129131324662,-0.03645981077230317
1952,0.0,300.17556,3971.823,-0.019519988857877646,0.0,0.0,0.0,0.0,-0.002979026293031789,-0.5662767147196605,-0.27768899193076974,-0.36336929879675767,0.003756211441034207,-0.011474434233688489,-0.03184181401054237
1953,0.0,299.99492999999995,4101.2188,-0.019529998532574977,0.0,0.0,0.0,0.0,-0.002980553910917505,-0.6271153917989705,-0.2705247767012168,-0.34902792913387465,-0.018977968683229682,-0.024034670314287274,-0.002048634648434498
1954,0.0,299.86638,4164.8492,-0.01954000820727253,0.0,0.0,0.0,0.0,-0.002982081528803221,-0.6509682516080644,-0.2876381351926737,-0.32740378384723773,0.0033306768978622163,-0.0052781881730666145,-0.006128983276583555
1955,0.0,299.90681,4286.0649,-0.019549984846739976,0.0,0.0,0.0,0.0,-0.0029836041050457784,-0.6529334907070183,-0.3054313642362287,-0.34449186174869967,0.003738190585355686,0.012124527391847688,-0.011528914665065289
1956,0.0,300.13421,4216.6124,-0.019559994521437418,0.0,0.0,0.0,0.0,-0.0029851317229314944,-0.6357351205321714,-0.2895429136581607,-0.3564668465980386,0.005397456221137454,-0.007521780854691972,-0.002206021165267338
1957,0.0,299.94642000000005,4030.8383,-0.01957000419613486,0.0,0.0,0.0,0.0,-0.0029866593408172104,-0.5725878037625164,-0.2849986997421817,-0.36768769979545063,-0.007060635434105463,0.004471039830857276,-0.01879943806861008
1958,0.0,300.87647000000004,4023.5437,-0.019580013870832413,0.0,0.0,0.0,0.0,-0.002988186958702954,-0.5867113347864004,-0.27277895419868675,-0.36356654819372464,-0.002927478946519677,-0.009844180988020021,0.004042415786805377
1959,0.0,300.19142999999997,3941.5466,-0.01958999051029975,0.0,0.0,0.0,0.0,-0.002989709534945484,-0.5971429472159204,-0.26450803681241075,-0.33648076195306564,0.010184289225861091,0.01149901162811409,-0.016211555769955983
1960,0.0,300.85263,3798.5119,-0.0196000001849973,0.0,0.0,0.0,0.0,-0.0029912371528312276,-0.5852481408469944,-0.26322155369044475,-0.3061830843529177,0.004221764195580686,-0.02057135310148448,-0.012748518214180788
1961,0.0,300.83011,3838.3172,-0.019610009859694633,0.0,0.0,0.0,0.0,-0.002992764770716916,-0.5908037506152904,-0.2548791717746158,-0.3210696838946107,0.0008205623245856962,-0.007722264444653163,-0.02024013886904618
1962,0.0,300.27074,4146.8079,-0.0196199864991623,0.0,0.0,0.0,0.0,-0.002994287346959501,-0.6099325547481564,-0.27863457718909174,-0.37195891373698664,0.015622664944336983,0.007261242235278812,-0.006865959287092424
1963,0.0,299.84686,4253.1144,-0.019629996173859632,0.0,0.0,0.0,0.0,-0.0029958149648451893,-0.5965436705767765,-0.3089839710743437,-0.3873129356823106,0.002462356823265698,0.014740134239737987,-0.04177219998659516
1964,0.0,299.92138,4191.7537,-0.019640005848556963,0.0,0.0,0.0,0.0,-0.0029973425827309053,-0.6260842375697034,-0.2924823319332587,-0.35562189733964866,0.01134627633454029,-0.01934662655986338,-0.01328713663608829
1965,0.0,299.67765,4095.4508,-0.019650015523254516,0.0,0.0,0.0,0.0,-0.002998870200616649,-0.6342558159161753,-0.2745215315881657,-0.3361374322891817,-0.02001703842227788,-0.015796763603019185,-0.01716952294449998
1966,0.0,300.3106,4020.6601,-0.019659992162721962,0.0,0.0,0.0,0.0,-0.0030003927768591787,-0.6264381556971325,-0.2648842261770377,-0.3308578926431317,0.009525965741114622,-0.0020723445994494877,0.004400232292669116
1967,0.0,299.44496000000004,3944.438,-0.019670001837419515,0.0,0.0,0.0,0.0,-0.0030019203947449224,-0.5978305589987825,-0.27034128724060774,-0.3308388334087507,0.004309662324530556,0.02058040345137768,-0.019510634260799683
1968,0.0,300.48978,4093.7802,-0.019680011512116846,0.0,0.0,0.0,0.0,-0.0030034480126306107,-0.5912109758304804,-0.2792611406534287,-0.37393485275699667,-0.005112874392751415,-0.0007216157672079313,-0.0051477571486440755
1969,0.0,300.56979,3886.1162,-0.019689988151584403,0.0,0.0,0.0,0.0,-0.003004970588873196,-0.5557488333981395,-0.26344708289770274,-0.3620863721826426,-0.009661982914663471,0.0007326095307929314,-0.02163947576064998
1970,0.0,300.48061,3829.8325,-0.019699997826281845,0.0,0.0,0.0,0.0,-0.003006498206758884,-0.5773149295865475,-0.25791822293204675,-0.3289402965638797,-0.01150812074651309,0.009278086567125851,-0.006847326124378474
1971,0.0,300.47006,4153.4846,-0.0197100075009794,0.0,0.0,0.0,0.0,-0.003008025824644628,-0.6088884309176094,-0.2913008924491597,-0.36236628252276765,0.0069793302195812635,0.008826636430121191,-0.028718391543784576
1972,0.0,300.31087,4322.7682,-0.019719984140446623,0.0,0.0,0.0,0.0,-0.00300954840088713,-0.6536143238467114,-0.29655785688298175,-0.3638414125483517,-0.008419135914879023,-0.026459322074831773,0.0096237056696108
1973,0.0,299.82538,4115.2401,-0.019729993815144287,0.0,0.0,0.0,0.0,-0.0030110760187729013,-0.6243918667226794,-0.27291791131740073,-0.35362044468212067,0.01174798237643559,-0.003157786742574287,-0.0036500867666355167
1974,0.0,300.21794,4115.9889,-0.019740003489841618,0.0,0.0,0.0,0.0,-0.0030126036366586173,-0.6087582282797593,-0.27635061013868173,-0.36604901093872466,0.02368137938867018,-0.00967683209487897,0.008011377324836384
1975,0.0,299.67105,4182.3004,-0.01975001316453906,0.0,0.0,0.0,0.0,-0.0030141312545443055,-0.6141737663542315,-0.2763443077230597,-0.3807968154817196,0.016576924636765085,0.02635896978492777,-0.02079574240237998
1976,0.0,300.24867,4210.5084,-0.019759989804006617,0.0,0.0,0.0,0.0,-0.003015653830786863,-0.6486902627332444,-0.28241176077937075,-0.34878738356013467,-0.005810588076460395,-0.0031249854050370467,-0.005756819250628824
1977,0.0,300.32244,4176.7662,-0.019769999478703948,0.0,0.0,0.0,0.0,-0.003017181448672579,-0.6261344035821544,-0.29114384881616073,-0.35235438868217067,-0.01361325928677409,-0.0028175129396668776,-0.015474969556760587
1978,0.0,299.53426,3975.5089,-0.0197800091534015,0.0,0.0,0.0,0.0,-0.0030187090665583227,-0.6178137660134714,-0.2532534930491737,-0.3373881882126217,-0.005245158144981805,0.006423199897520474,0.002718614967631407
1979,0.0,299.58058,3850.7645,-0.019789985792868725,0.0,0.0,0.0,0.0,-0.0030202316428008247,-0.5562390032665154,-0.28052620366828074,-0.3337710373431367,-0.005917311986968224,0.004743627108534545,-0.024324867169427476
1980,0.0,299.83617000000004,4052.336,-0.0197999954675665,0.0,0.0,0.0,0.0,-0.003021759260686596,-0.5764950177381284,-0.28132845456745675,-0.3739854848644936,-0.0012288092302490288,-0.022047134646882776,-0.024199605139065078
1981,0.0,300.31009,4299.2521,-0.01981000514226383,0.0,0.0,0.0,0.0,-0.003023286878572312,-0.6108378430500014,-0.30479969399138773,-0.3912277692986746,-0.015650364162320685,-0.013541499901441989,-0.02194777331557658
1982,0.0,300.32495,4068.7824,-0.019820014816961384,0.0,0.0,0.0,0.0,-0.003024814496458028,-0.6212049925081594,-0.2828928113968467,-0.3327104380659637,0.00937358093075041,0.006281636294249234,-0.024328676989803476
1983,0.0,300.45366,3930.9351,-0.01982999145642883,0.0,0.0,0.0,0.0,-0.003026337072700558,-0.5949536075923494,-0.26849172077306976,-0.3314607967176337,0.004226530929351126,0.021200076815034677,-0.011971532706248289
1984,0.0,300.58359,4163.7662,-0.019840001131126384,0.0,0.0,0.0,0.0,-0.0030278646905863016,-0.6428820801125213,-0.27973636508282973,-0.3430625002301327,-0.0003282503745707897,-0.017516601633753983,-0.004760571689956845
1985,0.0,300.62023,4269.1149,-0.019850010805823715,0.0,0.0,0.0,0.0,-0.0030293923084720176,-0.6253383740385924,-0.27999684128603675,-0.3923691144763166,0.004273468524333506,-0.01846709203581008,0.02089599539377418
1986,0.0,300.11197000000004,4130.988,-0.01985998744529116,0.0,0.0,0.0,0.0,-0.0030309148847145473,-0.6068321310321685,-0.27321188556891374,-0.37567318462855664,0.015294715403720885,-0.001055678225412329,-0.006107392132852675
1987,0.0,299.78442,4076.0097,-0.019869997119988714,0.0,0.0,0.0,0.0,-0.003032442502600291,-0.5968331662628474,-0.28563739181021575,-0.3565346330297287,0.006251226834898055,0.006243770530062175,-0.01735435192174118
1988,0.0,299.55516,4108.5007,-0.019880006794686045,0.0,0.0,0.0,0.0,-0.003033970120486007,-0.6366254026000354,-0.2673717045100327,-0.34488451642745166,-0.015546949830614486,0.001016954542365599,-0.02075168223503158
1989,0.0,299.94449,4178.1383,-0.019890016469383598,0.0,0.0,0.0,0.0,-0.003035497738371723,-0.6250537622180035,-0.2989346477750527,-0.3460613050935917,-0.032426202965967064,0.014898482938865787,-0.012821710335154288
1990,0.0,300.27501,4219.419,-0.019899993108850933,0.0,0.0,0.0,0.0,-0.0030370203146142527,-0.6441796785880844,-0.27619054702038476,-0.36222778136659867,-0.0005609793621368525,0.018260560254676983,-0.005580611410538464
1991,0.0,300.54259,4102.4191,-0.019910002783548486,0.0,0.0,0.0,0.0,-0.0030385479324999964,-0.5974121475024884,-0.27781860688356175,-0.3718022044765206,-0.004695012280661636,0.016843024378027083,-0.008757864004758881
1992,0.0,300.40252999999996,3930.7527,-0.019920012458245928,0.0,0.0,0.0,0.0,-0.0030400755503857124,-0.5690923948925465,-0.2818860055674828,-0.34387226944505067,0.016292253034420185,-0.01855187472467748,-0.00977030502455403
1993,0.0,299.97508999999997,4055.1896,-0.019929989097713263,0.0,0.0,0.0,0.0,-0.003041598126628242,-0.6093345345391364,-0.26709923142564174,-0.35624260421840764,-0.0036425236652390964,-0.021972584770775277,-0.010012330044765042
1994,0.0,299.37021,4345.5059,-0.019939998772410816,0.0,0.0,0.0,0.0,-0.003043125744513986,-0.6628843970240964,-0.3022543692101837,-0.3557865302158967,0.009215261210575471,0.012577219165524888,0.006489743375312804
1995,0.0,299.13041,4180.4567,-0.01995000844710837,0.0,0.0,0.0,0.0,-0.0030446533623997296,-0.6394791708441804,-0.2993089828919967,-0.3319663071925237,0.0008421520598989371,0.010838431331419889,-0.027130482729070177
1996,0.0,299.23953,3946.4469,-0.019959985086575593,0.0,0.0,0.0,0.0,-0.0030461759386422316,-0.6184270964315024,-0.25579887862538375,-0.3253953296315187,-0.0047422710759257155,-0.005962667695894485,-0.008223407912937172
1997,0.0,299.90111,4070.8318,-0.019969994761273147,0.0,0.0,0.0,0.0,-0.0030477035565279476,-0.5923126623992084,-0.28789915855093473,-0.3572193874473087,0.0002966023993573777,-0.001047541725784319,-0.02759457457962247
1998,0.0,300.08782,4216.7101,-0.0199800044359707,0.0,0.0,0.0,0.0,-0.0030492311744136913,-0.6085697941586624,-0.2834069952925927,-0.38979779983004764,0.015793839363230585,0.0077786183754648625,-0.012430984884592688
1999,0.0,300.36632000000003,4218.127,-0.01999001411066803,0.0,0.0,0.0,0.0,-0.0030507587922994073,-0.6235013516072924,-0.29835500792284675,-0.3603489319711706,0.020059969829014878,0.01073631395984169,-0.03894082152990986
2000,0.0,300.68199,4150.0567,-0.019999990750135477,0.0,0.0,0.0,0.0,-0.003052281368541937,-0.6243980070182854,-0.2966575100303167,-0.3404581029680987,-0.028453862340177574,-0.016767219085045682,-0.015447891461088185
2001,0.0,299.96485,3902.0925,-0.02001000042483303,0.0,0.0,0.0,0.0,-0.0030538089864276807,-0.6116665600417894,-0.25275363650984173,-0.32171848819864274,-0.01906086571366098,-0.005745500233761724,-0.00939201630704484
2002,0.0,299.73143,3968.763,-0.020020010099530583,0.0,0.0,0.0,0.0,-0.0030553366043134245,-0.5974759518612854,-0.2689495983607587,-0.3399793017658447,-0.026340571189611976,0.028086891524960373,0.0005541779208406024
2003,0.0,299.62725,4272.3995,-0.020029986738997807,0.0,0.0,0.0,0.0,-0.0030568591805559264,-0.6179886124507274,-0.29037921989319776,-0.3903349237080576,-0.002976950882652177,0.024766172038480878,0.007347750286416493
2004,0.0,299.67657,4306.1265,-0.02003999641369536,0.0,0.0,0.0,0.0,-0.0030583867984416424,-0.6352330753726233,-0.2829036734379187,-0.39081819334325263,-0.008733350647739602,-0.018706342675922284,0.013386529378147589
2005,0.0,300.10872,4101.4509,-0.020050006088392913,0.0,0.0,0.0,0.0,-0.003059914416327386,-0.6267682320497084,-0.27971314139053777,-0.3402572970632807,0.02232463750477018,-0.019701506261637282,0.0016088441829805583
2006,0.0,299.95819,4234.5753,-0.020060015763090355,0.0,0.0,0.0,0.0,-0.00306144203421313,-0.6495247045880974,-0.28825315773837173,-0.34942729152828866,0.03216618981805577,0.009954077080615922,-0.007814415386922752
2007,0.0,299.60528999999997,4387.587,-0.02006999240255769,0.0,0.0,0.0,0.0,-0.003062964610455632,-0.6633013190427434,-0.29854975459206673,-0.37186580618529763,0.015025887993189687,-0.0024791556993236175,-0.00011716665855594888
2008,0.0,300.29672999999997,4262.295,-0.020080002077255132,0.0,0.0,0.0,0.0,-0.0030644922283413756,-0.6336304075569524,-0.2916072992793997,-0.3703935639224986,-0.00993661219526727,-0.016897767241179782,-0.015068967334441286
2009,0.0,300.48278,4003.3301,-0.020090011751952686,0.0,0.0,0.0,0.0,-0.0030660198462271193,-0.5734915113942055,-0.26212067772179676,-0.38130018799889864,-0.015345139794947385,-0.01901210102609828,-0.014837718330368786
2010,0.0,300.35416000000004,3912.7162,-0.02009998839142013,0.0,0.0,0.0,0.0,-0.003067542422469649,-0.5820695347532905,-0.27058900662505575,-0.3367094727656377,0.0016620534921069083,0.020030099216066882,-0.02215396971092658
2011,0.0,300.91115,3905.2212,-0.020109998066117463,0.0,0.0,0.0,0.0,-0.0030690700403553373,-0.5886734632075474,-0.26969273624910073,-0.32872352183748565,0.002708691297477018,0.02059380368395018,-0.03098288088752227
2012,0.0,300.44277,4044.09,-0.020120007740815016,0.0,0.0,0.0,0.0,-0.003070597658241081,-0.6156733866347324,-0.27930209622247076,-0.3343268860829947,-0.007083852742921833,-0.007033499481852353,-0.020687902194236978
2013,0.0,300.38071,4262.5511,-0.020129984380282462,0.0,0.0,0.0,0.0,-0.0030721202344836107,-0.6286675389646554,-0.2967395832884167,-0.3703019661134586,0.01059370610101739,-0.007025476263585524,0.0034264782762670767
2014,0.0,299.949,4166.9839,-0.020139994054979793,0.0,0.0,0.0,0.0,-0.0030736478523693267,-0.6140149495335574,-0.2817452651285927,-0.3708988210848636,0.008711322387915582,0.016825090864507182,-0.0005098767418234165
2015,0.0,299.75442999999996,4208.0413,-0.020150003729677346,0.0,0.0,0.0,0.0,-0.0030751754702550704,-0.5907467755621675,-0.3052774718110407,-0.38311523303552963,0.013462878786432687,0.014406455783056488,-0.011035227805592188
2016,0.0,300.32697,4410.0192,-0.0201600134043749,0.0,0.0,0.0,0.0,-0.003076703088140814,-0.6629195061400613,-0.2957145592222547,-0.38190164312575764,-0.014557883984001286,-0.02066464911769208,-0.02120596987761628
2017,0.0,300.35188,4413.5945,-0.020169990043842345,0.0,0.0,0.0,0.0,-0.003078225664383344,-0.6595204472221003,-0.3062716221466557,-0.37583044104407665,0.0016190646340892383,-0.03301965037728577,-0.005731649814169795
2018,0.0,299.66031,3949.5499,-0.020179999718539676,0.0,0.0,0.0,0.0,-0.003079753282269032,-0.6231414046417685,-0.2696567050755448,-0.3077664497541837,0.005182221837545475,-0.006420963553224764,-0.03389110017879117
2019,0.0,299.96091,3899.8037,-0.02019000939323723,0.0,0.0,0.0,0.0,-0.003081280900154776,-0.5938461049680475,-0.25702202348359876,-0.33457481824996366,0.004964463042654355,-0.017379139058937485,0.0007189429958291493
2020,0.0,300.07349,4060.0415,-0.020199986032704675,0.0,0.0,0.0,0.0,-0.0030828034763973056,-0.6024777697874264,-0.26229431839143375,-0.3693791485848837,-2.7750332398244573e-05,-0.005366073231090195,-0.00012760793739142288
2021,0.0,299.60112000000004,4140.9723,-0.020209995707402117,0.0,0.0,0.0,0.0,-0.0030843310942830493,-0.5917655884052164,-0.27084917885323273,-0.3961374118632186,0.004768132359553026,-0.005455747992765405,0.023946042341290375
2022,0.0,299.77833,4296.5351,-0.02022000538209956,0.0,0.0,0.0,0.0,-0.0030858587121687653,-0.6430412313057284,-0.3000894995765277,-0.36290866516879666,0.022483346920933577,0.040181173401323066,-0.0057604467873118344
2023,0.0,299.75874,4367.6588,-0.020230015056797113,0.0,0.0,0.0,0.0,-0.003087386330054509,-0.6487390608580603,-0.3031499607085717,-0.37577018306062965,-0.0058010421459432845,0.0055859677545420944,-0.0038993586528867363
2024,0.0,300.24152000000004,4272.0032,-0.020239991696264448,0.0,0.0,0.0,0.0,-0.0030889089062970387,-0.6489651777503763,-0.3082450077764137,-0.3413721153533047,-0.02164330584602798,-0.008418897598455502,-0.018825399562672283
2025,0.0,300.65123,4355.7122,-0.02025000137096189,0.0,0.0,0.0,0.0,-0.003090436524182727,-0.6418362337568044,-0.3054151724996307,-0.37677634040992963,-0.02230956439628258,-0.03932846163391696,0.0003168161005048147
2026,0.0,300.53241,4371.5528,-0.020260011045659332,0.0,0.0,0.0,0.0,-0.0030919641420684707,-0.6341463342428704,-0.3043060385426677,-0.39039051060854363,0.003136645988512857,0.006247011309182014,-0.010970467951950889
2027,0.0,300.78806000000003,4069.575,-0.020269987685126778,0.0,0.0,0.0,0.0,-0.0030934867183110004,-0.5980324288162054,-0.27919051712145876,-0.35982624690708565,0.014651789976769086,0.01119574688643419,-0.02293472045623068
2028,0.0,300.62667999999996,3851.7816,-0.02027999735982433,0.0,0.0,0.0,0.0,-0.003095014336196744,-0.6035988600955694,-0.2628021796065558,-0.3044443775788207,-0.006640963252037045,0.004757130793942256,-0.035926477462917265
2029,0.0,300.12039,4112.7272,-0.020290007034521662,0.0,0.0,0.0,0.0,-0.00309654195408246,-0.6287608187688614,-0.28580289608154974,-0.3356026692839047,0.022121055294678182,0.004800903299587266,-0.04247499126920526
2030,0.0,299.6493,4255.4309,-0.02029998367398933,0.0,0.0,0.0,0.0,-0.0030980645303250176,-0.6390027710446634,-0.3120635117057707,-0.34247844260749066,0.005580666430018894,0.013221524639112888,-0.025629745846958974
2031,0.0,299.72271,4161.0385,-0.02030999334868666,0.0,0.0,0.0,0.0,-0.0030995921482107336,-0.6154299026357024,-0.2894196416509947,-0.36000225858195667,0.01780371111583948,0.0015964740204597184,-0.016017283301782786
2032,0.0,300.22327,4215.5157,-0.020320003023384214,0.0,0.0,0.0,0.0,-0.0031011197660964496,-0.6131626238144394,-0.27920334486772475,-0.3890455426908056,-0.027849584298539978,-0.016052035753712588,0.013869193089782789
2033,0.0,299.57734,4237.6804,-0.020330012698081767,0.0,0.0,0.0,0.0,-0.0031026473839821933,-0.6352895134031934,-0.27921956700182576,-0.37363994631539166,-0.00990181313383287,-0.018227396578903984,0.024146869524360477
2034,0.0,299.64057,4238.984,-0.020339989337549214,0.0,0.0,0.0,0.0,-0.003104169960224723,-0.6415643584899724,-0.28630693734379475,-0.36067400286825263,-0.015500952329074884,0.02033925195407788,-0.0025251970745925473
2035,0.0,300.26305,4448.5202,-0.020349999012246545,0.0,0.0,0.0,0.0,-0.003105697578110439,-0.6716686471760344,-0.30766685740185473,-0.3729035364077137,-0.001076512876618549,0.014586968314871685,-0.011386681708777989
2036,0.0,300.66575,4370.1204,-0.020360008686943876,0.0,0.0,0.0,0.0,-0.003107225195996155,-0.6589613256844192,-0.3059047445504477,-0.3635414094587437,-0.01113805850524079,0.0037075242671041563,-0.016002038954028283
2037,0.0,300.05981,4019.2044,-0.020369985326411433,0.0,0.0,0.0,0.0,-0.0031087477722387125,-0.6141199222439174,-0.2609156092453657,-0.34670223644434667,0.004508613981665555,-0.012006443225193687,-0.005135202371955016
2038,0.0,300.14936,4087.2999,-0.020379995001108875,0.0,0.0,0.0,0.0,-0.0031102753901244284,-0.6024328017479884,-0.27728059134546373,-0.36272371662804365,0.01004239226330695,0.01068750975552509,-0.017033735272098786
2039,0.0,299.9733,4319.7951,-0.020390004675806428,0.0,0.0,0.0,0.0,-0.0031118030080101444,-0.6493659080324253,-0.28571174410255373,-0.37803217271637063,0.026416643980619773,-0.012248217871304989,0.004849265017585196
2040,0.0,300.95968,4260.4351,-0.02040001435050387,0.0,0.0,0.0,0.0,-0.003113330625895888,-0.6325255393829105,-0.2954584805244817,-0.36708187756066063,-0.0034695853805714167,-0.004980225566509996,-0.02265315953169278
2041,0.0,300.14027000000004,4082.5924,-0.020409990989971316,0.0,0.0,0.0,0.0,-0.003114853202138418,-0.6304444554000235,-0.27591125476282075,-0.3346504269724257,0.001947790830906988,-0.012830826546303986,-0.020698513962534283
2042,0.0,299.459,4271.8492,-0.020420000664668647,0.0,0.0,0.0,0.0,-0.003116380820024134,-0.6346716740222175,-0.3009334051873147,-0.3629304297809447,-0.006155223009123214,0.012323827607017088,-0.011096243700113988
2043,0.0,299.47725,4353.7393,-0.0204300103393662,0.0,0.0,0.0,0.0,-0.0031179084379098776,-0.6315644412655574,-0.29519261383074274,-0.39667098936587863,-0.005049458210067725,0.007142919346901253,-0.008389002059555043
2044,0.0,299.72924,4265.9406,-0.020439986978833646,0.0,0.0,0.0,0.0,-0.0031194310141524073,-0.6067931107708174,-0.3043129894383537,-0.3856333115215446,-0.014205364141710287,-0.008098745726633973,-0.004015230590597406
2045,0.0,300.18297,4241.0708,-0.0204499966535312,0.0,0.0,0.0,0.0,-0.003120958632038151,-0.6354447433185133,-0.28717134100410474,-0.3665635292070037,0.008537676449378062,-0.003436898945595517,0.004123178304576016
2046,0.0,300.19209,4115.8025,-0.02046000632822853,0.0,0.0,0.0,0.0,-0.0031224862499238393,-0.6249516063429214,-0.28337360870179773,-0.3427759834993557,-0.0010534010471375888,0.003363520690578647,-0.027235140318649077
2047,0.0,299.75166,4051.0286,-0.020470016002926084,0.0,0.0,0.0,0.0,-0.003124013867809583,-0.6233283796827215,-0.2845543693083297,-0.3235288013573067,0.001932951479217458,0.0006100487238721214,-0.043208832587879754
2048,0.0,301.0002,4329.1777,-0.02047999264239353,0.0,0.0,0.0,0.0,-0.0031255364440521127,-0.6567974591683624,-0.2876670026880227,-0.37149746950894563,-0.013889462144783185,0.006380400010646454,-0.027419549810348876
2049,0.0,300.62715,4265.122,-0.02049000231709086,0.0,0.0,0.0,0.0,-0.0031270640619378287,-0.6216010314422453,-0.2817348185200617,-0.39315475820635365,-0.009261138844628241,-0.0019913346460044283,-0.006035896293871584
2050,0.0,300.1076,3919.2446,-0.020500011991788414,0.0,0.0,0.0,0.0,-0.0031285916798235724,-0.5896845652173354,-0.25416230746136675,-0.3475056323161357,-0.004831356632667775,0.013480788995200287,-0.02017293910916408
2051,0.0,300.17528,4190.3552,-0.02050998863125586,0.0,0.0,0.0,0.0,-0.003130114256066102,-0.6314673415084744,-0.2682083451176027,-0.37408767113707864,0.006907357545103113,-0.005022516092558746,0.011372684671896591
2052,0.0,299.73748,4447.9401,-0.020519998305953413,0.0,0.0,0.0,0.0,-0.003131641873951846,-0.6749141176438374,-0.2948479973392317,-0.38230063061763464,0.01155075527097079,-0.004310714787409425,-0.004866558258366905
2053,0.0,299.55587,4408.0195,-0.020530007980650744,0.0,0.0,0.0,0.0,-0.003133169491837534,-0.6687944923398773,-0.2903762409379037,-0.38075712647530263,-0.001907149166745968,-0.003015665142472977,0.01255935961926229
2054,0.0,299.87343,4261.976,-0.0205399846201183,0.0,0.0,0.0,0.0,-0.0031346920680801194,-0.6410982735764734,-0.2874439052810047,-0.36699211373430163,0.004965019012984225,0.020560117171125582,-0.00877562475913673
2055,0.0,299.29081,4254.4682,-0.020549994294815632,0.0,0.0,0.0,0.0,-0.0031362196859658076,-0.6149100344068954,-0.2958678436973827,-0.38247424088976867,-0.003709189948943546,0.005057356798572256,-0.0031369591841187675
2056,0.0,299.80651,4212.1061,-0.020560003969513185,0.0,0.0,0.0,0.0,-0.0031377473038515513,-0.6199605187353394,-0.28235003358327876,-0.3780645359245646,-0.01198560472363709,-0.004559829822545165,-0.017501738268037085
2057,0.0,300.60777,4284.0867,-0.020570013644210627,0.0,0.0,0.0,0.0,-0.0031392749217372673,-0.6411686944584234,-0.2977052916937247,-0.3633814071354527,-0.0018025944220522183,-0.02655484622800927,-0.006482140655837474
2058,0.0,300.20466,4324.129,-0.020579990283678185,0.0,0.0,0.0,0.0,-0.0031407974979798248,-0.6518013458402844,-0.29825963069093375,-0.36436625583514964,0.004125982575552776,-0.015872651982508784,-0.030757779271806472
2059,0.0,299.89513,4178.9929,-0.020589999958375516,0.0,0.0,0.0,0.0,-0.0031423251158655408,-0.6419405579871004,-0.2864260043630457,-0.3419429399296407,0.013483949322262188,-0.006588235034058174,-0.02402224989456148
2060,0.0,299.91988,4095.1217,-0.020600009633072847,0.0,0.0,0.0,0.0,-0.003143852733751229,-0.6093652157521645,-0.29272559301726675,-0.34272394297421965,-0.004685046357978076,0.006640558357297083,-0.03675934878011526
2061,0.0,299.52195,4371.2889,-0.020609986272540515,0.0,0.0,0.0,0.0,-0.0031453753099937865,-0.6203257244688823,-0.29326508790051076,-0.41517186214677265,-0.012683695539033289,0.03224297492388387,-0.0038476531082337964
2062,0.0,300.61373,4440.5153,-0.020619995947237846,0.0,0.0,0.0,0.0,-0.0031469029278795024,-0.6462163822165914,-0.3062173322062977,-0.3973720571100686,-0.009595211658248661,0.021443467595055478,-0.007838243482899403
2063,0.0,300.06939,4202.4759,-0.0206300056219354,0.0,0.0,0.0,0.0,-0.003148430545765246,-0.6289096044135454,-0.2976717429829137,-0.35086639038031664,-0.006675434831039123,0.005362311742743964,-0.005286429442754964
2064,0.0,298.87278,4172.6122,-0.02064001529663273,0.0,0.0,0.0,0.0,-0.003149958163650962,-0.6451006722664794,-0.27387213959907575,-0.34939711694031067,-0.0067570588140447845,-0.015899813164689382,-0.00046440744756094654
2065,0.0,299.71346,4421.7696,-0.020649991936100398,0.0,0.0,0.0,0.0,-0.0031514807398935196,-0.6775047549695133,-0.30788737102111774,-0.35871541068995466,-0.006424575992481285,-0.017934861142532982,-0.0052473116054193355
2066,0.0,300.50371,4439.8586,-0.02066000161079773,0.0,0.0,0.0,0.0,-0.0031530083577792356,-0.6514843910765035,-0.3088392992250657,-0.38928248109418967,-0.007328370358378843,0.0021239190295394878,-0.006617508437397234
2067,0.0,300.0583,4357.9037,-0.020670011285495282,0.0,0.0,0.0,0.0,-0.0031545359756649516,-0.6302209830904685,-0.30675252077661674,-0.3877203939450236,-0.0025958119939366977,0.004788562419994316,-0.026460624101210275
2068,0.0,299.94584,4283.2432,-0.020679987924962617,0.0,0.0,0.0,0.0,-0.0031560585519074813,-0.6428077784826884,-0.28647678845805774,-0.37271442340904964,0.007821505097872453,-0.011600436949873989,-0.004040777564043696
2069,0.0,299.86577,4065.7149,-0.02068999759966017,0.0,0.0,0.0,0.0,-0.003157586169793225,-0.6373465529612073,-0.25958995387453376,-0.3389393119957057,0.018465648154417584,0.0028096057385364973,-0.009036243830607832
2070,0.0,300.29499,4247.5398,-0.020700007274357612,0.0,0.0,0.0,0.0,-0.003159113787678941,-0.6544027337495214,-0.28582556248628677,-0.35091773176288366,0.02260950567763448,0.0006595704409820344,-0.0041046672384991165
2071,0.0,301.26715,4447.4141,-0.02070998391382517,0.0,0.0,0.0,0.0,-0.0031606363639214985,-0.6824990647124133,-0.2972141491052527,-0.3721896003872536,0.003958088857832956,-0.004224045629505846,-0.01200468422302009
2072,0.0,300.26217,4230.6357,-0.0207199935885225,0.0,0.0,0.0,0.0,-0.0031621639818072145,-0.6101141798285814,-0.2928922118637107,-0.38300121200177667,-0.014599890293396985,-0.0057092319596823244,0.002371492201998058
2073,0.0,299.68627999999995,4208.3112,-0.02073000326321983,0.0,0.0,0.0,0.0,-0.0031636915996929305,-0.6102135188683854,-0.29910841003470173,-0.36989959436624764,-0.008182111385236522,0.016908747832513484,-0.016351777424794784
2074,0.0,300.30875,4506.6358,-0.020740012937917385,0.0,0.0,0.0,0.0,-0.0031652192175786464,-0.6562423197035744,-0.3110062561539277,-0.40265616651406966,-0.011377222005844389,0.013402872089010486,0.009728940203796641
2075,0.0,300.0454,4384.5324,-0.02074998957738483,0.0,0.0,0.0,0.0,-0.003166741793821176,-0.6578499321797333,-0.3143646026828707,-0.36057382283086564,-0.003666049306060897,0.003024140776909457,-0.018537466308255483
2076,0.0,299.84966000000003,4196.0066,-0.020759999252082384,0.0,0.0,0.0,0.0,-0.00316826941170692,-0.6318121201200014,-0.3099188057491047,-0.33375031637859165,-0.005144050477128255,-0.02162807771027508,-0.011810344880340289
2077,0.0,299.45817,4146.7052,-0.020770008926779715,0.0,0.0,0.0,0.0,-0.003169797029592636,-0.6352518914269804,-0.28142776320975776,-0.34381519306691766,0.01002462826652878,-0.009221757967566652,-0.03019130559139987
2078,0.0,299.40131,4190.0379,-0.020779985566247383,0.0,0.0,0.0,0.0,-0.0031713196058351933,-0.6126902060878154,-0.29216650187708876,-0.36881020865373365,0.01133239480817029,-0.016303243758254884,-0.024850631500566378
2079,0.0,299.86345,4180.0195,-0.020789995240944714,0.0,0.0,0.0,0.0,-0.0031728472237209093,-0.6231931310593734,-0.2836421402432997,-0.36378628161041066,0.004619673690676295,-0.007197870534274513,-0.04046139480922876
2080,0.0,300.31626,4228.9592,-0.020800004915642267,0.0,0.0,0.0,0.0,-0.003174374841606653,-0.6408963530965454,-0.27167621384985474,-0.37292543274237466,-0.006443630160611784,-0.016503701105038484,0.0025269398647645475
2081,0.0,299.71062,4249.0431,-0.0208100145903396,0.0,0.0,0.0,0.0,-0.0031759024594923413,-0.6504371768331514,-0.28497381431972574,-0.35619200250841365,-0.0018130562293347183,0.02243307958347258,7.562651817350623e-05
2082,0.0,300.27329,4232.6314,-0.020819991229807155,0.0,0.0,0.0,0.0,-0.0031774250357348988,-0.6640957780486504,-0.26487525891365277,-0.35764322996413866,0.009280401539629321,-0.002240925300737108,0.018695371203839482
2083,0.0,300.2614,4414.1547,-0.020830000904504598,0.0,0.0,0.0,0.0,-0.0031789526536206147,-0.6625210860682403,-0.3053122060244687,-0.3739595051319296,-0.005122774758153505,0.003955193090372166,-0.01241638800365209
2084,0.0,299.85348999999997,4650.0541,-0.02084001057920193,0.0,0.0,0.0,0.0,-0.0031804802715063307,-0.6573041855433724,-0.3256574067698837,-0.4305387523683666,0.0006044581671078764,-0.014055185278138788,0.007533924961115502
2085,0.0,299.98058,4444.1628,-0.020849987218669486,0.0,0.0,0.0,0.0,-0.003182002847748888,-0.6525639279980454,-0.30091626099562274,-0.3974343111962126,-0.004842447060312316,0.015482670257520587,-0.007075848472431874
2086,0.0,299.59567999999996,4165.1647,-0.020859996893366928,0.0,0.0,0.0,0.0,-0.003183530465634604,-0.6160411964210324,-0.2776280854672587,-0.37243677261664765,0.006543477547990953,-0.004272764923464066,-0.01078308051820719
2087,0.0,299.71679,4248.744000000001,-0.02087000656806437,0.0,0.0,0.0,0.0,-0.003185058083520348,-0.6665458167904504,-0.27105443292598974,-0.35391182501337765,-0.008105551626230664,-0.009042885279713291,-0.008461546308414601
2088,0.0,300.09552,4220.6732,-0.020880016242761812,0.0,0.0,0.0,0.0,-0.003186585701406036,-0.6534027268283285,-0.2681535992146997,-0.36142292641466567,0.0076311837984642025,-0.012656443164343688,-0.003368057619226406
2089,0.0,300.42991,4142.6187,-0.02088999288222937,0.0,0.0,0.0,0.0,-0.0031881082776485936,-0.6191486622252154,-0.2841536390262807,-0.35595035249206464,0.00018896436500683085,0.007162643374672863,-0.027902550934267373
2090,0.0,300.20533,4284.692,-0.0209000025569267,0.0,0.0,0.0,0.0,-0.0031896358955343096,-0.6147829323143514,-0.29231727349196873,-0.39533916330193763,0.013217082550674488,-0.006487367607803334,-0.029095529310505176
2091,0.0,300.34234,4335.1719,-0.020910012231624253,0.0,0.0,0.0,0.0,-0.0031911635134200533,-0.6451558639994264,-0.30864630547851873,-0.36398182874720963,-0.007698251126558233,-0.006233427171716364,-0.028952605317649677
2092,0.0,300.2958,4328.8156,-0.0209199888710917,0.0,0.0,0.0,0.0,-0.003192686089662583,-0.6398720687029563,-0.3091419468974347,-0.36683781600907367,0.0063586486720747645,-0.004484119977723185,-0.02208897782301238
2093,0.0,300.54553,4479.2152,-0.020929998545789252,0.0,0.0,0.0,0.0,-0.003194213707548327,-0.6758932516129703,-0.3095061596458797,-0.37617017367010563,-0.01002337588940518,0.015684867354725882,-0.0013385900149835487
2094,0.0,299.94355,4470.8914,-0.020940008220486583,0.0,0.0,0.0,0.0,-0.0031957413254340428,-0.6637128911008624,-0.31086229357971973,-0.38446416276115863,-0.0036683381367117866,0.001884068748018108,-0.0022515207557077975
2095,0.0,299.58822000000004,4295.4529999999995,-0.02094998485995403,0.0,0.0,0.0,0.0,-0.0031972639016765725,-0.6246047100386853,-0.2963875396736727,-0.38471821495873165,-0.022557054786207977,-0.005472472698916005,-0.01073909026511569
2096,0.0,299.63889,4298.3433,-0.020959994534651583,0.0,0.0,0.0,0.0,-0.0031987915195622885,-0.6137079347532574,-0.29143573577246773,-0.4014453630420726,0.002306356432569658,-0.005712109488641314,-0.008789015163183261
2097,0.0,300.33422,4400.2971,-0.020970004209348914,0.0,0.0,0.0,0.0,-0.0032003191374480044,-0.6605875920949194,-0.2938587713991027,-0.38313407948738964,-0.006129363245371055,0.010093519546127819,-0.017075673693737786
2098,0.0,300.18801,4254.9391,-0.020980013884046467,0.0,0.0,0.0,0.0,-0.003201846755333748,-0.6467984133390334,-0.2823149447323157,-0.3642818723668217,0.0064914749184086925,-0.0057262775621395945,-0.014266614097005187
2099,0.0,300.05945,4214.4913,-0.020989990523513913,0.0,0.0,0.0,0.0,-0.003203369331576278,-0.6627725950080624,-0.27722980725045177,-0.3410977170937237,-0.017841391860558282,0.008265532063319501,-0.021514567354572477
2100,0.0,300.29064,4458.3725,-0.021000000198211355,0.0,0.0,0.0,0.0,-0.0032048969494620216,-0.6779429349752584,-0.2858780995039717,-0.39141289009194463,0.0069851216531778325,0.0030712831497370467,0.0033490564440761365
2101,0.0,301.21986,4533.5871,-0.021010009872908797,0.0,0.0,0.0,0.0,-0.0032064245673477376,-0.6694631360808674,-0.3096580661008717,-0.39897607254837264,-0.0014004782165164388,0.017727732557090984,-0.002008150038038978
2102,0.0,300.75316000000004,4459.6466,-0.021019986512376132,0.0,0.0,0.0,0.0,-0.0032079471435902673,-0.6408747404719124,-0.3179596343026727,-0.39678683424981165,-0.004938136677231145,-0.010388931295557688,-0.016145037927391186
2103,0.0,300.55756,4432.5967,-0.021029996187073685,0.0,0.0,0.0,0.0,-0.0032094747614759833,-0.6711860969484104,-0.29538683360991075,-0.38082578430207864,-0.007650112222257293,-0.013529989380305986,-0.002848294667104797
2104,0.0,300.06826,4269.8492,-0.021040005861771238,0.0,0.0,0.0,0.0,-0.003211002379361727,-0.6476000056256445,-0.29145480513934974,-0.3588727380329817,0.005197418562545275,-0.013496010038202486,-0.007868117946197782
2105,0.0,300.52606000000003,4226.9898,-0.02105001553646857,0.0,0.0,0.0,0.0,-0.003212529997247443,-0.6572999704229563,-0.2776121774406888,-0.34998721353354867,0.011572042642321688,0.012019282117210789,-0.004682570582683736
2106,0.0,300.28121,4402.6669,-0.021059992175936015,0.0,0.0,0.0,0.0,-0.0032140525734899728,-0.6495779812783554,-0.3098483646021527,-0.37887446725949864,0.007197889178076352,-0.003119058195927077,-0.016351358952503486
2107,0.0,299.79906,4321.4706,-0.02107000185063357,0.0,0.0,0.0,0.0,-0.0032155801913757165,-0.6295220938339934,-0.3039073955558247,-0.3801896760217996,-0.009424605672661162,0.0050929553143355556,-0.016340027776635183
2108,0.0,299.64775,4118.4945,-0.0210800115253309,0.0,0.0,0.0,0.0,-0.0032171078092614047,-0.5909696905841675,-0.2937782788111587,-0.3671715096645066,-0.01035166800988009,0.01013170711854664,-0.037510361648234465
2109,0.0,300.24572,4317.2729,-0.021089988164798346,0.0,0.0,0.0,0.0,-0.003218630385503962,-0.6449087120350344,-0.3034498016781637,-0.36398462531748565,-0.004129942660918606,0.014323686422137785,-0.029902647863161574
2110,0.0,299.68335,4585.8064,-0.0210999978394959,0.0,0.0,0.0,0.0,-0.003220158003389678,-0.6811313189324274,-0.3220942114682237,-0.39074511774604065,-0.011894640195909589,-0.007579762673114332,-0.038142719889893366
2111,0.0,300.42692,4474.6646,-0.021110007514193452,0.0,0.0,0.0,0.0,-0.003221685621275422,-0.6895163789424683,-0.3061525652599057,-0.3645173516900616,-0.002074684092605378,-0.017200071421764884,-0.01997635440426268
2112,0.0,300.40485,4241.0573,-0.021119984153660676,0.0,0.0,0.0,0.0,-0.003223208197517924,-0.6397720102555814,-0.2850744401871568,-0.36432905942397864,0.004673528946741396,-0.00980250763260718,-0.016976897007739286
2113,0.0,300.63512000000003,4319.6655,-0.02112999382835823,0.0,0.0,0.0,0.0,-0.0032247358154036676,-0.6410552915072314,-0.2870336808455187,-0.38498147759971363,0.02244509267665818,0.0006605484907735603,0.004051517001853596
2114,0.0,300.90812,4383.613,-0.021140003503055782,0.0,0.0,0.0,0.0,-0.0032262634332894113,-0.6310330827806164,-0.3064705130087847,-0.3950052973939876,0.004041154797055926,-0.01075723656115659,-0.016890703874732686
2115,0.0,300.93838,4448.4342,-0.021150013177753335,0.0,0.0,0.0,0.0,-0.003227791051175155,-0.6639405278683284,-0.2999398121392547,-0.38833256925794063,0.005948068585803665,-0.007191244385245562,-0.004557426697282995
2116,0.0,300.03612000000004,4512.7364,-0.02115998981722056,0.0,0.0,0.0,0.0,-0.003229313627417657,-0.6845504098048654,-0.3033848320817517,-0.38382394068547365,-0.002928064807727497,-0.0069856264543776535,0.0016680413948978684
2117,0.0,300.49459,4410.5904,-0.021169999491918112,0.0,0.0,0.0,0.0,-0.003230841245303373,-0.6882692808518893,-0.28745153505425775,-0.36498854338406467,0.006353063536198554,0.008227224015463793,0.010913067333785888
2118,0.0,299.77795,4363.4704,-0.021180009166615665,0.0,0.0,0.0,0.0,-0.0032323688631891168,-0.6343746802854063,-0.30653916070305964,-0.38547219462314364,-0.005055250251614355,-0.004254425096654066,-0.014835164940116788
2119,0.0,299.61704,4595.043,-0.021189985806083,0.0,0.0,0.0,0.0,-0.0032338914394316465,-0.6737632073852514,-0.30836448009570466,-0.4146506361628316,0.0028596976824051875,-0.0078044522000144615,-0.0077059349060415614
2120,0.0,299.66657000000004,4461.7412,-0.02119999548078033,0.0,0.0,0.0,0.0,-0.0032354190573173625,-0.6520151922738894,-0.2948372264906687,-0.4094054963576766,-0.001017588330303149,0.0013798472285803188,-0.014567787490478684
2121,0.0,300.24026000000003,4144.0888,-0.021210005155477885,0.0,0.0,0.0,0.0,-0.003236946675203106,-0.6393978980536594,-0.2715032013952797,-0.34879840772122267,0.013367736628542886,-0.0049804701650841355,-0.006834128744475993
2122,0.0,299.659,4256.4001,-0.021220014830175438,0.0,0.0,0.0,0.0,-0.003238474293088822,-0.6495861176766584,-0.2954195717206417,-0.3488336586922017,0.004024131486100856,-0.008944025405881581,-0.030117096167325972
2123,0.0,300.00526,4543.2192,-0.02122999146964266,0.0,0.0,0.0,0.0,-0.003239996869331352,-0.7027588586068992,-0.3068763602038387,-0.37138996367333565,0.008377397407484753,-0.008110577954676722,0.007244400397416653
2124,0.0,300.33297999999996,4436.4703,-0.021240001144340437,0.0,0.0,0.0,0.0,-0.0032415244872170956,-0.6466784951896984,-0.31387331823938475,-0.38802437910752463,0.01072961637668069,0.0006033341586394454,-0.027626785800301472
2125,0.0,300.25815,4324.0385,-0.021250010819037768,0.0,0.0,0.0,0.0,-0.0032430521051028116,-0.6454867205545795,-0.28552848768946776,-0.38338452451460664,-0.008438666513206542,0.0025539747959826874,-0.005602057051554985
2126,0.0,300.27162999999996,4370.3092,-0.021259987458505214,0.0,0.0,0.0,0.0,-0.0032445746813453413,-0.6262424768378204,-0.3144987164661067,-0.38772366674284664,-0.0066305201898813945,0.008457759184840843,-0.03277518149915857
2127,0.0,300.28148,4376.1032,-0.021269997133202545,0.0,0.0,0.0,0.0,-0.0032461022992310573,-0.6436903091872874,-0.3135075045557817,-0.3730282877600256,-0.01037085998002419,-0.014205538420727488,-0.015136363664842787
2128,0.0,299.92421,4487.2479,-0.02128000680790032,0.0,0.0,0.0,0.0,-0.003247629917116829,-0.6784764516829124,-0.3128644960423217,-0.37267037742720266,0.0019419211744026981,0.0048785446017498655,-0.017066008301033882
2129,0.0,299.93896,4525.3498,-0.02129001648259765,0.0,0.0,0.0,0.0,-0.003249157535002517,-0.6973560064236793,-0.2906873897786117,-0.3875499348807006,-0.0004088047201083846,-0.012493569290269287,0.007232028005745593
2130,0.0,299.64711,4157.8652,-0.021299993122065097,0.0,0.0,0.0,0.0,-0.0032506801112450745,-0.6202639263452834,-0.2800048966243317,-0.36361838606884067,0.006133357882565294,-0.006842150544192682,-0.023457083306783876
2131,0.0,299.72607999999997,4186.2223,-0.02131000279676265,0.0,0.0,0.0,0.0,-0.0032522077291307905,-0.6334322259698935,-0.27240188330647275,-0.36667293995280165,-0.0015294807609479986,-0.015204827960849685,-0.01248458176188229
2132,0.0,300.11715,4701.8449,-0.02132001247145998,0.0,0.0,0.0,0.0,-0.0032537353470165065,-0.6877871055268023,-0.3204345584669287,-0.4210217704066136,0.0008678523482178582,0.009165960209734841,-0.017258985835579284
2133,0.0,299.47668,4693.2138,-0.021329989110927317,0.0,0.0,0.0,0.0,-0.003255257923259036,-0.7099524074268473,-0.30467699953677874,-0.4119903986877866,-0.006014693123603994,0.007547885926293342,0.0025888271543723475
2134,0.0,299.70718999999997,4293.5704,-0.02133999878562476,0.0,0.0,0.0,0.0,-0.003256785541144752,-0.6635872176909593,-0.29264308406162376,-0.34890787926202665,-0.012757968797863489,0.00888339312784764,-0.015954956261631587
2135,0.0,300.08042,4413.4256,-0.021350008460322423,0.0,0.0,0.0,0.0,-0.0032583131590305237,-0.6731603134432503,-0.30302597942633575,-0.36538489642568167,-0.0014816349899009886,-0.006785816675732963,0.002770842944035907
2136,0.0,299.99449,4539.5415,-0.021359985099789647,0.0,0.0,0.0,0.0,-0.0032598357352730256,-0.6643564872993803,-0.3091240022381637,-0.4064267741111996,0.0006065399704983345,0.012662272392168987,-0.01767412757380058
2137,0.0,300.10496,4425.8068,-0.0213699947744872,0.0,0.0,0.0,0.0,-0.0032613633531587694,-0.6604886988851594,-0.2999238635826807,-0.3849222024688636,0.016036840041962885,0.005833121137484234,-0.003215995225044017
2138,0.0,300.00575,4454.6793,-0.021380004449184753,0.0,0.0,0.0,0.0,-0.0032628909710444853,-0.6366545943354164,-0.3227037928608847,-0.39475287652907565,-0.006799533650286724,0.001174470552561219,-0.03339344239217617
2139,0.0,299.57117,4318.267,-0.021390014123882306,0.0,0.0,0.0,0.0,-0.003264418588930229,-0.6497359064389413,-0.2913360522276297,-0.37157339233893866,-0.0024964019253006877,-0.012315353796430789,0.006793593167600444
2140,0.0,299.90217,4151.4364,-0.02139999076334953,0.0,0.0,0.0,0.0,-0.003265941165172731,-0.6386069246280963,-0.2936243965184717,-0.3297016830865227,-0.02273539288330858,-0.0011454118569183488,-0.02991618285799737
2141,0.0,299.89373,4500.9057,-0.021410000438047083,0.0,0.0,0.0,0.0,-0.0032674687830584748,-0.6945699638162184,-0.2953563550469027,-0.37823663645404965,0.013558157733085989,-0.011071286336900889,-0.012704064905793589
2142,0.0,299.00558,4691.5048,-0.021420010112744636,0.0,0.0,0.0,0.0,-0.0032689964009442185,-0.6941268492824864,-0.30984785797710274,-0.42212560506555363,-0.0100489353258277,-0.002366541867309498,-0.023936369855835776
2143,0.0,299.15441,4331.5095,-0.021429986752212082,0.0,0.0,0.0,0.0,-0.0032705189771867482,-0.6535136878467794,-0.2924774379352757,-0.37067960442572867,-0.0005512491214265525,-0.01016890808934309,-0.03033916917849287
2144,0.0,299.65075,4245.6294,-0.021439996426909413,0.0,0.0,0.0,0.0,-0.003272046595072464,-0.6154583243010074,-0.3026379553005407,-0.3724690648973346,-0.010440264572123891,0.014183935928595489,-0.02631006121585087
2145,0.0,299.51416,4632.1903,-0.021450006101606967,0.0,0.0,0.0,0.0,-0.00327357421295818,-0.7009933716326593,-0.3153972565222857,-0.39167954712076164,0.014604362779338385,0.008136690119028792,-0.0027528618077613076
2146,0.0,299.45474,4665.8908,-0.02146001577630452,0.0,0.0,0.0,0.0,-0.003275101830843924,-0.7080345377700683,-0.3180690045184667,-0.39221076375068864,-0.006192943067945894,0.010472069479512791,0.004865968445483695
2147,0.0,299.8701,4375.5319,-0.021469992415771744,0.0,0.0,0.0,0.0,-0.003276624407086426,-0.6640377897454274,-0.29476092875813875,-0.3712537321973906,0.017002433950009586,-0.006824830654933343,-0.006721599822820253
2148,0.0,299.92301000000003,4254.5477,-0.021480002090469297,0.0,0.0,0.0,0.0,-0.0032781520249721696,-0.6344132141867094,-0.2902688465598047,-0.36859420399741566,-0.015923464448523588,0.005637251584503415,0.0024705392231232377
2149,0.0,299.6738,4382.1328,-0.02149001176516685,0.0,0.0,0.0,0.0,-0.0032796796428579134,-0.6540736503820433,-0.30276872535844673,-0.37521656347099164,0.01133820275774349,-0.011404276796764489,-0.014700506028326985
2150,0.0,299.7829,4479.9681,-0.021499988404634185,0.0,0.0,0.0,0.0,-0.003281202219100443,-0.6568455378856074,-0.30600539068288074,-0.39894750902805365,-0.025514247494560178,-0.011905450561226489,-0.027700661865092475
2151,0.0,299.54345,4646.5944,-0.021509998079331627,0.0,0.0,0.0,0.0,-0.003282729836986159,-0.7096811198450733,-0.3155008714775117,-0.3872666808152456,0.013370655802080987,-0.025244227488661272,-0.02161551948853568
2152,0.0,300.49768,4495.4219,-0.02152000775402907,0.0,0.0,0.0,0.0,-0.003284257454871875,-0.6735738410740624,-0.29849343815150875,-0.39442871755708364,0.0007985134856521452,-0.011475576166551189,-0.003269308696280647
2153,0.0,300.2496,4121.3222,-0.021529984393496515,0.0,0.0,0.0,0.0,-0.0032857800311144048,-0.6377053650866193,-0.27019140728581575,-0.3448822568797287,0.03286546410956877,-0.002299395809682698,-0.015733915752316585
2154,0.0,300.41283,4419.9032,-0.021539994068194068,0.0,0.0,0.0,0.0,-0.0032873076490001485,-0.6620268226694603,-0.2972112005474617,-0.3843021846001726,0.01194512436889199,0.006447511111144804,-0.02034728702737088
2155,0.0,300.86092,4774.6443,-0.0215500037428914,0.0,0.0,0.0,0.0,-0.0032888352668858645,-0.7109247222228073,-0.3099309140877997,-0.4305169978887196,0.022350263613049277,0.006393038279143754,-0.0037192625668626368
2156,0.0,300.36442,4447.5572,-0.021560013417588952,0.0,0.0,0.0,0.0,-0.003290362884771608,-0.6401303866834503,-0.3311570851326596,-0.3806588412156027,-0.01814922433368898,0.023534692184943275,-0.02226481319236598
2157,0.0,299.70016,4173.8301,-0.0215699900570564,0.0,0.0,0.0,0.0,-0.003291885461014138,-0.6447943768937504,-0.28164741556643574,-0.34229834753471666,-0.024873175302041275,0.00011109959053467592,-0.006794817477696274
2158,0.0,299.56512000000004,4485.0214,-0.02157999973175373,0.0,0.0,0.0,0.0,-0.003293413078899854,-0.6708120151439914,-0.3060291817952287,-0.3864933278089216,-0.027716702627425576,0.011821360935427488,-0.009068437218085071
2159,0.0,298.94608999999997,4643.3143,-0.021590009406451283,0.0,0.0,0.0,0.0,-0.00329494069678557,-0.6939537253704003,-0.3291551866450877,-0.38834268149393864,-0.008017350535500893,-0.0024353189536222676,-0.014289126487726985
2160,0.0,300.13777999999996,4552.8863,-0.02159998604591873,0.0,0.0,0.0,0.0,-0.0032964632730280996,-0.6720797632716083,-0.3096826678132997,-0.4022013286766806,0.02109125172779448,0.01850151011520688,-0.01061388497675889
2161,0.0,300.32241,4524.7172,-0.021609995720616282,0.0,0.0,0.0,0.0,-0.0032979908909138433,-0.6694103558831583,-0.31550023312994874,-0.39049044746590666,0.01022866350074049,-0.005182457620843745,-0.01886035567787218
2162,0.0,299.91216000000003,4364.9453,-0.021620005395313613,0.0,0.0,0.0,0.0,-0.0032995185087995593,-0.6574919002568984,-0.2878432068804127,-0.3814992815110476,0.017866760603311983,-0.0057144047027678346,-0.010747314816177389
2163,0.0,300.01084,4386.4467,-0.021630015070011166,0.0,0.0,0.0,0.0,-0.003301046126685303,-0.6739992845260503,-0.28687774165512875,-0.37249322077971864,0.008022971540430643,-0.014487222961777587,-0.016195036753575684
2164,0.0,300.16823999999997,4672.2856,-0.021639991709478612,0.0,0.0,0.0,0.0,-0.0033025687029278328,-0.6905402479035163,-0.30757820815060566,-0.42213970950694557,0.01124538904858349,0.0036282835496587065,0.007050405863745883
2165,0.0,299.06352999999996,4550.826,-0.021650001384176054,0.0,0.0,0.0,0.0,-0.0033040963208135765,-0.6876371242470003,-0.29283394998296075,-0.40286638551231657,-0.0005667318767970815,-0.011872937392017687,-0.002387149145193278
2166,0.0,299.24455,4279.8219,-0.021660011058873496,0.0,0.0,0.0,0.0,-0.0033056239386992647,-0.6376117205123774,-0.28570522890441075,-0.37764205116286864,-0.015212754616381987,0.003036826364186427,-0.015319340420901186
2167,0.0,299.42542000000003,4495.6163,-0.021669987698341053,0.0,0.0,0.0,0.0,-0.003307146514941822,-0.6664849001944384,-0.3128701702428817,-0.3872000292236676,-0.008767538415388671,0.01244959119617899,-0.021434135561634482
2168,0.0,299.9796,4734.3606,-0.021679997373038384,0.0,0.0,0.0,0.0,-0.003308674132827538,-0.7081739407188263,-0.3200024174317797,-0.4109510472652106,4.903857210448026e-05,0.01078761278590449,-0.0007003980568014064
2169,0.0,299.36486,4474.8058,-0.021690007047735826,0.0,0.0,0.0,0.0,-0.003310201750713254,-0.6719651342877954,-0.3099083996705777,-0.37835570347330066,-0.007321815643481943,0.01186646373712879,-0.02285048694891748
2170,0.0,300.23045,4301.7402,-0.021699983687203384,0.0,0.0,0.0,0.0,-0.0033117243269558116,-0.6466935926161884,-0.29464083835628674,-0.36628719563973167,-0.013251320271553487,-0.0092419839594378,-0.019650904551643283
2171,0.0,300.15241000000003,4385.4278,-0.021709993361900715,0.0,0.0,0.0,0.0,-0.0033132519448415276,-0.6703535296062424,-0.28421612615994774,-0.37849090143414366,0.0015125133813984487,0.008451925397390092,-0.012072481800461188
2172,0.0,300.59496,4457.7845,-0.021720003036598268,0.0,0.0,0.0,0.0,-0.0033147795627272714,-0.6655697934991244,-0.29850742100288874,-0.3909779626190206,0.005313987211024705,0.007912864793138952,-0.016884715566641683
2173,0.0,300.33665,4473.2296,-0.0217300127112956,0.0,0.0,0.0,0.0,-0.0033163071806129596,-0.6722490976283203,-0.2881421460574157,-0.39935886830365164,0.009859380752770121,-0.006325531403156344,-0.019726546711358584
2174,0.0,299.81723,4592.0609,-0.021739989350763267,0.0,0.0,0.0,0.0,-0.003317829756855517,-0.6994307575934413,-0.3062530898023267,-0.3901880125760586,-0.014141791817186184,-0.013055602908737687,-0.015113289933565586
2175,0.0,299.46295,4543.9273,-0.021749999025460598,0.0,0.0,0.0,0.0,-0.003319357374741233,-0.6942425725764073,-0.3002370591885907,-0.38676080557031967,-0.00926809490788975,-0.003473262262534297,-0.017009944159750785
2176,0.0,300.37331,4474.6106,-0.02176000870015815,0.0,0.0,0.0,0.0,-0.003320884992626977,-0.6754498027067054,-0.2931548057596267,-0.3915653031719866,0.0062968874307794045,-0.007540141047828982,-0.014184522600403386
2177,0.0,300.25659,4671.4287,-0.021769985339625597,0.0,0.0,0.0,0.0,-0.0033224075688695065,-0.6941295951902574,-0.3226150524171267,-0.4032530316179756,0.013560949237111488,0.010868185420606389,0.0037491547620377664
2178,0.0,300.2913,4637.748,-0.02177999501432315,0.0,0.0,0.0,0.0,-0.0033239351867552502,-0.6755271238218363,-0.3240366321749257,-0.4101958314356766,0.01082425190952049,-0.012683976209310988,-0.010926513162612889
2179,0.0,299.93277,4377.6867,-0.02179000468902048,0.0,0.0,0.0,0.0,-0.0033254628046409662,-0.6498541628581124,-0.3174414278040297,-0.36341185530095765,0.005407266812580684,0.004935837308779215,-0.012832023194672089
2180,0.0,299.48593,4341.2855,-0.021800014363717812,0.0,0.0,0.0,0.0,-0.0033269904225266544,-0.6675856545730744,-0.28146786764871573,-0.37058886787927364,-0.016768619396683882,0.01009485926541004,-0.008500756148859312
2181,0.0,299.46842000000004,4582.5955,-0.02180999100318537,0.0,0.0,0.0,0.0,-0.003328512998769212,-0.6879544539133183,-0.31264832926598773,-0.3923918315435586,-0.007885218365485462,0.005507581308255955,-0.0027175244065487775
2182,0.0,299.44169,4545.2309,-0.02182000067788281,0.0,0.0,0.0,0.0,-0.003330040616654928,-0.6696188320912334,-0.31078741439732965,-0.40123044256336166,-0.02278374923108098,0.00040281697943744056,-0.02424625112066868
2183,0.0,299.45009,4554.6097,-0.021830010352580365,0.0,0.0,0.0,0.0,-0.0033315682345406716,-0.6846422609264303,-0.29871446852832273,-0.40113089074103664,8.444967712928422e-05,0.008682657846561612,-0.01926952329350388
2184,0.0,300.09743,4600.7949,-0.0218399869920477,0.0,0.0,0.0,0.0,-0.0033330908107832014,-0.6760477621207193,-0.3049784921040337,-0.4175005135265926,0.0038653670504570263,-0.0013965681857055485,-0.01274152982824109
2185,0.0,300.48421,4461.5634,-0.021849996666745253,0.0,0.0,0.0,0.0,-0.003334618428668945,-0.6681520715114754,-0.2991357981849047,-0.3889159986655206,0.005209746472536945,0.011256020068632688,-0.025749167503744976
2186,0.0,300.61179,4542.5138,-0.021860006341442584,0.0,0.0,0.0,0.0,-0.003336146046554661,-0.6872632856226053,-0.3172072961034227,-0.37634017677188364,0.005135879932296886,-0.01161809485936669,-0.018742098245451082
2187,0.0,300.42221,4728.0609,-0.021870016016140137,0.0,0.0,0.0,0.0,-0.003337673664440377,-0.7029448507952554,-0.3298988818209847,-0.40436871117058465,-0.0024468340343837174,0.00046005046199844556,-0.017349920979053884
2188,0.0,299.71258,4450.3034,-0.021879992655607583,0.0,0.0,0.0,0.0,-0.0033391962406829068,-0.6706804547510073,-0.2940144876744707,-0.3880861670986226,0.004533156722937736,-0.004111053348579376,0.00919517869491848
2189,0.0,299.5665,4229.7081,-0.021890002330305136,0.0,0.0,0.0,0.0,-0.0033407238585686505,-0.6368357229232924,-0.2923480458975057,-0.35654188790044467,-0.0014590484292718686,0.0012538375209691288,-0.017330860731422783
2190,0.0,300.40571,4571.9034,-0.021900012005002467,0.0,0.0,0.0,0.0,-0.0033422514764543665,-0.6712094422307143,-0.3210167415768857,-0.3975182893645006,0.005742085783574744,-0.012874197703584387,0.005805716977929655
2191,0.0,299.84109,4647.0301,-0.021909988644470135,0.0,0.0,0.0,0.0,-0.003343774052696924,-0.7003414059883154,-0.31210271435213977,-0.40013700385044765,0.006544182466085524,0.015591939148304585,-0.018818423335733782
2192,0.0,300.27529,4592.4585,-0.021919998319167466,0.0,0.0,0.0,0.0,-0.00334530167058264,-0.7136803065322623,-0.3022045477027667,-0.38010786620872566,0.0037471652454664165,0.01114102428828349,-0.006919594769210833
2193,0.0,300.44562,4619.6402,-0.021930007993864797,0.0,0.0,0.0,0.0,-0.003346829288468328,-0.6926335922126133,-0.3006586320251967,-0.4109630340138936,-0.013550294912309987,0.029485346888977172,-0.015670816615589184
2194,0.0,300.69361000000004,4571.5441,-0.021939984633332354,0.0,0.0,0.0,0.0,-0.0033483518647109134,-0.6847731221768453,-0.3000151371516887,-0.40484701588028965,0.0032403634846489768,0.0012903224279199087,-0.013608160612270886
2195,0.0,300.54606,4508.5623,-0.021949994308029797,0.0,0.0,0.0,0.0,-0.0033498794825966016,-0.6706992302753604,-0.3076525908404467,-0.39213854941606163,-0.009113536574736032,0.001969877555261778,-0.023236292056993478
2196,0.0,300.94024,4679.9879,-0.02196000398272735,0.0,0.0,0.0,0.0,-0.0033514071004823454,-0.6907201200612684,-0.31295786703903666,-0.4189214752018306,0.020466877896923582,-0.02020565999464338,-5.0245583994603053e-05
2197,0.0,299.60908,4557.9293,-0.02197001365742468,0.0,0.0,0.0,0.0,-0.0033529347183680613,-0.6972734569380323,-0.3152247810902637,-0.3729984678095826,-0.016210774554128882,-0.017834160294594587,-0.014134928061008786
2198,0.0,299.97078999999997,4306.8482,-0.021979990296892238,0.0,0.0,0.0,0.0,-0.003354457294610619,-0.6502820685078433,-0.2909102541381067,-0.36798197802199367,0.007780274026128262,-0.015833538502148584,-0.015230931309925885
2199,0.0,300.04016,4484.7947,-0.02198999997158957,0.0,0.0,0.0,0.0,-0.003355984912496335,-0.6650155051644204,-0.3161872876252557,-0.3820628208191646,-0.014014158781589786,0.004469819675086856,-0.028034293712269374
2200,0.0,299.83034,4805.2157,-0.022000009646287122,0.0,0.0,0.0,0.0,-0.0033575125303820785,-0.7003148689681963,-0.33480871690304764,-0.4255419905602246,0.022813945097311078,0.007569522868928743,-0.004806410617855796
2201,0.0,299.83867999999995,4685.9207,-0.022009986285754568,0.0,0.0,0.0,0.0,-0.0033590351066246082,-0.6852113832425983,-0.3194906856012757,-0.4197008063837446,-0.013652730444419588,0.010617576246873189,-0.016695029068421085
2202,0.0,300.08806,4431.0484,-0.02201999596045212,0.0,0.0,0.0,0.0,-0.0033605627245103242,-0.6635463735794284,-0.31613666565025966,-0.36724503109176265,0.01039114322052599,-0.01098420661005679,-0.015491081246600683
2203,0.0,300.63217000000003,4425.8795,-0.022030005635149452,0.0,0.0,0.0,0.0,-0.00336209034239604,-0.6834431098305833,-0.2973519916488567,-0.36456175230944365,-0.01914679641489168,-0.002404409556671748,-0.015733289563754787
2204,0.0,300.51814,4529.1433,-0.022040015309846783,0.0,0.0,0.0,0.0,-0.003363617960281756,-0.7106187105601063,-0.2836950926935257,-0.38243265710566465,0.002171195759330338,-0.012295862917507188,-0.0014472432550067887
2205,0.0,299.82148,4570.2827,-0.02204999194931445,0.0,0.0,0.0,0.0,-0.0033651405365243137,-0.6847236654394644,-0.3166801122088937,-0.3878480330601206,-0.014533139403309185,0.015852716286791285,-0.03051412606000977
2206,0.0,299.60202999999996,4634.0551,-0.022060001624011782,0.0,0.0,0.0,0.0,-0.0033666681544100296,-0.7000208541866794,-0.2920910248771398,-0.4165251589803326,-0.003240131551701087,-0.002307585910240998,-0.008325186149706901
2207,0.0,299.63402,4502.9622,-0.022070011298709336,0.0,0.0,0.0,0.0,-0.0033681957722957456,-0.6578256243098344,-0.3178352578528977,-0.3931271775386316,0.006992084910515053,0.020070807552084482,-0.025367446806822076
2208,0.0,299.17174,4441.420999999999,-0.02207998793817678,0.0,0.0,0.0,0.0,-0.003369718348538303,-0.6744218503477544,-0.29300780343511873,-0.38265143806725666,0.007365303223198832,-0.004140473267882896,-0.008579155260771701
2209,0.0,299.66958999999997,4762.7238,-0.022089997612874335,0.0,0.0,0.0,0.0,-0.003371245966424019,-0.7273642896627663,-0.3199838648224487,-0.40040097576649963,0.009016758321909762,0.009330541714202771,-0.008365286231689473
2210,0.0,300.20092,4766.7954,-0.022100007287571666,0.0,0.0,0.0,0.0,-0.003372773584309735,-0.7180949460254533,-0.3244427934775107,-0.4064490352158966,-0.013179468680462289,-0.00828052887407457,0.004116764330118006
2211,0.0,300.00874,4393.5891,-0.022109983927039112,0.0,0.0,0.0,0.0,-0.0033742961605522648,-0.6634955388219114,-0.2990391746553687,-0.37300665487039064,-0.015561519353802386,0.004081665751954046,-0.013556397717662289
2212,0.0,300.53009,4411.9316,-0.022119993601736554,0.0,0.0,0.0,0.0,-0.0033758237784380085,-0.6556234366749953,-0.2976432807876047,-0.3878503128728456,-0.01155352650999429,-0.0017216525590138783,-0.0062161460899358536
2213,0.0,300.02439,4693.5329,-0.022130003276434107,0.0,0.0,0.0,0.0,-0.0033773513963237523,-0.6851139491129824,-0.3346346000058637,-0.4069682549646397,-0.005481644334846176,0.004915905058112055,-0.022697150798034377
2214,0.0,299.5572,4690.7064,-0.02214001295113155,0.0,0.0,0.0,0.0,-0.0033788790142094405,-0.7177259912665402,-0.3109815227189867,-0.39715009454316264,0.02032514041993518,-0.00931776452911676,-0.01982551388837588
2215,0.0,299.57223999999997,4637.3318,-0.022149989590599106,0.0,0.0,0.0,0.0,-0.0033804015904520257,-0.7088552804835693,-0.3207125638968657,-0.38006522864451764,0.009186249225762212,0.01007768204176478,-0.025058409579322476
2216,0.0,300.13547,4555.7372,-0.022159999265296437,0.0,0.0,0.0,0.0,-0.003381929208337714,-0.6951756948584994,-0.3035889513143967,-0.3860657160017196,-0.0018002477348206182,-0.0004920232547964145,-0.018588889764080584
2217,0.0,299.89057,4480.0776,-0.02217000893999377,0.0,0.0,0.0,0.0,-0.00338345682622343,-0.6703154820649874,-0.2981558130856877,-0.39336040744664963,-0.0017804884459455283,-0.002876473253710807,-0.020448910946150377
2218,0.0,300.11617,4657.7904,-0.022179985579461214,0.0,0.0,0.0,0.0,-0.0033849794024659596,-0.6812085387225484,-0.3338847746668617,-0.4007586530517996,-0.017960106268774485,0.01174535805867659,-0.026580726662063472
2219,0.0,299.86715,4735.1168,-0.022189995254158768,0.0,0.0,0.0,0.0,-0.0033865070203517034,-0.6973348902915953,-0.31822788213414666,-0.4237944887752596,-0.004971564608630226,0.011965550477657887,-0.0034925209045349763
2220,0.0,299.79759,4550.85,-0.02220000492885632,0.0,0.0,0.0,0.0,-0.003388034638237447,-0.6936999771478572,-0.3097929904841877,-0.3798518179084556,-0.014765329716724587,-0.005312071256410615,0.008489265588750282
2221,0.0,299.32212000000004,4394.6259,-0.02221001460355365,0.0,0.0,0.0,0.0,-0.0033895622561231353,-0.6696734564041243,-0.3108287043389047,-0.3553543993132487,-0.005660219228495145,-0.0015502452952472984,-0.007132616315909424
2222,0.0,299.66337000000004,4680.379,-0.02221999124302132,0.0,0.0,0.0,0.0,-0.0033910848323657206,-0.7097131182832314,-0.3076347373736847,-0.4053704912794526,0.006847851190580294,-0.014013353247760287,0.012510176459408289
2223,0.0,298.98219,4810.3844,-0.02223000091771865,0.0,0.0,0.0,0.0,-0.003392612450251409,-0.7118432537034592,-0.3363210636048047,-0.41407242499326663,0.016907854145925286,0.00997329043033713,-0.013154696742017488
2224,0.0,299.37809,4579.5498,-0.022240010592416204,0.0,0.0,0.0,0.0,-0.0033941400681371525,-0.6832722150687174,-0.29903102812456467,-0.40976553451570963,0.011401239072964689,-0.0003450613792324067,-0.015277598569781586
2225,0.0,299.64354,4507.8745,-0.022249987231883428,0.0,0.0,0.0,0.0,-0.0033956626443796545,-0.6811938465960984,-0.30973348230581466,-0.37935394733931965,0.0012172373061569688,0.00018362912700278382,-0.02947937276638757
2226,0.0,299.90045,4575.1014,-0.022259996906581092,0.0,0.0,0.0,0.0,-0.003397190262265426,-0.7128134710717123,-0.30143138721396173,-0.37647171689986564,-1.6572206944299486e-05,0.007907667225425992,-0.007598340309722803
2227,0.0,299.57667000000004,4605.4984,-0.022270006581278534,0.0,0.0,0.0,0.0,-0.003398717880151142,-0.7034819848057663,-0.3011423170929327,-0.3953322124062516,-0.0063274567809963635,0.004138634421601416,-0.02071815176272238
2228,0.0,300.08189,4684.8663,-0.022280016255975865,0.0,0.0,0.0,0.0,-0.00340024549803683,-0.7035589715483643,-0.32870653976580966,-0.3918168627743136,-0.0035588377182799364,0.0004679164846447616,-0.00979190640211092
2229,0.0,300.25231,4650.561,-0.022289992895443422,0.0,0.0,0.0,0.0,-0.0034017680742794154,-0.6763843232739354,-0.3176017138373487,-0.41966839251304566,-0.024445119691295477,-0.01268717909287709,-0.012854762553416287
2230,0.0,299.87866,4437.6698,-0.022300002570140864,0.0,0.0,0.0,0.0,-0.0034032956921651036,-0.6454925670076563,-0.3125666613079277,-0.3908815822695086,0.02133273759762728,-0.0033697725450206563,-0.027729554691693973
2231,0.0,299.78814,4569.1061,-0.022310012244838306,0.0,0.0,0.0,0.0,-0.0034048233100508474,-0.6793434087334743,-0.3226925559172757,-0.38685819916993164,-0.001228644982407819,0.010287774485074291,-0.017184616317989586
2232,0.0,300.06371,4841.0915,-0.02231998888430553,0.0,0.0,0.0,0.0,-0.0034063458862933493,-0.7320932393369773,-0.3242396874949657,-0.4152380071133006,0.02837370108501627,0.014598073535967685,0.004572052151876415
2233,0.0,299.75952,4608.4392,-0.022329998559003306,0.0,0.0,0.0,0.0,-0.003407873504179121,-0.6949716364208604,-0.3153091746910927,-0.3905696430937226,-0.016889064436070883,-0.002005491472426598,-0.003617024010572476
2234,0.0,299.73961,4457.2513,-0.022340008233700637,0.0,0.0,0.0,0.0,-0.003409401122064837,-0.6665451176478814,-0.31017590782947874,-0.3781720721576777,-0.010141485488636689,0.012741598729247888,-0.007923048767244032
2235,0.0,299.53794,4635.298,-0.022349984873168083,0.0,0.0,0.0,0.0,-0.0034109236983073665,-0.6925917652484853,-0.28831601977457577,-0.42810706358587763,-0.016774448624509185,-0.01146502620650999,-0.0005148040453372036
2236,0.0,298.78301,4826.5174,-0.022359994547865636,0.0,0.0,0.0,0.0,-0.0034124513161931103,-0.7048029893586394,-0.33829816786242967,-0.42403961423945163,-0.0026333946560458178,-0.009093928766750891,-0.021935470432862376
2237,0.0,299.65936,4738.4246,-0.02237000422256319,0.0,0.0,0.0,0.0,-0.0034139789340788262,-0.7203801593734863,-0.3058264811127237,-0.4141561295840276,-0.00023699078841416977,-0.018859784204815783,-0.024025440619126377
2238,0.0,299.90192,4639.1857,-0.02238001389726052,0.0,0.0,0.0,0.0,-0.0034155065519645422,-0.7083076593345233,-0.3163471480935327,-0.38554180490501366,0.01140992161307159,-3.481107959383607e-05,-0.017771151337126083
2239,0.0,300.54807,4548.2512,-0.022389990536727966,0.0,0.0,0.0,0.0,-0.003417029128207072,-0.7052366907989424,-0.2908666235888007,-0.3864514704472906,0.011917136374629789,0.01150409307736559,-0.005829307872057894
2240,0.0,300.44092,4613.035,-0.02240000021142552,0.0,0.0,0.0,0.0,-0.0034185567460928157,-0.7025614774874193,-0.2997564341361567,-0.3999295206274706,0.01317358879013199,0.0031611683634580274,-0.0061446188402016644
2241,0.0,300.01623,4800.3556,-0.02241000988612285,0.0,0.0,0.0,0.0,-0.0034200843639785317,-0.6736609197876563,-0.34298785409526567,-0.4425394535052436,-0.0034228487130838667,-0.006436340535417353,-0.01007315281381778
2242,0.0,300.04239,4721.3362,-0.022419986525590296,0.0,0.0,0.0,0.0,-0.0034216069402210614,-0.6891909534078514,-0.32388267895473166,-0.42209469080500256,-0.013279234298558385,0.0030311294668241874,-0.017899610171553983
2243,0.0,299.90639,4523.5804,-0.02242999620028785,0.0,0.0,0.0,0.0,-0.003423134558106805,-0.6816861544221854,-0.3080135105260667,-0.38535582284915865,-0.005858931049331474,0.0007064378683949894,-0.008227797515020391
2244,0.0,299.80289,4581.1865,-0.02244000587498529,0.0,0.0,0.0,0.0,-0.003424662175992521,-0.7148050141432623,-0.3086837754672167,-0.36907752429511564,-0.02110461345686318,0.005254125408366805,-0.023471556571212276
2245,0.0,300.00338999999997,4795.3471,-0.022450015549682734,0.0,0.0,0.0,0.0,-0.003426189793878237,-0.7222422293472583,-0.3147919105150427,-0.4206316488531116,0.006582228386140363,-0.004530445569645165,-0.004376947602721095
2246,0.0,299.23735,4597.2482,-0.02245999218915007,0.0,0.0,0.0,0.0,-0.003427712370120767,-0.6880513104903774,-0.3155603999208867,-0.3938369592336816,-0.002164342946254018,0.019398913304773682,-0.028865684671071267
2247,0.0,299.68301,4438.1083,-0.022470001863847622,0.0,0.0,0.0,0.0,-0.0034292399880065105,-0.6471674896879583,-0.2962406893366797,-0.4056659043461076,0.013840749132975588,0.00929621320611481,-0.004983929299600526
2248,0.0,300.37412,4547.91,-0.022480011538545175,0.0,0.0,0.0,0.0,-0.0034307676058922543,-0.6918097793513093,-0.29695312574699173,-0.3936881938539996,8.326114590773532e-05,-0.008521069178914053,-0.03278176559830837
2249,0.0,299.85303999999996,4635.9056,-0.0224899881780124,0.0,0.0,0.0,0.0,-0.0034322901821347562,-0.7085114137971323,-0.3150638567093817,-0.38562426319815163,0.007537879473605783,-0.023967844443692078,-0.01200286442584049
2250,0.0,300.15371,4677.983,-0.022499997852709952,0.0,0.0,0.0,0.0,-0.0034338178000205,-0.7130191304445094,-0.3136759371199047,-0.3952949552000746,-0.014489633483765488,-0.007124727859905893,-0.03279496216761076
2251,0.0,300.39132,4737.2782,-0.022510007527407505,0.0,0.0,0.0,0.0,-0.003435345417906216,-0.7109839061611483,-0.3178848463127917,-0.4111455304894046,0.01126010245328559,-0.008681215079744222,0.01039088889475089
2252,0.0,300.56387,4657.6747,-0.02251998416687495,0.0,0.0,0.0,0.0,-0.0034368679941487457,-0.6901788621228504,-0.3274589046526777,-0.39817902975471064,-0.03041724212519807,-0.0037448763134905164,-0.014722044685702684
2253,0.0,301.42971,4668.6018,-0.022529993841572282,0.0,0.0,0.0,0.0,-0.0034383956120344616,-0.6741924505251143,-0.3081618300757047,-0.4367841017447346,0.00958696278918456,-0.007262828478310363,0.0065606260966583835
2254,0.0,300.43295,4780.1055,-0.022540003516269835,0.0,0.0,0.0,0.0,-0.0034399232299202054,-0.7094878423884984,-0.3295171094483067,-0.41402777106135963,-0.014156357287373685,0.01867857557018188,-0.015341506280088787
2255,0.0,299.80877999999996,4769.4831,-0.02255001319096739,0.0,0.0,0.0,0.0,-0.003441450847805949,-0.7372455654329723,-0.3056088451237447,-0.40694935785027464,0.026524866184050477,0.012698320790976688,0.00989246458443524
2256,0.0,300.13875,4646.9963,-0.022559989830434612,0.0,0.0,0.0,0.0,-0.003442973424048451,-0.7327228425516144,-0.2958661110397117,-0.38398187597856065,-0.009061457546096231,0.003096666888592227,-0.016957990774123383
2257,0.0,300.17211000000003,4609.1923,-0.022569999505132166,0.0,0.0,0.0,0.0,-0.003444501041934195,-0.7145006338132223,-0.2970920322032007,-0.3894866915193436,0.004106377908642946,-0.00938542096081893,-0.014531871827434088
2258,0.0,300.05799,4696.8672,-0.02258000917982972,0.0,0.0,0.0,0.0,-0.003446028659819911,-0.7039067088501834,-0.3024432491613247,-0.4213803900145066,-0.011647065706225888,0.011281604633657688,-0.02181271720974758
2259,0.0,299.64107,4674.2458,-0.022589985819297054,0.0,0.0,0.0,0.0,-0.0034475512360624405,-0.6702335506619014,-0.3260876935573497,-0.42453277319562255,-0.0018720951715864083,-0.003123208772311707,-0.01929945368820778
2260,0.0,299.78758,4708.9842,-0.022599995493994496,0.0,0.0,0.0,0.0,-0.0034490788539481565,-0.6985098855050583,-0.33228809515928165,-0.40061563280018464,-0.01149519674148759,-0.009592283264134652,-0.025540544374405477
2261,0.0,300.31047,4750.4724,-0.02261000516869205,0.0,0.0,0.0,0.0,-0.0034506064718339002,-0.7258030435111833,-0.3183720068283707,-0.3998499399646166,0.0060971994447967335,-0.024478346188574678,-0.009695197354266482
2262,0.0,300.60443,4556.1249,-0.022620014843389602,0.0,0.0,0.0,0.0,-0.003452134089719644,-0.6898734178802053,-0.32199234943567073,-0.37308242571286865,0.01854480629197988,0.007799860150561263,-0.01979254576987218
2263,0.0,300.43147,4582.0912,-0.022629991482856937,0.0,0.0,0.0,0.0,-0.0034536566659621737,-0.6902716353020064,-0.3090572391890747,-0.3935124456241546,0.013704272450506387,0.0070892592428054135,3.193683255191997e-05
2264,0.0,300.19487999999996,4844.6542,-0.022640001157554268,0.0,0.0,0.0,0.0,-0.0034551842838478897,-0.7022827323849093,-0.3450431812606107,-0.42532798200660354,-0.006116526886479204,0.00918561756564987,-0.00933708538467358
2265,0.0,300.35961000000003,4823.5809,-0.02265001083225182,0.0,0.0,0.0,0.0,-0.0034567119017336057,-0.7092146600290373,-0.3257524293642617,-0.4312810593916266,-0.02064714623546468,0.00037896622718855465,-0.012925059818854088
2266,0.0,300.22225,4655.9108,-0.022659987471719267,0.0,0.0,0.0,0.0,-0.0034582344779761354,-0.7040762559894164,-0.3088588042894907,-0.4023455546959146,-0.00981337636112984,0.021787798350038277,-0.018868511327927082
2267,0.0,300.05847,4683.6874,-0.0226699971464166,0.0,0.0,0.0,0.0,-0.0034597620958618513,-0.7225568131058053,-0.3104207191861397,-0.3907464755011746,-0.005846790387958285,-0.006622723736986943,-0.011721792901100888
2268,0.0,299.85733,4787.0859,-0.02268000682111415,0.0,0.0,0.0,0.0,-0.003461289713747595,-0.7248502439121494,-0.3249651948315677,-0.4053391514538596,0.0014318003102326887,-0.010521495819390792,-0.02012405789783988
2269,0.0,300.24303,4790.4639,-0.022690016495811705,0.0,0.0,0.0,0.0,-0.003462817331633339,-0.7218417422452333,-0.32204442035830966,-0.41229525524537364,-0.001941537557914838,-0.013646489837053685,-0.013610092880211588
2270,0.0,299.51114,4705.7603,-0.02269999313527915,0.0,0.0,0.0,0.0,-0.0034643399078758685,-0.6906881216231103,-0.33116381311332366,-0.4085817037613746,0.01899220890013508,0.015751987067850085,-0.015412123732558184
2271,0.0,300.25811,4646.2028,-0.02271000280997648,0.0,0.0,0.0,0.0,-0.0034658675257615845,-0.6868725459865423,-0.3086863187249677,-0.4167707606720716,-0.004350612118046986,0.008185074837803992,0.012327309134360687
2272,0.0,300.04742000000005,4615.3759,-0.022720012484674035,0.0,0.0,0.0,0.0,-0.0034673951436473005,-0.6934399873046984,-0.3200683496157867,-0.38945068061078963,-0.003172492750550657,0.003910773320563277,-0.007015190660495414
2273,0.0,300.46745,4794.5098,-0.02272998912414148,0.0,0.0,0.0,0.0,-0.0034689177198898302,-0.7342798533177793,-0.3135750174099447,-0.4095563692975666,-0.011316968075397789,-0.023379038731081478,-0.003772946684985846
2274,0.0,300.11626,4900.9811,-0.022739998798839034,0.0,0.0,0.0,0.0,-0.003470445337775574,-0.7422182321537363,-0.3334334122773157,-0.4141242223383786,0.013543150485854884,-0.0024612120533027177,-0.014772981781479785
2275,0.0,299.75124,4649.3736,-0.022750008473536365,0.0,0.0,0.0,0.0,-0.00347197295566129,-0.6949815764043413,-0.3171328627510767,-0.4011790302532876,-0.0008987675105614471,-0.014628281561198987,-0.013566273866386987
2276,0.0,299.42169,4582.2127,-0.022759985113003922,0.0,0.0,0.0,0.0,-0.0034734955319038474,-0.6777423519854624,-0.3083815736248917,-0.4067543072060246,-0.005708642754749175,-0.013247636094189887,-0.03249230841574117
2277,0.0,299.47508999999997,4741.1212,-0.022769994787701364,0.0,0.0,0.0,0.0,-0.0034750231497895634,-0.7065877584822823,-0.31604438896365267,-0.41855033182270157,-0.007788861320725762,0.0065795639436774045,-0.013862071968079986
2278,0.0,299.46781,4616.9769,-0.022780004462398695,0.0,0.0,0.0,0.0,-0.0034765507676752516,-0.7051487609552644,-0.3122440424760877,-0.38605289838795465,-0.0023367858529478075,0.027047328333113473,-0.028069667286510475
2279,0.0,299.63517,4575.1887,-0.02279001413709625,0.0,0.0,0.0,0.0,-0.0034780783855609954,-0.6962092707555053,-0.29725323016160965,-0.3972806214210446,-0.0014960896105275484,0.01101848486093979,-0.008353531922579413
2280,0.0,299.49496,4724.8742,-0.022799990776563583,0.0,0.0,0.0,0.0,-0.003479600961803525,-0.7192265032071293,-0.32300687623079666,-0.3940104073857996,-0.017136293407470485,-0.011296129573841188,-0.03273541244598367
2281,0.0,300.03305,4832.1542,-0.022810000451261137,0.0,0.0,0.0,0.0,-0.003481128579689269,-0.7147521427530443,-0.3406803087150287,-0.4134217664415516,-0.004160227389182476,-0.006957889746140254,-0.0064139716209097135
2282,0.0,299.85145,4793.3949,-0.02282001012595858,0.0,0.0,0.0,0.0,-0.003482656197574985,-0.7198776987813973,-0.3217870750979117,-0.4154075745175356,-0.010468441030904689,0.007967583135639231,-0.01078214224861459
2283,0.0,299.83576,4942.6091,-0.022829986765426136,0.0,0.0,0.0,0.0,-0.0034841787738175423,-0.7261557052084883,-0.3409314224873117,-0.4353426318874726,-0.008432987043746022,0.005565370609159314,0.01799192941466518
2284,0.0,299.88259,4912.6158,-0.022839996440123467,0.0,0.0,0.0,0.0,-0.0034857063917032582,-0.7445991469737143,-0.32614561093306565,-0.4225677874091936,-0.016252442437991184,-0.003405704622716877,0.0034509141196537065
2285,0.0,300.26313999999996,4784.2592,-0.02285000611482102,0.0,0.0,0.0,0.0,-0.003487234009589002,-0.7251380778680563,-0.3176032235799977,-0.41155402226721965,0.025497659577173076,0.01233825628844109,-0.0006143549557371135
2286,0.0,299.91737,4834.8466,-0.022860015789518573,0.0,0.0,0.0,0.0,-0.003488761627474718,-0.7360332116883223,-0.31637680592395967,-0.4172626125356136,0.015109745584715785,0.004280388515891456,-0.014769285445114987
2287,0.0,300.66918,4810.7643,-0.02286999242898602,0.0,0.0,0.0,0.0,-0.0034902842037172477,-0.7140864374373442,-0.3168287965285677,-0.43143699858201656,0.021257817885233277,-0.01084741379355639,-0.0077108930427558925
2288,0.0,300.53955,4527.4436,-0.02288000210368335,0.0,0.0,0.0,0.0,-0.0034918118216029637,-0.6796499371537263,-0.3104397986855227,-0.3861400581615566,-0.008620657174267621,-0.02195561384485038,-0.038177772263852765
2289,0.0,300.58501,4599.1943,-0.02289001177838068,0.0,0.0,0.0,0.0,-0.0034933394394886796,-0.6933721096804993,-0.3087243662662227,-0.3959437595041066,-0.006704658787773304,-0.012801318676891788,-0.024602541266581776
2290,0.0,300.11899,4725.7338,-0.02289998841784835,0.0,0.0,0.0,0.0,-0.003494862015731237,-0.7316384926920972,-0.30483860279522773,-0.40002797813968766,-0.01887705707927048,-0.00038656251252574967,-0.014630154047383787
2291,0.0,299.93881,4667.6874,-0.02290999809254568,0.0,0.0,0.0,0.0,-0.003496389633616953,-0.7107838399289034,-0.31495035243317965,-0.3931262352160386,-0.0029832535009241975,0.006072689836802823,-0.012626650571653388
2292,0.0,299.5992,4724.1206,-0.022920007767243233,0.0,0.0,0.0,0.0,-0.003497917251502669,-0.7016483263647983,-0.3313900009331467,-0.4029763738106716,-0.01128545903703809,0.002916379298299227,-0.02979656361744187
2293,0.0,299.76686,4837.7511,-0.02292998440671057,0.0,0.0,0.0,0.0,-0.0034994398277452265,-0.7129666035593253,-0.33678656083324565,-0.4208023612299596,0.005172996600685016,0.009948904641505439,-0.018770874548291083
2294,0.0,300.09167,4706.0756,-0.02293999408140812,0.0,0.0,0.0,0.0,-0.0035009674456309425,-0.7045899433926134,-0.3063733119266917,-0.41956620624046054,0.006068163749931134,0.014432788126655285,-0.008275377307916151
2295,0.0,300.08794,4659.5252,-0.022950003756105564,0.0,0.0,0.0,0.0,-0.0035024950635166585,-0.7095820645152974,-0.3098265391949987,-0.3969707290104606,-0.005255649539167225,0.014729595425447885,-0.0035229095922591066
2296,0.0,299.75791,4818.0647,-0.022960013430803006,0.0,0.0,0.0,0.0,-0.0035040226814024023,-0.7338680786096403,-0.32168506107784367,-0.40901823216945665,0.0017131574701754785,0.0004198691882853625,0.0014325751425841588
2297,0.0,300.10476,4874.9558,-0.022969990070270452,0.0,0.0,0.0,0.0,-0.003505545257644932,-0.7435592787935873,-0.3315741692713227,-0.40673139762126365,-0.006908903562105694,-0.006712758506422683,-0.021410625119564184
2298,0.0,300.49851,4756.0569,-0.022979999744968005,0.0,0.0,0.0,0.0,-0.0035070728755306757,-0.7202358826917473,-0.3104108298651637,-0.4150758263022946,0.017267166816886684,-0.004299630135290456,-0.002271670652496438
2299,0.0,300.38425,4776.9986,-0.022990009419665336,0.0,0.0,0.0,0.0,-0.003508600493416364,-0.7187546630330623,-0.3214339878355647,-0.4118996317438286,-0.0016408745385167085,-0.009193462857199141,-0.03330930717012267
2300,0.0,300.35861,4887.2201,-0.022999986059133004,0.0,0.0,0.0,0.0,-0.003510123069658949,-0.7222849581039753,-0.32006260448771967,-0.4432453139224066,0.025476404629825374,-0.011410292462608189,0.005995372065397154
2301,0.0,300.35463,4828.8839,-0.023009995733830335,0.0,0.0,0.0,0.0,-0.0035116506875446374,-0.7321491808749983,-0.32763962794051366,-0.4080713094210026,-0.013316776228013489,-0.00878881656616366,-0.022318756601189777
2302,0.0,299.84111,4806.5106,-0.023020005408527666,0.0,0.0,0.0,0.0,-0.0035131783054303534,-0.7323926446090263,-0.3164498612561697,-0.41221671823012257,0.02496948877704668,-0.003550864757218067,0.019848579513652282
2303,0.0,300.04362000000003,4765.8332,-0.02303001508322522,0.0,0.0,0.0,0.0,-0.003514705923316097,-0.7306517492147133,-0.3120535818547907,-0.4059889690079916,-0.007039398826584573,0.014720991918848788,-0.0067647609333549245
2304,0.0,299.54432,4745.917,-0.023039991722692665,0.0,0.0,0.0,0.0,-0.003516228499558627,-0.6999663919938044,-0.32855112746547166,-0.4141227531257336,0.008616729006279942,-0.001040539660968269,-0.0025303706282781375
2305,0.0,298.87789,4731.9667,-0.02305000139739022,0.0,0.0,0.0,0.0,-0.0035177561174443706,-0.6954990330979104,-0.3275915694882707,-0.41530912713781964,-0.022199684515688274,-0.00013937351384259487,-0.02893315699523027
2306,0.0,299.89686,4889.8058,-0.02306001107208755,0.0,0.0,0.0,0.0,-0.0035192837353300588,-0.7199055530266464,-0.3345707551170627,-0.43190253634046155,-0.002320854724275528,0.0017882646338379783,-0.004295976254104846
2307,0.0,300.19888,4750.0692,-0.023069987711555107,0.0,0.0,0.0,0.0,-0.003520806311572644,-0.7250455883989283,-0.3159710397889137,-0.4028858196492346,-0.009325160849546722,0.004730798349018446,-0.020401153429187083
2308,0.0,299.93811,4754.6612,-0.02307999738625255,0.0,0.0,0.0,0.0,-0.0035223339294583322,-0.7136336159676544,-0.3314719424687337,-0.4001927224734466,0.011620841780387789,-0.023913042812033578,-0.022492220965309378
2309,0.0,300.89218999999997,4979.431,-0.023090007060950102,0.0,0.0,0.0,0.0,-0.003523861547344076,-0.7394157039671483,-0.3584164309829477,-0.4157905627903336,0.0019328338408808481,-0.005696568258607515,-0.03279044205891467
2310,0.0,300.67781,4881.7903,-0.023099983700417437,0.0,0.0,0.0,0.0,-0.0035253841235866057,-0.7256000185886463,-0.32450661810130965,-0.4338357060737506,0.018882909611848082,-0.0006767339452209403,-0.014487659672570685
2311,0.0,300.37522,4655.4199,-0.02310999337511499,0.0,0.0,0.0,0.0,-0.0035269117414723494,-0.6948677478881073,-0.3324442471321927,-0.3878194188772966,0.0023039640477585475,0.023595908702984877,-0.028801509462737677
2312,0.0,300.89223,4717.5429,-0.02312000304981232,0.0,0.0,0.0,0.0,-0.0035284393593580654,-0.7086846390342283,-0.31230592165969473,-0.4130246939923636,-0.0061523091044856345,0.004877737953345256,-0.0016757847534870783
2313,0.0,299.80662,4777.9732,-0.023130012724509763,0.0,0.0,0.0,0.0,-0.0035299669772437536,-0.7282759614402413,-0.3253082509179247,-0.39880034458352964,-0.02161410803114638,-0.0012785519068082489,-0.016319361527595586
2314,0.0,299.84949,4781.0117,-0.02313998936397732,0.0,0.0,0.0,0.0,-0.003531489553486339,-0.7306023938023423,-0.3091766203158567,-0.4135291608196506,-0.013503659063207387,-0.005266884253626005,0.011240360288337189
2315,0.0,300.17777,4885.9274,-0.02314999903867465,0.0,0.0,0.0,0.0,-0.003533017171372027,-0.7377007781728983,-0.3297196277457937,-0.4177795220741286,-0.003121565888599567,0.013087586148144188,-0.016174854838083882
2316,0.0,299.9987,4865.7309,-0.023160008713372204,0.0,0.0,0.0,0.0,-0.003534544789257771,-0.7253745805738973,-0.3238590600949007,-0.42982706576312857,0.001766313887646608,-0.002688795625138467,0.0026001468805145174
2317,0.0,299.94821,4831.7898,-0.02316998535283965,0.0,0.0,0.0,0.0,-0.0035360673655003005,-0.7191618375857474,-0.3253258004096567,-0.4242558012807876,0.00938341148322061,0.01079488792162249,-0.028475200374033473
2318,0.0,299.67894,4877.5322,-0.023179995027537204,0.0,0.0,0.0,0.0,-0.0035375949833860443,-0.7435182117670343,-0.3110764642533567,-0.4280533106680726,-0.002375329684101788,0.009707292014085132,0.0012467634140709688
2319,0.0,299.29922,4899.94,-0.023190004702234535,0.0,0.0,0.0,0.0,-0.0035391226012717603,-0.7401404007036704,-0.33112663696715466,-0.4181923708273736,0.010846796724245489,0.012392984966092388,-0.01121120097695939
2320,0.0,299.44407,4759.6697,-0.023200014376932088,0.0,0.0,0.0,0.0,-0.0035406502191574762,-0.7315175410276603,-0.3127752692385157,-0.40252793971391465,-0.019821885439767782,-0.014871662208718786,-0.007604093543790602
2321,0.0,299.69336,4637.9064,-0.023209991016399534,0.0,0.0,0.0,0.0,-0.0035421727954000337,-0.6991635027470654,-0.3194644626886877,-0.3911797513764356,0.008648715488086762,-0.012128540875493789,-0.03163341379622487
2322,0.0,300.07151,4706.9373,-0.023220000691097087,0.0,0.0,0.0,0.0,-0.0035437004132857497,-0.7047214632555934,-0.3161124084428657,-0.4099575150121566,0.007254347777623384,-0.005836170817635214,-0.008697984875524272
2323,0.0,300.03506,4792.7558,-0.023230010365794418,0.0,0.0,0.0,0.0,-0.0035452280311714657,-0.7058014764046824,-0.3251081644206777,-0.42596845739481354,0.006046457197013864,0.019228377233443082,-0.01905205955704188
2324,0.0,300.09984,4833.1741,-0.023239987005261975,0.0,0.0,0.0,0.0,-0.003546750607414023,-0.7129799277981402,-0.3336754979912077,-0.4225088061208726,-0.008508760014049233,0.0017635404194728884,-0.014052245839598685
2325,0.0,300.54728,4932.3579,-0.023249996679959306,0.0,0.0,0.0,0.0,-0.003548278225299739,-0.7394983953078093,-0.3320307701638857,-0.42778446501903966,-3.191436575745267e-05,-0.0014085934378923488,-0.014308720718160787
2326,0.0,300.59947,4940.4575,-0.023260006354656748,0.0,0.0,0.0,0.0,-0.003549805843185455,-0.7419832695880473,-0.33309355806127466,-0.42669888912690157,-0.004412158752971166,-0.0015621690197740784,-0.007970714889048311
2327,0.0,300.06347999999997,4840.5672,-0.0232700160293543,0.0,0.0,0.0,0.0,-0.003551333461071171,-0.7242959961074493,-0.34576788812963366,-0.4013476553349296,-0.003979556891676686,0.004727387039906775,-0.027639210273027678
2328,0.0,299.26391,4898.3315,-0.023279992668821636,0.0,0.0,0.0,0.0,-0.0035528560373137286,-0.7421085680954133,-0.3161554107771097,-0.4307064756574196,-0.003888502184690286,-0.0023905952087833774,-0.011091343622630388
2329,0.0,299.37072,4954.1621,-0.02329000234351919,0.0,0.0,0.0,0.0,-0.0035543836551994445,-0.7441591836477933,-0.3445813013350267,-0.41720109812204265,-0.006875218873131274,0.002691606786215907,-0.023929367284394678
2330,0.0,299.67999,4688.5324,-0.02330001201821652,0.0,0.0,0.0,0.0,-0.0035559112730851605,-0.7248719882592953,-0.2979682807571797,-0.4023565180619966,0.015695126511988382,0.0031093224836662367,0.0008317785269651491
2331,0.0,299.67123,4624.5449,-0.02330998865768419,0.0,0.0,0.0,0.0,-0.003557433849327718,-0.7231785737646683,-0.29320270209185373,-0.38936488872482267,0.002046968662620078,0.004823187911686586,-0.016255451790788186
2332,0.0,300.05631,4812.2184,-0.02331999833238152,0.0,0.0,0.0,0.0,-0.003558961467213434,-0.7391132386797973,-0.3115396816690727,-0.41214132229018163,0.017293920672527087,-0.01061097492247169,-0.004084329789116966
2333,0.0,300.22247000000004,4849.4039,-0.023330008007079073,0.0,0.0,0.0,0.0,-0.0035604890850991777,-0.7325874014107473,-0.32160365656480966,-0.4199066380090586,0.007489669945772872,-0.02400084093319858,-0.021934224135239377
2334,0.0,300.38752,4890.6835,-0.02333998464654652,0.0,0.0,0.0,0.0,-0.0035620116613417074,-0.7278352584417472,-0.32936795903358673,-0.4294424461576696,0.025809308963430477,-0.006626996815308664,0.0005367519848257965
2335,0.0,300.18146,4952.1491,-0.023349994321244072,0.0,0.0,0.0,0.0,-0.003563539279227451,-0.7407123499876174,-0.33011551469236466,-0.43450180655698967,-0.0026177813839299074,0.004144031295609045,-0.01968810501581468
2336,0.0,300.15597,4957.8216,-0.023360003995941403,0.0,0.0,0.0,0.0,-0.0035650668971131394,-0.7429861237420212,-0.33329360402851765,-0.43077425195660857,-0.011403855284722889,-0.0060214158353674736,0.0012468425489037787
2337,0.0,300.03208,4894.4549,-0.023370013670638734,0.0,0.0,0.0,0.0,-0.0035665945149988554,-0.7445697221908103,-0.34039066104144267,-0.4028317120938946,-0.03128249387584177,-0.008600190535497721,-0.033528646432519765
2338,0.0,300.33449,4956.5586,-0.02337999031010629,0.0,0.0,0.0,0.0,-0.003568117091241413,-0.7460472130891272,-0.32510972482583167,-0.4355131112167976,-0.011913766304797188,0.008455635817931283,-0.003417078355089377
2339,0.0,299.37811,4808.7265,-0.023389999984803733,0.0,0.0,0.0,0.0,-0.003569644709127129,-0.7238869875720834,-0.3253202477991087,-0.4125255568606026,0.0035750945055343566,0.0067272491987528035,-0.03246619493416397
2340,0.0,299.68127999999996,4660.9928,-0.023400009659501286,0.0,0.0,0.0,0.0,-0.0035711723270128726,-0.6981892222459113,-0.33087814751263067,-0.3877580665837417,0.01004298987821593,0.01201018313131279,-0.02443453325425068
2341,0.0,299.46926,4761.744000000001,-0.02340998629896862,0.0,0.0,0.0,0.0,-0.0035726949032554023,-0.7197421056530153,-0.3117179630241677,-0.41599121670763667,0.0029617382496258072,-0.004728755434166826,-0.029240663201828773
2342,0.0,300.13162,4905.7007,-0.023419995973666174,0.0,0.0,0.0,0.0,-0.003574222521141146,-0.7378530899279303,-0.3365233995172737,-0.4168340381408166,0.014439415795559385,0.013368086199827387,-0.014322007466722088
2343,0.0,300.06169,4793.4987,-0.023430005648363506,0.0,0.0,0.0,0.0,-0.0035757501390268343,-0.7231226727566513,-0.3262202975979367,-0.40776092051786966,0.014043533915238885,0.012460196884975688,-0.01161133040169909
2344,0.0,300.3829,4814.4005,-0.02344001532306106,0.0,0.0,0.0,0.0,-0.003577277756912578,-0.7150525511426923,-0.3254523350821447,-0.4229526501946766,0.003529179381227887,0.0031568247629293468,-0.012516812234313187
2345,0.0,300.4543,4960.281,-0.023449991962528505,0.0,0.0,0.0,0.0,-0.0035788003331551077,-0.7401491957145383,-0.34813005782276163,-0.41952232237862963,-0.008187162133009993,-0.016646716290402985,-0.013628451958773487
2346,0.0,300.76282000000003,4975.0139,-0.023460001637226058,0.0,0.0,0.0,0.0,-0.0035803279510408514,-0.7546108786942953,-0.3236853181002537,-0.43398379257586556,-0.008123361219263332,-0.003075748948227787,-0.004804059370998745
2347,0.0,299.82371,5047.7904,-0.02347001131192339,0.0,0.0,0.0,0.0,-0.0035818555689265674,-0.7682250184954063,-0.33921516933543067,-0.4269620504428736,-0.004411621629093156,-0.009560657398038422,8.082101675191332e-05
2348,0.0,299.81029,4943.5943,-0.023479987951390835,0.0,0.0,0.0,0.0,-0.003583378145169097,-0.7569910538417003,-0.3241682634954167,-0.4215698981807096,-0.011774262031029189,-0.0035564137200657067,-0.0026334598080272474
2349,0.0,299.72547000000003,4750.8135,-0.023489997626088388,0.0,0.0,0.0,0.0,-0.003584905763054841,-0.7247152283363243,-0.3110426318325177,-0.40837081601806163,-0.01004135246605433,0.002048875194008238,-0.0026962468637238475
2350,0.0,300.17997,4808.8087,-0.02350000730078572,0.0,0.0,0.0,0.0,-0.003586433380940529,-0.7319812144059213,-0.3191671852418487,-0.4106093894639916,-0.0028322373887950674,0.016092242530930684,-0.0025319025611043274
2351,0.0,299.45772999999997,4932.9681,-0.023509983940253165,0.0,0.0,0.0,0.0,-0.003587955957183059,-0.7379323564832533,-0.3213985646120687,-0.4401681949587186,0.015014568976322588,0.011751668580299387,0.0071275754979869335
2352,0.0,299.79247999999995,4877.9291,-0.02351999361495072,0.0,0.0,0.0,0.0,-0.0035894835750688026,-0.7376668748245523,-0.33945426596152767,-0.4056475138567926,0.0013083989110289186,0.006578265970299304,-0.015059977779554087
2353,0.0,300.61516,4773.9329,-0.02353000328964827,0.0,0.0,0.0,0.0,-0.0035910111929545463,-0.7102686529155584,-0.3368949684614447,-0.4039927649859816,0.011872796550253788,-0.013394426649426987,-0.025775277945571873
2354,0.0,300.30382000000003,4865.8108,-0.023540012964345602,0.0,0.0,0.0,0.0,-0.0035925388108402623,-0.7465414764879073,-0.3268975438322757,-0.4056459635841396,-0.006027577409225574,0.0007149270905153103,-0.023381885963862478
2355,0.0,300.2842,5023.6454,-0.02354998960381305,0.0,0.0,0.0,0.0,-0.003594061387082792,-0.7405681239683832,-0.3558571841453697,-0.4306374429281066,0.0021985393265289382,0.003855227051406286,-0.01951763987199108
2356,0.0,300.53281,4967.0573,-0.0235599992785106,0.0,0.0,0.0,0.0,-0.0035955890049685357,-0.7398190281694532,-0.3524662514932107,-0.41757610198405265,-0.010315599346070391,0.000967219971807179,-0.027410650434720574
2357,0.0,300.0592,4888.1452,-0.023570008953208044,0.0,0.0,0.0,0.0,-0.0035971166228542517,-0.7198304610617353,-0.3368745616044307,-0.42916907128068965,-0.004831032088660745,0.004464939457305215,-0.01168159625638379
2358,0.0,300.43748,4919.7619,-0.023579985592675268,0.0,0.0,0.0,0.0,-0.0035986391990967537,-0.7458887407734872,-0.34112940142435066,-0.4084666390800186,-0.017290149355654885,0.01078944372883519,-0.015168227340737485
2359,0.0,300.50556,4894.7468,-0.02358999526737282,0.0,0.0,0.0,0.0,-0.0036001668169824974,-0.7367025039093763,-0.32362535395933567,-0.4275529576361916,-0.0058134922538970145,-0.010794365084570889,-0.0074427810881203035
2360,0.0,299.66918,4935.7912,-0.023600004942070374,0.0,0.0,0.0,0.0,-0.003601694434868241,-0.7546602138416643,-0.33324080356580665,-0.4124562606862636,-0.009413429321408142,-0.00970926096167945,-0.024759326520805276
2361,0.0,300.25948999999997,5022.0385,-0.023610014616767816,0.0,0.0,0.0,0.0,-0.003603222052753957,-0.7527563473012673,-0.3421802735005637,-0.43163768289682264,0.007957952902713802,-0.012886167227015688,-0.002848199826895437
2362,0.0,300.11535,4887.6925,-0.02361999125623515,0.0,0.0,0.0,0.0,-0.003604744628996487,-0.7350498929962763,-0.3245980335253317,-0.42608854779666555,0.014147941232043087,0.003733012978669697,-0.016279322949894086
2363,0.0,299.86042000000003,4936.747,-0.023630000930932704,0.0,0.0,0.0,0.0,-0.0036062722468822306,-0.7493540561154872,-0.31963604646062166,-0.4316577148512996,0.01169171457188239,-0.008798134920708313,0.004516391081483095
2364,0.0,300.1291,5104.3851,-0.023640010605630257,0.0,0.0,0.0,0.0,-0.0036077998647679466,-0.7688862047156603,-0.3427234160841677,-0.4399959829717226,0.008583484777123992,-0.010668258003625091,-0.01218825980988759
2365,0.0,300.18515,4927.8273,-0.02364998724509748,0.0,0.0,0.0,0.0,-0.0036093224410104485,-0.7518377448931083,-0.3177184199838667,-0.4283802864753426,0.004781343317006845,-0.008044204702901191,0.0048619298332351155
2366,0.0,299.8879,4807.7582,-0.023659996919795034,0.0,0.0,0.0,0.0,-0.0036108500588961923,-0.7407369010375403,-0.3151808263009257,-0.4055207258717796,0.0008197570238037193,0.015383768941759787,-0.014829950755102185
2367,0.0,300.1403,4939.5973,-0.023670006594492587,0.0,0.0,0.0,0.0,-0.003612377676781936,-0.7541537205141773,-0.3157107561032257,-0.43164976083801454,-0.022593814486585876,0.004098197737935626,0.0006585346460673094
2368,0.0,299.79084,4884.766,-0.02368001626919014,0.0,0.0,0.0,0.0,-0.0036139052946676797,-0.7230946158613822,-0.3401181068970437,-0.42163416863455255,-0.02451031422922968,0.0046762719160871056,-0.01263174417990609
2369,0.0,299.5215,4771.7970000000005,-0.023689992908657365,0.0,0.0,0.0,0.0,-0.0036154278709101817,-0.7220651537597823,-0.3212729418646707,-0.40716904060445563,-0.007145194194700764,-2.251408183621688e-05,-0.019554066213086082
2370,0.0,299.82414,4890.3058,-0.023700002583354918,0.0,0.0,0.0,0.0,-0.0036169554887958977,-0.7435994034975473,-0.3334243740864237,-0.40950708481270265,0.00846199436760882,0.01151751357494009,-0.02247876804373168
2371,0.0,299.71292,4857.275,-0.02371001225805247,0.0,0.0,0.0,0.0,-0.0036184831066816414,-0.7314895550598982,-0.33269056823150267,-0.4123101905518476,0.011102553208486689,-0.01069183633345209,-0.04085191254351986
2372,0.0,299.16331,4762.7981,-0.023719988897519806,0.0,0.0,0.0,0.0,-0.003620005682924171,-0.7130011756527374,-0.32275149667559266,-0.4120190230031116,0.0097334599071927,-0.011952332630103387,-0.03937109210537426
2373,0.0,299.26025,4927.8913,-0.023729998572217248,0.0,0.0,0.0,0.0,-0.003621533300809887,-0.7233446353235573,-0.34360113385079166,-0.43101014671238963,0.008493735845541462,-0.00971636718860578,-0.028672621010267373
2374,0.0,299.81428999999997,4962.090999999999,-0.0237400082469148,0.0,0.0,0.0,0.0,-0.003623060918695631,-0.7369254999913843,-0.3328699540292067,-0.4385563065671376,0.016548340851444084,0.010466395278952791,-0.0013081976795590586
2375,0.0,300.07432,4890.7163,-0.023749984886382136,0.0,0.0,0.0,0.0,-0.0036245834949381606,-0.7443963247011973,-0.32168446326028466,-0.4205748359200046,0.004119657463128536,-0.0014203499761526288,0.006138339628006953
2376,0.0,300.1857,4899.1965,-0.023759994561079578,0.0,0.0,0.0,0.0,-0.0036261111128238765,-0.7388483548386553,-0.3338412150450627,-0.41654384331217664,-0.004731342970947196,0.004182757309131007,0.002848694292944237
2377,0.0,300.05337000000003,4969.8273,-0.02377000423577702,0.0,0.0,0.0,0.0,-0.0036276387307095925,-0.7598300995618923,-0.3176328611454227,-0.43324045203750355,-0.007293506854238083,-0.0004529310830858176,0.011037284703295189
2378,0.0,299.85828,4998.1978,-0.023780013910474573,0.0,0.0,0.0,0.0,-0.0036291663485953363,-0.7439844689330503,-0.3424809959977427,-0.4328618714026406,-0.00940793568201596,0.015085898743612287,-0.015461599721691085
2379,0.0,299.84706,5067.152,-0.02378999054994202,0.0,0.0,0.0,0.0,-0.003630688924837866,-0.7647498847599373,-0.3356753091835737,-0.4398624974035486,-0.0066082236214308945,-0.006049777921566594,-0.0020791088544670684
2380,0.0,300.39418,5101.6813,-0.02380000022463935,0.0,0.0,0.0,0.0,-0.003632216542723582,-0.7633062262824593,-0.3374529551590137,-0.4500245549089656,-0.0005439578547669605,-0.0006104239202516504,-0.030818923849090973
2381,0.0,299.7166,4848.6982,-0.023810009899337126,0.0,0.0,0.0,0.0,-0.0036337441606093535,-0.7491670506770313,-0.3094160918444907,-0.4153000484169236,-0.001995186516259578,0.006259678050007124,0.004079951434109856
2382,0.0,299.7436,4868.3097,-0.02381998653880435,0.0,0.0,0.0,0.0,-0.0036352667368518554,-0.7422263381545363,-0.32148602836070067,-0.41613221045905163,0.013515700527395787,0.015557142113370384,-0.024756933224069078
2383,0.0,299.59701,5099.6584,-0.023829996213501903,0.0,0.0,0.0,0.0,-0.003636794354737599,-0.7643430749772883,-0.3353105290150727,-0.4505152111373896,0.013540142146307986,0.00041520568443511067,0.00035647414199875863
2384,0.0,300.04605,5020.0989,-0.023840005888199456,0.0,0.0,0.0,0.0,-0.003638321972623315,-0.7374502014231683,-0.34435330993002566,-0.4441812023772716,1.5433088890377287e-05,-0.0024052961505092478,-0.02810081155483418
2385,0.0,300.28045,4847.2175,-0.023850015562896787,0.0,0.0,0.0,0.0,-0.003639849590509031,-0.7155733920915953,-0.32861050392133173,-0.4292491889660966,0.01140303759189219,-0.014362475662465986,-0.004660003071156496
2386,0.0,300.65849,5003.2098,-0.023859992202364233,0.0,0.0,0.0,0.0,-0.003641372166751561,-0.7559423906507052,-0.3426480201442267,-0.42226042812385955,-0.00025943203884644877,-0.006268439623621823,-0.008827646437820871
2387,0.0,299.79506000000003,5139.2234,-0.023870001877061564,0.0,0.0,0.0,0.0,-0.003642899784637277,-0.7791237696185292,-0.3544697407834397,-0.42860208692223256,0.008957227142759492,-0.006008145400132785,-0.0050477841182525055
2388,0.0,299.70194,5017.177,-0.02388001155175934,0.0,0.0,0.0,0.0,-0.0036444274025230483,-0.7621348585043543,-0.35631396742295063,-0.4066477132955046,0.0006190373870992334,-0.003279413332902897,-0.02028969693143718
2389,0.0,299.72839,4930.8702,-0.023889988191226563,0.0,0.0,0.0,0.0,-0.0036459499787655503,-0.7325655050760863,-0.3436873107717967,-0.4226086112557226,0.0015601859880033685,0.013694956629086989,-0.03485820180298667
2390,0.0,300.03506,4845.3355,-0.023899997865924005,0.0,0.0,0.0,0.0,-0.003647477596651294,-0.7180477387032943,-0.3262704838753897,-0.4285427712613786,-0.026347467369792578,0.023784417804589276,-0.024798568683928178
2391,0.0,299.58883,4823.3573,-0.02391000754062156,0.0,0.0,0.0,0.0,-0.00364900521453701,-0.7164159703447514,-0.33317585423439666,-0.41658834525656857,-0.013266268750278788,0.0039269141920062565,-0.034868204607973866
2392,0.0,299.58544,4937.4321,-0.023919984180089005,0.0,0.0,0.0,0.0,-0.0036505277907795675,-0.7592176202739452,-0.3225197359802197,-0.4191186942012946,-0.02301106682476548,0.004892431093045355,-0.024746648735554076
2393,0.0,299.48573,5060.6324,-0.023929993854786336,0.0,0.0,0.0,0.0,-0.0036520554086652557,-0.7826158854256743,-0.31522804375558566,-0.4404619564277106,0.012730911980443188,-0.002871051757725747,0.02139539495731108
2394,0.0,300.36744,4943.335999999999,-0.02394000352948389,0.0,0.0,0.0,0.0,-0.0036535830265509994,-0.7639051584165691,-0.3240795838466647,-0.4146659565043436,0.006416264707211025,-0.0015423786241209186,-0.0005421470147182445
2395,0.0,300.16699,4989.427,-0.023950013204181442,0.0,0.0,0.0,0.0,-0.003655110644436743,-0.7410664606325653,-0.3388601771628957,-0.4367345943448486,0.016963744008191183,-0.013860944220718685,0.010853408181147989
2396,0.0,300.95304,5287.0026,-0.023959989843648888,0.0,0.0,0.0,0.0,-0.003656633220679273,-0.7702695646796872,-0.3673249562596506,-0.4695222631382396,0.009748502922152331,-0.012777853831075988,-0.02176423319246258
2397,0.0,300.22055,5263.3179,-0.02396999951834622,0.0,0.0,0.0,0.0,-0.003658160838564989,-0.7945506645110452,-0.3448163956232287,-0.4605501564177616,0.01110534268601199,-0.013915990045651288,0.017111555919529085
2398,0.0,300.05863999999997,4980.5995,-0.023980009193043772,0.0,0.0,0.0,0.0,-0.003659688456450705,-0.7730041747120723,-0.32481699687194165,-0.4161567311114716,0.008297840454683092,-0.01178499538933849,-0.019249346444262582
2399,0.0,300.58346,4825.8814,-0.023989985832511218,0.0,0.0,0.0,0.0,-0.0036612110326932623,-0.7669475026368253,-0.3119101867006387,-0.38808976413647767,-0.0006670003101228053,-0.01024014058462319,0.0016718447304732286
2400,0.0,300.36564,4846.0211,-0.02399999550720855,0.0,0.0,0.0,0.0,-0.0036627386505789505,-0.7292901741278363,-0.3332420903934337,-0.4105371447318616,-0.01236281443111479,0.0025788556588132376,-0.025325195290902176
2401,0.0,299.49523,4869.3031,-0.024010005181906102,0.0,0.0,0.0,0.0,-0.0036642662684646943,-0.7276088578394033,-0.32033408458701274,-0.43220363374017756,-0.005727394670374844,0.01008653825293882,-0.01917642080806538
2402,0.0,299.90359,4973.331,-0.024020014856603655,0.0,0.0,0.0,0.0,-0.003665793886350438,-0.7179146787001623,-0.3429524106067677,-0.4509013506179986,-0.004634246760239546,0.016804564443981384,-0.02349194214997418
2403,0.0,299.66001,4877.4237,-0.0240299914960711,0.0,0.0,0.0,0.0,-0.0036673164625929677,-0.7355097565541613,-0.32355496347488866,-0.4235502853686586,-0.007353004798785073,0.008648460149061562,-0.024321264052071877
2404,0.0,299.69603,4828.1952,-0.024040001170768432,0.0,0.0,0.0,0.0,-0.0036688440804786837,-0.7441902498958592,-0.33030880228144066,-0.3931517285885546,0.0009874513744338631,0.013727881177836385,-0.011559626275596289
2405,0.0,300.42443,5083.3044,-0.024050010845465986,0.0,0.0,0.0,0.0,-0.0036703716983643997,-0.7781554368954623,-0.35167252202737564,-0.41536964856629255,0.0027305483180341374,0.013236675767858187,-0.011348980699057189
2406,0.0,300.25732999999997,5223.831,-0.02405998748493332,0.0,0.0,0.0,0.0,-0.003671894274606957,-0.7837216249948022,-0.34489387885837564,-0.4592986709542496,0.02850718665319027,-0.006884710392118014,0.014941805460141384
2407,0.0,300.33991000000003,5115.07,-0.024069997159630874,0.0,0.0,0.0,0.0,-0.003673421892492673,-0.7329014076167373,-0.37446268513158965,-0.44748946395377154,0.017532314103054683,-0.017116757945542484,-0.027064358027544175
2408,0.0,299.96756,4866.2297,-0.024080006834328316,0.0,0.0,0.0,0.0,-0.003674949510378389,-0.7142350710945133,-0.3280775445012327,-0.4368996933161426,0.004446158258751655,-0.01100178751254189,-0.015412874550882288
2409,0.0,300.49844,4966.4092,-0.024090016509025758,0.0,0.0,0.0,0.0,-0.003676477128264133,-0.7447900635575563,-0.3266033567982417,-0.4382709753389776,-0.008809845356089042,-0.003958324742456236,-0.015211243860482886
2410,0.0,300.54497000000003,5086.9834,-0.024099993148493204,0.0,0.0,0.0,0.0,-0.0036779997045066626,-0.7824106718829212,-0.3311097764854907,-0.43279548325608863,0.004046277485586496,0.021556639525224682,-0.0035636931114341264
2411,0.0,300.25844,5061.9514,-0.024110002823190535,0.0,0.0,0.0,0.0,-0.0036795273223923786,-0.7974773462323862,-0.31926794283179266,-0.4219615294768606,-0.0035982835446729364,0.00988798176334282,-0.0033190645450911667
2412,0.0,300.28395,5013.2394,-0.024120012497888088,0.0,0.0,0.0,0.0,-0.0036810549402780945,-0.7651400063134393,-0.3355307791893096,-0.4232288216419326,-0.00951122204023453,0.015224821411822884,-0.01960154103327148
2413,0.0,300.32516,4990.5482,-0.024129989137355534,0.0,0.0,0.0,0.0,-0.003682577516520652,-0.7369964882933903,-0.3323262845555507,-0.44767926596250357,-0.01862702241834398,0.012603659926884387,-0.0008470605777558702
2414,0.0,299.74824,5191.5511,-0.024139998812053087,0.0,0.0,0.0,0.0,-0.003684105134406368,-0.7599589951071133,-0.3455057704612647,-0.4726371256681526,-0.0070719014579923335,0.014730734318560286,-0.002078605573142398
2415,0.0,299.99744,5374.5167,-0.02415000848675042,0.0,0.0,0.0,0.0,-0.003685632752292084,-0.8044985918728292,-0.3624411819701596,-0.4667791012750106,-0.012749164667744589,0.0070224924446910435,0.005557024062785574
2416,0.0,299.58938,5157.0321,-0.024159985126218086,0.0,0.0,0.0,0.0,-0.0036871553285346415,-0.7904131995827092,-0.34514172996533665,-0.43205405776041556,0.008601940925045471,-0.0007793201881504142,-0.002345713700903918
2417,0.0,299.8137,4824.9083,-0.024169994800915418,0.0,0.0,0.0,0.0,-0.0036886829464203574,-0.7537434352836853,-0.3180721557262777,-0.3948360542297846,-0.00017426375765349384,-0.008109854696755342,-0.004887203938429475
2418,0.0,299.49948,4952.84,-0.02418000447561297,0.0,0.0,0.0,0.0,-0.003690210564306101,-0.7406949423508993,-0.33211444435714366,-0.43273029074465463,0.01966478303826298,-0.012937060753038488,-0.016730824154703786
2419,0.0,299.73672999999997,5195.9324,-0.0241900141503103,0.0,0.0,0.0,0.0,-0.0036917381821917894,-0.7546649558521323,-0.35808228136496967,-0.4666864800833696,0.017530112310587383,-0.01032227261122899,-0.03542584274750847
2420,0.0,299.8796,5047.4071,-0.02419999078977786,0.0,0.0,0.0,0.0,-0.0036932607584343746,-0.7384564195674743,-0.3574956703520757,-0.43833362459266056,0.005257933506217635,-0.004578626118525215,-0.030832894541469768
2421,0.0,300.47344,4743.3356,-0.0242100004644753,0.0,0.0,0.0,0.0,-0.003694788376320063,-0.7128382956991623,-0.3250374395636977,-0.4039798460472066,-0.006016491946506525,0.014782836651952387,-0.039367477842267566
2422,0.0,300.76462000000004,4781.3066,-0.024220010139172632,0.0,0.0,0.0,0.0,-0.003696315994205779,-0.7625625716365663,-0.3034236091630787,-0.3874116363745516,-0.016038261631853182,0.005347044394212194,-0.0077275999157047325
2423,0.0,300.8412,5069.117,-0.02422998677864019,0.0,0.0,0.0,0.0,-0.0036978385704483363,-0.7629989075271293,-0.36074988516824164,-0.41713619945313757,-0.012835062944972088,0.01841770217293568,-0.027700108630537873
2424,0.0,300.02981,5207.8727,-0.02423999645333752,0.0,0.0,0.0,0.0,-0.0036993661883340523,-0.7859183714766043,-0.34571062936648267,-0.4514342796405946,-0.004501532984666715,-0.006404944778418834,-0.006411208285236994
2425,0.0,300.21867000000003,5175.2419,-0.024250006128035073,0.0,0.0,0.0,0.0,-0.003700893806219796,-0.7449090596493002,-0.36478833529680565,-0.4634469067311485,0.005305821732443835,-0.006448194548337254,-0.012762337932294688
2426,0.0,300.24009,5084.9696,-0.024260015802732515,0.0,0.0,0.0,0.0,-0.0037024214241054842,-0.7661380880594423,-0.3325419041768307,-0.44702379447281354,0.005089209632690886,-0.01092055829177519,0.005039297338064925
2427,0.0,300.14357,5208.058,-0.024269992442200072,0.0,0.0,0.0,0.0,-0.0037039440003480695,-0.7749667185657603,-0.3474044896911537,-0.4607483684023235,0.008480754693210323,0.0014078098915900185,-0.016229795285006086
2428,0.0,299.8226,5229.4297,-0.024280002116897403,0.0,0.0,0.0,0.0,-0.0037054716182337577,-0.8116245467786063,-0.34084061501334967,-0.4371508678834316,0.013515353995861588,-0.0060022155565725545,0.006959759496549784
2429,0.0,299.42822,5029.3925,-0.024290011791594956,0.0,0.0,0.0,0.0,-0.0037069992361195014,-0.7747185837487712,-0.3249039337305217,-0.42918721858998055,0.008569409719984893,-0.0015497408993475185,-0.0008680674206840843
2430,0.0,299.50718,4763.5969,-0.024299988431062403,0.0,0.0,0.0,0.0,-0.003708521812362031,-0.7246605330959264,-0.3022313583004127,-0.4211226090565656,0.008782407151331101,-0.004233673025330995,-0.005119609567491125
2431,0.0,299.17096000000004,4843.323,-0.024309998105759956,0.0,0.0,0.0,0.0,-0.003710049430247775,-0.7285328406055933,-0.32714409797910865,-0.4165723055074856,-0.005607471758764375,-0.02509936210861418,-0.027710259370039673
2432,0.0,299.5304,5110.4019,-0.024320007780457287,0.0,0.0,0.0,0.0,-0.003711577048133491,-0.7567649268168832,-0.35067933427935566,-0.4459903300333186,-0.0014147534918752987,-0.0053323142708834445,-0.024079937262504778
2433,0.0,300.15532,5043.9362,-0.024329984419924844,0.0,0.0,0.0,0.0,-0.0037130996243760483,-0.7736356321743922,-0.3396598037443127,-0.4199352217943796,-0.007394894888394303,0.0003048986175986507,-0.017739808471782782
2434,0.0,300.08142000000004,5042.7514,-0.024339994094622286,0.0,0.0,0.0,0.0,-0.0037146272422617643,-0.7701969754425233,-0.34791811629934466,-0.4147554264881736,0.005148502394092625,0.006733795199698844,-0.005486213484847115
2435,0.0,300.15656,5163.8678,-0.024350003769319617,0.0,0.0,0.0,0.0,-0.0037161548601474526,-0.7893784685805892,-0.35202078621924665,-0.4282876348861986,0.004123399801047876,0.01249785837794259,-0.025622297445473875
2436,0.0,300.45123,5256.2782,-0.02436001344401717,0.0,0.0,0.0,0.0,-0.0037176824780331963,-0.7637621482974553,-0.37014871203583366,-0.4638664632000556,0.0074249611599366125,-0.004073795129152276,-0.016708377625238486
2437,0.0,300.05391000000003,5186.9934,-0.024369990083484505,0.0,0.0,0.0,0.0,-0.003719205054275726,-0.7492490124776203,-0.3643845449994546,-0.46308290676522457,0.017304218333293382,-0.009628194164903781,-0.01985476743201298
2438,0.0,299.83853,5114.3442,-0.024379999758182058,0.0,0.0,0.0,0.0,-0.0037207326721614697,-0.7633660485683633,-0.33754600191569667,-0.4537208811412646,0.0029202345122797072,-0.0009996736024401032,0.001066110040491869
2439,0.0,299.35817000000003,4845.8898,-0.0243900094328795,0.0,0.0,0.0,0.0,-0.0037222602900471857,-0.7469787040385583,-0.3295419239432557,-0.3965088693498786,-0.0016431738056436284,0.01107473037399079,-0.02709515373783347
2440,0.0,299.41691000000003,4774.5318,-0.024399986072347057,0.0,0.0,0.0,0.0,-0.003723782866289743,-0.7537511562494473,-0.3133783455655347,-0.38420895545847167,-0.0006039277104155245,-0.006143343766275824,-0.005862202529929345
2441,0.0,299.53524,5050.9741,-0.02440999574704439,0.0,0.0,0.0,0.0,-0.003725310484175459,-0.7657187241080543,-0.3371574002373447,-0.4324938893638236,-0.002105991088895138,0.00983990243814776,-0.025970805830618972
2442,0.0,299.39333,5149.9912,-0.02442000542174194,0.0,0.0,0.0,0.0,-0.003726838102061175,-0.7743724473821103,-0.3375555062016347,-0.45354076580348857,0.016913209172703784,1.4812867358416186e-05,0.005593837972043825
2443,0.0,299.82167000000004,5097.4441,-0.024430015096439273,0.0,0.0,0.0,0.0,-0.003728365719946891,-0.7487867981795032,-0.3546630283725157,-0.44604588653630156,-0.0004192627783655146,0.00889657216792331,-0.042705317202436664
2444,0.0,300.18351,5143.0944,-0.02443999173590694,0.0,0.0,0.0,0.0,-0.0037298882961894486,-0.7892717125500532,-0.33575423123386267,-0.43834632061641365,-0.004304461007792225,-0.0003515272928905426,-0.0014892759089050885
2445,0.0,300.61143,5214.3962,-0.024450001410604272,0.0,0.0,0.0,0.0,-0.0037314159140751646,-0.7976774833921382,-0.3525695320759037,-0.4347992157263416,-0.013372730938285787,0.0010144518146185991,-0.014566447973846486
2446,0.0,300.45902,5219.7595,-0.024460011085301603,0.0,0.0,0.0,0.0,-0.0037329435319608806,-0.8099487729682202,-0.3334626445427007,-0.4432651229618616,-0.003179402102982557,0.011834655789989589,0.02227418676904108
2447,0.0,300.08696000000003,5160.6824,-0.02446998772476927,0.0,0.0,0.0,0.0,-0.003734466108203438,-0.7764908594986812,-0.3443464502268487,-0.4478812675024396,-0.006946694953735413,0.0015542947492719486,-0.016200519449866786
2448,0.0,299.98375,5030.8231,-0.024479997399466602,0.0,0.0,0.0,0.0,-0.003735993726089154,-0.7479043181374093,-0.3281625257871197,-0.4531777588226626,0.008911514364497991,0.0008915570809948332,-0.0037614534904265562
2449,0.0,300.26122000000004,4868.8134,-0.024490007074164155,0.0,0.0,0.0,0.0,-0.00373752134397487,-0.7215825731346553,-0.3113983332801227,-0.4470167929146226,0.003151788504632307,0.00016900497950199286,-0.007328346040376442
2450,0.0,299.97549,5075.6627,-0.02449998371363149,0.0,0.0,0.0,0.0,-0.0037390439202173997,-0.7675974215159673,-0.3424870451008397,-0.4327902548855726,0.011540140462923188,-0.0003057933275694517,-0.02013048392997408
2451,0.0,299.62751000000003,5320.762,-0.024509993388329043,0.0,0.0,0.0,0.0,-0.0037405715381031435,-0.8039910852952422,-0.35997827495208967,-0.45340941819302555,-0.006651395776391653,0.002302027118867388,-0.017697281351835684
2452,0.0,300.46496,5244.6113,-0.024520003063026485,0.0,0.0,0.0,0.0,-0.0037420991559888594,-0.7950191102972772,-0.36109886876768366,-0.43811288805837556,-0.008538386839023172,-0.0059675714210784435,-0.02979088536388147
2453,0.0,300.31019,4986.2426,-0.02453001273772404,0.0,0.0,0.0,0.0,-0.003743626773874603,-0.7421578525802772,-0.34691252637010067,-0.42662287510439956,-0.007181656202199284,0.012211851311965886,-0.0030779696884719572
2454,0.0,300.23009,5121.6129,-0.024539989377191374,0.0,0.0,0.0,0.0,-0.003745149350117133,-0.7565468551303612,-0.33928539769986166,-0.46101019222816353,-0.012712808240906488,0.005937518929737495,-0.01825343204022348
2455,0.0,299.23568,5359.7677,-0.024549999051888927,0.0,0.0,0.0,0.0,-0.0037466769680028766,-0.7829669259228191,-0.3678876545701847,-0.4783809871725276,-0.015490142977008086,-0.0016560943656187884,-0.009315597491127892
2456,0.0,299.00383,5186.3795,-0.024560008726586258,0.0,0.0,0.0,0.0,-0.003748204585888565,-0.8052999612444182,-0.34029606401210666,-0.4309338591123606,-0.010983247062212091,-0.013079173132563888,-0.009230201583299971
2457,0.0,299.28551,5034.6085,-0.024569985366053704,0.0,0.0,0.0,0.0,-0.0037497271621310946,-0.7798152520167733,-0.3287073098358857,-0.4218727079730946,0.006591212976102073,-0.001962639403172428,-0.0040342764500770865
2458,0.0,300.04285,5035.3588,-0.024579995040751257,0.0,0.0,0.0,0.0,-0.0037512547800168383,-0.7790025342440643,-0.32572722983427466,-0.42589356807992257,0.015188854073023186,-0.009274660971187771,0.00908160055278419
2459,0.0,299.7235,5137.3622,-0.024590004715448588,0.0,0.0,0.0,0.0,-0.0037527823979025543,-0.7566745145104602,-0.35065926179487467,-0.4542960728255316,0.0059847764077764435,-0.004302747905848156,-0.025132921965176275
2460,0.0,300.10817000000003,5297.1368,-0.02460001439014614,0.0,0.0,0.0,0.0,-0.003754310015788298,-0.7788852201474863,-0.3546861000772927,-0.47662601773432556,0.008030758975399201,-0.023650213842094377,-0.008585101113683512
2461,0.0,300.27524,5201.9013,-0.024609991029613587,0.0,0.0,0.0,0.0,-0.0037558325920308278,-0.7615414789807923,-0.35479117411266264,-0.4649154607635836,-0.0038919564556061962,0.012620499130296288,-0.02299628553230668
2462,0.0,300.39836,4910.498,-0.02462000070431114,0.0,0.0,0.0,0.0,-0.0037573602099165715,-0.7671421277160333,-0.3243356726769387,-0.40119096633946566,0.0014760389109236987,0.014485871286144186,-0.006009688782685104
2463,0.0,300.56819,5049.8819,-0.02463001037900847,0.0,0.0,0.0,0.0,-0.0037588878278022597,-0.7694708905533643,-0.35975960544800867,-0.4058075060475826,-0.012721638715527988,0.006685933824600295,-0.02689728119205497
2464,0.0,300.22126000000003,5266.7946,-0.024639987018475917,0.0,0.0,0.0,0.0,-0.0037604104040447894,-0.8145324124455903,-0.3461685677491777,-0.44027305621156754,-0.016984162010956285,-0.003209759481278597,0.009138226743897762
2465,0.0,299.76856000000004,5185.3726,-0.02464999669317347,0.0,0.0,0.0,0.0,-0.003761938021930533,-0.7711010073142442,-0.3390051631197047,-0.4661176212122275,0.0011684360402656588,0.010291813299972889,-0.001106628290790709
2466,0.0,299.95604,5033.4105,-0.024660006367871024,0.0,0.0,0.0,0.0,-0.003763465639816277,-0.7409151114651282,-0.33291962354910865,-0.4561963727255766,-0.0006216251974571303,0.013006343755126187,-0.008540403915997242
2467,0.0,299.75178999999997,5080.5162,-0.024670016042568355,0.0,0.0,0.0,0.0,-0.003764993257701993,-0.7555615302031173,-0.3377603347093497,-0.45102821966301954,-0.007686196895418573,0.0033116453252089472,-0.023969685519123776
2468,0.0,299.5769,5271.5393,-0.0246799926820358,0.0,0.0,0.0,0.0,-0.0037665158339445226,-0.8067004654001372,-0.3651991879473537,-0.43051665338368555,-0.0032271697524468568,-0.008019869880549533,-0.029773601343675675
2469,0.0,299.70181,5211.9446,-0.024690002356733243,0.0,0.0,0.0,0.0,-0.0037680434518302386,-0.8030282342552163,-0.3407284279622777,-0.4405443640583436,0.017483672018754084,0.002967359153230547,-0.0097665810264615
2470,0.0,299.79725,4982.759,-0.024700012031430685,0.0,0.0,0.0,0.0,-0.0037695710697159546,-0.7646389541389893,-0.3328752127972257,-0.4171201597040546,0.016438914906894586,0.007039001024595313,-0.014211431483309087
2471,0.0,299.85482,4908.8355,-0.02470998867089802,0.0,0.0,0.0,0.0,-0.0037710936459584843,-0.7301548108356692,-0.3342268377681207,-0.42778175964127263,0.01918901550680838,-0.015149102245099985,-0.0093749183195574
2472,0.0,300.43296000000004,5060.9346,-0.024719998345595573,0.0,0.0,0.0,0.0,-0.003772621263844228,-0.7450767120108464,-0.3481380827635537,-0.44518296222113757,0.0032488162196331973,-0.013793996760111485,-0.02212826963539018
2473,0.0,300.27788,5287.3036,-0.024730008020293126,0.0,0.0,0.0,0.0,-0.0037741488817299718,-0.8007801362583463,-0.35011689941384766,-0.4563112246244116,0.007368415116905953,0.004016998306721866,-9.802108310742771e-05
2474,0.0,299.93816,5364.4726,-0.02473998465976035,0.0,0.0,0.0,0.0,-0.0037756714579724737,-0.8098507308885443,-0.37115589276773464,-0.44965909586289754,0.004353233497380696,0.012326140856995387,-0.016906789220070183
2475,0.0,300.04335,5165.082,-0.024749994334458125,0.0,0.0,0.0,0.0,-0.003777199075858245,-0.7933264658727263,-0.35886831013004467,-0.4178611798996876,-0.012666236226560186,0.008440112319774231,-0.02743023453265337
2476,0.0,299.86419,5019.2141,-0.024760004009155456,0.0,0.0,0.0,0.0,-0.0037787266937439334,-0.7666677138867123,-0.3298717875133107,-0.42917623495889656,-0.025781728295708475,0.004357991821175306,-0.01050741974900159
2477,0.0,299.87081,5193.7998,-0.02477001368385301,0.0,0.0,0.0,0.0,-0.003780254311629677,-0.7789602310523893,-0.3308584803281897,-0.4689667487709146,0.003370201960413036,0.007569261551727952,-0.009448694477888542
2478,0.0,299.73839,5236.3711,-0.024779990323320233,0.0,0.0,0.0,0.0,-0.003781776887872179,-0.7751034667992562,-0.35076262343757564,-0.46585997197679957,0.0026337205172779774,0.01058110025652329,-0.004752257060961255
2479,0.0,299.31604,4981.4147,-0.02478999999801801,0.0,0.0,0.0,0.0,-0.0037833045057579506,-0.7514272266150933,-0.33415607238113665,-0.42864237374620856,0.006127611639923184,-0.01067136969468219,-0.035102549091101866
2480,0.0,299.33038999999997,4962.7355,-0.02480000967271534,0.0,0.0,0.0,0.0,-0.0037848321236436666,-0.7628383276512812,-0.34273807781311466,-0.4029712568976666,0.008106517253575961,-0.013834437598102687,-0.016036086183888482
2481,0.0,299.70642000000004,5135.0516,-0.024809986312182786,0.0,0.0,0.0,0.0,-0.0037863546998861963,-0.7925040208990572,-0.33433713004150567,-0.43408632335348457,0.008649225659512112,-0.01052387290412539,-0.014169782851198685
2482,0.0,299.87492000000003,5301.630999999999,-0.02481999598688034,0.0,0.0,0.0,0.0,-0.00378788231777194,-0.8019348867348113,-0.35396580084620466,-0.45566275469291256,0.015667368525498885,-0.0035828742398021558,-0.00018879788801540084
2483,0.0,299.90181,5355.6633,-0.02483000566157767,0.0,0.0,0.0,0.0,-0.0037894099356576283,-0.7744644302261883,-0.37201204857223064,-0.4815114233564775,0.0026584056201892077,-0.022623683073033682,-0.007714973198258572
2484,0.0,300.10942,5227.376,-0.024840015336275223,0.0,0.0,0.0,0.0,-0.003790937553543372,-0.7770243255438303,-0.3491645861748616,-0.4628028647025866,-0.014564276578882185,-0.007495582361431383,-0.014219301396835788
2485,0.0,299.92961,5153.0405,-0.024849991975742447,0.0,0.0,0.0,0.0,-0.003792460129785874,-0.7783507003222332,-0.3461747384422867,-0.44187021194669457,-0.012667058985641388,0.004410323351740027,-0.0009336590918624782
2486,0.0,300.58414,5272.7981,-0.02486000165044011,0.0,0.0,0.0,0.0,-0.0037939877476716455,-0.8064695558348483,-0.35749683558969064,-0.4388325692069026,-0.01131035459199509,0.024357998421197274,-0.021993764737615582
2487,0.0,300.15762,5245.1453,-0.024870011325137553,0.0,0.0,0.0,0.0,-0.0037955153655573615,-0.8103288532132312,-0.34083522452281767,-0.44322911205330756,-0.015813776072198183,0.01428800279336609,-0.014123776230408185
2488,0.0,299.92656,5092.3072,-0.024879987964604888,0.0,0.0,0.0,0.0,-0.003797037941799891,-0.7588474394824113,-0.35264060143791764,-0.4364461929688856,-0.005988779556271525,0.005262963786339085,-0.025831964222416372
2489,0.0,300.04396,5064.7836,-0.02488999763930244,0.0,0.0,0.0,0.0,-0.003798565559685635,-0.7628624734011643,-0.3217732543665477,-0.4549320392507966,0.0014373541366808084,-0.0006643745738136653,0.004020333216775996
2490,0.0,299.73202000000003,5267.2541,-0.024900007313999994,0.0,0.0,0.0,0.0,-0.003800093177571351,-0.7781072365882052,-0.3424976538293867,-0.4805088225150286,0.006659129914404953,0.004852237285428535,-0.028822671191076173
2491,0.0,299.53352,5395.1672,-0.02490998395346722,0.0,0.0,0.0,0.0,-0.0038016157538138806,-0.7994726788593102,-0.37476981136940063,-0.46575360098130153,0.009208144040548061,-0.01059572044221619,-0.012669169585599688
2492,0.0,299.60317000000003,5284.1423,-0.02491999362816477,0.0,0.0,0.0,0.0,-0.0038031433716995966,-0.8037956901459583,-0.36124669182477265,-0.4412049423285376,-0.005762692352183454,-0.02335328900629018,-0.023619349230798278
2493,0.0,300.09234,5201.8589,-0.024930003302862325,0.0,0.0,0.0,0.0,-0.0038046709895853403,-0.8011067168980772,-0.3490495721560107,-0.4310789261291776,0.005414886858632725,-0.01003643242754376,0.010397524669655791
2494,0.0,299.79396,5099.2715,-0.024940012977559656,0.0,0.0,0.0,0.0,-0.0038061986074710563,-0.7820375627985983,-0.3327608877884427,-0.43525274647110157,0.007017620434235213,0.0011231044466917788,-0.01051990805648409
2495,0.0,300.35282,5107.7602,-0.024949989617027102,0.0,0.0,0.0,0.0,-0.003807721183713586,-0.7661466905527913,-0.3410935121058087,-0.4453913472367036,0.013723680242921787,-0.006402255511328424,0.002278334899729148
2496,0.0,300.15944,5151.1527,-0.024959999291724655,0.0,0.0,0.0,0.0,-0.0038092488015993298,-0.7871224773654403,-0.33570587893909065,-0.44299344021254855,-0.022208558560064078,-0.0005211430494203146,-0.016357384750848185
2497,0.0,299.76474,5151.8349,-0.024970008966422208,0.0,0.0,0.0,0.0,-0.0038107764194850458,-0.7778076286661363,-0.33569900910341266,-0.4525225203804956,-0.010634355668529188,0.0016275932615059485,-0.012482628215689488
2498,0.0,299.90337999999997,5125.8775,-0.024979985605889432,0.0,0.0,0.0,0.0,-0.0038122989957275755,-0.7988473515600952,-0.3381900844742627,-0.4211013308044656,-0.02421745759257698,0.017832629273693484,-0.03358212171979737
2499,0.0,300.15741,5297.9041,-0.024989995280586985,0.0,0.0,0.0,0.0,-0.0038138266136132914,-0.7948404743046472,-0.35814396803105764,-0.4574461255314176,-0.023243597590214476,0.016788468966142885,-0.02347529850383158
2500,0.0,299.28783,5289.8431,-0.025000004955284538,0.0,0.0,0.0,0.0,-0.003815354231499035,-0.7900558668024432,-0.3585301885716747,-0.4593941596436736,-0.013152578036058387,0.004936176139612655,-0.011401708207760989
2501,0.0,299.76739,5256.5212,-0.02501001462998198,0.0,0.0,0.0,0.0,-0.003816881849384779,-0.7821809275552473,-0.35502278282052063,-0.46064748922236753,0.0016386691996740583,0.005423087294342046,0.0025929153145508176
2502,0.0,299.75732,5222.1935,-0.025019991269449204,0.0,0.0,0.0,0.0,-0.003818404425627281,-0.7913743179650643,-0.35376023266591666,-0.44228188532982354,0.016281015077561085,0.0075667761505576634,0.0017298820750010686
2503,0.0,299.0988,5110.4433,-0.025030000944146757,0.0,0.0,0.0,0.0,-0.0038199320435130246,-0.7763066303654993,-0.35616811007105564,-0.42097241499424254,0.027187773916224373,0.0014242026570078586,-0.015237473865821586
2504,0.0,300.01717,5074.5522,-0.02504001061884431,0.0,0.0,0.0,0.0,-0.0038214596613987406,-0.7870984228080663,-0.3398578536088587,-0.41558087068213856,-0.0008796373081434432,7.675880286875403e-06,-0.01935508314519798
2505,0.0,300.49031,5143.6305,-0.025049987258311757,0.0,0.0,0.0,0.0,-0.003822982237641298,-0.7794433689650713,-0.3375485350409467,-0.44654332140789454,0.0018080808673686883,-0.00891715036552922,-0.009013241432137673
2506,0.0,300.14526,5265.1998,-0.025059996933009088,0.0,0.0,0.0,0.0,-0.0038245098555269863,-0.7836564730133723,-0.3545184274507447,-0.4623143565643746,-2.6585626739547075e-05,-0.006640969027562614,-0.024716960507624078
2507,0.0,300.27985,5273.3544,-0.02507000660770664,0.0,0.0,0.0,0.0,-0.00382603747341273,-0.7842360318055702,-0.34652466436432167,-0.4722073759032396,0.0014787178428630886,-0.007784890190933842,-0.02171462953381708
2508,0.0,299.72112999999996,5228.2109,-0.025080016282404194,0.0,0.0,0.0,0.0,-0.0038275650912984738,-0.7889639884946832,-0.3504612929903367,-0.4498202836888056,-0.0027392008659380775,-0.017071819290357382,-0.024961839752041776
2509,0.0,299.64547999999996,5298.0642,-0.025089992921871418,0.0,0.0,0.0,0.0,-0.0038290876675409757,-0.8124976339922731,-0.35062355486135066,-0.4473580251507996,-0.00950219955471908,-0.002294497353399258,-0.01216188997603509
2510,0.0,300.39312,5365.2295,-0.02510000259656897,0.0,0.0,0.0,0.0,-0.0038306152854267195,-0.8189927089882872,-0.36188645793791263,-0.45001665155818554,0.005145813025677205,0.014923648018349384,-0.013714145559480789
2511,0.0,300.11495,5198.1934,-0.025110012271266524,0.0,0.0,0.0,0.0,-0.0038321429033124355,-0.7787498195366233,-0.35971149633326066,-0.4416596889734176,0.014114745132266885,0.015815768121894787,-0.007158530997817004
2512,0.0,299.54395,5064.3785,-0.02511998891073397,0.0,0.0,0.0,0.0,-0.003833665479554993,-0.7640975340805553,-0.3325387529690197,-0.44280833968428057,0.008446573916986942,-0.0008349005531732692,0.0035395794815792966
2513,0.0,299.90594,5140.8915,-0.0251299985854313,0.0,0.0,0.0,0.0,-0.003835193097440681,-0.7832712961203583,-0.33953226595422564,-0.43989910612966154,0.0025761633519725273,-0.007779843496160774,0.0015672880606042887
2514,0.0,299.78026,5236.7933,-0.025140008260128854,0.0,0.0,0.0,0.0,-0.003836720715326425,-0.7882481374315343,-0.3547345638295757,-0.44887169921018755,0.009141897850335071,0.0011377617173383388,-0.008984411629692391
2515,0.0,300.00128,5380.2913,-0.0251499848995963,0.0,0.0,0.0,0.0,-0.0038382432915689546,-0.8151288519844542,-0.3690849311533466,-0.4512604261884366,-0.008668660303055162,-0.0018444924150122282,-0.03835803452289326
2516,0.0,299.40371,5385.3744,-0.025159994574293743,0.0,0.0,0.0,0.0,-0.0038397709094546983,-0.8122731788301213,-0.36006039887269464,-0.4646857569659136,0.004455007681150026,-0.0026988195057277473,-0.014303418380387485
2517,0.0,299.33021,5236.2355,-0.025170004248991296,0.0,0.0,0.0,0.0,-0.003841298527340442,-0.7849871439721993,-0.3437662632195887,-0.46293145627277754,-0.028794177585014076,-0.002299141585232608,-0.02091642960854088
2518,0.0,300.09202,5241.6636,-0.025180013923688738,0.0,0.0,0.0,0.0,-0.0038428261452261303,-0.7691119163079363,-0.35332781805324065,-0.47089512583123055,0.005124322700331275,-0.004902859665724575,0.0011773948936748288
2519,0.0,300.68482,5297.2733,-0.025189990563156073,0.0,0.0,0.0,0.0,-0.0038443487214686878,-0.7884344741249243,-0.35874951668832067,-0.46305481947245253,-0.0015763851213270986,-0.004508311729160726,-0.008980145340146342
2520,0.0,300.46936,5243.7998,-0.025200000237853515,0.0,0.0,0.0,0.0,-0.003845876339354376,-0.8001657723252132,-0.33765525054147866,-0.45616317865230055,0.02104108875509378,-0.0029902253708872675,-0.0017600043792739082
2521,0.0,299.75971,5211.9594,-0.025210009912550957,0.0,0.0,0.0,0.0,-0.0038474039572401197,-0.8082237248054712,-0.3501419064263157,-0.42593988374199365,0.0027956602760851874,0.004557824499272256,-0.01028971891201619
2522,0.0,299.84881,5292.44,-0.025219986552018403,0.0,0.0,0.0,0.0,-0.0038489265334826495,-0.8085011324178493,-0.35564541487446966,-0.4446230706133806,-0.0028609211819009372,0.014750797683790385,-0.02115096154293738
2523,0.0,299.78912,5381.2065,-0.025229996226715956,0.0,0.0,0.0,0.0,-0.003850454151368393,-0.7997349383826933,-0.3648752822878867,-0.4711421866031135,0.0057009293883629256,0.00967923339629096,-0.014745235953991485
2524,0.0,300.27749,5331.2881,-0.025240005901413287,0.0,0.0,0.0,0.0,-0.003851981769254109,-0.7994510257046733,-0.36434076246263364,-0.45678667196883455,-0.0030292682277154974,-0.003789315132401286,-0.014612614688152786
2525,0.0,300.18574,5227.6553,-0.02525001557611084,0.0,0.0,0.0,0.0,-0.003853509387139825,-0.7901644973456642,-0.3372588873673607,-0.4616533020666336,0.0007004203685686084,-0.006397937748677295,0.003073187451974987
2526,0.0,300.14617999999996,5282.5766,-0.025259992215578286,0.0,0.0,0.0,0.0,-0.0038550319633823826,-0.8123127259815243,-0.35127494295313766,-0.4421837115276346,0.0035957135371192965,-0.014549998871723088,-0.018332749258051482
2527,0.0,300.5773,5332.226,-0.02527000189027584,0.0,0.0,0.0,0.0,-0.0038565595812680986,-0.8184579459830101,-0.3508227395660087,-0.45158286263525854,0.003798759737908397,0.008790527742932543,-0.012119198709571788
2528,0.0,301.31661,5337.9719,-0.02528001156497317,0.0,0.0,0.0,0.0,-0.0038580871991538146,-0.8076175479331462,-0.35399343217643164,-0.4609991984645786,-0.0025669686139400774,0.0014260886194189886,-0.014935197042989186
2529,0.0,300.94744,5326.8196,-0.025289988204440728,0.0,0.0,0.0,0.0,-0.003859609775396372,-0.7873410658095132,-0.34757119973010664,-0.4843078923074675,-0.002038820409290908,0.0009145230429913972,-0.0014656039547688486
2530,0.0,300.1465,5255.4917,-0.02529999787913817,0.0,0.0,0.0,0.0,-0.003861137393282088,-0.7998989734413822,-0.3345193428069887,-0.4631199207913776,-0.023968465566003374,-0.004260886592541767,-0.0008585495369297422
2531,0.0,299.903,5324.76,-0.0253100075538355,0.0,0.0,0.0,0.0,-0.003862665011167804,-0.7985182783251182,-0.3693625718132476,-0.4507132103394306,-0.0002420015229411908,-0.005193802272938375,-0.016790101312053985
2532,0.0,299.675,5399.9937,-0.025319984193303058,0.0,0.0,0.0,0.0,-0.0038641875874103615,-0.8296951935670402,-0.3657918075333407,-0.44597623572442757,0.007528655452645442,-0.0009873556222994133,-0.014118932894930186
2533,0.0,299.92214,5288.7929,-0.0253299938680005,0.0,0.0,0.0,0.0,-0.0038657152052960775,-0.8142925761469203,-0.3578270436647797,-0.43554135049708453,0.005595307691313874,0.01198947533901909,-0.01939677129406228
2534,0.0,300.26532000000003,5129.4509,-0.025340003542697942,0.0,0.0,0.0,0.0,-0.0038672428231817935,-0.7717628116170593,-0.36374808208164067,-0.42371410764482653,0.005607217838289314,-0.0023546335441842377,-0.025392343375029176
2535,0.0,300.0128,5178.7759,-0.025350013217395384,0.0,0.0,0.0,0.0,-0.0038687704410675094,-0.7666815751480803,-0.3500741199946257,-0.4574628441580676,-0.007927781354486102,0.01591291347523229,-0.021120770742957783
2536,0.0,300.16969,5348.5159,-0.02535998985686294,0.0,0.0,0.0,0.0,-0.003870293017310067,-0.7894629027114223,-0.35678656753459265,-0.47956581091196054,0.007093530294626933,0.007913900436066162,8.442464681206391e-05
2537,0.0,299.8653,5387.1689,-0.025369999531560272,0.0,0.0,0.0,0.0,-0.003871820635195783,-0.8044184032599153,-0.35755760019818766,-0.4755888144019616,0.006658627443680364,0.009275387471509472,0.0008746534754065774
2538,0.0,300.45872,5406.4985,-0.025380009206257825,0.0,0.0,0.0,0.0,-0.0038733482530815266,-0.8274320792036882,-0.35413948204584567,-0.46186897235041857,-0.013537463113043588,-0.01016945929739749,-0.015084469047721184
2539,0.0,299.55721,5353.4133,-0.02538998584572527,0.0,0.0,0.0,0.0,-0.0038748708293240564,-0.8242281925199892,-0.36248409311189467,-0.44059169297051454,-0.009061947959144633,-0.006506643880355754,-0.02739352448153037
2540,0.0,299.88144,5331.1829,-0.025399995520422824,0.0,0.0,0.0,0.0,-0.0038763984472098,-0.8019834923421082,-0.36861781272474564,-0.44994517689613156,-0.018333977317172682,-0.004746844177602045,-0.02296591842680968
2541,0.0,299.58325,5285.0093,-0.025410005195120156,0.0,0.0,0.0,0.0,-0.0038779260650954883,-0.7926100879195253,-0.34439195528883965,-0.46950883757441453,0.0048750004555500855,0.005570951084085065,0.0026454835403388974
2542,0.0,299.91024,5290.5442,-0.025420014869817487,0.0,0.0,0.0,0.0,-0.0038794536829812043,-0.7943660503428251,-0.36091329201186867,-0.4529140098216326,0.005406640016068824,-0.004899533266971285,-0.003135676510817177
2543,0.0,299.83628999999996,5199.8726,-0.025429991509285155,0.0,0.0,0.0,0.0,-0.0038809762592237618,-0.7989735315950482,-0.3443837479630297,-0.4372741500230986,0.007594263599270463,0.008880826565344342,-0.005047172621817155
2544,0.0,300.20126,5222.1692,-0.025440001183982486,0.0,0.0,0.0,0.0,-0.0038825038771094778,-0.8071816173426232,-0.34977561651516564,-0.4304517952447846,0.01983789276484758,-0.012884884452389089,-0.013021009537073589
2545,0.0,300.2172,5402.6186,-0.02545001085868004,0.0,0.0,0.0,0.0,-0.0038840314949952215,-0.8336632228136542,-0.3713676316411316,-0.43723030669127155,0.002014452757636008,-0.0017707155474060183,-0.022643052361945276
2546,0.0,300.11929,5520.2341,-0.025459987498147485,0.0,0.0,0.0,0.0,-0.003885554071237751,-0.8225804756048722,-0.36492694791048563,-0.49050590263916355,-0.004591092438480546,-0.013118399083685187,-0.013488574808968687
2547,0.0,300.48598,5317.3541,-0.025469997172845038,0.0,0.0,0.0,0.0,-0.003887081689123495,-0.8009144729566042,-0.35550168534778465,-0.4599267238962336,-0.013466666315306488,-0.006091139297273645,-0.026335199950831875
2548,0.0,300.39963,5251.1426,-0.02548000684754237,0.0,0.0,0.0,0.0,-0.003888609307009183,-0.7799548880130543,-0.33574041050249864,-0.48052092072122254,0.010944101157848688,0.0021388124887843575,0.0058554140582343745
2549,0.0,299.99027,5332.5915,-0.025489983487009926,0.0,0.0,0.0,0.0,-0.0038901318832517406,-0.8030283659777292,-0.3480059549505137,-0.4699403605270026,-0.0019186225016032982,0.008217223743601842,-0.004178296374240747
2550,0.0,299.52237,5327.8735,-0.025499993161707257,0.0,0.0,0.0,0.0,-0.0038916595011374566,-0.8158805011736362,-0.36467170007779465,-0.4389882956147716,0.013218936798357487,0.001995227755538648,-0.009935963411228241
2551,0.0,300.09352,5353.3309,-0.02551000283640481,0.0,0.0,0.0,0.0,-0.0038931871190232004,-0.8162276507903972,-0.36105695061104665,-0.44999430939348056,-0.01067619377840829,-0.002284749178162188,-0.02089044886272678
2552,0.0,299.30512000000004,5353.154,-0.025520012511102252,0.0,0.0,0.0,0.0,-0.0038947147369089163,-0.8045572489211182,-0.36761139193041964,-0.45505648662807857,0.004470740415452725,-0.007436863606211293,-0.015127603104478186
2553,0.0,299.50588999999997,5329.9875,-0.02552998915056981,0.0,0.0,0.0,0.0,-0.003896237313151474,-0.7956381047833673,-0.36463115994129364,-0.45991384548746256,-0.012799100672422885,0.0024416366693207777,-0.013139298380247787
2554,0.0,300.47307,5442.371,-0.02553999882526714,0.0,0.0,0.0,0.0,-0.003897764931037162,-0.8101068906463252,-0.36954611193636167,-0.47469186514843953,0.0060338596611705835,-0.008208623175428033,-0.005439181049655375
2555,0.0,299.67005,5452.3257,-0.02555000849996447,0.0,0.0,0.0,0.0,-0.003899292548922878,-0.8226657203357852,-0.37855010563748664,-0.45615504225399756,-0.0016184046029740985,0.0036559682781659767,-0.014833676475719884
2556,0.0,300.1732,5395.4856,-0.02555998513943214,0.0,0.0,0.0,0.0,-0.0039008151251654355,-0.8254829507813242,-0.36008751344537065,-0.45452243289787153,0.004258632111069266,-0.004492868885711636,-0.006343761089680474
2557,0.0,300.40369,5318.126,-0.02556999481412947,0.0,0.0,0.0,0.0,-0.0039023427430511515,-0.8077791714565973,-0.3550549129811917,-0.45374341582348854,0.017092394346887984,0.005968230945568535,-0.01256316437338779
2558,0.0,299.92328,5348.8703,-0.025580004488827024,0.0,0.0,0.0,0.0,-0.003903870360936895,-0.8006028884183533,-0.36132373936237666,-0.4639963922603786,0.004949139965367085,-0.0018429799365879582,-0.020998495773890177
2559,0.0,299.96075,5397.1886,-0.025590014163524355,0.0,0.0,0.0,0.0,-0.003905397978822611,-0.8081441542751183,-0.34728492617935364,-0.4851814861461845,0.0041177752497427765,-0.0035103809574226264,-0.007795032520459813
2560,0.0,300.51666,5283.6445,-0.025599990802992023,0.0,0.0,0.0,0.0,-0.003906920555065169,-0.7932627729714403,-0.35005731017546665,-0.46277590211742553,-0.01052166401890739,-0.002939935640599057,-0.003260720692408077
2561,0.0,300.10472000000004,5284.6644,-0.025610000477689354,0.0,0.0,0.0,0.0,-0.003908448172950857,-0.8067368309462262,-0.3467620080677457,-0.45290717038345757,-0.026120602698902776,0.010685707183597189,-0.007679451993477903
2562,0.0,300.16549,5436.9594,-0.025620010152386907,0.0,0.0,0.0,0.0,-0.003909975790836601,-0.8292154804396962,-0.3612619412387777,-0.46222246491280555,-0.013561044482620885,0.004886962278280626,-0.011301015465823388
2563,0.0,299.82439,5504.6304,-0.025629986791854242,0.0,0.0,0.0,0.0,-0.00391149836707913,-0.8262121260832883,-0.38972620357798166,-0.45733188158264254,-0.015889904591961483,0.00996099281652345,-0.017651736773090784
2564,0.0,299.7884,5415.2767,-0.025639996466551795,0.0,0.0,0.0,0.0,-0.003913025984964874,-0.8168090233002743,-0.35552785759786765,-0.4737720265751586,-0.0018381472402360084,0.006750783857500494,-0.008065132269141583
2565,0.0,299.99465,5311.6792,-0.025650006141249238,0.0,0.0,0.0,0.0,-0.00391455360285059,-0.8086666468216842,-0.34741444993963666,-0.4585367372765526,0.010502053576471989,0.0003812646837153946,-0.012099165741844688
2566,0.0,299.98572,5210.5131,-0.02566001581594657,0.0,0.0,0.0,0.0,-0.003916081220736306,-0.7958267719519873,-0.3472937414552236,-0.44074537261318153,0.016042229519244784,-0.007707427322113852,-0.015417765509114984
2567,0.0,300.22952000000004,5323.1439,-0.025669992455414126,0.0,0.0,0.0,0.0,-0.0039176037969788635,-0.8259143116138962,-0.3450080822771467,-0.4471804125407706,0.02372528756850358,-0.007957046753149373,0.006493991021057015
2568,0.0,299.7337,5472.8369999999995,-0.025680002130111457,0.0,0.0,0.0,0.0,-0.003919131414864552,-0.8312565410436332,-0.36412013738585963,-0.4682291229631166,0.002768404861645287,-0.001070174490617999,-0.01137343954322109
2569,0.0,299.98072,5428.5109999999995,-0.02569001180480901,0.0,0.0,0.0,0.0,-0.0039206590327502955,-0.8018557822995043,-0.3627410026747496,-0.48553499897357355,0.0001183516140178949,0.000936636942713869,-0.007134011054672073
2570,0.0,299.65004,5317.1894,-0.025699988444276456,0.0,0.0,0.0,0.0,-0.003922181608992825,-0.7741755931526823,-0.3649158122918867,-0.47720139180361054,-0.02216787758179918,-0.017230454739263486,-0.03361552553584407
2571,0.0,299.86751,5502.3730000000005,-0.02570999811897401,0.0,0.0,0.0,0.0,-0.003923709226878569,-0.8076271130140902,-0.38920780456181964,-0.47574909030277956,0.0037698918372593565,0.0014485005970558786,-0.027947972909750173
2572,0.0,299.49363,5540.2754,-0.02572000779367134,0.0,0.0,0.0,0.0,-0.003925236844764285,-0.8363054649669232,-0.36448817008718165,-0.4833117560016565,-0.01095778510044919,0.0014764714673913886,-0.003736683274506926
2573,0.0,299.55197999999996,5299.2909,-0.025729984433139008,0.0,0.0,0.0,0.0,-0.003926759421006842,-0.8308296081139982,-0.35196971841420666,-0.4280527837780206,-0.001055027718848129,0.010233447054462589,-0.003145632300999737
2574,0.0,299.69895,5232.0411,-0.02573999410783634,0.0,0.0,0.0,0.0,-0.003928287038892558,-0.8029287432278972,-0.3467035232719737,-0.44077758383386056,-0.014692829645569385,0.007455657571716112,-0.005632394570149064
2575,0.0,300.17303,5305.9574,-0.025750003782533892,0.0,0.0,0.0,0.0,-0.003929814656778274,-0.8032173371213793,-0.35339982973784767,-0.4562613929844936,0.015322375104950684,0.015275914548115384,-0.015371145872013986
2576,0.0,300.4672,5343.4952,-0.025760013457231223,0.0,0.0,0.0,0.0,-0.00393134227466399,-0.7979728356637873,-0.35826671314817166,-0.4680495851778975,-6.744057396711643e-05,0.00898992938443695,-0.02287944665002558
2577,0.0,300.88961,5421.073,-0.02576999009669878,0.0,0.0,0.0,0.0,-0.003932864850906548,-0.8168458245439062,-0.35301046812192066,-0.47801454527386256,0.006380826487613545,-0.02080204380475188,-0.020156755478566882
2578,0.0,300.40897,5397.1756,-0.025779999771396223,0.0,0.0,0.0,0.0,-0.003934392468792264,-0.8224180414813412,-0.36471441870201066,-0.45347414460941354,-0.0022886918356262976,-0.029983127278854268,-0.02970461522386727
2579,0.0,299.98435,5358.3466,-0.025790009446093554,0.0,0.0,0.0,0.0,-0.00393592008667798,-0.8372344937186111,-0.35064302952827264,-0.44092606550351454,0.005143342012658336,-0.007463021670792893,-0.01213014485040209
2580,0.0,299.64274,5428.2088,-0.02579998608556111,0.0,0.0,0.0,0.0,-0.003937442662920537,-0.8288959722856631,-0.3565483929660867,-0.46459556757451254,0.009045612746332471,0.0016909764122363786,-0.016224222409456084
2581,0.0,299.62119,5521.1245,-0.025809995760258442,0.0,0.0,0.0,0.0,-0.003938970280806253,-0.8235985893053521,-0.37111359970856067,-0.4835717965073206,-0.007811342705994502,0.00028718339868029466,-0.008085358564987762
2582,0.0,299.20613,5480.7989,-0.025820005434955995,0.0,0.0,0.0,0.0,-0.003940497898691969,-0.8082465533302242,-0.36897420318241864,-0.48880525353882254,-0.012913642516727289,-0.0028300102650752677,-0.019473787420913182
2583,0.0,300.2373,5356.9951,-0.025830015109653437,0.0,0.0,0.0,0.0,-0.003942025516577685,-0.8085879882164213,-0.35810656896986665,-0.46169819917856453,0.002327757591906788,0.0070909916978263935,-0.013470652441199887
2584,0.0,300.02292,5317.9772,-0.025839991749120994,0.0,0.0,0.0,0.0,-0.003943548092820243,-0.8257901682116442,-0.35472681246631066,-0.43601530836386054,0.004307294460371866,0.015759606708602086,-0.002208522170489168
2585,0.0,300.33842999999996,5387.8843,-0.025850001423818325,0.0,0.0,0.0,0.0,-0.003945075710705959,-0.8456615124152932,-0.33743749296248765,-0.4546832762187456,-0.003677384230954567,0.00015968014015670286,0.014932216061194985
2586,0.0,300.44638,5446.2236,-0.025860011098515878,0.0,0.0,0.0,0.0,-0.003946603328591702,-0.8172000871763692,-0.37230186849833363,-0.4660140366545045,-0.0025920559771410077,-0.007384830072500983,-0.01065384654745279
2587,0.0,299.93158999999997,5537.3297,-0.025869987737983324,0.0,0.0,0.0,0.0,-0.003948125904834232,-0.8207458849738122,-0.36961919766607465,-0.4928448891700035,0.006203994586786594,0.006390024265396295,-0.017978680156357583
2588,0.0,299.65103,5589.0962,-0.025879997412680877,0.0,0.0,0.0,0.0,-0.003949653522719976,-0.8160385985867392,-0.38255478414021765,-0.5003523023409275,0.017187145390239182,0.004302135396162705,-0.022119799877804276
2589,0.0,300.24453,5546.6403,-0.02589000708737821,0.0,0.0,0.0,0.0,-0.003951181140605664,-0.8246213335587892,-0.38506221336768165,-0.4763566046652365,0.005152229735910485,-0.006499827138982994,-0.022785614624515078
2590,0.0,300.0941,5453.1934,-0.025899983726845655,0.0,0.0,0.0,0.0,-0.0039527037168482215,-0.8400271629817261,-0.35648298767213166,-0.46112445644194056,0.005691591174116314,-0.02110362148501528,-0.014882940695581885
2591,0.0,300.05927,5379.8009,-0.025909993401542986,0.0,0.0,0.0,0.0,-0.00395423133473391,-0.8306688559856331,-0.36055504730651267,-0.44410122654687856,0.012207051546242187,-0.012025824673106488,0.003698358102724527
2592,0.0,299.85468,5284.4677,-0.02592000307624054,0.0,0.0,0.0,0.0,-0.0039557589526196535,-0.8053875567155633,-0.35007235693945166,-0.4508863139865146,0.0052426115435054745,0.007722470337073482,0.0009977002168103449
2593,0.0,299.40671000000003,5342.3377,-0.025930012750938092,0.0,0.0,0.0,0.0,-0.003957286570505397,-0.7905717124283532,-0.3564933937506587,-0.47687216658111853,-0.022179171267413776,-0.0011221441895720087,0.0025383056937862674
2594,0.0,299.60115,5462.6708,-0.025939989390405538,0.0,0.0,0.0,0.0,-0.003958809146747927,-0.7996570295825043,-0.37664369583933865,-0.48421478475577856,-0.015183845577778885,-0.0031730170061523974,-0.01957149006180568
2595,0.0,299.34493,5412.8312,-0.02594999906510298,0.0,0.0,0.0,0.0,-0.003960336764633671,-0.8146021949799772,-0.36436606331763066,-0.46639724784232456,-0.011731293134038489,0.02008537910177258,-0.016823907388390385
2596,0.0,298.7931,5352.2293,-0.025960008739800422,0.0,0.0,0.0,0.0,-0.003961864382519359,-0.8345246272536683,-0.3461380385236647,-0.44628138612454354,0.0030285036291900365,0.02074317194744168,-0.012113886239297489
2597,0.0,299.61897,5444.5246,-0.025969985379267757,0.0,0.0,0.0,0.0,-0.003963386958761916,-0.8394007920349082,-0.3651778489002477,-0.4504208876855806,0.00025619288092676874,-0.0013865073214876186,-0.01024248423210449
2598,0.0,300.13841,5465.0923,-0.02597999505396531,0.0,0.0,0.0,0.0,-0.003964914576647632,-0.8279197767418202,-0.3507448206333187,-0.48258699847012854,-0.005960775046032694,-0.007481787873244972,-0.012556490094979089
2599,0.0,300.56633999999997,5513.0333,-0.025990004728662863,0.0,0.0,0.0,0.0,-0.003966442194533376,-0.8109143699160173,-0.37935861842228064,-0.4855514744201996,0.004077684692311147,-0.002448011430999918,-0.017408694551104383
2600,0.0,299.93093,5448.2489,-0.026000014403360194,0.0,0.0,0.0,0.0,-0.003967969812419092,-0.8026116972716072,-0.36433090353916064,-0.4891890220141975,0.006549142527975045,0.0070449171892791925,-0.008484079572088462
2601,0.0,299.92842,5359.7718,-0.02600999104282764,0.0,0.0,0.0,0.0,-0.003969492388661622,-0.8276317097383902,-0.3488336992222057,-0.4527713746050556,-0.003439233980450967,-0.011112386800707188,-0.016739101394770684
2602,0.0,299.67334,5459.3607,-0.026020000717525194,0.0,0.0,0.0,0.0,-0.0039710200065473655,-0.8382052582419182,-0.3809547609073076,-0.4403493032815926,-0.01021051821794969,-0.01194571509370029,-0.008969676642763161
2603,0.0,299.98462,5502.1905,-0.026030010392222525,0.0,0.0,0.0,0.0,-0.003972547624433054,-0.8515166693106522,-0.3536714111621507,-0.4673404620954125,0.008866594859739781,0.01082361052220719,-0.003707261328703207
2604,0.0,299.86877000000004,5427.3169,-0.02603998703168997,0.0,0.0,0.0,0.0,-0.003974070200675611,-0.8150466470038412,-0.36815792890185867,-0.4665642415913056,0.0031784640360399768,0.009383295567409172,-0.005834223350943015
2605,0.0,300.10811,5374.9352,-0.026049996706387524,0.0,0.0,0.0,0.0,-0.003975597818561327,-0.7953516995101012,-0.36062148611556966,-0.47787290304238356,-0.002889813400552377,-0.005980087187638655,-0.017496492672269385
2606,0.0,299.88818,5447.9365,-0.026060006381085077,0.0,0.0,0.0,0.0,-0.003977125436447071,-0.7997575338599232,-0.36600156043654164,-0.49027756672912853,-0.018208273509766684,0.0029055266804531572,-0.027723946352390477
2607,0.0,299.64972,5540.2299,-0.026070016055782408,0.0,0.0,0.0,0.0,-0.003978653054332787,-0.8305574187396351,-0.3915130701293316,-0.4620210713229295,0.003224881833721057,0.026140406672107274,-0.017624741763926585
2608,0.0,299.38215,5504.4578,-0.026079992695249854,0.0,0.0,0.0,0.0,-0.003980175630575317,-0.8477103547799982,-0.3591683942796607,-0.4663389758290736,-0.01087784980006019,0.015959169355547385,-0.017113457789966785
2609,0.0,299.48368,5454.9628,-0.026090002369947407,0.0,0.0,0.0,0.0,-0.00398170324846106,-0.8359360339804631,-0.36225392321917865,-0.4599825337117416,-0.01033184579817379,-0.00999340942299772,-0.010985119548396888
2610,0.0,299.88104,5417.5047,-0.02610001204464496,0.0,0.0,0.0,0.0,-0.003983230866346776,-0.8200210058522722,-0.3619710237912587,-0.4647941240641085,-0.015613541640436586,-0.02064641466889248,-0.019486770194444482
2611,0.0,299.29259,5426.5716,-0.026109988684112184,0.0,0.0,0.0,0.0,-0.003984753442589306,-0.8046944429846582,-0.35164233730689665,-0.4932054846155915,0.016126269495788884,-0.010419967146120689,-0.012792864118057386
2612,0.0,299.82388,5477.0777,-0.026119998358809737,0.0,0.0,0.0,0.0,-0.003986281060475022,-0.8176877340519962,-0.3667325595886856,-0.48047458479414956,0.016680458531983085,-0.016645229852506285,-0.03387172987662947
2613,0.0,300.12098,5471.0252,-0.02613000803350718,0.0,0.0,0.0,0.0,-0.003987808678360766,-0.8474299783448271,-0.3526330020621677,-0.4629920688937596,0.01028617152341609,-0.024457015247469478,-0.008673223778855542
2614,0.0,300.72401,5434.5194,-0.026139984672974625,0.0,0.0,0.0,0.0,-0.0039893312546032955,-0.8395198185241552,-0.3647010336681897,-0.44773734545823557,0.0017210542348298282,-0.009485703437791041,-0.02064145683615318
2615,0.0,300.56743,5463.2488,-0.026149994347671957,0.0,0.0,0.0,0.0,-0.0039908588724890115,-0.8352034338931611,-0.37076425133908264,-0.45472353264521853,0.0027243539148727974,0.008126985108245981,-0.0020883960009086384
2616,0.0,299.73592,5575.0455,-0.02616000402236951,0.0,0.0,0.0,0.0,-0.003992386490374755,-0.8361345803375582,-0.36239948672854466,-0.49614055604776053,-0.009698948912761731,0.018720560601325483,0.004553433883938935
2617,0.0,299.40958,5637.8501,-0.026170013697067063,0.0,0.0,0.0,0.0,-0.003993914108260471,-0.8191412919829512,-0.39034269533632465,-0.5042816760962265,-0.01628732559918388,-0.011502432360451688,-0.011832910973317387
2618,0.0,300.25775,5586.6935,-0.026179990336534287,0.0,0.0,0.0,0.0,-0.003995436684503001,-0.8243035175324233,-0.3814840118320406,-0.4924277847663385,-0.016411373755926485,0.003910088160845656,-0.029248271696829677
2619,0.0,300.26951,5535.1403,-0.02619000001123184,0.0,0.0,0.0,0.0,-0.003996964302388717,-0.8497523374415262,-0.35462345082360963,-0.47816865048157153,0.0029161656038531373,0.011481974840932689,-0.006386473837045894
2620,0.0,300.24902000000003,5469.1117,-0.026200009685929393,0.0,0.0,0.0,0.0,-0.003998491920274461,-0.8431525227826752,-0.37025163798099164,-0.44906924244968355,0.007499497053192733,0.013415945041800686,-0.014314749556255786
2621,0.0,299.78247999999996,5438.0168,-0.02620998632539684,0.0,0.0,0.0,0.0,-0.00400001449651699,-0.8428390333342362,-0.34185825248628265,-0.46832405436498553,0.01108925328767409,-0.01799749722396468,0.0013808667608309387
2622,0.0,299.78944,5468.0437,-0.02621999600009417,0.0,0.0,0.0,0.0,-0.004001542114402706,-0.8255051510910152,-0.36432445926852464,-0.4723191272567686,0.02066683165840748,-0.008622451842844742,-0.013538171374863486
2623,0.0,299.67515,5464.494000000001,-0.026230005674791723,0.0,0.0,0.0,0.0,-0.00400306973228845,-0.8067796914254562,-0.37539713477131265,-0.4788929013880496,0.013432848079968886,0.0015127847297752286,-0.024268679411632178
2624,0.0,299.35844,5432.116999999999,-0.026240015349489276,0.0,0.0,0.0,0.0,-0.004004597350174166,-0.8130629667530672,-0.3562907943931637,-0.4818741567597766,0.006105637082354463,-0.007456170884216773,-0.01933313716128208
2625,0.0,299.14074,5465.6004,-0.026249991988956722,0.0,0.0,0.0,0.0,-0.0040061199264167235,-0.8389361864665552,-0.38192715676327565,-0.4405426921956786,-0.01086068736986639,-0.013374210283431786,-0.017578753381637884
2626,0.0,299.48769,5438.6196,-0.026260001663654053,0.0,0.0,0.0,0.0,-0.004007647544302412,-0.8221498848423762,-0.36131807529431764,-0.46973660606439355,-0.011917115096377688,0.002992584217120067,-0.014237423374874285
2627,0.0,300.26341,5468.6508,-0.026270011338351607,0.0,0.0,0.0,0.0,-0.0040091751621881555,-0.8259576989831782,-0.3625691655902907,-0.4738064264160536,-0.013460116666660088,0.017519131719253685,-0.001283982522044209
2628,0.0,300.54758,5512.4878,-0.02627998797781894,0.0,0.0,0.0,0.0,-0.004010697738430685,-0.8063006977056832,-0.36433789496485064,-0.5050200415765975,-0.010073215635323981,0.018029984048670882,-0.007903294949919482
2629,0.0,300.05328,5571.7242,-0.026289997652516384,0.0,0.0,0.0,0.0,-0.004012225356316401,-0.8302621171304911,-0.36357230345429264,-0.4998306001294396,-0.009813338262926082,-0.0012556975441776988,-0.019012660340153482
2630,0.0,300.32392000000004,5556.8674,-0.026300007327213937,0.0,0.0,0.0,0.0,-0.004013752974202145,-0.8284925264933463,-0.38078308594286464,-0.4798733221848095,0.006597773365199533,0.0008316346859809533,-0.028918924884325674
2631,0.0,300.29449,5517.4387,-0.026309983966681272,0.0,0.0,0.0,0.0,-0.004015275550444675,-0.8645256049595341,-0.3692801945801177,-0.44335778468350656,0.011297923026518188,0.004919157388283035,-0.022568569360344376
2632,0.0,299.87014,5629.7211,-0.026319993641378825,0.0,0.0,0.0,0.0,-0.004016803168330418,-0.8631555793668232,-0.3759404597399347,-0.47219861128987456,0.012995129103019388,0.0001165370452088109,0.002091883202452798
2633,0.0,300.14207000000005,5583.1306,-0.026330003316076156,0.0,0.0,0.0,0.0,-0.004018330786216107,-0.8601290925106322,-0.37129108059607663,-0.46571212865470857,-0.0031714523453479767,-0.01962466542705368,-0.008110286645272972
2634,0.0,299.97101000000004,5472.5887,-0.02634001299077393,0.0,0.0,0.0,0.0,-0.004019858404101878,-0.8014353037730062,-0.37268882871152365,-0.48940618177562956,0.0014091393770462287,-0.005811399993765525,-0.008026870324165422
2635,0.0,299.95024,5476.7105,-0.026349989630241155,0.0,0.0,0.0,0.0,-0.00402138098034438,-0.8019243286687692,-0.3733366096329547,-0.4895222799720876,0.0038553249313659464,0.00034200016829528864,-0.017834663879894283
2636,0.0,300.11886,5514.3972,-0.026359999304938708,0.0,0.0,0.0,0.0,-0.004022908598230124,-0.8306038255942152,-0.36139433249684366,-0.4842409063433565,-0.006751644816110463,0.0007270803364547424,-0.006720976167383704
2637,0.0,299.7411,5468.6315,-0.02637000897963626,0.0,0.0,0.0,0.0,-0.0040244362161158675,-0.8416124130281782,-0.3643462340131736,-0.4563687772300916,-0.022790344475981876,-0.016147750397908882,-0.024421258664690575
2638,0.0,300.02566,5493.969,-0.026379985619103707,0.0,0.0,0.0,0.0,-0.004025958792358397,-0.8444131680270911,-0.37063619679144466,-0.4549800267755325,-0.009266264876884141,0.0005132746760337665,-0.011599103512742388
2639,0.0,299.88642000000004,5540.1659,-0.02638999529380104,0.0,0.0,0.0,0.0,-0.0040274864102440855,-0.8415699679814891,-0.3688291969606077,-0.4736729205828776,0.0018003566592063682,0.013711543533223985,-0.013525893823401788
2640,0.0,300.13062,5542.2645,-0.02640000496849837,0.0,0.0,0.0,0.0,-0.0040290140281298015,-0.8265994308015122,-0.35744244432432265,-0.5006681222645966,0.0006228639159693823,0.007039766737695884,-0.008874896620459101
2641,0.0,300.44638,5653.9397,-0.026410014643196145,0.0,0.0,0.0,0.0,-0.004030541646015573,-0.8367317899464982,-0.38031249206642065,-0.5016122180452716,-0.0055254906050984645,-0.0008222794592651641,-0.030041874506402173
2642,0.0,300.28963999999996,5674.8581,-0.02641999128266337,0.0,0.0,0.0,0.0,-0.004032064222258075,-0.8682989179344311,-0.3787809645402706,-0.4779352787185396,-0.004841627543631435,0.002015222017111928,-0.022948807672370976
2643,0.0,300.27653,5514.2468,-0.026430000957360922,0.0,0.0,0.0,0.0,-0.004033591840143819,-0.8475022838719632,-0.37563127660442064,-0.45305978611351955,0.011869809488958988,0.004669180786587265,-0.013444843947902787
2644,0.0,300.15348,5454.6036,-0.026440010632058475,0.0,0.0,0.0,0.0,-0.004035119458029562,-0.8535873776125151,-0.35557872275288765,-0.4488971925827036,0.01019239218691079,-0.00035667183722576964,0.0038352431249840265
2645,0.0,299.43383,5608.9301,-0.02644998727152581,0.0,0.0,0.0,0.0,-0.004036642034272092,-0.8520932795450591,-0.3675112524230366,-0.48537016344730555,3.371300019546407e-05,-0.006995126180690202,0.008367491469207112
2646,0.0,299.93932,5624.8575,-0.026459996946223252,0.0,0.0,0.0,0.0,-0.00403816965215778,-0.8185635266434302,-0.3863982140220346,-0.5048545069077606,-0.0016886816034098985,-0.004044739777234736,-0.010450469013880989
2647,0.0,299.51767,5479.6727,-0.026470006620920694,0.0,0.0,0.0,0.0,-0.004039697270043524,-0.8067330717883553,-0.37077644073778565,-0.4881741709790396,0.0014909083561411988,0.005236225534750225,-0.007510372165191024
2648,0.0,299.46507,5578.5049,-0.026480016295618247,0.0,0.0,0.0,0.0,-0.004041224887929268,-0.8509889686585722,-0.3654066306403267,-0.4793305950337466,-0.0025554286072261676,-0.0051944628106785655,-0.017543652371673685
2649,0.0,300.13383,5701.7724,-0.026489992935085693,0.0,0.0,0.0,0.0,-0.0040427474641717975,-0.8655585526414782,-0.3814646182251267,-0.4861732756090665,-0.01027864510167329,-0.0007583713031279203,-0.018472398426583783
2650,0.0,299.86757,5592.0766,-0.026500002609783024,0.0,0.0,0.0,0.0,-0.0040442750820575135,-0.8650944840956781,-0.37046827085237166,-0.46428890743174756,0.0007418801207278673,0.006426629647783964,-0.02183195984239668
2651,0.0,299.8542,5498.2627,-0.026510012284480577,0.0,0.0,0.0,0.0,-0.004045802699943257,-0.8291142162247022,-0.37008028725658065,-0.47214007583159756,0.0015751186600271084,0.013225417545997088,-0.014533759512370386
2652,0.0,300.24813,5533.7649,-0.026519988923948024,0.0,0.0,0.0,0.0,-0.004047325276185787,-0.8300545427150051,-0.36092117509764665,-0.4911506438102945,0.007165993888778533,0.0051493537268266455,-0.007266067940205072
2653,0.0,300.0927,5598.6447,-0.026529998598645355,0.0,0.0,0.0,0.0,-0.004048852894071475,-0.8367785717036152,-0.3898515426153516,-0.47521807632287255,-0.0060567407736037745,0.005235657000119115,-0.014454553752053385
2654,0.0,300.29677999999996,5613.1039,-0.026540008273342908,0.0,0.0,0.0,0.0,-0.004050380511957219,-0.8656109376716482,-0.37843081570321363,-0.46220168315325455,0.009344088564064741,0.014284631710283387,-0.02182149702186408
2655,0.0,299.9474,5571.0181,-0.026549984912810354,0.0,0.0,0.0,0.0,-0.004051903088199749,-0.8496613982450512,-0.3777802078140036,-0.46600879815148755,0.004537125015629376,0.003762210996201317,-0.016015027807060184
2656,0.0,299.63457,5428.0991,-0.026559994587507907,0.0,0.0,0.0,0.0,-0.004053430706085492,-0.8449622786537843,-0.35414244073613765,-0.4509018572430486,-0.0048491106995949655,-0.015763891743274985,0.008302593002952132
2657,0.0,300.36307,5538.7766,-0.026570004262205238,0.0,0.0,0.0,0.0,-0.004054958323971208,-0.8237504957603442,-0.36953737772049966,-0.49036190966745247,-0.015796328918726284,-0.011935517744693888,-0.01157061193318049
2658,0.0,299.62834,5692.0233,-0.02658001393690279,0.0,0.0,0.0,0.0,-0.004056485941856952,-0.8338394472710462,-0.3830650467580766,-0.5133284593490746,0.00011786151507702591,0.014148159080814586,-0.012667180575653388
2659,0.0,299.30553,5609.581999999999,-0.026589990576370237,0.0,0.0,0.0,0.0,-0.004058008518099482,-0.8263628571681642,-0.38232345914238763,-0.49648654042690654,0.0005982670367443595,0.012883438544496386,-0.018923713193375085
2660,0.0,299.64259,5533.5337,-0.02660000025106768,0.0,0.0,0.0,0.0,-0.004059536135985198,-0.8576818604716092,-0.36296431286428865,-0.46140988899511054,-0.0026780168732246875,0.003395571716416837,-0.017093284993725883
2661,0.0,299.42523,5591.5507,-0.02661000992576512,0.0,0.0,0.0,0.0,-0.004061063753870914,-0.8645487374593172,-0.36818134511166967,-0.46696170920803254,-0.007568637794966393,0.008509789476150833,-0.02205369341478008
2662,0.0,300.11582999999996,5703.923000000001,-0.02661998656523268,0.0,0.0,0.0,0.0,-0.004062586330113471,-0.8862531422863752,-0.37897539710195965,-0.4686216357868545,0.016203934102703783,0.01993647895982728,-0.005229901942201135
2663,0.0,300.76071,5536.8917,-0.02662999623993001,0.0,0.0,0.0,0.0,-0.004064113947999187,-0.8339432750087932,-0.3635565676802397,-0.48557697792521654,0.002866891048840117,0.005603200605617844,-0.006144619346826714
2664,0.0,300.33463,5505.1951,-0.02664000591462745,0.0,0.0,0.0,0.0,-0.004065641565884903,-0.8206910580109011,-0.3679057816144736,-0.48484499592047553,0.013033331671539685,-0.013640934186755388,-0.0074339295378967225
2665,0.0,300.67425,5600.3949,-0.026650015589324894,0.0,0.0,0.0,0.0,-0.004067169183770647,-0.8477383508802612,-0.38108678739533763,-0.4735550491987445,-0.006612063028709813,-0.03115782358353777,-0.017221915067420684
2666,0.0,299.92869,5574.5272,-0.02665999222879234,0.0,0.0,0.0,0.0,-0.004068691760013177,-0.8488998698673942,-0.3828326983776456,-0.46278451474327553,0.011783282996669489,-0.006760008790385924,-0.02802419059552227
2667,0.0,299.27639,5636.2821,-0.026670001903489893,0.0,0.0,0.0,0.0,-0.004070219377898893,-0.8495445705085212,-0.39111984803052363,-0.4726246018969166,-0.0014873979511697485,0.005095960310157125,-0.025357302146820873
2668,0.0,299.54417,5625.2166,-0.026680011578187224,0.0,0.0,0.0,0.0,-0.004071746995784609,-0.8520782125160722,-0.36848171297131366,-0.48936546938661146,0.011994995525563889,-0.011975333407373388,0.001967142691916868
2669,0.0,299.55163,5457.3472,-0.026689988217654892,0.0,0.0,0.0,0.0,-0.004073269572027166,-0.8194165413726162,-0.3552759636230077,-0.48420475357978854,-0.011640104678038887,-0.013259030091564386,-0.021752734830327778
2670,0.0,299.36611,5611.6202,-0.026699997892352223,0.0,0.0,0.0,0.0,-0.004074797189912882,-0.8350655305545512,-0.37166593247057167,-0.49906094548598057,0.01164147965842459,0.01160741925631309,-0.003734703079836496
2671,0.0,299.77887000000004,5663.022,-0.026710007567049776,0.0,0.0,0.0,0.0,-0.004076324807798626,-0.8596029421312052,-0.3660798948017726,-0.4957344454076805,-0.004035699357192516,0.016474931894949186,-0.009646908792925771
2672,0.0,299.82415,5522.1127,-0.026719984206517222,0.0,0.0,0.0,0.0,-0.0040778473840411555,-0.8595665056576092,-0.35515241803831465,-0.4638654600824566,-0.016736716204035284,-0.004133778724472196,-0.0015589770793090585
2673,0.0,300.4879,5624.9919,-0.026729993881214775,0.0,0.0,0.0,0.0,-0.004079375001926899,-0.8662649095511902,-0.37515540369495565,-0.4684367581736085,-0.017832251331406184,-0.01073061848102959,-0.025216622502936874
2674,0.0,299.95518,5669.8137,-0.026740003555912106,0.0,0.0,0.0,0.0,-0.0040809026198125875,-0.8588877902106251,-0.38224746538488763,-0.48234654408889754,0.001724350540055148,0.009264455617505581,-0.008995502259986951
2675,0.0,299.47191000000004,5532.6218,-0.026750013230609437,0.0,0.0,0.0,0.0,-0.0040824302376983035,-0.8044994227379112,-0.38104626752383863,-0.49623318737190253,0.001886726705680428,-0.002095249320610008,-0.013016729568651186
2676,0.0,300.11933,5577.6877,-0.026759989870076994,0.0,0.0,0.0,0.0,-0.004083952813940861,-0.8283103846553702,-0.37623709883921064,-0.49093029231104757,-0.0017822705502214082,-0.02013806506722228,-0.006506575587299013
2677,0.0,299.44015,5692.9634,-0.026769999544774437,0.0,0.0,0.0,0.0,-0.004085480431826577,-0.8615136683747793,-0.3917309391658336,-0.4772741127632876,0.0014224688847617485,-0.023476787981478578,-0.015007166171091985
2678,0.0,299.36572,5708.0367,-0.02678000921947199,0.0,0.0,0.0,0.0,-0.004087008049712321,-0.8830521534979622,-0.3744272821730956,-0.4776212117175435,0.02201714751017328,0.006015208969229905,-0.013597864978004788
2679,0.0,299.84977000000003,5633.0448,-0.026789985858939325,0.0,0.0,0.0,0.0,-0.00408853062595485,-0.8583135813789552,-0.37065464807576565,-0.4833367326166215,-0.0013544796004017288,0.0063097920827279936,0.006138615941309224
2680,0.0,299.66184,5641.3735,-0.026799995533636878,0.0,0.0,0.0,0.0,-0.004090058243840594,-0.8484280499583292,-0.36441783026523966,-0.5019907885476335,-0.003236217163914767,-0.003969514975235626,0.005966158849114034
2681,0.0,299.92679,5806.088000000001,-0.02681000520833421,0.0,0.0,0.0,0.0,-0.004091585861726282,-0.8474540329022011,-0.37557984402934463,-0.5418718970510925,-0.0095485063001892,0.010745295408728091,0.007192855047604523
2682,0.0,299.45113,5730.844,-0.026820014883031762,0.0,0.0,0.0,0.0,-0.004093113479612026,-0.8650653936853072,-0.3884572091527416,-0.48851088411977056,-0.008006612212266102,0.018256674440543484,-0.023728197622790773
2683,0.0,299.54665,5574.1577,-0.026829991522499208,0.0,0.0,0.0,0.0,-0.004094636055854556,-0.8715862558963661,-0.35888045899874366,-0.4639380493196205,0.0015958619160743085,0.008757967254944071,-0.015210579168417287
2684,0.0,300.34292,5567.1966,-0.02684000119719676,0.0,0.0,0.0,0.0,-0.0040961636737402995,-0.8718085731008072,-0.3744301598033796,-0.4460500205967095,-0.017073955221568186,-0.009954316410289541,-0.03138214297017637
2685,0.0,299.8895,5509.1494,-0.026850010871894092,0.0,0.0,0.0,0.0,-0.0040976912916260155,-0.8621658873316481,-0.36665445827097765,-0.4458234984043536,0.0035045319712203767,0.000986999677671784,-0.011392279915580488
2686,0.0,299.69975,5547.8425,-0.02685998751136176,0.0,0.0,0.0,0.0,-0.004099213867868573,-0.8358761103695492,-0.36847466075061763,-0.4820548192526065,0.003643104358871406,0.004971450820643995,-0.02105217067143748
2687,0.0,300.20176000000004,5617.2919999999995,-0.02686999718605909,0.0,0.0,0.0,0.0,-0.004100741485754289,-0.8152039135518623,-0.37345818951245363,-0.5188544112869435,0.004695339763093956,0.009003951245945802,0.016445671258561383
2688,0.0,300.0711,5553.0235,-0.026880006860756422,0.0,0.0,0.0,0.0,-0.004102269103639977,-0.8387421288074033,-0.36690071857528167,-0.48233762748801756,-0.012595196248799088,-0.02022088002439548,-0.00878629782906508
2689,0.0,300.52297000000004,5702.9821,-0.02688998350022398,0.0,0.0,0.0,0.0,-0.0041037916798825624,-0.8653808083089363,-0.37722770279947565,-0.4909556438285495,-0.0051734805289327754,-0.018000786233789284,-0.00919208655958831
2690,0.0,299.86528,5848.1643,-0.02689999317492142,0.0,0.0,0.0,0.0,-0.004105319297768251,-0.9114179887224522,-0.39153513871650963,-0.47474280123096657,0.003479067982957277,-0.005901922339149384,-0.025864172403345077
2691,0.0,299.49372,5676.1549,-0.026910002849618975,0.0,0.0,0.0,0.0,-0.004106846915653994,-0.8758134846510612,-0.3642972433708387,-0.48529862799024553,0.0013107364790096187,-0.0013699782739313286,-0.005230960079280565
2692,0.0,299.56057999999996,5482.4689,-0.026920012524316306,0.0,0.0,0.0,0.0,-0.00410837453353971,-0.8365853955720501,-0.3573981247649487,-0.47255012801456653,-0.006440824572409894,-0.004345328018775486,-0.015199560073579785
2693,0.0,299.90211,5604.0096,-0.026929989163783863,0.0,0.0,0.0,0.0,-0.004109897109782268,-0.8153563468969063,-0.38386855408737663,-0.5042540751635025,-0.009719534608418382,0.003459481959849287,-0.015347650628695184
2694,0.0,300.01355,5716.8937,-0.026939998838481194,0.0,0.0,0.0,0.0,-0.004111424727667984,-0.8682536965824682,-0.3777909786625666,-0.49174823845427257,0.003483513313795997,0.019909295486144483,-0.008938489919260273
2695,0.0,300.15186,5667.1939,-0.026950008513178747,0.0,0.0,0.0,0.0,-0.0041129523455537,-0.8646683718986241,-0.38622497865243766,-0.47179207508475257,0.0004359443099293536,0.018128420282635782,-0.02556486339005558
2696,0.0,299.69171,5632.1786,-0.026959985152646193,0.0,0.0,0.0,0.0,-0.004114474921796257,-0.8728469214057841,-0.3705620775466297,-0.46863263968294055,-0.004302402286239046,0.0024717503609677674,-0.01918434138409708
2697,0.0,300.22822,5703.4484,-0.026969994827343746,0.0,0.0,0.0,0.0,-0.004116002539681973,-0.8643302604727553,-0.37743541906997563,-0.49194021895071954,-0.0039702235410305564,-0.005416309056473084,-0.011720054163929289
2698,0.0,300.4322,5715.1476,-0.026980004502041077,0.0,0.0,0.0,0.0,-0.004117530157567689,-0.8402885308450213,-0.38740790761418364,-0.5095657044402195,0.015230460148629386,-0.004733342417369526,-0.008726653672528662
2699,0.0,301.23648,5686.3876,-0.02699001417673841,0.0,0.0,0.0,0.0,-0.004119057775453405,-0.8343984472187153,-0.36994560605328863,-0.5241757778971214,0.014968501560526086,-0.008570968199963702,0.014479826236047587
2700,0.0,300.82337,5684.2608,-0.026999990816206076,0.0,0.0,0.0,0.0,-0.004120580351695963,-0.8470454094018732,-0.38599698724743664,-0.4948309606910135,0.005841561308167214,-0.02057840937518088,-0.0028357352294652778
2701,0.0,300.12825,5710.9658,-0.027010000490903407,0.0,0.0,0.0,0.0,-0.004122107969581679,-0.8740647669659762,-0.3934469187401876,-0.46847932481030957,0.00022559740912223076,-0.005404331933666035,-0.01058244382615589
2702,0.0,299.98316,5758.1299,-0.02702001016560096,0.0,0.0,0.0,0.0,-0.004123635587467395,-0.9030038686995432,-0.3783124072965276,-0.4690114432328255,-0.002661585300328018,0.012542926729140489,-0.024308273172539776
2703,0.0,300.17958,5761.2129,-0.027029986805068407,0.0,0.0,0.0,0.0,-0.004125158163709952,-0.897015783523565,-0.37095713362811866,-0.4832919368297005,0.0008345490871110821,0.00931586276000407,-0.0028685240027012775
2704,0.0,300.08907999999997,5731.4738,-0.02703999647976596,0.0,0.0,0.0,0.0,-0.004126685781595668,-0.8495053577296513,-0.3826836391554347,-0.5100359335466276,-0.008643192667091702,0.0003072396610271937,-0.024199528132057477
2705,0.0,300.3116,5704.5915,-0.02705000615446329,0.0,0.0,0.0,0.0,-0.004128213399481384,-0.8425579374914941,-0.38076562764364164,-0.5107297970826065,-0.015010769288447587,-0.0026432212568406276,-0.011775666395667789
2706,0.0,300.28958,5741.2961,-0.027060015829160844,0.0,0.0,0.0,0.0,-0.004129741017367128,-0.8664603553629793,-0.38040881162092666,-0.49834147711997456,0.0033287272020197964,0.012817368558475787,-0.017199595194217883
2707,0.0,300.07614,5684.1697,-0.02706999246862818,0.0,0.0,0.0,0.0,-0.0041312635936096576,-0.8767289459839103,-0.36758855327316564,-0.4835281659580145,-0.0026897244715051376,-0.00025735926351438173,-0.003470818404618107
2708,0.0,299.79321,5527.6453,-0.027080002143325732,0.0,0.0,0.0,0.0,-0.004132791211495401,-0.8586378822059612,-0.37297777724254066,-0.44865049658085654,0.00036513672107868863,-0.003648928723096226,-0.013974872035462485
2709,0.0,299.32595,5610.0956,-0.027090011818023174,0.0,0.0,0.0,0.0,-0.0041343188293810895,-0.8458232372637542,-0.38234067426158663,-0.4771650667875255,-0.004422734956189956,-0.012290348810462988,-0.019368519854774082
2710,0.0,299.24509,5713.5356,-0.02709998845749051,0.0,0.0,0.0,0.0,-0.004135841405623647,-0.8459407236128492,-0.37480648089051966,-0.5160249610451986,0.003101529577147137,0.005972114935851854,-0.00954109913798317
2711,0.0,299.2409,5715.4751,-0.027109998132188062,0.0,0.0,0.0,0.0,-0.004137369023509363,-0.8464831670538842,-0.3914135588370106,-0.49946498909585646,0.00957184499636755,-0.011884723517180888,-0.01050880891488869
2712,0.0,299.63667000000004,5788.9652,-0.027120007806885393,0.0,0.0,0.0,0.0,-0.004138896641395079,-0.8770173574923741,-0.3797000735734796,-0.5029834291405996,-0.0009677997129843951,-0.006423737528023534,-0.004051320228684176
2713,0.0,300.42146,5796.0494,-0.02712998444635284,0.0,0.0,0.0,0.0,-0.004140419217637609,-0.8916281807543502,-0.38842243440930957,-0.48180366495031957,-0.001032324837107529,0.004677391760097626,-0.02856122733402368
2714,0.0,300.2674,5650.5297,-0.027139994121050393,0.0,0.0,0.0,0.0,-0.004141946835523352,-0.8842892204125511,-0.37436750041719563,-0.45896321424364256,0.007498082860028164,0.01167584302231599,-0.015376370189529585
2715,0.0,300.84434,5709.1928,-0.027150003795747946,0.0,0.0,0.0,0.0,-0.004143474453409096,-0.8663959633191242,-0.3673734200119337,-0.5016826794572256,0.017253657153303383,0.007019968641341963,-0.012191349209442488
2716,0.0,300.09441,5709.2354,-0.027160013470445277,0.0,0.0,0.0,0.0,-0.004145002071294784,-0.8455884874805861,-0.38276524631848863,-0.5071112580604845,-0.004785423371184516,0.0018287296885065682,-0.026216601053127075
2717,0.0,300.02924,5650.1115,-0.027169990109912723,0.0,0.0,0.0,0.0,-0.004146524647537314,-0.8424960887053902,-0.3750077022278786,-0.49998900151757253,0.007148568925483823,0.001003409911521348,-0.007542591390545813
2718,0.0,300.17527,5742.7909,-0.027179999784610276,0.0,0.0,0.0,0.0,-0.004148052265423058,-0.8592136311777832,-0.3887665138782676,-0.49768490118767555,-0.017032999652526182,0.018511176521160883,-0.02207011617240088
2719,0.0,299.55542,5801.5821,-0.02719000945930783,0.0,0.0,0.0,0.0,-0.0041495798833088016,-0.8844832679392022,-0.3883466635668316,-0.4907061411239255,-0.004263982983522356,0.0016521356988030986,0.015857789630041984
2720,0.0,299.61302,5799.6094,-0.027199986098775053,0.0,0.0,0.0,0.0,-0.0041511024595513035,-0.8812220616973463,-0.3813610843299086,-0.5003532851935245,-0.020906361955547282,-0.008261718088618093,-0.013701683596500886
2721,0.0,300.08915,5814.96,-0.027209995773472606,0.0,0.0,0.0,0.0,-0.004152630077437047,-0.8517385001550453,-0.40064089312517764,-0.5152232370360745,-0.0025520348273412275,-0.011313079221513988,-0.01186130426761959
2722,0.0,299.8429,5810.9837,-0.02722000544817016,0.0,0.0,0.0,0.0,-0.004154157695322791,-0.8620862256087861,-0.38448233033545165,-0.5198253784602705,0.0025951504429464075,0.003085278464093277,-0.015446949138495186
2723,0.0,300.09395,5717.5128,-0.02723001512286749,0.0,0.0,0.0,0.0,-0.004155685313208479,-0.8711122372345842,-0.36646942867021665,-0.5003994691330825,0.015016481992511384,-0.00972795603397451,-0.0015418551791192587
2724,0.0,300.43016,5588.7480000000005,-0.027239991762334936,0.0,0.0,0.0,0.0,-0.004157207889451009,-0.8764803856018791,-0.35289682199070466,-0.46946264350235556,0.005178306132534026,0.0006328232727922944,-0.016640483789037885
2725,0.0,299.8861,5605.1621,-0.02725000143703249,0.0,0.0,0.0,0.0,-0.004158735507336753,-0.8808774857358392,-0.3559922402511987,-0.4669596016478246,-0.0023681819139213574,0.005277655507489045,-0.02256682657017238
2726,0.0,300.12177,5701.4561,-0.02726001111172993,0.0,0.0,0.0,0.0,-0.004160263125222496,-0.8779407728385081,-0.37413797900454365,-0.48102153719812957,-0.0012720939572958988,0.013246222610300387,-0.012747714706851487
2727,0.0,300.32009,5717.2556,-0.027269987751197156,0.0,0.0,0.0,0.0,-0.004161785701464998,-0.8384484990609242,-0.38907925352163264,-0.5103751899451094,-0.00954800838909006,-0.007586492477628513,-0.02016463755109478
2728,0.0,299.63432,5760.5684,-0.02727999742589471,0.0,0.0,0.0,0.0,-0.004163313319350742,-0.8551209417713661,-0.38175235085602366,-0.5141956595796605,-0.0067595938644699725,-0.0015158012766479387,-0.0053342070220702455
2729,0.0,300.19805,5941.3336,-0.027290007100592262,0.0,0.0,0.0,0.0,-0.004164840937236486,-0.8800543010895973,-0.4146623088039836,-0.5113004392739245,0.001287908663531689,-0.00961665962974041,-0.022025170424465078
2730,0.0,300.0,5872.6414,-0.027299983740059708,0.0,0.0,0.0,0.0,-0.004166363513479016,-0.8941805374912483,-0.3979888731084436,-0.49296694527704954,-0.0018555998652584483,0.0064259306065399735,1.7336215758201285e-05
2731,0.0,299.87255,5775.6595,-0.02730999341475704,0.0,0.0,0.0,0.0,-0.004167891131364704,-0.8901443671754091,-0.38451272783845164,-0.4809991849009236,0.002118090308339238,-0.008128712598341472,-0.0004831861535192605
2732,0.0,299.56404,5751.340999999999,-0.027320003089454814,0.0,0.0,0.0,0.0,-0.004169418749250475,-0.8691540604888272,-0.38158484034949164,-0.49752513191190756,0.007831511651885023,0.005781384992678274,-0.008712583884290082
2733,0.0,299.16512,5653.9964,-0.027330012764152145,0.0,0.0,0.0,0.0,-0.004170946367136191,-0.8348565882514302,-0.3731550554800367,-0.5106620714459226,0.009575211722474821,-0.0002726422363626937,-0.026441545615077375
2734,0.0,299.16087999999996,5731.2926,-0.02733998940361959,0.0,0.0,0.0,0.0,-0.004172468943378721,-0.8618915701320752,-0.3895617733517536,-0.4907165066724485,0.009090481487260672,-0.003807052278051807,-0.034146511144748266
2735,0.0,300.00507999999996,5781.5443,-0.027349999078317144,0.0,0.0,0.0,0.0,-0.004173996561264465,-0.902031736288601,-0.3664898152622287,-0.4889235606204985,0.0025655520903002777,-0.015558943672048187,-0.015800505535638484
2736,0.0,300.03615,5687.3467,-0.027360008753014475,0.0,0.0,0.0,0.0,-0.004175524179150181,-0.886195559283192,-0.3751813834275196,-0.46743442077718556,-0.005411682860491515,-0.003536118928512767,-0.03524328649024157
2737,0.0,300.31281,5665.361999999999,-0.02736998539248192,0.0,0.0,0.0,0.0,-0.00417704675539271,-0.8831976055498171,-0.37220386694866164,-0.4667271215448805,-0.005180523630377875,-0.0036320101822014963,-0.020663679437346382
2738,0.0,299.87586,5852.7005,-0.027379995067179252,0.0,0.0,0.0,0.0,-0.004178574373278399,-0.8663614824182212,-0.3901581824931146,-0.5225551248921755,-0.008115517548914222,0.011919541830367189,-0.013572407069242287
2739,0.0,300.03087,5929.1302,-0.027390004741876917,0.0,0.0,0.0,0.0,-0.00418010199116417,-0.8639556619107852,-0.3970362052319226,-0.5413156632761965,-0.023230940069965275,-0.012572452837054488,0.008441974268157992
2740,0.0,300.29331,5791.2629,-0.02740001441657436,0.0,0.0,0.0,0.0,-0.004181629609049886,-0.8707573159895562,-0.37769660454825266,-0.5119454134925785,-0.008022516287160712,-0.002819609556773797,0.002350816935032568
2741,0.0,299.67949,5789.6711,-0.027409991056041694,0.0,0.0,0.0,0.0,-0.004183152185292416,-0.8785711359907201,-0.3949546044914846,-0.48638971596292757,-0.0017421105851579285,-0.005466122761864314,-0.0026303633157216478
2742,0.0,299.75451,5779.0143,-0.027420000730739247,0.0,0.0,0.0,0.0,-0.00418467980317816,-0.9076436928949582,-0.3776764206062606,-0.4713559215792075,0.01871040986182368,0.012909569251325288,-0.004359476536546836
2743,0.0,299.62915,5780.9999,-0.0274300104054368,0.0,0.0,0.0,0.0,-0.004186207421063903,-0.8936613278750062,-0.3771341190202397,-0.48648416100474856,0.0037359320508827862,-0.014565717420524383,-0.016933326240189183
2744,0.0,299.17872,5823.2742,-0.027439987044904024,0.0,0.0,0.0,0.0,-0.004187729997306405,-0.8642412565839711,-0.38893072118947364,-0.5169579617372785,0.01282530534650909,-0.008078183031754593,-0.02158391216491628
2745,0.0,299.55253,5805.9051,-0.027449996719601577,0.0,0.0,0.0,0.0,-0.004189257615192121,-0.8489384544312022,-0.3953857322765336,-0.5205260003744165,0.01767621790875688,0.004288517720118746,-0.037267294094995566
2746,0.0,299.63712000000004,5665.9968,-0.02746000639429913,0.0,0.0,0.0,0.0,-0.004190785233077865,-0.8570838909250942,-0.37205857701682266,-0.49317907931798555,0.008563665301192961,0.00980144412530222,-0.016586499850210084
2747,0.0,299.9041,5670.111,-0.02747001606899646,0.0,0.0,0.0,0.0,-0.004192312850963581,-0.8676262110605402,-0.38105975388266966,-0.4748861761201166,-0.0024151762509093374,-0.010126473985755172,-0.03162684692232677
2748,0.0,299.99169,5812.8273,-0.027479992708463907,0.0,0.0,0.0,0.0,-0.004193835427206111,-0.8966444678919191,-0.38694407211590665,-0.48336581289449154,-0.008589871191179281,0.005277985016421565,-0.020659574761191284
2749,0.0,300.14328,5836.1792,-0.02749000238316146,0.0,0.0,0.0,0.0,-0.004195363045091854,-0.8837122859381121,-0.3915393133069216,-0.4988011481603405,-0.002348332749762398,-0.001070178442293389,-0.02186309499146948
2750,0.0,300.08422,5877.39,-0.027500012057859013,0.0,0.0,0.0,0.0,-0.004196890662977598,-0.8440434938606072,-0.4217131514798476,-0.5208231562312434,-0.005317283212274995,-0.0019672198002494783,-0.016726792432555884
2751,0.0,299.99457,5899.3827,-0.027509988697326238,0.0,0.0,0.0,0.0,-0.0041984132392201,-0.8693859326417113,-0.38325715897703666,-0.5406219415952315,0.001010997128270148,-0.014647463398842087,0.01057218365564329
2752,0.0,299.51493,5934.4757,-0.02751999837202379,0.0,0.0,0.0,0.0,-0.004199940857105816,-0.8954111905327042,-0.4015069990456556,-0.5070142596284115,0.0071175759354000535,-0.0002126623394056388,-0.005275116302738445
2753,0.0,300.27665,5920.696,-0.027530008046721344,0.0,0.0,0.0,0.0,-0.00420146847499156,-0.9050977905611972,-0.3956561788607246,-0.4989897747989565,0.01972299628300818,0.007358997666501524,-0.005636835442687344
2754,0.0,300.19012000000004,5862.5464,-0.02753998468618868,0.0,0.0,0.0,0.0,-0.0042029910512340896,-0.9206981741358351,-0.38535043235862665,-0.47601911132192853,0.016520205935917385,0.013963356448075987,-0.005543151959641505
2755,0.0,300.43567,5785.5141,-0.02754999436088612,0.0,0.0,0.0,0.0,-0.0042045186691198055,-0.879731449210234,-0.3880372169862916,-0.4908831559163956,-0.004017600278606277,-0.01098804176168529,-0.008974897616553432
2756,0.0,300.4234,5640.6317,-0.027560004035583674,0.0,0.0,0.0,0.0,-0.004206046287005549,-0.8451066059980282,-0.36318840325640467,-0.5063161607070146,-0.015253914861944187,0.002063489198875528,-0.023492812531810077
2757,0.0,299.83091,5775.4152,-0.027570013710281227,0.0,0.0,0.0,0.0,-0.004207573904891293,-0.8637839261513363,-0.3811650508330616,-0.5106330418305576,-0.016556402269239684,0.007177824799596154,-0.03098338649932217
2758,0.0,300.4005,5852.5089,-0.027579990349748562,0.0,0.0,0.0,0.0,-0.004209096481133823,-0.8901335963268461,-0.3743971785126246,-0.5144857936132945,-0.010542226916436791,0.008974269300166423,-0.007495249002148483
2759,0.0,300.10319,5795.9374,-0.027590000024445893,0.0,0.0,0.0,0.0,-0.004210624099019511,-0.8850776100503591,-0.38406947144970566,-0.4926731736755565,-0.010209627571111792,-0.008409917061494193,-0.013987122229171487
2760,0.0,299.68141,5835.9425,-0.027600009699143446,0.0,0.0,0.0,0.0,-0.004212151716905255,-0.9040749855127541,-0.38394510513243163,-0.48596071600308854,0.008308983976632872,-0.0072686953990393835,0.001026972546104299
2761,0.0,299.92683999999997,6031.6732,-0.027609986338610892,0.0,0.0,0.0,0.0,-0.004213674293147784,-0.8859429053707573,-0.4140054998241616,-0.5335296265927745,0.017039260524894084,0.0016130749074480984,-0.018981589025836982
2762,0.0,299.78322000000003,5962.5844,-0.027619996013308223,0.0,0.0,0.0,0.0,-0.0042152019110335,-0.8752747294403902,-0.4066618987969046,-0.5305401436302355,0.015761247160513987,-0.007079721316964093,0.00020268905039385178
2763,0.0,299.84929,5860.7808,-0.027630005688005776,0.0,0.0,0.0,0.0,-0.004216729528919244,-0.8704784290320321,-0.4040705623286596,-0.5069820281427305,0.006782268476532785,-0.015263133411353986,-0.013852844299419286
2764,0.0,300.28376000000003,5773.7748,-0.02764001536270333,0.0,0.0,0.0,0.0,-0.004218257146804988,-0.8901434552503191,-0.38062916312017364,-0.48431073954024856,0.008783326574471843,0.007541326550445982,-0.009858677962500761
2765,0.0,299.92852,5502.1769,-0.027649992002170776,0.0,0.0,0.0,0.0,-0.004219779723047518,-0.8663837435229181,-0.3658781364418606,-0.4402625082780266,0.0004577170686081575,0.025236077918106975,-0.03368322280152527
2766,0.0,300.65085,5630.7198,-0.027660001676868107,0.0,0.0,0.0,0.0,-0.004221307340933206,-0.8829882883441591,-0.37229435018259166,-0.4563155613348396,-0.00020756870075543584,-0.0015382643220898684,-0.027234993397384572
2767,0.0,300.99703,5973.6567,-0.02767001135156566,0.0,0.0,0.0,0.0,-0.0042228349588189495,-0.8830241168676951,-0.39853195489704163,-0.5342864028274624,-0.011822261714766387,-0.00978600948917894,-0.02865356177588637
2768,0.0,300.2913,5959.9727,-0.027679987991033106,0.0,0.0,0.0,0.0,-0.004224357535061479,-0.8888106665987832,-0.4001173873285116,-0.5227548060893825,0.00018648234809187482,-0.005663611184529904,-0.026927641204801275
2769,0.0,299.9067,5791.8734,-0.02768999766573066,0.0,0.0,0.0,0.0,-0.004225885152947223,-0.8726414849480091,-0.38237999849796767,-0.5055634070752235,0.005725537078966515,0.0033880673835262167,-0.01959682435405598
2770,0.0,300.15499,5886.8796,-0.02770000734042799,0.0,0.0,0.0,0.0,-0.004227412770832939,-0.8964931085919812,-0.38529004265266664,-0.5076812416392374,0.0028637264661277974,0.016016620636217383,-0.0021075169422207283
2771,0.0,300.32381000000004,6034.0545,-0.027709983979895547,0.0,0.0,0.0,0.0,-0.0042289353470754965,-0.9199589068628751,-0.4056245333445246,-0.5086184574517335,-0.01096293545070749,-0.00980213343934525,0.008044118272667662
2772,0.0,300.29607000000004,6021.5307,-0.02771999365459299,0.0,0.0,0.0,0.0,-0.0042304629649612124,-0.9150093827743951,-0.39294064832772263,-0.5224449542088024,-0.0071258004864617535,0.001839849095103968,0.016132091630863484
2773,0.0,300.01337,5814.8704,-0.02773000332929032,0.0,0.0,0.0,0.0,-0.004231990582846901,-0.8545240766674602,-0.4037258039821346,-0.5093255337690166,-0.014390565994988287,0.01144447749448199,-0.016419177808196683
2774,0.0,300.20649,5665.8221,-0.027740013003987873,0.0,0.0,0.0,0.0,-0.004233518200732644,-0.8723623244129581,-0.36403871260782367,-0.48586740580137955,-0.003058997086974507,-0.002870926925313427,-0.0018606803012598482
2775,0.0,300.40709,5815.2609999999995,-0.02774998964345521,0.0,0.0,0.0,0.0,-0.004235040776975174,-0.8908099306360951,-0.3825835401780556,-0.4943006661186775,-0.013985959018056686,-0.012194242038477989,-0.026337051158764578
2776,0.0,300.41126,5975.847,-0.02775999931815276,0.0,0.0,0.0,0.0,-0.004236568394860918,-0.926524473668346,-0.3917855330812216,-0.4981982643508405,0.005708378093823055,-0.004047383549395656,-0.01624666387267088
2777,0.0,300.04568,5978.3488,-0.027770008992850204,0.0,0.0,0.0,0.0,-0.004238096012746634,-0.9182395936956921,-0.3981219736415796,-0.5009071986256916,0.012170111487346489,0.01201251158004259,-0.033165270628657366
2778,0.0,300.18498999999997,5798.7002,-0.02777998563231776,0.0,0.0,0.0,0.0,-0.004239618588989191,-0.8782663908906442,-0.38027285372250863,-0.5041208429078535,0.004262654612641257,0.0037782053516798365,-0.016879042379331785
2779,0.0,299.95808999999997,5806.420999999999,-0.027789995307015092,0.0,0.0,0.0,0.0,-0.004241146206874907,-0.8499863171546183,-0.39290897412959663,-0.5221116861184115,-0.003018387745491677,0.004446729022532986,-0.031428073597209366
2780,0.0,299.75088999999997,6051.7203,-0.027800004981712645,0.0,0.0,0.0,0.0,-0.004242673824760623,-0.9095666490672392,-0.4005998362311256,-0.5294053744457425,-0.015718192137264785,0.01089436476344009,0.004470510711655056
2781,0.0,299.858,5971.3325,-0.027810014656409976,0.0,0.0,0.0,0.0,-0.004244201442646339,-0.8986686173516871,-0.3992951146073596,-0.5171722337359255,-0.014027585358664885,0.005599890520191165,-0.01116168040482209
2782,0.0,299.90884,5742.493,-0.027819991295877644,0.0,0.0,0.0,0.0,-0.004245724018888897,-0.8841211424859632,-0.3833837949745346,-0.47806954448929057,-0.01161574310588459,-0.011852665297266989,0.0029057295331231772
2783,0.0,299.68396,5719.1069,-0.027830000970574975,0.0,0.0,0.0,0.0,-0.004247251636774613,-0.8926750504926682,-0.3685004783631657,-0.4772901829098735,-0.014604144930566885,-0.00892263944529595,0.004295885973520936
2784,0.0,299.54499,6050.9841,-0.027840010645272306,0.0,0.0,0.0,0.0,-0.004248779254660329,-0.8933700286037571,-0.4204565491033306,-0.5255215057524345,0.003502156001060887,-0.01236791310561799,-0.005759515711794944
2785,0.0,299.43952,6039.269,-0.027849987284739974,0.0,0.0,0.0,0.0,-0.004250301830902886,-0.8760701206363892,-0.4171528674172826,-0.5425639772668954,-0.0023748715937315775,0.002034155000530468,-0.025875406307203773
2786,0.0,299.69885,5847.3011,-0.027859996959437305,0.0,0.0,0.0,0.0,-0.004251829448788602,-0.8778743846919562,-0.3922426405988346,-0.5073164918682396,0.013118339301929287,-0.002396800149745758,-0.023297809510314776
2787,0.0,300.16286,5747.659000000001,-0.02787000663413486,0.0,0.0,0.0,0.0,-0.004253357066674318,-0.8810218536100871,-0.3803409846592326,-0.48578198881794954,0.012552295239565088,-0.008616799528486901,-0.03551083011289607
2788,0.0,300.48457,5775.0348,-0.02788001630883219,0.0,0.0,0.0,0.0,-0.004254884684560034,-0.9083533732649982,-0.3655386165983527,-0.48157438671769154,0.0017813830444588182,-0.0076604410911266735,-0.022336955586235878
2789,0.0,300.40828,5981.9282,-0.027889992948299747,0.0,0.0,0.0,0.0,-0.004256407260802592,-0.9166459742034142,-0.4028277908160076,-0.4988830289009215,0.011482321372466887,-0.0017482553390643684,-0.026428335873523678
2790,0.0,300.52792,6070.6829,-0.02790000262299719,0.0,0.0,0.0,0.0,-0.0042579348786883076,-0.9059208232199242,-0.39050242408208863,-0.5489127693459726,-0.008061739401181732,0.0016813668496129884,0.0026674564767074577
2791,0.0,300.17657,5889.3377,-0.02791001229769463,0.0,0.0,0.0,0.0,-0.004259462496574051,-0.8680387862362581,-0.38948177725635863,-0.5326910405450125,-0.009417740801908651,0.014149559392452788,-0.005688957230481365
2792,0.0,299.95192000000003,5787.6327,-0.027919988937162077,0.0,0.0,0.0,0.0,-0.004260985072816581,-0.8722068310526122,-0.39188848942388266,-0.4952004930024836,-0.007806505753992132,0.0033530557422208366,0.007982380133474581
2793,0.0,299.89652,6027.2278,-0.02792999861185963,0.0,0.0,0.0,0.0,-0.004262512690702325,-0.914335480265386,-0.4025514167187316,-0.5152398442052135,-0.015023651750218985,0.013452354157643986,-0.008213484445432804
2794,0.0,299.74576,6109.5643,-0.02794000828655696,0.0,0.0,0.0,0.0,-0.004264040308588013,-0.9452329208647261,-0.4179404261900086,-0.4939816341921915,0.0004632506199217765,-0.01166079423183079,-0.013396369049868687
2795,0.0,299.23977,5840.4801,-0.02794998492602463,0.0,0.0,0.0,0.0,-0.004265562884830598,-0.8922587870865861,-0.39266041374756566,-0.49044092291025054,0.008721458637940951,-0.018798491693016683,-0.02011870185781128
2796,0.0,299.47798,5661.8762,-0.02795999460072196,0.0,0.0,0.0,0.0,-0.004267090502716286,-0.8517575492569253,-0.36860229986571463,-0.5007091487611455,-0.0006822032970082233,-0.003205990089581587,-0.03138486253344477
2797,0.0,299.65452,5818.1188,-0.02797000427541929,0.0,0.0,0.0,0.0,-0.004268618120602002,-0.8604141197637621,-0.3837300630637086,-0.5244186336810895,0.007861491594518811,-0.0067316351531356644,-0.027785538786219175
2798,0.0,299.67829,5865.4858,-0.027980013950116844,0.0,0.0,0.0,0.0,-0.004270145738487746,-0.8841534448991512,-0.37509809426929963,-0.5237096828511214,0.009097853894988272,-0.017886872604546883,-0.020657440856480677
2799,0.0,299.77718,5907.6491,-0.02798999058958429,0.0,0.0,0.0,0.0,-0.004271668314730276,-0.907063039792652,-0.3740696048877956,-0.5146451778540245,0.01039613449051859,0.0008687411712055782,-0.013567002393208885
2800,0.0,299.82959,5957.6354,-0.028000000264281844,0.0,0.0,0.0,0.0,-0.00427319593261602,-0.9333456632090451,-0.3831748425389126,-0.49445187343110053,0.02269142390846918,0.0018251511931283984,-0.02049290525224228
2801,0.0,299.8871,5936.2691,-0.028010009938979175,0.0,0.0,0.0,0.0,-0.004274723550501708,-0.9068973835338031,-0.39491204798728463,-0.5026681563719846,-0.004052060407882226,0.0088773517254514,-0.012229833461490588
2802,0.0,299.9484,6044.1191,-0.02801998657844673,0.0,0.0,0.0,0.0,-0.004276246126744293,-0.8954024664493432,-0.4202852591739256,-0.5215735793878045,-0.003158349704329847,0.0007259658626697523,-0.012874500665364288
2803,0.0,299.44235,6117.9166,-0.028029996253144174,0.0,0.0,0.0,0.0,-0.004277773744629981,-0.9071872642549121,-0.4000947310562756,-0.5524118765788074,-0.01891522823703768,-7.769220075487323e-05,0.0092131610470932
2804,0.0,299.98175,5884.4874,-0.028040005927841727,0.0,0.0,0.0,0.0,-0.004279301362515725,-0.8883344593167851,-0.3949813948241286,-0.5054213899412074,-0.017977132923454882,0.00827978170345083,-0.005035018382892625
2805,0.0,300.28715,5708.4844,-0.028050015602539058,0.0,0.0,0.0,0.0,-0.004280828980401441,-0.8739276438299431,-0.37775350867386864,-0.4835555439757166,-0.015818065159871487,-0.0016111789138609786,-0.02183706459640048
2806,0.0,300.27705,5812.2067,-0.028059992242006615,0.0,0.0,0.0,0.0,-0.0042823515566439985,-0.9186880885874551,-0.37305607107776767,-0.4750215564659775,-0.014639939003599486,-0.012730215877624488,-0.011516624954602388
2807,0.0,300.38358,6000.0358,-0.028070001916703946,0.0,0.0,0.0,0.0,-0.0042838791745297145,-0.903584157031813,-0.4086253748406846,-0.5116515203010735,0.005843254347759305,-0.012502885111688688,-0.03007173093384877
2808,0.0,300.20398,6031.7689,-0.028080011591401388,0.0,0.0,0.0,0.0,-0.004285406792415403,-0.9166844270447091,-0.38371317218454165,-0.5331095432338154,0.01878802988573418,-0.008859758765290111,-0.02136433377549558
2809,0.0,300.27758,5965.2715,-0.028089988230868945,0.0,0.0,0.0,0.0,-0.004286929368657988,-0.8884733657729941,-0.39157319639026567,-0.5332470108748825,0.01886028475036518,-0.0003013401440424567,-0.025077665384222875
2810,0.0,300.44456,5955.0187,-0.028099997905566276,0.0,0.0,0.0,0.0,-0.004288456986543676,-0.8936364221875481,-0.4005608463672776,-0.5159797092957326,-0.0039048279742765163,-0.014127849495810186,-0.0017617145427926883
2811,0.0,300.54717999999997,6003.1275,-0.02811000758026383,0.0,0.0,0.0,0.0,-0.00428998460442942,-0.9107808266620692,-0.37854846417232463,-0.5354715710719296,-0.003286406278468047,0.0022686931157525777,0.007135630127006863
2812,0.0,299.28907999999996,6166.7724,-0.028119984219731275,0.0,0.0,0.0,0.0,-0.00429150718067195,-0.9464926541840522,-0.4173342898476876,-0.5107178812614306,-0.01064828177790359,0.006935147651620784,-0.006003011261876084
2813,0.0,299.65607,6071.4898,-0.02812999389442883,0.0,0.0,0.0,0.0,-0.004293034798557693,-0.9204172809431131,-0.4005079141820536,-0.5246561091070265,-0.005995180358478234,0.01040477346087119,-0.015136830773138887
2814,0.0,299.87588,5760.8851,-0.02814000356912616,0.0,0.0,0.0,0.0,-0.004294562416443409,-0.8753813132184092,-0.39029119183374167,-0.48549272617940153,-0.02102165765792608,0.0002068815348026178,-0.017074874239408882
2815,0.0,300.28943,5703.1242,-0.028150013243823713,0.0,0.0,0.0,0.0,-0.004296090034329125,-0.8713745980829772,-0.38422598819265263,-0.47800676351309457,-0.00856738494231006,-1.7813730132828282e-05,-0.009973863727243711
2816,0.0,299.81647999999996,5931.2738,-0.02815998988329116,0.0,0.0,0.0,0.0,-0.004297612610571655,-0.9178608408083121,-0.38041280382632064,-0.5046854967910805,0.004463155630504165,0.013851869552823087,-0.01056900407682949
2817,0.0,299.62068999999997,6029.955,-0.028169999557988712,0.0,0.0,0.0,0.0,-0.004299140228457399,-0.9284831570391531,-0.4092873209985136,-0.49518527398598156,0.0027842686091859173,-0.0012279532365645487,-0.016305964334773382
2818,0.0,299.09968,5890.9305,-0.028180009232686043,0.0,0.0,0.0,0.0,-0.004300667846343115,-0.9061469198472383,-0.3904795448948306,-0.49406930059084353,0.002485334093133378,-0.007897317280954533,-0.03060866229433977
2819,0.0,299.70241,5915.7355,-0.028189985872153378,0.0,0.0,0.0,0.0,-0.0043021904225856444,-0.8845763552258892,-0.38931347641474867,-0.5243460444439255,-0.004836660591641236,-0.003795891429525317,-0.019559531684125483
2820,0.0,300.23334,5962.2056,-0.02819999554685093,0.0,0.0,0.0,0.0,-0.004303718040471388,-0.8912973545967001,-0.3954964703799626,-0.5255678011495035,0.010388594896524491,-0.01213049442168659,-0.026239283669865675
2821,0.0,300.55919,5984.999,-0.028210005221548373,0.0,0.0,0.0,0.0,-0.004305245658357104,-0.8986470148595551,-0.3791602443177027,-0.5414829913977105,0.008546278334777002,0.0015365183908425586,-0.007137801521971164
2822,0.0,300.59505,5997.1371,-0.028220014896245926,0.0,0.0,0.0,0.0,-0.00430677327624282,-0.9120268101775381,-0.3972314483936916,-0.5137216713153815,-0.01870464953500518,-0.0025174209880251077,0.0014382655551457588
2823,0.0,300.19775,5841.3657,-0.02822999153571326,0.0,0.0,0.0,0.0,-0.00430829585248535,-0.9014908025902152,-0.38339071547271764,-0.4907477755705345,-0.0005530187525937015,0.008116874696098163,0.00882468744355384
2824,0.0,300.13219,5892.5677,-0.028240001210410814,0.0,0.0,0.0,0.0,-0.004309823470371094,-0.9037055139962902,-0.38604890618256066,-0.5014390333381795,-0.015474350460949486,0.011392949673896589,-0.0030998578158071472
2825,0.0,300.64291000000003,6151.7583,-0.028250010885108146,0.0,0.0,0.0,0.0,-0.00431135108825681,-0.9076916500221911,-0.4342314309003056,-0.5280578126077485,0.0023291538505445875,0.0041484493700200764,-0.025362155614799875
2826,0.0,299.61662,5993.1796,-0.028259987524575814,0.0,0.0,0.0,0.0,-0.004312873664499367,-0.908818110555864,-0.39341759528229364,-0.5195412529997295,-0.015107013862446185,-0.009430916802234022,-0.00904508038472993
2827,0.0,299.31852000000003,5874.2016,-0.028269997199273145,0.0,0.0,0.0,0.0,-0.004314401282385083,-0.8736560421406381,-0.3928153498203566,-0.5191391953600495,-0.005492165923884574,-0.002216124079364418,-0.012867911499963988
2828,0.0,299.92337000000003,6024.9292,-0.028280006873970698,0.0,0.0,0.0,0.0,-0.004315928900270827,-0.9306474693852541,-0.39487360527849064,-0.5059069495216285,0.0006992562556612193,0.004141972776705886,-0.006497589274812135
2829,0.0,300.23097,6048.6487,-0.028289983513437922,0.0,0.0,0.0,0.0,-0.004317451476513329,-0.9360997985708572,-0.37984842352062065,-0.5226899276854795,-0.003907307498596226,-0.000987715761782456,-0.0031473583725450875
2830,0.0,299.87,5962.9339,-0.028299993188135697,0.0,0.0,0.0,0.0,-0.0043189790943990725,-0.9027805787750062,-0.39598987251615764,-0.5138125598493515,0.0033928640081746066,-0.007469115458219304,-0.010051304507211522
2831,0.0,300.14755,5975.2114,-0.028310002862833028,0.0,0.0,0.0,0.0,-0.0043205067122847884,-0.8872238257496742,-0.40067567800111065,-0.5284155810855575,-0.002342657434627288,-0.008646512783694372,-0.0021078190934005476
2832,0.0,299.78758999999997,5968.8785,-0.02832001253753036,0.0,0.0,0.0,0.0,-0.004322034330170504,-0.8961983338728892,-0.38826544143881564,-0.5299262559246495,0.003281825577415967,0.0040972781121448665,-0.014001622851352587
2833,0.0,299.96443,6008.1394,-0.028329989176997916,0.0,0.0,0.0,0.0,-0.004323556906413062,-0.9055986806156312,-0.4052398326790576,-0.5154858511969925,0.002749048542334967,-0.00978074443900932,-0.01097135150603809
2834,0.0,300.0928,5992.8122,-0.028339998851695358,0.0,0.0,0.0,0.0,-0.004325084524298778,-0.9302160173601732,-0.3941087433080046,-0.49734052787618854,0.0004936684588512836,0.01126329115135029,-0.02298641039683208
2835,0.0,300.28222999999997,5987.0161,-0.02835000852639291,0.0,0.0,0.0,0.0,-0.004326612142184522,-0.9079474146124331,-0.4085987364955556,-0.5033572576324935,0.004669198923764056,0.005883857103116484,-0.006938715811847933
2836,0.0,300.26204,5945.2336,-0.028359985165860135,0.0,0.0,0.0,0.0,-0.004328134718427024,-0.8968582028680132,-0.4088688284422116,-0.5014755407392825,0.00895204284862284,0.008011695282717762,-0.029149242711556275
2837,0.0,300.27182999999997,6022.3396,-0.0283699948405578,0.0,0.0,0.0,0.0,-0.004329662336312767,-0.8947522739926741,-0.3980236883818796,-0.5378648880731315,0.004303617375758966,-0.01016504861971219,-0.012567875986352789
2838,0.0,299.9647,6017.8231,-0.02838000451525513,0.0,0.0,0.0,0.0,-0.004331189954198483,-0.9000003420906182,-0.40919832724223065,-0.5200692880243425,-0.010922594924476189,-0.01965268483206898,-0.019524038546372583
2839,0.0,299.35021,5946.4766,-0.028390014189952684,0.0,0.0,0.0,0.0,-0.004332717572084227,-0.8949207572193022,-0.3833760942737746,-0.5292835716512215,0.0008965538225379731,-0.002229407382875378,-0.0015233591091438385
2840,0.0,299.78758,6074.6018,-0.02839999082942013,0.0,0.0,0.0,0.0,-0.004334240148326757,-0.935599658321497,-0.4080955260983926,-0.5028320901056635,-0.009759656880578142,0.01019246716741819,-0.01275988992005309
2841,0.0,299.45076,6174.8261,-0.028410000504117683,0.0,0.0,0.0,0.0,-0.0043357677662125005,-0.9436261899161541,-0.4075515425172056,-0.5258152165589215,0.006251263818526704,0.0018459368030297782,-0.012346343037489188
2842,0.0,299.61942,6119.9331,-0.028420010178815014,0.0,0.0,0.0,0.0,-0.0043372953840982165,-0.9349498205023631,-0.39953682541871466,-0.5258202017494135,0.001955707556588308,-0.0019809632206308483,-0.014746586616374787
2843,0.0,299.75237999999996,5972.2784,-0.02842998681828246,0.0,0.0,0.0,0.0,-0.004338817960340746,-0.8895406525008271,-0.40145651892567363,-0.5244263546468515,0.018229684497629784,-0.014756270247580486,-0.012126723104814389
2844,0.0,300.0203,6003.5877,-0.028439996492980013,0.0,0.0,0.0,0.0,-0.004340345578226462,-0.8943958024749932,-0.40877622751557263,-0.5217687212245635,0.024066653553693775,-0.002722714476210997,-0.016686088149538682
2845,0.0,299.97843,6084.2407,-0.028450006167677344,0.0,0.0,0.0,0.0,-0.004341873196112178,-0.9292040236902971,-0.40158495850834963,-0.5186682569785716,0.0001987745511500208,-0.01864608773222558,-0.01020691003434359
2846,0.0,300.15808,6011.1115,-0.028460015842374897,0.0,0.0,0.0,0.0,-0.004343400813997922,-0.9406673679016411,-0.39456599268063164,-0.4919944278310695,-0.005370306184707955,0.0016976016493402382,-0.018370854554562183
2847,0.0,300.10658,5864.5813,-0.028469992481842343,0.0,0.0,0.0,0.0,-0.004344923390240452,-0.8999496593206162,-0.38277653392460265,-0.4999600833597185,-0.017180134712797283,0.012721612371025388,-0.013526404501452186
2848,0.0,300.09552,5824.3147,-0.028480002156539896,0.0,0.0,0.0,0.0,-0.004346451008126195,-0.8801091280525081,-0.38780382495825766,-0.5025332725186725,-0.007788497158639823,0.024727626991426777,-0.02068315207776818
2849,0.0,299.83924,6010.6408,-0.028490011831237227,0.0,0.0,0.0,0.0,-0.004347978626011911,-0.8788667719723972,-0.4031470557900166,-0.5450708897368085,-0.00904818376713621,0.00026097074018330675,-0.012551358996472688
2850,0.0,298.98885,6064.4304,-0.028499988470704674,0.0,0.0,0.0,0.0,-0.004349501202254441,-0.907487125489506,-0.3959597485906846,-0.5399885285602185,0.003859162109494646,-0.002954214057033227,-0.02084359820460298
2851,0.0,299.37742000000003,6004.2169,-0.028509998145402116,0.0,0.0,0.0,0.0,-0.004351028820140157,-0.911801696402821,-0.3971448864376486,-0.5161854294635355,0.015509792936197385,0.00993081437819507,-0.00043094276558073956
2852,0.0,299.88546,5913.5166,-0.02852000782009967,0.0,0.0,0.0,0.0,-0.004352556438025901,-0.9188716084455671,-0.3992113998840976,-0.4794783674283305,0.0032276950212986972,0.0005234397226269785,-0.026373305247342577
2853,0.0,299.98326000000003,5988.6456,-0.028529984459566893,0.0,0.0,0.0,0.0,-0.004354079014268403,-0.9277931337210532,-0.3948778001339046,-0.49772778193190753,0.006416721480356104,-0.0002941866084689577,-0.01267882484580259
2854,0.0,300.0556,6094.0715,-0.028539994134264446,0.0,0.0,0.0,0.0,-0.0043556066321541465,-0.9226051513540392,-0.4140137071499716,-0.5158267085306325,-0.012343452234953887,-0.00943906789266347,-0.018733960833897983
2855,0.0,300.52236,6085.9437,-0.028550003808962,0.0,0.0,0.0,0.0,-0.00435713425003989,-0.9097742032177231,-0.39291930928061664,-0.5472814062874695,0.003308037648227897,-0.002728058458563407,-0.0021952397789032976
2856,0.0,299.82652,5982.4677,-0.02856001348365933,0.0,0.0,0.0,0.0,-0.004358661867925606,-0.8994108534474401,-0.3997676843214986,-0.5193422506800895,-0.013889896829076088,-0.0033201418325974866,-0.00914378634587145
2857,0.0,300.1953,6041.1901,-0.028569990123126776,0.0,0.0,0.0,0.0,-0.004360184444168136,-0.9154311278635181,-0.3962919021059656,-0.5246479220462185,-0.002312437047744768,-0.017994976257715883,-0.002524361143260047
2858,0.0,300.52502999999996,6185.5106,-0.02857999979782433,0.0,0.0,0.0,0.0,-0.004361712062053852,-0.949003143426818,-0.4062629417025306,-0.5249746648059654,-0.01083963507253869,-0.004066515636458845,0.0069705832367680035
2859,0.0,299.86338,6193.3287,-0.028590009472521882,0.0,0.0,0.0,0.0,-0.004363239679939596,-0.9375180143383242,-0.4080553608644286,-0.5370438920471056,-0.008397081918502462,-0.002825991613853657,-0.0007984538356187583
2860,0.0,299.56562,6119.9812,-0.028599986111989106,0.0,0.0,0.0,0.0,-0.0043647622561820976,-0.9202786176669281,-0.4051215863923876,-0.5349212850751205,-0.003234153680086117,0.016333812500521783,-0.006335828962597634
2861,0.0,299.66997000000003,6046.2922,-0.02860999578668666,0.0,0.0,0.0,0.0,-0.004366289874067841,-0.8885943275699322,-0.4095941128637916,-0.5397334225825415,-0.003828903928383397,0.006419398993745353,-0.017685242927397583
2862,0.0,299.79919,6057.5998,-0.028620005461384213,0.0,0.0,0.0,0.0,-0.004367817491953585,-0.9223056244919781,-0.4084781698661566,-0.5105752967073585,0.006049509714265124,-0.0018130013111792983,-0.017155688027634584
2863,0.0,300.25585,6088.4471,-0.028630015136081766,0.0,0.0,0.0,0.0,-0.004369345109839329,-0.9335553958472441,-0.39939228529194964,-0.5177881986042165,0.0063431936696244735,0.005861637440348574,-0.006981220538967823
2864,0.0,300.32532000000003,5930.4309,-0.02863999177554899,0.0,0.0,0.0,0.0,-0.004370867686081831,-0.9358408827728042,-0.3945136177829626,-0.4723483899196565,0.01679726397701088,0.00047991057939098653,-0.02032991586765648
2865,0.0,299.51029,5916.7811,-0.028650001450246543,0.0,0.0,0.0,0.0,-0.004372395303967547,-0.9102250792472212,-0.39104091584773365,-0.4972877274134775,0.01922307692216998,-0.012795088202026888,-0.014835452703145183
2866,0.0,299.66857000000005,6042.4053,-0.028660011124944096,0.0,0.0,0.0,0.0,-0.0043739229218532905,-0.9164534566844142,-0.4032557977907486,-0.5170310879969955,0.0017769665912479484,-0.002343949835129838,-0.022051177514781778
2867,0.0,299.24949,6134.1904,-0.02866998776441143,0.0,0.0,0.0,0.0,-0.00437544549809582,-0.9099678555768351,-0.4188438602441706,-0.5358289950447045,-0.0067746439721803045,0.014227717452166387,-0.013466145504755087
2868,0.0,299.81889,6233.6811,-0.028679997439108873,0.0,0.0,0.0,0.0,-0.004376973115981536,-0.9355265624592832,-0.41880182049752157,-0.5405550265586275,-0.01949192561095328,0.008152743445663132,-0.026959075262653575
2869,0.0,299.76286,6171.6049,-0.028690007113806426,0.0,0.0,0.0,0.0,-0.00437850073386728,-0.9331580194230261,-0.41961162010994263,-0.5232441552251774,-0.012731358823737288,0.004078975471613536,-0.014164827044959588
2870,0.0,300.15474,6004.6751,-0.02869998375327376,0.0,0.0,0.0,0.0,-0.00438002331010981,-0.9286711250652042,-0.39587644929996363,-0.5007237294300845,-0.00822373529404448,-0.010808369214202989,-0.007221550898386583
2871,0.0,300.39781,6086.7362,-0.028709993427971092,0.0,0.0,0.0,0.0,-0.004381550927995526,-0.9265718633755232,-0.38587645101554063,-0.5377675046060205,-0.0046906139646275555,-0.012631539503385886,0.0017124048280011985
2872,0.0,301.09061,6170.7869,-0.028720003102668645,0.0,0.0,0.0,0.0,-0.004383078545881242,-0.9248175221523831,-0.4124775490708646,-0.5384700719603585,0.007870137454972092,-0.008293675895447083,-0.003164546032666377
2873,0.0,300.50383,6001.0153,-0.0287300127773662,0.0,0.0,0.0,0.0,-0.004384606163766985,-0.910511241340463,-0.39137112392282264,-0.5222764405846715,0.017671539733045184,-0.008582166234768863,-0.004272834331095916
2874,0.0,300.64887999999996,5971.7548,-0.028739989416833644,0.0,0.0,0.0,0.0,-0.004386128740009515,-0.9205234492885912,-0.38911206255987063,-0.5056288225016795,0.017330549663642083,0.005069708823916305,-0.013434765149158088
2875,0.0,299.83367000000004,6135.1959,-0.028749999091530976,0.0,0.0,0.0,0.0,-0.004387656357895231,-0.9433452764584301,-0.4125618717441866,-0.5090392196882595,-0.0026322089507787973,0.01008264301557939,-0.016833430926080282
2876,0.0,299.22074,6253.8211,-0.02876000876622853,0.0,0.0,0.0,0.0,-0.004389183975780975,-0.9685651322424361,-0.41299034481397356,-0.5194499996957235,-0.0005801008303389945,0.005437929888431895,-0.007276086653218842
2877,0.0,300.0798,6220.8404,-0.028769985405695975,0.0,0.0,0.0,0.0,-0.0043907065520235045,-0.9305486775005041,-0.4333681722126086,-0.5270632873695965,-0.012736894209033588,-0.0035751469918895366,-0.029863955894842975
2878,0.0,300.38001,5982.9088,-0.028779995080393528,0.0,0.0,0.0,0.0,-0.004392234169909248,-0.8998546772562421,-0.3933435266999836,-0.5254566780110365,-0.0077959030036207225,-0.008548959698516632,-0.012591183778403089
2879,0.0,299.80503999999996,5934.0946,-0.02879000475509086,0.0,0.0,0.0,0.0,-0.004393761787794936,-0.8848528103831731,-0.38699447117588065,-0.5319693024987825,-0.0054454619843752545,-0.0002666910537553577,-0.01067490897728149
2880,0.0,299.70928,6068.3222,-0.028800014429788412,0.0,0.0,0.0,0.0,-0.00439528940568068,-0.9161943179713391,-0.3989680678725826,-0.5294560470832436,0.009133460922052411,-7.750824114621783e-05,-0.008904648784470412
2881,0.0,299.60652000000005,6082.9471,-0.028809991069255858,0.0,0.0,0.0,0.0,-0.00439681198192321,-0.9335513529793452,-0.3953784267433126,-0.5201342677532556,0.0044336007462873256,0.0022007862086256876,-0.010191853137857589
2882,0.0,299.01358,6011.2962,-0.02882000074395319,0.0,0.0,0.0,0.0,-0.004398339599808926,-0.9359846730944951,-0.39328065453127864,-0.4980186151081105,0.017684791017852985,-0.0042127594419419856,-0.007806931217709122
2883,0.0,299.36615,6007.039000000001,-0.028830010418650742,0.0,0.0,0.0,0.0,-0.00439986721769467,-0.913295541157752,-0.39844279902074264,-0.5142514997926715,0.02132560634342348,0.004561119689922465,-0.008158778160608712
2884,0.0,299.08592000000004,6024.4091,-0.02883998705811819,0.0,0.0,0.0,0.0,-0.004401389793937199,-0.9155339626161672,-0.39528004015860263,-0.5204559442625025,0.0003621641897903226,-0.0077949208602987935,-0.016223233477358486
2885,0.0,299.64904,6241.6545,-0.02884999673281563,0.0,0.0,0.0,0.0,-0.004402917411822943,-0.9424805992205931,-0.42971903303746656,-0.5251074917615746,-0.0008545885801688262,0.002087529570748128,-0.018195711235026883
2886,0.0,300.33912000000004,6220.4138,-0.028860006407513072,0.0,0.0,0.0,0.0,-0.004404445029708631,-0.958089291446051,-0.4075586960629116,-0.5252024738259485,-0.008877436331834751,0.0007628081733283052,-0.010029414049401102
2887,0.0,300.24919,5908.1943,-0.028870016082210737,0.0,0.0,0.0,0.0,-0.004405972647594403,-0.927759736997757,-0.3818804763311686,-0.48630332625940154,-0.0007900647023433152,0.008651308091117632,-0.007823208573940572
2888,0.0,300.16524,5943.0717,-0.02887999272167796,0.0,0.0,0.0,0.0,-0.004407495223836905,-0.9172082165514032,-0.3940797035601386,-0.4952574984531095,-0.008794308381705663,-0.008721177967663252,-0.01071931770266429
2889,0.0,299.70914,6184.8921,-0.028890002396375514,0.0,0.0,0.0,0.0,-0.0044090228417226485,-0.924913983561903,-0.39346152980662963,-0.5616772280107264,-0.013643402463998987,-0.006152729501952124,-0.004914086476832575
2890,0.0,299.79942,6260.755999999999,-0.028900012071072845,0.0,0.0,0.0,0.0,-0.0044105504596083644,-0.9239148784332991,-0.4235963477182046,-0.5556022566386735,-0.0042332624563904755,-0.023723856859362374,-0.013679974713108388
2891,0.0,299.52864,6093.0015,-0.028909988710540513,0.0,0.0,0.0,0.0,-0.004412073035850922,-0.9181673388310612,-0.3931762695059766,-0.5407767054155055,0.0003126759504637137,0.0046080241516265755,-0.0003830507295341636
2892,0.0,299.01293,6022.1368,-0.028919998385237844,0.0,0.0,0.0,0.0,-0.004413600653736638,-0.9216793346051682,-0.4000432883486986,-0.5088565914902355,0.004785552155272226,0.0023592317744630473,-0.005557110290369084
2893,0.0,298.95911,6123.8903,-0.028930008059935175,0.0,0.0,0.0,0.0,-0.004415128271622326,-0.9421748510029181,-0.41555179040426865,-0.5037831063845215,0.01043628047273069,0.015119651117693384,-0.006528255593063665
2894,0.0,300.00009,6289.3935,-0.028939984699402843,0.0,0.0,0.0,0.0,-0.004416650847864911,-0.956260486473062,-0.4215636565600936,-0.5339944145461455,0.007340871534137613,0.002185301517947468,-0.014422347597624887
2895,0.0,299.6765,6200.419,-0.028949994374100174,0.0,0.0,0.0,0.0,-0.0044181784657506,-0.927441687923868,-0.41834923207535457,-0.5389816416708465,0.004518189803060616,0.0069521619446499625,-0.019514924361723085
2896,0.0,300.07195,6061.729,-0.028960004048797727,0.0,0.0,0.0,0.0,-0.004419706083636343,-0.9170352547593331,-0.4003429874632766,-0.5252360022717575,0.004569463297870916,-0.008397952199013353,-0.02184339436977518
2897,0.0,300.38917000000004,6044.8083,-0.02897001372349528,0.0,0.0,0.0,0.0,-0.004421233701522087,-0.9232422424869151,-0.39207002331179863,-0.5221585084055325,-0.0030375999806377773,-0.0026096099271734475,-0.028945167048665572
2898,0.0,300.06099,6160.3963,-0.028979990362962615,0.0,0.0,0.0,0.0,-0.004422756277764617,-0.9554280407209061,-0.4045026020387986,-0.5126759972121815,-0.0004755113412993155,-0.01025499787083949,-0.014981289790038184
2899,0.0,300.0576,6263.7855,-0.028990000037660058,0.0,0.0,0.0,0.0,-0.004424283895650333,-0.954321997176748,-0.40139559219716064,-0.5483167756371524,-0.004506714948328136,0.012271781002380489,-0.004884167126554766
2900,0.0,300.18023999999997,6046.0425,-0.02900000971235761,0.0,0.0,0.0,0.0,-0.004425811513536049,-0.913414587912001,-0.39411260379088564,-0.5303187484833854,-0.012220842893353288,0.0009676276225874111,0.0008312759853130522
2901,0.0,300.47486000000004,5950.401999999999,-0.029009986351824946,0.0,0.0,0.0,0.0,-0.0044273340897785785,-0.8862905920100712,-0.38945068061078963,-0.5330323639736985,-0.008368008733383163,0.00994937347232671,-0.00888469859927648
2902,0.0,300.39097000000004,6279.7062,-0.0290199960265225,0.0,0.0,0.0,0.0,-0.004428861707664322,-0.9457369114644661,-0.4063710352231986,-0.5567659338485195,-0.004644802597131326,0.008209322520647051,-0.004839113062183276
2903,0.0,299.6745,6373.679,-0.02903000570121983,0.0,0.0,0.0,0.0,-0.004430389325550038,-0.974553774705969,-0.42677580494199263,-0.5361096653224044,0.006720441373980925,0.0031289528871286066,-0.014511755773198787
2904,0.0,299.09157000000005,6198.2742,-0.029040015375917383,0.0,0.0,0.0,0.0,-0.004431916943435782,-0.972092559815566,-0.4035213098469526,-0.5085067162307055,0.012981060125380887,-0.013634872924657187,-0.012134528170334688
2905,0.0,299.28648,6096.6402,-0.02904999201538483,0.0,0.0,0.0,0.0,-0.004433439519678312,-0.948538659448477,-0.3998991129919696,-0.5047886051212565,0.0037594960938833765,-0.004101234853785366,-0.016706277157781182
2906,0.0,299.90287,6029.3094,-0.02906000169008216,0.0,0.0,0.0,0.0,-0.004434967137564028,-0.9139285286277231,-0.4055266939148686,-0.5133042629366865,0.00949526142598434,-0.01046774898108639,-0.024208891576231576
2907,0.0,299.78172,6104.3581,-0.029070011364779713,0.0,0.0,0.0,0.0,-0.004436494755449744,-0.9141236603319812,-0.38986187776637166,-0.5515869086123896,-0.013561597717175486,0.0053800900263485454,-0.005151152144429135
2908,0.0,300.23292000000004,6190.210999999999,-0.02907998800424716,0.0,0.0,0.0,0.0,-0.004438017331692273,-0.9289278522430412,-0.4008345758817926,-0.5519071463064945,-0.0038396010123391165,-0.006766187184195683,-0.019221477000262083
2909,0.0,299.5735,6099.8797,-0.029089997678944712,0.0,0.0,0.0,0.0,-0.004439544949578017,-0.9303125192996972,-0.4125724500752306,-0.5113261454289615,-0.010935025476702989,0.002550525591317278,-0.0066167229659197125
2910,0.0,300.07452,6030.7033,-0.029100007353642043,0.0,0.0,0.0,0.0,-0.004441072567463733,-0.9371325740002842,-0.38000808133887765,-0.5160425611994355,-0.01155528449891779,9.506672648610542e-05,-0.01006982479386433
2911,0.0,299.77942,6234.6204,-0.02910998399310971,0.0,0.0,0.0,0.0,-0.0044425951437062905,-0.943254154876937,-0.4317963071999776,-0.5201184509191945,0.003594813973680517,0.01087366102414679,-0.01092980926518819
2912,0.0,299.84067999999996,6412.1230000000005,-0.029119993667807043,0.0,0.0,0.0,0.0,-0.0044441227615920065,-0.954812288635136,-0.42078309934555863,-0.5735298831754925,-0.010244097326263689,0.004559267367414656,0.001955259396069078
2913,0.0,300.05936,6363.4458,-0.029130003342504596,0.0,0.0,0.0,0.0,-0.00444565037947775,-0.9425944581343301,-0.43486910971823967,-0.5568650601058024,-0.000978046711245695,0.014125675061095586,-0.010062874506128392
2914,0.0,299.94045,6150.5382,-0.029140013017201927,0.0,0.0,0.0,0.0,-0.0044471779973634384,-0.9351578002178892,-0.4120036418665936,-0.5224486019091625,-0.007916186530941784,0.0026734755876014972,-0.005324853406422115
2915,0.0,299.58089,6044.0428,-0.029149989656669484,0.0,0.0,0.0,0.0,-0.004448700573605996,-0.9521847791383211,-0.38601353362156965,-0.4990397786913915,0.005647994771338684,0.015786456823001983,-0.017215431280030787
2916,0.0,300.03769,6226.8698,-0.029159999331366926,0.0,0.0,0.0,0.0,-0.004450228191491712,-0.9695356941157229,-0.4202861204365106,-0.5029911197088586,0.005644809416999314,-0.016572886835116585,-0.00029090680908776674
2917,0.0,300.13534,6265.441999999999,-0.029170009006064257,0.0,0.0,0.0,0.0,-0.004451755809377428,-0.9608081049093771,-0.4078182603410286,-0.5359115343978504,0.008606544829524842,-0.01070845363509209,-0.024807499470309576
2918,0.0,300.38306,6231.8334,-0.029179985645531814,0.0,0.0,0.0,0.0,-0.004453278385619985,-0.9390346774855072,-0.41242987565365963,-0.5428572017133344,-0.008551980602364772,-0.0037430861032138364,-0.006673239827347494
2919,0.0,300.70891,6084.69,-0.029189995320229145,0.0,0.0,0.0,0.0,-0.004454806003505701,-0.9026786762124492,-0.4057428201611986,-0.5411723390495515,0.011812085644012088,-0.004751535322915026,-0.02396003633842148
2920,0.0,300.44035,6110.0368,-0.029200004994926698,0.0,0.0,0.0,0.0,-0.004456333621391445,-0.936491439999509,-0.39000807962330064,-0.5307990999582926,-0.023394850498891978,-0.0027820947824213774,-0.0017227161676438485
2921,0.0,300.80534,6346.4859,-0.02921001466962414,0.0,0.0,0.0,0.0,-0.004457861239277133,-0.9590401253398911,-0.42815185937279865,-0.5419812672668864,0.0034210006462264764,0.0006153532401331365,-0.014531020697350086
2922,0.0,299.90193999999997,6272.8158,-0.029219991309091697,0.0,0.0,0.0,0.0,-0.004459383815519691,-0.974433268871576,-0.3999927575662116,-0.5323533344191834,-0.0005447966839947465,0.006667800599485683,0.00014908174676072286
2923,0.0,299.75158999999996,6138.5047,-0.02923000098378903,0.0,0.0,0.0,0.0,-0.004460911433405407,-0.930642707109784,-0.40412772989930157,-0.5311817031960525,-0.0049987746294656455,0.012861429739074288,-0.01229536034545759
2924,0.0,300.10708,6172.651999999999,-0.02924001065848658,0.0,0.0,0.0,0.0,-0.0044624390512911505,-0.9187563917766962,-0.4240198761275036,-0.5335557988428574,-0.005679475134720556,-0.0006962926511062344,-0.009093812344314401
2925,0.0,299.29456,6223.6029,-0.029249987297954028,0.0,0.0,0.0,0.0,-0.00446396162753368,-0.936574546772711,-0.41048068643628965,-0.5447646348940836,-0.004485689198153056,0.006406703577942414,-0.008545812442381022
2926,0.0,300.14384,6339.5331,-0.02925999697265158,0.0,0.0,0.0,0.0,-0.004465489245419424,-0.9602186567962031,-0.4256158260950116,-0.5412252914997775,0.00850746791752171,0.009647805113964231,-0.012624738568714688
2927,0.0,300.30974,6243.2295,-0.029270006647348912,0.0,0.0,0.0,0.0,-0.00446701686330514,-0.9624512419340421,-0.42064127472906165,-0.5146933477637785,0.011699004906351888,-0.006986438979632843,-0.027819056086277074
2928,0.0,299.76517,5970.3754,-0.029280016322046243,0.0,0.0,0.0,0.0,-0.004468544481190828,-0.9258669756784561,-0.38166311391971663,-0.5073149517280875,0.01193259654465559,-0.013809619050153288,-0.016758240675909586
2929,0.0,300.37671,6010.8406,-0.02928999296151391,0.0,0.0,0.0,0.0,-0.004470067057433386,-0.92208131118484,-0.40118531240390765,-0.5038788179889676,0.0039264783931382465,-0.02191483255482558,-0.03007675361459447
2930,0.0,300.52082,6319.2005,-0.029300002636211242,0.0,0.0,0.0,0.0,-0.004471594675319102,-0.949960593843811,-0.4021218797363396,-0.5687966981158634,0.007216306518519003,0.0022160522399323275,-0.01023604097471859
2931,0.0,299.86282,6380.4807,-0.029310012310908795,0.0,0.0,0.0,0.0,-0.004473122293204845,-0.9663250693188591,-0.4174569235072906,-0.5557248396357715,-0.0076996474865210435,0.015393748441994684,0.0006543615957954614
2932,0.0,300.97997999999995,6253.6036,-0.02931998895037613,0.0,0.0,0.0,0.0,-0.004474644869447375,-0.9373161141233982,-0.4225385044813036,-0.5410847334459056,-0.013058597062783188,-0.002005641534766408,0.015732473897424288
2933,0.0,300.81937,6165.1578,-0.029329998625073683,0.0,0.0,0.0,0.0,-0.004476172487333119,-0.9515526225334321,-0.3982219206314436,-0.5242794739123555,-0.014393574334535185,-0.007119525428592453,0.0037604953611319963
2934,0.0,300.41622,6420.7991,-0.029340008299771125,0.0,0.0,0.0,0.0,-0.004477700105218835,-0.973404566707551,-0.43968323319585656,-0.5386747890105625,0.008282350596429362,0.009490474528536911,-0.004488405316371116
2935,0.0,299.89554,6485.1338,-0.029349984939238682,0.0,0.0,0.0,0.0,-0.004479222681461392,-0.978794003459447,-0.4236689470878696,-0.5688557908616955,0.00027793291162734273,0.0029836625499895676,-0.021462097211394082
2936,0.0,299.71897,6262.8057,-0.029359994613936014,0.0,0.0,0.0,0.0,-0.0044807502993470805,-0.9419281853985741,-0.4141785224112376,-0.5476298325993565,-0.005883277726709305,-0.010502678751783689,-0.012876220150783988
2937,0.0,300.11027,6025.2309,-0.029370004288633567,0.0,0.0,0.0,0.0,-0.004482277917232824,-0.916278843294681,-0.4017315960628216,-0.5135093042269225,-0.0009225633446549133,-0.005787861282017434,-0.024390510577155976
2938,0.0,299.89209,5992.2913,-0.029380013963330898,0.0,0.0,0.0,0.0,-0.00448380553511854,-0.9386916416641522,-0.3697342218174266,-0.5130810642046585,0.0014753391604046388,0.004606314798707876,-0.017302707577394286
2939,0.0,299.91507,6268.1832,-0.029389990602798566,0.0,0.0,0.0,0.0,-0.004485328111361098,-0.9712114273961051,-0.42108381171023657,-0.5130759574241546,0.010704752232476791,0.01252021574139909,-0.03269428766417497
2940,0.0,299.81933,6320.981,-0.029400000277495897,0.0,0.0,0.0,0.0,-0.004486855729246814,-0.9676590232080101,-0.4129048062405316,-0.5408565596558865,-0.007829652844576571,-0.007980679798481771,-0.014468631848942788
2941,0.0,299.78475,6232.3229,-0.029410009952193228,0.0,0.0,0.0,0.0,-0.00448838334713253,-0.9350650473037352,-0.4235647748450886,-0.5358407284808625,0.006617372763208844,-0.019537955536496083,-0.014531046028602588
2942,0.0,300.20966,6196.6351,-0.029419986591660896,0.0,0.0,0.0,0.0,-0.004489905923375087,-0.930442691540044,-0.4204971905648416,-0.5326824583166655,-0.005842644472524114,-0.01031416965017929,-0.02267185298278768
2943,0.0,300.18761,6394.7228,-0.029429996266358227,0.0,0.0,0.0,0.0,-0.004491433541260775,-0.9651054505709921,-0.41897238088685457,-0.5597582336463365,0.006633750329875183,-0.0016994858892261985,-0.007745988581169552
2944,0.0,300.58213,6543.7191,-0.02944000594105578,0.0,0.0,0.0,0.0,-0.004492961159146519,-0.9833503257141212,-0.4325528807846456,-0.5732240032353044,-0.012148476571211288,-0.0027367538669465776,-0.0006024936575489945
2945,0.0,300.7795,6318.541,-0.02945001561575311,0.0,0.0,0.0,0.0,-0.004494488777032235,-0.959862641241067,-0.4179408010925456,-0.5428752375651145,0.0009177876132235851,0.011479882479476188,0.0015449205646467887
2946,0.0,300.48075,6049.9713,-0.02945999225522067,0.0,0.0,0.0,0.0,-0.0044960113532747925,-0.9254141035462612,-0.39180604126324564,-0.5218200524746295,-0.005115855070570585,0.015456404788428383,-0.02052998716615198
2947,0.0,300.60927000000004,6146.0565,-0.02947000192991811,0.0,0.0,0.0,0.0,-0.0044975389711605085,-0.936870385404408,-0.4013925625793616,-0.5299847609854236,0.015616501343978685,0.022004979389722377,-0.008542754960204272
2948,0.0,300.48001,6297.8979,-0.029480011604615664,0.0,0.0,0.0,0.0,-0.004499066589046252,-0.9541419831639821,-0.4111146668913586,-0.5491470429015934,-0.005465476612275546,-0.005129055794198396,-0.02126273316146838
2949,0.0,299.94948,6299.3074,-0.029489988244083,0.0,0.0,0.0,0.0,-0.004500589165288782,-0.9578702369069322,-0.4125421032347356,-0.5444198258850534,-0.002444776224755628,-0.02927124612959707,-0.010056267507526329
2950,0.0,300.40337,6276.8115,-0.02949999791878055,0.0,0.0,0.0,0.0,-0.004502116783174498,-0.9699329692149311,-0.4119618149024656,-0.5260991900319475,-0.00864772351623886,-0.011221696221495188,-0.02067250788546768
2951,0.0,299.43957,6180.4845,-0.029510007593477883,0.0,0.0,0.0,0.0,-0.004503644401060214,-0.9543321702077521,-0.38809994729998265,-0.5362808437942985,-0.001972010953347328,0.005595444480077374,0.0018030334633205483
2952,0.0,299.14527000000004,6305.9452,-0.02951998423294533,0.0,0.0,0.0,0.0,-0.004505166977302744,-0.947452232426255,-0.42133839079786156,-0.5480592581242374,-0.015613860814218086,0.0010218805590517588,-0.015359878530901986
2953,0.0,300.29694,6545.9786,-0.029529993907642882,0.0,0.0,0.0,0.0,-0.004506694595188487,-0.9771496910646662,-0.4337633194866066,-0.5789010408955845,-0.0011809698426776488,-0.003915584029388056,-0.00028248132039873576
2954,0.0,299.90129,6393.5022,-0.029540003582340213,0.0,0.0,0.0,0.0,-0.004508222213074203,-0.9677386646658701,-0.4300841273134986,-0.5456422513356975,-0.002291281196256848,-0.0059195025323594145,-0.008716581257259591
2955,0.0,299.77006,6027.3456,-0.029550013257037766,0.0,0.0,0.0,0.0,-0.004509749830959947,-0.9268989810378072,-0.4093625852159416,-0.49590097306161557,0.009705554290163631,0.0014505037925035785,-0.018337585500778783
2956,0.0,300.57149,6090.96,-0.029559989896505212,0.0,0.0,0.0,0.0,-0.004511272407202477,-0.9305174187349191,-0.4068266127331606,-0.5141557071282175,-0.006419059960261894,-0.0008315453274546341,-0.012018411735374887
2957,0.0,300.14922,6390.8132,-0.029569999571202765,0.0,0.0,0.0,0.0,-0.004512800025088193,-0.9720617874100291,-0.4285192739915596,-0.5420665829253065,-0.0040428015311184465,-0.0005184544004124655,-0.018255003591128586
2958,0.0,300.23726,6407.3412,-0.029580009245900096,0.0,0.0,0.0,0.0,-0.004514327642973909,-0.9670601012064011,-0.4303331537905756,-0.5502784784932574,0.0032560364371957773,0.010850842631894791,-0.02287779910536298
2959,0.0,300.83449,6284.3009,-0.029589985885367542,0.0,0.0,0.0,0.0,-0.0045158502192164385,-0.9590719920555362,-0.4024123582750076,-0.5487862042759815,-0.009540671749090991,0.011249900038028688,-0.008278983768997081
2960,0.0,300.37972,6212.0966,-0.029599995560065095,0.0,0.0,0.0,0.0,-0.004517377837102182,-0.949048364778781,-0.41294848745234264,-0.5263253981167725,-0.005032411695685366,-0.0007470535629559463,-0.01895026845199588
2961,0.0,300.15379,6437.6033,-0.02961000523476265,0.0,0.0,0.0,0.0,-0.004518905454987926,-0.984787600715969,-0.4131998950671546,-0.5588831705949745,-0.017076524823821784,-0.017907272368810182,0.002287020276936328
2962,0.0,299.91566,6551.7821,-0.02962001490945998,0.0,0.0,0.0,0.0,-0.004520433072873614,-0.9917926242223111,-0.4376627719664526,-0.5621227743446985,0.010049841171417101,-0.01190574035075509,-0.018528665217886882
2963,0.0,299.4058,6340.3248,-0.029629991548927426,0.0,0.0,0.0,0.0,-0.004521955649116172,-0.972410912864485,-0.40918106146052663,-0.5457084368322296,0.0012002550318309488,0.003066716735511377,0.02020949818602218
2964,0.0,299.83042,6146.7809,-0.029640001223624868,0.0,0.0,0.0,0.0,-0.004523483267001888,-0.9271054307456822,-0.4102838119418596,-0.5310786657933835,0.014520976349108787,0.001970424811640788,-0.008575433390504383
2965,0.0,299.77462,6200.5489,-0.02965001089832231,0.0,0.0,0.0,0.0,-0.004525010884887604,-0.948135162993655,-0.4116554080722256,-0.5250214668280845,-0.00014954762902420185,-0.0027933639473835576,0.002186035516319908
2966,0.0,299.74116000000004,6517.1254,-0.029659987537789645,0.0,0.0,0.0,0.0,-0.004526533461130133,-0.9817799603116381,-0.44642372749859155,-0.5528397113010314,0.015966459690016883,0.0016924614315829384,-0.027743296389550174
2967,0.0,300.181,6518.437,-0.029669997212487198,0.0,0.0,0.0,0.0,-0.004528061079015877,-0.9954578538090412,-0.4311640695350806,-0.5548201694164875,0.009476798083987152,-0.001065643236170799,-0.0060354450936020545
2968,0.0,299.93751000000003,6090.7723,-0.02968000688718475,0.0,0.0,0.0,0.0,-0.004529588696901621,-0.9421820248136261,-0.4145160765495516,-0.4947445912524895,0.006752808635175324,-0.013986391675849384,-0.03280959957855537
2969,0.0,300.48457,6077.9713,-0.029689983526651975,0.0,0.0,0.0,0.0,-0.004531111273144123,-0.9420956047125971,-0.38260861811803065,-0.5228473056910115,-0.007489501543606253,-0.013138747172193386,-0.007946135164147482
2970,0.0,300.42862,6393.4401,-0.029699993201349528,0.0,0.0,0.0,0.0,-0.0045326388910298665,-0.957947112192019,-0.4280080994486106,-0.5574909345600715,-0.008348730940955592,-0.004914375253111076,-0.02131054640718718
2971,0.0,299.81991,6477.3287,-0.02971000287604708,0.0,0.0,0.0,0.0,-0.0045341665089155825,-0.9788930587892231,-0.4160590234043286,-0.5739941138413085,0.0013533191250621988,0.009075593094266301,-0.01072316703979419
2972,0.0,299.98983,6372.1868,-0.029720012550744634,0.0,0.0,0.0,0.0,-0.004535694126801326,-0.9677152889860632,-0.42215113896807355,-0.5471192558739665,-0.02094561121142088,0.004389969791681286,-0.01869388172619248
2973,0.0,299.62689,6234.4406,-0.02972998919021186,0.0,0.0,0.0,0.0,-0.004537216703043828,-0.9565564568272721,-0.4169267505249666,-0.5216310711984785,-0.005173246468159675,-0.0026618801561071174,-0.004353258220683136
2974,0.0,299.43923,6288.5203,-0.02973999886490941,0.0,0.0,0.0,0.0,-0.004538744320929572,-0.9678478626291471,-0.42053549141862157,-0.5231697826678375,-0.005850993855998134,0.001046383479595009,-0.016778918070700286
2975,0.0,299.66416,6543.8787,-0.029750008539606965,0.0,0.0,0.0,0.0,-0.004540271938815316,-0.985818856270246,-0.43314594620067653,-0.5702109014129344,0.02199469591445748,0.015565227849168384,0.005402620655572145
2976,0.0,299.39735,6442.9829,-0.02975998517907441,0.0,0.0,0.0,0.0,-0.004541794515057845,-0.9673463443596512,-0.4344618743705486,-0.5566976813217834,0.011806648543975489,-0.003867159388558916,-0.01782120183906568
2977,0.0,299.74036,6083.0279,-0.029769994853771742,0.0,0.0,0.0,0.0,-0.004543322132943561,-0.9306279440558272,-0.39022385123209563,-0.5282367829729114,-0.008094785945243172,-0.002427634262213848,0.002910649470308737
2978,0.0,300.49975,6066.5278,-0.029780004528469295,0.0,0.0,0.0,0.0,-0.004544849750829277,-0.9237144372985172,-0.40804666717857063,-0.5123118756562455,-0.008813777577077122,-0.012745575735890387,-0.035439156853822464
2979,0.0,299.79073,6352.1853,-0.029790014203166848,0.0,0.0,0.0,0.0,-0.004546377368715021,-0.978132026904115,-0.4061115216075866,-0.5466621584888545,0.006033020487437765,0.008708190431856482,-0.006453286231414764
2980,0.0,300.1572,6522.4649,-0.029799990842634072,0.0,0.0,0.0,0.0,-0.004547899944957523,-1.006874618913288,-0.41839563892993453,-0.5573962058082225,-0.005812487008472806,-0.001999068378717688,-0.01087614855314229
2981,0.0,300.16482,6364.411999999999,-0.029810000517331625,0.0,0.0,0.0,0.0,-0.004549427562843267,-0.982913057633466,-0.4002870965877606,-0.5514221946761335,-0.003431677161205167,-0.02319639128130558,0.007428135267199873
2982,0.0,299.74984,6236.7799,-0.029820010192029067,0.0,0.0,0.0,0.0,-0.0045509551807290105,-0.9572960179427611,-0.4002976242562996,-0.5382317352718364,-0.011664274745924288,-0.0027937151398682173,-0.0066968145094741345
2983,0.0,300.1445,6456.5095,-0.029829986831496513,0.0,0.0,0.0,0.0,-0.00455247775697154,-0.971300461682392,-0.42585792194140465,-0.5654592853339865,0.00939322227731386,0.02282970113636608,0.0015369885388889584
2984,0.0,300.12866,6579.0822,-0.029839996506193844,0.0,0.0,0.0,0.0,-0.004554005374857256,-0.9790173035164851,-0.43701598403011954,-0.5838434013058574,0.008517680870579651,0.007280374119691983,-0.016496189882047183
2985,0.0,300.08171,6446.7361,-0.02985000618089162,0.0,0.0,0.0,0.0,-0.004555532992743,-0.9767574112884511,-0.42376733367257957,-0.5591220443060494,-0.007403928114360812,0.006015091026918265,-0.01724474359217368
2986,0.0,300.18626,6181.0495,-0.02986001585558895,0.0,0.0,0.0,0.0,-0.004557060610628716,-0.9420609616916782,-0.4131692847816336,-0.5236544708531725,0.0004944831220641845,-0.004452722396874486,-0.018641704412292983
2987,0.0,300.61391000000003,6025.5145,-0.029869992495056397,0.0,0.0,0.0,0.0,-0.004558583186871246,-0.931905206601883,-0.4003360467000916,-0.4993646874684575,0.003301701491377567,-0.0006499729461673354,-0.02123005787224358
2988,0.0,300.03097,6168.0148,-0.02988000216975395,0.0,0.0,0.0,0.0,-0.004560110804756989,-0.9511834651244991,-0.39182063206468565,-0.5319183866812575,0.012997605486263789,-0.01808075091843118,-0.012157184442570688
2989,0.0,299.90802,6485.3738,-0.02989001184445128,0.0,0.0,0.0,0.0,-0.004561638422642705,-0.9840530146584711,-0.4279798601683236,-0.5593588104569165,-0.010966553766814591,-0.02084880934986728,-0.015979774809580984
2990,0.0,299.52685,6362.6287,-0.029899988483918727,0.0,0.0,0.0,0.0,-0.004563160998885235,-0.9679022234970122,-0.4174001308391856,-0.5487779057576625,-0.0002676133241288787,0.004087824488711866,-0.014406169033278186
2991,0.0,299.72128,6269.1868,-0.029909998158616058,0.0,0.0,0.0,0.0,-0.004564688616770951,-0.9642275504193502,-0.4109659217766786,-0.5304827632770724,-0.013587515641483385,0.029752038368297574,-0.021493682243511277
2992,0.0,300.02856,6511.178000000001,-0.029920007833313833,0.0,0.0,0.0,0.0,-0.004566216234656695,-0.986388454813961,-0.4279374252541356,-0.5649096376847405,0.006203276091140683,0.014713331748092787,-0.007781256980050273
2993,0.0,300.43501000000003,6638.2377,-0.029929984472781057,0.0,0.0,0.0,0.0,-0.004567738810899197,-1.012667856095036,-0.4267994947293306,-0.5783911531802625,-0.014619170416299785,-0.0053367812852743056,-0.004736279728084416
2994,0.0,299.95792,6531.5433,-0.02993999414747861,0.0,0.0,0.0,0.0,-0.0045692664287849405,-0.9832349469252339,-0.4361792927600446,-0.5660118511435205,0.01001203660753608,-0.01654446820956188,-0.008891383212836201
2995,0.0,300.22127,6307.2789,-0.029950003822176163,0.0,0.0,0.0,0.0,-0.004570794046670684,-0.962747881033318,-0.4156905043429586,-0.5388168973370875,-0.003109929217826117,0.009871680697059031,-0.0020114814017177583
2996,0.0,300.46848,6231.5323,-0.029960013496873605,0.0,0.0,0.0,0.0,-0.004572321664556428,-0.9344947293524491,-0.4174566803272666,-0.5422787980262505,-0.0015566979758591286,-0.0017666557582303485,-0.01081456523856449
2997,0.0,300.08199,6308.102,-0.02996999013634083,0.0,0.0,0.0,0.0,-0.00457384424079893,-0.966500341321157,-0.4130626402086086,-0.5379425131632926,-0.010604511400083791,-0.011786248779712188,-0.0016381738217001686
2998,0.0,299.77425,6446.5263,-0.029979999811038383,0.0,0.0,0.0,0.0,-0.004575371858684674,-0.9742093811294801,-0.4205240822224956,-0.5648495620863114,-0.009244161433902701,0.0018952299005196283,-0.0064194022361456745
2999,0.0,299.51274,6437.9772,-0.029990009485735936,0.0,0.0,0.0,0.0,-0.00457689947657039,-0.989399428811121,-0.4230630944555766,-0.5445217791101155,0.012095325523965687,0.006183867690775224,-0.002849650497063607
3000,0.0,299.50928,6371.5106,-0.02999998612520338,0.0,0.0,0.0,0.0,-0.004578422052812919,-0.9759466490884351,-0.4034700191268906,-0.5573634575649905,0.01211242817240359,-0.007207413830341363,-0.005761234690589594
3001,0.0,300.03657000000004,6537.1553,-0.030009995799900713,0.0,0.0,0.0,0.0,-0.004579949670698635,-0.987029649609742,-0.4419884987633686,-0.5581138300590465,0.005366159256023685,-0.01907090398240168,-0.012281968218885888
3002,0.0,299.57029,6692.8528,-0.030020005474598266,0.0,0.0,0.0,0.0,-0.004581477288584379,-1.007879347579947,-0.45005464843693554,-0.5765261245161984,0.016228355456613983,-0.012288818802811989,-0.013755749608586786
3003,0.0,300.32254,6606.8651,-0.03003001514929582,0.0,0.0,0.0,0.0,-0.004583004906470123,-1.010143120555864,-0.43222332118962054,-0.5659555651004654,0.007244485713075073,0.01728782192017518,-0.01932140980462468
3004,0.0,300.5144,6334.2629,-0.030039991788763043,0.0,0.0,0.0,0.0,-0.004584527482712625,-0.9605555320569502,-0.4261678346169906,-0.5387343782489435,-0.018359001554892382,0.02002654980096658,-0.01444867386172309
3005,0.0,300.35357,6283.2065,-0.030050001463460596,0.0,0.0,0.0,0.0,-0.0045860551005983685,-0.9647912518474832,-0.4093484807745496,-0.5357981415791595,-0.02059774725333938,-0.003157883507958837,-0.013824454044867386
3006,0.0,300.40072999999995,6356.1325,-0.03006001113815815,0.0,0.0,0.0,0.0,-0.0045875827184840845,-0.9671018673755232,-0.4120591781045746,-0.5529445320238765,-0.005386293244785755,-0.004718853346239566,-0.0008792328288360241
3007,0.0,300.32832,6408.5189,-0.030069987777625595,0.0,0.0,0.0,0.0,-0.004589105294726614,-0.9735253866494751,-0.4339126522863446,-0.5405916859472455,0.02078683289425068,0.006537337556359984,-0.01873695093494308
3008,0.0,299.71161,6367.871,-0.030079997452322926,0.0,0.0,0.0,0.0,-0.00459063291261233,-0.961900398649678,-0.4143038411836056,-0.5594695485603455,0.006903830928130062,0.0028230555190388875,-0.006288628733189334
3009,0.0,299.95918,6340.8815,-0.03009000712702048,0.0,0.0,0.0,0.0,-0.004592160530498074,-0.9707208826251921,-0.4288440307811106,-0.5279047206501395,-0.004257656655197996,-0.007832973062504252,-0.024979272720012272
3010,0.0,300.23647,6485.3172,-0.030099983766487926,0.0,0.0,0.0,0.0,-0.004593683106740604,-0.9787062863982902,-0.42569992585331157,-0.5669682883104135,-0.0018720029658273083,-0.0040583600877289565,-0.007144846852566483
3011,0.0,299.95448,6674.8912,-0.030109993441185368,0.0,0.0,0.0,0.0,-0.004595210724626347,-1.0226656252292392,-0.4304558989076896,-0.5758787083648035,0.013850499638687884,0.02138867305614768,-0.002726296315314497
3012,0.0,299.84105,6605.8061,-0.03012000311588281,0.0,0.0,0.0,0.0,-0.004596738342512063,-0.995840659696821,-0.4284933651865026,-0.5836660825383574,-0.003015217995203847,-0.00017199016628410786,0.0016451898693675986
3013,0.0,299.54236000000003,6338.0643,-0.030130012790580363,0.0,0.0,0.0,0.0,-0.004598265960397779,-0.982465809039326,-0.4095210575315816,-0.5346263988985175,-0.008544992419075092,-0.021353782802204277,-0.005746897809624655
3014,0.0,300.09837999999996,6376.5192,-0.030139989430047698,0.0,0.0,0.0,0.0,-0.004599788536640309,-0.968256465864473,-0.41949321170325665,-0.5505529476803455,-0.0059619834481019545,-0.012873569488522387,-0.02004147497493958
3015,0.0,299.74073,6482.9547,-0.03014999910474514,0.0,0.0,0.0,0.0,-0.004601316154526025,-0.9973394389797391,-0.42747874719886764,-0.5458381531100315,0.014175692125781887,0.005164288222700565,-0.016461588404382284
3016,0.0,299.99871,6435.729,-0.030160008779442582,0.0,0.0,0.0,0.0,-0.004602843772411769,-0.9765702335974781,-0.42008335895899956,-0.5596473435553925,3.343402711168157e-05,0.006152381146567744,-0.012841230598330788
3017,0.0,300.49335,6347.5759,-0.030169985418910028,0.0,0.0,0.0,0.0,-0.0046043663486542985,-0.976584115123848,-0.4225062425981196,-0.5304142270403085,-0.01046073323739399,-0.0009235143811987731,-0.02002108027692678
3018,0.0,300.81287000000003,6376.793000000001,-0.03017999509360758,0.0,0.0,0.0,0.0,-0.004605893966540042,-0.9638397188110741,-0.42028231061613464,-0.5542638241840805,0.0017701526869754684,0.00991500544748485,0.00011699464921897288
3019,0.0,300.73041,6489.9994,-0.030190004768304912,0.0,0.0,0.0,0.0,-0.004607421584425758,-0.9837649577875421,-0.44259718849594154,-0.5464356261639975,0.0031210284607465274,0.013863195662440885,-0.02143522784524228
3020,0.0,300.49577,6590.1299,-0.030200014443002465,0.0,0.0,0.0,0.0,-0.004608949202311474,-0.9892739073887331,-0.4367008531165186,-0.5772601634186425,0.012447585974231089,-0.002828104442962177,0.00036516671328164864
3021,0.0,299.94756,6596.2055,-0.03020999108246991,0.0,0.0,0.0,0.0,-0.004610471778554004,-0.9998362594786561,-0.4399275277949666,-0.5653179572100384,-0.01280486505224179,-0.029384315721506175,-0.032866942441464674
3022,0.0,299.85226,6425.2672,-0.030220000757167464,0.0,0.0,0.0,0.0,-0.004611999396439748,-0.9718461069937432,-0.42854908380950163,-0.5527255889422684,-0.004941640901376985,0.009398917756125962,-0.0005428685399819535
3023,0.0,299.94825,6257.2997,-0.030230010431864796,0.0,0.0,0.0,0.0,-0.004613527014325464,-0.9797814663444021,-0.3915695486899056,-0.5307118489921815,-0.010499664332736188,0.02127835443826008,-0.03313090827801607
3024,0.0,299.63619,6370.5269,-0.030239987071332353,0.0,0.0,0.0,0.0,-0.004615049590568021,-0.9633217858899581,-0.4141182238977866,-0.5590410957555605,0.0048878004387633445,0.020475946485318582,0.0008963363486690102
3025,0.0,300.09255,6436.5109,-0.030249996746029795,0.0,0.0,0.0,0.0,-0.004616577208453737,-0.9914162423401651,-0.4121187673429556,-0.5530035943722055,-0.006523322483626804,-0.012976166127397886,-0.02746382782646877
3026,0.0,300.46852,6443.0612,-0.030260006420727126,0.0,0.0,0.0,0.0,-0.004618104826339453,-0.9732299735828202,-0.4193274439868966,-0.5659722837271154,0.02159540647405068,-0.007486242120684572,-0.013790361218752687
3027,0.0,300.06082000000004,6408.1877,-0.03027001609542468,0.0,0.0,0.0,0.0,-0.004619632444225169,-0.9838544277713721,-0.42153061447433254,-0.5425440162399254,0.01131529621273279,-0.0039201823609918765,-0.02174682555574458
3028,0.0,300.02072999999996,6576.7734,-0.030279992734892125,0.0,0.0,0.0,0.0,-0.004621155020467699,-0.9924216093543871,-0.42618835293151563,-0.5805649394147985,0.0006703488078607764,-0.009234561801130291,-0.006953086535366214
3029,0.0,300.09122,6683.7578,-0.030290002409589567,0.0,0.0,0.0,0.0,-0.0046226826383534425,-1.0160759532038892,-0.4392252036206526,-0.5763943412081924,-0.0002834696344137747,-0.01969397477364398,0.0014584353116363585
3030,0.0,301.1556,6589.4412,-0.03030001208428701,0.0,0.0,0.0,0.0,-0.0046242102562391585,-0.9849099506655441,-0.43737873769842056,-0.5807368980892694,-0.00010054014343278961,0.009524121423282602,-0.0001365892646878109
3031,0.0,300.63658,6381.9749,-0.030309988723754566,0.0,0.0,0.0,0.0,-0.004625732832481716,-0.9843175843920821,-0.41213434099699264,-0.5435090964301715,0.008500010498110722,0.024603635576689774,0.0031719601862980965
3032,0.0,300.27092999999996,6244.191999999999,-0.030319998398451897,0.0,0.0,0.0,0.0,-0.004627260450367432,-0.9546656409481631,-0.4021794120770176,-0.5412333975005774,-0.010574941722415491,0.005411828059230845,-0.018475704661660083
3033,0.0,299.73832000000004,6406.8448,-0.03033000807314945,0.0,0.0,0.0,0.0,-0.004628788068253176,-0.9897395971346931,-0.4058695270862036,-0.5519117059319444,0.002897785652339177,-0.011869742614452387,-0.015078077466090384
3034,0.0,300.30027,6617.391,-0.030339984712616896,0.0,0.0,0.0,0.0,-0.004630310644495705,-1.000377709934593,-0.4340683786942136,-0.5770755492504225,0.008483833453639173,-0.002858092288946747,-0.017878469721467585
3035,0.0,300.01282000000003,6492.4652,-0.03034999438731445,0.0,0.0,0.0,0.0,-0.004631838262381421,-0.987578132021373,-0.42804516413726856,-0.5579240179178134,0.01039393776430179,0.0016074298884909786,-0.014287972395863087
3036,0.0,299.90395,6322.7793,-0.03036000406201178,0.0,0.0,0.0,0.0,-0.004633365880267137,-0.9609892537622551,-0.4080082042047746,-0.5529695694338475,-0.002284247011412628,-0.0015898094692519786,-0.007179928408128763
3037,0.0,299.54536,6492.8508,-0.03037001373670911,0.0,0.0,0.0,0.0,-0.004634893498152853,-0.9790522505124342,-0.43854024655305257,-0.5560720095175344,0.010088941682176021,-0.013421320333581187,-0.009416537668739912
3038,0.0,299.54941,6713.236999999999,-0.03037999037617678,0.0,0.0,0.0,0.0,-0.004636416074395411,-0.9937065827337042,-0.4543904064098416,-0.5925594191960615,0.008444711867278173,0.01071738543472359,-0.005932382157030534
3039,0.0,300.13692000000003,6689.0107,-0.03039000005087411,0.0,0.0,0.0,0.0,-0.004637943692281127,-1.0107217572904712,-0.4482579938896196,-0.5743124668902274,0.014612074625849486,0.004721789846354375,-0.011203457719695189
3040,0.0,299.8064,6409.7049,-0.030400009725571664,0.0,0.0,0.0,0.0,-0.0046394713101668705,-0.9885385715261611,-0.4151928060263396,-0.5446588718486455,-0.02171044177115378,-0.0040369166758626555,-0.008414574465578842
3041,0.0,299.84477000000004,6320.4029,-0.03040998636503911,0.0,0.0,0.0,0.0,-0.0046409938864094,-0.9814136805329892,-0.41119323430411264,-0.5286377463024835,-0.019778127220949182,-0.01051989893723319,-0.01043764228086509
3042,0.0,300.29391,6523.8896,-0.030419996039736663,0.0,0.0,0.0,0.0,-0.004642521504295116,-0.990775321121911,-0.4307641903831156,-0.5615600253716595,-0.007823129236457742,0.01879215584014138,-0.008306570414894673
3043,0.0,300.8329,6721.2937,-0.030430005714433994,0.0,0.0,0.0,0.0,-0.004644049122180832,-1.020872172552239,-0.43576646427180155,-0.5864668274047694,0.009425807184629742,0.015839858143022287,-0.004642786229432326
3044,0.0,300.46505,6669.5715,-0.030440015389131547,0.0,0.0,0.0,0.0,-0.004645576740066576,-0.9991790755962972,-0.4348427145531346,-0.5933613863852094,-0.0023371195162057374,0.014214430703605088,-0.014221856813587987
3045,0.0,299.96861,6463.0474,-0.030449992028598882,0.0,0.0,0.0,0.0,-0.004647099316309106,-0.9903111816486041,-0.4256077302267126,-0.5486861356961055,-0.003668489110976686,-0.005763165134680114,-0.001797247197299488
3046,0.0,300.26698999999996,6499.1768,-0.030460001703296435,0.0,0.0,0.0,0.0,-0.004648626934194849,-0.9819916383900291,-0.43331630393998954,-0.5602795102927824,-0.007804641272483122,-0.0033947808747137867,-0.019887288707222582
3047,0.0,300.2284,6705.06,-0.030470011377993877,0.0,0.0,0.0,0.0,-0.004650154552080538,-1.026612538343769,-0.4417300794578646,-0.5698281664526614,-0.0016860875818288886,-0.001926924262322618,0.003270380613561437
3048,0.0,299.8982,6602.694,-0.030479988017461435,0.0,0.0,0.0,0.0,-0.004651677128323123,-1.001361322469168,-0.4397674646766696,-0.5659253297174814,0.0009181897012607681,-0.008153053398868721,-0.012805046424009687
3049,0.0,300.1929,6313.7553,-0.030489997692158766,0.0,0.0,0.0,0.0,-0.004653204746208811,-0.9778179497706181,-0.4141514483685656,-0.5272545585909735,-0.0014032721523421785,-0.006366090082134175,-0.012590613318596788
3050,0.0,299.66282,6268.6295,-0.030500007366856097,0.0,0.0,0.0,0.0,-0.004654732364094527,-0.9494515065960681,-0.42268886066364264,-0.5333664730616725,0.003973526939006576,0.011169176429061888,-0.032003880324287075
3051,0.0,299.56166,6478.2654,-0.030509984006323765,0.0,0.0,0.0,0.0,-0.0046562549403370845,-1.001694651354565,-0.4201264018232476,-0.5474098560026465,0.014934247627645487,-0.005529833901652115,-0.017879684608337484
3052,0.0,300.02011,6648.5419999999995,-0.030519993681021096,0.0,0.0,0.0,0.0,-0.0046577825582228005,-1.006547673503521,-0.4406427506430536,-0.5738003297596834,0.008015947488087422,-0.015354858889906585,-0.013612952271993786
3053,0.0,300.0717,6520.9756,-0.03053000335571865,0.0,0.0,0.0,0.0,-0.004659310176108544,-0.9990221130233061,-0.4344881074156376,-0.5487035332003225,-0.005114749716036495,-0.025066324075853578,-0.00920040139123392
3054,0.0,299.89312,6420.2238,-0.03054001303041598,0.0,0.0,0.0,0.0,-0.0046608377939942325,-0.9863977361848771,-0.4185757644002116,-0.5466142216266235,-0.007572570725229543,0.006516016849080794,-0.012588195703858187
3055,0.0,300.06565,6566.1917,-0.030549989669883648,0.0,0.0,0.0,0.0,-0.004662360370236818,-0.999269072470179,-0.4346172258758806,-0.5620720409121914,-0.00969369662954337,0.025881574973812577,-0.011350251314682591
3056,0.0,299.99956000000003,6690.5538,-0.03055999934458098,0.0,0.0,0.0,0.0,-0.004663887988122506,-1.007538804353838,-0.4458134266983595,-0.5804090508869134,-0.006959620883936103,0.027438584726727475,-0.005670091121569425
3057,0.0,300.37781,6620.3017,-0.030570009019278532,0.0,0.0,0.0,0.0,-0.00466541560600825,-1.001018803405364,-0.43710085385849556,-0.5742867607351905,-0.011877808085248387,0.00013252137964384186,-0.0017124424195799081
3058,0.0,299.59612000000004,6335.8126,-0.030579985658745867,0.0,0.0,0.0,0.0,-0.004666938182250779,-0.970847863127724,-0.4063417826928116,-0.5487391692063395,-0.017850575959464682,0.01142828677113409,-0.002019696732203548
3059,0.0,299.01831,6350.8962,-0.03058999533344342,0.0,0.0,0.0,0.0,-0.004668465800136523,-0.9797397609702861,-0.4118799037643816,-0.5388942083197175,0.010869301008966489,-0.018070934551462383,-0.0023819211799773177
3060,0.0,299.1789,6580.9685,-0.030600005008140863,0.0,0.0,0.0,0.0,-0.004669993418022239,-0.998515812213338,-0.43187255427000254,-0.5700617307332124,0.02099040294534148,-0.02030589677403598,-0.0016868491406040482
3061,0.0,299.55494,6682.898,-0.030610014682838194,0.0,0.0,0.0,0.0,-0.004671521035907927,-1.024438610254219,-0.4348928805655856,-0.5721026089521315,0.024347257970137277,-0.02704155584729377,-0.006755798938870443
3062,0.0,299.59304,6607.7113,-0.03061999132230575,0.0,0.0,0.0,0.0,-0.0046730436121505126,-0.9979641988588981,-0.4368766520088686,-0.5737383897810705,0.02112055694718668,0.002604653614309297,-0.024672082647444974
3063,0.0,299.70862999999997,6463.3174,-0.030630000997003082,0.0,0.0,0.0,0.0,-0.004674571230036201,-1.0064926438905901,-0.4144174265198156,-0.5437770200216134,-0.011212506043088188,0.01854628665037598,-0.007831879157696292
3064,0.0,299.69199,6499.5243,-0.030640010671700635,0.0,0.0,0.0,0.0,-0.0046760988479219445,-0.984109523616548,-0.4195352413174046,-0.5720483291442744,-0.013495556102157686,-0.002006612127037198,-0.01185255890600649
3065,0.0,300.64353,6689.5956,-0.03064998731116808,0.0,0.0,0.0,0.0,-0.004677621424164474,-1.0288113923857791,-0.4270742374939456,-0.5775844034506424,-0.013874255287282386,-0.002597558330484047,-0.001094830918551399
3066,0.0,300.52857,6708.486999999999,-0.030659996985865634,0.0,0.0,0.0,0.0,-0.004679149042050218,-1.006627578406407,-0.43091501266050064,-0.6016699358801995,0.0065827877001955635,0.006540330697155384,-0.004618067891917816
3067,0.0,300.02745,6534.0116,-0.030670006660562965,0.0,0.0,0.0,0.0,-0.004680676659935934,-1.0001419570338261,-0.4326073227125186,-0.5534270822515005,0.0007787465771363032,0.004169052290928426,-0.015126879643906787
3068,0.0,299.51354,6489.3748,-0.030680016335260518,0.0,0.0,0.0,0.0,-0.00468220427782165,-0.9951839824395121,-0.4235548145966056,-0.5538691126076255,-0.014138880749648886,-0.003892467944256676,-0.016688759076802284
3069,0.0,299.77,6662.2997,-0.030689992974727964,0.0,0.0,0.0,0.0,-0.004683726854064207,-1.025284876737739,-0.44096842949019555,-0.5589194550810554,0.0017903483826686283,0.0027044333165817873,-0.012870040338424088
3070,0.0,300.20457999999996,6700.3953,-0.030700002649425517,0.0,0.0,0.0,0.0,-0.004685254471949923,-1.0035379863339882,-0.44717145540988656,-0.5860434408504844,0.01944217300454308,0.01067702666999049,-0.005479395426249224
3071,0.0,299.50811,6430.7832,-0.03071001232412285,0.0,0.0,0.0,0.0,-0.004686782089835639,-0.9833277302368911,-0.41935945255755563,-0.5521103333490475,0.012733366072185387,0.01009286245343797,-0.01117503909414049
3072,0.0,299.09477000000004,6235.6872,-0.030719988963590295,0.0,0.0,0.0,0.0,-0.004688304666078169,-0.9579626149185491,-0.39324380262514164,-0.5442867962794244,0.012301782324591387,-0.02220310119502548,-0.011615401640600887
3073,0.0,299.66524,6414.6729,-0.030729998638287848,0.0,0.0,0.0,0.0,-0.004689832283963913,-0.994872043263726,-0.4102305048540986,-0.5447978390998605,0.004264893895362256,-0.01992633733957638,-0.015871987290443184
3074,0.0,299.83314,6656.775,-0.03074000831298518,0.0,0.0,0.0,0.0,-0.004691359901849629,-1.009577858722577,-0.43137402508830164,-0.5825414863848685,0.002148872846377238,-0.003280310464541437,-0.015083234909099385
3075,0.0,299.60536,6731.155,-0.030749984952452625,0.0,0.0,0.0,0.0,-0.0046928824780921585,-1.032593348384029,-0.43624014856105053,-0.5772696069095745,-0.002830371995360967,0.004153592931502707,-0.017302483649122184
3076,0.0,299.47818,6563.9294,-0.030759994627150067,0.0,0.0,0.0,0.0,-0.004694410095977902,-0.989380227721726,-0.4260318463210696,-0.5798585622400845,-0.013295526346916288,0.008447842303462122,0.002344475103981678
3077,0.0,299.38132,6469.1552,-0.03077000430184762,0.0,0.0,0.0,0.0,-0.004695937713863618,-0.9979690624593781,-0.4243963086721546,-0.5440962647306204,-0.011142289837658388,0.007077194473864712,-0.004786893495754605
3078,0.0,299.92273,6696.3418,-0.030780013976545062,0.0,0.0,0.0,0.0,-0.004697465331749334,-1.000174796469567,-0.44650910395201754,-0.5888368193886694,0.0040992193980114566,0.0038042182175221065,0.0036406940395335274
3079,0.0,300.53615,6814.7318,-0.030789990616012397,0.0,0.0,0.0,0.0,-0.004698987907991864,-1.045121476595459,-0.4470152021119656,-0.5793716550370305,0.0055676150594558245,-0.0017619585334167683,-0.007247358277108573
3080,0.0,299.74773,6614.7577,-0.03080000029070995,0.0,0.0,0.0,0.0,-0.004700515525877608,-1.001267333389892,-0.4418628760159706,-0.5675909507618655,-0.0032431735311513063,-0.020045160165553282,-0.012064674708440689
3081,0.0,299.73489,6359.3625,-0.030810009965407503,0.0,0.0,0.0,0.0,-0.004702043143763351,-0.976304366903739,-0.4236267452212046,-0.5331562844609284,-0.011128026316000688,-0.006439052094009964,-0.024626676883963774
3082,0.0,299.93939,6453.5366,-0.030819986604874727,0.0,0.0,0.0,0.0,-0.004703565720005853,-0.980078439816211,-0.42262458007729864,-0.5590109515650855,0.003088453685931647,0.009406447622919102,-0.015026733043773086
3083,0.0,300.29562000000004,6728.805,-0.030829996279572502,0.0,0.0,0.0,0.0,-0.004705093337891625,-1.013197461657304,-0.4435358735210826,-0.5886553766932624,0.011802771849092888,0.00981076734344735,-0.003432997223435447
3084,0.0,300.20145,6750.1623,-0.030840005954269833,0.0,0.0,0.0,0.0,-0.004706620955777313,-1.014200427268789,-0.45082944025840155,-0.5868508897226734,0.0023882643282533375,-0.004488099213515905,-0.005770846583688214
3085,0.0,300.76497,6543.3327,-0.030850015628967165,0.0,0.0,0.0,0.0,-0.004708148573663029,-1.008355625789452,-0.42859878372690663,-0.5520553543986214,0.010664747092028592,0.008384016970388052,-0.014408805510038385
3086,0.0,300.56394,6456.272,-0.030859992268434833,0.0,0.0,0.0,0.0,-0.0047096711499055866,-0.9926277652197332,-0.41970125221378857,-0.5502164473221355,0.005813192331867415,1.145054078308039e-05,-0.02079598254265368
3087,0.0,300.90757,6685.5137,-0.030870001943132164,0.0,0.0,0.0,0.0,-0.0047111987677913025,-1.0228079868682889,-0.4437415126288776,-0.5656797685557464,-0.0025689789021384776,-0.0003848103497903246,-0.022868221865417777
3088,0.0,299.95766000000003,6790.7479,-0.030880011617829717,0.0,0.0,0.0,0.0,-0.004712726385677046,-1.029127019791929,-0.44300943943162757,-0.5920813272688775,-0.01061090906121519,-0.01197916247950129,-0.0014842823084372588
3089,0.0,300.09751,6643.0041,-0.03088998825729694,0.0,0.0,0.0,0.0,-0.004714248961919548,-1.009319733259602,-0.4446653738050556,-0.5653222736554645,-0.006095300918084364,0.009436300503990351,0.005422458471329984
3090,0.0,299.47324,6416.4717,-0.030899997931994605,0.0,0.0,0.0,0.0,-0.00471577657980532,-0.97981761910797,-0.42168687790475456,-0.5489426906214255,-0.005050167991762776,0.014694160042950686,-0.0028457377304774473
3091,0.0,299.77603,6484.6996,-0.030910007606692047,0.0,0.0,0.0,0.0,-0.004717304197691008,-1.0101918680181752,-0.41513114975775456,-0.5458637376750565,-0.0071969344938321335,0.0015287050166714385,-0.003041250416773047
3092,0.0,299.83119,6813.3537,-0.030919984246159382,0.0,0.0,0.0,0.0,-0.004718826773933538,-1.0305445566818292,-0.4521173925930126,-0.5884274764807704,-0.00997494060944999,-0.015351909318865485,-0.016740636468672184
3093,0.0,299.99657,6772.8079,-0.030929993920856935,0.0,0.0,0.0,0.0,-0.004720354391819281,-1.026054744163719,-0.4492794614479306,-0.5834302181800796,-0.01125840931236849,-0.0006004110030284525,-0.015820436165105485
3094,0.0,299.75082000000003,6462.0259,-0.03094000359555449,0.0,0.0,0.0,0.0,-0.004721882009705025,-0.986818630143916,-0.42381183561697156,-0.5536640510523875,0.003228148248068427,0.006537096909461235,-0.024939389169576075
3095,0.0,300.10508,6511.6528,-0.03095001327025182,0.0,0.0,0.0,0.0,-0.004723409627590741,-0.994644041726224,-0.4288039263421526,-0.5559318871612055,-0.0016252159741213283,0.0018783849215821583,0.0004841969718190205
3096,0.0,300.47398,6680.6281,-0.030959989909719265,0.0,0.0,0.0,0.0,-0.004724932203833271,-1.016378307033729,-0.4304932574388766,-0.5838725829087374,0.006090692150004514,-0.01299341367060009,-0.0027808810101265877
3097,0.0,300.10606,6781.6588,-0.03096999958441682,0.0,0.0,0.0,0.0,-0.004726459821719015,-1.0321312050134188,-0.4503711877681756,-0.5789525241331654,-0.0018384979260956183,-0.01154437686159129,-0.005522702850098335
3098,0.0,299.94546,6723.4553,-0.03098000925911415,0.0,0.0,0.0,0.0,-0.004727987439604703,-1.015724963369249,-0.4516473256066205,-0.5763902983402935,0.01177871425196859,-0.006327761465301433,-0.015018913792751384
3099,0.0,299.71719,6514.9579,-0.030989985898581596,0.0,0.0,0.0,0.0,-0.0047295100158472325,-1.000467463628451,-0.4309757671364966,-0.5489412720712855,-0.015202798420899387,-0.007586016959356582,-0.013957693393267087
3100,0.0,299.45171,6506.9631,-0.03099999557327915,0.0,0.0,0.0,0.0,-0.004731037633732976,-0.9769114455686532,-0.4346921658532766,-0.5663506819769605,-0.0077238102590057225,-0.006488990226513474,-0.026358588802890177
3101,0.0,299.48271,6810.2513,-0.031010005247976702,0.0,0.0,0.0,0.0,-0.00473256525161872,-1.0299824055263491,-0.4553586682054016,-0.5848052289632825,0.006712545217276634,0.01978132402501468,-0.007658417630676972
3102,0.0,299.23107999999996,6716.6923,-0.031020014922674033,0.0,0.0,0.0,0.0,-0.004734092869504436,-1.020593427449729,-0.4395401318842336,-0.5815731739268034,0.02124332638230308,0.017222896906767586,-0.004715573050365826
3103,0.0,299.3113,6379.4923,-0.03102999156214148,0.0,0.0,0.0,0.0,-0.004735615445746966,-1.012056927079742,-0.4069616789714906,-0.5201877673585356,-0.006364691493021144,0.004895467702270045,-0.01130122216884379
3104,0.0,299.61447000000004,6430.6521,-0.031040001236839032,0.0,0.0,0.0,0.0,-0.004737143063632709,-0.9891895847154111,-0.40630943974961964,-0.5592586405520305,-0.008002770677161972,-0.025369222020997274,-0.008821956430559311
3105,0.0,300.64455,6784.7905,-0.031050010911536585,0.0,0.0,0.0,0.0,-0.004738670681518425,-1.044379169572199,-0.4410178862275766,-0.5770098095839344,-0.0057824375568821555,-0.0011498164551030491,-0.019938994859825584
3106,0.0,300.27052000000003,6919.0976,-0.03105998755100381,0.0,0.0,0.0,0.0,-0.004740193257760927,-1.029811166259449,-0.44997374041645055,-0.6234479938570264,0.014629310010050488,0.008772459669799362,-0.007972564678430872
3107,0.0,299.93375,6710.982,-0.031069997225701362,0.0,0.0,0.0,0.0,-0.004741720875646671,-1.037381360406569,-0.41917978304982356,-0.5834098113230655,0.009774877416955291,-0.00041136473701603853,0.0013537370907284487
3108,0.0,299.81792,6570.3003,-0.031080006900398693,0.0,0.0,0.0,0.0,-0.004743248493532387,-1.012753181885957,-0.41690214881253856,-0.5675518899705104,-0.00019561939166363082,-0.007941503293965353,0.004178448463080756
3109,0.0,300.28207000000003,6665.7722,-0.03108998353986625,0.0,0.0,0.0,0.0,-0.0047447710697749446,-1.022461556659099,-0.4293380509998666,-0.5744287373392024,-0.014909918479494386,0.00972150467058781,0.005415290030847515
3110,0.0,299.50575,6774.0483,-0.03109999321456358,0.0,0.0,0.0,0.0,-0.0047462986876606605,-1.0117823059051392,-0.4603396030469815,-0.5870196161293254,0.0035284702074828964,0.013730499416094787,-0.016829319157174484
3111,0.0,299.48722000000004,6753.2342,-0.031110002889261135,0.0,0.0,0.0,0.0,-0.004747826305546404,-1.0175648229008292,-0.4535336426552855,-0.5817161536484144,-0.016687607011438583,-0.007643593072438903,-0.011240190062320387
3112,0.0,299.82687000000004,6547.1757,-0.031120012563958688,0.0,0.0,0.0,0.0,-0.00474935392343212,-0.9903925962941391,-0.43150224175595553,-0.5682830917726744,0.003600793466495647,-0.013781283511106787,-0.013786740876145386
3113,0.0,300.25977,6401.6228,-0.031129989203425912,0.0,0.0,0.0,0.0,-0.004750876499674622,-0.98828008129315,-0.4293179379853816,-0.5283354735326515,0.005414583795527814,0.003101165212411177,-0.021619286752407478
3114,0.0,300.25065,6651.6859,-0.031139998878123465,0.0,0.0,0.0,0.0,-0.004752404117560366,-1.011561772020874,-0.43642397239419256,-0.5739606867205094,0.02275458991970318,0.004916887505409016,-0.010136398973134689
3115,0.0,300.44894,6920.9933,-0.031150008552821018,0.0,0.0,0.0,0.0,-0.00475393173544611,-1.0596603996303389,-0.4504672337451546,-0.5936815227543045,0.007562921341877222,-0.01181976304001979,-0.018904911324519484
3116,0.0,299.88189,6789.4636,-0.031159985192288464,0.0,0.0,0.0,0.0,-0.004755454311688639,-1.028982834302699,-0.43902805554869556,-0.5958165521725154,0.004947566995911846,-0.015489372906932086,-0.015245112758325486
3117,0.0,299.45121,6669.0885,-0.031169994866985795,0.0,0.0,0.0,0.0,-0.004756981929574355,-1.011725199129503,-0.44502777283582157,-0.5704834048948284,0.0029760606411143174,0.013202865638521386,-0.027451398287492077
3118,0.0,299.23246,6675.8531,-0.031180004541683348,0.0,0.0,0.0,0.0,-0.004758509547460099,-1.000413994420674,-0.4503326842643756,-0.5785459676630414,-0.0017574368035205082,0.012598300847105488,-0.01001174043453185
3119,0.0,299.15799,6705.3448,-0.0311900142163809,0.0,0.0,0.0,0.0,-0.004760037165345815,-1.0287316496029089,-0.43883728081986756,-0.5706884664500664,-0.013254984183915089,0.0051219839164504555,-0.009433061548720692
3120,0.0,299.76225,6711.2042,-0.031199990855848347,0.0,0.0,0.0,0.0,-0.004761559741588345,-1.032018126302259,-0.43572336061254757,-0.5722969908513155,-0.0033951437195745963,-0.0034339080339503367,0.005052927274435095
3121,0.0,299.60438999999997,6520.901999999999,-0.03121000053054568,0.0,0.0,0.0,0.0,-0.004763087359474061,-0.9971830032968,-0.4341704636417886,-0.5508378938734675,-0.0036041086181728267,0.004855531260178626,-0.011414847021807688
3122,0.0,299.92347,6438.8317,-0.03122001020524323,0.0,0.0,0.0,0.0,-0.0047646149773598045,-0.981268988418709,-0.4179429694477596,-0.5580321114384815,-3.1019037704090666e-05,-0.003459676402543477,-0.014742990591769884
3123,0.0,299.95957999999996,6724.5292,-0.031229986844710567,0.0,0.0,0.0,0.0,-0.004766137553602334,-1.014257878549459,-0.4436201860619036,-0.5862109513570164,-0.008806582082816981,-0.018742311027972084,-0.007122248234261174
3124,0.0,300.24946,6887.5115,-0.03123999651940801,0.0,0.0,0.0,0.0,-0.00476766517148805,-1.0363916177088892,-0.45716960957912756,-0.6000703179473295,0.014955586674751487,-0.004010282789034096,-0.012817807295769089
3125,0.0,300.67309,6712.5181,-0.03125000619410556,0.0,0.0,0.0,0.0,-0.004769192789373794,-1.040893082603149,-0.42230425119068465,-0.5772405164992035,0.018720776423596784,0.015874428209934087,0.0026020348694258478
3126,0.0,300.05962,6563.3757,-0.031260015868803115,0.0,0.0,0.0,0.0,-0.00477072040725951,-1.009720828311687,-0.43519381584528555,-0.5501876811517964,0.018089082874003484,0.013672310489351988,-0.017803690850837484
3127,0.0,299.75437999999997,6775.3661,-0.03126999250827045,0.0,0.0,0.0,0.0,-0.00477224298350204,-1.0330621792052992,-0.45109414171452555,-0.5753858331186604,-0.023268284415650875,-0.008839946584759803,-0.0025252696232997075
3128,0.0,300.26512,6904.0518,-0.03128000218296778,0.0,0.0,0.0,0.0,-0.004773770601387756,-1.048019270556449,-0.45054957044828053,-0.6000905525518264,-0.008804940820305002,-0.0005790900829667414,-0.016793070134846984
3129,0.0,299.98096,6773.9929,-0.031290011857665334,0.0,0.0,0.0,0.0,-0.004775298219273499,-1.030202483448069,-0.4546431819122886,-0.5742790802994324,-0.0017879587336327885,0.015999695306546984,-0.018585537932749783
3130,0.0,299.51746,6575.3852,-0.03129998849713278,0.0,0.0,0.0,0.0,-0.004776820795516029,-0.989962947854236,-0.43649312671351764,-0.5722968287312995,0.004786222420213376,0.011413914831715688,-0.005179447356121655
3131,0.0,300.57686,6576.3391,-0.03130999817183033,0.0,0.0,0.0,0.0,-0.004778348413401773,-1.027257370707409,-0.43173353635628264,-0.5400519884139815,-0.01067762043454909,-0.010702250517979888,-0.009626651288976511
3132,0.0,299.87085,6679.7975,-0.031320007846527664,0.0,0.0,0.0,0.0,-0.004779876031287461,-1.023300223766869,-0.44271861638792553,-0.5644728255666305,0.0024414214549995377,-0.011329457396130388,-0.004357557947482486
3133,0.0,300.06793999999996,6810.4006,-0.03132998448599533,0.0,0.0,0.0,0.0,-0.004781398607530046,-1.045081250566489,-0.4569622682111646,-0.5681482079193625,0.00835059684101474,0.009247710545027972,-0.023277820112341977
3134,0.0,300.07877,6745.8649,-0.031339994160692664,0.0,0.0,0.0,0.0,-0.0047829262254157345,-1.018815680149279,-0.4544044601887286,-0.5773543450154375,-0.000954588937915593,0.01218618366043269,-0.019075037029559583
3135,0.0,300.31581,6637.3818,-0.031350003835389995,0.0,0.0,0.0,0.0,-0.0047844538433014505,-1.0011211416654642,-0.45309960684244954,-0.5633775832685385,-0.008295754476702222,-0.010149379720165792,-0.023034911639368775
3136,0.0,300.43833,6741.2619,-0.03136001351008755,0.0,0.0,0.0,0.0,-0.004785981461187194,-1.015462531593349,-0.4454253417775586,-0.5882874554494515,-0.00043285120187908755,-0.008100655196447423,-0.012807298878981988
3137,0.0,300.26217,6876.4897,-0.031369990149554994,0.0,0.0,0.0,0.0,-0.004787504037429724,-1.065727538579119,-0.43609675340689863,-0.5884568404686684,0.016718492900986783,-0.0053964583724389744,-0.0008882459924505541
3138,0.0,299.32042,6746.8149,-0.03137999982425255,0.0,0.0,0.0,0.0,-0.004789031655315468,-1.0378007446229591,-0.4346822562672986,-0.5783803114041924,0.02349695064521848,0.0026959464350691975,-0.0019360338873466681
3139,0.0,299.69977,6612.5183,-0.03139000949894988,0.0,0.0,0.0,0.0,-0.004790559273201156,-1.026168633474959,-0.42524501708841556,-0.5586267777896704,-0.005736574209655795,-0.01060175232006149,-0.013405260319496187
3140,0.0,299.63551,6639.9673,-0.031399986138417435,0.0,0.0,0.0,0.0,-0.004792081849443741,-1.005086739111838,-0.4372886698970316,-0.5760088400751464,-0.015376825138824485,0.0074190478323530136,-0.015446432380944185
3141,0.0,299.86876,6772.3240000000005,-0.031409995813114766,0.0,0.0,0.0,0.0,-0.004793609467329429,-1.022986217560879,-0.4491654505466786,-0.5864657533596634,-0.010640638832399291,0.01078595814849119,-0.020630251303297282
3142,0.0,299.95043,6888.7646,-0.03142000548781232,0.0,0.0,0.0,0.0,-0.004795137085215173,-1.035604829006239,-0.46737449716627155,-0.5910330693779224,-0.012614882684991988,0.013818049290985289,-0.01004170842081446
3143,0.0,299.83409,6705.4338,-0.03143001516250976,0.0,0.0,0.0,0.0,-0.004796664703100889,-1.035988648144119,-0.4383002785318696,-0.5639955442395265,0.0073578269573359835,-0.004229132145007846,-0.006971897422147703
3144,0.0,300.50686,6665.1813,-0.03143999180197732,0.0,0.0,0.0,0.0,-0.004798187279343447,-1.015526062374619,-0.44083752770977663,-0.5696850955385414,0.00012203488958890588,-0.008488165908416752,0.002716202824443347
3145,0.0,301.08617000000004,6861.6478,-0.03145000147667465,0.0,0.0,0.0,0.0,-0.0047997148972291626,-1.053853260657219,-0.45023099448433956,-0.5816853103153704,0.02092678502456288,-0.012144903851358687,-0.00893788997387606
3146,0.0,299.87157,6878.2699,-0.03146001115137198,0.0,0.0,0.0,0.0,-0.004801242515114851,-1.027500449406399,-0.44135131643798353,-0.6219705434887134,0.004578685494981076,-0.004202110690016036,-0.005345467169106536
3147,0.0,299.78177,6782.7891,-0.03146998779083965,0.0,0.0,0.0,0.0,-0.004802765091357436,-1.025083341292849,-0.4450707447725626,-0.5916444036932564,0.02040919052898028,-0.0033850341180268564,-0.014225342393931988
3148,0.0,300.20495,6685.9781,-0.03147999746553698,0.0,0.0,0.0,0.0,-0.004804292709243124,-1.014174994691279,-0.4231097039601766,-0.5950856543453814,-0.0057684567320023545,0.00025087001470644276,-0.008685572156499233
3149,0.0,299.54627,6627.0884,-0.03149000714023453,0.0,0.0,0.0,0.0,-0.004805820327128868,-1.0225787896956688,-0.41868339182583364,-0.5732071832836444,0.008015771790520083,0.00015764667892851587,-0.005672294940536925
3150,0.0,300.16717,6767.6011,-0.03149998377970198,0.0,0.0,0.0,0.0,-0.004807342903371398,-1.031841314159809,-0.4476875644808226,-0.5776529194224045,-0.004220474936153446,0.007720523782306373,-0.008131726713413943
3151,0.0,300.84952999999996,6768.8319,-0.03150999345439953,0.0,0.0,0.0,0.0,-0.004808870521257141,-1.047358732816259,-0.4391082036316056,-0.5710889940820955,-0.0026100915249459775,0.002738896586933047,-0.007544548584438974
3152,0.0,300.65144,6709.5881,-0.03152000312909686,0.0,0.0,0.0,0.0,-0.004810398139142857,-1.0127738724529989,-0.4526749030630346,-0.5740984482041055,-0.018251111697494483,0.018603947673816682,-0.022362497594756683
3153,0.0,300.89727999999997,6760.6233,-0.031530012803794416,0.0,0.0,0.0,0.0,-0.004811925757028573,-1.036768242771059,-0.4547426830721086,-0.5635497749905324,-0.008053026260921812,0.0013364233822947187,-0.024974728293313774
3154,0.0,300.25334,6814.8668,-0.03153998944326186,0.0,0.0,0.0,0.0,-0.004813448333271131,-1.048480805976999,-0.4389024631988006,-0.5841661011977054,0.00043516931545786757,0.010738160101523888,-0.017285884585983985
3155,0.0,300.15845,6854.0097,-0.031549999117959304,0.0,0.0,0.0,0.0,-0.004814975951156847,-1.058673088732899,-0.4440580114301136,-0.5807167344122794,-0.003562323906573997,-0.012572186352278187,-0.0024236908954746676
3156,0.0,300.16625,6790.7525,-0.031560008792656746,0.0,0.0,0.0,0.0,-0.004816503569042563,-1.032812210405629,-0.43122036571063654,-0.6001866187938074,0.006814989058037054,-0.005090100583503815,0.007113500238197813
3157,0.0,300.01399,6775.3299,-0.0315699854321243,0.0,0.0,0.0,0.0,-0.00481802614528512,-1.033447720868349,-0.43489540355833456,-0.5911879243907054,-0.001971105817032998,-0.007560137031927432,0.001101367698921529
3158,0.0,299.5646,6810.727,-0.031579995106821634,0.0,0.0,0.0,0.0,-0.004819553763170836,-1.021677199756689,-0.4544287579261265,-0.5941850168614954,-0.0005285214353235045,-0.003970711927578757,-0.016710522675700182
3159,0.0,299.90438,6769.5466,-0.03159000478151908,0.0,0.0,0.0,0.0,-0.004821081381056552,-1.0425726459689089,-0.43507626870118454,-0.5801242769463084,-0.005196898866568984,0.0025606689340933477,-0.004907319992664776
3160,0.0,299.91846,6754.7836,-0.03160001445621652,0.0,0.0,0.0,0.0,-0.004822608998942268,-1.038182638585649,-0.44332286808506055,-0.5717800509152975,-0.0006110997682008514,0.004294969286155466,-0.014935229466992385
3161,0.0,300.77645,6843.5939,-0.031609991095683965,0.0,0.0,0.0,0.0,-0.004824131575184826,-1.044350291944349,-0.4547849153362766,-0.5811464132496854,0.014796905629590885,-0.009450822303098542,-0.0067719088048603625
3162,0.0,300.20858,6778.5481,-0.03162000077038152,0.0,0.0,0.0,0.0,-0.004825659193070542,-1.035364587407529,-0.4582503117382845,-0.5668944426431255,0.0034159558766285966,-0.002129579652548148,-0.014375317594233385
3163,0.0,300.42954,6794.7154,-0.03163001044507885,0.0,0.0,0.0,0.0,-0.004827186810956258,-1.0365764345271289,-0.4503276281463766,-0.5785198156779604,-0.001018906264708219,-0.0052878143529916455,-0.011302760282495591
3164,0.0,300.54344,6913.0414,-0.03163998708454652,0.0,0.0,0.0,0.0,-0.004828709387198815,-1.031472997748459,-0.4674022703515126,-0.6025166583262644,-0.007069421933672623,0.008817534201822873,-0.025121772161075875
3165,0.0,300.42642,6898.5127,-0.03164999675924385,0.0,0.0,0.0,0.0,-0.004830237005084531,-1.042545896166269,-0.46909533020860456,-0.5853344089605085,-0.017675237082660084,0.01725642839232688,-0.016399585604263085
3166,0.0,300.49298999999996,6823.1251,-0.0316600064339414,0.0,0.0,0.0,0.0,-0.004831764622970275,-1.044678990276789,-0.45164574493646453,-0.5777349825480035,-0.02350808322406718,0.01042884726999709,-0.023344383551161276
3167,0.0,300.40364,6717.4981,-0.03167001610863873,0.0,0.0,0.0,0.0,-0.004833292240855963,-1.043992715984059,-0.4214061468320486,-0.5765528236563334,-0.01244952128192209,-0.012778170978357288,0.004182756194555897
3168,0.0,299.31551,6712.5808,-0.03167999274810629,0.0,0.0,0.0,0.0,-0.004834814817098548,-1.033744907122679,-0.4381353518130926,-0.5685766911216504,0.002139073805985148,-0.016031746433710182,-0.0032421851056787573
3169,0.0,299.7446,6885.3296,-0.03169000242280373,0.0,0.0,0.0,0.0,-0.0048363424349842365,-1.043787026213759,-0.44804161433076456,-0.6011396109103605,0.01883153884502818,-0.016110459754478584,0.0018978466189028783
3170,0.0,300.08531,6929.9854,-0.03170001209750106,0.0,0.0,0.0,0.0,-0.0048378700528699525,-1.035142888285649,-0.47091496526818855,-0.6004847068407264,0.014621552567284883,-0.0035121298270952266,-0.01868103371492448
3171,0.0,300.27361,6822.1683,-0.03170998873696862,0.0,0.0,0.0,0.0,-0.00483939262911251,-1.056984406116239,-0.44637206187599254,-0.5704122950028104,0.015426660831742885,-0.007950526488755872,-0.01020773988617549
3172,0.0,299.9903,6868.9901,-0.03171999841166606,0.0,0.0,0.0,0.0,-0.004840920246998226,-1.053892169461059,-0.45304684690974256,-0.5810624958764035,-0.006656110023806914,0.000885065825951696,-0.014398016422973588
3173,0.0,299.71511,6939.9367,-0.031730008086363504,0.0,0.0,0.0,0.0,-0.00484244786488397,-1.052904959888629,-0.4677861097543946,-0.5888763868050744,-0.0024791574218487877,0.006514573372988333,-0.008332510630704773
3174,0.0,299.94415,6862.1571,-0.03173998472583095,0.0,0.0,0.0,0.0,-0.0048439704411264994,-1.041312466819539,-0.4424458393285045,-0.6021660636591635,-0.017770132007525485,-0.004103031042237636,-0.001158319548617239
3175,0.0,300.30929,6766.8389,-0.0317499944005285,0.0,0.0,0.0,0.0,-0.004845498059012243,-1.0236477685511691,-0.4366150308330486,-0.5966872177184435,-0.004584894286293836,-0.008635783579710482,-0.008358833247102612
3176,0.0,300.17496,6705.1064,-0.031760004075225834,0.0,0.0,0.0,0.0,-0.004847025676897931,-1.028586248213559,-0.42385885042161153,-0.5857398001930174,-0.01973994390418078,-0.003258204995059797,-0.006289682107993294
3177,0.0,300.4782,6783.2933,-0.03177001374992339,0.0,0.0,0.0,0.0,-0.004848553294783675,-1.043937797828639,-0.4348330380146796,-0.5831809789204815,0.009522988609670801,0.014315346360564685,-0.017080194815683982
3178,0.0,300.48692,6836.0186,-0.03177999038939083,0.0,0.0,0.0,0.0,-0.004850075871026205,-1.050888592189629,-0.4510950941696196,-0.5759952523913054,0.00015744435314854786,0.01217408646748879,-0.02030091664979448
3179,0.0,299.97776,6832.2442,-0.031790000064088386,0.0,0.0,0.0,0.0,-0.004851603488911949,-1.0576672353586292,-0.4304356237731886,-0.5887287663980054,0.020274075654645483,0.0024181452763523577,-0.002931089055300967
3180,0.0,300.21545,6827.5683,-0.03180000973878572,0.0,0.0,0.0,0.0,-0.004853131106797665,-1.038109785903459,-0.45196512136798456,-0.5853353614156025,0.0036556446460840365,-0.012867413994164887,-0.016924485633066682
3181,0.0,299.94712999999996,6842.8127,-0.031809986378253385,0.0,0.0,0.0,0.0,-0.004854653683040222,-1.028330098588279,-0.4551274951950866,-0.5965865918510125,0.004749461199960326,-0.003436759826356786,-0.007690176739161353
3182,0.0,299.84024,6942.7013,-0.031819996052950716,0.0,0.0,0.0,0.0,-0.004856181300925938,-1.035283426074519,-0.47038474162335947,-0.6047396682506584,-0.0037248880300928267,-0.012283667439303588,-0.026329208602990577
3183,0.0,300.0817,6872.9885,-0.03183000572764805,0.0,0.0,0.0,0.0,-0.004857708918811626,-1.055798498199199,-0.4454384937638566,-0.5879798529840934,-0.02037875148272618,-0.0025323456553730576,0.002016288665492198
3184,0.0,300.23143,6778.816,-0.0318400154023456,0.0,0.0,0.0,0.0,-0.00485923653669737,-1.0305574249580989,-0.43799023413377053,-0.5920431277401075,-0.017855430440693782,0.006222937094756074,-0.00969915490650706
3185,0.0,299.92969,6756.8033,-0.03184999204181305,0.0,0.0,0.0,0.0,-0.0048607591129399,-1.037980191215669,-0.43993250285295754,-0.5759867816204695,-0.016527815444168384,0.02004500615153808,0.0035133707544926967
3186,0.0,300.46903,6842.4796,-0.0318600017165106,0.0,0.0,0.0,0.0,-0.0048622867308256434,-1.019457776737649,-0.4569251832575046,-0.6035599816892324,0.0014370691094276785,0.026982964660261274,-0.02168203631785038
3187,0.0,300.9049,6859.7829,-0.03187001139120793,0.0,0.0,0.0,0.0,-0.004863814348711359,-1.048486277527539,-0.4408245885059996,-0.5958918265224444,-0.004470486697627686,0.0026586041158837975,0.005547584016903915
3188,0.0,300.72347,6839.1542,-0.03187998803067549,0.0,0.0,0.0,0.0,-0.004865336924953917,-1.051290143204259,-0.44853658700461463,-0.5791053830432514,0.0027697509644031373,-0.009785702677048662,-0.02086082953580358
3189,0.0,300.58943,6885.4339,-0.03188999770537282,0.0,0.0,0.0,0.0,-0.004866864542839633,-1.0626223323226591,-0.4453498647776095,-0.5850277589502445,0.002385722185077448,-0.016314001434566586,-0.008957815334442542
3190,0.0,300.03996,6869.0297,-0.03190000738007037,0.0,0.0,0.0,0.0,-0.004868392160725349,-1.050805505681429,-0.45165206761708854,-0.5855559054323685,0.011306500188614689,-0.015399688114080885,-0.030143058674638273
3191,0.0,300.11307,6920.7184,-0.03190998401953782,0.0,0.0,0.0,0.0,-0.004869914736967879,-1.052158903839999,-0.46552211386345554,-0.5860445452930935,-0.0026904615096278776,-0.013076220521772486,-0.011700704126769589
3192,0.0,299.98416000000003,6874.629,-0.03191999369423537,0.0,0.0,0.0,0.0,-0.004871442354853622,-1.052482535921939,-0.43419410276662157,-0.6030388772953034,0.0014990464769693687,-0.0008433483333645001,-0.003066988995813247
3193,0.0,299.87729,6844.4736,-0.0319300033689327,0.0,0.0,0.0,0.0,-0.004872969972739338,-1.036909185859969,-0.4555187515887006,-0.5881211000480334,-0.0039365146353787465,0.018368590953838783,-0.008410273320229353
3194,0.0,299.8176,6776.0653,-0.03194001304363003,0.0,0.0,0.0,0.0,-0.004874497590625054,-1.036471765791799,-0.4383562707323956,-0.5849265656627575,0.004537517042093066,0.011655688464576888,-0.0006785739972700394
3195,0.0,300.0539,6799.6599,-0.0319499896830977,0.0,0.0,0.0,0.0,-0.004876020166867612,-1.024404159750819,-0.4349792094741056,-0.6075434022048655,-0.009008357769305692,-0.0019277738725314681,-0.0008275809763058833
3196,0.0,299.71452,6865.1567,-0.03195999935779503,0.0,0.0,0.0,0.0,-0.004877547784753328,-1.045032209261649,-0.4382742785343036,-0.6035297767037515,-0.002944030994853237,-0.016583294940143784,-0.0004790906472775655
3197,0.0,299.72997999999995,6891.9414,-0.031970009032492586,0.0,0.0,0.0,0.0,-0.004879075402639044,-1.054094211530999,-0.4436573622080726,-0.5972265403491704,-0.007467929448977253,-0.009730000772676311,-0.008061297421488112
3198,0.0,300.0712,6916.7201,-0.03197998567196003,0.0,0.0,0.0,0.0,-0.004880597978881573,-1.059181537633079,-0.45142763271993863,-0.5919010700760874,0.0015782651055626386,-0.01130119683759129,-0.01683777371600888
3199,0.0,300.18689,6864.8427,-0.031989995346657585,0.0,0.0,0.0,0.0,-0.004882125596767317,-1.058651506505769,-0.4512918572065386,-0.5767973614354674,-0.010679163614451388,-0.009420042804810841,-0.01087358503038929
3200,0.0,300.86858,6873.5121,-0.032000005021354916,0.0,0.0,0.0,0.0,-0.004883653214653033,-1.051829901532529,-0.4540625288099826,-0.5834835556653434,0.0073128394634960625,-0.002166805245322028,-0.02103866202110428
3201,0.0,300.83842999999996,6943.8491,-0.03201001469605247,0.0,0.0,0.0,0.0,-0.004885180832538777,-1.0686879513962888,-0.4588389695163806,-0.5832297770452974,0.013497079017057989,0.007995098651379803,-0.015311763336653387
3202,0.0,300.58917,6973.6408,-0.032019991335519804,0.0,0.0,0.0,0.0,-0.004886703408781307,-1.0530548195784188,-0.46252872988803156,-0.6042291219227715,0.02033543706745138,0.006682648259826034,-0.009948077525448809
3203,0.0,300.29154,6861.2139,-0.03203000101021736,0.0,0.0,0.0,0.0,-0.00488823102666705,-1.041354212723659,-0.44592927158229256,-0.5983541965179614,-0.00991891091867029,-0.0021961583914439577,0.008089719289443133
3204,0.0,299.94704,6846.637,-0.0320400106849148,0.0,0.0,0.0,0.0,-0.0048897586445527386,-1.035818219477299,-0.4573427030937106,-0.5880457649030985,-0.0060132529912368645,-0.00988784862227968,-0.00951903967005607
3205,0.0,299.69449,6960.8307,-0.032049987324382134,0.0,0.0,0.0,0.0,-0.004891281220795268,-1.074164973486829,-0.4411189680575526,-0.6006347691805365,-0.0021071221799817677,0.014364675428433088,-0.0006590872118768434
3206,0.0,299.98239,6949.7701,-0.03205999699907969,0.0,0.0,0.0,0.0,-0.004892808838681012,-1.048756815304239,-0.46412785132835255,-0.5996718978755085,-0.008093353108276764,0.002696736263522148,-0.013807478052691988
3207,0.0,300.24208,6836.1932,-0.03207000667377702,0.0,0.0,0.0,0.0,-0.004894336456566728,-1.0406847583825891,-0.4450413402546605,-0.5923058938885404,-0.0065949182290677534,-0.005150278621517925,-0.018950115451230782
3208,0.0,299.89125,6841.3436,-0.03208001634847457,0.0,0.0,0.0,0.0,-0.004895864074452472,-1.0402999259946089,-0.44542190685971955,-0.5938757729309755,-0.0015223203251413186,-0.02055732870685038,-0.001916295572748648
3209,0.0,300.16559,6942.2856,-0.03208999298794202,0.0,0.0,0.0,0.0,-0.0048973866506950015,-1.058964702111679,-0.4596025750567425,-0.5917141659626414,0.027557552447468676,0.0023204351374091175,-0.01972384336009178
3210,0.0,300.56243,7030.0411,-0.03210000266263957,0.0,0.0,0.0,0.0,-0.004898914268580745,-1.076179517335649,-0.4587547279030666,-0.6020226786375125,0.013178755352391887,-0.003736217078135916,-0.008647732939464792
3211,0.0,300.92894,7039.187,-0.0321100123373369,0.0,0.0,0.0,0.0,-0.004900441886466433,-1.0763092133484489,-0.47787193032228753,-0.5855559560948734,0.002077127139921488,0.013310913562934885,-0.02102420294217728
3212,0.0,300.61872999999997,7030.9466,-0.03211998897680435,0.0,0.0,0.0,0.0,-0.004901964462708963,-1.0571609142836589,-0.4777812444383376,-0.6022900550739004,-0.011522143114646988,0.0030588858321135273,-0.011820795541871688
3213,0.0,300.65099,7041.0714,-0.0321299986515019,0.0,0.0,0.0,0.0,-0.004903492080594707,-1.061662683152949,-0.4712184539381405,-0.6074287833535534,-0.0034413530917101064,0.012152437365852189,-0.021144231535773182
3214,0.0,300.04096,6891.0787,-0.032140008326199454,0.0,0.0,0.0,0.0,-0.004905019698480451,-1.0426708299035992,-0.4461892107629466,-0.6058557835008105,-0.0060376624901208945,-0.004328596625174226,0.004465821896817305
3215,0.0,299.39598,6755.6485,-0.03214998496566668,0.0,0.0,0.0,0.0,-0.004906542274722953,-1.031440877720289,-0.43457889462459753,-0.5875286729795655,-0.012858553122040386,-0.01054004640222159,0.002083729882873128
3216,0.0,299.37807999999995,6679.5841,-0.03215999464036423,0.0,0.0,0.0,0.0,-0.004908069892608696,-1.0312825067296592,-0.4275711860054906,-0.5715730743173705,-0.011005508166909091,0.011041299200191389,0.003489407896252747
3217,0.0,299.84666,6804.9006,-0.032170004315061784,0.0,0.0,0.0,0.0,-0.00490959751049444,-1.062898341649899,-0.4374148296669826,-0.5682067129801365,-0.003714001772343437,0.029297251193413573,-0.007665340560660212
3218,0.0,299.7446,6943.4014,-0.032180013989759115,0.0,0.0,0.0,0.0,-0.004911125128380128,-1.068391981042079,-0.44611751318587056,-0.5961111850365934,0.0026618315201023175,0.018903797762659585,-0.02505830521456218
3219,0.0,299.41647,6928.5361,-0.03218999062922667,0.0,0.0,0.0,0.0,-0.004912647704622686,-1.062643813224779,-0.45003283316228254,-0.5934253123340184,-0.016319475011606785,0.016124298724344382,-0.02213282824759008
3220,0.0,300.19289,7016.6243,-0.032200000303924003,0.0,0.0,0.0,0.0,-0.004914175322508402,-1.054665583262389,-0.4652814163022005,-0.6129315723941364,0.009322463375130501,-0.003494940241798747,-0.02083468666997348
3221,0.0,300.60897,7116.0619,-0.03221000997862156,0.0,0.0,0.0,0.0,-0.0049157029403941455,-1.0767061034126189,-0.4591752165620656,-0.6272238196921714,0.0014369087119368486,0.003048147610203747,0.002132332754394858
3222,0.0,300.56002,7057.8979,-0.03221998661808878,0.0,0.0,0.0,0.0,-0.004917225516636647,-1.0918155875788091,-0.4517523287144836,-0.6018567791986394,0.016345412187666587,-0.01037590697877229,-0.01004319181896086
3223,0.0,300.21147,6883.6676,-0.032229996292786334,0.0,0.0,0.0,0.0,-0.004918753134522391,-1.0602901345674889,-0.44363231466560055,-0.5885405754569324,0.01014650512963209,-0.014452335747584488,0.00017328566733196385
3224,0.0,299.65002999999996,6819.6002,-0.03224000596748389,0.0,0.0,0.0,0.0,-0.004920280752408107,-1.043140876624989,-0.4469945014124226,-0.5828527568155885,0.0011329847497418889,0.0016757551665841585,-0.004553118155207776
3225,0.0,299.26557,6940.8597,-0.03225001564218144,0.0,0.0,0.0,0.0,-0.004921808370293851,-1.045287649611859,-0.4559692628481626,-0.6085911129407664,-0.002076287054263578,0.022464998988122778,-0.019762436029900583
3226,0.0,299.22696,7001.1365,-0.032259992281648664,0.0,0.0,0.0,0.0,-0.004923330946536353,-1.060738801711769,-0.4592434488237996,-0.6081884676160284,-0.0030532406105063872,-0.004393765831855926,-0.004718757290130085
3227,0.0,299.37332000000004,6893.6088,-0.03227000195634622,0.0,0.0,0.0,0.0,-0.004924858564422097,-1.046731936304399,-0.45337478530460756,-0.5953781796492514,-0.017512124081562084,0.0013724492869501988,-0.010823921589987889
3228,0.0,299.20081,6878.8009999999995,-0.03228001163104377,0.0,0.0,0.0,0.0,-0.00492638618230784,-1.061239043286139,-0.4473994265498855,-0.5823452907680055,-0.007493383304739353,-0.0016305714061998684,-0.002179888533263248
3229,0.0,300.16885,7049.6726,-0.032289988270511216,0.0,0.0,0.0,0.0,-0.00492790875855037,-1.077278083094069,-0.46884128814353254,-0.5968050992350775,-0.010920220879491889,0.014938954174359987,-0.027525419247047374
3230,0.0,300.40629,7052.3745,-0.03229999794520855,0.0,0.0,0.0,0.0,-0.004929436376436086,-1.084121168969429,-0.45431739160763557,-0.6053072098966704,-0.0029836890971421874,0.007167461784198403,-0.018670984300432684
3231,0.0,300.31779,7018.8639,-0.0323100076199061,0.0,0.0,0.0,0.0,-0.004930963994321802,-1.0726930250665592,-0.4451406286319596,-0.6157257615324014,0.0011709734211660789,-0.0016200669410881584,-0.017006822336192683
3232,0.0,299.75367,6830.3093,-0.032319984259373546,0.0,0.0,0.0,0.0,-0.0049324865705643595,-1.047716916726609,-0.44317157971262955,-0.5853549982025404,0.017833626311791882,-0.007958225568315713,-0.00952918007440685
3233,0.0,300.17114,6863.4987,-0.03232999393407088,0.0,0.0,0.0,0.0,-0.004934014188450048,-1.051147274940159,-0.44164231173420254,-0.5935425960330935,0.023225147319143578,-0.005772153878967234,0.004882581491473276
3234,0.0,299.75088,6983.607,-0.03234000360876843,0.0,0.0,0.0,0.0,-0.004935541806335791,-1.079637334626909,-0.4477808442850286,-0.5954239684212704,0.02357134752056088,-0.02235307132907638,-0.0015454788654518886
3235,0.0,299.4942,6948.1149,-0.032350013283465984,0.0,0.0,0.0,0.0,-0.004937069424221535,-1.076078496300679,-0.4520111533200276,-0.5839637652852364,0.006122577914751394,-0.028776231912492973,-0.0018820220841411182
3236,0.0,300.34623,6943.1942,-0.03235998992293332,0.0,0.0,0.0,0.0,-0.004938592000464065,-1.059570119046429,-0.4554801670248926,-0.5955073893020034,-0.011288415700829888,-0.016851196240083587,-0.008714662364220211
3237,0.0,300.2004,6991.7379,-0.03236999959763076,0.0,0.0,0.0,0.0,-0.004940119618349781,-1.0582407349152292,-0.4610838859079366,-0.6059891170814694,-0.015130542543018285,0.022603003651742778,-0.013800220142225685
3238,0.0,300.34365,7106.4158,-0.032380009272328425,0.0,0.0,0.0,0.0,-0.004941647236235525,-1.063684927702529,-0.4721498435625615,-0.6243382049973835,-0.02082213148798438,0.016824379562936986,-0.014543109784293184
3239,0.0,300.02092000000005,7018.8359,-0.03238998591179565,0.0,0.0,0.0,0.0,-0.004943169812478054,-1.089468495047169,-0.4425390076751996,-0.6015433404127054,-0.0067431205456691835,0.017742311199529782,0.0013904713585288387
3240,0.0,299.55646,6932.9779,-0.0323999955864932,0.0,0.0,0.0,0.0,-0.00494469743036377,-1.070436922393899,-0.44840551297167863,-0.5886097196437564,0.0005444909763070755,0.006809166922962453,-0.009109207362358773
3241,0.0,299.12116000000003,6894.3949,-0.03241000526119053,0.0,0.0,0.0,0.0,-0.004946225048249486,-1.067816657635299,-0.44242593909654054,-0.5854812390324995,0.025951026175416878,0.02259620879657218,-0.02040150806672208
3242,0.0,299.68005,6961.3651,-0.032420014935888086,0.0,0.0,0.0,0.0,-0.00494775266613523,-1.057417874509019,-0.45764994078903254,-0.6010133498153994,0.012997695665522686,-0.009406989509072582,-0.01779790823251678
3243,0.0,299.60562000000004,6996.5426,-0.03242999157535553,0.0,0.0,0.0,0.0,-0.00494927524237776,-1.0597315297873589,-0.45875415035050954,-0.6082885969909104,0.007455607010536123,-0.014303772004672385,-0.015445352256337586
3244,0.0,300.09172,6953.0645,-0.03244000125005286,0.0,0.0,0.0,0.0,-0.004950802860263476,-1.049341764586969,-0.4485130796022946,-0.6157031153926664,-0.004822137880607956,-0.01135371865652479,-0.003265698688824367
3245,0.0,300.01317,6910.5352,-0.03245001092475064,0.0,0.0,0.0,0.0,-0.0049523304781492195,-1.055415388336389,-0.46247140019737354,-0.5827433967322954,0.012732045807305088,0.0012254290279154288,-0.014833356288688287
3246,0.0,300.46774,7017.7985,-0.03245998756421786,0.0,0.0,0.0,0.0,-0.004953853054391749,-1.0768661969284188,-0.4563433953150866,-0.6000259477254505,-0.004218217921555696,-0.008821818324570681,0.0012036224672132888
3247,0.0,300.56699,7120.4988,-0.032469997238915416,0.0,0.0,0.0,0.0,-0.004955380672277465,-1.078093040149499,-0.4735610172418335,-0.6127997384236255,-1.3721577748964287e-05,-0.019336731159386784,-0.012213319511360789
3248,0.0,300.2753,7066.5445,-0.03248000691361297,0.0,0.0,0.0,0.0,-0.004956908290163209,-1.072637498961079,-0.4683758010475925,-0.6070398169051654,0.002173549640637648,-0.003602863232474916,-0.012520137721141387
3249,0.0,300.21459,7057.7447,-0.032489983553080304,0.0,0.0,0.0,0.0,-0.004958430866405739,-1.057635014005449,-0.4617287385365786,-0.6260144347703144,-0.0002918121075221127,0.02387420898870098,-0.02045971117896628
3250,0.0,299.90597,7105.0794,-0.032499993227777746,0.0,0.0,0.0,0.0,-0.004959958484291455,-1.0799970384124091,-0.47059106974122256,-0.6091786054812474,-0.004082358713697436,0.01958149185354278,-0.014623326768209986
3251,0.0,300.21667,7022.626,-0.0325100029024753,0.0,0.0,0.0,0.0,-0.004961486102177198,-1.092329001404479,-0.44488239171147353,-0.5974915255153224,-0.021528934227740378,0.006313510811920005,-0.0004118814641695356
3252,0.0,300.16142,6973.3017,-0.03252001257717274,0.0,0.0,0.0,0.0,-0.004963013720062914,-1.0880946292365792,-0.4445380791949926,-0.5870769052899795,-0.021615576230541278,0.01043420128352549,-0.002579530280729818
3253,0.0,299.58049,6948.4113,-0.03252998921664019,0.0,0.0,0.0,0.0,-0.004964536296305472,-1.068793430731699,-0.4627050759354356,-0.5806450368352035,0.001880059823997458,-0.0027455138193611174,-0.015211127336721387
3254,0.0,299.34154,6985.77,-0.03253999889133752,0.0,0.0,0.0,0.0,-0.00496606391419116,-1.074575339777329,-0.45882887754538454,-0.5900953976028814,0.0023593865990783275,-0.01160427514125279,-0.0062109874310267345
3255,0.0,298.99507,7064.991999999999,-0.03255000856603507,0.0,0.0,0.0,0.0,-0.004967591532076904,-1.064623197295129,-0.4740099478311396,-0.6089479593609844,0.016826775899423486,-0.027665331860605675,-0.009236593671555821
3256,0.0,299.30816,7085.7485,-0.03255998520550252,0.0,0.0,0.0,0.0,-0.0049691141083194335,-1.0819375136789189,-0.4559248014337745,-0.6160283382772633,0.01840278915796388,-0.0065568296511837034,-0.0008558875161345212
3257,0.0,299.00991,6992.656,-0.03256999488019985,0.0,0.0,0.0,0.0,-0.0049706417262051494,-1.067146291369139,-0.46247786473301156,-0.5959686612775275,0.014945575763763486,0.008047923837393242,-0.013401077623083388
3258,0.0,298.97285,6915.0416,-0.0325800045548974,0.0,0.0,0.0,0.0,-0.004972169344090893,-1.057946993711239,-0.45137170131441856,-0.5926813435805944,-0.007758065509111453,-0.0009541747618047172,-0.014554881723954987
3259,0.0,299.45331,7088.581,-0.032590014229594955,0.0,0.0,0.0,0.0,-0.004973696961976609,-1.0755572804492388,-0.4644526790454106,-0.6147416829027804,-0.013572610732512385,-0.005445613566590214,-0.017306210382989986
3260,0.0,300.47225,7113.2939,-0.0325999908690624,0.0,0.0,0.0,0.0,-0.004975219538219167,-1.0832896959373688,-0.4686394588561135,-0.6103345414603295,-0.017105517962183184,0.004377492325974856,-0.02096977621305578
3261,0.0,299.74732,6888.1638,-0.03261000054375973,0.0,0.0,0.0,0.0,-0.004976747156104855,-1.051791702003759,-0.4524255726109276,-0.5896125332677264,-0.0002708670019224918,0.004320141255739746,-0.025444296760656578
3262,0.0,300.19768,6876.0244,-0.032620010218457285,0.0,0.0,0.0,0.0,-0.004978274773990599,-1.0633266424671688,-0.4462210065510846,-0.5805920843849774,-0.008402549517367072,0.0016444880923483386,-0.022477528838859378
3263,0.0,299.72452999999996,6991.7734,-0.03262998685792473,0.0,0.0,0.0,0.0,-0.004979797350233128,-1.080064115569029,-0.4520320870670935,-0.5932283365145785,0.001028579054137849,-0.005633389885722295,-0.004396903158140556
3264,0.0,300.31511,7071.2576,-0.032639996532622284,0.0,0.0,0.0,0.0,-0.004981324968118872,-1.0893555176610188,-0.4601197176427806,-0.6000104753964234,0.008173408782777643,0.014833389725941585,-0.00962765997945106
3265,0.0,300.22425,7076.9013,-0.032650006207319615,0.0,0.0,0.0,0.0,-0.004982852586004588,-1.080378324425039,-0.4674088362121605,-0.6034141547348404,0.015272601220288385,0.005302019207468555,0.0036373632838048067
3266,0.0,300.06882,7028.9133,-0.03266001588201717,0.0,0.0,0.0,0.0,-0.004984380203890304,-1.064240290082339,-0.4702846223809785,-0.6020892491690825,-0.003970595707792286,-0.019955987064002582,-0.013560354459302789
3267,0.0,299.0353,6993.2124,-0.0326699925214845,0.0,0.0,0.0,0.0,-0.0049859027801328615,-1.071526672876449,-0.4495923936088146,-0.6046428826011064,-0.011130151101460388,-0.030559805401017975,-0.002158678979520028
3268,0.0,300.16677999999996,7215.6874,-0.032680002196181945,0.0,0.0,0.0,0.0,-0.00498743039801855,-1.105526279981949,-0.4565956337949805,-0.6312669307711954,-0.00996864974487913,-0.01128788475777749,-0.01131861865981069
3269,0.0,299.63555,7228.275,-0.0326900118708795,0.0,0.0,0.0,0.0,-0.0049889580159042934,-1.111584907629889,-0.4667712181892326,-0.6188589740216254,0.004443043629269266,0.006145907187703813,-0.0007584764784883002
3270,0.0,299.69466,6956.3707,-0.032699988510346834,0.0,0.0,0.0,0.0,-0.004990480592146823,-1.0729360024405388,-0.44362666073004253,-0.5980002682580314,-0.0027906694113926274,0.016518121680461684,-0.006454604165819834
3271,0.0,299.84607,6918.3058,-0.03270999818504439,0.0,0.0,0.0,0.0,-0.004992008210032567,-1.071809876279399,-0.45625684349154455,-0.5749254832007274,0.0014420157964158786,0.005768727573754084,-0.0074091092674221535
3272,0.0,300.44385,7115.4965,-0.03272000785974172,0.0,0.0,0.0,0.0,-0.004993535827918283,-1.077741037064759,-0.4616834563896095,-0.6235087382005214,0.016417482640779385,0.008479817031567782,-0.004926630513070575
3273,0.0,299.83243,7119.605,-0.032729984499209386,0.0,0.0,0.0,0.0,-0.00499505840416084,-1.0895538107055889,-0.4653957007809795,-0.6092326826390844,0.017472074358109484,0.017691876675802284,-0.02069765675294968
3274,0.0,300.15795,6961.9277,-0.03273999417390672,0.0,0.0,0.0,0.0,-0.004996586022046556,-1.072909759262949,-0.45416055062465654,-0.5891818614452224,-0.01016968525216979,-0.007837297613931052,-0.012525014493872687
3275,0.0,299.90533999999997,6892.6384,-0.03275000384860427,0.0,0.0,0.0,0.0,-0.004998113639932272,-1.058100197126359,-0.45202375815127155,-0.5850659686115155,-0.02280242849667448,-0.01879924352459088,-0.027225920755989178
3276,0.0,300.23938,7183.2469,-0.0327600135233016,0.0,0.0,0.0,0.0,-0.004999641257817988,-1.094846117302899,-0.4721839495609276,-0.6164976047960764,-0.01922168775628288,-0.005910328464629005,0.0004762222578344775
3277,0.0,300.73579,7411.3623,-0.03276999016276927,0.0,0.0,0.0,0.0,-0.005001163834060546,-1.104974160002459,-0.5014143606982445,-0.6464805466501624,0.0035006400775862766,0.009188094860819361,-0.025767766722580576
3278,0.0,300.23523,7213.3217,-0.0327799998374666,0.0,0.0,0.0,0.0,-0.005002691451946262,-1.088824574608619,-0.4721647788690355,-0.6316803165469934,0.0014430600519689386,0.007947633862370391,0.004066033633386277
3279,0.0,300.13424,6941.1335,-0.03279000951216393,0.0,0.0,0.0,0.0,-0.005004219069831978,-1.0678881930923592,-0.4472685652994706,-0.5947744953721724,0.010039662466212542,-0.005343712422583354,-0.013030523955512588
3280,0.0,300.0721,6976.7824,-0.0327999861516316,0.0,0.0,0.0,0.0,-0.005005741646074535,-1.084079321740299,-0.4457357610781945,-0.5909525362599745,0.006163192525134744,-0.0005082928900621025,0.0034666620527079063
3281,0.0,299.48533,7154.0308,-0.03280999582632893,0.0,0.0,0.0,0.0,-0.005007269263960251,-1.104444128875149,-0.4559693033781666,-0.6142333251951093,0.01182517176905359,0.026500136802109872,-0.017567813320308184
3282,0.0,299.32734,7212.2691,-0.032820005501026484,0.0,0.0,0.0,0.0,-0.005008796881845967,-1.098912695254239,-0.4864784462741845,-0.6069585745121474,-0.0027415007410150575,0.003485334630850747,-0.011616948873503589
3283,0.0,299.57664,6894.7292,-0.032830015175723815,0.0,0.0,0.0,0.0,-0.005010324499731683,-1.068191357522279,-0.4321852533833636,-0.5954489247712335,-0.024392488441351178,-0.0077320234616663035,-0.01198660986773629
3284,0.0,300.26542,6912.7488,-0.03283999181519137,0.0,0.0,0.0,0.0,-0.005011847075974241,-1.046850790541129,-0.4570586384281756,-0.5973935746281555,-0.020201320244465082,-0.005711583206539374,-0.012231720133176789
3285,0.0,300.33917,7146.7742,-0.032850001489888814,0.0,0.0,0.0,0.0,-0.005013374693859957,-1.101947075328709,-0.4615637408902945,-0.6089301160267234,0.007172737777469103,-0.003986927678204126,-0.005634518545008684
3286,0.0,300.17161,7364.8657,-0.032860011164586256,0.0,0.0,0.0,0.0,-0.0050149023117457,-1.1131159285309888,-0.47419528140693057,-0.6514241026955534,0.015136928045148485,-0.001853574479633558,0.0025154883147843676
3287,0.0,299.98508,7267.9751,-0.0328699878040537,0.0,0.0,0.0,0.0,-0.00501642488798823,-1.116144431754879,-0.48596304647831856,-0.6071755214910584,0.014771012023285386,0.001178495080633409,-0.0006964267446244683
3288,0.0,300.12542,7023.7177,-0.032879997478751255,0.0,0.0,0.0,0.0,-0.005017952505873974,-1.082489836308429,-0.4411437622874996,-0.6114011797080985,0.023799872908364578,0.007728468068390414,-0.0029033289409862574
3289,0.0,299.80197000000004,6928.0332,-0.032890007153448586,0.0,0.0,0.0,0.0,-0.005019480123759662,-1.062758006511049,-0.4512944105967906,-0.5918967131006575,0.01960394648900888,0.016523825265274586,-0.014055949268714186
3290,0.0,300.03381,7082.4747,-0.032899983792916254,0.0,0.0,0.0,0.0,-0.0050210027000022195,-1.076625955329709,-0.4580789103513686,-0.6181905835931604,-0.007371468850057333,-0.002568897538155448,-0.008570895448606522
3291,0.0,299.80387,7175.786,-0.032909993467613585,0.0,0.0,0.0,0.0,-0.0050225303178879355,-1.101002320935469,-0.46507404453673457,-0.6151834194163764,-0.018615315326688583,-0.008073587537251053,-0.012565150343583789
3292,0.0,299.90963999999997,7045.0598,-0.032920003142310916,0.0,0.0,0.0,0.0,-0.0050240579357736515,-1.084274372384549,-0.4572003110571576,-0.6000476008800874,-0.013897949127620787,0.002408189587494808,-0.015519080386613983
3293,0.0,300.34927999999996,6950.4890000000005,-0.03293001281700847,0.0,0.0,0.0,0.0,-0.005025585553659395,-1.074445238464489,-0.4573415074585926,-0.5809883664990875,-0.0002709882778269607,0.007360672670241833,-0.03153069252758707
3294,0.0,299.97654,7054.3975,-0.032939989456475915,0.0,0.0,0.0,0.0,-0.005027108129901925,-1.081932954053469,-0.4649482495368195,-0.5974794678391324,0.0006493541543312653,-0.008411037513454773,-0.018048849752282783
3295,0.0,299.818,7281.1507,-0.03294999913117347,0.0,0.0,0.0,0.0,-0.005028635747787669,-1.098873381150359,-0.4785449107737056,-0.6358697004104534,0.006949295460117063,-0.016662847231994984,-0.017048833711838882
3296,0.0,299.25549,7254.9864,-0.0329600088058708,0.0,0.0,0.0,0.0,-0.005030163365673357,-1.095563903673739,-0.4710860626800745,-0.6386847422357764,0.01977897835103318,-0.0006740243320685224,-0.0023897458012245476
3297,0.0,299.54152,7047.618,-0.03296998544533836,0.0,0.0,0.0,0.0,-0.005031685941915914,-1.0789643339104888,-0.45452536119066056,-0.6088101877448874,0.01957262895491808,0.016753196716911785,-0.005793074048481895
3298,0.0,299.2992,7024.6156,-0.0329799951200358,0.0,0.0,0.0,0.0,-0.00503321355980163,-1.0721025029082791,-0.45840066792062356,-0.6048045162570584,0.008570904973157462,-0.017514154634762483,-0.006077355346888275
3299,0.0,299.81056,7191.3811,-0.03299000479473324,0.0,0.0,0.0,0.0,-0.005034741177687374,-1.115965897087259,-0.4677651152123225,-0.6022693341093555,-0.014227689081163586,-0.024504646108170276,0.008469335263258312
3300,0.0,299.61066,7269.84,-0.03300001446943068,0.0,0.0,0.0,0.0,-0.00503626879557309,-1.109043372404059,-0.46940766455192956,-0.6313987748742074,-0.001882066059195458,-0.0029563877824727576,-0.011976775262265687
3301,0.0,300.09385,7142.2369,-0.03300999110889824,0.0,0.0,0.0,0.0,-0.0050377913718156475,-1.098581463796549,-0.4555521381794956,-0.6169280841010615,0.0006212970462797445,0.020393010951383482,0.003147143563523887
3302,0.0,299.93197999999995,6966.9022,-0.03302000078359557,0.0,0.0,0.0,0.0,-0.0050393189897013635,-1.063920609675789,-0.4507842797014446,-0.6030594260073314,-0.010476730429972792,0.016829036460396584,-0.020489448042901082
3303,0.0,300.07268,7090.228,-0.03303001045829301,0.0,0.0,0.0,0.0,-0.005040846607587052,-1.080332424195509,-0.4660671714897486,-0.6088526733215804,-0.0007751829360045994,0.0055634318564179745,-0.0012225676096330289
3304,0.0,300.36983,7257.6926,-0.03303998709776057,0.0,0.0,0.0,0.0,-0.005042369183829609,-1.108477168248179,-0.4806544772169036,-0.6170256702181924,0.008981172674422732,0.015308227093804383,-0.017156780311242383
3305,0.0,299.94049,7187.8854,-0.0330499967724579,0.0,0.0,0.0,0.0,-0.005043896801715325,-1.102860418968849,-0.47295753561477455,-0.6091197255179365,0.015668775929887784,0.016165608930921383,-0.007344502110570923
3306,0.0,299.74582000000004,6976.1101,-0.033060006447155454,0.0,0.0,0.0,0.0,-0.005045424419601069,-1.0696254103888092,-0.45882239274474457,-0.5921155041947505,0.0003968844304994436,-0.026492425968848873,-0.017150302603353085
3307,0.0,299.66766,7017.0832,-0.033070016121852785,0.0,0.0,0.0,0.0,-0.005046952037486785,-1.063369502946399,-0.4672656335755276,-0.6023829802405715,-0.008869260416777852,-0.03297095763048017,-0.008042978872930212
3308,0.0,299.75633999999997,7211.2224,-0.033079992761320454,0.0,0.0,0.0,0.0,-0.005048474613729342,-1.095237130516489,-0.4649862768130726,-0.6318081279146074,-0.008076741886137362,-0.0035993896084820965,-0.00041189226541560157
3309,0.0,299.37639,7265.7818,-0.033090002436017785,0.0,0.0,0.0,0.0,-0.005050002231615031,-1.1028057034634489,-0.47697176906594857,-0.6288387579665534,0.007987054864135942,0.021229519836440478,-0.027480857520899474
3310,0.0,299.88649,7152.0531,-0.03310001211071534,0.0,0.0,0.0,0.0,-0.005051529849500774,-1.090612353085059,-0.47487511142902455,-0.6085580911200074,-0.006130910376948745,0.007510948805822932,-7.730721131312772e-05
3311,0.0,299.33474,7003.4922,-0.033109988750182784,0.0,0.0,0.0,0.0,-0.005053052425743304,-1.0946406301826188,-0.4480841607024636,-0.5861619708471825,0.004841736164042156,0.0002576816391661977,-0.01922398074125918
3312,0.0,299.61451,7159.6233,-0.03311999842488034,0.0,0.0,0.0,0.0,-0.005054580043629048,-1.091302984353219,-0.4673084231272505,-0.6177353607207334,0.0035049366633103166,0.007196172428431924,0.007122863885021933
3313,0.0,300.21637999999996,7312.1515,-0.03313000809957767,0.0,0.0,0.0,0.0,-0.005056107661514764,-1.1227737218591387,-0.4650041606773376,-0.6349335383780614,0.008993158004555591,0.010722072729686189,-0.01192463239886959
3314,0.0,300.5955,7252.0938,-0.033139984739045,0.0,0.0,0.0,0.0,-0.0050576302377572935,-1.101661440125519,-0.4621234805105366,-0.6406705199142574,-0.004832046149360825,-0.015662403600008885,0.002103544495203678
3315,0.0,300.75231,7157.6012,-0.033149994413742556,0.0,0.0,0.0,0.0,-0.005059157855643037,-1.0932020176906387,-0.47505726339950155,-0.6074727989378974,-0.02296849410856388,-0.015894566555671587,-0.012625259379266089
3316,0.0,300.5665,7175.1582,-0.03316000408844,0.0,0.0,0.0,0.0,-0.0050606854735287254,-1.0980037085895291,-0.4684342858433646,-0.6146308941368464,-0.0036892132165969966,0.008852296786253672,-0.00013961078661851184
3317,0.0,299.76817,7308.8691,-0.03317001376313755,0.0,0.0,0.0,0.0,-0.005062213091414469,-1.1414149905738888,-0.47685418139184355,-0.6034445725028424,-0.010931622982867189,0.023417211915348877,-0.00984768987311632
3318,0.0,299.94229,7356.0619,-0.033179990402604886,0.0,0.0,0.0,0.0,-0.005063735667656999,-1.111973894343279,-0.47962600810040157,-0.6444592646881774,0.008377053105100772,-0.0034380862720626965,-0.009297006986243151
3319,0.0,300.19322,7116.7573,-0.03319000007730244,0.0,0.0,0.0,0.0,-0.005065263285542743,-1.083851036492769,-0.4547367251615206,-0.6247287622484283,-0.002286172490577658,-0.018865978202677082,-0.003719894125649966
3320,0.0,299.90619,7015.0353,-0.03320000975199977,0.0,0.0,0.0,0.0,-0.005066790903428459,-1.0530808601059891,-0.46188492090699257,-0.6174298151530784,0.014398373087008788,-0.00019124153314906982,-0.01313285410961179
3321,0.0,300.54686,7238.3708,-0.03320998639146722,0.0,0.0,0.0,0.0,-0.005068313479670988,-1.108276342078359,-0.4670367099804345,-0.6249708783598233,0.005114638967800565,0.001938369226177148,-0.010340084534736891
3322,0.0,300.59384,7381.8563,-0.03321999606616477,0.0,0.0,0.0,0.0,-0.005069841097556732,-1.120069154692219,-0.4864712015359695,-0.6373596137549964,-0.0070765262354237635,-0.007818091356960544,-0.006253178962540714
3323,0.0,301.04182000000003,7216.9455,-0.03323000574086232,0.0,0.0,0.0,0.0,-0.005071368715442448,-1.1110562950527187,-0.46306328011078757,-0.6196516193098534,-0.006250378947214375,-0.014105976465901487,-0.0020426927471980777
3324,0.0,300.4282,7080.0608,-0.033240015415559654,0.0,0.0,0.0,0.0,-0.005072896333328164,-1.073302089701669,-0.46920353518678354,-0.6096560590608684,0.007372761959834952,0.006860677315646133,-0.016456759254405685
3325,0.0,299.82867999999996,7164.0537,-0.0332499920550271,0.0,0.0,0.0,0.0,-0.005074418909570694,-1.0926168657578887,-0.47822600043723157,-0.6068506025814914,0.0025952690945331178,0.022907785228822378,-0.015074394301976884
3326,0.0,299.78846,7358.2752,-0.03326000172972465,0.0,0.0,0.0,0.0,-0.0050759465274564375,-1.112704042365339,-0.48562017277697955,-0.6384076892609334,-0.005914420069857814,0.0016825963272843285,-0.019123281919820982
3327,0.0,300.04434,7322.1406,-0.033270011404421984,0.0,0.0,0.0,0.0,-0.0050774741453421535,-1.107303621982359,-0.4827122260499876,-0.6357320301193664,0.002043301710508178,-0.00988471038406996,-0.013050198232704289
3328,0.0,299.75157,6994.062,-0.03327998804388943,0.0,0.0,0.0,0.0,-0.005078996721584683,-1.084260490858179,-0.4517834861550586,-0.5899762292586205,0.011669107948901289,0.006877257532332474,-0.011596347472470387
3329,0.0,300.45914,6958.8432,-0.03328999771858698,0.0,0.0,0.0,0.0,-0.005080524339470427,-1.0769846458651091,-0.44518553587639154,-0.5931443583462904,0.005932740138290864,-4.468072730589446e-05,-0.007923060520945192
3330,0.0,300.00121,7149.8411,-0.033300007393284536,0.0,0.0,0.0,0.0,-0.005082051957356143,-1.102135438522299,-0.4424457481359955,-0.6287920066069395,-0.006050650329902694,-0.014891577639434286,-0.0016847851501503486
3331,0.0,300.32138,7392.8718,-0.03330998403275176,0.0,0.0,0.0,0.0,-0.005083574533598673,-1.1192375803351489,-0.4776141797618496,-0.6503966569616524,-0.008652636968623782,-0.02283563776870198,0.00033275370384523365
3332,0.0,300.27975,7394.8094,-0.033319993707449314,0.0,0.0,0.0,0.0,-0.005085102151484389,-1.118865616223439,-0.48535944326124747,-0.6436123395920924,0.013715396923354288,0.0017755480411079485,-0.015725902970525785
3333,0.0,299.57088999999996,7248.87,-0.033330003382146756,0.0,0.0,0.0,0.0,-0.005086629769370132,-1.1011957503795589,-0.49199508644363454,-0.6102846084954014,0.003982934256910006,0.002449912186862508,-0.0020718199385477082
3334,0.0,299.28046,7158.2994,-0.03334001305684431,0.0,0.0,0.0,0.0,-0.005088157387255876,-1.108924416842319,-0.46223923420196056,-0.6047806035546984,0.007757015984657873,-0.005845978571978164,-0.014768240784261883
3335,0.0,299.80995,7321.9554,-0.03334998969631153,0.0,0.0,0.0,0.0,-0.005089679963498378,-1.120031259138479,-0.47243697837589954,-0.6332233647267804,-0.007345161837711034,-0.004616355195273785,0.007029027299885983
3336,0.0,299.90301,7277.5451,-0.03335999937100931,0.0,0.0,0.0,0.0,-0.0050912075813841495,-1.099898688926549,-0.4767724019762726,-0.6355209194610314,0.005170671090380505,0.0051176776035254555,-0.018858520681941084
3337,0.0,300.33731,7126.9974,-0.03337000904570664,0.0,0.0,0.0,0.0,-0.005092735199269838,-1.082207139530529,-0.4687842826929065,-0.6154377654564784,0.005093524659566744,0.01015493537046409,-0.008769535126035732
3338,0.0,299.97026,6995.5686,-0.033379985685174085,0.0,0.0,0.0,0.0,-0.005094257775512395,-1.0723629081839792,-0.4579081473120156,-0.5962071094235605,-0.01008141039683274,-0.003010702040833157,-0.03456324571212676
3339,0.0,300.33274,7120.6733,-0.03338999535987164,0.0,0.0,0.0,0.0,-0.005095785393398111,-1.106184791221939,-0.4598499904661606,-0.5984720881670965,0.007111379303088494,-0.008294807594483773,-0.00975862022440083
3340,0.0,300.13212999999996,7361.0601,-0.03340000503456897,0.0,0.0,0.0,0.0,-0.005097313011283827,-1.122745756156379,-0.4866923940327995,-0.6281402638776175,0.0023856553105708477,0.0022717863656578578,-0.026837596708164577
3341,0.0,300.31753,7316.8195,-0.03341001470926652,0.0,0.0,0.0,0.0,-0.005098840629169571,-1.1149529509622889,-0.47227135251455354,-0.6369061235402403,0.014480981341161589,-0.0036803025938925865,-4.332877100221675e-06
3342,0.0,299.7624,7193.1186,-0.033419991348733746,0.0,0.0,0.0,0.0,-0.005100363205412073,-1.082050187090039,-0.48416219707558855,-0.6203160985929325,0.005546550704451934,-5.756512742473574e-05,-0.0099410110179264
3343,0.0,300.37872000000004,7248.0042,-0.03343000102343152,0.0,0.0,0.0,0.0,-0.005101890823297844,-1.1122050166910888,-0.4648089175155685,-0.6261983903259694,0.0013226051840559687,0.006820450374751044,0.005584435821715905
3344,0.0,300.16341,7402.6691,-0.03344001069812885,0.0,0.0,0.0,0.0,-0.005103418441183533,-1.1195386169398591,-0.5004314878362426,-0.6302564975064734,0.004974384382333516,0.018508273559624384,-0.02067863906182278
3345,0.0,300.25824,7394.1626,-0.0334499873375963,0.0,0.0,0.0,0.0,-0.00510494101742609,-1.1474169775412388,-0.4821298402900106,-0.6180940005936284,-0.013412753303985687,0.008520171743300482,-0.010030140853697831
3346,0.0,300.57015,7192.5441,-0.03345999701229374,0.0,0.0,0.0,0.0,-0.005106468635311806,-1.111123676184369,-0.45751425646814153,-0.6177158657888093,-0.014087336717061884,0.009075905479272131,-0.01148081568281829
3347,0.0,300.53651,7061.494000000001,-0.033470006686991294,0.0,0.0,0.0,0.0,-0.00510799625319755,-1.092147730961589,-0.4499896383105195,-0.6043804406927054,0.0005147438988112675,-0.014078133366403586,0.002196288796731828
3348,0.0,300.0571,7247.5661,-0.033480016361688736,0.0,0.0,0.0,0.0,-0.005109523871083266,-1.105562250360499,-0.4577016672066376,-0.6398152355048474,0.008999371456818811,0.008511895009858631,-4.191497807143626e-05
3349,0.0,300.35783,7529.8473,-0.03348999300115607,0.0,0.0,0.0,0.0,-0.0051110464473257955,-1.135357376176049,-0.5006458104973945,-0.6528823823719744,0.010612504930122689,-0.006127448202682055,-0.014060808816193787
3350,0.0,300.2261,7375.0973,-0.033500002675853624,0.0,0.0,0.0,0.0,-0.005112574065211539,-1.1268459740110388,-0.48357785574291856,-0.6314216033989604,0.007010775929809714,0.003957575849307326,-0.008915946320435391
3351,0.0,299.57434,7164.2311,-0.033510012350550955,0.0,0.0,0.0,0.0,-0.0051141016830972275,-1.124525833932059,-0.4573680343462106,-0.5958534851386604,0.0006729793267103884,0.01166740264898299,-0.00856347501282418
3352,0.0,299.82308,7265.2461,-0.0335199889900184,0.0,0.0,0.0,0.0,-0.005115624259339785,-1.110165242914779,-0.47556860006246654,-0.6227195379626334,-0.004431028306933446,0.009069550475969941,-0.003271980130169297
3353,0.0,299.81897999999995,7503.4869,-0.033529998664715954,0.0,0.0,0.0,0.0,-0.005117151877225501,-1.123938959474139,-0.5018921385178975,-0.6550415575400684,-0.02082209399773068,-0.002117337058214898,-0.002981658645266797
3354,0.0,299.68099,7461.724,-0.03354000833941351,0.0,0.0,0.0,0.0,-0.005118679495111245,-1.118607338772949,-0.4908437506200065,-0.6587267177562653,-0.01934336693429168,-0.01017673949936599,-0.004516953739263626
3355,0.0,300.34128,7212.7864,-0.03354998497888073,0.0,0.0,0.0,0.0,-0.005120202071353747,-1.1010648384666388,-0.4805228256314105,-0.6109192678280374,0.0015274233566199486,-0.00903338524942571,-0.01061084016020839
3356,0.0,300.1226,7075.751,-0.033559994653578284,0.0,0.0,0.0,0.0,-0.00512172968923949,-1.101231518108089,-0.46515450672717557,-0.5844656381922675,0.014711717640683486,0.016053657967122683,-0.017137055371545685
3357,0.0,299.83075,7196.851,-0.03357000432827584,0.0,0.0,0.0,0.0,-0.005123257307125234,-1.125177556396379,-0.4604958462124016,-0.6019895656242444,0.0090265801604291,-0.0012867174867141288,-0.017733100756120782
3358,0.0,301.13343,7445.2222,-0.03358001400297339,0.0,0.0,0.0,0.0,-0.00512478492501095,-1.1269177121181189,-0.49409680019855756,-0.6421471292849874,0.015645344521325287,0.002235522955178938,-0.016549428068801383
3359,0.0,301.17766,7317.4763,-0.033589990642440615,0.0,0.0,0.0,0.0,-0.00512630750125348,-1.102891829721949,-0.47213999477158963,-0.6492982026607435,-0.0076252246719760814,-0.004433197776722556,0.002303330665121038
3360,0.0,300.25776,7206.4164,-0.03360000031713817,0.0,0.0,0.0,0.0,-0.005127835119139196,-1.082157490275629,-0.4777537954931285,-0.6306593556137324,0.009548649776403361,0.005364871212496565,-0.018230137420424484
3361,0.0,300.35441000000003,7314.7269,-0.03361000999183572,0.0,0.0,0.0,0.0,-0.0051293627370249395,-1.110474892145339,-0.48067889654431356,-0.6323405097821494,-0.023148696585848477,-0.010171747216123291,-0.008696100027688251
3362,0.0,300.21452,7509.3945,-0.033619986631303056,0.0,0.0,0.0,0.0,-0.005130885313267469,-1.1523168523748188,-0.5081321784637416,-0.6222193875807724,-0.014246252836245686,0.004802347890254835,-0.016264759506206785
3363,0.0,299.95439,7482.9198,-0.0336299963060005,0.0,0.0,0.0,0.0,-0.005132412931153185,-1.156937678130859,-0.48359731014483853,-0.6340858229468984,-0.016222841349569785,-0.001905193188752928,0.005982130609115324
3364,0.0,300.72632000000004,7320.1668,-0.03364000598069805,0.0,0.0,0.0,0.0,-0.005133940549038929,-1.123127447469049,-0.4820371684358646,-0.6199833067300884,-0.003164848791796257,0.005217271475729605,-0.007356726263752353
3365,0.0,300.36251,7156.2731,-0.03365001565539549,0.0,0.0,0.0,0.0,-0.005135468166924645,-1.086610927115149,-0.4710209613611495,-0.6176964721818954,0.015358716333037287,-0.007991080101483201,-0.00018148546469372084
3366,0.0,299.41046,7193.4496,-0.03365999229486272,0.0,0.0,0.0,0.0,-0.005136990743167175,-1.102155095574239,-0.45997590705608754,-0.6244980350681575,0.0054328101383266155,-0.0063873815064854735,-0.004861442763912045
3367,0.0,299.77889,7473.9195,-0.03367000196956027,0.0,0.0,0.0,0.0,-0.005138518361052891,-1.129510720449029,-0.49951143648044055,-0.6428627979631184,0.023614835201602777,0.0030226830139905873,-0.014174192515633885
3368,0.0,299.43621,7410.328,-0.03368001164425782,0.0,0.0,0.0,0.0,-0.005140045978938634,-1.1500426125253689,-0.4676306569240526,-0.6348813762629134,0.003612890254139507,0.017667959920441883,-0.012692801617681987
3369,0.0,299.66472999999996,7227.1786,-0.03368998828372527,0.0,0.0,0.0,0.0,-0.005141568555181164,-1.110495359797359,-0.4823367358279295,-0.6040497158600654,-0.00021666680512584876,0.0027247632679131975,-0.01891769043478068
3370,0.0,300.08015,7184.0649,-0.0336999979584226,0.0,0.0,0.0,0.0,-0.00514309617306688,-1.081509415511669,-0.4630447072364545,-0.6392222004863194,-0.02477089682369718,-0.0034968159703838665,-0.0030266346893805876
3371,0.0,299.54991,7397.8362,-0.033710007633120154,0.0,0.0,0.0,0.0,-0.005144623790952624,-1.113572093726009,-0.47616420873624854,-0.6590211175728204,-0.008253970373053452,0.002697407643038407,-0.004931937714444355
3372,0.0,299.69721,7530.3829,-0.0337199842725876,0.0,0.0,0.0,0.0,-0.0051461463671951535,-1.1304564880923689,-0.5027878009437925,-0.6558040687703224,0.001679736732852108,0.005352736022673915,-0.004649096447080095
3373,0.0,300.36602999999997,7375.9208,-0.03372999394728515,0.0,0.0,0.0,0.0,-0.005147673985080897,-1.1305159658732389,-0.48348745356899653,-0.6280923067503844,0.013879654897065287,-0.004625668686217956,-0.011947982747424089
3374,0.0,300.63604,7143.2246,-0.033740003621982484,0.0,0.0,0.0,0.0,-0.0051492016029665855,-1.1160427014448389,-0.4745059540200916,-0.5808132262193024,0.0002267707527380308,-0.0033113037586002363,-0.011484716695703289
3375,0.0,300.44413,7199.2464,-0.03375001329668004,0.0,0.0,0.0,0.0,-0.005150729220852329,-1.101986794732629,-0.4749182860157855,-0.6114860394039734,0.014885612636095585,0.0016025637548857286,-0.00993590585862256
3376,0.0,299.86954,7492.2665,-0.03375998993614748,0.0,0.0,0.0,0.0,-0.005152251797094859,-1.1258914924168388,-0.4961142115451605,-0.6554561693484874,0.001957520159692198,0.013317459158580887,-0.014364212373137385
3377,0.0,299.67092,7547.805,-0.033769999610844814,0.0,0.0,0.0,0.0,-0.005153779414980575,-1.136652411128859,-0.4988011380278396,-0.6588906920199483,0.0025316801527073777,0.001060615995799649,-0.006957831180284473
3378,0.0,300.76366,7317.0238,-0.03378000928554237,0.0,0.0,0.0,0.0,-0.005155307032866319,-1.116601103574949,-0.4702249622150906,-0.6373664430606704,-0.005864724408103234,-0.004599138860174666,1.014187660317529e-05
3379,0.0,300.50268,7088.6343,-0.03378998592500981,0.0,0.0,0.0,0.0,-0.005156829609108848,-1.098566062395029,-0.4436391338387736,-0.6125626075027224,0.011906085869039188,-0.00023895226835525274,-0.014049912324618385
3380,0.0,299.72091,7443.2237,-0.033799995599707255,0.0,0.0,0.0,0.0,-0.005158357226994592,-1.144769962979999,-0.48109907109578154,-0.6366850931634264,0.002532191945332888,-0.005838139258604484,-0.0049517611420507755
3381,0.0,299.45156000000003,7639.0396,-0.0338100052744047,0.0,0.0,0.0,0.0,-0.00515988484488028,-1.161540873335159,-0.4897886938208805,-0.6707477244251463,0.007089307676160193,-0.013885871186428787,-0.017612453066713784
3382,0.0,299.32365,7343.2553,-0.03382001494910225,0.0,0.0,0.0,0.0,-0.005161412462766024,-1.1206237064719489,-0.4694463605732485,-0.6420961628049574,-0.014069217778773688,-0.0023870639308598675,0.003921191760741497
3383,0.0,299.92382000000003,7097.9362,-0.033829991588569586,0.0,0.0,0.0,0.0,-0.005162935039008554,-1.0954877072662188,-0.4624007665329025,-0.5997068448714574,0.007449876371945554,0.014859554883273885,-0.017868306822964582
3384,0.0,300.22027,7203.2371,-0.03384000126326714,0.0,0.0,0.0,0.0,-0.0051644626568942975,-1.102624129045529,-0.4644566712508046,-0.6225234538032814,-0.004228677803663006,0.018536329441643285,0.01078113913101559
3385,0.0,300.07082,7424.3693,-0.03385001093796447,0.0,0.0,0.0,0.0,-0.0051659902747800135,-1.1272819755290688,-0.5060764054683525,-0.6234644693036524,-0.012343138127422887,0.001973352699129748,-0.02824189751200827
3386,0.0,300.17824,7472.283,-0.03385998757743214,0.0,0.0,0.0,0.0,-0.005167512851022571,-1.151716704340589,-0.4733505550635626,-0.6463202099543384,0.004415632680939015,-0.012636366626862287,-9.516800184685051e-05
3387,0.0,300.06162,7268.4195,-0.03386999725212947,0.0,0.0,0.0,0.0,-0.005169040468908287,-1.103064082238949,-0.47437787920745156,-0.6319760842511835,-0.0023203100010217676,-0.007241708191900953,-0.026838619077515474
3388,0.0,299.98812000000004,7156.8792,-0.0338800069268268,0.0,0.0,0.0,0.0,-0.005170568086793975,-1.084356546967659,-0.46796737006478356,-0.6231886727589334,0.012457923151751288,0.004769319584695196,-0.00972982406185887
3389,0.0,300.72522999999995,7406.56,-0.03388998356629447,0.0,0.0,0.0,0.0,-0.005172090663036533,-1.127383705839109,-0.4743382104660365,-0.6496874021566544,-0.01217114094944809,-0.010205648537969089,-0.01743265791596938
3390,0.0,300.21578999999997,7577.7895,-0.0338999932409918,0.0,0.0,0.0,0.0,-0.005173618280922249,-1.159422167376059,-0.49225991962227156,-0.6517767137303534,-0.0029764344290762073,0.0015729847553165087,-0.0030478807201274067
3391,0.0,300.17042999999995,7438.3636,-0.03391000291568935,0.0,0.0,0.0,0.0,-0.005175145898807992,-1.1496379204354288,-0.47299881542384853,-0.6384400322041254,0.001090734652372129,0.004191830254501436,-0.010187456645673689
3392,0.0,300.22155,7296.9836,-0.03392001259038668,0.0,0.0,0.0,0.0,-0.005176673516693708,-1.114865608803669,-0.48223083092747754,-0.6210043385908564,-0.005539313565612685,-0.004160276329162306,-0.017668985329543082
3393,0.0,300.34925,7377.2678,-0.03392998922985424,0.0,0.0,0.0,0.0,-0.005178196092936266,-1.105419990046459,-0.4943404665826055,-0.6427447847239715,-0.01734301061337188,-0.011637627281544388,-0.00955845469364603
3394,0.0,300.80262,7604.4349,-0.03393999890455168,0.0,0.0,0.0,0.0,-0.005179723710821954,-1.155970429585399,-0.4886741997708885,-0.6669136873717564,-0.017073183124991984,-0.015915840754771187,0.004926310427363985
3395,0.0,299.92266,7475.3667,-0.033950008579249236,0.0,0.0,0.0,0.0,-0.005181251328707698,-1.1376801507052887,-0.48638073856704156,-0.6482639174886674,0.006492648565999524,0.024431509715952277,0.013525236224086887
3396,0.0,299.77871,7239.3198,-0.03395998521871657,0.0,0.0,0.0,0.0,-0.0051827739049502275,-1.120157408775929,-0.47090479223718457,-0.6095102118414745,0.005088726109743165,0.02085303865578468,-0.004275275351911826
3397,0.0,300.58109,7341.2934,-0.033969994893414124,0.0,0.0,0.0,0.0,-0.005184301522835971,-1.126191211796419,-0.47502928756424057,-0.6303493821431404,0.01155374739851609,0.01836121955936128,0.008385703423854493
3398,0.0,300.17784,7506.4631,-0.033980004568111455,0.0,0.0,0.0,0.0,-0.005185829140721687,-1.1492884504759389,-0.4881036893020836,-0.6443851758408653,-0.0017570632182086383,-0.013825057941926988,0.0028909026444098773
3399,0.0,299.87302999999997,7594.5493,-0.0339900142428089,0.0,0.0,0.0,0.0,-0.005187356758607403,-1.1367369161871987,-0.4866428562354106,-0.6851735788813673,0.013487287981341687,-0.014968193532495686,-0.008499051051591032
3400,0.0,299.6264,7425.1314,-0.033999990882276454,0.0,0.0,0.0,0.0,-0.005188879334849961,-1.1350330348190387,-0.47128928012013055,-0.6507322048647683,-0.006109396544200494,-0.004202365421091175,-0.0034470063179930367
3401,0.0,299.43892,7249.4013,-0.034010000556973785,0.0,0.0,0.0,0.0,-0.005190406952735649,-1.090408385839929,-0.4903467007834515,-0.6228818606286534,-0.007104105889895664,-0.01136877757951099,-0.023251905227784374
3402,0.0,299.65643,7357.0719,-0.03402001023167134,0.0,0.0,0.0,0.0,-0.005191934570621393,-1.1463862995395189,-0.46191220773218555,-0.6280676341104494,-0.02116317424639268,-5.7766586875868244e-05,-0.008805459705681211
3403,0.0,300.0341,7548.6261,-0.034029986871138784,0.0,0.0,0.0,0.0,-0.005193457146863922,-1.158960631955509,-0.49661867837244755,-0.6390145348783244,-0.014292951506854487,0.017077278681896183,-0.015482342977738286
3404,0.0,299.80137,7393.8505,-0.03403999654583634,0.0,0.0,0.0,0.0,-0.005194984764749666,-1.145764265303129,-0.48156611859687554,-0.6202155841830124,0.007648022495251054,0.013233133445508588,-0.013364029146426986
3405,0.0,300.45462000000003,7289.6223,-0.03405000622053367,0.0,0.0,0.0,0.0,-0.005196512382635382,-1.100716989707309,-0.48044342735357454,-0.6347027909327885,-0.002229166026701558,0.00014464943618578788,-0.016337357862621683
3406,0.0,300.59833,7374.5738,-0.03406001589523122,0.0,0.0,0.0,0.0,-0.005198040000521126,-1.119315499267839,-0.48344770376757357,-0.6389230485267954,0.004734220297256165,-0.005298023253049185,0.008622312723606012
3407,0.0,300.54148,7645.4076,-0.03406999253469867,0.0,0.0,0.0,0.0,-0.0051995625767636555,-1.1512698610464889,-0.49979625095104946,-0.6729469128396893,0.021489028385801977,0.015596073208712587,0.007991029033678163
3408,0.0,300.35662,7702.5433,-0.03408000220939622,0.0,0.0,0.0,0.0,-0.0052010901946493715,-1.1748258993712888,-0.5098465773679395,-0.6567083539545684,0.0013246791043606486,0.015066284248176484,-0.002861786700136357
3409,0.0,300.12349,7468.1387,-0.03409001188409355,0.0,0.0,0.0,0.0,-0.0052026178125350875,-1.1385835644944489,-0.49595025754647953,-0.6355938430707284,0.00019948861889299382,0.000981183642362786,-0.0021461963462380876
3410,0.0,299.96762,7329.9362,-0.03409998852356111,0.0,0.0,0.0,0.0,-0.005204140388777645,-1.127434469669119,-0.4675164433727806,-0.6331667037811884,-0.007562927928002873,-0.011552023860095989,-0.004323739610819876
3411,0.0,300.20882,7411.0971,-0.03410999819825855,0.0,0.0,0.0,0.0,-0.005205668006663361,-1.1356071423256988,-0.4762665267313465,-0.6409148246458685,-0.01160584567890779,-0.0003945072444398336,-0.01040851336699029
3412,0.0,299.87609,7473.2938,-0.03412000787295588,0.0,0.0,0.0,0.0,-0.005207195624549077,-1.1349149911823888,-0.48267344896866055,-0.6541062770352634,0.0014796648264065486,-0.014925184105500984,-0.011317164645917189
3413,0.0,299.80951,7259.7892,-0.03412998451242344,0.0,0.0,0.0,0.0,-0.005208718200791634,-1.119176177379089,-0.46245239162549756,-0.6251660911240895,-0.006813055270221203,-0.003622285413041736,-0.013845045313399588
3414,0.0,299.93641,7206.2495,-0.03413999418712077,0.0,0.0,0.0,0.0,-0.00521024581867735,-1.126994719125719,-0.46499943893187157,-0.5985257600248934,-0.0016505187542935182,0.006262728946058224,-0.008243038215074532
3415,0.0,299.84443,7402.0332,-0.03415000386181832,0.0,0.0,0.0,0.0,-0.005211773436563066,-1.146119713438209,-0.47791022104356656,-0.6260032687542124,0.0037312576241964567,0.021425222000504777,-0.018941667985147084
3416,0.0,299.533,7610.0566,-0.034160013536515765,0.0,0.0,0.0,0.0,-0.005213301054448782,-1.1585346616134689,-0.5101057768760205,-0.6446267650622084,0.01041406192453789,0.011139664506649289,-0.0009971842698594249
3417,0.0,300.18015,7564.451999999999,-0.03416999017598332,0.0,0.0,0.0,0.0,-0.00521482363069134,-1.1319268153124789,-0.5167960342387975,-0.6506816943472834,0.00912803162404158,-0.014497955306836788,-0.024296115184589875
3418,0.0,300.13603,7381.2027,-0.034179999850680653,0.0,0.0,0.0,0.0,-0.005216351248577056,-1.116557635145659,-0.4809280040813986,-0.6462157134715254,0.003204967213605637,-0.02074730195484928,0.01024920613326789
3419,0.0,300.65148,7424.9051,-0.03419000952537821,0.0,0.0,0.0,0.0,-0.0052178788664627995,-1.122391625246429,-0.4990032915552905,-0.6355908033204284,0.010577506258418589,-0.007447388741625043,-0.017429597900667382
3420,0.0,300.3505,7515.1186,-0.03419998616484565,0.0,0.0,0.0,0.0,-0.005219401442705329,-1.163291769507959,-0.47972754589292255,-0.6413890864876743,0.0040362777203495955,-0.0018196167197571883,0.0073438886889603825
3421,0.0,300.40292999999997,7471.5733,-0.034209995839543206,0.0,0.0,0.0,0.0,-0.005220929060591073,-1.144090984087989,-0.4777835242510626,-0.6492972400731484,-0.0007376728631326434,0.010067368168996881,-0.011274901984246188
3422,0.0,299.94486,7404.9459,-0.03422000551424054,0.0,0.0,0.0,0.0,-0.005222456678476761,-1.136427570931669,-0.4810571934691485,-0.6334339282300614,-0.0005858384907527574,0.00016828328198576682,-0.002112522296389718
3423,0.0,300.07095,7325.1103,-0.03423001518893787,0.0,0.0,0.0,0.0,-0.005223984296362477,-1.125299450383409,-0.45599147329035455,-0.6453597704495504,0.008850028220604782,0.012341555430766689,-0.020173656490234882
3424,0.0,300.29027,7436.286999999999,-0.034239991828405536,0.0,0.0,0.0,0.0,-0.005225506872605035,-1.133093674127639,-0.49005423627458755,-0.6372977244388884,0.007824633912856243,-0.008547074141405542,-0.027049934412370677
3425,0.0,299.96035,7602.121999999999,-0.03425000150310287,0.0,0.0,0.0,0.0,-0.005227034490490751,-1.160512120508629,-0.49088288233886856,-0.6594602196361564,-0.0026719847927293675,-0.008187682335611332,-0.0038037822160040765
3426,0.0,299.94754,7564.8205,-0.03426001117780042,0.0,0.0,0.0,0.0,-0.005228562108376494,-1.1806798504990288,-0.4834160093044455,-0.6354206988936404,-0.011603108890387688,-0.006047323323199344,0.0020397371979813885
3427,0.0,299.93192999999997,7389.519,-0.034269987817267755,0.0,0.0,0.0,0.0,-0.005230084684619024,-1.1360815460225189,-0.48360603422819953,-0.6265416490623464,0.004548518101078786,0.01167753312348279,0.0026398421690821375
3428,0.0,300.10536,7378.0544,-0.03427999749196531,0.0,0.0,0.0,0.0,-0.005231612302504768,-1.141144858097229,-0.46396491057977157,-0.6376345895671344,0.005102350675887805,0.006749981160771274,-0.009033172264254692
3429,0.0,300.02706,7548.9431,-0.03429000716666275,0.0,0.0,0.0,0.0,-0.005233139920390456,-1.1232200585281888,-0.5020027145013105,-0.6694674119962893,-0.004526050799986436,0.0025447211881194274,-0.004205291687379976
3430,0.0,299.84386,7533.5079,-0.034299983806130085,0.0,0.0,0.0,0.0,-0.0052346624966330135,-1.1329410786625789,-0.5022388727021175,-0.6548183892055434,0.01005228057103285,-0.0017698655318971284,-0.02097484854305638
3431,0.0,299.27771,7486.1768,-0.03430999348082764,0.0,0.0,0.0,0.0,-0.0052361901145187295,-1.1432328625782988,-0.4756788619383485,-0.6566990928486544,0.0036019180727816366,0.0062497501242023135,0.005100693910649295
3432,0.0,299.72877,7405.8541,-0.03432000315552519,0.0,0.0,0.0,0.0,-0.005237717732404473,-1.1692837252993187,-0.47857183282886256,-0.6033391640949395,0.02173677310150248,-0.007093575890881433,-0.016336384129275586
3433,0.0,300.3641,7402.721,-0.03433001283022252,0.0,0.0,0.0,0.0,-0.005239245350290189,-1.125141484692819,-0.4795834211986985,-0.6455174625626134,-0.0005807516611432264,-0.015039918467324383,-0.012020316645562888
3434,0.0,299.9339,7446.776,-0.03433998946969019,0.0,0.0,0.0,0.0,-0.005240767926532747,-1.1498343896298189,-0.4849550146163335,-0.6288445942871295,-0.017187982334821786,-0.003528427144353647,-0.02750059867259777
3435,0.0,299.80922000000004,7521.1462,-0.03434999914438752,0.0,0.0,0.0,0.0,-0.005242295544418463,-1.119465156307609,-0.5026926567594026,-0.6640828185798713,-0.00961862553758443,-0.003452781742238027,-0.032156011720801264
3436,0.0,299.81682,7388.0941,-0.03436000881908485,0.0,0.0,0.0,0.0,-0.005243823162304151,-1.145904803091999,-0.47802383677727955,-0.6218674858210425,-0.008801301124620792,0.016356434322254382,-0.02264673248630848
3437,0.0,300.30472000000003,7309.7422,-0.03436998545855252,0.0,0.0,0.0,0.0,-0.005245345738546736,-1.129818951129449,-0.4812968777803035,-0.6108633060250145,-0.0017564431091474384,0.01841392984281338,-0.016043148537085484
3438,0.0,299.93547,7442.8415,-0.03437999513324985,0.0,0.0,0.0,0.0,-0.005246873356432424,-1.174265470740979,-0.46644203349674457,-0.6217305146725244,0.007204379956891943,0.012312886532437289,0.013126436183478385
3439,0.0,300.28777,7618.7765,-0.034390004807947405,0.0,0.0,0.0,0.0,-0.005248400974318168,-1.152321412000269,-0.4874363830512255,-0.6761600403643003,0.003535893379040507,0.005159745011902185,0.009496524746209021
3440,0.0,299.80305,7568.2784,-0.034400014482644736,0.0,0.0,0.0,0.0,-0.005249928592203884,-1.1497553561220188,-0.4945257596283925,-0.6562864974079343,0.024868343112314374,-0.007284100144284713,-0.006740596033045034
3441,0.0,300.03987,7630.946,-0.03440999112211229,0.0,0.0,0.0,0.0,-0.0052514511684464416,-1.1306611646125688,-0.49563777121563957,-0.6933181034501693,-0.004799764913099915,0.001081466048407389,-0.001114368204329579
3442,0.0,299.6864,7676.5380000000005,-0.034420000796809735,0.0,0.0,0.0,0.0,-0.0052529787863321575,-1.164433905020679,-0.5120949185448335,-0.6569470351481244,-0.006817888371873193,0.001722285131051308,-0.00994130830550574
3443,0.0,299.60235,7635.2753,-0.03443001047150729,0.0,0.0,0.0,0.0,-0.0052545064042178735,-1.1880584390522386,-0.4943440230904565,-0.6385305255705563,-0.012750356249862187,-0.002271820714836248,0.005352557082706255
3444,0.0,300.73175,7571.0338,-0.034439987110974624,0.0,0.0,0.0,0.0,-0.005256028980460431,-1.1938953675782988,-0.47169194570987055,-0.6358179131978424,-0.005846696257023994,-0.0027571590014354073,-0.005294052731207325
3445,0.0,301.19162,7399.6023,-0.03444999678567218,0.0,0.0,0.0,0.0,-0.005257556598346147,-1.143971217926169,-0.4797341320185725,-0.6255890115833285,0.0009566994568138851,-0.00944412198416227,0.007627791437129402
3446,0.0,300.57999,7320.3299,-0.03446000646036951,0.0,0.0,0.0,0.0,-0.005259084216231863,-1.1149362323356389,-0.46401196591441557,-0.6462492520498353,-0.011977156244303289,0.004536567322774336,-0.02118343823514258
3447,0.0,300.47127,7534.2919999999995,-0.03447001613506695,0.0,0.0,0.0,0.0,-0.005260611834117579,-1.115644190180509,-0.5019931494203664,-0.6725993275253853,-0.00947193488880719,0.013321511145730788,-0.01073183032814919
3448,0.0,300.42727,7727.6534,-0.03447999277453451,0.0,0.0,0.0,0.0,-0.005262134410360136,-1.1721524389824387,-0.5218659121741556,-0.6549953330705064,0.01050404562616859,0.004493106391535075,-0.012947235810542688
3449,0.0,300.36376,7575.3768,-0.03449000244923184,0.0,0.0,0.0,0.0,-0.005263662028245852,-1.1682045126178089,-0.48543326866353353,-0.6490875986274584,0.009988116001825302,0.0003676634527205576,0.0014026029006511287
3450,0.0,299.96749,7463.5438,-0.03450001212392939,0.0,0.0,0.0,0.0,-0.005265189646131568,-1.152170944360419,-0.5038538515065035,-0.6127061951743934,0.019858942022424983,-0.01718799449382298,-0.010894573492960689
3451,0.0,299.40815,7616.6834,-0.03450998876339684,0.0,0.0,0.0,0.0,-0.005266712222374126,-1.158421582902309,-0.49886576311921754,-0.6579942189939734,0.01934422110412598,-0.013943956761661387,-0.013651986718846187
3452,0.0,299.70286,7631.1735,-0.03451999843809439,0.0,0.0,0.0,0.0,-0.005268239840259842,-1.1563985277526487,-0.5053729261889245,-0.6579147295236284,0.01063697289353749,-0.0038740538462143457,-0.01966269472980688
3453,0.0,300.57794,7458.7189,-0.03453000811279172,0.0,0.0,0.0,0.0,-0.005269767458145558,-1.119239404185329,-0.4948548024658665,-0.6531700440753644,0.012715632168935186,0.00034166822756252866,-0.025782860096070177
3454,0.0,300.13261,7426.3319,-0.03453998475225917,0.0,0.0,0.0,0.0,-0.0052712900343880875,-1.151235309218079,-0.4835121768714365,-0.6226719456054364,-0.01070118863187509,0.01745200390012868,0.005144106003233735
3455,0.0,299.95133,7404.8508,-0.03454999442695672,0.0,0.0,0.0,0.0,-0.005272817652273831,-1.152223734690629,-0.47404499615209855,-0.6246209828352914,-0.006003545649978824,0.01989580912731348,-0.015945358756684385
3456,0.0,299.78546,7537.1632,-0.034560004101654274,0.0,0.0,0.0,0.0,-0.005274345270159575,-1.180952414775929,-0.4845864246274566,-0.6255705501665064,-0.007736612775344232,0.005854104939105175,-0.01025665048175259
3457,0.0,300.09,7730.159000000001,-0.034570013776351605,0.0,0.0,0.0,0.0,-0.005275872888045263,-1.1787695700854988,-0.48781602759869347,-0.6831897567755795,-0.0063104620436941145,-0.006791748140493353,0.004611668102961206
3458,0.0,299.45415,7698.8995,-0.03457999041581905,0.0,0.0,0.0,0.0,-0.005277395464287821,-1.155951988433579,-0.5123550603755075,-0.6719661982004004,0.009178645999661832,-0.015806057132936386,-0.011957079706821888
3459,0.0,299.48879,7595.5658,-0.03459000009051649,0.0,0.0,0.0,0.0,-0.005278923082173537,-1.128815934855459,-0.4986684630597455,-0.6813779440067673,0.006839470193703154,0.005607800457096814,0.002172922236175728
3460,0.0,299.31909,7701.5924,-0.034600009765213935,0.0,0.0,0.0,0.0,-0.005280450700059253,-1.1843181276330987,-0.5110489505991045,-0.6457246823405643,0.008426898930520172,0.02321712237835158,-0.013308209198417988
3461,0.0,299.28598,7704.0229,-0.03460998640468127,0.0,0.0,0.0,0.0,-0.005281973276301782,-1.1832100373237389,-0.4904715838582765,-0.6681489810986704,0.012399171871202989,0.0073029443669944925,0.01160078753440859
3462,0.0,299.56388,7460.2433,-0.03461999607937882,0.0,0.0,0.0,0.0,-0.005283500894187526,-1.1625388233586489,-0.4846012383439185,-0.6205876597522334,-0.00945972542775221,0.01146169058718079,-0.027477144972533073
3463,0.0,300.40853,7327.4737,-0.034630005754076376,0.0,0.0,0.0,0.0,-0.00528502851207327,-1.114521002444659,-0.48600181342714455,-0.6268462523074084,0.007706282146850832,-0.003476463930200277,-0.013023648040333988
3464,0.0,299.86338,7357.7907,-0.03464001542877371,0.0,0.0,0.0,0.0,-0.005286556129958958,-1.125827556335529,-0.4820746384245625,-0.6286824337411254,0.005022828578889586,-0.0076564537493331525,-0.04766862250552675
3465,0.0,300.06685,7453.2188,-0.03464999206824115,0.0,0.0,0.0,0.0,-0.0052880787062015155,-1.1332746405954988,-0.47742148999033257,-0.6548963081382334,-0.015365717891228285,-0.016740378089896684,-0.0023832439779828676
3466,0.0,300.05753,7474.9799,-0.034660001742938706,0.0,0.0,0.0,0.0,-0.0052896063240872315,-1.163929205145869,-0.48761276962863354,-0.6206652645773925,-0.007597429701857931,-0.01740303554929588,-0.026901801300751076
3467,0.0,299.5124,7632.3330000000005,-0.03467001141763626,0.0,0.0,0.0,0.0,-0.005291133941972975,-1.1555219650911388,-0.49074978180573253,-0.6737669057481164,-0.01007212740471658,0.0014507481884276988,0.005940999038530954
3468,0.0,299.84143,7687.2838,-0.034679988057103484,0.0,0.0,0.0,0.0,-0.005292656518215477,-1.182378057666629,-0.5060463119403825,-0.6483179439839993,0.005863002186908265,0.007012441611649102,-0.012354661820810187
3469,0.0,299.79981000000004,7695.1793,-0.03468999773180104,0.0,0.0,0.0,0.0,-0.005294184136101221,-1.1516832670872887,-0.5006055338059195,-0.6868535272821653,0.005479166837026666,-0.0010828127591152989,0.007851782024110552
3470,0.0,299.20203,7667.0266,-0.03470000740649859,0.0,0.0,0.0,0.0,-0.005295711753986965,-1.1674095165893488,-0.4927663420222515,-0.6704087720016944,0.004301872964386806,0.007920324441700162,-0.01200923776896949
3471,0.0,299.65985,7524.746999999999,-0.034709984045966036,0.0,0.0,0.0,0.0,-0.005297234330229494,-1.1403332447671288,-0.4888730298380115,-0.6581289508597704,0.0033344482147344167,-0.0012427734378271888,-0.000983124644519348
3472,0.0,299.88785,7273.5027,-0.03471999372066337,0.0,0.0,0.0,0.0,-0.00529876194811521,-1.141257227533319,-0.4495394715560916,-0.6201665428781724,0.0008726517086415182,0.006411212338237394,-0.006654930499365504
3473,0.0,300.25638,7408.0772,-0.03473000339536092,0.0,0.0,0.0,0.0,-0.005300289566000926,-1.1453178273090687,-0.46937229199093855,-0.6371803191498014,-0.02106326576003248,-0.002903048169383547,-0.002346554090536858
3474,0.0,300.1743,7573.9583,-0.03474001307005847,0.0,0.0,0.0,0.0,-0.00530181718388667,-1.1931084775506386,-0.47290798768488457,-0.6362777767557274,-0.007139903711953634,0.006659975471613404,-0.01178991573182409
3475,0.0,300.06273,7645.06,-0.0347499897095257,0.0,0.0,0.0,0.0,-0.005303339760129172,-1.151470281916269,-0.4981445418305385,-0.6742925697674954,-0.014426891011073285,0.006996924902267723,-0.008345695547631022
3476,0.0,300.50627000000003,7678.3129,-0.03475999938422325,0.0,0.0,0.0,0.0,-0.005304867378014916,-1.167296336553179,-0.5065655114241235,-0.6601535664145843,0.016199228569239384,0.009136960181272762,-0.02150873204724658
3477,0.0,300.29062999999996,7730.0247,-0.03477000905892069,0.0,0.0,0.0,0.0,-0.0053063949959006596,-1.171613592579259,-0.49378211511500053,-0.6843387519914764,0.0075093205129122325,-0.0018338932110161681,0.02031459552614448
3478,0.0,299.62991,7682.979,-0.03477998569838814,0.0,0.0,0.0,0.0,-0.005307917572143189,-1.1820361870828888,-0.4966591881114455,-0.6567384272175364,0.005730553984186645,-0.002759064012948417,0.004864487985762586
3479,0.0,299.88589,7614.7453,-0.03478999537308547,0.0,0.0,0.0,0.0,-0.0053094451900288775,-1.155008652590479,-0.4973514203147635,-0.6623323479721134,0.0014604539084855784,-0.020683345608537282,0.004443347401649245
3480,0.0,299.95615,7507.4842,-0.03480000504778302,0.0,0.0,0.0,0.0,-0.005310972807914621,-1.1621289636931988,-0.48407258523674457,-0.6358861961220814,-0.015582263623099684,-0.005698263324699805,-0.001000799404361211
3481,0.0,299.91736000000003,7390.8233,-0.034810014722480576,0.0,0.0,0.0,0.0,-0.005312500425800365,-1.115494735790759,-0.48639482274343154,-0.6447361555430045,0.0031613950275053973,-0.006433981182559504,-0.02018925142252398
3482,0.0,299.90216000000004,7472.8774,-0.03481999136194802,0.0,0.0,0.0,0.0,-0.005314023002042895,-1.142780041108609,-0.4886847173069265,-0.6401034342307904,-0.0065443738690294136,-7.1693598042857235e-06,-0.026385099478506577
3483,0.0,299.6114,7580.9441,-0.03483000103664535,0.0,0.0,0.0,0.0,-0.005315550619928611,-1.1562605230890288,-0.49741627845366454,-0.6507409390806305,0.01129866168584109,0.013867540478869685,-0.03560646876333486
3484,0.0,300.06005,7610.6438,-0.034840010711342906,0.0,0.0,0.0,0.0,-0.005317078237814354,-1.1673833747367688,-0.49975510286448854,-0.6463072099555554,0.012690181352923387,-0.003761026101534376,-0.01055587032903329
3485,0.0,300.55987999999996,7500.3981,-0.03484998735081035,0.0,0.0,0.0,0.0,-0.005318600814056884,-1.1493890662108688,-0.4877924290038645,-0.6427522625097093,0.012313867358534089,0.004264507036474076,-0.017078012274968586
3486,0.0,300.47972999999996,7619.595,-0.03485999702550768,0.0,0.0,0.0,0.0,-0.005320128431942572,-1.185499374599679,-0.48321548710965556,-0.6474517671360144,-0.008159976328851962,-0.004793593206740816,0.009089960474059251
3487,0.0,300.4459,7788.5957,-0.034870006700205236,0.0,0.0,0.0,0.0,-0.005321656049828316,-1.171908448358359,-0.5132212372234924,-0.6824088753210124,0.015541237126550684,0.0050555416623431155,-0.025246732242908475
3488,0.0,300.18161000000003,7709.842,-0.03488001637490279,0.0,0.0,0.0,0.0,-0.00532318366771406,-1.1916763498592988,-0.48680137921355554,-0.6651217748349083,-0.015556243360531683,0.01048855708513999,0.023540305590497277
3489,0.0,300.29668,7668.2117,-0.034889993014370235,0.0,0.0,0.0,0.0,-0.0053247062439565895,-1.1653908184151187,-0.5039084555543926,-0.6616456481143413,0.003184365305947387,-0.012163056226900188,-0.0065408601203326335
3490,0.0,300.09422,7745.9451,-0.034900002689067566,0.0,0.0,0.0,0.0,-0.0053262338618423055,-1.197261485735509,-0.4916493148470095,-0.6656630935683324,-0.003511673965875237,-0.017291539534792084,0.03321246072556467
3491,0.0,299.4654,7650.4979,-0.03491001236376523,0.0,0.0,0.0,0.0,-0.005327761479728077,-1.164396110791949,-0.4980763500988085,-0.6630878373791743,-0.0023178724252561978,0.00016080647910036384,-0.01059809347395039
3492,0.0,300.06698,7643.7752,-0.034919989003232454,0.0,0.0,0.0,0.0,-0.005329284055970579,-1.180326226214129,-0.5024108009790855,-0.6407797786725404,0.01191672398183909,-0.0007349138439053494,0.0014779726987395486
3493,0.0,299.97168999999997,7625.5208,-0.03492999867793001,0.0,0.0,0.0,0.0,-0.005330811673856295,-1.149036759151099,-0.5006332360636535,-0.6682978680683644,-0.0026844420947588076,0.002105747604896108,-0.02050678373886198
3494,0.0,299.47234,7576.6009,-0.03494000835262745,0.0,0.0,0.0,0.0,-0.005332339291742011,-1.1628052068099388,-0.5036187876158045,-0.6366734509197773,-0.002309105785390998,0.017399712088967883,-0.028520489613753173
3495,0.0,299.98348,7590.4659,-0.03494998499209501,0.0,0.0,0.0,0.0,-0.005333861867984568,-1.164253242527849,-0.4984078247365225,-0.6446510526671054,0.001924016538510648,0.015510045235472284,-0.02349504269528018
3496,0.0,299.89075,7628.2846,-0.03495999466679234,0.0,0.0,0.0,0.0,-0.005335389485870284,-1.172474145889189,-0.4905847030994405,-0.6557491607474033,-0.009066639307107632,0.01071996010322769,-0.0013514507932028087
3497,0.0,299.88063,7645.0038,-0.03497000434148967,0.0,0.0,0.0,0.0,-0.005336917103756,-1.1578167739176188,-0.5073138979479835,-0.6587595571920064,-0.006414895401025885,-0.012139779845602989,0.004279723925150866
3498,0.0,300.75281,7706.3089,-0.034980014016187444,0.0,0.0,0.0,0.0,-0.005338444721641772,-1.172607084302309,-0.5005031246183125,-0.6694152904111453,-0.007855878391614831,-0.012126933860835189,-0.002088596421778418
3499,0.0,300.12464,7720.1071,-0.03498999065565467,0.0,0.0,0.0,0.0,-0.005339967297884274,-1.1535698374484789,-0.5179199211172165,-0.6752300794225203,0.004533397065861456,-0.001197915842650089,-0.019325890396566882
3500,0.0,300.46133,7686.1148,-0.03500000033035222,0.0,0.0,0.0,0.0,-0.00534149491576999,-1.1749191183804888,-0.5092254449241385,-0.6522424642713194,0.006458711577750203,0.0026420433535993774,-0.002446459233171728
3501,0.0,300.74867,7630.2709,-0.035010010005049774,0.0,0.0,0.0,0.0,-0.0053430225336557335,-1.1617721983329887,-0.49944172487356053,-0.6581979227940774,-0.009785479863351671,0.007661722852503173,-0.008426106872917002
3502,0.0,299.91486000000003,7662.5827,-0.03501998664451722,0.0,0.0,0.0,0.0,-0.005344545109898263,-1.182791666357449,-0.49994212856794656,-0.6464999706545794,0.0036487852468820667,-0.004077956648637986,0.0037579476450805564
3503,0.0,300.05239,7703.6904,-0.03502999631921455,0.0,0.0,0.0,0.0,-0.005346072727783979,-1.1728961645558387,-0.49182467804181657,-0.6770087183830584,0.004039543121446866,-0.0025764292287987676,0.0014337196085721085
3504,0.0,299.66132000000005,7612.2564,-0.035040005993912104,0.0,0.0,0.0,0.0,-0.005347600345669723,-1.179219047829859,-0.4898707468139785,-0.6448461235763574,0.0021550490110367783,-0.02171061199717058,0.004815323064410386
3505,0.0,299.3411,7692.4714,-0.03505001566860966,0.0,0.0,0.0,0.0,-0.005349127963555467,-1.1663737723371288,-0.5029094213532955,-0.6690360207662144,-0.0015067079649504986,-0.01144369526540479,-0.018746729811658182
3506,0.0,299.87265,7807.8645,-0.03505999230807699,0.0,0.0,0.0,0.0,-0.005350650539797996,-1.2178869007960789,-0.49073237416901455,-0.6647765503933374,-0.002190897596924758,0.002382692871253478,0.01013783576177649
3507,0.0,300.10819,7790.4715,-0.035070001982774435,0.0,0.0,0.0,0.0,-0.005352178157683685,-1.1899441988133488,-0.5113567354494805,-0.6668079141938174,-0.0014056453867263986,0.008367822295364763,-0.016822737084524884
3508,0.0,299.94749,7646.3194,-0.03508001165747199,0.0,0.0,0.0,0.0,-0.005353705775569428,-1.198441415476959,-0.46248794657150655,-0.6633608576186193,0.0020304913921438982,0.00919105466568647,0.011234815783789988
3509,0.0,300.17622,7639.1333,-0.03508998829693932,0.0,0.0,0.0,0.0,-0.005355228351811958,-1.161257771257219,-0.49345653759286856,-0.6673914347939064,-0.015344621010896184,0.004080005946965236,0.0064177932963118845
3510,0.0,299.56442999999996,7574.4464,-0.035099997971636654,0.0,0.0,0.0,0.0,-0.005356755969697674,-1.153233438415279,-0.49045234223887757,-0.6587567504892294,0.003805138755237957,-0.0099745607419875,0.005559013376706905
3511,0.0,300.12345,7631.1696,-0.03511000764633421,0.0,0.0,0.0,0.0,-0.005358283587583418,-1.145807531082399,-0.5093875953376414,-0.6644898816750454,-0.006164336687147665,0.005446976894599765,-0.023979655900107776
3512,0.0,300.05009,7768.1223,-0.03511998428580165,0.0,0.0,0.0,0.0,-0.0053598061638259475,-1.1855379794284886,-0.5137716752078164,-0.6620055342848593,0.0015421011962435387,-0.003671006328200117,-0.01817205995119268
3513,0.0,299.56002,7646.7496,-0.035129993960499206,0.0,0.0,0.0,0.0,-0.005361333781711691,-1.164535027380659,-0.5058119471922525,-0.6540739442245724,-0.0038367158840043763,-0.001931601424784218,-0.034174599450770365
3514,0.0,299.4482,7609.7929,-0.03514000363519654,0.0,0.0,0.0,0.0,-0.0053628613995973795,-1.168378183684949,-0.4984727031404255,-0.6463361686434134,-0.01200130503393659,0.005690015468885806,-0.02072249049965058
3515,0.0,299.20691,7729.9587,-0.03515001330989409,0.0,0.0,0.0,0.0,-0.005364389017483123,-1.1726296797795388,-0.5127847392129136,-0.6642999580763014,0.014023398609251687,0.007405394793880562,-0.02022622593192308
3516,0.0,299.92351,7759.8899,-0.035159989949361536,0.0,0.0,0.0,0.0,-0.005365911593725653,-1.1865603487793888,-0.4935991626769445,-0.6786532840903644,0.0022647597801893882,-0.013655465206439486,0.005927551385853775
3517,0.0,299.86171,7634.1101,-0.03516999962405909,0.0,0.0,0.0,0.0,-0.005367439211611397,-1.172188814661029,-0.4928520325832085,-0.6555379690290604,0.013093930107020289,-0.010427007207815489,-0.012964422558738887
3518,0.0,300.05376,7741.5142,-0.03518000929875642,0.0,0.0,0.0,0.0,-0.005368966829497113,-1.1900155316203886,-0.4976867453028575,-0.6655247342671774,0.006918671901019753,-0.02812784304100197,0.003533565335610747
3519,0.0,300.18711,7796.7864,-0.03518998593822398,0.0,0.0,0.0,0.0,-0.00537048940573967,-1.193995780663209,-0.5078567466890584,-0.6681758828888253,0.0029212102721260075,0.013100165648135686,-0.008696797853032122
3520,0.0,300.41102,7863.6709,-0.03519999561292142,0.0,0.0,0.0,0.0,-0.005372017023625386,-1.2153207435928188,-0.5056569604569565,-0.6693819443503544,-0.010954813237905888,-0.006792955326662494,0.013958955902891687
3521,0.0,300.21092999999996,7811.1703,-0.03521000528761875,0.0,0.0,0.0,0.0,-0.005373544641511074,-1.191252811317499,-0.49712723873013853,-0.6860207268924744,-0.007513597846884372,0.0036833096162143565,-0.00981127923739787
3522,0.0,299.46931,7747.0346,-0.035220014962316304,0.0,0.0,0.0,0.0,-0.005375072259396818,-1.172022135019579,-0.5033532958246025,-0.6795296846318584,-0.0050123305985785155,0.003026225842965237,0.024242047146003774
3523,0.0,299.42612,7676.6919,-0.03522999160178375,0.0,0.0,0.0,0.0,-0.005376594835639348,-1.1660780046329389,-0.5038260681887615,-0.6636185372515504,0.00829746028324557,0.0076764040358520925,-0.03238883024927867
3524,0.0,299.55616000000003,7754.4779,-0.03524000127648119,0.0,0.0,0.0,0.0,-0.0053781224535250916,-1.189529070247379,-0.48812408602659657,-0.6795144656153564,-0.004170046390601536,-0.003983844358149827,0.007734874848772713
3525,0.0,299.36834,7744.8095,-0.035250010951178634,0.0,0.0,0.0,0.0,-0.0053796500714108075,-1.1928542531005488,-0.5023335203939586,-0.6590409063472733,-0.018245338198424683,-0.00025562685915590675,-0.027098996995462775
3526,0.0,299.73663999999997,7637.0933,-0.03525998759064619,0.0,0.0,0.0,0.0,-0.005381172647653365,-1.183107597738629,-0.48422574812186053,-0.6541523495173104,0.002323566282868138,-0.0011767196638081889,0.007118435272809863
3527,0.0,299.75726000000003,7588.604,-0.03526999726534352,0.0,0.0,0.0,0.0,-0.005382700265539081,-1.164253039877829,-0.5082980171076086,-0.6341951019701834,-0.011667447231987389,0.011376814679304188,-0.025644041792619875
3528,0.0,299.66316,7767.8729,-0.035280006940041075,0.0,0.0,0.0,0.0,-0.005384227883424797,-1.1932278384124189,-0.5061630282194015,-0.6618485717118684,0.0054386691557048545,-0.004381739971719066,0.004405106228300136
3529,0.0,300.14474,7942.7915,-0.03528998357950852,0.0,0.0,0.0,0.0,-0.0053857504596673544,-1.2014382039727187,-0.5327371434245625,-0.6802349674964643,0.006283562786664364,-0.014832504145354183,-0.02230310492689508
3530,0.0,299.9797,7733.955,-0.035299993254206075,0.0,0.0,0.0,0.0,-0.00538727807755307,-1.1721903345361788,-0.5228250445863145,-0.6559137632261484,0.0007905460873333242,-0.009656714824743552,-0.02170827037618948
3531,0.0,300.00662,7640.8963,-0.035310002928903406,0.0,0.0,0.0,0.0,-0.005388805695438786,-1.159048582064189,-0.5117904470222845,-0.6518026833304164,0.01744228075216908,0.007782192615192612,-0.02098315415412608
3532,0.0,300.68967000000004,7761.0568,-0.03532001260360074,0.0,0.0,0.0,0.0,-0.005390333313324502,-1.1653276929338887,-0.5153616571322356,-0.6784781539430804,-0.005636630968817165,0.006433956155282034,-0.016015609412617586
3533,0.0,300.02036,7708.2207,-0.035329989243068405,0.0,0.0,0.0,0.0,-0.00539185588956706,-1.173207029686519,-0.4989231434723805,-0.6709764352377183,-0.005965516853850675,-0.0023988117551692876,0.0028092575858021376
3534,0.0,300.08494,7711.3171,-0.035339998917765736,0.0,0.0,0.0,0.0,-0.005393383507452776,-1.1798856650706488,-0.4952258039899815,-0.6689363574863784,-0.014642187405571385,-0.0004745805900224575,-0.0009419533443985571
3535,0.0,300.0332,7728.1833,-0.03535000859246329,0.0,0.0,0.0,0.0,-0.005394911125338492,-1.188464448367309,-0.5022223060629826,-0.6584880061652064,-0.0028898214052281673,0.01134541203220499,0.006418347442791573
3536,0.0,299.40702000000005,7760.0807,-0.035359985231930735,0.0,0.0,0.0,0.0,-0.005396433701581049,-1.2052381958227487,-0.49922205225188054,-0.6544104851127863,-0.008758124308709571,-0.014736384201117886,-9.786808639532811e-05
3537,0.0,299.28263,7888.3344,-0.03536999490662818,0.0,0.0,0.0,0.0,-0.005397961319466765,-1.208631165107609,-0.49899994782996054,-0.6902255121574543,-0.00982656928273188,-0.005679017449650384,-0.0014300072628557288
3538,0.0,299.11565,7916.5701,-0.03538000458132562,0.0,0.0,0.0,0.0,-0.005399488937352481,-1.2155641262668389,-0.5100934658873055,-0.6807820110929533,-0.004693477206760136,-0.003884349176505416,0.0026943130759079976
3539,0.0,299.22488,7776.6871,-0.03539001425602317,0.0,0.0,0.0,0.0,-0.005401016555238225,-1.1851930690944488,-0.4973403252261685,-0.6813853609974994,0.009331305096828111,0.004699460245950616,-0.004321088644583246
3540,0.0,300.00907,7695.4980000000005,-0.03539999089549051,0.0,0.0,0.0,0.0,-0.005402539131480755,-1.1969422106289989,-0.48808235025497754,-0.6542146441334584,0.007273090371348133,0.004327948347760246,0.002423018300058288
3541,0.0,300.21303,7835.8331,-0.03541000057018806,0.0,0.0,0.0,0.0,-0.0054040667493664984,-1.1925451104950389,-0.5143193976818725,-0.6750331137355814,3.908849563923416e-05,-0.015319554216672285,-0.011076149937380889
3542,0.0,299.88548,7845.3371,-0.03542001024488539,0.0,0.0,0.0,0.0,-0.005405594367252187,-1.2131297929015887,-0.49899448641192157,-0.6726623010191004,0.004340678518041616,-0.015999834121810684,-0.0072134699248640535
3543,0.0,300.21325,7808.0463,-0.03542998688435306,0.0,0.0,0.0,0.0,-0.005407116943494772,-1.171737715716509,-0.5280826777652025,-0.6736307148021754,-0.007926907324949842,0.0034735391837866264,-0.02860667970700947
3544,0.0,300.42604,7779.1513,-0.03543999655905039,0.0,0.0,0.0,0.0,-0.00540864456138046,-1.1831062805134989,-0.5048235318522035,-0.6767379070288314,0.004119429279206016,0.004725075715103665,-0.01180967917502459
3545,0.0,300.58577,7813.323,-0.03545000623374772,0.0,0.0,0.0,0.0,-0.005410172179266176,-1.1835775431350088,-0.5099758072856936,-0.6815017023739813,-0.01066784763733459,0.00969776199159459,-0.008158442774825612
3546,0.0,300.50697,7767.6868,-0.035460015908445275,0.0,0.0,0.0,0.0,-0.00541169979715192,-1.1886548380610988,-0.5161701395195265,-0.6563579011424814,0.0005838744371564204,0.009172006475731562,-0.015224626867803685
3547,0.0,300.29900000000004,7763.9494,-0.03546999254791272,0.0,0.0,0.0,0.0,-0.0054132223733944496,-1.1955115014877988,-0.49432199503328256,-0.6702132349973964,0.009298203533286241,0.0017211271888370283,-0.00922011346265435
3548,0.0,299.94007,7760.6663,-0.035480002222610274,0.0,0.0,0.0,0.0,-0.005414749991280193,-1.195255250537509,-0.5089553225799794,-0.6548381881124974,0.005286659146552635,0.0018401339197070782,-0.02159504069076458
3549,0.0,299.91195,7708.674,-0.035490011897307605,0.0,0.0,0.0,0.0,-0.0054162776091658815,-1.178579383041729,-0.5081554832160415,-0.6565095441524474,-0.004013451830046856,-0.017625389230740484,-0.012625163120506589
3550,0.0,300.20217,7817.8551,-0.03549998853677527,0.0,0.0,0.0,0.0,-0.005417800185408467,-1.185220426847149,-0.5090929422085615,-0.6821193593699394,8.032914259686912e-05,-0.016599458305738984,-0.01056863930679349
3551,0.0,299.67337000000003,7852.9349,-0.035509998211472604,0.0,0.0,0.0,0.0,-0.005419327803294155,-1.2019937690025488,-0.5107108189082336,-0.6743915845672674,0.00047406415671148955,0.003144267453115037,-0.009034983246158422
3552,0.0,299.51676000000003,7838.9678,-0.03552000788617016,0.0,0.0,0.0,0.0,-0.005420855421179899,-1.191518992118769,-0.5067265573950175,-0.6846048922627423,0.005820030047517245,0.0007251465993013973,0.0056282954668695154
3553,0.0,299.52591,7771.8454,-0.03552998452563749,0.0,0.0,0.0,0.0,-0.005422377997422428,-1.202269373029749,-0.49306152204138354,-0.6671160232842254,0.0010409821472869391,-0.006680565017620432,0.0008453185373889443
3554,0.0,300.12504,7829.9598,-0.035539994200335046,0.0,0.0,0.0,0.0,-0.005423905615308172,-1.196144782800299,-0.5110512912068356,-0.6729161606991544,0.003864812600002306,0.0066414533611104136,-0.004260954885598506
3555,0.0,300.35731,7796.2207,-0.03555000387503249,0.0,0.0,0.0,0.0,-0.005425433233193888,-1.2027792404800688,-0.4987320850335245,-0.6683450855230243,-0.0008526445179969622,0.009198269816998552,-0.016773534672918984
3556,0.0,300.08912000000004,7763.1446,-0.03556001354972982,0.0,0.0,0.0,0.0,-0.005426960851079576,-1.1717948630221489,-0.5155053258639145,-0.6725019136607713,-0.008506843451485082,0.017269033223570884,0.0034250070371218766
3557,0.0,300.14213,7791.7541,-0.035569990189197376,0.0,0.0,0.0,0.0,-0.005428483427322162,-1.197923644675859,-0.5028757206549695,-0.6676993412342944,-0.017347510457065986,0.007101772172265343,-0.009545415583409171
3558,0.0,300.4208,7840.3854,-0.03557999986389471,0.0,0.0,0.0,0.0,-0.00543001104520785,-1.203478281724059,-0.4921612999900385,-0.6876418358599654,-0.005983178309718724,0.001824768285915608,0.008923850887115512
3559,0.0,299.93528,7877.9338,-0.03559000953859226,0.0,0.0,0.0,0.0,-0.005431538663093594,-1.201831142361499,-0.5305618474473774,-0.6623021227216304,0.007901263687444014,0.0013697171593805586,-0.02939727721678537
3560,0.0,299.93731,7913.3233,-0.035599986178059706,0.0,0.0,0.0,0.0,-0.005433061239336123,-1.2127625910653488,-0.5068253796772705,-0.6858646661120723,0.012305526283710887,-0.0027775256324204375,-0.002660400810961117
3561,0.0,300.06619,7832.1679,-0.03560999585275726,0.0,0.0,0.0,0.0,-0.005434588857221867,-1.189480940867629,-0.5137701249351636,-0.6775324166972434,0.014056881458806186,-0.0065593236649798435,-0.03293384734556767
3562,0.0,299.90892,7725.5445,-0.03562000552745459,0.0,0.0,0.0,0.0,-0.005436116475107583,-1.159563009139959,-0.5127902411609565,-0.6760193100579113,0.0038534530531312066,-0.0010832469367831488,-0.012457573580466789
3563,0.0,300.05758,7705.6631,-0.03563001520215214,0.0,0.0,0.0,0.0,-0.005437644092993299,-1.181443131799359,-0.49534746492948856,-0.6655386157935473,0.01134752769841379,0.0055619397443207146,-0.008696797245082061
3564,0.0,299.78202999999996,7687.7706,-0.03563999184161959,0.0,0.0,0.0,0.0,-0.0054391666692358565,-1.1839294448947386,-0.4987726353025265,-0.6541882489683534,-0.011836946748465688,0.003186689093726727,0.007895824662232223
3565,0.0,299.44212999999996,7659.799,-0.03565000151631714,0.0,0.0,0.0,0.0,-0.0054406942871215724,-1.1892201302918888,-0.4827130062525646,-0.6564545348045184,-0.008819055394198002,-0.008091588127927572,0.0030470680935472073
3566,0.0,299.6406,7834.1597,-0.035660011191014473,0.0,0.0,0.0,0.0,-0.005442221905007288,-1.2039895677245187,-0.5069442947090065,-0.6704550572662623,-0.017207230033721384,-0.005942701703998994,-0.007906300958991152
3567,0.0,299.4298,7985.6828,-0.03566998783048192,0.0,0.0,0.0,0.0,-0.005443744481249818,-1.2108928406558188,-0.5256278159529265,-0.6909274918267343,0.01003333694848826,-0.006537927673218223,-0.014162383085718386
3568,0.0,299.34551,7998.3336,-0.03567999750517947,0.0,0.0,0.0,0.0,-0.005445272099135562,-1.216201663229759,-0.5133708233357556,-0.7017211891794893,0.0022436626972072676,-0.0030710423001882774,0.0006354231408263815
3569,0.0,299.73075,7973.9055,-0.035690007179876804,0.0,0.0,0.0,0.0,-0.005446799717021278,-1.2196594805210188,-0.5172423810403485,-0.6869662817532933,0.004265274066799776,-0.004509898782792356,0.014387934584478587
3570,0.0,299.65902,7898.7631,-0.03569998381934425,0.0,0.0,0.0,0.0,-0.005448322293263808,-1.2180960356167188,-0.5056251748013195,-0.6773055499998533,0.001228862831179319,0.009239174419560521,-0.0017641455324326082
3571,0.0,299.92317,7780.0994,-0.03570999349404169,0.0,0.0,0.0,0.0,-0.0054498499111495236,-1.200667019321609,-0.4877440969740945,-0.6765448727522804,0.014189874587431586,0.016841393045366086,0.0019061396656713382
3572,0.0,300.24331,7745.8248,-0.035720003168739245,0.0,0.0,0.0,0.0,-0.005451377529035267,-1.1923895766046888,-0.5044786620481675,-0.6576690569043824,0.003983162947457576,0.019225182455877784,-0.02549732115163968
3573,0.0,299.89184,7752.7788,-0.03573001284343669,0.0,0.0,0.0,0.0,-0.005452905146920983,-1.171182049361669,-0.5012413989061746,-0.6842276896480153,-0.005781618850801354,0.0008088291924027262,-0.013658230365962386
3574,0.0,300.42957,7773.1058,-0.03573998948290402,0.0,0.0,0.0,0.0,-0.005454427723163513,-1.182252718629259,-0.5264413037957115,-0.6541360361907004,-0.020013889240967083,-0.004807998583412516,-0.030491252952252367
3575,0.0,300.82294,7737.9965,-0.035749999157601575,0.0,0.0,0.0,0.0,-0.005455955341049257,-1.180916444397379,-0.5069608613481414,-0.6642804023493714,-0.004855673216517636,-0.009171994823355413,-0.0031258193098693465
3576,0.0,299.73554,7705.8269,-0.03576000883229913,0.0,0.0,0.0,0.0,-0.0054574829589350005,-1.1935896700231288,-0.49124496726210354,-0.6575443055520703,-0.0034566072679905768,-0.012195127619065388,-0.006553646931294593
3577,0.0,300.01088,7959.5113,-0.03576998547176635,0.0,0.0,0.0,0.0,-0.005459005535177502,-1.2178260044650688,-0.5233730811679015,-0.6782935904373654,0.00015131295387842586,-0.020536336191278582,0.01103201681602529
3578,0.0,299.96084,7958.6518,-0.035779995146463905,0.0,0.0,0.0,0.0,-0.005460533153063218,-1.217225045830759,-0.5217740711850916,-0.6802322621186974,0.015323860529597286,-5.2440292830453956e-05,-0.017701241133226485
3579,0.0,299.44588,7880.4524,-0.03579000482116146,0.0,0.0,0.0,0.0,-0.005462060770948962,-1.1991769337245488,-0.5145621318758286,-0.6817216485731884,0.01161106796992319,0.0025074437169404274,-0.02092821168070368
3580,0.0,299.94619,7911.0627,-0.03580001449585879,0.0,0.0,0.0,0.0,-0.005463588388834678,-1.2189124112222889,-0.5091063373748835,-0.6767467932322084,0.008655703874026461,0.009334951682613,-0.01009321476049774
3581,0.0,299.32184,7817.6282,-0.035809991135326236,0.0,0.0,0.0,0.0,-0.005465110965077208,-1.2058626618593788,-0.49009583019119257,-0.6804052543082704,-0.007605953263024143,-0.017507563442861983,0.005770258898630214
3582,0.0,299.007,7732.6576,-0.03582000081002379,0.0,0.0,0.0,0.0,-0.005466638582962952,-1.194128009801259,-0.5030519349798606,-0.6533548406286024,0.0027488634215416976,0.015375015474145885,-0.0068794807043768835
3583,0.0,300.00971,7825.616,-0.03583001048472134,0.0,0.0,0.0,0.0,-0.005468166200848695,-1.2148063165170488,-0.4824338659825155,-0.6815516353389093,-0.0017185074307034783,0.004602819491162915,0.018474494841040683
3584,0.0,300.13895,7880.7651,-0.035839987124188566,0.0,0.0,0.0,0.0,-0.005469688777091197,-1.200101321790779,-0.5130763221941905,-0.6823781637104813,-0.0012545138654108789,0.015282323354997884,-0.004289186059884706
3585,0.0,300.04811,7926.1381,-0.03584999679888612,0.0,0.0,0.0,0.0,-0.005471216394976913,-1.2021622724941787,-0.5222444522790145,-0.6849413824884513,-0.01817947187567418,-0.007664022626255142,0.0005152514864488624
3586,0.0,300.34779,8089.7159,-0.03586000647358367,0.0,0.0,0.0,0.0,-0.005472744012862657,-1.2284678662903388,-0.5328665253298315,-0.6977372113763013,0.011706791733370388,0.007999384901952823,-0.006892457297082573
3587,0.0,299.74694,8070.7941,-0.035870016148281225,0.0,0.0,0.0,0.0,-0.005474271630748401,-1.220092442288749,-0.5350742757077195,-0.6981532113373574,0.013751848595701787,0.0008257297075781772,0.005194878243219565
3588,0.0,300.24006,7914.7563,-0.03587999278774845,0.0,0.0,0.0,0.0,-0.005475794206990903,-1.2149433079305687,-0.5072739556290415,-0.6836710404405784,0.003512539484110657,-0.013653142837210289,0.00028343756504810975
3589,0.0,300.80925,7836.0468,-0.03589000246244611,0.0,0.0,0.0,0.0,-0.005477321824876674,-1.2104204634591988,-0.5003800147311624,-0.6711621133185434,-0.0015630421373852485,-0.013367154009735387,0.009471665262955582
3590,0.0,300.89609,7878.3786,-0.035900012137143444,0.0,0.0,0.0,0.0,-0.00547884944276239,-1.1837603334530489,-0.5329349095790804,-0.6781351079892243,-0.009142907858034751,0.0015951215342262385,-0.022438148873722877
3591,0.0,300.27322000000004,7806.4994,-0.03590998877661089,0.0,0.0,0.0,0.0,-0.00548037201900492,-1.191592047450979,-0.5105783972526645,-0.6708104648713383,0.004872580105036215,0.015014683473583887,-0.023693242520840978
3592,0.0,299.7146,7789.2964,-0.03591999845130822,0.0,0.0,0.0,0.0,-0.005481899636890608,-1.195811018217359,-0.5086042314203295,-0.6633363876287044,-0.02201041243675858,-0.00037153174775982864,-0.02085726390870168
3593,0.0,299.7401,7856.2173,-0.035930008126005775,0.0,0.0,0.0,0.0,-0.005483427254776352,-1.2059304482910689,-0.5086248206623616,-0.6735386103680854,0.002331343180035658,-0.01231392004753929,-0.017521818858518882
3594,0.0,299.38774,7928.0343,-0.03593998476547322,0.0,0.0,0.0,0.0,-0.0054849498310188816,-1.2154819516837287,-0.5186610933003645,-0.6757814597294374,0.007520158235981832,-0.008581521807705262,-0.004807400867178526
3595,0.0,299.759,8014.6226,-0.03594999444017055,0.0,0.0,0.0,0.0,-0.0054864774489045975,-1.2239093554154488,-0.5246817240695545,-0.6876540759211733,0.029543490219465472,-0.001201662537544859,-0.0019476325612413682
3596,0.0,299.92832000000004,8022.2941,-0.03596000411486833,0.0,0.0,0.0,0.0,-0.005488005066790369,-1.2193101118865386,-0.5166712322239806,-0.7025957557383022,0.005423311323939155,-0.008622051001105182,0.006129663876675724
3597,0.0,300.04221,7923.691,-0.03597001378956566,0.0,0.0,0.0,0.0,-0.005489532684676085,-1.216263471485859,-0.5098221175105255,-0.6825185900418403,-0.0037946428014270866,0.0015385665745946985,0.0013016221930351088
3598,0.0,300.57569,7841.7653,-0.035979990429033104,0.0,0.0,0.0,0.0,-0.005491055260918615,-1.2127167921608288,-0.5112221353061965,-0.6597618844559283,-0.01677357418967288,0.01115621290728249,0.006317989681337034
3599,0.0,300.25809,7936.5216,-0.03599000010373066,0.0,0.0,0.0,0.0,-0.005492582878804331,-1.2037916799799888,-0.5106127869610585,-0.6980998839845943,0.0034808994325130275,-0.0014235111138146085,0.007465541725116602
3600,0.0,299.54469,7926.3787,-0.03600000977842821,0.0,0.0,0.0,0.0,-0.0054941104966900745,-1.2320431192681889,-0.5092774550517716,-0.6681006288038984,-0.0030498873606254473,-0.00920637976947394,0.006485735869842294
3601,0.0,299.60853,7846.6975,-0.036009986417895434,0.0,0.0,0.0,0.0,-0.005495633072932576,-1.1962770119383488,-0.5043421164646915,-0.6845809998253843,0.0074713989186446636,-0.025400559820090075,-0.007500990583840133
3602,0.0,299.08023,7911.71,-0.03601999609259299,0.0,0.0,0.0,0.0,-0.00549716069081832,-1.185421860967029,-0.5317866236382535,-0.6877538101285163,0.00926822632642772,-0.0011353254587978987,-0.03809634140631617
3603,0.0,299.4023,8011.5997,-0.03603000576729043,0.0,0.0,0.0,0.0,-0.005498688308704064,-1.2239031745898388,-0.5247894832176895,-0.6866335810829584,0.003071212424880067,0.014837457925093087,-0.026857184859097775
3604,0.0,300.1848,8036.7202,-0.03604001544198787,0.0,0.0,0.0,0.0,-0.00550021592658978,-1.237477990154569,-0.5126733728944225,-0.6928108704501093,-0.008598986490403892,0.006417969905804313,-0.013412259851186987
3605,0.0,300.14817,7897.4775,-0.03604999208145521,0.0,0.0,0.0,0.0,-0.00550173850283231,-1.2168241027661888,-0.5130151117556495,-0.6707967251999823,-0.015647236259261985,-0.0045633324254908455,-0.00045572366115642366
3606,0.0,300.75992,7817.0423,-0.03606000175615276,0.0,0.0,0.0,0.0,-0.005503266120718026,-1.217060291364499,-0.4966728669877955,-0.6624525498314764,-0.007137629573429193,-0.004539551445643846,0.007874774796704762
3607,0.0,300.32591,7854.9961,-0.03607001143085031,0.0,0.0,0.0,0.0,-0.005504793738603769,-1.1920525696214288,-0.5133553003442235,-0.6823148457117324,-0.0035422006582629863,-0.005668462929983734,0.002810083688608667
3608,0.0,299.57558,7872.7395,-0.03607998807031754,0.0,0.0,0.0,0.0,-0.005506316314846271,-1.196919209851729,-0.5186082117776456,-0.6775888445953123,0.001366295717767889,-0.007178098985073213,-0.009552850711317961
3609,0.0,299.71159,7976.5425,-0.03608999774501509,0.0,0.0,0.0,0.0,-0.005507843932732015,-1.2222139853481289,-0.5128166971210675,-0.6896391139270813,-0.0013400964139072187,0.0015394984607116687,-0.003978930804439896
3610,0.0,299.5895,7954.0969,-0.03610000741971264,0.0,0.0,0.0,0.0,-0.005509371550617759,-1.2181786154998688,-0.5270791548661624,-0.6725890430368704,0.014240346601412787,0.01856599943107148,-0.025196333182934478
3611,0.0,299.6242,7886.018,-0.03610998405918009,0.0,0.0,0.0,0.0,-0.0055108941268602885,-1.2037968475554988,-0.5136493455232436,-0.6797063549192943,-0.007843566794949774,0.01120377182722619,-0.008442217245531972
3612,0.0,300.58808,7999.3785,-0.03611999373387742,0.0,0.0,0.0,0.0,-0.0055124217447460044,-1.2474225332610187,-0.5084736437474415,-0.6757151121128894,0.008665308674374383,-0.009178791299726171,-0.0036383613351533067
3613,0.0,300.79381,8136.9797,-0.03613000340857497,0.0,0.0,0.0,0.0,-0.00551394936263172,-1.2307112020117388,-0.5318850507529675,-0.7108424361821863,-0.013070476406955588,-0.019268577931160585,0.0022866224749470677
3614,0.0,300.74991,8073.3582,-0.036140013083272526,0.0,0.0,0.0,0.0,-0.005515476980517464,-1.2461139207568688,-0.5168756959616595,-0.6911096640622134,0.014030579512710386,-0.0056512299775829744,-0.014481456555458487
3615,0.0,300.69996000000003,8081.3444,-0.03614998972273997,0.0,0.0,0.0,0.0,-0.005516999556759994,-1.2387003750752088,-0.5250774691611115,-0.6927490115315044,-0.010998955478512389,0.001109826513406349,-0.00040602083572363666
3616,0.0,300.51246000000003,7979.57,-0.036159999397437304,0.0,0.0,0.0,0.0,-0.00551852717464571,-1.2259150839883988,-0.5053531779444755,-0.6943217783367243,-0.016481381231835682,0.002519212008901868,-0.0060275892642517445
3617,0.0,300.52272,7952.1465,-0.03617000907213486,0.0,0.0,0.0,0.0,-0.005520054792531454,-1.2204670408507188,-0.5097343295218615,-0.6870526511918174,-0.017504521666061784,0.011654799844239188,0.010011828181990512
3618,0.0,300.02213,8015.7332,-0.03617998571160219,0.0,0.0,0.0,0.0,-0.005521577368773983,-1.2215378435563988,-0.5254160770795294,-0.6896287585110593,0.0019109491585959982,0.012840277129986687,-0.008370656355894462
3619,0.0,299.71272,7936.5886,-0.036189995386299634,0.0,0.0,0.0,0.0,-0.005523104986659699,-1.2024185234444689,-0.5277664424089925,-0.6823398020616954,0.024090116373009375,0.01140642995322699,-0.014897070468226385
3620,0.0,300.12791,7824.6569,-0.03620000506099719,0.0,0.0,0.0,0.0,-0.005524632604545415,-1.1933642218758789,-0.5191918742327486,-0.6659442198085773,0.013737758339811187,-0.017556880351729184,-0.01136633058051949
3621,0.0,300.52443999999997,7909.5801,-0.03621001473569463,0.0,0.0,0.0,0.0,-0.005526160222431159,-1.211054454046769,-0.5207464126686695,-0.6725140219994664,-0.0035490068618347073,-0.017661256257780283,-0.014213860243798785
3622,0.0,300.29372,8098.1423,-0.036219991375162075,0.0,0.0,0.0,0.0,-0.005527682798673689,-1.226656580411579,-0.5309469939428885,-0.7040294640997984,-0.007235149525328663,-0.02130621071000928,-0.004205943308519286
3623,0.0,299.39522999999997,7978.7027,-0.036230001049859406,0.0,0.0,0.0,0.0,-0.005529210416559405,-1.223918474666349,-0.5073215277212365,-0.6940863598084904,-0.01021936693107299,0.013347945827589688,0.003980722737241747
3624,0.0,299.15005,7884.3175,-0.03624001072455696,0.0,0.0,0.0,0.0,-0.0055307380344451484,-1.2066020304573488,-0.5097192219628705,-0.6803143860393024,-0.012758387270154789,0.0017914594114032782,0.003991683874173526
3625,0.0,299.42861,7982.1686,-0.036249987364024405,0.0,0.0,0.0,0.0,-0.005532260610687678,-1.2291721764348489,-0.5058604920045435,-0.6913472610781624,-0.009559684880592442,0.008997724317456251,-0.0006101078976779614
3626,0.0,300.17843,8131.8163,-0.03625999703872196,0.0,0.0,0.0,0.0,-0.005533788228573422,-1.262381043162309,-0.5234493890329325,-0.6860386310217413,0.002168360280250498,0.01144827008960629,-0.013024509302918987
3627,0.0,300.2682,8103.6545,-0.03627000671341929,0.0,0.0,0.0,0.0,-0.00553531584645911,-1.2524307245302886,-0.5291097080665624,-0.6817681770177804,0.006417695213702204,-0.0025924380737537174,-0.014030070861160185
3628,0.0,300.18367,8028.5672,-0.03628001638811684,0.0,0.0,0.0,0.0,-0.005536843464344854,-1.224499674923709,-0.5183726919244015,-0.6976115784964023,0.006612663278069055,-0.010633404226685291,-0.0005222626198533075
3629,0.0,300.57327999999995,7998.7634,-0.03628999302758429,0.0,0.0,0.0,0.0,-0.005538366040587384,-1.226319978728359,-0.5161258908876595,-0.6889784951268834,-0.0060137936614902245,-0.008396361396356352,0.0026583888002375475
3630,0.0,300.4887,8050.5111,-0.03630000270228162,0.0,0.0,0.0,0.0,-0.0055398936584730996,-1.2143883508507989,-0.5307173509402245,-0.7020486817443103,-0.0024451707843445676,-0.006407734965219203,-0.003153971551972757
3631,0.0,300.08221000000003,7998.8089,-0.03631001237697917,0.0,0.0,0.0,0.0,-0.005541421276358843,-1.2211964795977088,-0.5246614489350535,-0.6855802366765014,0.0018221609907582883,0.005870918405964535,-0.013825842197504386
3632,0.0,299.59623,7954.7104,-0.03631998901644662,0.0,0.0,0.0,0.0,-0.005542943852601373,-1.2346383567493187,-0.5127401055460086,-0.6706548397884794,0.0005888053377080624,0.0006590893397020535,-0.01001623024704996
3633,0.0,299.49039,7916.2729,-0.03632999869114417,0.0,0.0,0.0,0.0,-0.005544471470487117,-1.2302563540418487,-0.5080747474480735,-0.6680182110407644,0.007936136918785731,-0.01171643483457209,-0.01357383879163359
3634,0.0,299.5427,7953.7038,-0.0363400083658415,0.0,0.0,0.0,0.0,-0.005545999088372805,-1.2249246320156488,-0.5175023404860044,-0.6753003483169554,-0.008853541564001522,-0.007140579853745363,-0.012283413113528489
3635,0.0,299.77931,8082.2632,-0.03634998500530906,0.0,0.0,0.0,0.0,-0.00554752166461539,-1.2518116287191887,-0.4963360018595495,-0.7086586086391593,0.0007810645589925702,0.007322082330908263,0.003038702092771547
3636,0.0,300.00035,8133.4307,-0.03635999468000639,0.0,0.0,0.0,0.0,-0.005549049282501078,-1.228294803173259,-0.5271155812072575,-0.7169494870524054,0.005294932130969115,0.0037539184560579065,0.007236611645222963
3637,0.0,300.65366,8059.9309,-0.036370004354703944,0.0,0.0,0.0,0.0,-0.005550576900386822,-1.2353785359473688,-0.5278893800436255,-0.6867498312669313,0.001958700697383708,0.020840846217331378,-0.008023900285472303
3638,0.0,300.44543,8050.1864,-0.036380014029401386,0.0,0.0,0.0,0.0,-0.005552104518272538,-1.2520198516147387,-0.5107944728364896,-0.6842413583918643,0.0006088304223493844,-0.005103135032790215,-0.01338444208294159
3639,0.0,300.66996,8070.7799,-0.03638999066886894,0.0,0.0,0.0,0.0,-0.005553627094515096,-1.2368659870941687,-0.5331423320070515,-0.6833072431246743,-0.016585887847149684,-0.004256630131521686,-0.02234431178196188
3640,0.0,300.21726,8027.4988,-0.036400000343566274,0.0,0.0,0.0,0.0,-0.005555154712400812,-1.2277082326903688,-0.5234979946402295,-0.6889529612243633,-0.005085245291674635,-0.02168580256847208,-0.009986704240460971
3641,0.0,300.63947,8003.4496,-0.036410010018263606,0.0,0.0,0.0,0.0,-0.0055566823302865,-1.2120181562168788,-0.5265960473509835,-0.6942346692256273,0.0014103286286885988,-0.015762892678676383,-0.002952167089181207
3642,0.0,300.17256000000003,7944.1794,-0.036419986657731274,0.0,0.0,0.0,0.0,-0.005558204906529085,-1.2083845400332687,-0.5202752007096646,-0.6861724205649453,0.02293778959078358,-0.0006099893980787664,-0.0024862538202491476
3643,0.0,299.91525,7970.425,-0.036429996332428605,0.0,0.0,0.0,0.0,-0.005559732524414773,-1.2263572663320388,-0.5152742845761125,-0.6811786579770993,0.004282231111198306,0.008126932216590763,-0.0006959409722615263
3644,0.0,299.67531,8066.885,-0.03644000600712616,0.0,0.0,0.0,0.0,-0.005561260142300517,-1.2562103500533088,-0.5071614848679415,-0.6887597546952954,0.007763743154721793,0.004467164453199806,-0.0027108151710116273
3645,0.0,299.94819,8220.4906,-0.03645001568182349,0.0,0.0,0.0,0.0,-0.005562787760186233,-1.2492002805614688,-0.5526502031348285,-0.6969734234509214,-0.01978375075900418,0.008072053780574682,-0.004204911515942456
3646,0.0,299.76203,8101.5178,-0.03645999232129116,0.0,0.0,0.0,0.0,-0.0055643103364287905,-1.2506390957034688,-0.5231236899207885,-0.6888963610737774,-0.010300279004558389,0.0005450853386832345,-0.01230868458427259
3647,0.0,300.00611000000004,8023.7608,-0.03647000199598849,0.0,0.0,0.0,0.0,-0.0055658379543145065,-1.214388958800859,-0.5308687507701665,-0.6937651797917923,-0.01991136656934888,0.0003986271396114356,-0.00825362070044394
3648,0.0,299.77807,8031.1127,-0.03648001167068604,0.0,0.0,0.0,0.0,-0.0055673655722002224,-1.2060064420485688,-0.5128301328173935,-0.7224211591824173,-0.004578548706217576,0.0029187703658852073,-0.0021752937480347782
3649,0.0,300.27567999999997,8079.1612,-0.03648998831015349,0.0,0.0,0.0,0.0,-0.00556888814844278,-1.2294743276146687,-0.5274941314446175,-0.6988947584230423,-0.0007130387368339444,0.013167415057272687,-0.006281295842215634
3650,0.0,300.61127,8048.8665,-0.03649999798485093,0.0,0.0,0.0,0.0,-0.005570415766328496,-1.230359806877059,-0.5310131389094165,-0.6852814900170173,0.004757002820454626,0.008113789248218654,-0.028283239129338368
3651,0.0,301.04401,7990.2662,-0.03651000765954837,0.0,0.0,0.0,0.0,-0.005571943384214212,-1.2341918174302489,-0.5140022504005726,-0.6806473501546634,0.0014797611864910585,-0.006998805190478294,-0.007759194877672912
3652,0.0,300.39705,7967.2155,-0.03651998429901593,0.0,0.0,0.0,0.0,-0.005573465960456769,-1.2434960877985088,-0.5096198018630586,-0.6687186910998963,0.004070319377334246,-0.019528983206860584,-0.0017865123191150383
3653,0.0,300.06588,8061.6043,-0.03652999397371326,0.0,0.0,0.0,0.0,-0.005574993578342485,-1.2224800648243888,-0.5184675118687595,-0.7095788626449814,0.008626052832375131,-0.015591285601990084,0.006196804057451944
3654,0.0,300.09935,8194.9849,-0.0365400036484107,0.0,0.0,0.0,0.0,-0.005576521196228201,-1.2348455663947686,-0.5306858692596175,-0.7255393451726584,0.017068499883029782,-0.013122123791052787,0.009547850626049492
3655,0.0,300.18188,8124.8668,-0.036550013323108144,0.0,0.0,0.0,0.0,-0.005578048814113917,-1.251344824398119,-0.5176272032958276,-0.7007845711845523,-0.001086227513277309,0.002227367203799028,0.005994558729541885
3656,0.0,299.53157000000004,8049.0283,-0.03655998996257559,0.0,0.0,0.0,0.0,-0.005579571390356447,-1.2534172248276487,-0.5126368756258205,-0.6806494881123744,0.007615053059522223,0.0067370278728178835,0.0016136870118335087
3657,0.0,300.0351,8160.6933,-0.03656999963727314,0.0,0.0,0.0,0.0,-0.005581099008242191,-1.260747684001109,-0.5272806700460505,-0.6926186265086364,-0.015252089998514086,0.02044556924732058,-0.016269103309385483
3658,0.0,299.54022000000003,8215.4266,-0.036580009311970474,0.0,0.0,0.0,0.0,-0.005582626626127907,-1.2691897798592788,-0.5262732663991275,-0.7018214604093854,-0.012662737473964887,0.011646893453708888,-0.013412263904187387
3659,0.0,300.34892,8075.7039,-0.03658998595143814,0.0,0.0,0.0,0.0,-0.005584149202370464,-1.219985037778149,-0.5275508227877125,-0.7072764949727554,-0.00977523762736584,-0.0021560905308145683,-0.02311268263754418
3660,0.0,300.51488,7973.6271,-0.03659999562613547,0.0,0.0,0.0,0.0,-0.00558567682025618,-1.2099376497865488,-0.5051591810803294,-0.7086866959319313,-0.019570900350247483,-0.0018661866062782782,0.008546853354208751
3661,0.0,300.28302,8069.0809,-0.036610005300833026,0.0,0.0,0.0,0.0,-0.005587204438141924,-1.2308596431513887,-0.5245270413092885,-0.6974123937917444,0.0012834359749402688,0.005683511416493905,-0.0048099963073096755
3662,0.0,299.90959,8200.5604,-0.03662001497553036,0.0,0.0,0.0,0.0,-0.005588732056027612,-1.236586735366609,-0.5500693842026215,-0.7061095145675833,-0.009919257044904449,-0.008456195334636502,-0.001110555040228249
3663,0.0,300.71107,8230.9485,-0.036629991614997914,0.0,0.0,0.0,0.0,-0.005590254632270197,-1.2684152514828388,-0.5408690428971185,-0.6927185734985003,-0.004111596551957987,-0.011442855281071888,-0.015644925035783887
3664,0.0,300.72147,8166.7789,-0.036640001289695356,0.0,0.0,0.0,0.0,-0.005591782250155886,-1.2613674890872788,-0.5272939841523645,-0.6938353676262192,0.01029280223207049,-0.01995950912135018,0.010006266756166641
3665,0.0,300.72702999999996,8002.8407,-0.03665001096439269,0.0,0.0,0.0,0.0,-0.005593309868041602,-1.217583837691169,-0.5166743834317915,-0.6984055308772593,0.03192745796199477,0.0007075146898062634,-0.012874974866411088
3666,0.0,299.72525,8035.2247,-0.036659987603860245,0.0,0.0,0.0,0.0,-0.005594832444284159,-1.2365987930427988,-0.5123035670054255,-0.6936052990585133,0.014416139414262185,-0.009759703692732762,-0.007155463383139254
3667,0.0,299.92924,8172.2074,-0.03666999727855769,0.0,0.0,0.0,0.0,-0.005596360062169875,-1.2520225873900088,-0.5235139127993005,-0.7086104792594093,0.011638010290082188,-0.006428024791846654,-0.004915348479832125
3668,0.0,300.04156,8077.891,-0.03668000695325513,0.0,0.0,0.0,0.0,-0.005597887680055619,-1.245810857651959,-0.5158562042410435,-0.6938101376987293,-0.00926057902394799,0.006942473145868753,-0.00920675923163639
3669,0.0,299.93815,7916.7669,-0.036689983592722575,0.0,0.0,0.0,0.0,-0.0055994102562981485,-1.2316459252289889,-0.4942193730631545,-0.6806341576383613,-0.005324633733800434,0.02114178960303218,-0.016738888612249685
3670,0.0,299.99282,8042.4805,-0.03669999326742013,0.0,0.0,0.0,0.0,-0.0056009378741838645,-1.2355921290684488,-0.5215638927168486,-0.6875572497416174,-0.01824783687317128,0.012052915941030189,-0.01122905140397109
3671,0.0,300.37457,8164.0541,-0.03671000294211746,0.0,0.0,0.0,0.0,-0.0056024654920695804,-1.2259313973150088,-0.5343793989216404,-0.7213578139974733,-0.02144805356500808,-0.016203998950710185,0.004671773085643105
3672,0.0,300.20736,8061.9018,-0.03672001261681501,0.0,0.0,0.0,0.0,-0.005603993109955324,-1.2395398527830588,-0.5110124735955045,-0.7000644847359854,-0.004277072350964176,-0.008802598287398811,0.01205485023547109
3673,0.0,300.99739,8046.6581,-0.03672998925628246,0.0,0.0,0.0,0.0,-0.005605515686197854,-1.226318154878179,-0.5203835475428574,-0.6992814247937034,0.018162404690989783,0.000884968543809595,0.007212469036415274
3674,0.0,300.40797000000003,8168.5203,-0.03673999893098001,0.0,0.0,0.0,0.0,-0.005607043304083598,-1.2472817928221287,-0.5276015562202195,-0.7081428136757543,0.023287347703032278,-0.011762601548878388,-0.007250758947094192
3675,0.0,300.17901,8195.1227,-0.03675000860567734,0.0,0.0,0.0,0.0,-0.005608570921969314,-1.2506991814343988,-0.5365099497744095,-0.7039035373773703,0.005836398798907715,-0.007546903377671373,-0.0011168527948997888
3676,0.0,299.96558999999996,8167.2594,-0.03675998524514479,0.0,0.0,0.0,0.0,-0.005610093498211843,-1.2550985107185788,-0.5240696804791505,-0.7034747400675513,0.003970485162206376,0.0007451911687421423,-0.017690881664204086
3677,0.0,299.80967999999996,8156.8251,-0.03676999491984234,0.0,0.0,0.0,0.0,-0.005611621116097559,-1.2306808045087387,-0.5256025049654285,-0.7231878044730794,0.021248961066109177,0.02125986363718518,-0.007210775895498174
3678,0.0,299.47944,8084.1688,-0.03678000459453967,0.0,0.0,0.0,0.0,-0.005613148733983275,-1.2514471626582189,-0.5173763225710675,-0.6885619581432744,-0.008496350436099502,0.011692450191454989,-0.01002694242843217
3679,0.0,300.09873999999996,8056.3698,-0.036790014269237226,0.0,0.0,0.0,0.0,-0.005614676351869019,-1.2273153956265987,-0.5187207230687495,-0.7028991228182424,-0.005537157774699925,-0.015175601774965287,-0.009216168272064992
3680,0.0,299.74504,8143.153,-0.03679999090870467,0.0,0.0,0.0,0.0,-0.005616198928111549,-1.2565880896905888,-0.5242615799155895,-0.6944655179959103,-0.024875845216054775,0.0005150339011223885,-0.0012583722204666688
3681,0.0,299.88223,8193.6537,-0.036810000583402225,0.0,0.0,0.0,0.0,-0.0056177265459972925,-1.2522555335879988,-0.5359949147485795,-0.7024157315930354,-0.017634191334359183,0.012555648084145988,-0.012547395162081488
3682,0.0,299.95116,8127.4182,-0.036820010258099556,0.0,0.0,0.0,0.0,-0.0056192541638830085,-1.2461607329114888,-0.5245782307043405,-0.6997931870217103,-0.013168911627670388,0.012510537176443888,-0.007270723115139503
3683,0.0,300.55253,8102.8023,-0.03682998689756689,0.0,0.0,0.0,0.0,-0.005620776740125538,-1.2251879757166386,-0.5406516399556626,-0.6972099768192673,-0.013955442964794987,0.0024673626840597375,-0.0034957245987011563
3684,0.0,300.26871,8123.477,-0.036839996572264444,0.0,0.0,0.0,0.0,-0.005622304358011254,-1.2685218453933589,-0.5050524554472965,-0.6957598639386524,0.01057456580662839,0.004643857640088066,0.008122686192046712
3685,0.0,300.6729,8169.5029,-0.036850006246962,0.0,0.0,0.0,0.0,-0.005623831975896998,-1.2489507170618388,-0.5208177657407116,-0.7135563860450324,0.020144755557632583,-0.007152236890845823,-0.0050151312218549154
3686,0.0,300.40379,8091.0317,-0.03686001592165944,0.0,0.0,0.0,0.0,-0.005625359593782714,-1.262015158551199,-0.5165932322312825,-0.6808631825584643,0.014252177309580387,-0.001981823976590798,-0.00905060766402543
3687,0.0,300.95027000000005,8171.5961,-0.036869992561126996,0.0,0.0,0.0,0.0,-0.005626882170025271,-1.2597228828499687,-0.5170518190940415,-0.7071864373038673,0.005626421359484555,-0.02183260730921058,-0.008236750592903993
3688,0.0,300.47823999999997,8159.5236,-0.03688000223582433,0.0,0.0,0.0,0.0,-0.005628409787910987,-1.247123928456549,-0.5241156415036865,-0.7090518408704684,0.007051655201119182,0.015291513533404882,-0.009426209850219481
3689,0.0,299.66953,8189.0429,-0.03689001191052166,0.0,0.0,0.0,0.0,-0.005629937405796703,-1.253530810163859,-0.5240010733148796,-0.7117326371900423,0.0040464069789492765,0.016909788440366183,0.0030717798449360675
3690,0.0,300.09589,8270.9409,-0.03689998854998933,0.0,0.0,0.0,0.0,-0.005631459982039261,-1.2699403955333588,-0.5294519940828435,-0.7147671591195263,-0.013460497648697686,0.013327075915279986,0.004374886348042666
3691,0.0,300.24147999999997,8157.6049,-0.03690999822468666,0.0,0.0,0.0,0.0,-0.005632987599924949,-1.248366781029209,-0.5319703056163815,-0.6993711480900583,-0.012005708618871187,-0.003212955981369067,-0.005680671681763645
3692,0.0,299.75853,8162.246,-0.03692000789938421,0.0,0.0,0.0,0.0,-0.005634515217810693,-1.2534602879568988,-0.5393497756971785,-0.6883089495933044,-0.017120153346627583,-0.006065095527303324,-0.013125584040144288
3693,0.0,299.58156,8249.1126,-0.036929984538851435,0.0,0.0,0.0,0.0,-0.005636037794053195,-1.2553876922971188,-0.5414571940501645,-0.7106793333135893,0.007265835297982114,-0.00950344970269246,-0.015476162152128286
3694,0.0,299.49666,8196.9399,-0.03693999421354921,0.0,0.0,0.0,0.0,-0.005637565411938966,-1.236755036208219,-0.5427972781024205,-0.7121127073025523,-0.014215057905416986,-0.007987584185988182,-0.0022105398554132976
3695,0.0,299.45984,7929.4702,-0.03695000388824654,0.0,0.0,0.0,0.0,-0.005639093029824682,-1.2250405478270887,-0.49807248961592754,-0.6872479450160913,0.009107478757688171,-0.008656383055568491,0.0036379634318390365
3696,0.0,300.44719,8022.9343,-0.036960013562944094,0.0,0.0,0.0,0.0,-0.005640620647710426,-1.2269113114867187,-0.5156044419886965,-0.6962559207901093,0.00011429323325986388,0.0019087954955084483,0.007904581777546481
3697,0.0,300.48837000000003,8222.1349,-0.03696999020241143,0.0,0.0,0.0,0.0,-0.005642143223952956,-1.2684486887361388,-0.5226267008792395,-0.7082483335411683,0.019288556183382283,0.010132913392790691,-0.01018047433923459
3698,0.0,300.33435,8329.8908,-0.03697999987710898,0.0,0.0,0.0,0.0,-0.005643670841838672,-1.2953084290119887,-0.5293561608883856,-0.7074141855288444,0.005434107605079665,0.010535484750271391,-0.017089167145319484
3699,0.0,300.11638999999997,8226.9825,-0.036990009551806424,0.0,0.0,0.0,0.0,-0.005645198459724388,-1.2518996801528788,-0.5434509966694375,-0.7054465450271533,0.004444998999312245,-0.006924059858426503,-0.038479353997116564
3700,0.0,300.57756,8168.5224,-0.03699998619127376,0.0,0.0,0.0,0.0,-0.005646721035966917,-1.243239127573149,-0.5312951162797455,-0.7084926281402784,0.005566971341667296,-0.004331514582812206,-0.007156206906062634
3701,0.0,300.05161,8207.9899,-0.03700999586597131,0.0,0.0,0.0,0.0,-0.005648248653852661,-1.247359103804759,-0.5349834175712525,-0.7126814749811853,0.007113589910831664,-0.005273498851603815,-0.0064319623830602635
3702,0.0,299.72553999999997,8174.6518,-0.03702000554066864,0.0,0.0,0.0,0.0,-0.005649776271738377,-1.257575907213079,-0.5166688713512475,-0.7106452475802253,-0.004411227677454276,-0.005837765470642594,0.023510159373522077
3703,0.0,299.86117,8177.4058,-0.0370300152153662,0.0,0.0,0.0,0.0,-0.005651303889624121,-1.2627031553690988,-0.5235258590179794,-0.6994981488575923,-0.01361742374468509,-0.01832346687388538,0.008571044700346251
3704,0.0,299.28238,8130.3793,-0.03703999185483364,0.0,0.0,0.0,0.0,-0.0056528264658666505,-1.2647305674941889,-0.5186866778653896,-0.6880150462692983,-0.016944406130032685,-0.004771272826912965,0.005271327456639515
3705,0.0,299.10697999999996,8197.5825,-0.037050001529531196,0.0,0.0,0.0,0.0,-0.0056543540837523665,-1.252038799391609,-0.5482830344088225,-0.6915385424320404,0.013315344505622186,-0.010729974053965991,-0.017653645736279183
3706,0.0,299.68406,8354.8933,-0.03706001120422853,0.0,0.0,0.0,0.0,-0.0056558817016380825,-1.2714849939857988,-0.5450811032978164,-0.7231128340981804,0.005770683349097104,0.01120374750922379,0.007712646370728932
3707,0.0,300.12055,8337.6367,-0.03706998784369597,0.0,0.0,0.0,0.0,-0.005657404277880612,-1.2808848138384885,-0.5361561735019945,-0.7173923786711154,0.018622309792128883,-0.003702169037675637,0.006437974705178634
3708,0.0,300.17622,8215.8909,-0.037079997518393526,0.0,0.0,0.0,0.0,-0.005658931895766356,-1.2548947461234687,-0.5222375925758376,-0.7202933339724172,0.004517232585691145,-0.00014254121736522287,-0.005495724559560785
3709,0.0,300.69236,8157.9394,-0.03709000719309108,0.0,0.0,0.0,0.0,-0.0056604595136521,-1.2608347221846987,-0.5251170568425185,-0.6938580644284593,0.009285305264813281,0.014847264159560884,-0.018610689839982084
3710,0.0,300.30813,8238.2152,-0.0370999838325583,0.0,0.0,0.0,0.0,-0.005661982089894602,-1.2672512297679588,-0.5416429633234985,-0.6953175802700023,-0.005272658867270915,0.012740829672421988,-0.03092598284140687
3711,0.0,300.04957,8231.9414,-0.037109993507255856,0.0,0.0,0.0,0.0,-0.005663509707780345,-1.263987956495899,-0.5361290791943205,-0.7021876084655213,-0.016091440036851486,0.0016895163188422784,-0.03292512022245637
3712,0.0,299.87579,8209.7558,-0.03712000318195341,0.0,0.0,0.0,0.0,-0.005665037325666061,-1.2504066561305287,-0.5416670178808725,-0.7034871321162743,-0.027222762455427475,0.0043053665494065954,-0.017598952522381382
3713,0.0,299.7398,8127.1135,-0.03713001285665074,0.0,0.0,0.0,0.0,-0.005666564943551777,-1.2434215125911487,-0.5217755403977364,-0.7052424967220153,-0.008975122558075631,0.009052027632715572,0.014804758317865884
3714,0.0,299.77828,8123.2193,-0.037139989496118186,0.0,0.0,0.0,0.0,-0.005668087519794307,-1.2386766650228689,-0.5201718289344625,-0.7104072959267413,0.0009896810110139112,-0.003935099834264116,0.007552483649947103
3715,0.0,299.73885,8299.261999999999,-0.03714999917081563,0.0,0.0,0.0,0.0,-0.005669615137680051,-1.275449132352029,-0.5352512601026864,-0.7120680128406413,-0.012605366240052788,-0.009837178821878961,0.016138625067508287
3716,0.0,299.9152,8363.55,-0.03716000884551318,0.0,0.0,0.0,0.0,-0.0056711427555657945,-1.2970598318098385,-0.5318267382097125,-0.7134237921369463,0.003665733172029697,-0.008907620545688702,-0.011974095215751188
3717,0.0,299.44836000000004,8369.313,-0.037169985484980406,0.0,0.0,0.0,0.0,-0.0056726653318082965,-1.2672036070132588,-0.5687021416165314,-0.7081564317570983,0.006425250107772814,0.006163827224997385,-0.02206282989093178
3718,0.0,299.9078,8235.4302,-0.03717999515967796,0.0,0.0,0.0,0.0,-0.00567419294969404,-1.2695635678211687,-0.5228931552580366,-0.7109083886311953,0.01741191162017188,0.0034855107337181264,-0.02049389925059038
3719,0.0,300.27508,8199.982,-0.03719000483437551,0.0,0.0,0.0,0.0,-0.005675720567579756,-1.261652111040369,-0.5162603897059335,-0.7146772129081492,0.006886878342031974,-0.015768794860508886,-0.001983971661502758
3720,0.0,300.52632,8097.5243,-0.037200014509073065,0.0,0.0,0.0,0.0,-0.0056772481854655,-1.2485832112505686,-0.5062502690530115,-0.7066116813171434,-0.0066892283059754335,-0.003252458651092677,0.0009534536317085473
3721,0.0,300.09282,8050.1804,-0.03720999114854029,0.0,0.0,0.0,0.0,-0.005678770761708002,-1.248813320348279,-0.5129833564975155,-0.6852571314846133,-0.0015839996958285985,0.017774498102206382,-0.003408444147012247
3722,0.0,300.26164,8193.7609,-0.03722000082323784,0.0,0.0,0.0,0.0,-0.005680298379593746,-1.2661500295592787,-0.5326018948012146,-0.6919468315598353,-0.006682512079012592,0.016778959613954383,-0.011060477998084189
3723,0.0,300.22468,8315.1223,-0.037230010497935395,0.0,0.0,0.0,0.0,-0.005681825997479489,-1.2694407619090489,-0.5396138996007455,-0.7185349296163763,-0.0067841823033216635,0.005626082528651114,-0.012477228605906589
3724,0.0,299.43161000000003,8324.7613,-0.03723998713740284,0.0,0.0,0.0,0.0,-0.005683348573722019,-1.2747189843299687,-0.5405858192291665,-0.7152147522187003,-0.015892746758491984,-0.009447337938654661,-0.0018104584587283381
3725,0.0,299.2382,8352.3595,-0.03724999681210017,0.0,0.0,0.0,0.0,-0.005684876191607735,-1.256082680540709,-0.5482211248277125,-0.7346049444798632,0.0029748682483966373,0.005838030030243704,0.008479785823464701
3726,0.0,299.85816,8387.7342,-0.037260006486797725,0.0,0.0,0.0,0.0,-0.005686403809493451,-1.266983630416549,-0.5432673856188165,-0.7394107694391613,-0.002911757864593127,-0.005828285198731964,0.013971832285162487
3727,0.0,299.93196,8365.9029,-0.03727001616149528,0.0,0.0,0.0,0.0,-0.005687931427379195,-1.2869122333833487,-0.5386544733460575,-0.7174588478776753,-0.002152254467260978,-0.016701665856576085,0.0015467769401549985
3728,0.0,300.41716,8346.9043,-0.0372799928009625,0.0,0.0,0.0,0.0,-0.005689454003621697,-1.2876640649575486,-0.5437316973446406,-0.7058546922999342,0.004193284673694976,-0.004690633824329516,-0.019513183598051282
3729,0.0,300.38153,8265.2386,-0.037290002475660056,0.0,0.0,0.0,0.0,-0.0056909816215074405,-1.2721764358540386,-0.5374158662913164,-0.7028338999093053,0.017928033863359182,0.01167390264837449,-0.018157201651726282
3730,0.0,300.36357999999996,8210.7173,-0.03730001215035761,0.0,0.0,0.0,0.0,-0.005692509239393184,-1.260359507887799,-0.5275985772649254,-0.7078949524362923,0.01844561923969088,-0.004798732917873066,-0.022808514076775078
3731,0.0,300.13388,8157.7298,-0.037309988789824944,0.0,0.0,0.0,0.0,-0.005694031815635714,-1.2462792831731888,-0.5122014009978425,-0.7212655373108663,0.003188872951667257,-0.01025605671719399,0.001040777470766739
3732,0.0,300.14047999999997,8160.1686,-0.037319998464522386,0.0,0.0,0.0,0.0,-0.00569555943352143,-1.2524624392584187,-0.5230974670082005,-0.7049275481934324,0.008637182878098582,-0.009753864839031512,0.003462894383536067
3733,0.0,299.50407,8190.8032,-0.03733000813921994,0.0,0.0,0.0,0.0,-0.005697087051407146,-1.262332305832499,-0.5291905350270396,-0.6982768278495574,0.002408054521256478,0.008461014757412143,-0.015301091786600185
3734,0.0,300.03007,8341.9709,-0.037339984778687274,0.0,0.0,0.0,0.0,-0.005698609627649703,-1.2745632477895987,-0.5496082135521074,-0.7115793831124173,-0.005422764371535176,-0.0014746579523624086,-0.0025081938259894575
3735,0.0,300.50253,8468.9732,-0.03734999445338483,0.0,0.0,0.0,0.0,-0.005700137245535419,-1.2962028248752588,-0.5544506979000235,-0.7237028901614143,-0.014594938540158286,-0.007966349300992463,-0.011549834226629889
3736,0.0,300.59482,8379.2592,-0.03736000412808238,0.0,0.0,0.0,0.0,-0.005701664863421163,-1.2851586014352787,-0.5274361634063964,-0.7344908119885992,-0.004232394911654856,-0.0033115783493773373,0.007488776765809723
3737,0.0,299.82194,8241.3661,-0.03737001380277971,0.0,0.0,0.0,0.0,-0.005703192481306879,-1.2663163039006888,-0.5221050797277594,-0.7167481238600324,0.013626955388375788,0.0035317390536305066,0.004044359504472206
3738,0.0,299.44325,8260.1401,-0.03737999044224716,0.0,0.0,0.0,0.0,-0.005704715057549409,-1.2603670059385388,-0.5206072832974386,-0.7299020555982243,0.006106309677770844,-0.002105374931509328,0.01934543599099588
3739,0.0,299.70915,8310.3232,-0.03739000011694449,0.0,0.0,0.0,0.0,-0.005706242675435125,-1.2794525848221387,-0.5220167648490436,-0.7246613436960063,0.015470042121524287,0.0024244197262715977,0.004977692238609975
3740,0.0,299.63586000000004,8266.8174,-0.03740000979164204,0.0,0.0,0.0,0.0,-0.005707770293320841,-1.2776475810939987,-0.5301091475676996,-0.7051493486403223,0.017223824030609087,0.004339645509564666,-0.017997511409466083
3741,0.0,299.61066,8195.3388,-0.03740998643110949,0.0,0.0,0.0,0.0,-0.0057092928695633705,-1.2728528816207987,-0.5252482929954705,-0.6930771728413913,0.015789794468831383,0.023448532489189978,-0.018379181443883983
3742,0.0,300.07903999999996,8166.3012,-0.03741999610580704,0.0,0.0,0.0,0.0,-0.005710820487449114,-1.2517533668384386,-0.5273214027000704,-0.7032768523230213,-0.007469961420727793,-0.0012460877789042888,-0.022292771802375277
3743,0.0,300.59992,8249.9351,-0.03743000578050437,0.0,0.0,0.0,0.0,-0.00571234810533483,-1.2589678088754488,-0.5310302425711044,-0.7177762586040013,-0.018380205839735084,-0.006992430732774183,0.0016623971865408283
3744,0.0,300.59031,8367.6263,-0.03744001545520215,0.0,0.0,0.0,0.0,-0.005713875723220602,-1.2777947050085188,-0.5499053795414355,-0.7158493608888313,-0.009347623591013621,-0.016188044314635587,-0.004650963259064336
3745,0.0,300.73553,8364.6765,-0.03744999209466937,0.0,0.0,0.0,0.0,-0.005715398299463104,-1.2848562476054388,-0.5412576952379755,-0.7165388978468833,0.0006337771667014364,0.00920660045534572,0.012899336438565386
3746,0.0,300.25948999999997,8288.0885,-0.037460001769366924,0.0,0.0,0.0,0.0,-0.005716925917348847,-1.2702760852914887,-0.5530622412879934,-0.6960336846456763,-0.003629397618143656,-0.005741728511589485,-0.016866388912082985
3747,0.0,299.92907,8341.0133,-0.037470011444064255,0.0,0.0,0.0,0.0,-0.005718453535234536,-1.2771557494954588,-0.5319491185567905,-0.7263549507081524,-0.002442233270979658,0.005533428609031885,0.007857883512237722
3748,0.0,299.62037999999995,8388.9055,-0.03747998808353181,0.0,0.0,0.0,0.0,-0.005719976111477093,-1.2836123817826788,-0.5365820425190245,-0.7298234071254623,0.013568739103880286,0.006032403012826824,-0.01018364479879749
3749,0.0,300.08621,8355.6323,-0.03748999775822914,0.0,0.0,0.0,0.0,-0.005721503729362809,-1.2808044631055588,-0.5247198121408135,-0.7343793038150943,0.01027307526587359,0.014210721194988986,0.006952732607106284
3750,0.0,299.7918,8166.1481,-0.037500007432926585,0.0,0.0,0.0,0.0,-0.005723031347248525,-1.2709085560039088,-0.5202823339903685,-0.6911141831576593,0.009259778759019012,-0.012081628409113887,-0.005412898557961495
3751,0.0,300.20815,8225.6177,-0.03750998407239414,0.0,0.0,0.0,0.0,-0.0057245539234910825,-1.2666932329378886,-0.5245937942258765,-0.7090953599622632,-0.01013304106230329,-0.001121040456238079,-0.0022752127721960176
3752,0.0,300.09504,8376.0081,-0.037519993747091474,0.0,0.0,0.0,0.0,-0.0057260815413767985,-1.3006166436358688,-0.5380789067592535,-0.7074017833476203,-0.0048219121284856755,0.001929560941732838,-0.01803487905990398
3753,0.0,299.77008,8430.4207,-0.03753000342178903,0.0,0.0,0.0,0.0,-0.005727609159262542,-1.2904089594784487,-0.5440157316126725,-0.7282126941039974,-0.01038367354078879,0.012587385103778187,-0.005816462900540194
3754,0.0,299.31388,8391.8664,-0.03754001309648636,0.0,0.0,0.0,0.0,-0.0057291367771482304,-1.2801890149948187,-0.5421081565769095,-0.7286206792567623,-0.015148182214009187,-0.0013324292517255287,-0.01212522957416699
3755,0.0,300.19282999999996,8340.8774,-0.037549989735954026,0.0,0.0,0.0,0.0,-0.005730659353390788,-1.263797870777139,-0.5416550412646906,-0.7299655458494902,-0.0028560200911672373,-0.005059575410991214,0.01876779528123718
3756,0.0,299.83344,8356.6295,-0.03755999941065136,0.0,0.0,0.0,0.0,-0.005732186971276504,-1.2851855538879389,-0.5481934934974855,-0.7068276150459544,0.007309500297791513,0.0018298080905879985,-0.003999562906951126
3757,0.0,299.69229,8541.8772,-0.03757000908534891,0.0,0.0,0.0,0.0,-0.005733714589162248,-1.3003136818559686,-0.5569597685926495,-0.7392439276776953,0.004840570622452126,0.013926639304202288,0.014789272816587587
3758,0.0,299.90494,8400.6663,-0.037579985724816356,0.0,0.0,0.0,0.0,-0.005735237165404777,-1.2984250849945789,-0.5418958401509555,-0.7132718147544473,0.002450758858646068,-0.005899236517109314,-0.01206644688286559
3759,0.0,300.02999,8151.3606,-0.03758999539951391,0.0,0.0,0.0,0.0,-0.005736764783290521,-1.2449518242171789,-0.5227272051566585,-0.7101310028894733,-0.01133145552532759,0.0012787592177787089,-0.007467899862074332
3760,0.0,300.41171,8154.4623,-0.03760000507421124,0.0,0.0,0.0,0.0,-0.005738292401176237,-1.2395263765567288,-0.5395202246290005,-0.6997063818856434,-0.007077101761480563,0.005350810036883835,-0.03579183374987897
3761,0.0,299.96116,8295.4679,-0.03761001474890879,0.0,0.0,0.0,0.0,-0.005739820019061953,-1.2719566619073488,-0.5299861390055595,-0.7196723129861273,-0.00016306185223295184,0.01858037339699008,-0.02194737612153738
3762,0.0,299.79683,8332.661,-0.03761999138837613,0.0,0.0,0.0,0.0,-0.005741342595304483,-1.2821731613406386,-0.5431850489156904,-0.7075626368009953,0.005904220086401154,-0.01162029462533379,-0.02074004303113288
3763,0.0,299.88666,8356.5201,-0.03763000106307357,0.0,0.0,0.0,0.0,-0.005742870213190199,-1.2902671044644487,-0.5457189239707645,-0.7041874297903883,0.008155917451601382,-0.006908857965851193,-0.0035555615767316065
3764,0.0,299.80006000000003,8383.1504,-0.037640010737771123,0.0,0.0,0.0,0.0,-0.0057443978310759425,-1.2815538628795187,-0.5513410333431235,-0.7153735082443683,0.012677891642460488,0.0002715524250851377,3.5612193626399864e-05
3765,0.0,300.2125,8541.5177,-0.03764998737723846,0.0,0.0,0.0,0.0,-0.005745920407318472,-1.3002066826454088,-0.5580539368456355,-0.7381474897444853,0.0024912238119896477,-0.002222203377314398,0.0037191701584535167
3766,0.0,300.2515,8599.0335,-0.03765999705193601,0.0,0.0,0.0,0.0,-0.005747448025204216,-1.3015910862570388,-0.5478517749012605,-0.7644485745777002,-0.007956226223218392,-0.027392987458977374,0.013044460197387987
3767,0.0,300.08671,8393.9684,-0.03767000672663334,0.0,0.0,0.0,0.0,-0.005748975643089932,-1.299196978920759,-0.5253316226836945,-0.7270281743395943,-0.01047423378172639,-0.022443276932478978,0.02430695898716008
3768,0.0,300.18868,8237.0666,-0.037680016401330896,0.0,0.0,0.0,0.0,-0.005750503260975648,-1.274204557254199,-0.5210429301779335,-0.7086151098123664,0.015777402420108385,0.004415525580403446,0.0067397426738108135
3769,0.0,300.07814,8218.2734,-0.03768999304079834,0.0,0.0,0.0,0.0,-0.005752025837218178,-1.2836000201314588,-0.5092926538032715,-0.7052572800409743,0.012587852212074289,0.025950524616617374,-4.893569783507735e-05
3770,0.0,299.47505,8352.1759,-0.037700002715495895,0.0,0.0,0.0,0.0,-0.005753553455103921,-1.2755860224405386,-0.5349771354206325,-0.7282897619066033,0.018922394954994985,0.00909214038032439,-0.015680638048808485
3771,0.0,299.65876000000003,8411.6835,-0.037710012390193226,0.0,0.0,0.0,0.0,-0.005755081072989637,-1.2807716338023187,-0.5415973873340004,-0.7345726927291802,0.008690592405444692,0.007293453455957812,-0.01966251538453918
3772,0.0,299.51192000000003,8363.451,-0.037719989029660894,0.0,0.0,0.0,0.0,-0.005756603649232195,-1.2608338102596088,-0.5471652067660014,-0.7342812313379152,0.008215716331428072,0.01892914725366138,-0.026920959833641876
3773,0.0,299.84508,8392.7182,-0.037729998704358225,0.0,0.0,0.0,0.0,-0.005758131267117911,-1.2808639408864289,-0.5630271203239504,-0.7072856648861603,0.005316737374446125,0.005243690452211955,-0.02066009455849258
3774,0.0,300.2007,8506.6051,-0.037740008379055556,0.0,0.0,0.0,0.0,-0.005759658885003627,-1.2952474313559688,-0.5558265598133105,-0.7347215189038684,-0.015261080566651385,-0.009327859438538052,0.0023646550942982877
3775,0.0,300.37613999999996,8479.8276,-0.037749985018523224,0.0,0.0,0.0,0.0,-0.005761181461246184,-1.3129225661003687,-0.5476152721954194,-0.7171179601465323,-0.011832297957006889,-0.018413496171770585,0.004979187694432566
3776,0.0,299.96969,8310.9034,-0.037759994693220555,0.0,0.0,0.0,0.0,-0.0057627090791318725,-1.2709640821093886,-0.5450611220058444,-0.7102819467568703,-0.0002897599112995767,-0.0016578834613203584,0.00982866600116381
3777,0.0,299.89405,8230.0814,-0.03777000436791811,0.0,0.0,0.0,0.0,-0.005764236697017616,-1.2547809581372387,-0.5281877923305766,-0.7187704798671234,0.0004474306346529655,-0.002995590935466807,-0.00923546744406967
3778,0.0,299.80613999999997,8304.3165,-0.03778001404261544,0.0,0.0,0.0,0.0,-0.005765764314903332,-1.2615404508793489,-0.5409851005635724,-0.7217793159065723,0.0017342337815305483,-0.018692739793329784,-0.004458936659737785
3779,0.0,299.71833,8361.5148,-0.037789990682083,0.0,0.0,0.0,0.0,-0.00576728689114589,-1.2882921786945387,-0.5332294512506495,-0.7201700923627543,0.007793934157351412,-0.005226448076585265,-0.01863391150577388
3780,0.0,300.23748,8413.0805,-0.03780000035678044,0.0,0.0,0.0,0.0,-0.005768814509031606,-1.2973006813586088,-0.5410151738265404,-0.7190505117972603,0.031380150920479764,0.020860738343294584,-0.011245529890347388
3781,0.0,300.30793,8310.7361,-0.03781001003147788,0.0,0.0,0.0,0.0,-0.005770342126917349,-1.2936475094480686,-0.5376277470197275,-0.6949809583217803,0.016191962552772287,0.016679866793924684,-0.02067950944365868
3782,0.0,300.35882999999995,8357.4066,-0.03781998667094533,0.0,0.0,0.0,0.0,-0.005771864703159879,-1.2898148909448188,-0.5289486013006626,-0.7216794094467123,-0.011163604566761989,0.0030272490229162168,-0.013150463383099687
3783,0.0,300.26681,8533.1234,-0.03782999634564288,0.0,0.0,0.0,0.0,-0.005773392321045595,-1.3009491923186887,-0.5464986807177205,-0.7464086191347953,-0.012253318572308387,-0.005572920943604474,0.0024882605620721978
3784,0.0,299.95726,8535.2722,-0.03784000602034021,0.0,0.0,0.0,0.0,-0.005774919938931311,-1.3096794565052987,-0.5471816214176215,-0.7376485552627443,-0.013401764606651188,0.015673225111076883,0.013225770157031887
3785,0.0,299.83974,8439.3416,-0.03785001569503765,0.0,0.0,0.0,0.0,-0.005776447556817027,-1.3016419514120587,-0.5403268932986124,-0.7233802611970733,-0.0026673119872431977,-0.006337534059865914,0.027051457327270975
3786,0.0,299.66115,8424.0176,-0.03785999233450521,0.0,0.0,0.0,0.0,-0.0057779701330595845,-1.3112562763109186,-0.5363140277350735,-0.7131207188995353,-0.005661652572086604,-0.00828647310578622,0.012090976654536487
3787,0.0,299.33263,8507.6576,-0.03787000200920254,0.0,0.0,0.0,0.0,-0.0057794977509453005,-1.3166249819657687,-0.5422828104966465,-0.7272076614623083,0.003305081389736137,-0.001861470433687828,0.018288516838186084
3788,0.0,299.41247999999996,8564.2826,-0.037880011683900094,0.0,0.0,0.0,0.0,-0.005781025368831044,-1.3095001112375988,-0.5487878457411435,-0.7450401134172343,-0.003994384287015036,0.008304787398693702,-0.007003516702118284
3789,0.0,300.34182999999996,8553.163,-0.03788998832336754,0.0,0.0,0.0,0.0,-0.005782547945073574,-1.292372942147279,-0.5564326150956235,-0.7511423918794823,0.0026649045050055973,-0.0005791738990150135,-0.008021970145356811
3790,0.0,300.26968999999997,8335.9124,-0.037899997998065094,0.0,0.0,0.0,0.0,-0.00578407556295929,-1.275122663169809,-0.5389956650522305,-0.7197908632478273,-0.01012093100108312,-0.017685906606213084,-0.027843257564915572
3791,0.0,300.65602,8268.3488,-0.037910007672762425,0.0,0.0,0.0,0.0,-0.005785603180845006,-1.2749531464280788,-0.5439733777584924,-0.6944451010063953,0.00984089106627033,-0.008335076889233043,-0.01246105713431059
3792,0.0,300.71085,8384.402,-0.03791998431222998,0.0,0.0,0.0,0.0,-0.005787125757087563,-1.3000544924803887,-0.5378531546369735,-0.7107412124971962,0.01133241507317229,0.015289692722975184,-0.017283974609545484
3793,0.0,300.278,8475.0493,-0.037929993986927424,0.0,0.0,0.0,0.0,-0.005788653374973279,-1.3064996750414788,-0.5516137192100354,-0.7180900013649654,0.007412205354427713,-0.0007093638307087593,-0.001950130324062878
3794,0.0,299.76212999999996,8391.9942,-0.037940003661624866,0.0,0.0,0.0,0.0,-0.005790180992859023,-1.279168672144119,-0.5500548541961875,-0.7217331218345133,-0.012037767852035188,-0.012533231952183688,-0.013178731034389489
3795,0.0,299.81556,8371.419,-0.03795001333632231,0.0,0.0,0.0,0.0,-0.005791708610744739,-1.2792907687811688,-0.5410543866054105,-0.7243571964134893,-0.004200134143045965,-0.008454245030844023,-0.008023928757800112
3796,0.0,299.43412,8443.7528,-0.037959989975789865,0.0,0.0,0.0,0.0,-0.0057932311869872966,-1.2915723732432687,-0.5520854783240945,-0.7230321084627133,0.0014776529170079885,0.014646101590707686,0.0016429906100255483
3797,0.0,299.61046,8570.9774,-0.037969999650487196,0.0,0.0,0.0,0.0,-0.005794758804872985,-1.318472542198109,-0.5549268747845185,-0.7319637257091953,-0.01863237440537218,-0.007524079412543823,0.004915549306001945
3798,0.0,300.02149,8538.4435,-0.03798000932518464,0.0,0.0,0.0,0.0,-0.005796286422758701,-1.3228226275274289,-0.5411628246311124,-0.7314881567747603,-0.008090432009563471,-0.005247529150215805,0.00996177433632558
3799,0.0,299.90455,8402.544,-0.037989985964652195,0.0,0.0,0.0,0.0,-0.005797808999001258,-1.3015583582788088,-0.5326640779598515,-0.7199410877076533,0.004203966761549216,-0.005487264630500854,-0.0034909284806778165
3800,0.0,300.67891000000003,8427.7734,-0.037999995639349526,0.0,0.0,0.0,0.0,-0.005799336616886974,-1.2766395998945188,-0.5357136466533204,-0.7494794559478632,0.014476065051676385,0.015000086592643286,-0.009302487250734012
3801,0.0,300.46971,8526.7199,-0.03801000531404708,0.0,0.0,0.0,0.0,-0.005800864234772718,-1.2901968862325188,-0.5640493174223334,-0.7376637844117473,0.006614295927955184,-0.006160057022700295,-0.02256098619659598
3802,0.0,300.31455,8639.8511,-0.03802001498874441,0.0,0.0,0.0,0.0,-0.005802391852658406,-1.3113263932178387,-0.5625971983065204,-0.7523754057936712,-0.007946724369080633,-0.004846908096527586,-0.011608390963158988
3803,0.0,300.42152999999996,8519.6295,-0.03802999162821208,0.0,0.0,0.0,0.0,-0.005803914428900991,-1.3231392681836789,-0.5576063842764655,-0.7090090107887413,0.007780458944271513,0.00979805723551796,-0.0017236593008369283
3804,0.0,300.14036,8292.348,-0.03804000130290941,0.0,0.0,0.0,0.0,-0.00580544204678668,-1.2922996841650487,-0.5319761419369575,-0.6963909059684313,0.007118092490301034,0.02318009821969758,0.015584676171587786
3805,0.0,300.16795,8483.0556,-0.03805001097760696,0.0,0.0,0.0,0.0,-0.005806969664672423,-1.3116620829759686,-0.5469010727299335,-0.7200738943982603,-0.008632181272954962,2.076021278762348e-05,0.01023832078744359
3806,0.0,300.18989,8723.1135,-0.03805998761707441,0.0,0.0,0.0,0.0,-0.005808492240914953,-1.3042281709672987,-0.5691953715002094,-0.7781851149908913,-0.024226478558217274,-0.012833572454074987,0.013653318129477588
3807,0.0,299.87406,8532.4263,-0.03806999729177196,0.0,0.0,0.0,0.0,-0.005810019858800697,-1.3031105561069989,-0.5565056906928354,-0.7340282633179493,-0.01100706553231279,-0.001140883236921409,-0.007528525857957654
3808,0.0,299.83089,8417.3703,-0.03808000696646929,0.0,0.0,0.0,0.0,-0.005811547476686413,-1.2789501140975488,-0.5549891288706625,-0.7247311768928982,0.006488076477573294,0.0075495038840530234,-0.008305868333900382
3809,0.0,300.23977,8411.4858,-0.03808998360593663,0.0,0.0,0.0,0.0,-0.0058130700529289425,-1.3058784514051687,-0.5378053089672514,-0.7131979488221574,0.003812296961894416,0.0027234771495612676,-0.015392905417911483
3810,0.0,299.84561,8521.8461,-0.03809999328063407,0.0,0.0,0.0,0.0,-0.0058145976708146585,-1.3110867595691886,-0.5588494901616505,-0.7204922248345463,-0.0007688049116601371,-0.017292165723353882,-0.004238613531493586
3811,0.0,299.88711,8515.3986,-0.03811000295533162,0.0,0.0,0.0,0.0,-0.0058161252887003745,-1.3167299546761289,-0.5468381195012204,-0.7249004808521073,0.008375147282987681,-0.003959358662858277,-0.02474973002910818
3812,0.0,300.14036,8443.5467,-0.038120012630029176,0.0,0.0,0.0,0.0,-0.005817652906586118,-1.2773335748880088,-0.5541090400988045,-0.7351847464520853,0.015784054407014886,0.015784829543341383,-0.015533327696270085
3813,0.0,300.50959,8293.2309,-0.03812998926949651,0.0,0.0,0.0,0.0,-0.005819175482828648,-1.2820951410829389,-0.5416064660548965,-0.6972335146190903,-0.01271357932423259,0.006339015938137164,-0.026704570142285874
3814,0.0,300.39954,8404.2583,-0.038139998944194065,0.0,0.0,0.0,0.0,-0.005820703100714392,-1.2926992086794789,-0.5491211340965365,-0.7128643362267324,-0.011984569182034888,0.002305598217519828,6.306113984864994e-05
3815,0.0,300.36553,8682.7776,-0.038150008618891396,0.0,0.0,0.0,0.0,-0.005822230718600108,-1.3421241300073385,-0.5752243919802275,-0.7219990999857633,-0.0077521192508996015,0.01052467235845429,0.0040105979098151966
3816,0.0,300.49313,8697.9584,-0.03815998525835884,0.0,0.0,0.0,0.0,-0.005823753294842637,-1.3532247914778885,-0.5412089477756645,-0.7495284567226993,0.009960125069137809,0.0028612328576316974,0.04100709483608516
3817,0.0,300.09885,8515.3949,-0.038169994933056395,0.0,0.0,0.0,0.0,-0.005825280912728381,-1.3002458954242788,-0.5459194461655545,-0.7423021089970143,0.0044755472739271265,-0.01090085969658109,0.009677012554721781
3818,0.0,299.77671000000004,8529.3086,-0.03818000460775395,0.0,0.0,0.0,0.0,-0.005826808530614097,-1.2856541820591887,-0.5480648715297914,-0.7589778143727783,-0.0016202649301576986,-0.020044656580253582,0.005831333966957854
3819,0.0,299.28623,8733.6961,-0.03819001428245128,0.0,0.0,0.0,0.0,-0.005828336148499813,-1.3142238832037987,-0.5677630715563524,-0.7728385995132312,0.0024958305535692977,-0.008091041276848603,-0.016673313092277882
3820,0.0,299.91201,8622.8844,-0.038199990921918725,0.0,0.0,0.0,0.0,-0.005829858724742343,-1.3230548644503488,-0.5516501455511305,-0.7464365037775472,-0.003146240960334807,0.0029223350810620176,-0.018162293233478784
3821,0.0,300.31686,8371.8681,-0.03821000059661628,0.0,0.0,0.0,0.0,-0.0058313863426280865,-1.3152662135816686,-0.5325787015064255,-0.6969939518979473,-0.0030424027861117773,0.004880381624181165,-0.011899930374681688
3822,0.0,300.25872999999996,8247.5234,-0.03822001027131361,0.0,0.0,0.0,0.0,-0.0058329139605138025,-1.2996274075632386,-0.5160156594092805,-0.6913980958356793,-0.006625688000154494,0.00998899519893707,0.0042945317647622855
3823,0.0,300.03386,8420.5803,-0.038229986910781055,0.0,0.0,0.0,0.0,-0.005834436536756332,-1.2954487641508388,-0.5420489726385684,-0.7221483719904953,-0.011957513377864687,0.013382226104972885,0.003988381185472577
3824,0.0,300.11048999999997,8662.7473,-0.03823999658547861,0.0,0.0,0.0,0.0,-0.005835964154642076,-1.2994507980708088,-0.5684872616678245,-0.7653207903962813,-0.014946603199364883,0.00889848761591235,-0.017042323579946384
3825,0.0,300.30508,8713.2169,-0.03825000626017616,0.0,0.0,0.0,0.0,-0.005837491772527792,-1.3130761748155286,-0.5736220686695904,-0.7619021352213863,-0.013646897163593885,-0.010739700241675889,0.004800862060308195
3826,0.0,300.36151,8526.9883,-0.03826001593487349,0.0,0.0,0.0,0.0,-0.005839019390413508,-1.2917316561589887,-0.5718422138089324,-0.7284177049967303,-0.00818342921831658,-0.006945063317099384,-0.023714105340399978
3827,0.0,300.56321,8406.2436,-0.03826999257434083,0.0,0.0,0.0,0.0,-0.005840541966656038,-1.3104038290017885,-0.5303033876118695,-0.7145809034861443,0.009010047262522431,-0.006728322534583733,0.013940708281840786
3828,0.0,300.40501,8579.7418,-0.03828000224903838,0.0,0.0,0.0,0.0,-0.005842069584541781,-1.3188543348357886,-0.5440961532731095,-0.7450767930708543,0.014587955220469087,-0.013983721761835887,-0.002010352843756378
3829,0.0,300.5636,8600.4729,-0.038290011923735934,0.0,0.0,0.0,0.0,-0.005843597202427525,-1.3096965804319887,-0.5454024454345304,-0.7592299312626603,0.012904238542549186,-0.025975804193362272,-0.008240448145168913
3830,0.0,300.58428,8429.3997,-0.03829998856320316,0.0,0.0,0.0,0.0,-0.005845119778670027,-1.2835306124996089,-0.5347916802548295,-0.7440047339350503,0.0007568909852618242,-0.013090389811170885,-0.02162903421836948
3831,0.0,300.14866,8300.2578,-0.03830999823790071,0.0,0.0,0.0,0.0,-0.005846647396555771,-1.2755313069351386,-0.5377405217558575,-0.7097992850717353,0.0032734179320611967,0.0044089573892802155,-0.031617363914640866
3832,0.0,300.22798,8442.0097,-0.038320007912598264,0.0,0.0,0.0,0.0,-0.005848175014441487,-1.3248121440987788,-0.5217153128117925,-0.7196326746422153,-0.003533105117415327,0.008315802947155851,0.004714777041087265
3833,0.0,299.82796,8640.5935,-0.03832998455206571,0.0,0.0,0.0,0.0,-0.0058496975906840165,-1.3431713239856886,-0.5488095495582854,-0.7345438454988332,-0.0046925798724715756,0.014282942622366686,0.011957645100377688
3834,0.0,299.28279,8627.6716,-0.03833999422676304,0.0,0.0,0.0,0.0,-0.0058512252085697325,-1.3355006154286486,-0.5369082077262145,-0.7501878697552783,-0.003983201248311356,0.01059079402022999,0.03861464011071826
3835,0.0,299.9871,8628.2812,-0.038350003901460594,0.0,0.0,0.0,0.0,-0.005852752826455476,-1.3039811405929187,-0.5485725706248975,-0.7702283861956233,0.0027623646751491673,0.017767265522992584,0.010873087524590189
3836,0.0,300.44177,8640.1658,-0.03836001357615815,0.0,0.0,0.0,0.0,-0.00585428044434122,-1.2971722012459288,-0.5655550172034345,-0.7636674398106084,4.557493875764626e-05,-0.002057764538460548,0.018343062117569284
3837,0.0,300.23599,8663.853000000001,-0.03836999021562537,0.0,0.0,0.0,0.0,-0.005855803020583722,-1.3066410234304286,-0.5682783497622065,-0.7586756125304532,-0.0077465666403516015,-0.016088441829805584,-0.02196070846635318
3838,0.0,300.29418,8698.76,-0.038379999890322924,0.0,0.0,0.0,0.0,-0.005857330638469466,-1.323044833274359,-0.5736508652374325,-0.7475100929210023,-0.007558721420212722,-0.01018698041812669,-0.007513310286505992
3839,0.0,299.88018999999997,8414.0843,-0.03839000956502048,0.0,0.0,0.0,0.0,-0.005858858256355182,-1.3164900170524487,-0.5447520503278415,-0.6964295107972412,-0.006785229294649994,-0.001141764460533379,-0.015023179575672384
3840,0.0,300.4765,8243.1862,-0.038399986204487924,0.0,0.0,0.0,0.0,-0.005860380832597711,-1.276866466591909,-0.5209178545855895,-0.7079384411305844,0.005818878387453584,0.004827735884760436,-0.013154590350756988
3841,0.0,301.19244,8413.2429,-0.038409995879185255,0.0,0.0,0.0,0.0,-0.005861908450483427,-1.2849685157165187,-0.5486527896353145,-0.7237944069104464,0.012714545964827987,-0.007855852959037322,-0.02347346046815018
3842,0.0,300.61706000000004,8707.6809,-0.03842000555388292,0.0,0.0,0.0,0.0,-0.005863436068369199,-1.3119857150579088,-0.5763127036476354,-0.7586191339698793,0.026753704666135077,-0.012821933250176288,-0.021903649313471878
3843,0.0,300.19855,8714.6757,-0.03843001522858036,0.0,0.0,0.0,0.0,-0.005864963686254915,-1.3287127516837387,-0.5666609999525865,-0.7536700557114433,0.019294245582693784,-0.009361823075265,-0.016037363892264588
3844,0.0,300.11037999999996,8738.4648,-0.038439991868047696,0.0,0.0,0.0,0.0,-0.0058664862624974445,-1.3415741378530588,-0.5783773324488984,-0.7363236192994833,0.01330382283873509,-0.009690419981369991,0.002126082014527958
3845,0.0,300.11706000000004,8647.8969,-0.03845000154274514,0.0,0.0,0.0,0.0,-0.0058680138803831605,-1.3555329752056886,-0.5388665567244885,-0.7343451572867242,-0.00017069616484639984,-0.007317439314975033,0.014254114643771588
3846,0.0,300.35587000000004,8645.5369,-0.03846001121744258,0.0,0.0,0.0,0.0,-0.0058695414982688765,-1.3170102196537887,-0.5574611754046345,-0.7535559738826842,-0.014756747488377587,0.01244986274720579,0.01074712229865839
3847,0.0,300.09212,8679.1761,-0.038469987856910026,0.0,0.0,0.0,0.0,-0.005871064074511406,-1.3274417307582986,-0.5522616014564765,-0.7585494527605022,-0.022883447974670477,0.026548703905903075,0.013613609871308685
3848,0.0,299.68327,8625.5733,-0.03847999753160736,0.0,0.0,0.0,0.0,-0.005872591692397122,-1.3210518716526687,-0.5458140580226535,-0.7550930033568772,-0.013380772091079388,0.0015264238867213086,0.010406117030503792
3849,0.0,299.95279,8437.0681,-0.03849000720630513,0.0,0.0,0.0,0.0,-0.005874119310282894,-1.2976915932471886,-0.5463514149481865,-0.7206150307466663,-0.00940396120849871,-0.0032879717498725466,-0.014341480107143886
3850,0.0,300.19462000000004,8393.1742,-0.038499983845772356,0.0,0.0,0.0,0.0,-0.005875641886525396,-1.3096335562757686,-0.5266736217786395,-0.7150081809208133,0.01079647973752959,-0.015936909264100487,-0.0017195187556282884
3851,0.0,300.26608999999996,8653.2886,-0.03850999352046991,0.0,0.0,0.0,0.0,-0.005877169504411139,-1.3467887281676987,-0.5476446767133215,-0.7359502873001383,0.01858862429255438,-0.01859879327055798,-0.002052322980123508
3852,0.0,300.60423,8805.2153,-0.03852000319516746,0.0,0.0,0.0,0.0,-0.005878697122296883,-1.3497193514319288,-0.5566359541256914,-0.7702102895488372,0.011842762804039689,-0.02299426409835718,0.003233544615451007
3853,0.0,300.20906,8746.7177,-0.038530012869865016,0.0,0.0,0.0,0.0,-0.005880224740182599,-1.3338242944632088,-0.5661969010092834,-0.7587626101840393,0.013094925118618489,-0.01724853821379818,-0.002173817239989058
3854,0.0,299.86749,8591.4304,-0.03853998950933224,0.0,0.0,0.0,0.0,-0.005881747316425101,-1.297890899541859,-0.5693997643103814,-0.7442896497306692,0.003629878000016066,0.01092873420683209,-0.018081715532526382
3855,0.0,299.58284,8709.3213,-0.03854999918402979,0.0,0.0,0.0,0.0,-0.005883274934310845,-1.3223819650589386,-0.5734184965919994,-0.7516157924587032,-0.00951828976365706,0.019435340659118783,0.002015839289072848
3856,0.0,299.63157,8763.2597,-0.038560008858727346,0.0,0.0,0.0,0.0,-0.0058848025521965885,-1.3483385955206588,-0.5732622838240825,-0.7422112711255493,-0.007948706590251263,0.01072834880080559,-0.00991107717817216
3857,0.0,299.50354,8536.0413,-0.03856998549819468,0.0,0.0,0.0,0.0,-0.005886325128439118,-1.3087624651647987,-0.5553744476186905,-0.7306065379952513,-0.018713932932421382,0.011027569661336388,0.012630477617281088
3858,0.0,299.90306,8294.518,-0.03857999517289212,0.0,0.0,0.0,0.0,-0.005887852746324834,-1.2704192575306188,-0.5367468071177854,-0.7141603337671374,-0.008436650145507542,0.0039006912794182563,-0.02072623749852038
3859,0.0,299.81557000000004,8329.4471,-0.038590004847589565,0.0,0.0,0.0,0.0,-0.005889380364210578,-1.272315149792729,-0.5391616759486145,-0.7204671570270723,-0.0019619433003537283,0.0007542054064017783,0.0019559489127621284
3860,0.0,300.35579,8629.9961,-0.03860001452228712,0.0,0.0,0.0,0.0,-0.005890907982096294,-1.3148310226637188,-0.5598127059717125,-0.7486596352919532,-0.012234477186698886,-0.013206229628853388,-0.031603261499749076
3861,0.0,300.17457,8863.3818,-0.03860999116175434,0.0,0.0,0.0,0.0,-0.005892430558338796,-1.3560498340816987,-0.5677511557351765,-0.7704457182095723,0.0034892893459910466,-0.005169683880808075,-0.0007451985857328743
3862,0.0,300.19899,8811.5243,-0.038620000836451895,0.0,0.0,0.0,0.0,-0.00589395817622454,-1.3717836829595087,-0.5712424102797364,-0.7354573005964843,0.007209728296219784,-0.0032609890010345567,-0.01110799030852329
3863,0.0,300.23588,8729.4534,-0.03863001051114945,0.0,0.0,0.0,0.0,-0.005895485794110283,-1.3577540194248887,-0.5437798773868955,-0.7520019826018173,0.018078262376185584,0.0025587450761284775,0.013171903755215687
3864,0.0,300.52268,8809.0461,-0.038639987150616895,0.0,0.0,0.0,0.0,-0.005897008370352813,-1.3543659137405089,-0.5617093885689004,-0.7616548008719762,0.014059149112529985,-0.014970378099711286,0.016280649294274984
3865,0.0,300.63576,8813.7215,-0.038649996825314226,0.0,0.0,0.0,0.0,-0.005898535988238529,-1.3436044884034386,-0.5619681523794385,-0.7735785760612612,0.008178743949854182,0.005359821680623215,0.014292335450793687
3866,0.0,300.21435,8627.5545,-0.03866000650001178,0.0,0.0,0.0,0.0,-0.005900063606124273,-1.3188508897854487,-0.5498822875716565,-0.7538280011370313,0.003490073094943397,-0.002062442106222188,0.004739981029374706
3867,0.0,299.87776,8519.0393,-0.03867001617470933,0.0,0.0,0.0,0.0,-0.005901591224009989,-1.3106708204031385,-0.5520116934518124,-0.7268927534637294,-0.014198801320812587,0.005327746438107635,-0.0006529606863397025
3868,0.0,300.11301000000003,8528.319,-0.03867999281417678,0.0,0.0,0.0,0.0,-0.0059031138002525185,-1.3303247312678288,-0.5434470044640435,-0.7186242374801903,-0.027160418190024575,-0.005461210829354545,0.0005927661627464654
3869,0.0,300.1349,8561.3978,-0.03869000248887411,0.0,0.0,0.0,0.0,-0.0059046414181382345,-1.3109797603586288,-0.5546254024822654,-0.7368460307860413,-0.03490866571096707,-0.0033409102172471668,-0.013719983906556987
3870,0.0,299.83112,8630.591999999999,-0.03870001216357166,0.0,0.0,0.0,0.0,-0.005906169036023978,-1.3085666039204686,-0.5675893903567114,-0.7473284171780723,-0.01838976686767868,0.011773796949233289,-0.01799161328063398
3871,0.0,299.77805,8596.8927,-0.03870998880303911,0.0,0.0,0.0,0.0,-0.005907691612266508,-1.3062296438898289,-0.5548477399517084,-0.7521633426802423,0.0024239381284990678,0.0017680302319909985,-0.02210128982497748
3872,0.0,300.18025,8530.5975,-0.03871999847773644,0.0,0.0,0.0,0.0,-0.005909219230152224,-1.3018153185041688,-0.5652090328242885,-0.7260643201819692,0.029758800799464972,0.0025268087502016076,-0.029733451308463173
3873,0.0,300.19924,8663.025,-0.03873000815243399,0.0,0.0,0.0,0.0,-0.005910746848037968,-1.341541207224809,-0.5556570633365825,-0.7361450441018592,0.017247388174934684,0.009842016483156402,-0.010039660135737311
3874,0.0,299.51984,8730.1849,-0.03873998479190133,0.0,0.0,0.0,0.0,-0.005912269424280497,-1.3535916893390987,-0.5572847888272265,-0.7428817184517174,0.027841575569749574,-0.009212202816473633,-0.007812043672413682
3875,0.0,300.09722,8681.9409,-0.03874999446659888,0.0,0.0,0.0,0.0,-0.005913797042166213,-1.3360317611310688,-0.5642982223093985,-0.7387632114327524,0.000988879854424843,-0.007606577526410753,0.007542198958782083
3876,0.0,300.22966,8725.7553,-0.03876000414129632,0.0,0.0,0.0,0.0,-0.005915324660051929,-1.3340402180595186,-0.5624045895950114,-0.7559669214356263,-0.0008123588693910782,0.0008052907811985121,0.012489137334331886
3877,0.0,300.32472,8780.3453,-0.038770013815993876,0.0,0.0,0.0,0.0,-0.005916852277937673,-1.3357817923313986,-0.5612894673299574,-0.7719344865815023,-0.010968332020740091,0.009032898889377711,0.004491273016804136
3878,0.0,300.64977000000005,8792.2881,-0.03877999045546121,0.0,0.0,0.0,0.0,-0.005918374854180203,-1.3280099614143788,-0.5799750961340854,-0.7646509307551713,-0.023336824705415274,0.008494540568770883,0.002346828883963978
3879,0.0,300.49124,8686.1137,-0.038790000130158764,0.0,0.0,0.0,0.0,-0.0059199024720659466,-1.3386217297116787,-0.5517379639372975,-0.7500019788919323,-0.023532340431461178,0.007719000259456013,0.0009735498870368931
3880,0.0,299.72716,8684.5854,-0.038800009804856095,0.0,0.0,0.0,0.0,-0.0059214300899516625,-1.3413263982036088,-0.5561619759939135,-0.7424087029075342,-0.017651103491778283,0.005842615493571255,0.00945772942638022
3881,0.0,300.23447000000004,8791.1963,-0.03880998644432376,0.0,0.0,0.0,0.0,-0.00592295266619422,-1.3443223760992886,-0.5618451438172984,-0.7661366796418033,0.0053714843919242345,0.022869148989259274,0.002086818471827948
3882,0.0,299.60007,8718.1301,-0.038819996119021094,0.0,0.0,0.0,0.0,-0.005924480284079908,-1.3382602020759988,-0.5512671268808296,-0.7605664892045683,0.014563397077795385,-0.003177202640990487,0.016602518321040982
3883,0.0,299.09993,8743.5535,-0.038830005793718425,0.0,0.0,0.0,0.0,-0.005926007901965624,-1.3331753077741588,-0.5712416199446585,-0.7534050401477883,0.006060186837193874,-0.0048124594169777655,-0.006339204706630795
3884,0.0,300.21166,8846.9209,-0.03884001546841598,0.0,0.0,0.0,0.0,-0.005927535519851368,-1.3612198413919387,-0.5695394611016684,-0.7584837536240182,0.003212073237881947,-0.0064038671869374834,0.011435684510114189
3885,0.0,300.2772,8790.1397,-0.038849992107883424,0.0,0.0,0.0,0.0,-0.005929058096093898,-1.3610557962007488,-0.5587007045169665,-0.7522264985589753,-0.0036521536955145067,0.008339271136696982,-0.01154422284757609
3886,0.0,299.89666,8695.5375,-0.03886000178258098,0.0,0.0,0.0,0.0,-0.005930585713979641,-1.3393082066544288,-0.5731453648950434,-0.7307727008791504,-0.010697574368768389,-0.0014149063913153888,-0.017951708451945683
3887,0.0,300.39269,8631.8138,-0.03887001145727831,0.0,0.0,0.0,0.0,-0.00593211333186533,-1.3100547643423386,-0.5677815127081725,-0.7460195918914013,-0.013750112898280487,-0.006077707147322995,-0.011008170988171887
3888,0.0,300.17315,8558.5521,-0.038879988096745866,0.0,0.0,0.0,0.0,-0.005933635908107915,-1.3072351932890687,-0.5692997869230144,-0.7250511815394802,0.0020179189849030984,0.00044342704032784163,-0.022982721153217978
3889,0.0,299.93588,8645.6554,-0.03888999777144331,0.0,0.0,0.0,0.0,-0.005935163525993603,-1.3056548271080988,-0.5693288975983875,-0.7530796146131713,0.003954306192559636,0.00013780454672524987,-0.018274695093571984
3890,0.0,300.0348,8643.1742,-0.03890000744614086,0.0,0.0,0.0,0.0,-0.005936691143879347,-1.3311826501274988,-0.5575633718097205,-0.7385631249355052,-0.008082983608078373,-0.006155982642723184,-0.015582693241142085
3891,0.0,299.78185,8550.4442,-0.038909984085608196,0.0,0.0,0.0,0.0,-0.0059382137201218765,-1.3112188873822288,-0.5595709951603575,-0.7283316496657373,-0.02187686708682868,-0.006252438276717614,0.0015687831111268384
3892,0.0,299.82156000000003,8726.4956,-0.03891999376030575,0.0,0.0,0.0,0.0,-0.00593974133800762,-1.3465307546922385,-0.5492641340831494,-0.7568418628969763,-0.0039424118522857566,-0.0011725610827477688,-0.0025637612720735376
3893,0.0,300.29537,8934.7152,-0.03893000343500308,0.0,0.0,0.0,0.0,-0.005941268955893336,-1.3688395834689489,-0.5718321522354395,-0.7752585447270612,-0.007637717032458983,0.007874509730478603,0.01035611719106919
3894,0.0,300.03323,8881.5871,-0.03894001310970052,0.0,0.0,0.0,0.0,-0.0059427965737790245,-1.3645777522233387,-0.5695875702164165,-0.7656154029953572,0.014296193907174487,-0.0023670284300075176,-0.0002983755971648787
3895,0.0,300.88967,8777.8722,-0.03894998974916808,0.0,0.0,0.0,0.0,-0.00594431915002161,-1.3537133806761088,-0.5555915668501186,-0.7589490178049363,0.013308156509412788,-0.006136932223618055,0.01010182252274726
3896,0.0,300.45887999999997,8689.9575,-0.03895999942386541,0.0,0.0,0.0,0.0,-0.005945846767907298,-1.3631324522806987,-0.5529295359223965,-0.7254681440881313,0.019428668407210282,-0.0026557478651769075,-0.006978471186146483
3897,0.0,300.55508,8738.5992,-0.03897000909856296,0.0,0.0,0.0,0.0,-0.005947374385793042,-1.3559778933245987,-0.5563962292845325,-0.7439417807063372,0.009772901173960251,0.008158175783424263,-0.005449797884203175
3898,0.0,300.32206,8755.4405,-0.03897998573803041,0.0,0.0,0.0,0.0,-0.005948896962035571,-1.3449376215600088,-0.5586999749768945,-0.7577976414513043,0.005883732169379155,-0.001149894779335779,-0.001356611883912169
3899,0.0,299.81025,8722.5519,-0.03898999541272796,0.0,0.0,0.0,0.0,-0.005950424579921315,-1.3236268441317989,-0.5777201789640425,-0.7500909625157143,-0.004211464812289216,-0.010515653419314189,-0.0016191507603477383
3900,0.0,299.47094,8621.565999999999,-0.039000005087425293,0.0,0.0,0.0,0.0,-0.005951952197807031,-1.3157867201580387,-0.5427619258064316,-0.7621921071350043,-0.0002187397020479278,-0.013017972826523887,0.01312770983885409
3901,0.0,299.75343,8743.4667,-0.03901001476212285,0.0,0.0,0.0,0.0,-0.005953479815692747,-1.3171076943134088,-0.5829395619516555,-0.7577483164364363,-0.008068791317902701,-0.0068210361346338535,0.0022830167231412076
3902,0.0,299.42281,8858.5771,-0.03901999140159029,0.0,0.0,0.0,0.0,-0.0059550023919353046,-1.3540658903858986,-0.5690190963803125,-0.7697012732286013,-0.002527068040902198,-0.01124716527600879,0.0002451377751807148
3903,0.0,300.06567,8910.6115,-0.039030001076287846,0.0,0.0,0.0,0.0,-0.0059565300098210205,-1.3603361859797287,-0.5750734177153275,-0.7731937538057823,-0.002101248875777118,-0.008615226255056632,0.0040099466939759265
3904,0.0,300.16489,8769.5479,-0.03904001075098518,0.0,0.0,0.0,0.0,-0.0059580576277067365,-1.3402745432747987,-0.5850193895044185,-0.7404296532097173,0.017950463167572785,-0.006397200203929504,-0.025753178960890875
3905,0.0,300.30769,8693.3639,-0.039049987390452734,0.0,0.0,0.0,0.0,-0.005959580203949294,-1.3529524298510087,-0.5506002765925164,-0.7390128863898934,0.02108197744962918,0.0021818930459360777,-0.005300065053325695
3906,0.0,300.2146,8809.4053,-0.039059997065150065,0.0,0.0,0.0,0.0,-0.00596110782183501,-1.3512563505086186,-0.5733853025187234,-0.7531975265273082,0.014935347004003985,-0.0061505462519616545,-0.016234090452179984
3907,0.0,300.28087999999997,8817.0991,-0.03907000673984751,0.0,0.0,0.0,0.0,-0.005962635439720726,-1.3531741289728887,-0.5719657999236295,-0.7550380750689563,0.007454908171942154,-8.483886750594432e-05,-0.0014631041654471389
3908,0.0,299.89632,8750.3742,-0.03908001641454506,0.0,0.0,0.0,0.0,-0.005964163057606442,-1.3568659057122385,-0.5437112499576225,-0.7593180637563584,0.0016678132109753485,-0.005110782233944936,-0.006002089001635064
3909,0.0,300.42517999999995,8660.6713,-0.039089993054012395,0.0,0.0,0.0,0.0,-0.005965685633848999,-1.3289108420782887,-0.5640040758053685,-0.7397129307514823,-0.009276795382523422,0.011872001148925289,-0.011127562247454889
3910,0.0,300.56771000000003,8659.5323,-0.03910000272870995,0.0,0.0,0.0,0.0,-0.005967213251734715,-1.3215774444795387,-0.5533192116458545,-0.7573849345530732,-0.012876547430566288,0.005843591557392584,0.0013367146916984688
3911,0.0,300.86001,8770.9729,-0.03911001240340728,0.0,0.0,0.0,0.0,-0.005968740869620431,-1.3502982212140588,-0.5557963750928314,-0.7600621135697903,-0.003097312531555947,0.0005705486784662704,0.0025657511939449276
3912,0.0,299.98051,8887.4811,-0.03911998904287495,0.0,0.0,0.0,0.0,-0.005970263445862989,-1.3551663813195087,-0.5771245094952544,-0.7692814229171653,0.0027259242498777776,-0.0024351514633807374,0.021352200105548082
3913,0.0,300.13761,8812.8371,-0.03912999871757228,0.0,0.0,0.0,0.0,-0.005971791063748705,-1.3608958040099588,-0.5497340896120304,-0.7682525181031202,0.0031025155708194474,0.0002927109312883197,0.007496186055840962
3914,0.0,299.71143,8841.2245,-0.03914000839226983,0.0,0.0,0.0,0.0,-0.005973318681634449,-1.3629233174600588,-0.5713830595261175,-0.7532051259030583,0.00016135062480156684,-0.005736089977433005,0.006656472868667723
3915,0.0,299.99949,9041.9292,-0.03914998503173728,0.0,0.0,0.0,0.0,-0.005974841257876978,-1.3724798871032187,-0.5959006215333125,-0.7801401506613382,-0.018475064287596883,-0.0015985953608690783,-0.015752137028864886
3916,0.0,299.56444,8979.0131,-0.03915999470643483,0.0,0.0,0.0,0.0,-0.005976368875762722,-1.3877877656389885,-0.5720035840198584,-0.7696044571815462,0.005077587755368896,-0.0015110121500502888,-0.0022585606147525776
3917,0.0,299.51527000000004,8722.4771,-0.03917000438113216,0.0,0.0,0.0,0.0,-0.00597789649364841,-1.3406421504110788,-0.5765496927135244,-0.7342233950222073,0.0038141834309305964,-0.0035191206448351667,-0.03083659087783457
3918,0.0,299.82042,8627.7736,-0.03918001405582949,0.0,0.0,0.0,0.0,-0.005979424111534126,-1.3297919643652487,-0.5434638142832026,-0.7493719298472513,0.006452404501177744,-0.008424606249518901,-0.0026640662431978673
3919,0.0,300.25482999999997,8724.2623,-0.03918999069529716,0.0,0.0,0.0,0.0,-0.005980946687776684,-1.3397461333476486,-0.5533269832741214,-0.7588848081460993,0.002080561449810428,-0.009633309254058602,-0.004085283561436096
3920,0.0,300.62007,8816.3456,-0.03920000036999449,0.0,0.0,0.0,0.0,-0.0059824743056624,-1.3494524613555887,-0.5722480914014895,-0.7582483249632833,0.0006885446214340633,0.008726655091078802,-0.006165701737682385
3921,0.0,300.71031,8796.0764,-0.039210010044692045,0.0,0.0,0.0,0.0,-0.005984001923548143,-1.3324183086244488,-0.5700191134340065,-0.7713501351163313,-0.01123070300163409,0.016987187575754882,-0.005459680923028555
3922,0.0,300.45183,8761.0841,-0.03921998668415938,0.0,0.0,0.0,0.0,-0.005985524499790673,-1.3339966483052186,-0.5880110914846765,-0.7411430927376282,-0.023872641490796275,-0.00044263415185958954,-0.012631620563393888
3923,0.0,300.0484,8758.9594,-0.03922999635885693,0.0,0.0,0.0,0.0,-0.005987052117676417,-1.340969936818429,-0.5614221017680474,-0.7601129381948063,-0.02412985806843158,-0.006954789808784313,0.006391076525625144
3924,0.0,299.79308,8959.2396,-0.039240006033554375,0.0,0.0,0.0,0.0,-0.005988579735562105,-1.3706715396497486,-0.5897617546099534,-0.7629518319274833,-0.0036556809204376164,-0.004521092663272106,-0.004037023979048247
3925,0.0,299.39214,9047.9515,-0.03925001570825182,0.0,0.0,0.0,0.0,-0.005990107353447849,-1.4075519181145586,-0.5803707905631375,-0.7624285895758433,0.013029220915883988,-0.004989882447913055,0.017930074549060582
3926,0.0,299.55455,8872.3107,-0.039259992347719264,0.0,0.0,0.0,0.0,-0.0059916299296903786,-1.3663420232974588,-0.5634918272173134,-0.7671270100245413,0.013002599796006688,-0.014541789519412885,-0.007612216263217253
3927,0.0,299.95852,8656.6403,-0.03927000202241682,0.0,0.0,0.0,0.0,-0.005993157547576122,-1.3357092436242386,-0.5525440347893504,-0.7431492671406222,0.0014328890474651387,-0.006534650214444764,0.0037403672492205067
3928,0.0,299.73476,8732.5973,-0.03928001169711415,0.0,0.0,0.0,0.0,-0.005994685165461838,-1.3567148301223286,-0.5413279945299134,-0.7564486914606733,0.017745658977860183,0.006866177034538914,-3.218228732239447e-05
3929,0.0,299.28817999999995,8794.9716,-0.039289988336581594,0.0,0.0,0.0,0.0,-0.005996207741704368,-1.3474557507085287,-0.5512473482388776,-0.7747486367467372,0.01024678649202909,0.013333272952891589,0.003250121083111977
3930,0.0,299.90179,8735.2924,-0.03929999801127915,0.0,0.0,0.0,0.0,-0.005997735359590112,-1.3412733038983686,-0.5565647429086634,-0.7574727225417373,-0.005809084210661975,0.0062085914998402745,-0.011436542732948888
3931,0.0,299.82181,8732.1882,-0.03931000768597648,0.0,0.0,0.0,0.0,-0.0059992629774758,-1.3410923374305088,-0.5470661311712235,-0.7662087217239133,-0.024092199615214978,-0.001189745196493709,-0.0031532821366047166
3932,0.0,299.6477,8745.4339,-0.039319984325443924,0.0,0.0,0.0,0.0,-0.00600078555371833,-1.3410762267539187,-0.5610319092870385,-0.7562853859420563,-0.016073397092320786,0.017005507137562884,-0.0005522673364520424
3933,0.0,299.9512,8933.6133,-0.03932999400014148,0.0,0.0,0.0,0.0,-0.006002313171604073,-1.3508519623937087,-0.5845741167479734,-0.7801693119992162,-0.022681697720759276,0.006442647510664805,-0.003879155560467846
3934,0.0,300.27518,9031.3804,-0.03934000367483903,0.0,0.0,0.0,0.0,-0.006003840789489817,-1.3904967911063486,-0.5720141420859005,-0.7828032151041623,-0.00943479765144203,-0.004009964020552636,0.005169043506744875
3935,0.0,299.76399,8869.8479,-0.03935001334953636,0.0,0.0,0.0,0.0,-0.006005368407375533,-1.3442533737674787,-0.5827830857387124,-0.7691757915942403,-0.004348981494661056,-0.0009618273534499691,-0.001025565141715399
3936,0.0,300.61855,8724.3631,-0.03935998998900381,0.0,0.0,0.0,0.0,-0.006006890983618063,-1.353832944187909,-0.5524188984020004,-0.7457366721984794,0.020475599953784382,0.006326378480239943,0.002843427418924437
3937,0.0,299.81223,8855.6846,-0.03936999966370136,0.0,0.0,0.0,0.0,-0.006008418601503807,-1.3739424122975588,-0.5636440376473354,-0.7543205318781402,0.02762215524734447,0.005725716018934175,-0.006529942654480165
3938,0.0,299.99026000000003,8955.1884,-0.0393800093383988,0.0,0.0,0.0,0.0,-0.0060099462193895226,-1.3752355220751786,-0.5717308576229424,-0.7751872423175242,0.006589426717500783,-0.008439070799996442,-0.01812375831892568
3939,0.0,299.68942999999996,8856.8741,-0.03938998597786614,0.0,0.0,0.0,0.0,-0.0060114687956320245,-1.3649082744059589,-0.5694475897151015,-0.7579127365301633,0.005375165630862546,-0.014227653617410086,-0.016237731059789283
3940,0.0,299.83673999999996,8709.3065,-0.0393999956525638,0.0,0.0,0.0,0.0,-0.006012996413517796,-1.3341881525741188,-0.5608946240309894,-0.7523289178790833,-0.005143698879343555,0.012787010572229687,-0.014586071588533185
3941,0.0,300.03372,8745.6764,-0.03941000532726113,0.0,0.0,0.0,0.0,-0.006014524031403512,-1.3456606768313686,-0.5505500396525584,-0.7622565397088633,0.005014067714549955,0.01067351981139439,-0.0006066097125027173
3942,0.0,300.22037,8974.6141,-0.039420015001958575,0.0,0.0,0.0,0.0,-0.006016051649289228,-1.3668180481944388,-0.5783855296422075,-0.7828549921842722,-0.017621350415841883,0.005067210858444775,0.012010225687816989
3943,0.0,299.63543,8924.8646,-0.03942999164142591,0.0,0.0,0.0,0.0,-0.006017574225531758,-1.3657698409659886,-0.5757501370596145,-0.7714159963728312,-0.014941640300375087,0.011904723047654688,-0.0006122074025476665
3944,0.0,299.71372,8863.4922,-0.03944000131612346,0.0,0.0,0.0,0.0,-0.006019101843417501,-1.3666130676992088,-0.5617444166248575,-0.7659228534732002,-0.018052564327149384,0.023928598227568775,0.006769936108240674
3945,0.0,300.2865,8840.1031,-0.039450010990821016,0.0,0.0,0.0,0.0,-0.006020629461303217,-1.3586654378898386,-0.5789134430768085,-0.7495917139264423,-0.0039940566019326966,0.01248931363984929,-0.009424261066302151
3946,0.0,299.38074,8901.2083,-0.03945998763028824,0.0,0.0,0.0,0.0,-0.006022152037545719,-1.3739595362242487,-0.5649576961369834,-0.7668278074025122,0.006761303724013723,-0.005665641028455235,0.0036866454381935766
3947,0.0,298.84606,9037.396,-0.039469997304986015,0.0,0.0,0.0,0.0,-0.006023679655431491,-1.3717323111794386,-0.5838808611620544,-0.7915295073503802,0.02698225639844137,-0.017073918744564584,-0.006070503243087024
3948,0.0,299.19864,8937.7241,-0.039480006979683346,0.0,0.0,0.0,0.0,-0.006025207273317207,-1.3783892630114287,-0.5721707196238535,-0.7662849282639342,0.02556426455924648,-0.015306339408868086,0.005047399792489575
3949,0.0,299.59828,8721.5247,-0.03948998361915079,0.0,0.0,0.0,0.0,-0.0060267298495597366,-1.345795844394709,-0.5487919798015515,-0.7565379182644794,0.016627210212727884,-0.018012193403415085,-0.020430129342296783
3950,0.0,299.99987000000004,8800.0042,-0.039499993293848346,0.0,0.0,0.0,0.0,-0.00602825746744548,-1.3643463259004986,-0.5640348482109055,-0.7466003767162203,-0.01169621137582619,-0.023718068161541078,7.121106402723484e-05
3951,0.0,300.10761,8935.705,-0.0395100029685459,0.0,0.0,0.0,0.0,-0.006029785085331224,-1.3640530913215587,-0.5861185226828944,-0.7660595713091932,-0.00978586874874005,-0.008631890064876222,-0.026738272867112074
3952,0.0,299.85019,8955.6926,-0.03952001264324323,0.0,0.0,0.0,0.0,-0.006031312703216912,-1.3663661386498385,-0.5766247137509284,-0.7793160540900063,-0.0027077002375542076,0.014728610546350687,0.0026734559305495575
3953,0.0,300.14504,8842.4276,-0.039529989282710565,0.0,0.0,0.0,0.0,-0.006032835279459442,-1.3462242465369887,-0.5797525864121255,-0.7619003519012103,-0.01235921536675959,0.007093109390535393,-0.01283969045817879
3954,0.0,300.3673,8813.2282,-0.03953999895740812,0.0,0.0,0.0,0.0,-0.006034362897345186,-1.3594489841921686,-0.5658578371283204,-0.7536944547738512,-0.02016768946039598,-0.007499279913696304,0.018041519901059382
3955,0.0,299.35098999999997,8818.1598,-0.03955000863210556,0.0,0.0,0.0,0.0,-0.006035890515230902,-1.353840543563659,-0.5621689785492585,-0.7644908575043733,-0.020785011070570878,-0.001067515621030589,0.000923769345321436
3956,0.0,299.35857000000004,8904.7841,-0.039559985271572895,0.0,0.0,0.0,0.0,-0.006037413091473431,-1.3599865133702187,-0.5839059492345304,-0.7629395006737663,0.0010724430562668891,0.016703076300715283,8.960725084754712e-05
3957,0.0,299.53823,8882.4482,-0.03956999494627045,0.0,0.0,0.0,0.0,-0.006038940709359175,-1.3727972370345387,-0.5561395730342025,-0.7711056885297063,0.00814237992364033,0.0012287407345422689,-0.004728388434980605
3958,0.0,299.71657999999996,8803.2585,-0.039580004620968,0.0,0.0,0.0,0.0,-0.006040468327244919,-1.3504373404527885,-0.5668655852802774,-0.7586678712996893,1.995759002566078e-06,-0.004549269020727896,-0.01009772078501745
3959,0.0,299.92736,8798.2953,-0.03959001429566533,0.0,0.0,0.0,0.0,-0.006041995945130607,-1.357344362409459,-0.5662087560354535,-0.7509089390564423,0.019975406002169082,-0.024639498550729177,-0.013556177842390587
3960,0.0,299.79624,8986.8017,-0.03959999093513278,0.0,0.0,0.0,0.0,-0.006043518521373137,-1.3932584042538987,-0.5699474462544335,-0.7685574557207153,0.016114617119638883,-0.01116222958637629,-0.004971018568151336
3961,0.0,300.20756,9043.2129,-0.03961000060983033,0.0,0.0,0.0,0.0,-0.006045046139258881,-1.3832176023879488,-0.5928873474584254,-0.7728059221975062,0.009188303590339961,-0.008049000212974472,-0.006432745220087525
3962,0.0,300.3089,8908.3472,-0.039620010284527885,0.0,0.0,0.0,0.0,-0.006046573757144624,-1.3784429652667287,-0.5620676940692625,-0.7674044784319253,-0.008916287887044102,-0.0059127281448408345,0.009339854698521891
3963,0.0,300.31479,8924.179,-0.03962998692399511,0.0,0.0,0.0,0.0,-0.006048096333387126,-1.3502242539567588,-0.5783381399350305,-0.7841651954910793,-0.023455194608597477,0.01177042181315019,0.0024898692992559677
3964,0.0,300.1317,8950.8633,-0.03963999659869266,0.0,0.0,0.0,0.0,-0.00604962395127287,-1.3660646967450885,-0.5710419590124535,-0.7837323046508562,-0.01658042338936038,0.02767910294271477,0.018050323017928183
3965,0.0,299.79353,8964.1072,-0.039650006273390215,0.0,0.0,0.0,0.0,-0.006051151569158614,-1.3700383596622587,-0.5743640311878164,-0.7804623945906413,0.0015532791686967186,0.013369226106189886,0.008370006558605331
3966,0.0,299.04485,8929.3644,-0.039660015948087546,0.0,0.0,0.0,0.0,-0.006052679187044302,-1.3890816860166886,-0.5731645153219335,-0.7520576404298103,-0.0057420322839694645,-0.0022640216274915376,0.009072246734486042
3967,0.0,299.04264,8867.6575,-0.03966999258755499,0.0,0.0,0.0,0.0,-0.006054201763286832,-1.3645808932986487,-0.5799355591151835,-0.7510300021783903,0.006849792679096904,-0.014190523067495587,-0.011812588216061688
3968,0.0,298.94243,8792.214,-0.039680002262252545,0.0,0.0,0.0,0.0,-0.006055729381172575,-1.3662889289922187,-0.5586185704638604,-0.7477060352253403,0.004982710157080205,0.007510061097410323,-0.02178849445285698
3969,0.0,300.12725,8973.4191,-0.0396900119369501,0.0,0.0,0.0,0.0,-0.006057256999058319,-1.3520257113095486,-0.6046360228979295,-0.7710336464475962,0.01248384715555979,0.004263443833144146,-0.02255925353892498
3970,0.0,299.72409,8972.2822,-0.03969998857641732,0.0,0.0,0.0,0.0,-0.006058779575300821,-1.3765620691060987,-0.5812811552479834,-0.7695065265593812,0.006883345240258284,-0.009044804375402692,-0.01170725377541599
3971,0.0,300.01338,8883.2412,-0.039709998251114875,0.0,0.0,0.0,0.0,-0.006060307193186565,-1.3603302078041386,-0.5741893570030774,-0.7657638846650112,0.0005807369386192734,-0.023171478501096878,-0.005783010853788734
3972,0.0,300.21684,8925.9988,-0.03972000792581232,0.0,0.0,0.0,0.0,-0.006061834811072309,-1.3806657320110987,-0.5711948685850444,-0.7614201625463193,0.01309408513428559,-0.013733014302842987,-0.017125149682870683
3973,0.0,299.84628,9014.6009,-0.03972998456527976,0.0,0.0,0.0,0.0,-0.006063357387314838,-1.3682398407347587,-0.5759796078097614,-0.7959941304710042,0.01102227137656349,-0.01038352560627419,0.015457302528016987
3974,0.0,300.0044,9111.6108,-0.039739994239977094,0.0,0.0,0.0,0.0,-0.0060648850052005265,-1.3954617165963488,-0.5957104344895424,-0.7785299543974243,-0.0011675298907012288,-0.011037575506073889,0.0056491297127756945
3975,0.0,299.8122,9072.7305,-0.03975000391467465,0.0,0.0,0.0,0.0,-0.00606641262308627,-1.3634146424335487,-0.5822342993520515,-0.8122346043988142,-0.004506711401952785,-0.004908500226381255,0.016739668814826685
3976,0.0,299.84192,9002.6154,-0.0397600135893722,0.0,0.0,0.0,0.0,-0.006067940240972014,-1.3829678362382987,-0.5753874847163235,-0.7782149653388373,-0.003000217536748417,0.025972029836739775,0.010105555032140631
3977,0.0,300.00416,8950.5378,-0.03976999022883965,0.0,0.0,0.0,0.0,-0.006069462817214544,-1.372758429555709,-0.5756785813375525,-0.7723029955103713,-0.0001877369239681918,0.01022904954902859,0.01025158625775279
3978,0.0,299.72573,8893.324,-0.03977999990353698,0.0,0.0,0.0,0.0,-0.00607099043510026,-1.3944385366453687,-0.5639916229616395,-0.7449182498277073,-0.010881747773194889,-0.0037939951319631657,-0.008056428856082622
3979,0.0,299.71078,9036.6524,-0.03979000957823453,0.0,0.0,0.0,0.0,-0.006072518052985976,-1.3949832598991287,-0.5805970493104674,-0.7713364258424783,-0.010673673825409591,-0.01080260280788389,-0.006208448530251164
3980,0.0,300.69714,9100.2017,-0.03979998621770198,0.0,0.0,0.0,0.0,-0.006074040629228533,-1.4044482317332487,-0.5965327781382015,-0.7652530343620942,0.003479982542497536,0.008460261304637782,-0.015662083412977285
3981,0.0,299.73593999999997,8886.9097,-0.03980999589239931,0.0,0.0,0.0,0.0,-0.006075568247114221,-1.3526041757916385,-0.5672280552385505,-0.7815663609720942,0.008618117665541991,0.0038652370504691966,-0.014806124179000684
3982,0.0,299.82572000000005,8954.2861,-0.03982000556709686,0.0,0.0,0.0,0.0,-0.006077095864999965,-1.3596113068581888,-0.5861026247888255,-0.7761654542290662,-0.0034462033172887865,-0.014965688778248486,-0.006481997382273333
3983,0.0,300.63338,9050.2649,-0.039830015241794414,0.0,0.0,0.0,0.0,-0.006078623482885709,-1.3721917187747787,-0.5762899460503895,-0.8025728593952742,0.005856499755716525,-0.007272290207744163,0.0029021068600406474
3984,0.0,300.55408,8906.3214,-0.03983999188126186,0.0,0.0,0.0,0.0,-0.006080146059128239,-1.3601972693910187,-0.5701716683690624,-0.7769303263320533,-0.0015065521270851184,0.018479883305072484,-0.007048635918471204
3985,0.0,300.6971,8897.7989,-0.03985000155595919,0.0,0.0,0.0,0.0,-0.0060816736770139546,-1.3638579393522987,-0.5787351617217135,-0.7621155662224502,0.010503976725161792,0.012099837526660988,0.007042780244818294
3986,0.0,299.75475,9011.2802,-0.039860011230656744,0.0,0.0,0.0,0.0,-0.0060832012948996705,-1.3763245632826588,-0.5933138649555194,-0.7695657408952253,-0.025276134734310274,0.004218713704829626,0.000881815198040884
3987,0.0,299.69228,9068.2764,-0.03986998787012408,0.0,0.0,0.0,0.0,-0.006084723871142228,-1.3756183279629588,-0.5990739992565004,-0.7818373141813353,-0.01076767911668719,-0.010430067223117491,0.00028452362730029576
3988,0.0,300.20181,9171.9189,-0.03987999754482163,0.0,0.0,0.0,0.0,-0.006086251489027944,-1.4016230878044287,-0.6096645500967064,-0.7767467355464343,-0.005076716360282895,0.006935304300086243,-0.01248375596305079
3989,0.0,300.12523999999996,9098.9095,-0.039890007219519075,0.0,0.0,0.0,0.0,-0.00608777910691366,-1.4000168837459086,-0.5843011877010374,-0.7815231965178342,0.0074746283493633825,0.008265427293259162,-0.00019368707306042582
3990,0.0,299.46711,8905.0606,-0.03989998385898663,0.0,0.0,0.0,0.0,-0.0060893016831562174,-1.3842324736881089,-0.5768451767076864,-0.7458384430385233,0.0009687212031553391,0.004079782829293216,-0.021037880805277177
3991,0.0,300.0683,8944.2425,-0.03990999353368396,0.0,0.0,0.0,0.0,-0.006090829301041933,-1.3842338922382487,-0.5551865606526475,-0.7794059395063773,4.182709483726286e-05,-0.0005654734404378835,-0.007275442124830232
3992,0.0,300.20279,9034.3193,-0.039920003208381294,0.0,0.0,0.0,0.0,-0.006092356918927649,-1.3968823945615587,-0.5657905978516844,-0.7835344979663342,-0.0012027687026790288,0.006611594299213554,-0.0038068083887527362
3993,0.0,300.12779,8953.7607,-0.03993001288307885,0.0,0.0,0.0,0.0,-0.006093884536813365,-1.3701377594970687,-0.5529391617983465,-0.7986427257024002,-0.0020680937113049577,-0.002090768526017788,0.014475549307375487
3994,0.0,300.04329,8842.1701,-0.03993998952254629,0.0,0.0,0.0,0.0,-0.006095407113055923,-1.3681699264778586,-0.5443799646261194,-0.7752490708386263,-0.008652656524350712,-0.011211616409500389,0.006742301130313313
3995,0.0,299.74566,9011.2036,-0.039949999197243846,0.0,0.0,0.0,0.0,-0.006096934730941639,-1.3689294587528187,-0.5897348122897945,-0.7805166237359933,-0.004817149954340686,-0.010626629636516689,0.005873898273183625
3996,0.0,300.07747,9292.0604,-0.03996000887194118,0.0,0.0,0.0,0.0,-0.006098462348827355,-1.4120302809065386,-0.6113554010685804,-0.8011686974066943,0.002585264060395698,0.014518289209843589,-0.0005190457635683286
3997,0.0,299.97758,9260.9125,-0.039969985511408845,0.0,0.0,0.0,0.0,-0.006099984925069912,-1.4029977642150986,-0.6108102117197745,-0.8012781486824962,0.01058522519768039,0.012366508740979387,-0.002308858856341628
3998,0.0,299.74625,9119.0699,-0.039979995186106176,0.0,0.0,0.0,0.0,-0.006101512542955628,-1.3936992693724088,-0.6108879786649494,-0.7673822477247313,0.003634050563927867,0.013637064584623486,-0.00017789666456203383
3999,0.0,299.94951000000003,9009.1912,-0.03999000486080373,0.0,0.0,0.0,0.0,-0.006103040160841372,-1.3760727706328089,-0.5770282203382515,-0.7854682148546773,0.004707508086194876,-0.0005162743826898146,0.0017474053235554783
4000,0.0,300.38178,8847.5209,-0.04000001453550106,0.0,0.0,0.0,0.0,-0.00610456777872706,-1.3691977673792988,-0.5689363037146415,-0.7512914004391883,0.005116401617674526,-0.005150506602790424,-0.01050793042705199
4001,0.0,300.48731000000004,8901.6622,-0.04000999117496862,0.0,0.0,0.0,0.0,-0.0061060903549696455,-1.3654384068582788,-0.5605786825173085,-0.7798659550517772,-0.005264470387912775,0.0002988779361669557,-0.005492375464005255
4002,0.0,300.07205,8994.1739,-0.04002000084966606,0.0,0.0,0.0,0.0,-0.006107617972855334,-1.3984196976132788,-0.5591679242705774,-0.7764166186638543,0.001151730383216939,-0.005457730213936035,-0.02122412123990768
4003,0.0,299.60545,8949.8107,-0.04003001052436339,0.0,0.0,0.0,0.0,-0.00610914559074105,-1.3830159656180487,-0.5702973012489615,-0.7672056888948062,0.0014512164112989085,0.0015249129281721884,-0.015203668802735286
4004,0.0,299.66706,9053.7628,-0.04003998716383095,0.0,0.0,0.0,0.0,-0.006110668166983607,-1.3992922072743885,-0.5812645886088484,-0.7715610431246464,-0.0001997414754554488,0.01202838920910959,-0.01880686113884268
4005,0.0,299.57692000000003,9371.4666,-0.04004999683852828,0.0,0.0,0.0,0.0,-0.006112195784869323,-1.4215773259987587,-0.6058259534178664,-0.8212886019923742,0.014555635582029386,0.005488027911801184,0.019039571249559382
4006,0.0,299.51543,9360.3163,-0.04006000651322583,0.0,0.0,0.0,0.0,-0.006113723402755067,-1.4263709108968485,-0.6189520613083124,-0.7999794457643242,0.0012189467604006789,-0.004726830765601876,0.005590982835912046
4007,0.0,299.72897,9101.135,-0.040070016187923274,0.0,0.0,0.0,0.0,-0.006115251020640755,-1.3776679302652386,-0.5982379058039845,-0.7906119789873273,-0.003899190250720116,-0.0014835335166133584,0.014421162095007885
4008,0.0,299.98267000000004,9047.1969,-0.04007999282739083,0.0,0.0,0.0,0.0,-0.00611677359688334,-1.3885367601129088,-0.5998718931802465,-0.7617133261977523,-0.0036500836255602066,-0.004242796937181457,0.004716856736917516
4009,0.0,299.99998,9054.308,-0.04009000250208816,0.0,0.0,0.0,0.0,-0.0061183012147690286,-1.3944787626743387,-0.5692305718086835,-0.7885742317112172,-0.012921640099766589,0.0029205492277607674,0.02098435384224448
4010,0.0,300.74677,8988.4372,-0.040100012176785715,0.0,0.0,0.0,0.0,-0.006119828832654772,-1.3944938601008288,-0.5724247920864285,-0.7653417545408503,-0.0032073178525126272,0.001914235939270378,-0.003555011280602296
4011,0.0,300.53815,8965.5399,-0.04010998881625316,0.0,0.0,0.0,0.0,-0.006121351408897302,-1.3844166825562885,-0.5717753393023325,-0.7691082787400773,0.0070899532177989034,-0.005322606119025325,-0.01752049656713838
4012,0.0,300.46,8952.3538,-0.040119998490950715,0.0,0.0,0.0,0.0,-0.006122879026783046,-1.3789238537641886,-0.5578646617269555,-0.7845035500969723,0.015181471532794586,-0.0007603856341942193,-0.005853868041231795
4013,0.0,300.31101,8965.2013,-0.040130008165648046,0.0,0.0,0.0,0.0,-0.006124406644668762,-1.3714699807285486,-0.5931872086930194,-0.7605401649669703,0.008821169743181673,-0.007184921400646534,-0.03037760986078667
4014,0.0,299.46742,9218.991,-0.0401399848051156,0.0,0.0,0.0,0.0,-0.006125929220911319,-1.4128702652394387,-0.5885890797392194,-0.8008837106835682,0.007300900540217784,-0.005807801334710364,0.0016423792149152085
4015,0.0,299.9295,9367.9566,-0.040149994479813045,0.0,0.0,0.0,0.0,-0.006127456838797035,-1.4347240433962387,-0.6072191520403645,-0.8056817133520943,0.006845939694266644,0.0009049917336732301,-0.011374019122278289
4016,0.0,299.99734,9032.8633,-0.040160004154510376,0.0,0.0,0.0,0.0,-0.006128984456682723,-1.3983011473515787,-0.5868614883187194,-0.7606022873306013,-0.0014991071706503584,0.00938909905868193,0.0041385788954959365
4017,0.0,299.91499,8915.75,-0.04017001382920793,0.0,0.0,0.0,0.0,-0.006130512074568467,-1.3713123190129886,-0.5742227435938725,-0.7646303212481372,-0.012528200152187089,0.00930761632274021,0.0005611182179305564
4018,0.0,299.6915,9157.2246,-0.040179990468675375,0.0,0.0,0.0,0.0,-0.006132034650810997,-1.3945074376521684,-0.5951661469333254,-0.7938940379162412,-0.020210626946633583,-0.0037825246342061167,0.016016771610482285
4019,0.0,299.94133999999997,9206.9853,-0.04019000014337282,0.0,0.0,0.0,0.0,-0.006133562268696741,-1.3936905554215488,-0.6055235387930205,-0.7994795892249923,-0.00965810905688115,-0.0013046920368630787,0.005805613423769434
4020,0.0,300.08329,9055.5649,-0.04020000981807026,0.0,0.0,0.0,0.0,-0.006135089886582457,-1.3918909219189386,-0.5759522196595585,-0.7848224199034423,0.004522688025554555,-0.0013773881719126289,0.01100167808153109
4021,0.0,300.03643999999997,8998.6175,-0.040209986457537816,0.0,0.0,0.0,0.0,-0.006136612462825014,-1.3830477816711886,-0.5751018900431374,-0.7772053730716982,0.018215821209761583,0.0058532144949172945,-0.002503860155311758
4022,0.0,299.91982,9118.9645,-0.04021999613223515,0.0,0.0,0.0,0.0,-0.00613814008071073,-1.4124863447765488,-0.5649555885767754,-0.7944955437056053,0.017255964323781084,-0.012449762435445887,0.007376053806759832
4023,0.0,300.51887,9290.2171,-0.0402300058069327,0.0,0.0,0.0,0.0,-0.006139667698596446,-1.4298463587398487,-0.5976359440520754,-0.7965117087545852,0.0034351855396764167,-0.015260612445105187,-0.023782400423640177
4024,0.0,300.04798,9284.3792,-0.04024001548163003,0.0,0.0,0.0,0.0,-0.006141195316482162,-1.4175585734521385,-0.5992228659611925,-0.8054379659080382,0.0008748627216847283,-0.01913560000128668,-0.002951644454779627
4025,0.0,300.13422,9058.7369,-0.0402499921210977,0.0,0.0,0.0,0.0,-0.0061427178927247195,-1.390461124702829,-0.5748738581081324,-0.7882948482611443,-0.007162366960045582,-0.01609105398856338,-0.005421957520480546
4026,0.0,300.22775,8979.9436,-0.04026000179579503,0.0,0.0,0.0,0.0,-0.0061442455106104354,-1.3762256700728988,-0.5756716912368725,-0.7777812436335322,-0.00888515354857138,-0.01130148865362009,0.013682697316127087
4027,0.0,299.70979,9160.4392,-0.04027001147049236,0.0,0.0,0.0,0.0,-0.006145773128496151,-1.3989443585150587,-0.5934674027431724,-0.7921329889774393,-0.016670741463524083,0.0028915348111472673,-0.0008279310440829322
4028,0.0,299.53067999999996,9334.2714,-0.04027998810996003,0.0,0.0,0.0,0.0,-0.006147295704738709,-1.4263121423910485,-0.5933564417247215,-0.8177168447273692,-0.0009662557022170132,0.01968720626297598,0.023297746688808577
4029,0.0,299.62602999999996,9063.1977,-0.04028999778465736,0.0,0.0,0.0,0.0,-0.006148823322624425,-1.3839480543850387,-0.5943855390562854,-0.7766522094446053,-0.0055190902081917945,0.017459303353849084,-0.016711419402038682
4030,0.0,299.64466,8971.7915,-0.040300007459354914,0.0,0.0,0.0,0.0,-0.006150350940510141,-1.3827700498187787,-0.5681836108778565,-0.7762468992721043,0.005744309563569214,-0.0007244186398995534,0.012110232459436888
4031,0.0,300.05087000000003,9186.0393,-0.04030998409882236,0.0,0.0,0.0,0.0,-0.006151873516752671,-1.3929146084949686,-0.6057591903687775,-0.7936527526699283,0.005240527389374784,-0.006278363699076254,-0.01683818205579918
4032,0.0,300.23533,9197.7935,-0.0403199937735198,0.0,0.0,0.0,0.0,-0.006153401134638414,-1.4135233049288887,-0.5871508016197724,-0.7952254890776452,0.021374648661513583,-0.006016502788282594,0.01011467478966568
4033,0.0,300.73467,9046.9167,-0.040330003448217244,0.0,0.0,0.0,0.0,-0.00615492875252413,-1.3844733232368787,-0.5729110508094184,-0.7926524215087032,0.003111200238751557,-0.0007684634058464334,-0.014921684339655588
4034,0.0,300.58277000000004,9006.7361,-0.0403400131229148,0.0,0.0,0.0,0.0,-0.006156456370409874,-1.4017147869384787,-0.5663504590619385,-0.7697576200666623,-0.009089859655674302,-0.00999500873695556,3.8057637278996365e-06
4035,0.0,300.17881,9007.994,-0.04034998976238213,0.0,0.0,0.0,0.0,-0.006157978946652404,-1.3781637135391687,-0.5706602373022804,-0.7893812651508653,-0.014490320467333286,0.007487289618637952,-0.026978877209357873
4036,0.0,299.65456,9133.1867,-0.040359999437079686,0.0,0.0,0.0,0.0,-0.0061595065645381475,-1.3985156523977487,-0.5964568755732105,-0.7812881224946342,-0.0015755488860195684,0.015198148616190484,-0.013361148476392687
4037,0.0,299.37897000000004,9323.4191,-0.04037000911177702,0.0,0.0,0.0,0.0,-0.006161034182423836,-1.4125255575554185,-0.6032390043225544,-0.8183220590120992,-0.0009033700876831861,0.018508682912664783,-0.006127650346077004
4038,0.0,299.58611,9248.0673,-0.040379985751244685,0.0,0.0,0.0,0.0,-0.006162556758666393,-1.4249579336323985,-0.5887912332666704,-0.7974323984579502,0.01104636545069139,-0.012423625649116388,0.022334253248219183
4039,0.0,299.87971,9062.513,-0.040389995425942016,0.0,0.0,0.0,0.0,-0.006164084376552109,-1.3871484048258886,-0.5931589998102355,-0.7744702260167602,2.3781869480587777e-05,0.00042637209570464956,0.0093631332076443
4040,0.0,299.40166,9183.0372,-0.04040000510063935,0.0,0.0,0.0,0.0,-0.006165611994437825,-1.4072977949894787,-0.5794906511287744,-0.8046255926403633,0.0026220259899238174,-0.01147704943219659,0.01846445049279938
4041,0.0,300.22144,9271.5562,-0.0404100147753369,0.0,0.0,0.0,0.0,-0.006167139612323569,-1.4072627365360186,-0.5966135544361735,-0.8144452526719883,-0.02157442713073018,-0.001151011482270989,0.008086523802602762
4042,0.0,300.33621,9146.7007,-0.040419991414804346,0.0,0.0,0.0,0.0,-0.006168662188566099,-1.4026536644811387,-0.5865838273938164,-0.7911311886035692,-0.013057877655212187,-0.01298830689009609,0.007967036081910243
4043,0.0,300.34861,9062.3945,-0.0404300010895019,0.0,0.0,0.0,0.0,-0.006170189806451842,-1.4020874603252589,-0.5708958584805345,-0.7817583313360402,0.0004938505601592555,0.007871193058926274,-0.014326737318188886
4044,0.0,300.2518,9082.4051,-0.04044001076419923,0.0,0.0,0.0,0.0,-0.006171717424337531,-1.4123093299840788,-0.5765836771218784,-0.7719313556386932,0.018750239710004585,0.02054381195051638,-0.0022681824377021776
4045,0.0,299.63627,9074.0085,-0.0404499874036669,0.0,0.0,0.0,0.0,-0.006173240000580088,-1.3950036262261387,-0.5774275320701604,-0.7858408679764552,0.007436556591430993,-0.005033185312136715,-0.014074174598262885
4046,0.0,300.00037000000003,9249.0556,-0.04045999707836423,0.0,0.0,0.0,0.0,-0.006174767618465804,-1.4187094229157187,-0.5835320396826285,-0.8092405314133222,0.011684125328633388,-0.02947706255615957,-0.004432953988748496
4047,0.0,300.62581,9362.6925,-0.04047000675306178,0.0,0.0,0.0,0.0,-0.006176295236351548,-1.4069031340755287,-0.6141678287086454,-0.8249537910491003,0.006322848519541563,0.001214086908946049,-0.00972091658022977
4048,0.0,300.48312999999996,9091.8873,-0.04048001642775911,0.0,0.0,0.0,0.0,-0.006177822854237264,-1.3978517709322287,-0.5831514325475654,-0.7827035112943223,0.007703713963147372,-0.0009045254866397152,0.004182895415119636
4049,0.0,300.21907999999996,9072.3427,-0.04048999306722667,0.0,0.0,0.0,0.0,-0.006179345430479821,-1.4037395646133086,-0.5858874307325874,-0.7681386389243813,-0.00957896439554518,0.013020560667279286,-0.0031491137270183273
4050,0.0,300.29907000000003,9264.2997,-0.04050000274192411,0.0,0.0,0.0,0.0,-0.006180873048365537,-1.4344590784950884,-0.5936107877648235,-0.7880459028440752,-0.03521163661011797,-0.0057977006497635045,0.015645847093374885
4051,0.0,299.91343,9181.3394,-0.040510012416621444,0.0,0.0,0.0,0.0,-0.006182400666251225,-1.4118453627632885,-0.5888290072303984,-0.7902235191639893,0.002116847759741608,0.0036513073277059764,0.008526099965660552
4052,0.0,299.83688,9023.689,-0.040519989056089,0.0,0.0,0.0,0.0,-0.006183923242493783,-1.3862649520636987,-0.5869577572107205,-0.7697533846812442,-0.01058707640561309,0.00033354615661594265,-0.006680773037865963
4053,0.0,299.50944,9113.7685,-0.04052999873078633,0.0,0.0,0.0,0.0,-0.006185450860379499,-1.3858459731473487,-0.5940709654302395,-0.7904411551529683,-0.005771979397300014,0.003012067091367877,-0.005767955983802934
4054,0.0,299.33307,9234.6181,-0.040540008405483885,0.0,0.0,0.0,0.0,-0.006186978478265243,-1.4141467577154185,-0.5973723267735583,-0.7955742092320612,-0.008104847316086154,-0.017234546243167285,-0.008831661542667133
4055,0.0,299.53559,9241.7378,-0.04054998504495133,0.0,0.0,0.0,0.0,-0.006188501054507772,-1.4286631865980788,-0.5915406772805194,-0.7890537117910382,0.00047490321898679863,0.02001488830556568,-0.02556390688196118
4056,0.0,300.25369,9248.7143,-0.040559994719648884,0.0,0.0,0.0,0.0,-0.006190028672393516,-1.4281776371501589,-0.5878271460615224,-0.7953734134597442,0.01915586905628708,0.0004425696990207287,-0.00909263879804858
4057,0.0,300.34244,9109.3496,-0.040570004394346215,0.0,0.0,0.0,0.0,-0.006191556290279232,-1.4045351685918288,-0.5817278668195704,-0.7827517723965852,-0.0024959893298599676,-0.014610392630683488,-2.500446515724858e-05
4058,0.0,300.07712999999995,9123.6132,-0.04058001406904377,0.0,0.0,0.0,0.0,-0.006193083908164948,-1.3936756606450786,-0.5801925193405435,-0.7994823959277692,-0.01724741046643688,-0.028784125130771974,0.005471129230608415
4059,0.0,300.45193,9384.7652,-0.040589990708511214,0.0,0.0,0.0,0.0,-0.006194606484407478,-1.4226795394575384,-0.6074535775835004,-0.8226011965694172,-0.013906110857176286,-0.01201742989602799,0.009155296664357432
4060,0.0,299.60433,9347.4824,-0.04060000038320877,0.0,0.0,0.0,0.0,-0.0061961341022932215,-1.4267819864624187,-0.6155034544604614,-0.7991157817765873,0.0014674719826532085,0.011394367210786488,0.012423568907110789
4061,0.0,300.28935,9064.8567,-0.0406100100579061,0.0,0.0,0.0,0.0,-0.0061976617201789375,-1.4090435235867687,-0.5780176286633985,-0.7684289148130293,1.1516516536841688e-06,0.015473074779073587,0.004126652637843906
4062,0.0,300.31279,9082.8744,-0.040619986697373545,0.0,0.0,0.0,0.0,-0.006199184296421467,-1.4168640918335986,-0.5852634105260014,-0.7588395462641323,-0.007025612444398963,0.02314205574469308,0.004871864142515555
4063,0.0,299.68388999999996,9327.7777,-0.0406299963720711,0.0,0.0,0.0,0.0,-0.006200711914307211,-1.4245208175392587,-0.6001584504410274,-0.8107322078130392,-0.006011329538572034,0.026845786808722877,-0.0029887871636953274
4064,0.0,299.39035,9343.8681,-0.04064000604676843,0.0,0.0,0.0,0.0,-0.006202239532192899,-1.4209724156890586,-0.5982651419666725,-0.8210650790203142,0.004572925978762655,0.008755394004990112,-0.014901089018122985
4065,0.0,299.46742,9161.6126,-0.04065001572146598,0.0,0.0,0.0,0.0,-0.006203767150078643,-1.3898079836883686,-0.5909958729667514,-0.8040975677482513,-0.003978716299393726,-0.016973329354137184,-0.00991069528420947
4066,0.0,299.26385,9069.4874,-0.04065999236093332,0.0,0.0,0.0,0.0,-0.006205289726321173,-1.4011242647801987,-0.5767806428088175,-0.7789927665131002,9.085926522761131e-05,-0.03729220180895376,-0.0063874555750677835
4067,0.0,299.59755,9187.9387,-0.04067000203563087,0.0,0.0,0.0,0.0,-0.006206817344206916,-1.4264265383273385,-0.5727063641567175,-0.7937710293541013,-0.0009147163407129742,-0.007152778473024273,0.013812119751400087
4068,0.0,299.39671,9344.8338,-0.04068001171032831,0.0,0.0,0.0,0.0,-0.006208344962092632,-1.4353102085790885,-0.6195085686607353,-0.7857773067976822,0.002644140882631388,0.022167383115750377,-0.010819057989507889
4069,0.0,299.54492999999997,9367.1524,-0.04068998834979565,0.0,0.0,0.0,0.0,-0.006209867538335162,-1.4194823300919988,-0.6103938064586785,-0.8175042851213912,0.015757945991688185,0.003981792425372316,0.013583116109549185
4070,0.0,300.18215,9158.581,-0.0406999980244932,0.0,0.0,0.0,0.0,-0.006211395156220906,-1.3963204460560987,-0.5948377931059194,-0.7928216545404053,-0.0030450181872698975,-0.005033022178870615,-0.015529376020880087
4071,0.0,300.03857,9090.443000000001,-0.04071000769919075,0.0,0.0,0.0,0.0,-0.0062129227741066495,-1.3807242978668788,-0.5964864422111285,-0.7860569536927813,0.0007216422130355413,-0.012564254630495387,0.001941103684222018
4072,0.0,300.11469,9309.7286,-0.04071998433865798,0.0,0.0,0.0,0.0,-0.0062144453503491515,-1.4317172237244884,-0.6039043550007194,-0.7943034720166492,-0.004749087918623485,-0.001993848316852508,-0.014821384738756785
4073,0.0,299.61244,9413.9122,-0.04072999401335553,0.0,0.0,0.0,0.0,-0.0062159729682348674,-1.4537102224450287,-0.6022411860215774,-0.8056428856082622,-0.01058953151060539,0.001171299383723249,0.016595927129140483
4074,0.0,299.53576,9157.2875,-0.040740003688053084,0.0,0.0,0.0,0.0,-0.006217500586120611,-1.4241310202257886,-0.5735080375033365,-0.7859476848019973,-0.006223195676181594,-0.0016966347047698085,-0.01111662218612519
4075,0.0,300.13586000000004,9147.6419,-0.040750013362750415,0.0,0.0,0.0,0.0,-0.006219028204006327,-1.4087977091125088,-0.5759508213744204,-0.7959061904948252,0.0025275404180988177,0.010695451609808889,0.006911342961721443
4076,0.0,300.05978999999996,9296.5105,-0.04075999000221786,0.0,0.0,0.0,0.0,-0.006220550780248857,-1.4181627744867686,-0.5917442290931085,-0.8160000342879332,0.007570618293611852,0.012775677369861188,-0.005901625862170124
4077,0.0,300.36213,9346.3352,-0.040769999676915414,0.0,0.0,0.0,0.0,-0.006222078398134601,-1.4246708798790686,-0.5795425700638984,-0.8368390120720802,0.004285684875489166,-0.02252853179589298,0.024156707169581376
4078,0.0,301.20052999999996,9315.8877,-0.04078000935161297,0.0,0.0,0.0,0.0,-0.006223606016020317,-1.4453637773962986,-0.5911969220515934,-0.7952365537687373,0.005209265786689505,-0.020900685728487082,-0.001773532686659048
4079,0.0,300.90526,9352.3402,-0.04078998599108019,0.0,0.0,0.0,0.0,-0.006225128592262846,-1.4486434653199787,-0.5944436793470235,-0.7997907279331992,0.03181514729441057,-0.014663888182963087,0.018488734044695983
4080,0.0,299.95057,9278.3114,-0.040799995665777744,0.0,0.0,0.0,0.0,-0.006226656210148562,-1.4351502163882985,-0.6061644701437754,-0.7790603198972673,0.005738363811982415,0.011913386336009689,-0.02215192395897468
4081,0.0,300.25331,9372.7968,-0.0408100053404753,0.0,0.0,0.0,0.0,-0.006228183828034306,-1.4202721585449487,-0.6289894586539264,-0.7998346117950302,-0.015079303498711383,-0.005781112327076365,-0.01082271784886909
4082,0.0,300.14347999999995,9365.6853,-0.04082001501517285,0.0,0.0,0.0,0.0,-0.00622971144592005,-1.4279838024060287,-0.6001598183286624,-0.8187908999658702,-0.025578354815137077,-0.001153155620807599,-0.017755957651876583
4083,0.0,299.85549,9171.5775,-0.040829991654640074,0.0,0.0,0.0,0.0,-0.006231234022162552,-1.4093192289389789,-0.5868656426441294,-0.7917456538617123,-0.00961929985552598,0.0012603843325152489,-0.004095515766245937
4084,0.0,299.93014,9039.9131,-0.040840001329337516,0.0,0.0,0.0,0.0,-0.0062327616400482955,-1.4082359632570687,-0.5659925183316125,-0.7736793437837063,0.006299489862336244,0.011866870050418888,0.0015831858533482783
4085,0.0,299.88153,9180.9473,-0.04085001100403507,0.0,0.0,0.0,0.0,-0.0062342892579340115,-1.4258573957461687,-0.5730039050485825,-0.7919174504161672,0.019205616596446783,-0.008513631213904981,0.012349630020813589
4086,0.0,299.85242,9405.3594,-0.040859987643502516,0.0,0.0,0.0,0.0,-0.006235811834176569,-1.4446116418470687,-0.6083645907484104,-0.8060182137103042,0.0005216310711984786,-0.005461353190993595,-0.004814146275744245
4087,0.0,299.56573,9396.8638,-0.04086999731819985,0.0,0.0,0.0,0.0,-0.006237339452062257,-1.4313742385656385,-0.5974867936373555,-0.8275509435729191,0.01142803751160949,0.0012764390776997287,0.0015632023322260584
4088,0.0,299.75846,9295.7176,-0.0408800069928974,0.0,0.0,0.0,0.0,-0.006238867069948001,-1.4163892828367386,-0.6187634144046944,-0.7905133390900922,-0.015072589703548788,0.008059226642258742,-0.013251006164022488
4089,0.0,299.87689,9317.3987,-0.040889983632364846,0.0,0.0,0.0,0.0,-0.006240389646190531,-1.4277936153622588,-0.5914578947473494,-0.8130050493773512,-0.013418807473333188,-0.012712880181663588,0.005959908615872184
4090,0.0,300.51533,9360.1836,-0.04089999330706218,0.0,0.0,0.0,0.0,-0.006241917264076247,-1.4451900050041486,-0.6067654287780855,-0.7933066872307742,-0.013583703794607188,-0.0035344417969472466,-0.003847476600066376
4091,0.0,299.86942,9241.7757,-0.04091000298175973,0.0,0.0,0.0,0.0,-0.00624344488196199,-1.4375685404019687,-0.5878845466796874,-0.7838159991091163,0.01918294613870938,0.0038443726097100363,0.001961503651135338
4092,0.0,300.31838999999997,9214.7867,-0.04092001265645728,0.0,0.0,0.0,0.0,-0.006244972499847706,-1.4360415725012687,-0.5915214255286193,-0.7735020858112123,0.019862231032249583,0.005305598918746845,-0.01049282388131109
4093,0.0,300.02675,9160.4206,-0.04092998929592473,0.0,0.0,0.0,0.0,-0.006246495076090264,-1.4088775532203885,-0.5902745503530624,-0.7853869927266612,-0.006462230291372474,-0.007949650838019453,-0.007901846002276482
4094,0.0,300.05882,9203.3226,-0.04093999897062206,0.0,0.0,0.0,0.0,-0.006248022693975952,-1.4099773348789286,-0.5971356011526954,-0.7904673274030513,-0.0035674440619793166,0.0012924113443260688,-0.015281552271671786
4095,0.0,300.16266,9417.3831,-0.040950008645319835,0.0,0.0,0.0,0.0,-0.0062495503118617235,-1.4469539721032385,-0.5864463192227454,-0.8292490494155091,0.007225239331400603,0.008626511632020413,0.015590989732960883
4096,0.0,299.53924,9400.4799,-0.04095998528478706,0.0,0.0,0.0,0.0,-0.0062510728881042255,-1.4473914934964187,-0.6039520081529224,-0.8061676377025512,0.005368832817737546,0.027257451072600976,0.011548939526791589
4097,0.0,300.12349,9287.1617,-0.04096999495948461,0.0,0.0,0.0,0.0,-0.006252600505989969,-1.4313841684166186,-0.5870104766134235,-0.8046706113423062,-0.004796823853359655,-0.016307717257446383,0.016331976491340588
4098,0.0,300.66863,9532.6079,-0.040980004634181944,0.0,0.0,0.0,0.0,-0.006254128123875685,-1.4466113922444288,-0.6344425275121024,-0.8166208728892053,-0.015632999082106885,-0.010316844630443292,0.0004890583431488005
4099,0.0,299.99903,9547.8508,-0.0409900143088795,0.0,0.0,0.0,0.0,-0.006255655741761401,-1.4483359439146286,-0.6273401509361525,-0.8266321790447443,-0.009136749729226993,-0.01160728246754959,-0.011628470540390687
4100,0.0,300.17087999999995,9383.8139,-0.04099999094834683,0.0,0.0,0.0,0.0,-0.006257178318003959,-1.4445198413880087,-0.6023293083827744,-0.8055959417311293,0.002010813771226868,0.01963443518451788,-0.006027326933800854
4101,0.0,300.10823999999997,9239.3261,-0.041010000623044274,0.0,0.0,0.0,0.0,-0.006258705935889647,-1.4179404674148286,-0.5970576518225024,-0.7935262889249473,0.004112202779492816,0.005653259618858286,0.006759202648606363
4102,0.0,299.07791000000003,9112.6681,-0.04102001029774194,0.0,0.0,0.0,0.0,-0.006260233553775418,-1.4203064063983286,-0.5724574086071474,-0.7772597136745613,0.002773287815202197,0.017230060584974585,0.004768921478730905
4103,0.0,299.88809,9255.6643,-0.04102998693720916,0.0,0.0,0.0,0.0,-0.00626175613001792,-1.4089309515006587,-0.5853770059947124,-0.8191828757670553,0.012951386082952288,-0.005283458694786775,0.012302884740700187
4104,0.0,300.16972999999996,9335.6132,-0.041039996611906715,0.0,0.0,0.0,0.0,-0.006263283747903664,-1.4324911441508685,-0.5972753486064875,-0.8080267489860312,-0.0006129188865028844,-0.0018916771416939981,-0.006229482183777025
4105,0.0,300.04392,9469.1861,-0.041050006286604046,0.0,0.0,0.0,0.0,-0.00626481136578938,-1.4294825006289384,-0.6036847229090435,-0.8452289052850981,-0.006221706401184614,-0.022925908220110976,0.00954188298826053
4106,0.0,300.19776,9416.9932,-0.04106001596130182,0.0,0.0,0.0,0.0,-0.006266338983675124,-1.4492000435999088,-0.6131735162530144,-0.8001572204943692,-0.01172259742168029,-0.008535220027160631,-0.01714293728837618
4107,0.0,300.42711,9364.9789,-0.041069992600769045,0.0,0.0,0.0,0.0,-0.0062678615599176535,-1.4286791959496588,-0.5990897350305534,-0.8189508110966521,0.0016366037906702182,0.02082987271874838,0.014673949756456087
4108,0.0,300.89856000000003,9488.9984,-0.0410800022754666,0.0,0.0,0.0,0.0,-0.0062693891778033695,-1.4708872434402687,-0.6057605987864164,-0.8077707006857613,0.012039005030407288,0.024033320665154078,0.0003896451638349836
4109,0.0,300.31475,9492.3671,-0.04109001195016415,0.0,0.0,0.0,0.0,-0.006270916795689113,-1.4404248924338685,-0.6208128444544575,-0.8242048573701862,0.013296625723274788,0.004266051229626476,0.013316000078436887
4110,0.0,300.17329,9235.9018,-0.0410999885896316,0.0,0.0,0.0,0.0,-0.006272439371931643,-1.4300035138303586,-0.5919407388175024,-0.7855393146141942,0.008447666707219793,-0.0015773121438435885,-0.01182903225193459
4111,0.0,299.57346,9128.8922,-0.04110999826432893,0.0,0.0,0.0,0.0,-0.006273966989817359,-1.3975718099295986,-0.5947610698083474,-0.7826223803588153,0.004897907203210805,-0.005137475294579335,-0.003544230907488357
4112,0.0,299.54008999999996,9252.0969,-0.04112000793902648,0.0,0.0,0.0,0.0,-0.006275494607703103,-1.4387137156649885,-0.5868805272880985,-0.7868122303173213,0.0044238895546789055,0.00967863426150683,-0.016427717480039485
4113,0.0,300.03999,9426.8148,-0.04112998457849382,0.0,0.0,0.0,0.0,-0.006277017183945632,-1.4456151647461086,-0.5992075050896765,-0.8206936316661553,-0.010256596779497291,0.0008828629391742882,0.013322293374807986
4114,0.0,299.84564,9406.2974,-0.04113999425319126,0.0,0.0,0.0,0.0,-0.006278544801831348,-1.4468956088974785,-0.6027113442004783,-0.8096726015209642,0.0024444095295444376,0.015959729682852683,0.0002690324923514397
4115,0.0,299.9616,9357.2859,-0.04115000392788881,0.0,0.0,0.0,0.0,-0.006280072419717064,-1.4178491735808187,-0.5940464751753224,-0.8324856640774382,0.001049647968767189,0.009541725934495031,0.008249740864486032
4116,0.0,300.23593999999997,9458.5482,-0.041160013602586254,0.0,0.0,0.0,0.0,-0.006281600037602808,-1.4421720395812985,-0.6143629806779054,-0.8186274221947362,0.012114812349888888,0.019419867316841682,1.060796860942499e-05
4117,0.0,300.30919,9573.1095,-0.0411699902420537,0.0,0.0,0.0,0.0,-0.006283122613845338,-1.4558893181100885,-0.6192535944055715,-0.8348433349401222,-0.008039538382215662,-0.014238659539996286,-0.01171306476473949
4118,0.0,300.42267000000004,9575.5484,-0.04117999991675103,0.0,0.0,0.0,0.0,-0.006284650231731054,-1.4941881453898886,-0.6155123710613415,-0.8010271159702212,0.0008790172801422511,-0.007939118913830033,0.0006134197562923165
4119,0.0,300.77051,9335.2073,-0.041190009591448584,0.0,0.0,0.0,0.0,-0.0062861778496167975,-1.4446005974209786,-0.6020024946955204,-0.7910668472222192,0.0004455375896236366,0.00011959474016808189,-0.011784959925584988
4120,0.0,300.81501000000003,9173.8115,-0.04119998623091603,0.0,0.0,0.0,0.0,-0.006287700425859327,-1.4354213621150587,-0.5825970834178554,-0.7705911702614272,0.005254071402136475,0.002255725844947808,0.019635219440095282
4121,0.0,300.55447999999996,9298.2324,-0.04120999590561358,0.0,0.0,0.0,0.0,-0.006289228043745071,-1.4144093921413385,-0.6049338880298264,-0.8070871723008022,-0.007729447779912102,-0.01838160209837288,-0.02037638757024288
4122,0.0,299.89066,9401.0304,-0.041220005580310914,0.0,0.0,0.0,0.0,-0.006290755661630759,-1.4391171918548087,-0.5990825713523464,-0.8194787650612572,-0.012640107546231488,-0.01968546549930418,0.01053473798494769
4123,0.0,300.20078,9326.0516,-0.04123001525500847,0.0,0.0,0.0,0.0,-0.006292283279516503,-1.4120499379584786,-0.6045614882205734,-0.8182754191099962,0.012849111657608589,-0.0007845581237473583,-0.02104626747635488
4124,0.0,300.02796,9281.3965,-0.041239991894475914,0.0,0.0,0.0,0.0,-0.006293805855759033,-1.4411723670326386,-0.5941158017471645,-0.7860245600870842,0.007554597087005682,0.008602008914127181,-0.004055322161279136
4125,0.0,299.70072999999996,9364.9354,-0.041250001569173245,0.0,0.0,0.0,0.0,-0.006295333473644749,-1.4499143849204088,-0.5898659167202335,-0.8069262276549183,-0.003917746811726506,0.00842132109004468,-0.024554872915627277
4126,0.0,299.79722999999996,9480.9387,-0.0412600112438708,0.0,0.0,0.0,0.0,-0.006296861091530492,-1.4569341816132089,-0.5967003190422364,-0.8283341453702152,-0.013299578334066187,-0.002456110136399198,0.01027118555443709
4127,0.0,299.33923,9392.3963,-0.041269987883338244,0.0,0.0,0.0,0.0,-0.006298383667773022,-1.4268829061723787,-0.6009417738283355,-0.8272293075936762,-0.015142202011918985,0.016715405527932083,-0.01067057125360339
4128,0.0,299.58083,9342.9334,-0.0412799975580358,0.0,0.0,0.0,0.0,-0.006299911285658766,-1.4243755174749186,-0.5939244595982804,-0.8217184632147982,-0.01903726711883198,-0.0006022474783046983,0.015869959776993087
4129,0.0,299.83972,9242.3554,-0.04129000723273313,0.0,0.0,0.0,0.0,-0.006301438903544454,-1.4366678623880786,-0.5903748215829584,-0.7824026165446263,-0.005334269944901455,-0.007067018909735462,-0.016534149270543485
4130,0.0,300.26908,9306.3915,-0.041299983872200685,0.0,0.0,0.0,0.0,-0.0063029614797870115,-1.4558799962091686,-0.5907729072822464,-0.7822576812503222,-0.004157921941229947,-0.015365660135972587,0.012908031137673488
4131,0.0,300.27796,9307.4189,-0.041309993546898016,0.0,0.0,0.0,0.0,-0.0063044890976727275,-1.4596796840841686,-0.5869536231503124,-0.7825895915855794,0.011871425622868489,-0.008357710565991812,-0.010748700942314188
4132,0.0,299.5421,9361.7218,-0.04132000322159557,0.0,0.0,0.0,0.0,-0.006306016715558471,-1.4376537547353787,-0.5999910919220105,-0.8080848487467652,0.030510836036935073,-0.008705762684616883,0.014704297610201185
4133,0.0,299.63916,9343.6685,-0.04133001289629301,0.0,0.0,0.0,0.0,-0.006307544333444187,-1.4152758223018487,-0.6012430637455705,-0.8237230164176321,0.00941924345180695,0.0017262615297437482,0.0012803099970567589
4134,0.0,299.21939,9398.9049,-0.04133998953576057,0.0,0.0,0.0,0.0,-0.006309066909686745,-1.4282611289583986,-0.5980289432358614,-0.8307423470153861,0.009129683525679612,-0.005286335311820675,0.014708988958164184
4135,0.0,299.06042,9481.6095,-0.0413499992104579,0.0,0.0,0.0,0.0,-0.006310594527572461,-1.4299275200728587,-0.6053312137915394,-0.8469138287438872,-0.012735456407141688,0.003536592926909547,-0.006076968386675085
4136,0.0,299.71148,9556.7599,-0.04136000888515523,0.0,0.0,0.0,0.0,-0.006312122145458149,-1.4668902757707987,-0.6080553772153934,-0.8300707749816072,-0.013329539126273087,-0.0027925826302314474,0.0072229033846200625
4137,0.0,299.6473,9437.9618,-0.0413699855246229,0.0,0.0,0.0,0.0,-0.006313644721700706,-1.4475634420383887,-0.6124590634750035,-0.8088821853829562,-0.014494531534748887,-0.004049241140803986,-0.016665666093773183
4138,0.0,299.8088,9336.9266,-0.04137999519932023,0.0,0.0,0.0,0.0,-0.006315172339586422,-1.4515026544521588,-0.5800271670567244,-0.8066627420989142,-0.01600868182168388,0.0025996443084649176,0.003113115889390617
4139,0.0,300.82808,9417.6243,-0.04139000487401778,0.0,0.0,0.0,0.0,-0.006316699957472166,-1.4396606992084486,-0.6109311127217064,-0.8121308475885742,-0.005397114755853755,0.016101156092060382,0.0014097870465101486
4140,0.0,300.09673,9445.7944,-0.041400014548715114,0.0,0.0,0.0,0.0,-0.006318227575357882,-1.4519892171501787,-0.6054790773786324,-0.8138173517175191,0.007064103687872753,0.011586616218509989,0.01077993336339659
4141,0.0,300.07896,9454.8259,-0.04140999118818278,0.0,0.0,0.0,0.0,-0.0063197501516004395,-1.4351048227838186,-0.6144570305521874,-0.8244691433937692,0.00933137825348533,0.015815446921613085,-0.014955497508742685
4142,0.0,300.38606,9384.7991,-0.04142000086288011,0.0,0.0,0.0,0.0,-0.0063212777694861555,-1.4645104552609287,-0.5972995247538734,-0.7909345978191672,0.025845708960022872,-0.015339529429143683,0.005077251558985715
4143,0.0,300.43067,9342.6976,-0.041430010537577666,0.0,0.0,0.0,0.0,-0.0063228053873718715,-1.4322895073809687,-0.6018211938551274,-0.8058360414748252,0.009369069738655192,-0.015789717461823786,-0.014758075859258686
4144,0.0,300.20531,9416.2944,-0.041439987177045,0.0,0.0,0.0,0.0,-0.006324327963614401,-1.4600631992470186,-0.5903733017078084,-0.8118818819065032,0.014465264818860487,-0.026534905466041273,0.006261933544729724
4145,0.0,299.96779,9523.3049,-0.041449996851742554,0.0,0.0,0.0,0.0,-0.006325855581500145,-1.4396191559543485,-0.6192057386033484,-0.8360220183839493,0.005541670790645324,-0.014172231876690386,-0.0023513747292126176
4146,0.0,300.24655,9476.6727,-0.041460006526439996,0.0,0.0,0.0,0.0,-0.006327383199385861,-1.4662605408336487,-0.5970665684233825,-0.8173447488931462,-0.00036458588792682566,-0.014296435060698286,0.0044338337938103255
4147,0.0,300.11084,9389.1871,-0.04147001620113733,0.0,0.0,0.0,0.0,-0.006328910817271577,-1.4379611748157186,-0.5925140559890844,-0.8236031691958042,-0.008395708356666903,0.009559266003001101,0.007908749984482853
4148,0.0,300.00543,9548.8872,-0.041479992840604885,0.0,0.0,0.0,0.0,-0.006330433393514134,-1.4899941005759685,-0.6090104768921545,-0.8036187361484942,-0.002767139514920407,0.013493975432001688,0.007030090604540924
4149,0.0,299.52282,9629.175,-0.041490002515302216,0.0,0.0,0.0,0.0,-0.006331961011399823,-1.4720428551793185,-0.6103986193966534,-0.8445872545267721,-0.005996584013841765,0.025143917755261477,0.004784445078212965
4150,0.0,299.4773,9525.3161,-0.04150001218999977,0.0,0.0,0.0,0.0,-0.006333488629285566,-1.4735242268255186,-0.6106419412756674,-0.8112920690232932,0.003112356053140627,-0.012531563129268989,0.001967409075368158
4151,0.0,300.32585,9384.515,-0.041509988829467215,0.0,0.0,0.0,0.0,-0.006335011205528096,-1.4189890799433187,-0.6082825377553124,-0.8253865602993112,0.003460128616063107,-0.01063414592575849,0.016953675341947482
4152,0.0,300.80381,9361.8087,-0.04151999850416477,0.0,0.0,0.0,0.0,-0.00633653882341384,-1.4361303332100286,-0.5845731541603785,-0.8250526031988522,0.014709303065695187,-0.022414996108937876,0.005535331999344735
4153,0.0,300.21508,9384.3665,-0.0415300081788621,0.0,0.0,0.0,0.0,-0.006338066441299556,-1.4294979020304586,-0.6160574489526365,-0.8070577069878943,0.01283201508867129,-0.0073228576698847825,-0.007377298584507683
4154,0.0,300.46391,9400.0524,-0.04153998481832977,0.0,0.0,0.0,0.0,-0.006339589017542113,-1.4508110099338987,-0.6085098502827464,-0.7980603196774212,0.013298427281952588,-0.019118197430819182,0.0022427203746142677
4155,0.0,300.34608,9408.7592,-0.0415499944930271,0.0,0.0,0.0,0.0,-0.006341116635427829,-1.4460447827885088,-0.6148429167202715,-0.7991401909714962,0.015905530935003683,-0.010413007131183791,-0.02269173294974968
4156,0.0,300.05911000000003,9409.6935,-0.04156000416772465,0.0,0.0,0.0,0.0,-0.006342644253313573,-1.4454950946092588,-0.6116445623821184,-0.8031721765644222,0.005248802501616475,-0.0013251105462532289,-0.0037902633318448666
4157,0.0,299.55015,9504.7814,-0.04157001384242198,0.0,0.0,0.0,0.0,-0.006344171871199261,-1.4479693500284485,-0.6118902350013644,-0.8293566565761292,-0.006725435177098775,0.01046671343948419,-0.017633798193320383
4158,0.0,299.69698,9611.6927,-0.04157999048188954,0.0,0.0,0.0,0.0,-0.006345694447441819,-1.4778935639067385,-0.6092500193482954,-0.8345710442407492,-0.015521847572637087,-0.010983110273448591,0.018157067902713084
4159,0.0,299.4138,9542.0198,-0.04159000015658698,0.0,0.0,0.0,0.0,-0.006347222065327535,-1.4810008979884086,-0.6031593425996924,-0.8163754738474862,-0.020925672475953082,0.025480542743233775,0.002832406804211787
4160,0.0,299.81906000000004,9518.9417,-0.04160000983128431,0.0,0.0,0.0,0.0,-0.006348749683213251,-1.4743661363336087,-0.6005093896131625,-0.8186450223489732,-0.005530010004519494,0.023688229972596276,0.03674811588950667
4161,0.0,300.16578,9521.2889,-0.04160998647075187,0.0,0.0,0.0,0.0,-0.006350272259455808,-1.4619231211305788,-0.6193932607993554,-0.8129176970862302,-0.004475492457096716,0.028389911060116076,-0.004357750566326496
4162,0.0,300.675,9566.2513,-0.04161999614544931,0.0,0.0,0.0,0.0,-0.006351799877341524,-1.4617478288632788,-0.6090070521068164,-0.8371466753324442,-0.001225132145636129,-0.012607870994299988,0.016008358594901982
4163,0.0,299.84335,9475.0645,-0.041630005820146754,0.0,0.0,0.0,0.0,-0.00635332749522724,-1.4457674562361387,-0.6104544596096645,-0.8239610592636253,0.013020056068729488,-0.003694147237958947,-0.008596120917796081
4164,0.0,300.11812000000003,9548.6705,-0.041640015494844196,0.0,0.0,0.0,0.0,-0.006354855113112956,-1.4595746100487985,-0.6148908941125064,-0.8280918772713053,0.012952364882548887,0.001716193471450108,0.012906771667799188
4165,0.0,299.73085,9491.4702,-0.04164999213431175,0.0,0.0,0.0,0.0,-0.0063563776893555135,-1.4733786227861485,-0.6053948458978193,-0.8063964701051353,0.0066493397906137435,0.012515915507974687,-0.0007633105123303823
4166,0.0,300.31099,9452.518,-0.041660001809009084,0.0,0.0,0.0,0.0,-0.0063579053072412295,-1.4648210164165787,-0.5973778287216015,-0.8111305873548562,-0.013226870546640488,-0.006428075960976704,-0.001334570857136889
4167,0.0,300.32212000000004,9461.0719,-0.04167001148370664,0.0,0.0,0.0,0.0,-0.006359432925126973,-1.4600006817158486,-0.5999960872450034,-0.8159328355413011,-0.016231820771955986,0.0020919648704108575,-0.00037845947041604167
4168,0.0,299.69383,9580.0137,-0.04167998812317408,0.0,0.0,0.0,0.0,-0.006360955501369503,-1.4615134641151486,-0.6148370803996954,-0.8357343870780622,-9.666878229871601e-06,-0.001850584074613428,0.003932796007511747
4169,0.0,299.19738,9639.8228,-0.041689997797871636,0.0,0.0,0.0,0.0,-0.006362483119255247,-1.4707846012051384,-0.6258374199778444,-0.8336434137741993,-0.0054073923542680745,-0.0062941046407047644,-0.01043544555464829
4170,0.0,299.85389,9594.949,-0.04170000747256897,0.0,0.0,0.0,0.0,-0.006364010737140935,-1.4826904925301587,-0.6095093911088935,-0.8244250771469203,0.002449072810479668,-0.013077211480370287,0.005624140026884405
4171,0.0,299.14841,9429.1095,-0.04170998411203641,0.0,0.0,0.0,0.0,-0.006365533313383492,-1.4707450844512386,-0.6150368629219125,-0.7804318653651282,0.0019060447241369682,0.022072528720888978,-0.017789104102397882
4172,0.0,299.82602,9472.6043,-0.041719993786733967,0.0,0.0,0.0,0.0,-0.006367060931269208,-1.4590012118172087,-0.6165462104033734,-0.8038877135200403,0.015597869701139884,0.029130328371939573,0.0005771678968645365
4173,0.0,300.02557,9474.5688,-0.0417300034614313,0.0,0.0,0.0,0.0,-0.006368588549154924,-1.4440941750209986,-0.6187269374010944,-0.8172112126624672,-0.000978363007396911,0.01989997662497478,-0.02120154805417988
4174,0.0,300.11259,9478.0364,-0.04174001313612885,0.0,0.0,0.0,0.0,-0.006370116167040668,-1.4469027016481788,-0.6126827586995804,-0.8215009690808333,-0.019583171822208582,-0.02173539609461658,0.002963193276769407
4175,0.0,299.88673,9447.7388,-0.0417499897755963,0.0,0.0,0.0,0.0,-0.006371638743283198,-1.4358111594285288,-0.6070385604750415,-0.8290269855235932,-0.01942675539102148,-0.017584816670236283,0.0008258621292337462
4176,0.0,300.26807,9430.274,-0.04175999945029385,0.0,0.0,0.0,0.0,-0.0063731663611689415,-1.4657652641847685,-0.5942614057865345,-0.8065411926169183,0.004500506967615456,-0.0036874729595502464,0.012900053819636187
4177,0.0,300.3935,9548.7937,-0.04177000912499118,0.0,0.0,0.0,0.0,-0.00637469397905463,-1.4705428397312788,-0.6077778581455044,-0.8242741839420282,0.010760902500018389,0.005304918217329664,0.0018208729472311684
4178,0.0,300.45772,9717.7567,-0.041779985764458516,0.0,0.0,0.0,0.0,-0.006376216555297187,-1.5022954634150185,-0.6083645096884024,-0.8432953809142741,0.02053166004206708,-0.011600492678629488,0.007733900912776592
4179,0.0,299.87445,9630.976,-0.04178999543915607,0.0,0.0,0.0,0.0,-0.006377744173182903,-1.4555022565718885,-0.6229177803446984,-0.8491561613476881,0.009585888136128502,0.0056538530794418545,0.005326820023541204
4180,0.0,299.67152000000004,9472.3527,-0.04180000511385362,0.0,0.0,0.0,0.0,-0.006379271791068647,-1.4606195748769286,-0.5946954112018675,-0.8240437303392842,0.02512072547372258,-0.00041613601014692665,-0.006678876436328784
4181,0.0,300.37949,9545.6279,-0.041810014788551064,0.0,0.0,0.0,0.0,-0.006380799408954363,-1.4665831596654886,-0.6081860358157885,-0.8268632912600532,0.01080069789769589,-0.001221183307346409,0.007263105095587663
4182,0.0,300.30699,9604.267,-0.0418199914280184,0.0,0.0,0.0,0.0,-0.006382321985196893,-1.5049757125795384,-0.6192986232400154,-0.7951830440309562,-0.012320107965899989,-0.013651264271524886,-0.009077213281176201
4183,0.0,299.9508,9578.5663,-0.04183000110271595,0.0,0.0,0.0,0.0,-0.006383849603082636,-1.4885513337585785,-0.6101639000109884,-0.8129297648949212,-0.025291404413317273,0.00035627723710682566,0.016869124687352983
4184,0.0,299.61604,9434.2044,-0.04184001077741328,0.0,0.0,0.0,0.0,-0.006385377220968325,-1.4553260523794986,-0.6105487425314694,-0.8018878010026642,-0.01696815164612618,0.007996811854648882,-0.016776387985200585
4185,0.0,299.92065,9456.5639,-0.04184998741688073,0.0,0.0,0.0,0.0,-0.006386899797210882,-1.4319275744452487,-0.6134780688355714,-0.8291536113885902,-0.008279063309129931,-0.004180078985141676,0.020891802564860378
4186,0.0,300.07773,9521.2274,-0.04185999709157828,0.0,0.0,0.0,0.0,-0.006388427415096598,-1.4445995841708785,-0.6117286520079174,-0.8378870977105183,0.02049388101208858,-0.023092961750847876,-0.01207361056107259
4187,0.0,300.45405,9621.82,-0.041870006766275836,0.0,0.0,0.0,0.0,-0.006389955032982342,-1.4718453727348286,-0.6159645744484704,-0.8369830861037991,0.02094530926289108,-0.0034693984359279663,0.012698747369268789
4188,0.0,300.09026,9568.725,-0.04188001644097317,0.0,0.0,0.0,0.0,-0.006391482650868058,-1.4906029625610588,-0.6051961171557064,-0.8128544398824873,0.02998818744985367,-0.002748573834663117,-0.01096689016584779
4189,0.0,300.60126,9487.7338,-0.04188999308044061,0.0,0.0,0.0,0.0,-0.0063930052271105875,-1.4784041406321287,-0.6029516871241984,-0.8026782779356783,0.012725340118143288,0.004256786070712076,-0.005215404055795305
4190,0.0,300.22887000000003,9560.6646,-0.041900002755138166,0.0,0.0,0.0,0.0,-0.006394532844996331,-1.4731983655933587,-0.6235434622814484,-0.8094614705976273,-0.017697445498351883,0.0007768836458999463,-0.01987810156856588
4191,0.0,300.14785,9679.4323,-0.04191001242983572,0.0,0.0,0.0,0.0,-0.006396060462882047,-1.4817843429657287,-0.6093701908101554,-0.8511512001320831,-0.024634924739777773,0.003825721613794327,0.008241258137298852
4192,0.0,300.29181,9614.1715,-0.04191998906930294,0.0,0.0,0.0,0.0,-0.006397583039124577,-1.4711648739676686,-0.6324624544316844,-0.8188407417382892,-0.022767958741522577,0.011985703008896788,-0.0009722419939403142
4193,0.0,300.08681,9426.9334,-0.04192999874400061,0.0,0.0,0.0,0.0,-0.006399110657010321,-1.4631178443234885,-0.5885015551955814,-0.8139329939514321,0.0015769263995305185,-0.004797702746496395,0.011303097694778889
4194,0.0,299.53578,9521.3189,-0.04194000841869805,0.0,0.0,0.0,0.0,-0.006400638274896037,-1.4939023075366786,-0.6099763980799835,-0.7903644622528992,-0.005035485896488766,-0.004965719776753386,-0.0023238794784740478
4195,0.0,299.38928,9712.6966,-0.041949985058165384,0.0,0.0,0.0,0.0,-0.006402160851138566,-1.5026969131046386,-0.6283372396970573,-0.8213830875641992,0.019152316601436483,0.0037733728579779063,0.0002051339418251438
4196,0.0,299.42942999999997,9730.0018,-0.041959994732862715,0.0,0.0,0.0,0.0,-0.006403688469024282,-1.4857939762614487,-0.6247973288826953,-0.8470862636459051,0.014529532232953186,-0.002498344224417378,0.001113294665848629
4197,0.0,299.85741,9707.4379,-0.04197000440756027,0.0,0.0,0.0,0.0,-0.006405216086910026,-1.4710721615835185,-0.6273066731528484,-0.8524399124042692,0.01046807727411879,0.003926579616823236,0.01227298271699909
4198,0.0,299.75786,9519.1572,-0.04198001408225782,0.0,0.0,0.0,0.0,-0.006406743704795742,-1.4501260528662985,-0.6054831101140304,-0.8379769020668812,0.003176215026118017,-0.008034516512070043,-6.867316636926384e-05
4199,0.0,299.7764,9497.2715,-0.041989990721725046,0.0,0.0,0.0,0.0,-0.006408266281038272,-1.4735086227739786,-0.5925155252017295,-0.8209092107574312,0.001089368993887349,0.0026711052916425677,0.008735690343545512
4200,0.0,300.17036,9667.2509,-0.04200000039642282,0.0,0.0,0.0,0.0,-0.0064097938989240155,-1.4959738973661287,-0.6292655490411744,-0.8133634460702222,-0.003280020168387787,0.014901430483406685,-0.01061635426725259
4201,0.0,300.39927,9625.3887,-0.04201001007112015,0.0,0.0,0.0,0.0,-0.0064113215168097315,-1.5109597650201185,-0.6007031736947874,-0.8142148395992482,-0.0014536903627430685,-0.0006509462438158924,-0.004469976323552316
4202,0.0,300.50065,9477.1468,-0.0420199867105876,0.0,0.0,0.0,0.0,-0.006412844093052261,-1.4602144774869485,-0.6247580451763184,-0.7958435007111383,-0.017858090222206285,-0.0037433735622672062,-0.026208954054622376
4203,0.0,300.14694,9513.7906,-0.04202999638528515,0.0,0.0,0.0,0.0,-0.006414371710938005,-1.4614900580378385,-0.6113023270283424,-0.8191624182475362,-0.0004302418092940605,-0.011934456871839189,-0.007241770709432123
4204,0.0,299.90353999999996,9723.7748,-0.042040006059982704,0.0,0.0,0.0,0.0,-0.006415899328823749,-1.4672024581266085,-0.6230798193006903,-0.8655024489834411,0.014969463134870985,0.002730902448944088,0.008720048801751812
4205,0.0,299.70997,9742.4421,-0.042050015734680035,0.0,0.0,0.0,0.0,-0.006417426946709437,-1.4958149184254386,-0.6279284439442124,-0.8377157469861073,0.013496461947747089,-0.0005776543886350495,0.01180428260499199
4206,0.0,299.3321,9636.5341,-0.04205999237414748,0.0,0.0,0.0,0.0,-0.006418949522951994,-1.4820829477701987,-0.6117506598000895,-0.8354321548382343,0.0034328500995209265,-0.004538817244621386,0.01018747792392579
4207,0.0,299.25616,9555.5103,-0.042070002048845034,0.0,0.0,0.0,0.0,-0.00642047714083771,-1.4780901344261386,-0.6057732238826624,-0.8207731819315063,-0.0019495438549049983,-0.010132108568236261,0.005140194553872705
4208,0.0,299.68393,9632.067,-0.042080011723542365,0.0,0.0,0.0,0.0,-0.006422004758723426,-1.4698594025388285,-0.6214817516404735,-0.8365666707102022,-0.007800336378108263,0.014872728147823986,0.009581479687593422
4209,0.0,299.90066,9665.0463,-0.04208998836300981,0.0,0.0,0.0,0.0,-0.006423527334965956,-1.4736450062374384,-0.6060811809855554,-0.8582065720358942,0.01060149191478579,-0.0026601598600873378,0.012467120422908987
4210,0.0,300.22108,9683.7132,-0.042099998037707254,0.0,0.0,0.0,0.0,-0.0064250549528517,-1.4701811094455788,-0.6295699901662204,-0.8438558703395902,-0.006607920051700933,0.0026170625843089674,0.005760902749856834
4211,0.0,300.09254,9546.9577,-0.04211000771240481,0.0,0.0,0.0,0.0,-0.0064265825707374435,-1.4886333056916685,-0.5999888627717904,-0.8134146354652743,0.0033319184332097464,-0.003224912636524097,0.006144773664816944
4212,0.0,300.27519,9495.3237,-0.04211998435187203,0.0,0.0,0.0,0.0,-0.0064281051469799455,-1.4788528077764087,-0.6000454021273705,-0.8074431270609322,0.0013082414519633787,0.016195960837666886,-0.01165357381161819
4213,0.0,300.65436,9755.0168,-0.042129994026569584,0.0,0.0,0.0,0.0,-0.006429632764865689,-1.4995180435659086,-0.6349118548259214,-0.8308516463036731,0.0036296886235723763,0.00985669634928019,-0.010777549185911289
4214,0.0,300.35896,9861.8804,-0.04214000370126714,0.0,0.0,0.0,0.0,-0.006431160382751405,-1.5065360164085286,-0.6265048174212113,-0.8647245464841682,-0.006409239540292694,-0.014575642205253887,-0.01131686269738739
4215,0.0,300.2619,9607.222,-0.04215001337596469,0.0,0.0,0.0,0.0,-0.006432688000637149,-1.4566480397849686,-0.6146959549257675,-0.8490115705584181,-0.007833373498943773,-0.020351931765829282,-0.0007263036397230884
4216,0.0,300.48132999999996,9385.1146,-0.042159990015431914,0.0,0.0,0.0,0.0,-0.006434210576879651,-1.4411803717084286,-0.5978341661691384,-0.8138259542108682,-0.00098226269292428,0.01054540750850069,0.00026928969575682377
4217,0.0,299.85656,9541.3607,-0.04216999969012947,0.0,0.0,0.0,0.0,-0.006435738194765395,-1.4744708050689384,-0.5906385705839885,-0.8352260293703911,0.008074646282280542,0.00022857891780648276,0.03949483831358706
4218,0.0,299.54817,9703.7178,-0.04218000936482702,0.0,0.0,0.0,0.0,-0.006437265812651138,-1.4783202435238487,-0.6393840975872974,-0.8319835783878862,0.0072594566859525925,0.012862174477897788,-0.005976558746815425
4219,0.0,299.73722000000004,9739.4803,-0.042189986004294466,0.0,0.0,0.0,0.0,-0.006438788388893668,-1.4977417148155985,-0.6184844463871624,-0.8443327058366502,-0.0027534060243900177,-0.0007482541629994364,0.015344556162889787
4220,0.0,299.59283999999997,9651.1314,-0.0421999956789918,0.0,0.0,0.0,0.0,-0.006440316006779384,-1.4825221916885485,-0.6207238608306754,-0.8304569043297153,-0.004307490828241246,0.012246522703887689,-0.01951344602982718
4221,0.0,299.88026,9613.8195,-0.04221000535368935,0.0,0.0,0.0,0.0,-0.0064418436246651,-1.4742804153751485,-0.6161023156670644,-0.8319783500173702,-0.016497644909190784,-0.004029773161332646,0.005374902489811575
4222,0.0,299.87854,9687.7267,-0.042220015028386904,0.0,0.0,0.0,0.0,-0.006443371242550844,-1.4977353313399686,-0.6159418269837253,-0.8311498762056062,-0.013368858296403587,0.0007545671062899752,-0.01962547805363388
4223,0.0,300.4642,9833.0633,-0.04222999166785413,0.0,0.0,0.0,0.0,-0.006444893818793346,-1.5213289612434786,-0.6293380774833324,-0.8383386222200802,-0.01292009489336409,-0.001095766047068689,0.001911663803891528
4224,0.0,300.41656,9617.4038,-0.04224000134255168,0.0,0.0,0.0,0.0,-0.0064464214366790895,-1.4847777877361588,-0.6018965492650644,-0.8367762614933871,-0.0018959092847116784,0.03354706630608767,-0.004333594987917526
4225,0.0,300.23819,9376.0104,-0.042250011017249234,0.0,0.0,0.0,0.0,-0.006447949054564833,-1.4558988426610286,-0.5935596794297795,-0.8006145711920063,0.011106231306349688,0.009191174431848293,0.0062072034485282845
4226,0.0,299.95706,9523.7265,-0.04225998765671657,0.0,0.0,0.0,0.0,-0.006449471630807363,-1.4577714301708384,-0.6069985674935944,-0.8302050610173602,-0.004643765636978985,0.0035652261588354265,-0.0002737901879309877
4227,0.0,300.11816,9837.7468,-0.04226999733141401,0.0,0.0,0.0,0.0,-0.006450999248693079,-1.5005364612414185,-0.6239159431507094,-0.8659769641377721,0.01111143029261279,-0.015475212736784587,0.01303397913835359
4228,0.0,299.70309,9741.2613,-0.04228000700611145,0.0,0.0,0.0,0.0,-0.006452526866578795,-1.5032885498380286,-0.6271424962391454,-0.8306691498281622,0.01191003349142879,-0.007050498170829993,0.01041468709984959
4229,0.0,299.89763,9698.9147,-0.0422899836455789,0.0,0.0,0.0,0.0,-0.006454049442821325,-1.4966606782839087,-0.6263930559351815,-0.8251741628133492,0.022362728615779478,-0.008315353570736502,0.013180852780098888
4230,0.0,299.46117999999996,9773.6483,-0.04229999332027645,0.0,0.0,0.0,0.0,-0.006455577060707068,-1.4941671711128186,-0.6378356487844774,-0.8389421950396483,0.008086277886803493,-0.005068273555149654,0.01106013146654999
4231,0.0,299.57878,9792.3867,-0.04231000299497378,0.0,0.0,0.0,0.0,-0.006457104678592784,-1.4950998678298686,-0.6343283240933314,-0.8472128489808983,0.004711728171536366,-0.01029595647963179,-0.00043764685380738165
4232,0.0,299.34595,9797.5738,-0.042320012669671336,0.0,0.0,0.0,0.0,-0.006458632296478528,-1.4873339137634287,-0.6294189348413124,-0.8614649918399753,-0.01247805947098859,0.014751702516129684,0.0033745639007685276
4233,0.0,299.7785,9673.6783,-0.04232998930913878,0.0,0.0,0.0,0.0,-0.006460154872721058,-1.4870587150362686,-0.6182599000325014,-0.8352380059865732,0.00038221371402405663,0.005264615485327095,-0.007013636942792073
4234,0.0,299.50413,9458.0133,-0.042339998983836113,0.0,0.0,0.0,0.0,-0.006461682490606746,-1.4697261601506788,-0.6062627047409704,-0.7990110319812492,-0.0006354522312367524,0.013411496873861686,-0.013677319997846386
4235,0.0,300.48967000000005,9563.4455,-0.04235000865853367,0.0,0.0,0.0,0.0,-0.00646321010849249,-1.4942825802992086,-0.6043044064052014,-0.8084616460614522,0.0007305375052659383,0.005266488579461956,-0.010963331631496591
4236,0.0,300.22314,9826.8362,-0.04235998529800111,0.0,0.0,0.0,0.0,-0.0064647326847350195,-1.5032221819564786,-0.6326753382776944,-0.8512152679359063,0.007251347949377322,-0.0028829891611288775,0.004264246732523386
4237,0.0,300.00855,9765.5798,-0.042369994972698666,0.0,0.0,0.0,0.0,-0.006466260302620763,-1.5002771705408287,-0.6225593633868254,-0.8456558686122363,0.009906010927672161,-0.017637808637216184,0.017739104262963285
4238,0.0,299.74003999999996,9574.5121,-0.042380004647396,0.0,0.0,0.0,0.0,-0.006467787920506479,-1.4372680104223088,-0.6279597837698054,-0.8451848086407461,0.000953444623915158,-0.00875176261795672,0.01122265779584009
4239,0.0,300.0242,9669.6368,-0.04239001432209355,0.0,0.0,0.0,0.0,-0.006469315538392223,-1.4955212785464587,-0.6137550407504063,-0.8300517968072342,0.006991854902742353,-0.013917404542790885,0.007276104993045654
4240,0.0,300.54301,9972.9507,-0.042399990961560996,0.0,0.0,0.0,0.0,-0.006470838114634753,-1.5295621249310287,-0.6343835766212844,-0.8675822562712022,0.016730280039400084,-0.008844064838466241,0.011978677132703388
4241,0.0,299.60902000000004,9814.8041,-0.04241000063625855,0.0,0.0,0.0,0.0,-0.006472365732520496,-1.5284264742189486,-0.6385410228415924,-0.8164878534160772,0.018661638081510282,-0.00896787194301005,-0.004193871244177866
4242,0.0,299.34602,9629.6181,-0.04242001031095588,0.0,0.0,0.0,0.0,-0.006473893350406185,-1.4801887780332588,-0.6145597133173214,-0.8324149392204582,0.015642897522333787,0.0027882329502021672,0.005147933454161475
4243,0.0,299.32903999999996,9632.7877,-0.04242998695042344,0.0,0.0,0.0,0.0,-0.006475415926648742,-1.4826291908991085,-0.5949178094663164,-0.8505799601232062,0.004399075363704936,0.015613109995893987,-0.0023007818344944874
4244,0.0,299.71369,9612.8306,-0.04243999662512077,0.0,0.0,0.0,0.0,-0.006476943544534458,-1.4632631443878288,-0.6033686598053505,-0.8554286151642311,-0.007765544916049612,0.007641034717261412,0.002025797713705668
4245,0.0,299.56731,9762.0929,-0.04245000629981821,0.0,0.0,0.0,0.0,-0.006478471162420174,-1.5153150179249486,-0.6068162939331054,-0.8453012310772362,-0.008238331161734983,0.012733441052692787,-0.006421920466619204
4246,0.0,300.16200000000003,9839.2294,-0.042460015974515763,0.0,0.0,0.0,0.0,-0.006479998780305918,-1.5242376983055486,-0.6213517719176455,-0.8452906324811902,-0.008216988365603611,0.017792946346777083,0.0002732764701302877
4247,0.0,299.68343,9587.2803,-0.0424699926139831,0.0,0.0,0.0,0.0,-0.0064815213565484475,-1.4961216292307087,-0.6130337586667214,-0.8051384289134763,0.004011219133451507,0.0035919301625709065,-0.013438009575978287
4248,0.0,300.24752,9695.8233,-0.04248000228868065,0.0,0.0,0.0,0.0,-0.0064830489744341635,-1.4892363921511884,-0.6249878806965015,-0.8330638651145023,0.009205897563751352,0.0008924255579205451,0.015604943200087986
4249,0.0,300.16107,9926.1342,-0.04249001196337798,0.0,0.0,0.0,0.0,-0.0064845765923198795,-1.5013210207938485,-0.6388889931909344,-0.8770869171117393,0.0015598971103998585,-0.011006524456759387,0.004796307095808655
4250,0.0,299.8407,9844.6304,-0.04249998860284565,0.0,0.0,0.0,0.0,-0.006486099168562437,-1.4819554809076185,-0.6372693129060845,-0.8732970374977072,0.008282969388265431,-0.014116515280191588,0.011853132405563089
4251,0.0,300.09101,9612.0056,-0.04250999827754298,0.0,0.0,0.0,0.0,-0.006487626786448153,-1.4813501652978787,-0.6089380801725094,-0.8315214147522743,0.009558765153476671,-0.0018231520506810984,-0.0016533887852017684
4252,0.0,300.29525,9673.4446,-0.042520007952240535,0.0,0.0,0.0,0.0,-0.006489154404333897,-1.4892677015792786,-0.6174159640242114,-0.8338019570173463,0.007626294562756673,-0.0005139723696551235,-0.0038282904054478457
4253,0.0,299.74062999999995,9762.1986,-0.04252998459170798,0.0,0.0,0.0,0.0,-0.006490676980576426,-1.5119995622727385,-0.6198654961409614,-0.8355995437547542,-0.007262200263248363,-0.007937827931877623,-0.01121567346290079
4254,0.0,299.84036000000003,9813.1003,-0.042539994266405534,0.0,0.0,0.0,0.0,-0.00649220459846217,-1.5091641845179087,-0.6271885585886914,-0.8465847352439082,-0.002062685387571198,0.002243567553022878,-0.01852469429074498
4255,0.0,300.32809,9804.2466,-0.042550003941102865,0.0,0.0,0.0,0.0,-0.006493732216347858,-1.4981938270102184,-0.6230358341138494,-0.8590165135033292,-0.006793415848832944,0.014268475437438885,-0.004168945494367886
4256,0.0,300.68202,9652.8353,-0.042560013615800196,0.0,0.0,0.0,0.0,-0.006495259834233574,-1.4842242492065285,-0.5992473866136124,-0.8507492944799183,-0.01180271308058709,0.014428846583766287,0.005736967755994635
4257,0.0,300.07993999999997,9686.086,-0.04256999025526775,0.0,0.0,0.0,0.0,-0.006496782410476132,-1.4907932509298385,-0.6300212816282594,-0.8235137498744792,-0.013758246256833187,0.01238058987761909,0.016428923247658486
4258,0.0,300.08348,9969.4493,-0.042579999929965195,0.0,0.0,0.0,0.0,-0.006498310028361848,-1.5363057096465684,-0.6419817567361663,-0.8521762039332431,0.005105797651402995,-0.009185731860261151,-0.003077244505375387
4259,0.0,300.04531000000003,10096.232,-0.04259000960466275,0.0,0.0,0.0,0.0,-0.0064998376462475915,-1.5514377892899884,-0.6573825807036093,-0.860181953768349,0.005166950132038275,0.0022249171650572277,0.01998676250928988
4260,0.0,300.15845,9710.48,-0.042599986244130084,0.0,0.0,0.0,0.0,-0.006501360222490121,-1.5015296489894385,-0.6252917037389863,-0.8249221168509742,0.0018022270175659582,-0.014840815835924488,-0.002081439633672098
4261,0.0,299.63032999999996,9570.6636,-0.04260999591882764,0.0,0.0,0.0,0.0,-0.006502887840375865,-1.4623736121250386,-0.6034049949539364,-0.8434641883809343,-0.0033507874805469764,-0.019232434286843483,0.005530853636552755
4262,0.0,299.65263,9878.6106,-0.04262000559352497,0.0,0.0,0.0,0.0,-0.006504415458261553,-1.5085630232335785,-0.6318135285376404,-0.8624744219870981,0.010915501160526092,-0.021477855276949277,0.0030084419864851073
4263,0.0,300.37485,9956.7144,-0.04263001526822252,0.0,0.0,0.0,0.0,-0.006505943076147297,-1.5243549313421185,-0.6365208047922124,-0.8657167919095952,0.013081519819795486,-0.004550440540493516,0.01182320099760909
4264,0.0,300.63829,9731.4654,-0.04263999190768997,0.0,0.0,0.0,0.0,-0.006507465652389827,-1.5128789620345287,-0.6064082378528335,-0.8388352870215972,0.017198040868564482,0.0005112957073959575,-0.00983113296118228
4265,0.0,300.42657,9677.9429,-0.04265000158238752,0.0,0.0,0.0,0.0,-0.00650899327027557,-1.5102068188708087,-0.6094223934553075,-0.8222237811721692,-0.009335521230494212,0.0009975797616384571,-0.009506315477950292
4266,0.0,300.55631,9705.0596,-0.04266001125708485,0.0,0.0,0.0,0.0,-0.006510520888161286,-1.5076737949458185,-0.6169140303221744,-0.8255079172637881,0.003163057669594487,0.0017700673713170482,-0.006017514822482474
4267,0.0,300.44872999999995,9889.1426,-0.04266998789655252,0.0,0.0,0.0,0.0,-0.006512043464403844,-1.5128825084098787,-0.6395721973358613,-0.8535977026310341,-0.007353580324841874,0.02693588196786457,-0.006309122324411894
4268,0.0,300.16594,10049.05,-0.04267999757124985,0.0,0.0,0.0,0.0,-0.00651357108228956,-1.5415606273151883,-0.6493926071725603,-0.8637071319262571,-0.007417461285346432,0.006771771610796824,0.007567876844141294
4269,0.0,299.7774,9816.1246,-0.04269000724594718,0.0,0.0,0.0,0.0,-0.006515098700175248,-1.5075514956587486,-0.6300349301071063,-0.8462703946653852,-0.018328419640374183,-0.001211272100168249,0.011972110258805289
4270,0.0,299.4944,9631.903,-0.04269998388541474,0.0,0.0,0.0,0.0,-0.006516621276417833,-1.4730951154081684,-0.6301672605701664,-0.8245956172712513,-0.007331732018235614,-0.0031212493492683274,0.005899222534257934
4271,0.0,300.38457,9873.7564,-0.04270999356011218,0.0,0.0,0.0,0.0,-0.0065181488943035215,-1.5176402242544287,-0.6310734506646004,-0.8526617229836602,0.012922269328078686,0.01867334821291598,0.007767001260418343
4272,0.0,299.54978,10014.525,-0.042720003234809734,0.0,0.0,0.0,0.0,-0.006519676512189265,-1.5199517517075587,-0.6367823347755234,-0.8874313495026552,0.020551317094007083,0.006174764246576784,0.016433129248823584
4273,0.0,299.58076,9731.9051,-0.042730012909507065,0.0,0.0,0.0,0.0,-0.006521204130074981,-1.4898277249095486,-0.6258601167800844,-0.8425683233050192,0.0075534162453391425,0.007400474248744942,-0.014732228862457786
4274,0.0,299.75276,9579.2088,-0.04273998954897462,0.0,0.0,0.0,0.0,-0.006522726706317539,-1.4962524398186186,-0.5903770709981805,-0.8252107715394622,0.008784990128486022,-0.02051926698009398,-0.009823531153632041
4275,0.0,300.04976,9778.8746,-0.04274999922367195,0.0,0.0,0.0,0.0,-0.006524254324203255,-1.5177265531629485,-0.6276647253406854,-0.8271424011325992,0.0037138020607487264,0.005956086737819994,-0.01132098763854449
4276,0.0,300.30899,9937.9906,-0.042760008898369506,0.0,0.0,0.0,0.0,-0.006525781942088971,-1.5266617978447885,-0.6376046277616774,-0.8566345347707461,0.004594732843439826,-0.01122769871508759,-0.0057468548478204155
4277,0.0,300.35561,9927.0987,-0.04276998553783695,0.0,0.0,0.0,0.0,-0.006527304518331528,-1.5278200440340985,-0.6379364469044254,-0.8518336038094312,-0.008347386864697942,-0.002091547208719638,-0.006175891487313034
4278,0.0,300.21464,9882.2993,-0.042779995212534505,0.0,0.0,0.0,0.0,-0.006528832136217244,-1.5110022201993085,-0.6452536730315794,-0.8477163126905861,-0.01045679068125489,-0.003393386743901197,0.00959636068386206
4279,0.0,300.79407000000003,9789.8547,-0.042790004887231836,0.0,0.0,0.0,0.0,-0.00653035975410296,-1.5077704590053587,-0.6172639258467064,-0.8508370318060772,-0.0053585433642970555,0.02086136047885598,0.004607785328578006
4280,0.0,300.49742000000003,9847.729,-0.04280001456192917,0.0,0.0,0.0,0.0,-0.006531887371988676,-1.5230239260107585,-0.6292741616670244,-0.8411656710590882,0.0016887355083152185,0.0025678284579749374,0.01073554186326549
4281,0.0,299.96776,10016.858,-0.042809991201396835,0.0,0.0,0.0,0.0,-0.0065334099482312336,-1.5354329973354386,-0.6411688565784394,-0.8682729483343682,-0.006131085871866063,-5.172217614008135e-05,-0.0011588156358661988
4282,0.0,299.66852,9830.2905,-0.042820000876094166,0.0,0.0,0.0,0.0,-0.0065349375661169495,-1.5171348151045485,-0.6151572876962974,-0.8558707873753701,0.008554599144598201,-0.0016240254052538284,0.016230825760357784
4283,0.0,299.45254,9570.2818,-0.04283001055079172,0.0,0.0,0.0,0.0,-0.0065364651840026655,-1.4791446238052086,-0.6088183748056955,-0.8211637189175492,0.009086964698813592,0.018171919109428784,-0.01068337265536679
4284,0.0,299.63737000000003,9830.6861,-0.042839987190259166,0.0,0.0,0.0,0.0,-0.006537987760245223,-1.4893459244869987,-0.6270737978823654,-0.8718633797987161,0.002142750586623018,0.006089277551539905,0.0034635940327301163
4285,0.0,299.56511,9978.2721,-0.04284999686495672,0.0,0.0,0.0,0.0,-0.006539515378130939,-1.5274025849928987,-0.6439271563981624,-0.8618158499521023,-0.005839967567084925,-0.0009987621130476462,-0.016487969383985883
4286,0.0,300.12188,9872.1967,-0.04286000653965405,0.0,0.0,0.0,0.0,-0.006541042996016655,-1.5179943551643786,-0.6446958889840304,-0.8382110438999891,-0.0015130049090219585,0.0007859318173054313,-0.008894856532853991
4287,0.0,300.18415,9816.5447,-0.0428700162143516,0.0,0.0,0.0,0.0,-0.006542570613902399,-1.5336833170627586,-0.6125572980721984,-0.8377438545438811,0.014998049959942285,0.005164404746462065,-0.00919062788474435
4288,0.0,299.68282999999997,9857.072,-0.04287999285381905,0.0,0.0,0.0,0.0,-0.006544093190144928,-1.5266586567694787,-0.6319607740421724,-0.8376842957030032,0.006531671765775814,-0.024620443369348575,0.010916624854886989
4289,0.0,300.16353,9868.6862,-0.04289000252851649,0.0,0.0,0.0,0.0,-0.006545620808030672,-1.5033875443727986,-0.6378207742730093,-0.8586258751922762,-0.004760308042280826,-0.022386040460830182,0.004925916171750076
4290,0.0,300.90455,9975.1893,-0.04290001220321393,0.0,0.0,0.0,0.0,-0.00654714842591636,-1.5100928282345585,-0.6278973979611484,-0.8942182405274691,0.004761327169231405,-0.007447216590433053,0.014882130095501886
4291,0.0,299.64522,9956.391,-0.04290998884268149,0.0,0.0,0.0,0.0,-0.006548671002158946,-1.5258247519371786,-0.6341000591108034,-0.8665694317362441,0.008941794938436451,0.015752498759150586,0.010782128063113188
4292,0.0,299.01804,9788.0768,-0.04291999851737882,0.0,0.0,0.0,0.0,-0.006550198620044634,-1.5260665134110385,-0.6124716987037504,-0.8367927166750113,0.004366468671511906,0.0009500128167539652,0.0034415099428255873
4293,0.0,298.91958,9815.1901,-0.04293000819207626,0.0,0.0,0.0,0.0,-0.00655172623793035,-1.5227711201108085,-0.6336693872882994,-0.8271321875715912,-0.003340888938995067,-0.0016354823254595386,-0.009256032469424282
4294,0.0,299.26328,10019.996,-0.0429399848315436,0.0,0.0,0.0,0.0,-0.0065532488141728795,-1.5499628011194184,-0.6365766551377244,-0.8592892601652471,0.005188628009977715,-0.003001787770428387,0.016206705341727284
4295,0.0,299.82617,9972.2068,-0.04294999450624115,0.0,0.0,0.0,0.0,-0.006554776432058623,-1.5219340742031986,-0.6309726626771534,-0.8783951851108552,0.007066638231672893,0.009341259063160492,0.0005300921958935265
4296,0.0,300.0043,9689.7092,-0.042960004180938705,0.0,0.0,0.0,0.0,-0.006556304049944367,-1.4879710454263086,-0.6225508824834884,-0.8349077371164781,-0.0023112398927516175,-0.007185671408370554,0.0015067631870809488
4297,0.0,300.05749,9727.4026,-0.042970013855636036,0.0,0.0,0.0,0.0,-0.006557831667830055,-1.4965647234994386,-0.6129876355221694,-0.8473351077379643,-0.01906147771672138,-0.005330496297554025,-0.0012278041874748387
4298,0.0,300.11607000000004,10009.886999999999,-0.042979990495103704,0.0,0.0,0.0,0.0,-0.0065593542440726404,-1.5488915931136986,-0.6329439914092084,-0.8609201165987002,-0.017840233715693984,0.005923159757270354,-9.212874905264961e-05
4299,0.0,299.94754,10028.115,-0.042990000169801035,0.0,0.0,0.0,0.0,-0.006560881861958329,-1.5572610389396984,-0.6460097906537023,-0.8450258803625612,-0.004468607523992226,0.01065571194088689,-0.002266651822101118
4300,0.0,300.05721,9941.5145,-0.04300000984449859,0.0,0.0,0.0,0.0,-0.006562409479844072,-1.5415793724420386,-0.6267717074975514,-0.8536210681783402,-0.0021736543093729783,-0.0028492288836969976,0.007673456592636203
4301,0.0,299.46385,9833.4871,-0.043009986483966034,0.0,0.0,0.0,0.0,-0.006563932056086602,-1.4911853787185385,-0.6393677234656814,-0.8585814036453873,0.006992294450635733,-0.023714033399642877,0.0027413643575515973
4302,0.0,299.92812000000004,9788.7993,-0.043019996158663476,0.0,0.0,0.0,0.0,-0.006565459673972346,-1.4873396892889985,-0.6310588193331564,-0.8571520623918222,0.01267466038789159,-0.016123400984755787,0.002291012583655338
4303,0.0,300.20612,10005.629,-0.04303000583336092,0.0,0.0,0.0,0.0,-0.006566987291858062,-1.5316574248128185,-0.6338291565640674,-0.8759747636694781,0.015439952646554686,0.003398535472959337,0.013135414592614487
4304,0.0,299.37086,10061.738000000001,-0.04304001550805825,0.0,0.0,0.0,0.0,-0.00656851490974375,-1.5552365652398985,-0.6440786575531143,-0.8592020294641382,0.0025408706350894075,0.006800422473274443,-0.002243235612290118
4305,0.0,299.54332999999997,9772.7897,-0.043049992147525806,0.0,0.0,0.0,0.0,-0.006570037485986335,-1.5245338713097787,-0.6224916276176404,-0.8236585635787712,-0.010610272740152391,0.008580045806284593,-0.0029673004860497573
4306,0.0,300.25186,9710.8458,-0.04306000182222325,0.0,0.0,0.0,0.0,-0.0065715651038720235,-1.5158026951980788,-0.6153744981202345,-0.8206774500620582,-0.0098209895170812,0.0069637720682707935,-0.005572323126045474
4307,0.0,300.02223,10064.035,-0.04307001149692069,0.0,0.0,0.0,0.0,-0.006573092721757767,-1.5299422963685485,-0.6395865449572774,-0.8896866314427341,0.004543070969866196,0.014519421010205287,0.015102988219798885
4308,0.0,299.66642,10162.546999999999,-0.043079988136388137,0.0,0.0,0.0,0.0,-0.006574615298000297,-1.5547858715954184,-0.6445757276546714,-0.8897988590238102,-0.008942991080179501,-0.006307453704147214,0.013566750093933988
4309,0.0,299.47091,9853.3902,-0.04308999781108569,0.0,0.0,0.0,0.0,-0.006576142915886041,-1.5188294758967986,-0.6244862408369934,-0.8518688953104141,0.004002240521665387,-0.008591892422478762,-0.0006656621309807373
4310,0.0,300.20347000000004,9657.5392,-0.04310000748578302,0.0,0.0,0.0,0.0,-0.006577670533771757,-1.5168843396798286,-0.6085814161373094,-0.8101850426265382,-0.0007240173320649473,-0.007255913654327923,0.0012923170107417587
4311,0.0,300.51305,9786.7771,-0.04310998412525047,0.0,0.0,0.0,0.0,-0.006579193110014286,-1.5265011977039384,-0.6158270358798964,-0.8326075985944722,0.009503894012861312,-0.000972613218379451,0.007523906552076763
4312,0.0,300.4353,10014.929,-0.04311999379994802,0.0,0.0,0.0,0.0,-0.00658072072790003,-1.5248726008182087,-0.6478227889251315,-0.8715930244070341,0.0040439682886085964,-0.012461108810065687,0.0070513845620174724
4313,0.0,300.22076,10034.115,-0.04313000347464557,0.0,0.0,0.0,0.0,-0.006582248345785746,-1.5135002869958485,-0.6373707595060963,-0.8992493008514961,0.0005315462300520285,-0.005480222339655835,0.010574112883833689
4314,0.0,300.11695,9821.1094,-0.043140013149342904,0.0,0.0,0.0,0.0,-0.006583775963671462,-1.4970665862739685,-0.6287533511156244,-0.8595520364461813,0.003583705611509207,-0.014868393463896186,0.008963364702590222
4315,0.0,299.84771,9775.7217,-0.04314998978881035,0.0,0.0,0.0,0.0,-0.006585298539913992,-1.4984719641626685,-0.6256466047190125,-0.8474567382799683,0.0017824777598668582,-0.0035471875712801562,-0.0022930924821356075
4316,0.0,299.66526,10092.802,-0.0431599994635079,0.0,0.0,0.0,0.0,-0.006586826157799736,-1.5585356062404885,-0.6514100185191634,-0.8580142369019123,-0.0026342431516795575,0.001108329031083559,-0.006689357799338214
4317,0.0,299.1751,10198.948,-0.043170009138205234,0.0,0.0,0.0,0.0,-0.0065883537756854516,-1.5768098757690185,-0.6634761857450014,-0.8599395539469261,-0.002743376976225227,0.0024916564697823477,-0.00850846769139538
4318,0.0,299.45329,9885.7578,-0.04317998577767268,0.0,0.0,0.0,0.0,-0.006589876351927981,-1.5315037147726485,-0.6287232879851574,-0.8447965312024263,0.00982683151185776,0.01228546798473129,-0.008483373742068803
4319,0.0,300.15155,9686.6984,-0.04318999545237023,0.0,0.0,0.0,0.0,-0.006591403969813725,-1.4958986128836986,-0.6080103686459514,-0.8406054146812952,-0.006433451151432193,0.004380222528369305,0.012720128972878986
4320,0.0,300.48318,9929.6887,-0.043200005127067787,0.0,0.0,0.0,0.0,-0.006592931587699441,-1.5234575970535587,-0.6329469804970034,-0.8619728327900951,-0.003546316581494197,0.005099364425193086,0.018185160261735583
4321,0.0,300.31909,10090.877,-0.04321001480176512,0.0,0.0,0.0,0.0,-0.006594459205585157,-1.5414624433804984,-0.6414034037115874,-0.8845088930342311,-0.014875034305051585,0.0037794703944296864,0.01160693188301499
4322,0.0,299.78616,10012.354,-0.04321999144123245,0.0,0.0,0.0,0.0,-0.006595981781827687,-1.5374490610594087,-0.6437038462086234,-0.8623527509150901,-0.0007787641468930373,0.011706428989834589,0.0038222767661043465
4323,0.0,299.62424,9931.1906,-0.043230001115930006,0.0,0.0,0.0,0.0,-0.00659750939971343,-1.5424856233314785,-0.6155483211748894,-0.8607999552693412,-0.012147122869077688,0.0002514735571285077,0.02189817370993148
4324,0.0,299.81432,9879.2764,-0.04324001079062756,0.0,0.0,0.0,0.0,-0.006599037017599174,-1.5098799443885484,-0.6293630338332954,-0.8638103922439481,-0.003554440719470987,0.002136207422777258,-0.0007664605650362683
4325,0.0,299.8279,9989.4425,-0.04324998743009478,0.0,0.0,0.0,0.0,-0.006600559593841676,-1.5225576283147384,-0.6421591666961753,-0.8718243291398622,0.012115971508003288,-0.0025212536065283573,0.007901935269610293
4326,0.0,300.31972,10144.01,-0.043259997104792336,0.0,0.0,0.0,0.0,-0.006602087211727392,-1.5443608452915485,-0.6508691456157835,-0.8882958747529772,0.020728126196706782,-0.008506653061791292,-0.004321320881506166
4327,0.0,299.48213,9877.8186,-0.04327000677948967,0.0,0.0,0.0,0.0,-0.006603614829613108,-1.5308061934038086,-0.6300177048554063,-0.8417863171428412,0.01899024420819118,-0.014113514033395386,0.019110865553095584
4328,0.0,299.69575,9628.6134,-0.04328001645418722,0.0,0.0,0.0,0.0,-0.006605142447498852,-1.5200587509181185,-0.6092132991646714,-0.7975859666431062,0.007572016882724883,-0.019641710320235883,-0.013108631352721186
4329,0.0,299.6655,9939.4843,-0.043289993093654666,0.0,0.0,0.0,0.0,-0.0066066650237413815,-1.5426895905766085,-0.6265461478927904,-0.8521192896751261,-0.0026595993301320175,-0.006706424578722573,0.009415319134169651
4330,0.0,299.97965,10208.874,-0.04330000276835222,0.0,0.0,0.0,0.0,-0.006608192641627125,-1.5586488876016684,-0.6631551779808204,-0.8814387654962332,-0.017448744274556983,0.009367926589892371,-0.00864758024267472
4331,0.0,299.13518999999997,10038.564,-0.04331001244304977,0.0,0.0,0.0,0.0,-0.006609720259512869,-1.5390160523390586,-0.6325980576925674,-0.8798586526277881,-0.02058402683373528,0.02062683969021058,0.0018899468144982284
4332,0.0,300.32756,9924.6216,-0.043319989082516996,0.0,0.0,0.0,0.0,-0.006611242835755371,-1.5191612139795385,-0.6360784907260594,-0.8615974540255481,-0.024180210518900975,0.02628339348646898,-0.002905079026558977
4333,0.0,300.25189,9987.6251,-0.04332999875721455,0.0,0.0,0.0,0.0,-0.006612770453641087,-1.5352543613428087,-0.6374486379087825,-0.8632856300171581,-0.01126873230438729,0.008693781306159413,0.015535536581488086
4334,0.0,300.11699,10021.099,-0.0433400084319121,0.0,0.0,0.0,0.0,-0.006614298071526831,-1.5515925125802588,-0.6268398384342754,-0.8677313864209202,0.003599018961595517,0.002253400841268348,0.017427415359951983
4335,0.0,300.48893,10096.059000000001,-0.04334998507137955,0.0,0.0,0.0,0.0,-0.00661582064776936,-1.5522528476704285,-0.6402234233076324,-0.8764734853686982,0.01145797905206449,-0.015004848868113286,0.03176517278622847
4336,0.0,300.5582,10013.671,-0.04335999474607688,0.0,0.0,0.0,0.0,-0.006617348265655076,-1.5367130361867685,-0.6354724455762474,-0.8717204203421073,0.016191680869244485,-0.007437343177483623,0.004983638091521784
4337,0.0,299.99286,9835.2553,-0.04337000442077443,0.0,0.0,0.0,0.0,-0.00661887588354082,-1.5063594069160986,-0.6246890225795064,-0.8586235852470501,0.02061725637076478,-0.02251743265429758,0.007251442384286643
4338,0.0,300.10657000000003,9945.1122,-0.043380014095471986,0.0,0.0,0.0,0.0,-0.006620403501426564,-1.5240864200656186,-0.6499549204480564,-0.8490244084371852,0.008435155601610043,-0.007623503160056182,-0.016295031366194382
4339,0.0,299.72328,10274.414,-0.04338999073493932,0.0,0.0,0.0,0.0,-0.006621926077669094,-1.5886158606341785,-0.6491298308916263,-0.8854197136816222,-0.0013013785063860587,-0.016216394039183485,0.01997850148122458
4340,0.0,299.71693,10155.994,-0.04340000040963676,0.0,0.0,0.0,0.0,-0.006623453695554782,-1.5750612087464384,-0.6564311287272084,-0.8556763649461822,-0.0079680793242132,0.0038534110032520563,-0.004559152566178326
4341,0.0,299.57493,9887.3742,-0.043410010084334205,0.0,0.0,0.0,0.0,-0.0066249813134405255,-1.5224166852258285,-0.6307327959809804,-0.8523653574619111,0.0017681076442986384,0.007533441539492793,0.014472756790099886
4342,0.0,299.82354,9874.4031,-0.04341998672380165,0.0,0.0,0.0,0.0,-0.006626503889683055,-1.5128953766861486,-0.6292113806908284,-0.8594652617076172,-0.01869597307439888,0.016491030412537987,-0.008343055017870422
4343,0.0,299.67134,10085.793,-0.04342999639849898,0.0,0.0,0.0,0.0,-0.006628031507568771,-1.5274960066521186,-0.6527436279032803,-0.8855895850608871,-0.008030648835113332,0.01991049618751298,0.013576527957398988
4344,0.0,300.65778,10122.949,-0.043440006073196535,0.0,0.0,0.0,0.0,-0.006629559125454515,-1.5448825677680385,-0.6583566078922384,-0.8738846009656952,-0.01092060287477959,0.010153737708845891,-0.014035416768687786
4345,0.0,300.29155,9982.3051,-0.04345001574789409,0.0,0.0,0.0,0.0,-0.006631086743340259,-1.5466697382944183,-0.6431918509330934,-0.8445099030141382,0.003900250718274777,0.008084510069354022,0.001086323265411759
4346,0.0,300.5125,9910.6045,-0.043459992387361535,0.0,0.0,0.0,0.0,-0.006632609319582788,-1.5392453508366886,-0.6424656647189244,-0.8308652846500193,-0.004632353097127655,0.0002899673033300447,-0.0022646065767742674
4347,0.0,299.6189,9962.9694,-0.043470002062058866,0.0,0.0,0.0,0.0,-0.006634136937468477,-1.5281944399460485,-0.6267632164617134,-0.8735362557138162,0.00975651580526814,-0.01307066892447459,0.008209721031911383
4348,0.0,300.59297000000004,10213.796,-0.04348001173675664,0.0,0.0,0.0,0.0,-0.006635664555354248,-1.5432642047083185,-0.6712784648275264,-0.8901962050505252,-0.0037529098669083663,-0.007541228974461352,-0.0025126512145043677
4349,0.0,300.07473,10147.696,-0.043489988376223865,0.0,0.0,0.0,0.0,-0.00663718713159675,-1.5564962377642184,-0.6421757029378075,-0.8859742654613522,0.01041644914177349,-0.015934089389072183,0.0004144966930751386
4350,0.0,300.18757999999997,9863.1007,-0.04349999805092142,0.0,0.0,0.0,0.0,-0.006638714749482494,-1.5270829045863485,-0.6321844996642524,-0.8388689167924163,0.0018418194612484283,-0.00010800606705186888,0.0036546170078326163
4351,0.0,299.97637000000003,9946.5331,-0.04351000772561875,0.0,0.0,0.0,0.0,-0.00664024236736821,-1.5536829488615684,-0.6340207418929754,-0.8357940472439501,-0.002990981052811847,0.001853902164715898,0.0028855853105350967
4352,0.0,299.60502,10290.282,-0.043519984365086306,0.0,0.0,0.0,0.0,-0.006641764943610767,-1.5891305916849785,-0.6481700905294074,-0.8906881785040793,-0.006304098833066114,0.005189237581237875,0.01818174256914828
4353,0.0,299.76016,10280.74,-0.04352999403978375,0.0,0.0,0.0,0.0,-0.006643292561496483,-1.5723564389294986,-0.6545883307703384,-0.8981434092948531,-0.02142049822853858,0.005593187465479625,0.011601565710485389
4354,0.0,299.25743,9956.6193,-0.04354000371448108,0.0,0.0,0.0,0.0,-0.0066448201793821715,-1.5203286807447587,-0.6290669520215745,-0.8771680277822442,-0.00997312719574602,0.022054365199596377,0.0050421507516715345
4355,0.0,299.20537,9854.1521,-0.04355001338917874,0.0,0.0,0.0,0.0,-0.006646347797267943,-1.5073583701896884,-0.6227606353866894,-0.8652972050431852,-0.014426123980747586,0.0039624963944429464,0.009068043975721262
4356,0.0,299.77727000000004,10045.396999999999,-0.04355999002864597,0.0,0.0,0.0,0.0,-0.006647870373510445,-1.5409323109281787,-0.6574642790591724,-0.8551533353770631,-0.012567464606812188,0.021712964763902776,-0.012112911492701288
4357,0.0,299.78859,10148.325,-0.04356999970334352,0.0,0.0,0.0,0.0,-0.006649397991396189,-1.5715624561511385,-0.6427512289946073,-0.8705235997214902,-0.0077152292465588425,0.0024470052736506177,-8.364248359612042e-05
4358,0.0,299.5776,9997.7031,-0.04358000937804096,0.0,0.0,0.0,0.0,-0.006650925609281905,-1.5556274771284786,-0.6385769020276334,-0.8448477205974783,0.005195210183952325,0.0043241623387615955,-0.005065749245175526
4359,0.0,300.07009,9853.0731,-0.04358998601750852,0.0,0.0,0.0,0.0,-0.006652448185524462,-1.5153482525282287,-0.6278345967199505,-0.8519053317840101,0.0038007891765336863,-0.011656696648426388,0.013284572100085186
4360,0.0,299.95713,9874.939,-0.04359999569220585,0.0,0.0,0.0,0.0,-0.006653975803410178,-1.5215372854640383,-0.6249625291789994,-0.8552350843951311,0.009289240829526691,-0.015528216862765684,-0.005915598479724115
4361,0.0,300.14096,10255.794,-0.043610005366903404,0.0,0.0,0.0,0.0,-0.006655503421295894,-1.5599884042338683,-0.6641358622226063,-0.8933808805123282,-0.0002924081620259387,-0.025088574034799475,-0.006256193077613183
4362,0.0,300.03078999999997,10387.502,-0.04362001504160096,0.0,0.0,0.0,0.0,-0.006657031039181638,-1.5949698506862686,-0.6572985924028204,-0.9052726876609581,0.00884065646777986,-0.01031372888638579,0.006908325604248654
4363,0.0,299.60998,10029.153,-0.0436299916810684,0.0,0.0,0.0,0.0,-0.006658553615424168,-1.5472722168038786,-0.6358821127241784,-0.8654579166415461,0.004994663975134955,-0.009421191526449211,0.015048759074446885
4364,0.0,299.601,9874.7427,-0.043640001355765734,0.0,0.0,0.0,0.0,-0.0066600812333098836,-1.5336465360841285,-0.6270990278098554,-0.8409296952432992,-0.004238363360043896,0.008648393578529992,0.0061879781424558945
4365,0.0,299.66781000000003,10113.056999999999,-0.04365001103046329,0.0,0.0,0.0,0.0,-0.006661608851195627,-1.5538209535251883,-0.6295381437155774,-0.890757606400931,-0.013393219868557887,0.008984909642116541,0.014045300010163186
4366,0.0,299.38886,10232.822,-0.04365998766993073,0.0,0.0,0.0,0.0,-0.006663131427438157,-1.5702336799699985,-0.6523277292672344,-0.8879609044024183,-0.0018659914543090181,0.012302882714199988,0.005684274596469225
4367,0.0,299.54773,10114.209,-0.043669997344628064,0.0,0.0,0.0,0.0,-0.006664659045323873,-1.5454168545457685,-0.6496809274885154,-0.8793692528294881,-0.004809791326814445,0.006888089175901473,0.01027595796240809
4368,0.0,299.51068,10004.274,-0.04368000701932562,0.0,0.0,0.0,0.0,-0.006666186663209589,-1.5680810301325485,-0.6312557850200954,-0.8417125424030601,0.006610140386645063,0.0007934980800421633,-0.010157496866716891
4369,0.0,300.08742,10019.273000000001,-0.04368998365879295,0.0,0.0,0.0,0.0,-0.0066677092394521464,-1.5518385297045385,-0.6400568956536974,-0.8537132435399372,0.007716689137302922,-0.01028650082969859,0.011936456014286488
4370,0.0,300.02647,10189.348,-0.043699993333490506,0.0,0.0,0.0,0.0,-0.006669236857337862,-1.5877872247023985,-0.6461315326532173,-0.8633885559623162,0.00977690523438042,-0.00019677684751786282,0.0034159946841074264
4371,0.0,300.50209,10344.622,-0.04371000300818795,0.0,0.0,0.0,0.0,-0.006670764475223578,-1.5827422524544985,-0.6476955145800704,-0.9140691272115992,0.015583249515446986,-0.013358680199149087,0.026339013824208276
4372,0.0,300.0286,10088.885,-0.0437200126828855,0.0,0.0,0.0,0.0,-0.006672292093109322,-1.5604549045799088,-0.6514888189794403,-0.8548253260546912,0.008986453531293912,-0.011386118341722389,-0.011729162269078188
4373,0.0,300.32953,9906.4913,-0.043729989322352836,0.0,0.0,0.0,0.0,-0.006673814669351852,-1.5133570134317087,-0.6257721362739014,-0.8721968505391272,0.007777267814406573,-0.003634745450846447,-0.005250158331575284
4374,0.0,299.59238,10107.215,-0.04373999899705039,0.0,0.0,0.0,0.0,-0.006675342287237596,-1.5679125266409184,-0.6398307686288804,-0.8645977281016523,0.016846712608391087,-0.006019123357016224,-0.003292575350376887
4375,0.0,300.42233,10277.878,-0.04375000867174772,0.0,0.0,0.0,0.0,-0.006676869905123284,-1.5649669072752086,-0.6588994870308164,-0.9003519196103161,0.001208629341257429,0.006940633083687153,0.01931744597023348
4376,0.0,299.83225,10050.114,-0.04375998531121539,0.0,0.0,0.0,0.0,-0.006678392481365869,-1.5466809853705286,-0.6440923465619655,-0.8642104031184261,-0.01220907095369149,0.005995717988981295,0.005403471076381074
4377,0.0,299.79373,9929.1619,-0.04376999498591272,0.0,0.0,0.0,0.0,-0.006679920099251557,-1.5262409950782587,-0.6446178585938295,-0.8473584124902642,-0.005960394773270165,0.017355690425123284,-0.010826650272507189
4378,0.0,299.28475,10023.017,-0.04378000466061005,0.0,0.0,0.0,0.0,-0.006681447717137273,-1.5465202839046683,-0.6359620784220703,-0.864264429613758,-0.007220775458085054,0.012775160612310188,0.004292268265363896
4379,0.0,299.90272000000004,10201.91,-0.0437900143353076,0.0,0.0,0.0,0.0,-0.006682975335023017,-1.5664139297430184,-0.6655071341129404,-0.8692048243188372,0.003498733140898077,-0.0034175345202843966,-0.016071521566385683
4380,0.0,300.08394,10291.399,-0.04379999097477505,0.0,0.0,0.0,0.0,-0.006684497911265547,-1.5834929694535884,-0.6658717825589283,-0.8789634664294402,0.001074057568976229,-0.006399680538849294,-0.001086092244388959
4381,0.0,300.56426,10163.039,-0.0438100006494726,0.0,0.0,0.0,0.0,-0.0066860255291512904,-1.5580415454917287,-0.6501997318047175,-0.8810689190772322,0.004627907766288936,0.0034181784407229464,0.0074324130064720535
4382,0.0,299.77402,9865.1607,-0.04382001032416993,0.0,0.0,0.0,0.0,-0.006687553147036979,-1.5374455146840587,-0.6076206321274874,-0.8536963627932712,0.0027869824982537576,0.002934482936510917,0.02346598268241218
4383,0.0,299.56978,10076.556999999999,-0.04382998696363749,0.0,0.0,0.0,0.0,-0.006689075723279564,-1.5517318344690088,-0.6284156145922924,-0.8828742166479011,-0.00028337951594988075,0.009089893903527681,0.01037038476572729
4384,0.0,300.33686,10548.312,-0.04383999663833493,0.0,0.0,0.0,0.0,-0.006690603341165252,-1.6148290460212185,-0.6790599824155024,-0.912534509272644,0.002080258184055498,-0.013668794511504986,0.01014053607329299
4385,0.0,300.20937000000004,10323.505,-0.043850006313032486,0.0,0.0,0.0,0.0,-0.006692130959050996,-1.5744029001564683,-0.6657694746963314,-0.8979155090823611,-0.0015418299491917684,-0.0060540800801661835,-0.017405575767296583
4386,0.0,300.39828,9928.7961,-0.04386001598772982,0.0,0.0,0.0,0.0,-0.006693658576936712,-1.5534046090590985,-0.6231556914681784,-0.8415457513040991,-0.0006815768348688964,-0.012999725205472988,0.007659517614985532
4387,0.0,300.60423,9958.8205,-0.043869992627197374,0.0,0.0,0.0,0.0,-0.006695181153179269,-1.5232140117295185,-0.6287482342026194,-0.8752705649824791,0.006303403034222443,-0.01036649793834369,0.008057576665795903
4388,0.0,300.14968,10251.848,-0.043880002301894705,0.0,0.0,0.0,0.0,-0.006696708771064985,-1.5716212246569385,-0.6484623321232493,-0.8962223175027562,0.004845821791095376,0.009881550563633112,0.03021520917450897
4389,0.0,300.22055,10217.513,-0.04389001197659215,0.0,0.0,0.0,0.0,-0.0066982363889506735,-1.5516649599624086,-0.6671396117465533,-0.8870640767389082,-0.0009336625774428221,0.009567800304618372,-0.0014517927479557886
4390,0.0,300.10823,10079.847,-0.043899988616059704,0.0,0.0,0.0,0.0,-0.006699758965193259,-1.5648800717416385,-0.6430894822754905,-0.8560520780832622,-0.002082094091911688,0.01211331983249159,0.016698647384528184
4391,0.0,299.66901,10089.621,-0.043909998290757035,0.0,0.0,0.0,0.0,-0.006701286583078947,-1.5613975311479384,-0.6510831845669074,-0.8545121709787852,-0.010966129215022689,0.017654911285654083,-0.015693661352343784
4392,0.0,299.76627,10253.573,-0.04392000796545459,0.0,0.0,0.0,0.0,-0.006702814200964691,-1.5897519166462983,-0.6586481402110104,-0.8684302250148902,0.01032731150397629,-0.002767000395681677,0.014756053412059086
4393,0.0,299.88761,10368.428,-0.043929984604922034,0.0,0.0,0.0,0.0,-0.00670433677720722,-1.5798951209985086,-0.6668741098228503,-0.904973890338969,-0.012415187302283588,-8.395423633388802e-05,-0.005385374834895115
4394,0.0,299.83835,10315.761,-0.04393999427961959,0.0,0.0,0.0,0.0,-0.006705864395092964,-1.5764502733085286,-0.6408932018887343,-0.9183902639855621,-0.003212578951006857,0.0059934444584069145,0.042350372652656364
4395,0.0,300.11106,9993.4131,-0.04395000395431692,0.0,0.0,0.0,0.0,-0.00670739201297868,-1.5259980177042785,-0.6377863845646153,-0.8739636547384971,-0.019370546354974084,-0.0007202666956272884,-0.004755970318602726
4396,0.0,300.05568,9930.8764,-0.04396001362901447,0.0,0.0,0.0,0.0,-0.006708919630864396,-1.5459191226203386,-0.6277409014832034,-0.8450784173802461,0.0013909826445292987,0.00017859988039643584,-0.0011594143653502888
4397,0.0,300.12417,10252.309000000001,-0.04396999026848192,0.0,0.0,0.0,0.0,-0.006710442207106954,-1.5780617462675686,-0.6671695938170124,-0.8712146362896902,-0.005134695544254995,0.001330493437409479,-0.026914553053259578
4398,0.0,300.22496,10287.06,-0.04397999994317947,0.0,0.0,0.0,0.0,-0.00671196982499267,-1.5990405829630185,-0.6587000186161304,-0.8692686793401393,0.004550266970751386,-0.006453617564197463,0.011959414235052288
4399,0.0,301.08831000000004,10024.504,-0.0439900096178768,0.0,0.0,0.0,0.0,-0.006713497442878386,-1.5364095677818184,-0.6340166990250764,-0.8767725866657171,-0.008363969513184522,0.005758573389201944,0.0007799626495088202
4400,0.0,300.66078,9989.5879,-0.04399998625734436,0.0,0.0,0.0,0.0,-0.006715020019120943,-1.5397018200067385,-0.6204454298356964,-0.8764380216151981,0.0072489962972202325,-0.005497142501750724,0.026166965983728478
4401,0.0,300.05959,10223.119,-0.04400999593204169,0.0,0.0,0.0,0.0,-0.006716547637006659,-1.5531687244358185,-0.6572194373050084,-0.8971848848327542,-0.004114557471400207,0.006739949376831212,0.00864345226176732
4402,0.0,300.26625,10413.704,-0.04402000560673913,0.0,0.0,0.0,0.0,-0.006718075254892375,-1.6110642139496585,-0.6583024496743934,-0.8961394640420792,-0.0001962263791360358,0.008118718405980122,0.01208056145675859
4403,0.0,300.64909,10400.427,-0.044030015281436685,0.0,0.0,0.0,0.0,-0.006719602872778091,-1.6031432326179185,-0.6678861744202333,-0.8904406313721482,-0.007132215068869823,0.003689294985880067,0.0059777691753848845
4404,0.0,300.08874,10091.17,-0.04403999192090402,0.0,0.0,0.0,0.0,-0.0067211254490206485,-1.5742875922950883,-0.6313376150981714,-0.8618385062243382,0.002295408569214188,-0.010178892655828489,0.012611348468643188
4405,0.0,299.93334,9936.0468,-0.04405000159560157,0.0,0.0,0.0,0.0,-0.0067226530669063644,-1.5279504493219687,-0.6215828841329544,-0.8707768007889792,0.011376868381559489,0.0008298527438250892,-0.004058527881945516
4406,0.0,299.71255,10229.798,-0.044060011270298904,0.0,0.0,0.0,0.0,-0.00672418068479208,-1.5685783332816285,-0.6419515213531823,-0.8990731979841162,0.005097771494710875,-0.00977364824325898,0.027087761065103876
4407,0.0,300.67217,10443.652,-0.04406998790976657,0.0,0.0,0.0,0.0,-0.006725703261034638,-1.5822331956042586,-0.6758600778046964,-0.9165160552755922,-0.00095984838481216,0.00969468100201552,0.002093325259995118
4408,0.0,300.49959,10188.253,-0.044079997584463904,0.0,0.0,0.0,0.0,-0.006727230878920354,-1.5827695088821885,-0.6527604377224394,-0.8614446863079712,-0.002604550972074168,-0.006555944070596305,-0.005062755901730105
4409,0.0,300.56216,10001.704,-0.04409000725916146,0.0,0.0,0.0,0.0,-0.006728758496806098,-1.5532864640974384,-0.6447160019985154,-0.8422657870901612,-0.003032226614032467,-0.008050720103694212,-0.02252324364362108
4410,0.0,299.67716,10231.743,-0.0440999838986289,0.0,0.0,0.0,0.0,-0.006730281073048627,-1.5910500926744184,-0.6513826607664633,-0.8677616724664091,0.004336737076477626,-0.010683653325644488,0.0046350744842462354
4411,0.0,300.31729,10431.291,-0.044109993573326456,0.0,0.0,0.0,0.0,-0.006731808690934371,-1.5772891430663185,-0.6660478752938074,-0.9275149459060981,0.008955725303461271,0.0015782664227877684,0.014130635933585186
4412,0.0,300.04927000000004,10300.722,-0.04412000324802379,0.0,0.0,0.0,0.0,-0.006733336308820059,-1.5689727915455585,-0.6660273468467814,-0.8961620899168121,0.01225620836159359,-0.005411061636855204,0.024431175343419275
4413,0.0,299.93958,10070.298,-0.04413001292272112,0.0,0.0,0.0,0.0,-0.006734863926705775,-1.5333274636276384,-0.6318719322734044,-0.8959195989028801,0.013215512013019489,-0.0013013777971109888,0.019726208285825178
4414,0.0,299.55665,10011.837,-0.044139989562188786,0.0,0.0,0.0,0.0,-0.006736386502948333,-1.5693692763096885,-0.6344316452060283,-0.8395476018418973,0.007239429392426054,-0.004618961882481046,-0.00010106456115454561
4415,0.0,299.43555,10287.548,-0.04414999923688612,0.0,0.0,0.0,0.0,-0.006737914120834049,-1.5824737411779983,-0.6532780666685254,-0.8914057723574003,-0.011914562719375788,0.00915087889392143,-0.002511626514678238
4416,0.0,299.60494,10563.191,-0.04416000891158367,0.0,0.0,0.0,0.0,-0.0067394417387197925,-1.6262627627996384,-0.6672110458786034,-0.917472462044982,-0.022865195287369078,-0.011089619070960188,-0.005095150723327225
4417,0.0,300.27279,10360.196,-0.044169985551051005,0.0,0.0,0.0,0.0,-0.006740964314962322,-1.5648195807106684,-0.6674266958973863,-0.9169946842253293,-0.013192278188226488,-0.0029865758466770874,-0.0013096636498037388
4418,0.0,299.83142999999995,9981.4989,-0.04417999522574856,0.0,0.0,0.0,0.0,-0.006742491932848066,-1.5422225836055186,-0.6305163758921214,-0.8613874782073251,-0.006768653941564134,-0.006659107622902754,0.02185352889727538
4419,0.0,300.18321000000003,10216.414,-0.044190004900446,0.0,0.0,0.0,0.0,-0.006744019550733754,-1.5721088006050585,-0.6492573078867073,-0.884168724710659,0.002765597652243237,0.0049886339211398355,0.015654875151765883
4420,0.0,300.55916,10579.691,-0.04420001457514344,0.0,0.0,0.0,0.0,-0.006745547168619498,-1.6503644363032883,-0.6662785112815693,-0.8993188604708611,0.005242634544282745,-3.1984070271581974e-05,0.030909382765018575
4421,0.0,299.98447999999996,10371.551,-0.04420999121461089,0.0,0.0,0.0,0.0,-0.006747069744862028,-1.6034622037493986,-0.6561078715478054,-0.8931223396168122,0.02248768768436198,0.018575003171460082,0.007047236417433083
4422,0.0,299.94622000000004,10090.14,-0.04422000088930844,0.0,0.0,0.0,0.0,-0.006748597362747771,-1.5652979360828785,-0.6338549944416174,-0.8679978205347153,0.02074576890744798,0.004700677868595785,0.027648526094447075
4423,0.0,299.99454,10094.196,-0.04423001056400577,0.0,0.0,0.0,0.0,-0.006750124980633487,-1.5399368940299385,-0.6375088148322214,-0.8909377420037091,0.004169457388318406,-0.006587804301440665,0.0013289849106605989
4424,0.0,299.95846,10283.325,-0.04423998720347322,0.0,0.0,0.0,0.0,-0.006751647556876017,-1.5673918174145287,-0.6544465669488474,-0.9040357626013831,-0.013091233848504188,-0.01732054989840518,0.017049985777202584
4425,0.0,299.62422999999995,10319.299,-0.04424999687817077,0.0,0.0,0.0,0.0,-0.006753175174761733,-1.5799003898990285,-0.6629098194691054,-0.893998963073328,-0.019213455099220383,-0.005591485914586694,-0.017189515382223085
4426,0.0,299.41021,10243.215,-0.0442600065528681,0.0,0.0,0.0,0.0,-0.006754702792647449,-1.5912821269473185,-0.6565446937984164,-0.8658548776332231,-0.016154472299072284,0.0023546566462865175,-0.007336529149509053
4427,0.0,299.67564,10035.468,-0.044270016227565656,0.0,0.0,0.0,0.0,-0.006756230410533193,-1.5532647805452986,-0.6487869470577864,-0.8484800499534612,-0.00985580468919219,0.0035038279650508974,-0.024709221303360274
4428,0.0,300.48919,10193.069,-0.0442799928670331,0.0,0.0,0.0,0.0,-0.0067577529867757224,-1.5619440782518785,-0.6592183061747813,-0.8772762124954212,-0.004409387007322616,0.007496262454898503,-0.008795405123613903
4429,0.0,300.53276,10497.398000000001,-0.044290002541730655,0.0,0.0,0.0,0.0,-0.006759280604661466,-1.5856532186667882,-0.6930475352759663,-0.912246016704172,0.0009471941981557889,0.021533324640423682,0.012868749457796686
4430,0.0,300.53739,10464.440999999999,-0.044300012216427986,0.0,0.0,0.0,0.0,-0.006760808222547182,-1.5866403269142084,-0.6783938717997624,-0.9158944770017472,0.01046706807701919,0.006634379355537265,0.029184366013022676
4431,0.0,299.70384,10125.891,-0.04430998885589543,0.0,0.0,0.0,0.0,-0.006762330798789712,-1.5774327206054883,-0.6368998515221214,-0.8636853571816082,0.0014130975372368686,0.001989130928361938,0.027165890753814675
4432,0.0,299.86607999999995,10134.024,-0.044319998530592986,0.0,0.0,0.0,0.0,-0.006763858416675428,-1.5844799763759985,-0.6461602785585544,-0.8498499944861642,-0.007606163613744903,-0.00939065865323585,0.009663914372004092
4433,0.0,299.91409,10362.929,-0.04433000820529043,0.0,0.0,0.0,0.0,-0.006765386034561172,-1.6133620625264382,-0.6573024528857014,-0.8794070065282141,0.004418384870860636,-0.0032678819388148373,0.008139435925474782
4434,0.0,299.84727999999996,10440.222,-0.04433998484475765,0.0,0.0,0.0,0.0,-0.0067669086108036736,-1.5878888536874285,-0.6739008168813324,-0.9117771149553952,-0.005842192562979515,-0.004959726199761865,-0.007460407384209883
4435,0.0,299.14477,10305.798,-0.044349994519455205,0.0,0.0,0.0,0.0,-0.006768436228689417,-1.5667580294769785,-0.6594342703010954,-0.9065129868433661,0.01095571401724479,-0.015924796872405087,-0.004511544908904816
4436,0.0,299.59626000000003,10099.079,-0.04436000419415276,0.0,0.0,0.0,0.0,-0.006769963846575161,-1.5517023488910986,-0.6282109482045933,-0.8899546766241883,0.007467831467692583,-0.027242452944620774,0.004708206620813816
4437,0.0,299.70927,10078.652,-0.0443700138688502,0.0,0.0,0.0,0.0,-0.006771491464460877,-1.5697409364463684,-0.6278430978882895,-0.8660745705199051,0.006406318948204454,0.005362187619606715,0.014390974334778586
4438,0.0,300.52971,10287.586,-0.04437999050831776,0.0,0.0,0.0,0.0,-0.0067730140407034345,-1.6120996542268484,-0.6471504366887754,-0.8679193037844662,0.009277335647476742,0.003193066489856127,0.022526495163191978
4439,0.0,300.14086000000003,10448.071,-0.04439000018301509,0.0,0.0,0.0,0.0,-0.006774541658589123,-1.6131453283300483,-0.6655408044137634,-0.8972667351758322,-0.002161416679965218,0.012819266375913088,0.011234490530507889
4440,0.0,300.31025,10218.235999999999,-0.04440000985771264,0.0,0.0,0.0,0.0,-0.0067760692764748665,-1.5791751054774485,-0.6556251895976684,-0.8712884819569781,-0.007390770859162293,0.009594219382425731,0.004653345004749396
4441,0.0,299.81806,10068.855,-0.044409986497179865,0.0,0.0,0.0,0.0,-0.006777591852717368,-1.5378928646032086,-0.6455484680156733,-0.8772392592642742,-0.0010897314334481188,0.015806292206959584,-0.007035937057617924
4442,0.0,299.88126,10345.604,-0.04441999617187742,0.0,0.0,0.0,0.0,-0.006779119470603112,-1.5872120026206284,-0.6738598714447913,-0.8837333514076913,-0.008124296145130602,0.015029349255531288,0.002674147879042847
4443,0.0,300.36695,10528.001,-0.04443000584657497,0.0,0.0,0.0,0.0,-0.006780647088488856,-1.6306069712783784,-0.6667599570665843,-0.902882491470064,0.005151851084348115,-0.007737935674674793,0.0025984206063191474
4444,0.0,300.44487000000004,10384.509,-0.044440015521272525,0.0,0.0,0.0,0.0,-0.0067821747063746,-1.6184356084271585,-0.6599719210691574,-0.8782239458439551,-0.002159364544537688,-0.023021547883799877,-0.00967473851752235
4445,0.0,300.36862,10180.229,-0.04444999216073975,0.0,0.0,0.0,0.0,-0.006783697282617102,-1.5729155503346786,-0.6418584948615014,-0.879761522473202,0.01135097781500429,-0.008687430761157662,-0.0016514313886585885
4446,0.0,300.38496000000004,10248.528,-0.044460001835437524,0.0,0.0,0.0,0.0,-0.006785224900502845,-1.5670273513535586,-0.6407075238079094,-0.9075617209618682,-0.009443570877432882,-0.01047771429581989,-0.004355470449626466
4447,0.0,299.78226,10415.53,-0.044470011510134855,0.0,0.0,0.0,0.0,-0.006786752518388561,-1.5761929077831285,-0.6568714973531693,-0.932996710007106,0.0005195889568144374,-0.003861669599517116,0.019824255431751682
4448,0.0,299.86607000000004,10398.883,-0.04447998814960219,0.0,0.0,0.0,0.0,-0.006788275094631091,-1.5977054233062484,-0.6539388070587354,-0.909356582056507,-0.023779204632824773,-0.007317025807609222,0.005983338099259494
4449,0.0,299.89352,10196.225,-0.04448999782429963,0.0,0.0,0.0,0.0,-0.006789802712516807,-1.6103901999831383,-0.6259471549636745,-0.8630603439899243,0.002181690294591068,0.012640872550056989,0.040490145780816264
4450,0.0,299.49761,10154.671,-0.044500007498997185,0.0,0.0,0.0,0.0,-0.006791330330402551,-1.5929719241390885,-0.6519480847197664,-0.8418463015487613,-0.01985327491461568,0.0018579334815637585,0.005052628163005575
4451,0.0,299.52881,10441.033000000001,-0.04450998413846452,0.0,0.0,0.0,0.0,-0.0067928529066450805,-1.5981798270030683,-0.6741132548972983,-0.9015202273731191,0.004883390166378085,0.005491072120401625,0.01961239800809298
4452,0.0,299.7019,10658.243,-0.04451999381316196,0.0,0.0,0.0,0.0,-0.0067943805245307964,-1.6174809241829384,-0.6892124039124684,-0.93314640757688,0.003498334730958757,0.007444539482343843,-0.001165021083453629
4453,0.0,300.12866,10445.994,-0.044530003487859626,0.0,0.0,0.0,0.0,-0.00679590814241654,-1.5777823932149986,-0.6782758382956133,-0.9192629762966921,0.014809202432804485,0.02720153182608218,0.004369202116306676
4454,0.0,299.9983,10068.964,-0.04454001316255696,0.0,0.0,0.0,0.0,-0.006797435760302256,-1.5716234538071585,-0.6273810963726935,-0.8617091749815741,0.0018904780615256582,0.01071987296371909,-0.004236990102183366
4455,0.0,300.36163999999997,10095.273000000001,-0.0445499898020244,0.0,0.0,0.0,0.0,-0.006798958336544786,-1.5825247076580284,-0.6320057319491094,-0.8541804531610471,-0.00887675461716747,-0.0033737170263349464,0.0010901663203910388
4456,0.0,300.32624,10398.811,-0.044559999476721734,0.0,0.0,0.0,0.0,-0.006800485954430502,-1.6284480392903085,-0.6584599087399334,-0.8740707958040711,-0.014805532440942288,-0.008822043468742902,0.001001371738680196
4457,0.0,299.76271,10477.187,-0.04457000915141951,0.0,0.0,0.0,0.0,-0.006802013572316273,-1.5940598507714585,-0.6599947495939104,-0.9307485208177272,-0.00950388803468572,-0.008829378082241771,-0.003349857418280187
4458,0.0,300.11713,10245.801,-0.044579985790886734,0.0,0.0,0.0,0.0,-0.006803536148558775,-1.5505292079253183,-0.6646032238312314,-0.8993351737974711,-0.008432302491978462,-0.014708841023649586,0.0007661120677968742
4459,0.0,300.51967,10175.798,-0.04458999546558429,0.0,0.0,0.0,0.0,-0.006805063766444519,-1.5378128178453085,-0.6524866575454193,-0.9028890775957141,-0.0012581922672489088,-0.005670889967948265,0.006628576370889555
4460,0.0,300.16037,10464.817,-0.04460000514028184,0.0,0.0,0.0,0.0,-0.006806591384330235,-1.6070726165057185,-0.6802860251690034,-0.8936844603747891,0.010443183745661989,-0.00010784598366856989,0.010588689499772291
4461,0.0,300.27927999999997,10692.833999999999,-0.04461001481497917,0.0,0.0,0.0,0.0,-0.006808119002215951,-1.6709777936876684,-0.6888876775204203,-0.8904889937994211,0.00908568151888695,0.016889897327653086,0.017382031887972983
4462,0.0,300.09488999999996,10553.628999999999,-0.04461999145444662,0.0,0.0,0.0,0.0,-0.006809641578458481,-1.6403106648360586,-0.6657542354148274,-0.9019746193804642,-0.004107243224228346,0.0025748208969150377,0.01189097425704779
4463,0.0,299.60192,10142.793,-0.04463000112914417,0.0,0.0,0.0,0.0,-0.0068111691963442245,-1.5608999240238286,-0.6498560677683004,-0.8723997538716523,0.002873818943748847,-0.007658818472416533,0.0033202317078813567
4464,0.0,299.8544,10122.12,-0.04464001080384172,0.0,0.0,0.0,0.0,-0.006812696814229968,-1.5311865674913485,-0.6481420336341384,-0.897543099140607,-0.0035605658163254863,0.0011810548543610387,-0.003470414827103277
4465,0.0,299.61315,10476.793,-0.04464998744330895,0.0,0.0,0.0,0.0,-0.00681421939047247,-1.5989635759554184,-0.6543646963407673,-0.9313552347126051,0.0025712808037156574,0.010972760936927188,0.016644945129228185
4466,0.0,299.677,10573.903,-0.0446599971180065,0.0,0.0,0.0,0.0,-0.006815747008358214,-1.6374431670530585,-0.6732549510025904,-0.9035044547789471,-0.0099666452322063,0.008513762429792932,0.0016347485297371184
4467,0.0,300.26889,10298.818000000001,-0.04467000679270394,0.0,0.0,0.0,0.0,-0.00681727462624393,-1.6185807058414785,-0.6389170703512054,-0.8730857140568512,-0.023470080265816578,-0.018769829887437983,0.01814068567509628
4468,0.0,300.7529,10193.994,-0.044680016467401495,0.0,0.0,0.0,0.0,-0.006818802244129674,-1.5919336467616185,-0.6492424840377444,-0.8575434910379532,-0.0036506485124909566,-0.015536839621116684,0.001248095736627459
4469,0.0,300.4719,10493.107,-0.04468999310686872,0.0,0.0,0.0,0.0,-0.006820324820372176,-1.5978015807407384,-0.6787740938997874,-0.9130668810076851,0.005885502925253915,-0.004697220456604565,0.012078532930058387
4470,0.0,300.41964,10655.443000000001,-0.04470000278156627,0.0,0.0,0.0,0.0,-0.006821852438257919,-1.6120884071507384,-0.6813335737848883,-0.9455666854476661,0.008315637280764503,0.0009074826469240642,0.012904274006302686
4471,0.0,299.96518,10467.306,-0.044710012456263826,0.0,0.0,0.0,0.0,-0.006823380056143663,-1.5828770147177986,-0.6871791554668023,-0.9117435561120831,-0.005453768203395015,-0.008039594110971162,0.004181371081669196
4472,0.0,300.25268,10184.269,-0.04471998909573127,0.0,0.0,0.0,0.0,-0.006824902632386193,-1.6060100211258483,-0.6469434296933454,-0.8428099733213682,0.0032910001517714262,0.009892018754391241,0.008415739196568793
4473,0.0,299.79455,10170.18,-0.0447299987704286,0.0,0.0,0.0,0.0,-0.006826430250271909,-1.5993988681983784,-0.6482569767254824,-0.8438249054165342,0.004757158050369945,0.01890741607876668,-0.0016108156637001285
4474,0.0,299.94505,10498.513,-0.044740008445126156,0.0,0.0,0.0,0.0,-0.006827957868157625,-1.6475720203526985,-0.6672228097122643,-0.8764908930054162,-0.005693253613555385,0.015340029974693086,-0.003155115713985677
4475,0.0,299.67438,10571.885,-0.0447499850845936,0.0,0.0,0.0,0.0,-0.006829480444400182,-1.6109519458385786,-0.6621428904684153,-0.9404941325320441,0.0037174975865134465,-0.0045699849190223955,-0.008542194126273923
4476,0.0,300.33556,10278.382,-0.04475999475929093,0.0,0.0,0.0,0.0,-0.00683100806228587,-1.5670409289048985,-0.6518023590903843,-0.9055283610586911,-0.0021550957218663884,-0.00970581317556418,-0.008976605652247002
4477,0.0,300.84114,10211.327,-0.044770004433988486,0.0,0.0,0.0,0.0,-0.006832535680171614,-1.5635149198819085,-0.6438046139310684,-0.8966689480143352,0.004974791404898685,0.004476085005755195,0.008682714081942162
4478,0.0,301.13183,10527.878,-0.04478001410868604,0.0,0.0,0.0,0.0,-0.006834063298057358,-1.6381002597429086,-0.6578820927379073,-0.9042297392005271,-0.018260398134660984,-0.013628517820029986,0.015477585768518785
4479,0.0,300.47047000000003,10708.692,-0.044789990748153485,0.0,0.0,0.0,0.0,-0.006835585874299888,-1.6471634779123785,-0.6869822708398713,-0.9210290408234891,-0.02184181167311898,-0.0014675475711106688,0.025269484773903977
4480,0.0,300.50406,10545.857,-0.044800000422850816,0.0,0.0,0.0,0.0,-0.006837113492185604,-1.6256402219381985,-0.6735668293833703,-0.906470126364136,-0.014795522543204384,0.0037424742014784463,0.003872940588329476
4481,0.0,299.89419,10299.258,-0.04481001009754837,0.0,0.0,0.0,0.0,-0.00683864111007132,-1.5691297439860485,-0.6551490633756784,-0.9064383204434971,0.006175280801477764,0.013812564568193988,0.013763769483128286
4482,0.0,300.55692,10354.792,-0.044819986737015705,0.0,0.0,0.0,0.0,-0.006840163686313877,-1.5812946220366286,-0.6717850392150213,-0.8945184665320991,0.01094394005108279,-0.0026500890660184277,-0.014498211659112088
4483,0.0,299.98633,10461.412,-0.04482999641171326,0.0,0.0,0.0,0.0,-0.006841691304199593,-1.6067067318946087,-0.6590047130537015,-0.9142965511965442,0.004623577338011556,-0.008880892831900881,0.022105681250910877
4484,0.0,299.6496,10435.697,-0.0448400060864107,0.0,0.0,0.0,0.0,-0.006843218922085309,-1.6235367147305984,-0.6662750358337264,-0.8823795986115861,0.017983844692117282,0.004674071947469985,0.004177573926919446
4485,0.0,299.40109,10337.257,-0.04485001576110814,0.0,0.0,0.0,0.0,-0.006844746539971053,-1.6044053369424784,-0.6477723189376503,-0.8900903609450791,-0.004476371147583436,0.011138422262026689,0.01707853004576968
4486,0.0,300.10553,10250.877,-0.04485999240057559,0.0,0.0,0.0,0.0,-0.0068462691162135825,-1.5913272165767685,-0.6399085963690614,-0.8847746888004631,-0.012845789210530688,-0.0017444245444112982,0.000875433617188571
4487,0.0,300.08113,10477.064,-0.04487000207527292,0.0,0.0,0.0,0.0,-0.0068477967340992985,-1.5650360109320287,-0.6770810340426953,-0.942648879797201,-0.02338774254944048,-0.011991378222706888,-0.016402305167531484
4488,0.0,300.3888,10740.482,-0.04488001174997047,0.0,0.0,0.0,0.0,-0.0068493243519850144,-1.6152333328111184,-0.6903492502596663,-0.95925583615368,0.007357891501367353,0.004451052966009726,0.004873400533642185
4489,0.0,300.02328,10529.923999999999,-0.04488998838943792,0.0,0.0,0.0,0.0,-0.006850846928227572,-1.6057837623785183,-0.6731372822684774,-0.9219130306082322,-0.0012628430852079087,-0.001046112941818309,-0.006065061178124934
4490,0.0,300.53957,10290.544,-0.04489999806413547,0.0,0.0,0.0,0.0,-0.006852374546113288,-1.6085766849541585,-0.6533531586334365,-0.8661386788537321,-0.005064987787725375,-0.016827571300751982,0.026368284593097077
4491,0.0,301.18187,10332.74,-0.0449100077388328,0.0,0.0,0.0,0.0,-0.006853902163999004,-1.6077946585269784,-0.6542561265925524,-0.8788443284826821,-0.015997847138364586,-0.006105430278009054,0.006792833432675464
4492,0.0,300.67405,10514.161,-0.04491998437830047,0.0,0.0,0.0,0.0,-0.006855424740241561,-1.6139587655103287,-0.6742723959580044,-0.9078111122089811,0.0027154816943471775,0.0097249182088497,0.015646900873478885
4493,0.0,300.6488,10563.378,-0.0449299940529978,0.0,0.0,0.0,0.0,-0.006856952358127277,-1.5966365457757585,-0.6791599192728653,-0.9352065679452021,0.02094610365096948,0.017660801308485383,-0.0037385873740948465
4494,0.0,300.12526,10400.845,-0.044940003727695355,0.0,0.0,0.0,0.0,-0.006858479976013021,-1.6004215415243086,-0.6538863004385534,-0.9072892884074811,0.015292456869247986,-0.009072447358005841,0.008408683429497443
4495,0.0,300.087,10303.019,-0.044950013402392686,0.0,0.0,0.0,0.0,-0.006860007593898709,-1.6105382358227485,-0.6369057689027053,-0.8844165352876161,-0.0018754901673714683,-0.01916621332655798,0.0013036271110079788
4496,0.0,299.85778,10470.865,-0.04495999004186024,0.0,0.0,0.0,0.0,-0.0068615301701412945,-1.6459686533944586,-0.6490942354156133,-0.8878186744858811,0.002257855797983018,-0.01988005004850818,0.02012846148277448
4497,0.0,299.80885,10692.569,-0.044969999716557685,0.0,0.0,0.0,0.0,-0.006863057788026983,-1.6462952239016884,-0.6859597191039534,-0.9180189787514191,-0.004340751168073785,-0.006340385548297334,0.016706481834301384
4498,0.0,299.8127,10580.083,-0.044980009391255016,0.0,0.0,0.0,0.0,-0.006864585405912699,-1.6159443304062884,-0.6669641370942354,-0.9331724075744461,-0.005155139790197685,-0.007230314194526453,0.007006415509329373
4499,0.0,299.64976,10275.733,-0.04498998603072257,0.0,0.0,0.0,0.0,-0.006866107982155256,-1.5565114365157184,-0.6659447872286334,-0.9011099320101261,-0.02254923857493658,0.0028774846799606273,-0.01156900897152229
4500,0.0,299.24879,10377.73,-0.044999995705419904,0.0,0.0,0.0,0.0,-0.006867635600040972,-1.5791144117964586,-0.6751888604084524,-0.9002673942869741,0.002786699700150847,0.02180373373436098,-0.0024638785222658778
4501,0.0,299.59907000000004,10639.413,-0.04501000538011746,0.0,0.0,0.0,0.0,-0.006869163217926716,-1.6395214443331683,-0.6835580833194304,-0.911036449397297,-0.009242178604782011,0.018700974476892483,0.004550795887303586
4502,0.0,299.58209,10591.483,-0.0450200150548149,0.0,0.0,0.0,0.0,-0.006870690835812404,-1.6563424092432684,-0.6783624103841573,-0.8848414417170511,0.0016344979529873886,-0.006418747980556103,0.027102333628042076
4503,0.0,299.8548,10348.746,-0.045029991694282456,0.0,0.0,0.0,0.0,-0.006872213412054989,-1.6030580182845087,-0.6551916604098824,-0.8875107376479902,-0.009602529755770901,-0.02163474590918318,0.009117429785595262
4504,0.0,300.26971000000003,10347.247,-0.04504000136897979,0.0,0.0,0.0,0.0,-0.006873741029940678,-1.5814339439253786,-0.6643646946251904,-0.8995060584268361,0.0050291286640363544,0.013082469235139189,0.011350748820481689
4505,0.0,300.37663,10513.521999999999,-0.04505001104367734,0.0,0.0,0.0,0.0,-0.006875268647826421,-1.5919459070878286,-0.6759395368775383,-0.9279625795352762,0.011927131073616188,0.01248843717851279,-0.009662052018320292
4506,0.0,299.94776,10741.538999999999,-0.045059987683144787,0.0,0.0,0.0,0.0,-0.006876791224068951,-1.6460375544012584,-0.6893305286091264,-0.9297916986157961,0.014834672500568184,-0.0013700001601334886,0.0071393920206531325
4507,0.0,300.3381,10593.945,-0.04506999735784234,0.0,0.0,0.0,0.0,-0.006878318841954695,-1.6446360268629385,-0.6741153827225084,-0.9015434409329102,0.0060403596605620846,-0.020644132829667282,-0.0048414325943121955
4508,0.0,300.04391,10321.226,-0.04508000703253967,0.0,0.0,0.0,0.0,-0.006879846459840411,-1.6455454188276883,-0.6374959972184564,-0.8543535973381351,0.0053408951820053145,-0.01145249736902349,0.014254776296086884
4509,0.0,299.86114,10405.11,-0.04508998367200723,0.0,0.0,0.0,0.0,-0.006881369036082968,-1.6083902469357585,-0.6664764192911014,-0.8880270392364451,-0.00995003431404193,-0.0008759559374826203,0.014702880073311287
4510,0.0,299.72686,10653.138,-0.04509999334670467,0.0,0.0,0.0,0.0,-0.0068828966539686565,-1.6232019368975585,-0.6840065376811895,-0.9310793976378822,0.00042672647992712456,-0.020274500206437382,0.023230826585954076
4511,0.0,299.58366,10634.143999999998,-0.045110003021402,0.0,0.0,0.0,0.0,-0.0068844242718543724,-1.6044428271961786,-0.6829151659984795,-0.9451562279646571,-0.009371552201400192,-0.012637799362503688,0.022731181815892978
4512,0.0,299.48193,10367.306999999999,-0.045120012696099554,0.0,0.0,0.0,0.0,-0.006885951889740116,-1.5974588995569183,-0.6611100035814773,-0.8928336038683162,-0.003818580024439506,0.023942008592642276,0.005858278516267074
4513,0.0,299.91404,10318.984,-0.04512998933556689,0.0,0.0,0.0,0.0,-0.006887474465982646,-1.6155130911637283,-0.6544823144123754,-0.8667180349959102,-0.006196949560166304,0.026741695625949875,0.01133825139374829
4514,0.0,299.99348,10452.992,-0.04513999901026444,0.0,0.0,0.0,0.0,-0.00688900208386839,-1.6506175461782684,-0.6513695999726744,-0.8754615220963252,-0.003853168431178116,0.004613379583705115,0.0069880710215689135
4515,0.0,299.95668,10678.358,-0.045150008684961884,0.0,0.0,0.0,0.0,-0.006890529701754106,-1.6289708763419086,-0.6904323469003674,-0.9265510410859682,0.0034733196124899566,-0.009428167348087673,0.008847521946482431
4516,0.0,299.74157,10636.063999999998,-0.04515998532442944,0.0,0.0,0.0,0.0,-0.006892052277996663,-1.6182616333849884,-0.6740478293383414,-0.940788471553593,0.017990622322036184,-0.0030632167670159574,-0.01015070707779679
4517,0.0,300.27211,10497.854,-0.04516999499912677,0.0,0.0,0.0,0.0,-0.006893579895882351,-1.5913098900000586,-0.6727489744326544,-0.9270266302854051,0.004020632733505556,-0.007863129817280491,0.0012827977287022789
4518,0.0,300.48352,10481.114,-0.045180004673824326,0.0,0.0,0.0,0.0,-0.006895107513768095,-1.6183329661920285,-0.6628449309327014,-0.9048191163861942,-0.008583595018734872,-0.02508628510282358,0.004559166650354715
4519,0.0,300.57976,10665.377,-0.04519001434852166,0.0,0.0,0.0,0.0,-0.006896635131653811,-1.6519677019365184,-0.6740042393190394,-0.9160363826782522,0.00011468510773603887,-0.01056121117031039,-0.0038459503414407462
4520,0.0,300.52025,10779.045,-0.045199990987989325,0.0,0.0,0.0,0.0,-0.0068981577078963685,-1.6811239735640182,-0.6868017603345564,-0.9086347122877642,-0.0005224332106401436,0.0035603846472076067,0.016731715814791784
4521,0.0,299.8559,10520.183,-0.045210000662686656,0.0,0.0,0.0,0.0,-0.0068996853257820845,-1.6168743926730786,-0.6665287536587663,-0.9144697764336402,0.003999285884373786,0.006217716120965805,0.01066460827676489
4522,0.0,299.77765,10337.216999999999,-0.04522001033738399,0.0,0.0,0.0,0.0,-0.0069012129436678005,-1.5705747399536587,-0.6582135876406233,-0.9134674187722152,-0.01839043358624448,-0.008279821828154793,0.024596775873512774
4523,0.0,300.08308999999997,10482.659,-0.045229986976851655,0.0,0.0,0.0,0.0,-0.006902735519910358,-1.5840289787564885,-0.6778867097272093,-0.9245507941960591,0.013809413360382987,-0.0017122152489074884,0.014939648250678485
4524,0.0,299.67491,10629.801000000001,-0.045239996651548986,0.0,0.0,0.0,0.0,-0.006904263137796046,-1.6490598767995384,-0.6565489393163354,-0.925585241488151,0.005328342127841425,0.020704838669658478,0.02229814608090568
4525,0.0,299.59501,10606.0,-0.04525000632624654,0.0,0.0,0.0,0.0,-0.00690579075568179,-1.6505858314501383,-0.6793061211297944,-0.894067245997567,0.0032204461287582867,0.020992473015295783,-0.0001092100209531899
4526,0.0,299.49737999999996,10445.971,-0.04526001600094387,0.0,0.0,0.0,0.0,-0.006907318373567506,-1.6500118252684883,-0.6453295553315683,-0.8799729168415652,-0.02553372722773268,-0.003974390228091777,0.005508577535754275
4527,0.0,299.85677999999996,10408.796,-0.04526999264041143,0.0,0.0,0.0,0.0,-0.006908840949810063,-1.6054992417504386,-0.6576781558902804,-0.9008367597831661,-0.013195811391325188,-0.0018458320329694383,-0.016922510808621782
4528,0.0,300.55208,10605.788,-0.04528000231510887,0.0,0.0,0.0,0.0,-0.006910368567695779,-1.6043839573653684,-0.6832886601178403,-0.9362221586529331,0.005299356183555735,-0.0002479230578506008,-0.0032335140152979867
4529,0.0,300.34147,10667.033000000001,-0.04529001198980642,0.0,0.0,0.0,0.0,-0.006911896185581523,-1.6209404639993685,-0.6801239760805103,-0.941447215841106,0.005241108488307136,-0.014865561429866685,-0.0046583298912663655
4530,0.0,300.17894,10527.101,-0.04529998862927376,0.0,0.0,0.0,0.0,-0.006913418761824053,-1.6259649685952484,-0.6622855459499943,-0.9117253176102831,-0.0001255161028249749,-0.02467656121288698,0.028908850138581372
4531,0.0,300.06416,10371.67,-0.04530999830397131,0.0,0.0,0.0,0.0,-0.006914946379709769,-1.6167944472401883,-0.6608720721929954,-0.8750622306294181,-0.017826410957829785,-0.012341918174302488,0.004227837008730026
4532,0.0,299.59025,10557.886,-0.04532000797866864,0.0,0.0,0.0,0.0,-0.006916473997595485,-1.6415587863092382,-0.6737799868069074,-0.8939948796754252,0.0035934697960978562,0.023872157157248476,0.026951900438695473
4533,0.0,300.19014,10833.786,-0.04532998461813609,0.0,0.0,0.0,0.0,-0.0069179965738380145,-1.6418331744363184,-0.6983148753908123,-0.9530524454639531,-0.010624186690525589,0.015923159460243485,0.0024808158082874577
4534,0.0,299.69082000000003,10750.5,-0.04533999429283364,0.0,0.0,0.0,0.0,-0.006919524191723758,-1.6299273844363085,-0.6960548311752633,-0.941901405198431,-0.018578838323088584,-0.002743979252084667,0.018316006313399084
4535,0.0,299.54485,10366.028,-0.04535000396753097,0.0,0.0,0.0,0.0,-0.006921051809609474,-1.5901144575320785,-0.6626059356316144,-0.8982931879246351,-0.008094372539202373,-0.0034473239718993865,-0.013332359001301388
4536,0.0,299.69764,10383.213,-0.045360013642228525,0.0,0.0,0.0,0.0,-0.006922579427495218,-1.6200493105364184,-0.6576631496562994,-0.8785250128461682,0.017683519388977484,0.011224994350570689,0.02108498984217648
4537,0.0,299.64078,10634.503,-0.04536999028169597,0.0,0.0,0.0,0.0,-0.006924102003737748,-1.6541814507549983,-0.6697484166465223,-0.9086934503960612,0.013010304549767088,0.0005094566685969585,-0.0056922368170800345
4538,0.0,299.76491,10802.676000000001,-0.045379999956393524,0.0,0.0,0.0,0.0,-0.006925629621623464,-1.6810560858073185,-0.6905307740150813,-0.9121569013578772,-0.015205006292867286,-0.016058087896559884,0.011772986349153289
4539,0.0,299.36803,10623.208,-0.045390009631090855,0.0,0.0,0.0,0.0,-0.00692715723950918,-1.6217509627543587,-0.6823619719738834,-0.925076995237991,0.0036347623721231168,0.003979910211986556,-0.006866929372738165
4540,0.0,299.01137,10458.806999999999,-0.0453999862705583,0.0,0.0,0.0,0.0,-0.006928679815751709,-1.6092676201973486,-0.6603959763685084,-0.9095526864808611,0.012268858789092089,0.020414817106785582,0.004260615649465027
4541,0.0,300.05322,10549.423,-0.045409995945255854,0.0,0.0,0.0,0.0,-0.006930207433637453,-1.6092330683689382,-0.6814492362838034,-0.9160789391824522,0.015446647189965385,-0.007047761179659873,0.003782250246079036
4542,0.0,300.41517999999996,10776.111,-0.04542000561995341,0.0,0.0,0.0,0.0,-0.006931735051523197,-1.6750228907368883,-0.6794075677298064,-0.9212381857766301,-0.01758624433962718,-0.02768715828100977,0.027302587311555573
4543,0.0,300.25437999999997,10766.633,-0.04543001529465074,0.0,0.0,0.0,0.0,-0.006933262669408913,-1.6760529607885484,-0.6907919898908613,-0.9059426384945771,-0.013168104067340687,-0.02299083728651898,0.012233980694149887
4544,0.0,300.04304,10421.527,-0.045439991934118296,0.0,0.0,0.0,0.0,-0.00693478524565147,-1.6299290056364684,-0.6638388380882924,-0.8741159867585311,7.816655784218863e-05,0.02286652365825018,0.0014146518628902684
4545,0.0,300.27029,10367.001,-0.04545000160881563,0.0,0.0,0.0,0.0,-0.0069363128635371585,-1.5801762979012586,-0.6721517445587123,-0.8989815495125711,-0.00048438358208993746,0.012661351347828089,0.0018769583667663681
4546,0.0,300.67958,10712.008999999998,-0.04546001128351307,0.0,0.0,0.0,0.0,-0.0069378404814228745,-1.6325268775678585,-0.6804500703601933,-0.9432063902672232,0.0038500908866493863,-0.0038760108374574858,-0.006621987712114304
4547,0.0,299.79958,10807.79,-0.045469987922980404,0.0,0.0,0.0,0.0,-0.006939363057665404,-1.6496589102586585,-0.6900546376605904,-0.9455846199744361,-0.003852525017364616,-0.005623866652007425,0.005124222895196425
4548,0.0,299.46531,10508.018,-0.04547999759767796,0.0,0.0,0.0,0.0,-0.006940890675551148,-1.6372333229573486,-0.6640812581747174,-0.8928604245984632,0.018865638763893584,0.006251492103774234,0.0024021083643696378
4549,0.0,299.53222,10424.832,-0.04549000727237551,0.0,0.0,0.0,0.0,-0.006942418293436892,-1.6376313275966285,-0.6435037901088795,-0.8877535832994571,0.0005909569641629114,-0.00970980923130856,0.022902349142035875
4550,0.0,299.77296,10600.514,-0.045499983911842734,0.0,0.0,0.0,0.0,-0.006943940869679394,-1.6492227060906086,-0.6614248001225453,-0.9116439637597542,-0.013783843994109488,-0.020679944127951582,0.00958132780140343
4551,0.0,299.75344,10845.126,-0.04550999358654051,0.0,0.0,0.0,0.0,-0.006945468487565165,-1.6428577729374383,-0.6919712812847484,-0.9618185280415982,0.007679186217976673,-0.005078622283720995,0.021311200966751778
4552,0.0,299.98323,10893.097,-0.04552000326123784,0.0,0.0,0.0,0.0,-0.006946996105450853,-1.6610839130862183,-0.6976751599401773,-0.9524705764615271,0.007322014949776613,0.020397830982109177,0.006894322994491703
4553,0.0,299.73812000000004,10680.375,-0.04553001293593539,0.0,0.0,0.0,0.0,-0.006948523723336597,-1.6352871734902785,-0.6907883016604973,-0.9204917244279601,0.023618647048478977,0.011780748858169389,0.011851470675399088
4554,0.0,300.00331,10591.778,-0.04553998957540284,0.0,0.0,0.0,0.0,-0.006950046299579127,-1.6533900011018883,-0.6790663354936294,-0.8871796379128132,-0.005549020501570684,-0.025297279237397077,0.012068360912304489
4555,0.0,300.03316,10760.186000000002,-0.04554999925010039,0.0,0.0,0.0,0.0,-0.0069515739174648705,-1.6754691260809285,-0.6778724735633044,-0.9174862321138412,0.015605942264686586,-0.004051314047858566,0.014989663288864587
4556,0.0,299.94041,10761.626,-0.045560008924797724,0.0,0.0,0.0,0.0,-0.0069531015353505865,-1.6573474520174585,-0.6869114345253803,-0.9270066692584351,0.00868601687196812,0.017203132450316985,0.0052890419054877945
4557,0.0,300.55843,10430.62,-0.04556998556426517,0.0,0.0,0.0,0.0,-0.006954624111593116,-1.5819533359266384,-0.6610908734195894,-0.9276039193973792,0.007319259922754713,0.01769309764217278,0.00023401485260546775
4558,0.0,300.51397000000003,10399.692,-0.04557999523896272,0.0,0.0,0.0,0.0,-0.00695615172947886,-1.5963876915511985,-0.6511077254843295,-0.9137512503902272,-0.033076784510674466,-0.013780350307764686,0.004148770975601816
4559,0.0,300.19189,10691.301000000001,-0.045590004913660054,0.0,0.0,0.0,0.0,-0.006957679347364548,-1.6466619191128784,-0.6742558698488733,-0.928970895107289,-0.013086480692285088,-0.005488048886078255,0.004380897656910936
4560,0.0,299.5408,10868.443000000001,-0.04560001458835761,0.0,0.0,0.0,0.0,-0.006959206965250292,-1.6804790398753684,-0.6933975929205143,-0.9298587757724162,0.010246805743780991,0.01804744234789388,0.018485620327138682
4561,0.0,299.47415,10804.45,-0.04560999122782494,0.0,0.0,0.0,0.0,-0.006960729541492822,-1.6749307863027982,-0.6919796608630754,-0.9173724238626092,0.010054455613697512,-0.0058421704741273344,0.012575365931091988
4562,0.0,299.2933,10619.223999999998,-0.045620000902522495,0.0,0.0,0.0,0.0,-0.006962257159378565,-1.6198674321434685,-0.6796327524320304,-0.9284788507262282,-0.007670350170479623,-0.02426265361328748,0.006585232368711833
4563,0.0,299.70742,10545.535,-0.04563001057721994,0.0,0.0,0.0,0.0,-0.006963784777264281,-1.6141057880998384,-0.6753668073910143,-0.9161066617051881,-0.006248885315241964,-0.01028211953626619,-0.003741439166501296
4564,0.0,299.78099,10694.495,-0.04563998721668727,0.0,0.0,0.0,0.0,-0.006965307353506811,-1.6332409149133285,-0.6803458170574044,-0.937272747019118,0.01137386510826309,0.01979753298686438,0.01030990994675889
4565,0.0,300.08106000000004,10785.907,-0.045649996891384825,0.0,0.0,0.0,0.0,-0.006966834971392555,-1.6705254788430284,-0.6855871369096824,-0.922533707089488,-0.004827112938598955,0.008116733955659273,0.007807609993951112
4566,0.0,300.15605,10554.6,-0.04566000656608238,0.0,0.0,0.0,0.0,-0.006968362589278271,-1.6524301492821585,-0.6623603846023803,-0.8935442873559553,-0.012546125559706188,-0.016945584539898983,0.016764054704983385
4567,0.0,300.13353,10407.685,-0.04567001624077971,0.0,0.0,0.0,0.0,-0.006969890207163987,-1.6367861756882185,-0.6436297370963093,-0.8832605891760331,-0.003176007208522507,-0.001137842270721289,0.005889217297470495
4568,0.0,299.88267,10804.766000000001,-0.045679992880247156,0.0,0.0,0.0,0.0,-0.0069714127834065165,-1.6257076030698485,-0.6977182129369263,-0.960953242853701,0.01198036723387019,0.019456935045249982,0.017353796660686385
4569,0.0,299.85287,11009.003999999999,-0.04569000255494471,0.0,0.0,0.0,0.0,-0.00697294040129226,-1.6589899304295583,-0.7009331947092203,-0.9865391960313381,0.0027004172998104374,0.0019620677274660085,0.006440523434480174
4570,0.0,299.66354,10779.768999999998,-0.04570001222964204,0.0,0.0,0.0,0.0,-0.006974468019177976,-1.6374528942540185,-0.6860975109850523,-0.953230230326499,-0.01760156670763938,-0.017887529190611682,0.007723773984652143
4571,0.0,300.19555,10610.171999999999,-0.045709988869109486,0.0,0.0,0.0,0.0,-0.006975990595420506,-1.6532495646380285,-0.6782911586371253,-0.8936866388625042,-0.0013267608266910988,0.008107946442842013,-0.002067421318538598
4572,0.0,300.50321,10580.526000000002,-0.04571999854380704,0.0,0.0,0.0,0.0,-0.00697751821330625,-1.6680936786030285,-0.6695069287501894,-0.8786152225025712,0.01174829749721669,0.01371445764051159,0.012552920414876788
4573,0.0,300.11082999999996,10586.443000000001,-0.04573000821850459,0.0,0.0,0.0,0.0,-0.006979045831191966,-1.6564658231054483,-0.6677532056096104,-0.8937951275507112,0.003139532940697777,-0.0008763153676905932,0.0001998219781758938
4574,0.0,300.14745,10635.658000000001,-0.045739984857971816,0.0,0.0,0.0,0.0,-0.006980568407434495,-1.6304453578874285,-0.6764430715147334,-0.9260860200850741,0.002116770854059018,-0.02230356595569058,0.0013634825301902485
4575,0.0,299.94707999999997,10615.143,-0.04574999453266937,0.0,0.0,0.0,0.0,-0.006982096025320211,-1.6241385852899985,-0.6700639427276623,-0.9325357825366162,0.007765956903540273,-0.002806666502646417,0.007275577393718582
4576,0.0,299.64493999999996,10554.548999999999,-0.04576000420736692,0.0,0.0,0.0,0.0,-0.006983623643205955,-1.6081201144590984,-0.6773389669881513,-0.9228603383917242,0.00998424194139296,0.03364799918829897,-0.002331842205709908
4577,0.0,299.67346000000003,10683.413999999999,-0.045770013882064475,0.0,0.0,0.0,0.0,-0.006985151261091699,-1.6505886685504183,-0.6736521045117864,-0.9232502471627051,-0.005715530220978915,0.01992463609265848,0.01262055992530229
4578,0.0,299.66895,10909.204,-0.0457799905215317,0.0,0.0,0.0,0.0,-0.006986673837334201,-1.6886581973325883,-0.6956398241993053,-0.9318275308492171,-0.009861219193751559,0.0035912782374565664,0.008229223765861151
4579,0.0,299.56516,10806.014,-0.04579000019622914,0.0,0.0,0.0,0.0,-0.0069882014552199445,-1.6615485895820783,-0.6864276785301373,-0.9367822630432111,-0.017125014920607383,0.013638221716237688,0.015665828385346886
4580,0.0,299.7632,10585.777,-0.045800009870926695,0.0,0.0,0.0,0.0,-0.0069897290731056605,-1.6129992176656285,-0.6676801401448993,-0.9371324625427732,-0.007464616729100312,0.01166798628104059,-0.0007628977345046443
4581,0.0,300.539,10719.6,-0.04580998651039414,0.0,0.0,0.0,0.0,-0.006991251649348218,-1.6274093566127985,-0.6786884742663373,-0.952392860178857,-0.023842470955818682,-0.009658393577509231,0.008236396461994042
4582,0.0,300.24781,10870.383,-0.04581999618509147,0.0,0.0,0.0,0.0,-0.006992779267233906,-1.6660154013229185,-0.6972598185916864,-0.941049788754383,-0.004074711917842756,-0.017228336033304384,0.004072688457393056
4583,0.0,300.13575,10810.6,-0.045830005859789025,0.0,0.0,0.0,0.0,-0.00699430688511965,-1.6856145966822085,-0.6929995680162324,-0.9075381021020371,0.022573121893043682,-0.001884320236692928,0.016403081317108086
4584,0.0,300.32122999999996,10723.775,-0.04584001553448658,0.0,0.0,0.0,0.0,-0.006995834503005394,-1.6836902320922884,-0.6788172178240434,-0.8972523571569131,0.019682729724034183,0.02038802069464098,0.006714020205447203
4585,0.0,299.79485,10587.118999999999,-0.0458499921739538,0.0,0.0,0.0,0.0,-0.006997357079247896,-1.6250863794335384,-0.6793693276710323,-0.9137642301240082,0.004569098426509905,-0.00045533734942329753,0.008874234664168772
4586,0.0,299.53747999999996,10648.116000000002,-0.045860001848651355,0.0,0.0,0.0,0.0,-0.006998884697133639,-1.6104939567933785,-0.6830559874973774,-0.943211253867703,-0.0017375097204288584,-0.015881331482865385,-0.003174964067544557
4587,0.0,300.33249,10958.667,-0.04587001152334891,0.0,0.0,0.0,0.0,-0.007000412315019355,-1.6431811010443484,-0.7031674719747264,-0.984812597595936,0.0069151798358751135,0.007593076576778312,0.00947949728092854
4588,0.0,300.41449,10803.468,-0.045879988162816354,0.0,0.0,0.0,0.0,-0.007001934891261885,-1.6655984489067683,-0.6759764901086853,-0.9424096514485912,0.0018327295946013282,-0.005077605791220676,0.0037411035780681766
4589,0.0,299.89404,10460.131,-0.045889997837513685,0.0,0.0,0.0,0.0,-0.007003462509147601,-1.6408485993141486,-0.6566825768720244,-0.8820874988727582,-0.00994645845311402,-0.0034480994122009162,0.01264705945516759
4590,0.0,300.35143999999997,10672.687,-0.04590000751221124,0.0,0.0,0.0,0.0,-0.007004990127033345,-1.6759866942320085,-0.6602774159743073,-0.9079663623893031,-0.0026085133879152275,-0.009102584050430101,0.01130337836505659
4591,0.0,299.19267,10966.332,-0.045909984151678684,0.0,0.0,0.0,0.0,-0.0070065127032758745,-1.6692245670396384,-0.6997831963757244,-0.9644834467321051,0.017170843209380286,0.02284361609998938,0.018244264153318684
4592,0.0,299.01158,10931.585,-0.045919993826376126,0.0,0.0,0.0,0.0,-0.007008040321161618,-1.6610727673351182,-0.6891610625299014,-0.9726951295175351,0.01984612238215978,0.017106088421989483,0.012874868475150588
4593,0.0,299.39232999999996,10778.028,-0.04593000350107357,0.0,0.0,0.0,0.0,-0.007009567939047334,-1.6358096052418383,-0.6834421675079904,-0.956999449770992,0.0029167881447145776,-0.01858042608599528,0.014573840646576087
4594,0.0,299.44871,10677.818000000001,-0.04594001317577112,0.0,0.0,0.0,0.0,-0.00701109555693305,-1.6453332442567483,-0.6890393205303863,-0.9114175732899111,-0.0028500446513525074,-0.026982766063241674,0.00999911847936116
4595,0.0,300.21098,10789.033000000001,-0.04594998981523846,0.0,0.0,0.0,0.0,-0.00701261813317558,-1.7087724277177085,-0.6619463098165144,-0.9088780037692752,0.0005083321129734736,-0.004027847682167616,0.02276550667628058
4596,0.0,300.10379,10962.237,-0.0459599994899359,0.0,0.0,0.0,0.0,-0.007014145751061296,-1.6988880716671986,-0.7004760365291023,-0.9328820810232932,0.006452789434890734,-0.007495573748805533,0.018115976558157682
4597,0.0,300.23652000000004,10793.989,-0.04597000916463334,0.0,0.0,0.0,0.0,-0.00701567336894704,-1.6536334851009182,-0.6814053726869743,-0.9460643634992831,-0.013386472636141988,-0.0005027566029732136,0.015334158190363587
4598,0.0,299.9385,10620.508,-0.04597998580410079,0.0,0.0,0.0,0.0,-0.007017195945189569,-1.6022822740079485,-0.6775980246412183,-0.9484888683385632,-0.0016461723166645583,-0.006655284832925473,0.00997155219979058
4599,0.0,300.25591000000003,10772.07,-0.04598999547879834,0.0,0.0,0.0,0.0,-0.007018723563075313,-1.6400496516102985,-0.6895302908663414,-0.944860470392968,0.0035618050211977865,0.02068424436137598,-0.008606553948775741
4600,0.0,299.92551000000003,11024.44,-0.04600000515349567,0.0,0.0,0.0,0.0,-0.007020251180961029,-1.7020584299050883,-0.6983669260484494,-0.9507291440446611,0.0077504683625116725,0.006784262958029623,0.017877901288161482
4601,0.0,299.99518,10913.373,-0.046010014828193446,0.0,0.0,0.0,0.0,-0.007021778798846773,-1.7080729811736786,-0.6917622173916154,-0.9175577574384001,0.002895154647129517,-0.016865672544262286,0.014693534867638986
4602,0.0,299.13039,10634.531,-0.04601999146766067,0.0,0.0,0.0,0.0,-0.007023301375089275,-1.6411504465189384,-0.6885749581420573,-0.9029063332449171,0.0025947782761846774,-0.008078523179813163,0.007658525136512583
4603,0.0,299.14652,10714.91,-0.04603000114235822,0.0,0.0,0.0,0.0,-0.0070248289929750185,-1.6332416241883985,-0.6879362052790173,-0.9358871984348751,0.011496903054655989,0.028121085676085077,0.014957149106405684
4604,0.0,299.0117,10919.631000000001,-0.046040010817055554,0.0,0.0,0.0,0.0,-0.0070263566108607345,-1.6546702426032383,-0.7041169785109354,-0.9605078181097412,0.004062666907279007,0.00838577252751131,-0.0017920367613102584
4605,0.0,299.25228,10941.07,-0.04604998745652322,0.0,0.0,0.0,0.0,-0.007027879187103292,-1.6761141610945882,-0.6949031609791023,-0.9547947087459011,-0.01990721123068878,-0.006905949938064193,-0.003101151837509857
4606,0.0,299.81871,10734.098999999998,-0.046059997131220554,0.0,0.0,0.0,0.0,-0.007029406804989008,-1.6767315343805185,-0.6837864901569723,-0.9023799903479712,0.008579112602942493,-0.017781117665109685,-0.005248950233481055
4607,0.0,300.30759,10656.114,-0.046070006805917885,0.0,0.0,0.0,0.0,-0.007030934422874724,-1.6833156335303183,-0.6694050768501373,-0.8864717611279512,0.016752227036566085,0.008382459199684313,0.0018625692020962682
4608,0.0,299.87678,10773.886,-0.04608001648061566,0.0,0.0,0.0,0.0,-0.007032462040760468,-1.6716211061761586,-0.6741049057164744,-0.929266298041443,0.032947828170447474,-0.002189691018705678,0.01106070192635629
4609,0.0,300.09193999999997,11029.957,-0.046089993120082884,0.0,0.0,0.0,0.0,-0.00703398461700297,-1.6818619236118486,-0.6927340356950263,-0.9782353682818141,-0.0037542914334197162,-0.007417635665688644,0.024781106331704775
4610,0.0,299.99731,10984.455,-0.04610000279478044,0.0,0.0,0.0,0.0,-0.007035512234888713,-1.6606808421964385,-0.6994281332756823,-0.9788909106990111,-0.0032348278967026566,-0.0023122008591464575,0.025048377390082376
4611,0.0,299.85752,10721.479,-0.04611001246947777,0.0,0.0,0.0,0.0,-0.007037039852774429,-1.6383276330653485,-0.6749278269176904,-0.9458063190963161,-0.015480910242096883,0.03002336344032527,0.019249250185503084
4612,0.0,299.66127,10764.42,-0.046119989108945325,0.0,0.0,0.0,0.0,-0.007038562429016987,-1.6779389231996784,-0.6944900589133324,-0.8996859609820911,-0.009572386781196022,0.0070583574452306435,0.005527554899527194
4613,0.0,300.05668,10910.99,-0.046129998783642656,0.0,0.0,0.0,0.0,-0.007040090046902703,-1.7082850544196082,-0.6835496024160934,-0.9248338658764961,-0.02354002492021958,-0.02187175726657438,0.025339651330078875
4614,0.0,299.35262,10828.005,-0.04614000845834021,0.0,0.0,0.0,0.0,-0.0070416176647884465,-1.6682705920704883,-0.6980296454876623,-0.9251430490120102,0.0018792962387220982,-0.026615725333767576,-0.0034721780849272968
4615,0.0,299.62642,10687.821000000002,-0.046149985097807655,0.0,0.0,0.0,0.0,-0.007043140241030976,-1.6306425363568884,-0.6792365615104294,-0.9389517530973231,0.004387689674981256,0.008891897031961912,0.011776062576456888
4616,0.0,300.52822000000003,10661.473,-0.04615999477250521,0.0,0.0,0.0,0.0,-0.007044667858916692,-1.6324811799883483,-0.6759402562851093,-0.9323999766257132,0.012301534078316889,0.009339323958119511,-0.005894141895606515
4617,0.0,300.40124,10800.83,-0.04617000444720254,0.0,0.0,0.0,0.0,-0.007046195476802408,-1.6692008569872985,-0.6823554061132353,-0.9316262588493531,-0.02238277576900798,-0.0074694134550737125,0.0033338706621774163
4618,0.0,300.09224,10970.749,-0.04618001412189987,0.0,0.0,0.0,0.0,-0.007047723094688124,-1.7189136426685683,-0.6913185658353304,-0.924601517496065,-0.011621020112405388,-0.009306358372741061,-0.01080533453015349
4619,0.0,300.56987999999996,11076.351,-0.04618999076136754,0.0,0.0,0.0,0.0,-0.007049245670930682,-1.7050052651709184,-0.7161743304609033,-0.9457544406911961,0.019142244895442483,0.011593235781413289,0.015830422758091087
4620,0.0,300.32575,10842.332,-0.04620000043606487,0.0,0.0,0.0,0.0,-0.007050773288816398,-1.6570632353644086,-0.6990223570081354,-0.9397125519349082,0.006343946413123764,-0.007916894691436673,0.0047460425954479355
4621,0.0,299.84466000000003,10745.568000000001,-0.04621001011076242,0.0,0.0,0.0,0.0,-0.007052300906702141,-1.6359605795067385,-0.6753199952363944,-0.9551038716164131,0.0029675466044990473,-0.027284706487040875,0.02274168617967968
4622,0.0,300.30257,10963.076000000001,-0.04621998675022987,0.0,0.0,0.0,0.0,-0.007053823482944671,-1.6611213020149087,-0.7085552469964583,-0.9628247461859041,-0.014887930952324385,-0.009146815558370412,0.004948154174344795
4623,0.0,299.79224,10976.862,-0.04622999642492742,0.0,0.0,0.0,0.0,-0.007055351100830387,-1.6902213382618585,-0.6885383899459484,-0.9579320755605351,0.0029769042731475773,0.02599857090985918,0.016170497862653885
4624,0.0,299.65272000000004,10729.63,-0.04624000609962475,0.0,0.0,0.0,0.0,-0.007056878718716103,-1.6724998979878885,-0.6766644058665774,-0.9123751250319142,-0.006187638804997404,0.006815863594198363,-0.0038805998471603863
4625,0.0,299.95662000000004,10693.761999999999,-0.046250015774322306,0.0,0.0,0.0,0.0,-0.007058406336601847,-1.6649774279204783,-0.6827708994492414,-0.9028883075256381,-0.005804968084780744,-0.002066580320955598,0.01026522257759859
4626,0.0,299.85528,10840.076000000001,-0.04625999241378964,0.0,0.0,0.0,0.0,-0.0070599289128443765,-1.6685415351472286,-0.6732228005769173,-0.9533482638306481,-0.0033968025113133068,-0.02297320369502868,0.015963761405000585
4627,0.0,300.112,11020.643,-0.046270002088487194,0.0,0.0,0.0,0.0,-0.00706145653073012,-1.6819489617954382,-0.7011884932044163,-0.9668627910144281,0.019140228527743483,0.008230379073625173,0.017238348970792586
4628,0.0,300.57838,10965.601999999999,-0.046280011763184636,0.0,0.0,0.0,0.0,-0.007062984148615836,-1.6747041222554286,-0.6949603792122494,-0.9636046549203751,-0.003054051109261377,-0.0052662723518906145,0.009012283505493131
4629,0.0,299.83006,10830.626,-0.046289988402652193,0.0,0.0,0.0,0.0,-0.007064506724858394,-1.6851856879148785,-0.6779050698190214,-0.9291490042098671,-0.005905775830604694,-0.010563515301037791,0.012394183640960687
4630,0.0,299.99076,10893.452,-0.046299998077349525,0.0,0.0,0.0,0.0,-0.007066034342744082,-1.6864322895129085,-0.6925314768675354,-0.9323735206656021,-0.016639417849932683,0.00921228093805634,0.006105353574976484
4631,0.0,299.76591,10972.788,-0.046310007752046856,0.0,0.0,0.0,0.0,-0.007067561960629798,-1.6873786651063085,-0.7007765057137563,-0.9472983602660691,0.003860547425031366,0.03876805225535886,-0.0016863084703506886
4632,0.0,299.43215,11027.423,-0.046319984391514524,0.0,0.0,0.0,0.0,-0.007069084536872355,-1.6759960161329286,-0.7015393411840424,-0.974525971123225,0.00047522955644650544,0.015905332337984086,0.02066699783142388
4633,0.0,299.93209,10854.428999999998,-0.046329994066211855,0.0,0.0,0.0,0.0,-0.007070612154758071,-1.6595634299861586,-0.6960608600133583,-0.9438511719683581,-0.02275438017693248,-0.02117459965452028,0.021989732002217578
4634,0.0,300.0344,10604.686000000002,-0.04634000374090941,0.0,0.0,0.0,0.0,-0.007072139772643815,-1.6316450460058285,-0.6674512672123114,-0.9244635330974471,-0.01960422614603648,-0.024207927975386477,0.008997643764073303
4635,0.0,299.59106,10790.251,-0.04635001341560674,0.0,0.0,0.0,0.0,-0.007073667390529531,-1.6892572307917086,-0.6887516790919983,-0.9019578095613052,-0.014051864857561089,0.0025962497179798974,0.006237623445680504
4636,0.0,300.46186,11082.583,-0.04635999005507441,0.0,0.0,0.0,0.0,-0.0070751899667720886,-1.7077738697441585,-0.7100664487256023,-0.9509880801077161,0.005738009681072464,0.001973919004610638,0.0015742411854405085
4637,0.0,300.459,10997.131000000001,-0.04636999972977174,0.0,0.0,0.0,0.0,-0.007076717584657777,-1.6886910266358282,-0.7111223769198143,-0.9430396396982661,1.3433568500789988e-06,-0.012710845575462789,-0.0017326203833963184
4638,0.0,300.30791,10900.098,-0.04638000940446929,0.0,0.0,0.0,0.0,-0.0070782452025435205,-1.6723794225509983,-0.6972899425171593,-0.9436883224122861,0.019040604764661382,0.01117910121379139,0.005561934171445165
4639,0.0,300.41909,11016.918,-0.046389986043936626,0.0,0.0,0.0,0.0,-0.00707976777878605,-1.6906010030743286,-0.6931663489826924,-0.9651006275005161,0.02412986110818188,0.03320916766273967,0.01982689596151228
4640,0.0,299.68027,11026.944,-0.04639999571863418,0.0,0.0,0.0,0.0,-0.007081295396671794,-1.6952593190840684,-0.6982112199055823,-0.9584451550136721,0.007997993202940474,0.01935255913919888,0.016887823204698383
4641,0.0,299.60344,11035.491000000002,-0.04641000539333162,0.0,0.0,0.0,0.0,-0.00708282301455751,-1.7165689819371683,-0.6973321545163254,-0.9406126219987382,-0.024461245566636976,-0.014962184959402686,0.020893379182015982
4642,0.0,300.2262,11020.961000000001,-0.04642001506802895,0.0,0.0,0.0,0.0,-0.007084350632443198,-1.7003755228139985,-0.6943631898683112,-0.9553580758015011,-0.017443932349832082,-0.012106420612560688,0.016921193583491784
4643,0.0,299.99761,10726.514,-0.04642999170749651,0.0,0.0,0.0,0.0,-0.007085873208685783,-1.6558909049987085,-0.6828131114484074,-0.9218882870407902,-0.007646422877318182,0.00954225343249709,-0.001221837360285959
4644,0.0,299.9443,10735.748,-0.04644000138219384,0.0,0.0,0.0,0.0,-0.007087400826571472,-1.6597360878031984,-0.6663770194562914,-0.9372860712579332,-0.003490839719969057,-0.003847202819889356,0.022777542060968377
4645,0.0,300.05679,11014.48,-0.046450011056891394,0.0,0.0,0.0,0.0,-0.007088928444457215,-1.6904694832113483,-0.6986171076306403,-0.9590404293149212,-0.01070940507693599,-0.03665872493918446,0.015706107103322087
4646,0.0,299.52532,11056.145,-0.04645998769635884,0.0,0.0,0.0,0.0,-0.007090451020699745,-1.7069855611663587,-0.7151228605671314,-0.9386837180483701,0.009143721295215032,-0.018198035630756282,0.011761011759471487
4647,0.0,300.55862,10924.973,-0.04646999737105639,0.0,0.0,0.0,0.0,-0.007091978638585489,-1.7027322412215884,-0.7029002677908553,-0.9152866586642602,0.017711068645946383,0.008930781011174461,-0.006692924439690214
4648,0.0,300.34637000000004,10926.816,-0.046480007045753724,0.0,0.0,0.0,0.0,-0.007093506256471205,-1.6765045663581182,-0.7079980607664683,-0.9369766550748961,0.009365186558971951,0.01106967425599179,-0.004772351938269465
4649,0.0,300.25529,11111.2,-0.04648998368522139,0.0,0.0,0.0,0.0,-0.007095028832713762,-1.7034688740442885,-0.7237358815846703,-0.9503225166470302,-0.00897230805327286,-0.011703993136594188,0.004911875159814336
4650,0.0,299.53106,11035.091999999999,-0.04649999335991872,0.0,0.0,0.0,0.0,-0.007096556450599478,-1.6894594755116685,-0.6958722840372473,-0.9690606926013441,-0.006246859726967055,-0.0013523868336451886,0.012956977197004088
4651,0.0,300.17172,10902.42,-0.046510003034616276,0.0,0.0,0.0,0.0,-0.007098084068485194,-1.6805771224850485,-0.6992431847349294,-0.934243027895108,-0.011789341219017388,0.007297556105612712,0.016126645411575984
4652,0.0,300.14454,10793.332,-0.04652001270931361,0.0,0.0,0.0,0.0,-0.00709961168637091,-1.6873496861534485,-0.6664992376833534,-0.9270545757231631,-0.01989883367886198,-0.0004938062709973845,0.014660245548853586
4653,0.0,300.59467,10817.143,-0.046529989348781164,0.0,0.0,0.0,0.0,-0.007101134262613468,-1.6866340276078182,-0.6889326455598583,-0.9125746339766041,-0.004270451065535706,-0.02977740305805087,0.0010334207684156889
4654,0.0,300.28271,11005.844,-0.046539999023478607,0.0,0.0,0.0,0.0,-0.007102661880499184,-1.6746939897544284,-0.7098811860773183,-0.960926624773574,0.005839431963082064,-0.0008014769888821201,0.006040689777444664
4655,0.0,300.36997,11215.907,-0.04655000869817594,0.0,0.0,0.0,0.0,-0.0071041894983849,-1.7041674086632284,-0.7282835608159913,-0.9769048594430031,0.03333372953728297,0.02415397747381198,0.005819240624364334
4656,0.0,300.45047,11037.581,-0.046559985337643495,0.0,0.0,0.0,0.0,-0.007105712074627457,-1.6840852983062784,-0.7026395281426223,-0.9684242499485322,0.006644914116826964,0.008386938677051403,0.025036731093432976
4657,0.0,300.3941,10852.796999999999,-0.04656999501234094,0.0,0.0,0.0,0.0,-0.007107239692513173,-1.6871247446312483,-0.6798316432941593,-0.9320229867935071,-0.007104524058211933,-0.016546678108029983,0.02160583180432958
4658,0.0,300.12642999999997,11071.997,-0.04658000468703838,0.0,0.0,0.0,0.0,-0.007108767310398889,-1.7263897058813984,-0.6968373743599944,-0.9423836109210211,-0.023213101801954777,-0.007832038744587043,0.024649370646453478
4659,0.0,299.53441000000004,11182.368999999999,-0.04659001436173582,0.0,0.0,0.0,0.0,-0.007110294928284605,-1.7322720280119384,-0.7144983134704933,-0.952390448643619,0.008663283187424481,0.012254762453700888,0.011225296299100488
4660,0.0,299.69125,10999.226,-0.04659999100120338,0.0,0.0,0.0,0.0,-0.0071118175045271625,-1.6858005280755584,-0.6921399671613964,-0.9655496492823311,-0.00950656038049946,0.007708329823977923,0.010915564995282389
4661,0.0,299.70792,10801.428,-0.04661000067590071,0.0,0.0,0.0,0.0,-0.0071133451224128785,-1.6608356668117183,-0.6761019811335703,-0.946426863855059,0.003562284187170077,-0.012626529994891488,0.010956140595536889
4662,0.0,300.26523,10799.375,-0.04662001035059826,0.0,0.0,0.0,0.0,-0.007114872740298622,-1.6610936402871785,-0.6658991301791274,-0.9557477008624542,-0.005767145789022974,-0.0070250971053981036,0.00969341058904014
4663,0.0,300.24496,10978.233999999999,-0.04662998699006571,0.0,0.0,0.0,0.0,-0.007116395316541152,-1.6949875654072482,-0.6869585405225294,-0.955162802242229,0.011168004098696189,0.024557114224848475,0.011406138137198188
4664,0.0,300.42761,11159.935,-0.04663999666476326,0.0,0.0,0.0,0.0,-0.007117922934426896,-1.7205824655832684,-0.7100322920647314,-0.9617268593050511,-0.0051421116230619054,0.008243339049029222,0.008954108054976663
4665,0.0,300.26901000000004,11085.33,-0.04665000633946059,0.0,0.0,0.0,0.0,-0.007119450552312584,-1.7100379770926086,-0.7062303345095073,-0.9533951165152721,-0.015947903027685485,-0.015572652945901187,0.0002360661470354148
4666,0.0,300.68595,10939.205,-0.04666001601415792,0.0,0.0,0.0,0.0,-0.0071209781701983,-1.6653058222778885,-0.7145597468240563,-0.945379548286697,-0.011837850567554889,-0.015270330526814287,-0.0004185849647111196
4667,0.0,299.8879,10958.617,-0.04666999265362559,0.0,0.0,0.0,0.0,-0.007122500746440857,-1.6779123760470587,-0.6993387139543573,-0.953894790669586,0.01029698492848329,0.0027651779640518177,0.0029815589414569576
4668,0.0,299.9769,11125.822,-0.04668000232832292,0.0,0.0,0.0,0.0,-0.007124028364326573,-1.6963071210124783,-0.7027066052992423,-0.9829585019004511,0.005641769261399275,0.0022202646245730578,0.020772504524586583
4669,0.0,299.8414,10898.456,-0.046690012003020476,0.0,0.0,0.0,0.0,-0.007125555982212317,-1.6967102932272682,-0.6785500035076714,-0.9375981522887331,-0.003235680445336797,-0.019706103377340984,0.018509937316288583
4670,0.0,299.61086,10797.127,-0.04669998864248792,0.0,0.0,0.0,0.0,-0.007127078558454847,-1.6791631319704983,-0.6712868646708554,-0.931606986832451,-0.0033223610529665073,-0.002983665589739867,0.013189647790966886
4671,0.0,299.59514,10948.431,-0.046709998317185364,0.0,0.0,0.0,0.0,-0.007128606176340591,-1.6858709489575083,-0.6939206427546354,-0.9482580297007811,0.011131481498841689,0.024012430487842375,-0.008700010058499142
4672,0.0,300.39893,11108.546999999999,-0.046720007991882806,0.0,0.0,0.0,0.0,-0.007130133794226279,-1.6936131929716083,-0.7035481399047953,-0.979559564572502,0.008606896528634554,0.010797786830158591,0.013854578983590486
4673,0.0,300.36093,11074.954,-0.04672998463135014,0.0,0.0,0.0,0.0,-0.0071316563704688085,-1.6869515801891586,-0.6985023063943103,-0.9810554966226391,-0.012653743866077288,-0.020661733997154378,-0.0013116029091701288
4674,0.0,300.95367000000005,10937.798,-0.046739994306047694,0.0,0.0,0.0,0.0,-0.007133183988354552,-1.6656419173360584,-0.6971576323191013,-0.962017783673763,-0.014354956333473884,-0.023725809392305078,0.02117024774534078
4675,0.0,300.06827000000004,10854.716,-0.04675000398074525,0.0,0.0,0.0,0.0,-0.007134711606240296,-1.6765661719641982,-0.6901462861321354,-0.9328500319226302,0.00021499341245319775,0.004262821798907756,0.007607850067211343
4676,0.0,299.67851,11018.005,-0.04676001365544258,0.0,0.0,0.0,0.0,-0.007136239224126012,-1.7149340015758086,-0.6900085651785434,-0.9442559552508071,-0.0013852014447587387,0.019157886437236184,0.02560646338616118
4677,0.0,299.22901,11273.177,-0.046769990294910024,0.0,0.0,0.0,0.0,-0.007137761800368542,-1.7241220521575982,-0.7300183868422053,-0.9726238575055011,-0.008742248807467781,-0.002946956754516987,-0.002985918551337217
4678,0.0,299.38698999999997,11157.765,-0.04677999996960758,0.0,0.0,0.0,0.0,-0.007139289418254285,-1.7078252415242283,-0.7074699446818473,-0.9763869265218871,0.006444923574364434,0.0043491062257483655,0.015027450424843884
4679,0.0,299.28185,10888.053,-0.04679000964430491,0.0,0.0,0.0,0.0,-0.007140817036139974,-1.6701554399065086,-0.6898475597376533,-0.949693156612417,0.017652135993630184,0.014034980057894686,0.0006923297185076234
4680,0.0,299.76315,10957.531,-0.046799986283772355,0.0,0.0,0.0,0.0,-0.007142339612382503,-1.6868543081795586,-0.6773718874839003,-0.966589780907484,0.00974258756806853,-0.0024939784337115077,0.026926929903231075
4681,0.0,299.80121,11121.122,-0.04680999595846991,0.0,0.0,0.0,0.0,-0.007143867230268247,-1.7312361824347084,-0.6774154065756953,-0.9718917640432492,-0.02193354931067278,-0.03150087561689437,0.028922333457662073
4682,0.0,300.15522000000004,11124.014,-0.04682000563316746,0.0,0.0,0.0,0.0,-0.007145394848153991,-1.7067254598656882,-0.7142170251102323,-0.9604801665145122,-0.015039158529749385,-0.018171303053367983,-0.0025577365883039478
4683,0.0,300.17982,10945.434,-0.04683001530786479,0.0,0.0,0.0,0.0,-0.007146922466039707,-1.6843037550278384,-0.7055687328567123,-0.9372661912909711,-0.008674487301730241,0.011525490892977388,-0.01020468696362419
4684,0.0,300.19531,10897.491000000002,-0.04683999194733224,0.0,0.0,0.0,0.0,-0.0071484450422822365,-1.6886003407518786,-0.6962479363793214,-0.927716866386026,0.007130824281782563,0.018084381393539482,-0.00873408859778743
4685,0.0,299.69613,11072.191,-0.04685000162202979,0.0,0.0,0.0,0.0,-0.00714997266016798,-1.7070380475215383,-0.7019754845570864,-0.9566559681195931,-0.00023209651685364275,-0.01039170658758159,0.01080921021178599
4686,0.0,299.38315,11175.827,-0.046860011296727344,0.0,0.0,0.0,0.0,-0.007151500278053696,-1.7218348427068682,-0.7084761324286504,-0.96686129140428,0.02137076892688068,-0.008940463325155032,0.015904767957678385
4687,0.0,299.61635,11103.181999999999,-0.04686998793619457,0.0,0.0,0.0,0.0,-0.007153022854296198,-1.7136935808033884,-0.7162497770633494,-0.9451466020887072,0.030000200543039268,0.015073064917845685,0.031375828395553175
4688,0.0,300.0538,10984.107,-0.04687999761089212,0.0,0.0,0.0,0.0,-0.007154550472181942,-1.6885292105948584,-0.6956407969194013,-0.954724358791458,0.01067758699729579,0.009824895089591652,0.02114825109891988
4689,0.0,300.79284,11081.649,-0.046890007285589674,0.0,0.0,0.0,0.0,-0.007156078090067686,-1.7141175246452285,-0.6987913967803413,-0.955635817786412,-0.012929857558077589,-0.009740083320446381,0.0033161801260314966
4690,0.0,300.47829,11250.395,-0.04689998392505701,0.0,0.0,0.0,0.0,-0.007157600666310215,-1.7303049042677983,-0.7205672762694533,-0.968967088557106,-0.021669847932397478,-0.009166782259540972,0.007406004061165692
4691,0.0,299.98391000000004,11184.688,-0.04690999359975434,0.0,0.0,0.0,0.0,-0.007159128284195931,-1.7144506812781086,-0.7107744977629813,-0.974640711564549,-5.1119482821600154e-05,0.010675044752794889,0.004130374609436236
4692,0.0,300.12065,10946.915,-0.046920003274451894,0.0,0.0,0.0,0.0,-0.007160655902081675,-1.7033866994611786,-0.6871381796327584,-0.9370639668360131,0.0013285043261381689,0.0026458362526987074,0.019384563656857482
4693,0.0,300.01134,10991.905,-0.04693001294914945,0.0,0.0,0.0,0.0,-0.007162183519967391,-1.7015264736025881,-0.6917407972845013,-0.9479974116425601,-0.0049944130944101954,0.0044104442324769556,0.010898997342897291
4694,0.0,299.97749,11131.11,-0.04693998958861667,0.0,0.0,0.0,0.0,-0.007163706096209893,-1.7146341808712182,-0.6992709680526713,-0.9696742763319001,0.00048418704196804055,-0.004432222219526276,0.014413272929729286
4695,0.0,299.52305,11181.531,-0.046949999263314224,0.0,0.0,0.0,0.0,-0.007165233714095637,-1.7037438701214285,-0.7338849897538092,-0.9612773612956891,0.006741350904369533,0.028440456028104473,0.0021233391465072583
4696,0.0,299.21578999999997,11072.895,-0.04696000893801178,0.0,0.0,0.0,0.0,-0.0071667613319813805,-1.7023087026797883,-0.7043467836336154,-0.9592280427034371,-0.0008030480635596731,0.006031150534378214,0.011835782524100788
4697,0.0,299.83627,11070.73,-0.04696998557747922,0.0,0.0,0.0,0.0,-0.00716828390822391,-1.7000132859032484,-0.7006203030783403,-0.964591894890308,-0.012453420268306887,-0.013772484447238385,0.026263904634045578
4698,0.0,299.91809,11099.666000000001,-0.046979995252176554,0.0,0.0,0.0,0.0,-0.007169811526109626,-1.7246774145374086,-0.6999141386861474,-0.9494298027789261,-0.02242764248343598,-0.02742758792339218,0.024955937570209273
4699,0.0,299.94672,11128.716999999999,-0.04699000492687433,0.0,0.0,0.0,0.0,-0.007171339143995398,-1.7115158023634585,-0.6975936946321374,-0.9737426376034162,0.00017842276427895584,-0.006416463000255593,0.031608730010538766
4700,0.0,300.25662,11190.973,-0.04700001460157166,0.0,0.0,0.0,0.0,-0.007172866761881086,-1.7027411578224683,-0.7187805414406163,-0.9802544920210862,0.0026496250987976377,-0.005379411858056615,0.012477354248918989
4701,0.0,299.91904,11080.277,-0.047009991241039106,0.0,0.0,0.0,0.0,-0.007174389338123616,-1.7068063172236683,-0.6875357891044993,-0.9737855690101531,0.006928387145628572,0.0026793449401307577,0.006397541365238174
4702,0.0,300.22486000000004,11035.608999999999,-0.04702000091573644,0.0,0.0,0.0,0.0,-0.007175916956009332,-1.7007137456973784,-0.6914424964550613,-0.9623933448233281,-0.0007335443958651953,0.0025361001522935978,-0.02095421674452018
4703,0.0,300.23064,11056.08,-0.04703001059043399,0.0,0.0,0.0,0.0,-0.007177444573895075,-1.7092921236939984,-0.6922749422072174,-0.9592051432511771,-4.704602186233086e-05,0.027457431178587472,0.0008292477220578782
4704,0.0,300.25477,11097.292,-0.04703998722990144,0.0,0.0,0.0,0.0,-0.007178967150137605,-1.7235096437971584,-0.6928193918834503,-0.9569706937331541,-0.016516527838054382,0.010841636241486189,0.008591731417037873
4705,0.0,300.62744,11080.735,-0.04704999690459877,0.0,0.0,0.0,0.0,-0.007180494768023321,-1.7067353897166686,-0.7003933553209423,-0.961137988744434,-0.025452625676478578,0.01082890576722979,0.024410059211335274
4706,0.0,300.48604,11124.331,-0.04706000657929643,0.0,0.0,0.0,0.0,-0.007182022385909093,-1.7104363870319284,-0.7003200365437063,-0.9707623954817891,-0.022155592937586777,-0.006969746393510414,0.03268797106305157
4707,0.0,299.73256000000003,11121.43,-0.047070016253993874,0.0,0.0,0.0,0.0,-0.007183550003794781,-1.7051155067817985,-0.6938657752617203,-0.9816556345243681,-0.005483482370527574,0.004476611085207116,0.027256997136556178
4708,0.0,299.65742,11098.448999999999,-0.04707999289346121,0.0,0.0,0.0,0.0,-0.0071850725800373105,-1.6966326782696084,-0.7086768370084584,-0.968341700462885,3.6143753748110764e-05,-0.0018920273209285582,0.028077895890572573
4709,0.0,299.77214,11216.298999999999,-0.04709000256815865,0.0,0.0,0.0,0.0,-0.0071866001979230265,-1.7298282714207585,-0.7030459123602294,-0.976600762822991,0.007014144581092174,-0.004087545439634326,0.005508087224030885
4710,0.0,299.81039,11209.351999999999,-0.047100012242856315,0.0,0.0,0.0,0.0,-0.007188127815808798,-1.7375285668807183,-0.6995802221156924,-0.9702544329416571,0.016869101382600685,-0.005766670676051084,0.022871401444231578
4711,0.0,300.05557000000005,11020.014,-0.04710998888232354,0.0,0.0,0.0,0.0,-0.0071896503920513,-1.6976133017163884,-0.7030377151669204,-0.9491582010896211,0.00983100934467008,0.003632100260135387,-0.0036898602781108565
4712,0.0,299.96856,10969.348,-0.04711999855702109,0.0,0.0,0.0,0.0,-0.007191178009937044,-1.6917943077170983,-0.6747874512488364,-0.9678260878844981,0.021737049718779777,-0.014753186927526186,0.020244499897476582
4713,0.0,299.94016,11179.671999999999,-0.047130008231718645,0.0,0.0,0.0,0.0,-0.0071927056278227874,-1.7054734880421283,-0.7138316759647013,-0.979036008113331,-0.023148923553870878,-0.018314554326005785,0.0009766238750577722
4714,0.0,300.07621,11214.038,-0.04713998487118609,0.0,0.0,0.0,0.0,-0.007194228204065317,-1.7108152412443185,-0.7031696808599444,-0.9948025545718681,-0.006333469711064794,-0.013075990513999788,0.0007605223013677073
4715,0.0,300.50671,11049.229,-0.04714999454588342,0.0,0.0,0.0,0.0,-0.007195755821951005,-1.7112273300599883,-0.6991870405468883,-0.9482752346874791,-0.02366509038006258,0.0096581774512629,-0.0025390032151551075
4716,0.0,300.07877,11015.822,-0.047160004220580976,0.0,0.0,0.0,0.0,-0.007197283439836749,-1.7089317106334285,-0.7090131144516464,-0.930589957309578,0.003366335296706427,0.014985721745975586,0.007942628508201403
4717,0.0,299.8365,11123.011999999999,-0.04717001389527853,0.0,0.0,0.0,0.0,-0.007198811057722493,-1.7210136035008181,-0.7108803317359264,-0.9492239812861131,-0.001187344097731739,0.006455416893725044,0.017556808410972083
4718,0.0,299.47942,11160.683,-0.04717999053474575,0.0,0.0,0.0,0.0,-0.007200333633964995,-1.7164281401732684,-0.7186670979594203,-0.9574737217452991,0.02208115350574018,0.00991929727093342,0.013583430217080188
4719,0.0,298.89734,11182.187,-0.047190000209443306,0.0,0.0,0.0,0.0,-0.0072018612518507386,-1.7093936513540182,-0.7113625982535223,-0.9783493285205611,0.009489204014236521,0.0003152588262936237,0.022375522924792182
4720,0.0,299.56534,11194.37,-0.04720000988414086,0.0,0.0,0.0,0.0,-0.007203388869736482,-1.7142238145807185,-0.7123010198336374,-0.9762843146842601,0.016025541290097787,-0.018321133358905083,0.015019745671083487
4721,0.0,299.93442000000005,11134.383999999998,-0.047209986523608194,0.0,0.0,0.0,0.0,-0.007204911445979012,-1.7292581155894884,-0.7039025545247733,-0.9514139795222492,-0.006539648779838083,-0.016579919804060685,0.011516706014610387
4722,0.0,299.4858,11233.419,-0.047219996198305636,0.0,0.0,0.0,0.0,-0.0072064390638647,-1.7512151439314785,-0.7053258973377463,-0.9581376538733242,-0.008319965682541682,-0.008601861688887652,0.003726398380691887
4723,0.0,300.41573,11319.19,-0.04723000587300308,0.0,0.0,0.0,0.0,-0.007207966681750444,-1.7552882066834585,-0.7049325941789304,-0.980530359493312,-0.013340452843100188,0.01050124398964209,0.01833941340395918
4724,0.0,300.27095,11029.551000000001,-0.04724001554770063,0.0,0.0,0.0,0.0,-0.007209494299636188,-1.7150396835612383,-0.6931826521768013,-0.9444857705059881,-0.013550716424351588,0.007946941508577061,0.005189172327931435
4725,0.0,300.48832999999996,11029.322,-0.04724999218716808,0.0,0.0,0.0,0.0,-0.007211016875878717,-1.6966377445201086,-0.6920719882121873,-0.9639286619048522,-0.003193774447700997,-0.0029264696480950673,0.015919414487873887
4726,0.0,301.01029,11272.562,-0.04726000186186541,0.0,0.0,0.0,0.0,-0.007212544493764433,-1.7266066427278086,-0.7297841639490894,-0.9701865147874542,0.0038234112009163062,-0.013880346946883587,-0.0034229138650652964
4727,0.0,300.21875,11311.153999999999,-0.04727001153656296,0.0,0.0,0.0,0.0,-0.007214072111650177,-1.7385446540809981,-0.7284079879282713,-0.971355633150337,0.0051515159012150355,-0.0078093558238734135,0.009408627934484281
4728,0.0,299.31288,11215.606000000002,-0.04727998817603041,0.0,0.0,0.0,0.0,-0.007215594687892707,-1.7384637967230183,-0.7203184119123923,-0.9504818299602531,0.003112409654070917,-0.013023291376298787,0.008926488579775831
4729,0.0,299.57901,11248.378,-0.04728999785072774,0.0,0.0,0.0,0.0,-0.007217122305778395,-1.7191031204372682,-0.7453348172088192,-0.9547881732827561,0.011374516628077388,-0.009577757918651111,0.028790380936889372
4730,0.0,299.74006,11195.483999999999,-0.04730000752542529,0.0,0.0,0.0,0.0,-0.007218649923664139,-1.7385611700576282,-0.7096338517279083,-0.9549526947014931,0.004359939591842535,-0.006142189877061944,0.014630358723903987
4731,0.0,300.33038999999997,11247.645,-0.04730998416489274,0.0,0.0,0.0,0.0,-0.0072201724999066685,-1.7027381180721683,-0.7186122405990063,-0.9976527663081621,0.0027288522386917473,-0.004244559688380426,0.016937738944374683
4732,0.0,300.67416000000003,11242.438,-0.04731999383959029,0.0,0.0,0.0,0.0,-0.007221700117792412,-1.7382238590993382,-0.7017085640832433,-0.9774880659355611,-0.012267540550711989,-0.001877529535847738,0.011939469420083887
4733,0.0,300.1682,11165.558,-0.04733000351428762,0.0,0.0,0.0,0.0,-0.007223227735678128,-1.7224827148208086,-0.7003153857257474,-0.971252737602682,0.007002571947725043,0.0073166041942426124,0.015695385904013984
4734,0.0,300.72348,11163.312,-0.047340013188985175,0.0,0.0,0.0,0.0,-0.007224755353563872,-1.7370877017622084,-0.7098977628489543,-0.9463825544281861,0.0017618968264856783,0.025572712025330176,-0.008879551998043553
4735,0.0,301.03378,11280.329,-0.04734998982845262,0.0,0.0,0.0,0.0,-0.007226277929806402,-1.7472029775105082,-0.7065343602020123,-0.975200876749833,0.007477614600058103,0.027086648516494075,0.014941207642582385
4736,0.0,300.75397000000004,11311.323,-0.047359999503150174,0.0,0.0,0.0,0.0,-0.007227805547692118,-1.7526348086465884,-0.7109183894096823,-0.9748066110034221,-0.03027406076681717,0.004050586331636746,0.019417327098840982
4737,0.0,300.78218,11197.878999999999,-0.047370009177847505,0.0,0.0,0.0,0.0,-0.007229333165577834,-1.7026015319586882,-0.7226914132490894,-0.9785826800185912,-0.023896339384135077,-0.014323325705102186,0.019128377554573882
4738,0.0,299.91391,11201.808,-0.04737998581731506,0.0,0.0,0.0,0.0,-0.007230855741820391,-1.7274902981400184,-0.7086599663942933,-0.9689197697774362,-0.016635931256338585,-0.01892657562490758,0.017184184673446984
4739,0.0,299.83835,11257.575,-0.04738999549201239,0.0,0.0,0.0,0.0,-0.007232383359706107,-1.7332363381321083,-0.7173775345571504,-0.9714078763254931,0.01754548331460438,-0.0016463462917067286,0.018178697752597783
4740,0.0,300.08341,11241.85,-0.047400005166709835,0.0,0.0,0.0,0.0,-0.007233910977591823,-1.732840967943088,-0.7167731511375023,-0.967627683382417,0.01025467768380789,-0.012106562467574687,0.016417618416292783
4741,0.0,300.23677000000004,11189.931,-0.04741001484140739,0.0,0.0,0.0,0.0,-0.007235438595477539,-1.737749962027568,-0.6931548789915604,-0.97055458801878,0.009500231721699871,-0.006714044422124594,0.01845521066513748
4742,0.0,299.93401,11192.135,-0.047419991480874724,0.0,0.0,0.0,0.0,-0.0072369611717200966,-1.7217448660979882,-0.7099635633104483,-0.970421264570622,0.006376438912030524,0.006210859254889084,0.012758606132176387
4743,0.0,299.61685,11184.737,-0.04743000115557228,0.0,0.0,0.0,0.0,-0.0072384887896058125,-1.7176529568941485,-0.6946205756587134,-0.9876071515042371,0.0025489208058088976,0.015651788791961288,0.01117792483042529
4744,0.0,299.99237,11302.782,-0.04744001083026961,0.0,0.0,0.0,0.0,-0.0072400164074915285,-1.7409636873697383,-0.7123804383764754,-0.9824193211247382,-0.016753992118240284,-0.004376002240377795,0.0014388979245331687
4745,0.0,300.24832999999995,11428.844,-0.047449987469737276,0.0,0.0,0.0,0.0,-0.007241538983734086,-1.7594681673209882,-0.7358233979901153,-0.978791571659207,-0.02859095305220737,-0.024720140086437876,0.0010435860987189289
4746,0.0,300.06505,11205.978000000001,-0.04745999714443461,0.0,0.0,0.0,0.0,-0.007243066601619802,-1.7308155823181983,-0.7127424219747003,-0.9627795349664421,-0.003300131966972667,-0.0008258307995406542,0.003121950720987547
4747,0.0,300.36907,11055.685,-0.04747000681913216,0.0,0.0,0.0,0.0,-0.007244594219505546,-1.7186339856409683,-0.7059113532455263,-0.936106962249064,0.003286112841239087,0.016086264355340687,0.011365696285956888
4748,0.0,300.16857999999996,11195.108999999999,-0.04748001649382949,0.0,0.0,0.0,0.0,-0.007246121837391234,-1.7186102755886286,-0.7048392535797183,-0.979584115622425,0.01055929815412159,0.01124074937637559,0.024639447888224177
4749,0.0,300.68359,11329.35,-0.04748999313329716,0.0,0.0,0.0,0.0,-0.007247644413633819,-1.7382246696994184,-0.7115058414201593,-0.994108934215913,-0.018126400875186483,-0.012694178624567887,0.025367922021118976
4750,0.0,300.32406000000003,11296.002,-0.04750000280799449,0.0,0.0,0.0,0.0,-0.007249172031519507,-1.7367854492573784,-0.7270552281172643,-0.9698618289254101,-0.0005992202213784313,0.002522493622000737,0.006709070580033713
4751,0.0,299.55205,11264.194,-0.04751001248269182,0.0,0.0,0.0,0.0,-0.007250699649405223,-1.7447632739197285,-0.7054937219518093,-0.9737768145292891,0.01081790896389449,-0.005197094829138325,0.017000470271315783
4752,0.0,299.77544,11314.798999999999,-0.04751998912215938,0.0,0.0,0.0,0.0,-0.007252222225647781,-1.7550357047585383,-0.7102127417750403,-0.974168050657901,0.012871442676562487,0.0018357511063995283,0.014133508497618685
4753,0.0,300.40686,11334.123,-0.04752999879685682,0.0,0.0,0.0,0.0,-0.007253749843533497,-1.7546891732243382,-0.7013919943545003,-0.989209262032353,-0.012467373735433988,-0.014313231707605987,0.008825003273610011
4754,0.0,299.83397,11379.388,-0.047540008471554374,0.0,0.0,0.0,0.0,-0.007255277461419241,-1.7437260097923584,-0.7210528459823754,-0.994270861714394,-0.013223499463557789,0.01320948418817459,0.005260576670428495
4755,0.0,300.37642999999997,11257.627,-0.04754998511102171,0.0,0.0,0.0,0.0,-0.00725680003766177,-1.7336066810436586,-0.7049872488893243,-0.98344343326581,-0.024134890881678275,0.011453042497577288,0.006730245581948523
4756,0.0,299.99885,11095.671999999999,-0.04755999478571926,0.0,0.0,0.0,0.0,-0.007258327655547514,-1.7313531114962484,-0.6901690031993774,-0.951285043447024,-0.002001972454829298,0.012844017036105788,0.013234281457871887
4757,0.0,300.02103999999997,11140.186000000002,-0.04757000446041659,0.0,0.0,0.0,0.0,-0.007259855273433202,-1.7182258485006883,-0.7017746178572624,-0.966337826137618,-0.0006120804524426374,-0.012467008965397989,0.005370289466081306
4758,0.0,300.86258,11411.785,-0.047580014135114146,0.0,0.0,0.0,0.0,-0.007261382891318946,-1.7574846289252284,-0.7447471220183183,-0.9666660583750121,0.00855899442088198,0.015946075124505087,0.01156625597100059
4759,0.0,300.52452,11279.743999999999,-0.04758999077458159,0.0,0.0,0.0,0.0,-0.007262905467561476,-1.7247951541990285,-0.7098440605936543,-0.994121275602131,-8.735852868861551e-05,0.01020438805484469,0.03104802881595187
4760,0.0,300.69446,11061.115,-0.047600000449279145,0.0,0.0,0.0,0.0,-0.0072644330854472194,-1.7148267997152284,-0.7088973810252244,-0.9385786845430041,-0.00927457697275448,0.00947457724241797,0.014469412051519788
4761,0.0,301.04975,11318.755,-0.047610010123976476,0.0,0.0,0.0,0.0,-0.007265960703332935,-1.7186524267927883,-0.7228761591398223,-0.9990902946225351,-0.013438357120762587,-0.013511081120189887,0.021878896626778978
4762,0.0,300.00552999999996,11509.196000000002,-0.047619986763444144,0.0,0.0,0.0,0.0,-0.007267483279575493,-1.7666146202762885,-0.7324534092175233,-0.99944022054457,0.0016564539680792784,0.007101642780227573,-0.006561234958643473
4763,0.0,300.2554,11457.145,-0.047629996438141475,0.0,0.0,0.0,0.0,-0.007269010897461209,-1.7385014896267383,-0.7467353314970393,-0.997449113170563,0.017310676789430785,-0.003440096357611077,-0.0015622553486825984
4764,0.0,300.18928,11107.036,-0.047640006112838806,0.0,0.0,0.0,0.0,-0.007270538515346897,-1.7358757533175981,-0.6780480698056344,-0.9623376363328301,0.012026101290383789,-0.005113514665489605,0.013819359423364586
4765,0.0,299.80991,11040.638,-0.04765001578753636,0.0,0.0,0.0,0.0,-0.007272066133232641,-1.7109628717838883,-0.6825655440514744,-0.962549942626283,0.007944305943741953,-0.014901584497421884,0.02057643759048628
4766,0.0,299.69947,11280.748,-0.047659992427003806,0.0,0.0,0.0,0.0,-0.0072735887094751706,-1.7517702023362582,-0.7120369465925753,-0.965258714781118,0.002985117678458177,0.00039356059526890664,0.007128889683366633
4767,0.0,299.85271,11379.889,-0.04767000210170136,0.0,0.0,0.0,0.0,-0.007275116327360914,-1.7562295160263586,-0.7146746088553924,-0.9882978942299081,0.0008112026497019682,0.009016984276682061,0.021375658871863278
4768,0.0,299.87993,11283.753,-0.04768001177639869,0.0,0.0,0.0,0.0,-0.00727664394524663,-1.7496887839808382,-0.7305948045590933,-0.949695588412657,-0.038423599910364065,0.006537089006110454,0.008739192237216122
4769,0.0,301.02553,11254.659,-0.04768998841586625,0.0,0.0,0.0,0.0,-0.007278166521489188,-1.7272665725179381,-0.7175437379710533,-0.9763251283982881,-0.0025077571151963574,-0.01033788071576939,0.016152771052154385
4770,0.0,300.31084,11324.423,-0.04769999809056358,0.0,0.0,0.0,0.0,-0.007279694139374904,-1.7450735311003482,-0.7297274624734933,-0.96754087824635,-0.0019022221368097082,0.01083755790983369,0.016233143063336484
4771,0.0,299.74721,11476.821000000002,-0.04771000776526113,0.0,0.0,0.0,0.0,-0.00728122175726062,-1.7458258692995983,-0.7292351141174024,-1.013605953435119,0.018734550545456183,0.005763572258570295,0.025097713550701478
4772,0.0,300.03702999999996,11461.565,-0.04771998440472858,0.0,0.0,0.0,0.0,-0.007282744333503149,-1.7565094770289882,-0.7197513160964243,-1.0077686094765181,0.0011813892268940386,-0.0073722002139795136,0.030389984684257968
4773,0.0,300.54037,11193.739,-0.04772999407942613,0.0,0.0,0.0,0.0,-0.007284271951388893,-1.7203787009881586,-0.7136093486277593,-0.9686292709737662,0.012065981801069688,-0.009440913933020663,0.0072015907833416735
4774,0.0,299.66857999999996,11161.905,-0.04774000375412346,0.0,0.0,0.0,0.0,-0.007285799569274609,-1.7248747956568882,-0.7017707168443773,-0.966294752875867,0.025453416011556578,-0.0008647841255900481,0.00016658304831796686
4775,0.0,299.54382000000004,11396.364,-0.04775001342882079,0.0,0.0,0.0,0.0,-0.007287327187160325,-1.7517863130128484,-0.7147249775178633,-0.997698828657708,0.03500877786059736,-0.004074509875772817,0.001923078876868108
4776,0.0,299.14792,11389.94,-0.04775999006828846,0.0,0.0,0.0,0.0,-0.007288849763402883,-1.7657146515374682,-0.7152005971148033,-0.981342033618418,-0.01129532910626219,-0.015875603580050086,0.016864962255942185
4777,0.0,299.57398,11310.431999999999,-0.04776999974298579,0.0,0.0,0.0,0.0,-0.007290377381288599,-1.7382566884025785,-0.7021610410478993,-0.9976710554724671,-0.016726296953256985,-0.029413635126399766,0.015755105851657885
4778,0.0,300.05604,11287.575,-0.047780009417683345,0.0,0.0,0.0,0.0,-0.0072919049991743146,-1.7486146375498284,-0.7090135704141913,-0.973512751420728,-0.022513422210401774,0.008141772378880372,0.017671008789992785
4779,0.0,299.75491,11422.93,-0.04778998605715079,0.0,0.0,0.0,0.0,-0.007293427575416844,-1.7491601714036682,-0.7389511693263022,-0.984174108177922,-0.0037271473751658065,0.032517722754749366,0.006864520775925453
4780,0.0,300.08801,11496.038,-0.047799995731848344,0.0,0.0,0.0,0.0,-0.007294955193302588,-1.7692839263397284,-0.7245271691177643,-1.000697299148634,-0.009351440909440362,0.02019616077495588,0.026934658974993874
4781,0.0,300.34944,11311.073,-0.047810005406545675,0.0,0.0,0.0,0.0,-0.007296482811188304,-1.7399437498190782,-0.7215299246594593,-0.9768102218836632,-0.006468337149725174,0.007570886602238333,0.001069288606055569
4782,0.0,300.95059,11153.53,-0.04782001508124323,0.0,0.0,0.0,0.0,-0.007298010429074048,-1.7328085439398881,-0.6898853539663833,-0.967700556329609,0.02022191353949748,0.0070265027872618326,0.028122705862994975
4783,0.0,300.2593,11163.528999999999,-0.047829991720710674,0.0,0.0,0.0,0.0,-0.0072995330053165774,-1.7043954912607384,-0.6952232365531913,-0.993815304469434,0.03115403605466397,0.001013892500563399,0.008717325489458042
4784,0.0,299.92683999999997,11515.528999999999,-0.047840001395408116,0.0,0.0,0.0,0.0,-0.007301060623202321,-1.7620651273272883,-0.7284851165258833,-1.009883039520196,0.004524380659846606,-0.03523218126914557,0.036795605908443565
4785,0.0,299.41217,11588.532,-0.04785001107010556,0.0,0.0,0.0,0.0,-0.007302588241088009,-1.7654958908408782,-0.7249357318230862,-1.0321927092944891,-0.014091677480490285,-0.02856937487807777,0.004805594140925215
4786,0.0,299.52251,11430.011,-0.04785998770957289,0.0,0.0,0.0,0.0,-0.007304110817330539,-1.7624792426431586,-0.7324262541148433,-0.9795325107948321,-0.01007699211977169,0.007936989670069892,0.005776226333769155
4787,0.0,299.83394,11290.548,-0.047869997384270446,0.0,0.0,0.0,0.0,-0.007305638435216283,-1.7620971460304482,-0.7009154932299734,-0.9690319568285081,0.0027498894385929577,0.030816069523559267,0.001962686215327048
4788,0.0,300.33387999999997,11387.889,-0.04788000705896789,0.0,0.0,0.0,0.0,-0.007307166053101999,-1.7856117424261584,-0.7066310141290514,-0.9693909614714391,0.01088763576952599,0.007290147828831572,0.030991860309908473
4789,0.0,300.25752,11406.23,-0.04788998369843522,0.0,0.0,0.0,0.0,-0.0073086886293445286,-1.7499375368803884,-0.7245676281942574,-0.9927040224222591,-0.009046280174173341,-0.017911117652939682,0.024295964210324976
4790,0.0,300.86368,11386.755,-0.047899993373132776,0.0,0.0,0.0,0.0,-0.007310216247230272,-1.7708513229194183,-0.7044431538506264,-0.9859946956926,0.0058620895525431935,0.001790918133199858,0.028398652368728773
4791,0.0,300.89308,11329.158000000001,-0.04791000304783033,0.0,0.0,0.0,0.0,-0.007311743865116016,-1.7180678828100981,-0.7324436718840622,-0.993269709820588,-0.0031463085441164767,0.008482367686044512,0.01083006188559389
4792,0.0,300.89808,11364.75,-0.04792001272252766,0.0,0.0,0.0,0.0,-0.007313271483001704,-1.7542344265794583,-0.7215568163171133,-0.9788090299584301,0.007209243152071903,-0.005453308897124684,0.008823187833405842
4793,0.0,300.17534,11507.01,-0.04792998936199511,0.0,0.0,0.0,0.0,-0.007314794059244234,-1.7615113861476381,-0.7456561796105353,-0.9906761138046202,-0.005902188621275665,-0.012099054284333688,0.007107912670521363
4794,0.0,299.86567,11519.98,-0.04793999903669266,0.0,0.0,0.0,0.0,-0.007316321677129978,-1.7866176971254382,-0.7257898408623803,-0.9893787179790772,0.01235660118150159,0.011898067007747789,0.013309082620004185
4795,0.0,299.75833,11423.688,-0.04795000871139021,0.0,0.0,0.0,0.0,-0.0073178492950157215,-1.7467766018684283,-0.7253002890765653,-1.0004391230231542,0.0098702800814458,0.0047316327604757956,0.00983176989019514
4796,0.0,299.93945,11260.937,-0.04795998535085744,0.0,0.0,0.0,0.0,-0.007319371871258223,-1.7481027435993084,-0.7070218854876273,-0.9679189117261591,-0.0036736558758866064,-0.013068158090726787,0.030182704111300973
4797,0.0,300.25525,11378.21,-0.0479699950255551,0.0,0.0,0.0,0.0,-0.007320899489143995,-1.7313747950483884,-0.7335303116888053,-0.9937867510816161,-0.007678523045786222,-0.005312085948537065,-0.0027777176433143877
4798,0.0,300.59005,11477.628999999999,-0.04798000470025254,0.0,0.0,0.0,0.0,-0.007322427107029711,-1.7825372376477284,-0.7221506619357213,-0.9842246085629061,0.004443131579377946,0.013422400458187787,0.016858632482567484
4799,0.0,300.22378,11337.829,-0.047990014374949874,0.0,0.0,0.0,0.0,-0.007323954724915399,-1.7585872476840483,-0.7173772204496193,-0.970452432143698,0.0005833075845204764,0.025525967758466873,0.0014608230354970087
4800,0.0,299.55839,11279.761,-0.04799999101441732,0.0,0.0,0.0,0.0,-0.007325477301157929,-1.7573052836575285,-0.7073865339336154,-0.9640737795841741,-0.018316783476225784,-0.018197890735991984,0.014646252564972588
4801,0.0,299.99137,11421.558,-0.04801000068911487,0.0,0.0,0.0,0.0,-0.007327004919043673,-1.7514898360335884,-0.7163185868776404,-1.0040600431830111,-0.01002715308312796,-0.027264235795270576,0.02105311704703088
4802,0.0,299.51988,11467.383999999998,-0.048020010363812315,0.0,0.0,0.0,0.0,-0.007328532536929416,-1.769130013649538,-0.7310247671065273,-0.9856437159904611,0.002123750931347898,-0.012403731496652989,0.01947879084990698
4803,0.0,299.39997999999997,11446.062,-0.04802998700327954,0.0,0.0,0.0,0.0,-0.007330055113171918,-1.7445699458006483,-0.7235299790318493,-1.011216973144345,0.01774860956215138,-0.0015962681280393984,0.015476435729655286
4804,0.0,299.71156,11306.066,-0.048039996677977315,0.0,0.0,0.0,0.0,-0.00733158273105769,-1.7559637405251283,-0.7157337085224172,-0.965064383544439,0.005873690658238135,-0.012381531186961989,0.0061849491326069535
4805,0.0,299.82126,11256.241000000002,-0.048050006352674646,0.0,0.0,0.0,0.0,-0.007333110348943406,-1.7376277640655082,-0.7162548027838453,-0.9677335376203641,0.007912548557782742,0.0024720418730215378,0.01034571111254219
4806,0.0,300.23732,11411.514,-0.0480600160273722,0.0,0.0,0.0,0.0,-0.007334637966829122,-1.773081689039538,-0.7136008373269193,-0.98213279426146,0.016285536199507285,0.02924468783122597,0.0002945669926889987
4807,0.0,300.19581,11517.683,-0.04806999266683942,0.0,0.0,0.0,0.0,-0.007336160543071624,-1.7702816737131983,-0.7379200860245423,-0.992886255452744,-0.006581985814066425,0.027286962995013573,0.021418945929385376
4808,0.0,300.22014,11385.47,-0.0480800023415372,0.0,0.0,0.0,0.0,-0.007337688160957395,-1.7651631395080383,-0.7088570435387433,-0.9868785030923249,-0.031693138810119266,-0.013529627650020287,0.017780071991006483
4809,0.0,300.14542,11359.593,-0.04809001201623453,0.0,0.0,0.0,0.0,-0.007339215778843111,-1.7351334462943382,-0.7235578636746014,-0.9943413535238511,-0.021117577991892678,-0.018471381123483382,0.003357478781557357
4810,0.0,300.15747999999996,11438.671,-0.048099988655701975,0.0,0.0,0.0,0.0,-0.007340738355085641,-1.7783698413114384,-0.7323325487455953,-0.9663679500630911,0.011000000139365489,0.0037293215059053765,-0.001007716710806396
4811,0.0,300.4845,11515.546,-0.04810999833039953,0.0,0.0,0.0,0.0,-0.007342265972971385,-1.7746154457159082,-0.7160193741231103,-1.009803661507362,0.03258875563975976,0.015677020745951484,0.0005652221848105864
4812,0.0,299.92577,11466.908000000001,-0.04812000800509686,0.0,0.0,0.0,0.0,-0.007343793590857101,-1.7724518527773785,-0.7260673295347663,-0.987134571657597,-0.007049492621430753,-0.014907907178045883,0.016416955750727383
4813,0.0,299.4615,11302.668,-0.048129984644564305,0.0,0.0,0.0,0.0,-0.00734531616709963,-1.7397550826504586,-0.7205159146218844,-0.9754579180352012,0.00012503783864527387,0.0005109575250425816,0.00877056955306282
4814,0.0,299.36778,11378.393999999998,-0.04813999431926186,0.0,0.0,0.0,0.0,-0.007346843784985346,-1.7647653375187784,-0.7165490506128853,-0.977433147780141,-0.005354525219700495,0.015422188345801486,0.02838625626700537
4815,0.0,299.18567,11407.72,-0.04815000399395941,0.0,0.0,0.0,0.0,-0.00734837140287109,-1.7469601014615381,-0.7268961985140693,-0.9938058407135,0.012799289136941488,0.023446813003770276,-0.0048953742806108255
4816,0.0,299.39423999999997,11505.716999999999,-0.04816001366865674,0.0,0.0,0.0,0.0,-0.007349899020756806,-1.7844294822094784,-0.7205854235787443,-0.992435886048296,-0.013382886744038088,-0.014941113410323087,0.029515562006959175
4817,0.0,300.13734,11499.828000000001,-0.04816999030812408,0.0,0.0,0.0,0.0,-0.007351421596999336,-1.7498772484994383,-0.7421751183619812,-1.0036082146984189,-0.02206166364006668,-0.015220382363134785,-0.0038384392197744564
4818,0.0,300.14812,11462.21,-0.04817999998282163,0.0,0.0,0.0,0.0,-0.0073529492148850795,-1.7731717669734284,-0.7228493586746774,-0.9882044421731851,0.0030029136939395073,0.002176184901497728,0.025889577623102372
4819,0.0,300.26698999999996,11460.945,-0.048190009657519184,0.0,0.0,0.0,0.0,-0.007354476832770823,-1.7790823587817584,-0.7096604495430333,-0.995098312143557,0.005319570827025766,0.013245697746748587,0.018023384750769582
4820,0.0,300.16902000000005,11511.82,-0.04819998629698641,0.0,0.0,0.0,0.0,-0.007355999409013325,-1.7826185003057484,-0.7271296412046083,-0.9895576883442401,0.008004326117390482,-0.0009652837825885922,0.028355414960461574
4821,0.0,300.21362,11484.636999999999,-0.04820999597168396,0.0,0.0,0.0,0.0,-0.007357527026899041,-1.7605073566235483,-0.7258561378164233,-1.004679361909133,-0.01684314698128918,-0.016207052886511586,-0.0014744812415449686
4822,0.0,299.73179,11465.321000000002,-0.048220005646381514,0.0,0.0,0.0,0.0,-0.007359054644784785,-1.7630257897470982,-0.7331298651167844,-0.989015660335746,0.010961263588042489,0.004959465186536106,0.0013554352978960486
4823,0.0,299.54921,11496.543,-0.048230015321078845,0.0,0.0,0.0,0.0,-0.007360582262670501,-1.7582771931534484,-0.7404919984883702,-0.995892821811969,-0.003995598464609866,0.002312025566879158,-0.0018080543202160684
4824,0.0,299.97808,11456.401000000002,-0.04823999196054629,0.0,0.0,0.0,0.0,-0.007362104838913031,-1.7721928660518185,-0.7125356074967893,-0.9977313337209162,0.006117741874674114,-0.02053275435217508,0.016231324279406985
4825,0.0,299.78521,11408.451000000001,-0.048250001635243844,0.0,0.0,0.0,0.0,-0.007363632456798774,-1.7634863119175483,-0.7327030943071653,-0.9716947983563101,-0.016658640217579786,-0.004388934554054116,0.011860856411075387
4826,0.0,299.80576,11376.958,-0.0482600113099414,0.0,0.0,0.0,0.0,-0.007365160074684518,-1.7566545744433084,-0.7157366976102123,-0.9859198063777092,0.014627216635343885,0.02210584945042748,0.01199181797325029
4827,0.0,300.41655,11396.298999999999,-0.04826998794940862,0.0,0.0,0.0,0.0,-0.00736668265092702,-1.7634445660134284,-0.7108943551173104,-0.9898514903432362,0.01915238448919318,0.01807556105141898,0.02341124083250958
4828,0.0,300.97446,11536.492,-0.048279997624106175,0.0,0.0,0.0,0.0,-0.007368210268812736,-1.7852317736386585,-0.7314806891215233,-0.9900931606245871,0.004989067794832655,-0.021900388674650082,0.013324325954508588
4829,0.0,300.22392,11682.021999999999,-0.04829000729880373,0.0,0.0,0.0,0.0,-0.00736973788669848,-1.7726430530712483,-0.7474332480334184,-1.030966777998499,-0.008259707699094681,-0.024555887178977377,0.011461937820205189
4830,0.0,299.94606,11685.128999999999,-0.04829998393827106,0.0,0.0,0.0,0.0,-0.0073712604629410095,-1.8034962146412181,-0.7410715370155663,-1.007419696804583,0.004711837602547166,-0.006530113387122014,0.01882150462928788
4831,0.0,300.23467999999997,11575.595,-0.048309993612968505,0.0,0.0,0.0,0.0,-0.007372788080826725,-1.7784497867443283,-0.7368879185451753,-1.003354243560854,-0.02068698925589688,0.027557308254194578,0.012672615649189789
4832,0.0,299.72857,11395.94,-0.04832000328766606,0.0,0.0,0.0,0.0,-0.007374315698712469,-1.7896191465716584,-0.6965363782852884,-0.9779256075937431,-0.012030336675801789,-0.003309005200748387,0.023448794920965875
4833,0.0,299.89867000000004,11432.653999999999,-0.04833001296236361,0.0,0.0,0.0,0.0,-0.007375843316598185,-1.7625059924457984,-0.7267637768585002,-0.98597159359032,-0.02529908890207568,-0.005068569018878815,0.011344816241146189
4834,0.0,300.31266,11423.345,-0.048339989601830946,0.0,0.0,0.0,0.0,-0.007377365892840743,-1.7562702486803783,-0.7306621856907434,-0.9854792452342291,0.014080335158870886,0.01304147921559379,0.004722505910200045
4835,0.0,299.45923999999997,11391.003,-0.04834999927652828,0.0,0.0,0.0,0.0,-0.007378893510726431,-1.7380320508554084,-0.7282890931615373,-0.9962592839756361,0.00964837719497069,0.002873778515069857,0.004913110210361225
4836,0.0,299.70825,11479.376,-0.04836000895122583,0.0,0.0,0.0,0.0,-0.007380421128612175,-1.7810366142496283,-0.7264319475832514,-0.981974940028381,0.016250595283058885,-0.01794868592689738,0.017725803328900586
4837,0.0,299.48208999999997,11530.274,-0.048369985590693276,0.0,0.0,0.0,0.0,-0.007381943704854704,-1.772047262012448,-0.7262329047336074,-1.0066352183121612,0.01033365242310209,-0.01164837685185529,0.02170112797623458
4838,0.0,298.39387999999997,11502.267,-0.04837999526539061,0.0,0.0,0.0,0.0,-0.00738347132274042,-1.7797439097720484,-0.7353360550895183,-0.9813218496764261,0.017347079825773482,0.020083457979582983,0.007845319717622772
4839,0.0,298.92008,11659.954,-0.04839000494008816,0.0,0.0,0.0,0.0,-0.007384998940626164,-1.7936424587437283,-0.7436193746570183,-1.00707303354787,-0.0014895412791062785,0.02428286896603258,0.031244668236358672
4840,0.0,299.6062,11644.591999999999,-0.048400014614785714,0.0,0.0,0.0,0.0,-0.00738652655851188,-1.7964120765670681,-0.7168065174632953,-1.026446770627409,-0.026698851358721472,-0.02306545403713308,0.014925066568489385
4841,0.0,299.75186,11462.406,-0.04840999125425316,0.0,0.0,0.0,0.0,-0.0073880491347544375,-1.7552941848590482,-0.7316194638552193,-0.997371700862923,-0.016567162985301684,-0.016875192028951786,0.014334757192730386
4842,0.0,300.19318,11419.322,-0.04842000092895049,0.0,0.0,0.0,0.0,-0.007389576752640126,-1.7876868786309585,-0.7089066623961403,-0.9745951457075521,0.007277462444204623,-0.0007270952818937172,0.007735915253975394
4843,0.0,299.61508,11453.461000000001,-0.048430010603648044,0.0,0.0,0.0,0.0,-0.0073911043705258694,-1.7679100605291385,-0.7138260422941454,-0.9998301394480521,0.016518274681226786,0.02363387721073208,0.023462500141818478
4844,0.0,299.59744,11401.197,-0.04843998724311549,0.0,0.0,0.0,0.0,-0.007392626946768399,-1.7867454679630483,-0.7190330737630394,-0.959900536794807,-0.012747126008543387,-0.008512168992685674,0.012041333479137089
4845,0.0,300.28533,11460.418,-0.04844999691781304,0.0,0.0,0.0,0.0,-0.007394154564654143,-1.7627631553211784,-0.7134355863681103,-1.0074822447332559,-0.0018610859052748785,0.009434957440982803,0.016234215081942286
4846,0.0,300.2406,11662.771,-0.048460006592510374,0.0,0.0,0.0,0.0,-0.007395682182539859,-1.7771048998865984,-0.7613108429930303,-1.0067753508009911,0.0044178524079330865,0.004034898079013437,0.012567520335567687
4847,0.0,300.41573,11626.018,-0.04847001626720793,0.0,0.0,0.0,0.0,-0.007397209800425575,-1.7680700527199285,-0.7499007957369462,-1.016048190151149,0.014925886287820286,-0.004396002378801655,0.0026749143014184874
4848,0.0,300.21971,11584.923999999999,-0.04847999290667537,0.0,0.0,0.0,0.0,-0.007398732376668132,-1.7886638543773785,-0.7235411551804523,-1.00932265141989,-0.0065756746844935635,-0.03206698351401487,0.022450418319183776
4849,0.0,299.7334,11560.073,-0.048490002581372704,0.0,0.0,0.0,0.0,-0.0074002599945538206,-1.7773296387587785,-0.7321870156337323,-1.004456740729662,0.005253959741975456,-0.008978450476704071,0.008683188992264031
4850,0.0,299.59712,11544.485,-0.04850001225607026,0.0,0.0,0.0,0.0,-0.007401787612439564,-1.7962651553025681,-0.7120000237589313,-1.0009699647505441,0.002056023065513678,0.013686755382777588,0.04012698377272496
4851,0.0,299.83709,11538.903999999999,-0.04850998889553759,0.0,0.0,0.0,0.0,-0.007403310188682094,-1.7802481030218082,-0.7252961854136604,-1.0019943606016442,-0.0024196476222756278,0.019359429988126984,0.012864794742656387
4852,0.0,299.23254,11622.35,-0.048519998570235146,0.0,0.0,0.0,0.0,-0.007404837806567838,-1.7836649850090285,-0.7250019882471253,-1.024237378784359,-0.018436333815774482,-0.015366948990099787,0.025804710834476677
4853,0.0,299.4575,11633.444,-0.04853000824493259,0.0,0.0,0.0,0.0,-0.007406365424453554,-1.7972886392285783,-0.7213890626305574,-1.0175986654541689,-0.004920992586864155,-0.013673395680209087,0.00901750569518352
4854,0.0,300.21759,11537.671,-0.048539984884400145,0.0,0.0,0.0,0.0,-0.007407888000696111,-1.7662554231158383,-0.7396315566359513,-1.001276868073333,0.00949620891615285,0.009485799696550543,0.005339453631088045
4855,0.0,300.47474,11491.11,-0.048549994559097476,0.0,0.0,0.0,0.0,-0.007409415618581827,-1.7720786727655484,-0.7162940155627153,-1.004637737595025,0.006377605466870655,-0.01246760272995659,0.015916907707126483
4856,0.0,300.14317,11632.955,-0.04856000423379503,0.0,0.0,0.0,0.0,-0.007410943236467543,-1.7991470412369883,-0.7286388265660534,-1.008342007708108,-0.001193561299020329,-0.012015483442585887,0.030533028240625266
4857,0.0,300.58193,11603.788,-0.04857001390849236,0.0,0.0,0.0,0.0,-0.007412470854353259,-1.7884361770799084,-0.7279335538339483,-1.01089207449978,-0.005435247308792145,0.008834365603209002,0.014927833754512485
4858,0.0,300.32847000000004,11531.098,-0.04857999054796003,0.0,0.0,0.0,0.0,-0.007413993430595817,-1.7724295612751784,-0.7194562475348033,-1.013279990877949,0.02836578253548477,0.025823951440625575,0.009824061488734381
4859,0.0,300.09597,11594.051000000001,-0.04859000022265736,0.0,0.0,0.0,0.0,-0.007415521048481533,-1.7812173780674683,-0.7392504428758383,-1.003834260663228,-0.0026111113611716275,-0.0024592843449874674,0.01030568368059179
4860,0.0,299.79618999999997,11570.764,-0.04860000989735469,0.0,0.0,0.0,0.0,-0.007417048666367249,-1.7818722416070982,-0.7283174438993353,-1.007033749841493,0.007919560147149732,-0.014509546887980786,0.01112394697109809
4861,0.0,299.54961000000003,11618.431,-0.04860998653682236,0.0,0.0,0.0,0.0,-0.007418571242609806,-1.7958630976628884,-0.7270253169743123,-1.008824446478221,-0.00916515112952999,-0.022564645042707082,0.016732429142862184
4862,0.0,299.38488,11687.371000000001,-0.04861999621151969,0.0,0.0,0.0,0.0,-0.007420098860495522,-1.7963838068892783,-0.7418972649195593,-1.014387878537289,-0.002204989575340528,0.012028392248859888,0.027298932518444875
4863,0.0,299.79798,11486.373,-0.04863000588621724,0.0,0.0,0.0,0.0,-0.007421626478381238,-1.7685169973390382,-0.7128752995928144,-1.010178412056847,-0.03181559515095477,-0.004080336773122886,0.00913641495139395
4864,0.0,299.63032000000004,11391.487,-0.04864001556091457,0.0,0.0,0.0,0.0,-0.007423154096266954,-1.762274363472938,-0.7159385268976314,-0.9845148439215501,-0.01014628626761049,-0.009303920999625511,0.0086809919620722
4865,0.0,300.31946,11611.407,-0.04864999220038213,0.0,0.0,0.0,0.0,-0.0074246766725095115,-1.7792567391239684,-0.7429588774468323,-1.007362356981424,0.006673844535007174,0.01140165551875579,0.0030021771624418173
4866,0.0,300.75872000000004,11576.618,-0.04866000187507957,0.0,0.0,0.0,0.0,-0.0074262042903952274,-1.7829703007404683,-0.7291646020429433,-1.006867921330127,0.03126570533493487,0.025914210746283476,0.011104369965915989
4867,0.0,300.6662,11446.003999999999,-0.048670011549777126,0.0,0.0,0.0,0.0,-0.007427731908280971,-1.7664936382143483,-0.7289582637925793,-0.983847578200696,0.025861698046600875,0.002772518555726278,0.01998235993760538
4868,0.0,300.07006,11601.095,-0.04867998818924446,0.0,0.0,0.0,0.0,-0.007429254484523501,-1.7956889199706982,-0.7276871415421293,-1.003067220205027,-0.0020852343566216077,-0.008048233283973782,0.03127702941805247
4869,0.0,299.91631,11733.729,-0.048689997863942014,0.0,0.0,0.0,0.0,-0.007430782102409245,-1.7946083900640586,-0.7477808434802232,-1.024371330447579,-0.0006347869210885914,0.005189494642788245,0.027401599071577274
4870,0.0,300.15297999999996,11711.08,-0.048700007538639345,0.0,0.0,0.0,0.0,-0.007432309720294933,-1.8146342650404585,-0.7447848453195413,-1.000456702912389,-0.006982978122591283,0.010182939576727891,0.008241662018788712
4871,0.0,300.30151,11714.768,-0.04870998417810701,0.0,0.0,0.0,0.0,-0.00743383229653749,-1.7952755139298984,-0.7397339962210613,-1.0259875656820892,-0.017451212551800585,-0.004437667324238666,0.019091328064667384
4872,0.0,300.08507000000003,11622.608999999999,-0.048719993852804344,0.0,0.0,0.0,0.0,-0.007435359914423206,-1.8108511944670982,-0.7321427062068593,-0.989988957984303,-0.016605255109561085,-0.017418821985853882,0.00931023628352378
4873,0.0,300.1983,11539.767,-0.048730003527501675,0.0,0.0,0.0,0.0,-0.007436887532308922,-1.7945549917837884,-0.7060074498850104,-1.0072386796742179,0.013431968578882087,-0.004102525126462706,0.035289008387753965
4874,0.0,299.31543999999997,11633.023000000001,-0.04874001320219923,0.0,0.0,0.0,0.0,-0.007438415150194666,-1.8133471334384283,-0.7166788378181943,-1.006122564424066,0.018877403610804682,0.015016392826502587,0.02305460820806268
4875,0.0,299.5196,11722.317,-0.048749989841666674,0.0,0.0,0.0,0.0,-0.007439937726437196,-1.808058575866488,-0.7278019225134573,-1.027431041774549,0.004514212897743126,-0.01611809256748188,0.030673493075488074
4876,0.0,299.8384,11560.146999999999,-0.04875999951636423,0.0,0.0,0.0,0.0,-0.0074414653443229395,-1.7910745790152982,-0.7286398803461572,-0.9942817034904641,-0.012065971668568688,-0.004214347711473736,0.017333996740482284
4877,0.0,299.71931,11476.101999999999,-0.04877000919106156,0.0,0.0,0.0,0.0,-0.007442992962208628,-1.7557471076537483,-0.7415781924630692,-0.991123017893726,-0.004546583300012836,0.02113859887846728,-0.003393594764146727
4878,0.0,300.05731000000003,11719.841999999999,-0.048779985830529116,0.0,0.0,0.0,0.0,-0.007444515538451185,-1.7976774232919484,-0.7575690623612453,-1.007292837892063,0.0033603999815956568,0.013471222901006186,0.008435472039616271
4879,0.0,300.19061,11784.938999999998,-0.04878999550522656,0.0,0.0,0.0,0.0,-0.007446043156336901,-1.807510407562388,-0.7533976940845633,-1.0214190236312088,0.007131064928681313,-0.014517723816287787,0.024606510167223476
4880,0.0,300.17566,11535.126,-0.04880000517992411,0.0,0.0,0.0,0.0,-0.007447570774222645,-1.7776903557943784,-0.7340999304975223,-0.9946001173343891,-0.01992463001315788,-0.02263788681293548,0.020267869497782982
4881,0.0,300.44456,11495.921,-0.04881001485462144,0.0,0.0,0.0,0.0,-0.007449098392108361,-1.7764857027504881,-0.7324290709501213,-0.985558065959508,0.017230230810991384,-0.006218570189475094,0.012443110448539388
4882,0.0,300.01928,11539.044,-0.048819991494089,0.0,0.0,0.0,0.0,-0.007450620968350918,-1.7946048436887083,-0.7246962501619513,-0.988280061028148,0.0011265705726338589,0.016195037766825786,0.01951772397174938
4883,0.0,299.56027,11741.942,-0.04883000116878633,0.0,0.0,0.0,0.0,-0.007452148586236634,-1.806191459907218,-0.7407863273774183,-1.022279272966109,0.006382411818720004,-0.004816975371348456,-0.003469825115545077
4884,0.0,299.85409,11933.742,-0.04884001084348377,0.0,0.0,0.0,0.0,-0.007453676204122323,-1.8400820413019583,-0.7446107993498643,-1.042866893797949,-0.0024484889757720473,-0.016698597735273286,0.017472131100115085
4885,0.0,300.0298,11786.37,-0.04884998748295133,0.0,0.0,0.0,0.0,-0.00745519878036488,-1.8195717314527484,-0.7418665634415293,-1.021323778121809,0.002032754182267218,0.01050658989716969,0.02101005898403138
4886,0.0,299.77133,11518.942,-0.04885999715764866,0.0,0.0,0.0,0.0,-0.007456726398250596,-1.7802150710685483,-0.7104984783032403,-1.010757170381466,-0.012915169484627988,-0.0022634565379107676,0.03499599571058586
4887,0.0,300.29803,11658.821000000002,-0.04887000683234621,0.0,0.0,0.0,0.0,-0.00745825401613634,-1.7920529733118584,-0.7343764261848102,-1.017561073875459,-0.02217108553161578,-0.021485297598933778,0.018621206362769985
4888,0.0,300.12667000000005,11884.14,-0.048880016507043544,0.0,0.0,0.0,0.0,-0.007459781634022056,-1.8079215844529681,-0.7696564166466742,-1.034903761262049,-0.023103217868360077,-0.002303189316732088,0.020673082398274378
4889,0.0,300.78913,11647.646999999999,-0.04888999314651121,0.0,0.0,0.0,0.0,-0.007461304210264613,-1.7901140179204982,-0.7478911762836122,-1.002588783772809,0.01303908591885759,0.026530699464876177,-0.001091336826906559
4890,0.0,300.3647,11490.878999999999,-0.048900002821208544,0.0,0.0,0.0,0.0,-0.007462831828150329,-1.7720054147833182,-0.7414953997973982,-0.979439494435652,0.006644643984350305,0.035506770019745365,0.01011537666800995
4891,0.0,299.90121,11668.878999999999,-0.0489100124959061,0.0,0.0,0.0,0.0,-0.007464359446036045,-1.8245327052673583,-0.7289487595066413,-0.9935664806423772,-0.008822829244195451,-0.009508549289120751,0.02088375026631568
4892,0.0,299.53772999999995,11793.223999999998,-0.04891998913537354,0.0,0.0,0.0,0.0,-0.007465882022278575,-1.8141666501193083,-0.7479363064430663,-1.0227425309118292,-0.003076085549911007,-0.015281344555401286,0.01817480585896368
4893,0.0,300.0188,11741.091,-0.048929998810071096,0.0,0.0,0.0,0.0,-0.007467409640164319,-1.8041004156758482,-0.7447785935664243,-1.0201196317029688,0.001062932082878229,-0.016001130068688585,0.0003960473744593326
4894,0.0,299.58707999999996,11744.161,-0.04894000848476843,0.0,0.0,0.0,0.0,-0.007468937258050035,-1.7927869716842983,-0.7410011161336163,-1.036143574084409,-0.0057251905474323146,-0.00033319226888601665,0.007779001991952723
4895,0.0,300.42786,11676.773000000001,-0.048949985124235984,0.0,0.0,0.0,0.0,-0.007470459834292592,-1.7933574314905985,-0.7421990513293433,-1.0138907780382291,-0.01040173067082089,-0.016258831993121788,0.0004954706356116445
4896,0.0,300.25676,11669.273000000001,-0.048959994798933315,0.0,0.0,0.0,0.0,-0.007471987452178308,-1.813029479532078,-0.7298597625390503,-1.004278337784555,0.0034043856750617073,0.01160095978692559,0.013047043985142988
4897,0.0,300.26327000000003,11861.636999999999,-0.04897000447363076,0.0,0.0,0.0,0.0,-0.007473515070064024,-1.8275557369407083,-0.7531234376799963,-1.0249623592309092,0.015716720898119586,0.036505038203766764,0.021473148730234776
4898,0.0,299.83507000000003,11709.923999999999,-0.04898001414832831,0.0,0.0,0.0,0.0,-0.00747504268794974,-1.8129694951261583,-0.7331574660495083,-1.013397629214559,0.013855485842429986,0.026467709759159574,0.02924966187596687
4899,0.0,299.24663,11426.788999999999,-0.048989990787795645,0.0,0.0,0.0,0.0,-0.00747656526419227,-1.7587748002775585,-0.7192338188728513,-0.9954499403257601,0.0005868640619739735,-0.02999257482278667,0.018052138762107383
4900,0.0,298.77374,11593.206,-0.0490000004624932,0.0,0.0,0.0,0.0,-0.0074780928820780135,-1.7924988033558582,-0.7329309438571523,-0.9986153539031621,0.0005702507626718685,-0.013615112521206988,0.00908811068467669
4901,0.0,299.12946,11833.851,-0.04901001013719053,0.0,0.0,0.0,0.0,-0.0074796204999637295,-1.813984670401348,-0.7535932310888612,-1.029617331515319,0.01666590623404688,0.00936268291929986,0.015156385486818786
4902,0.0,299.6374,11702.655,-0.0490199867766582,0.0,0.0,0.0,0.0,-0.007481143076206287,-1.8302656743331585,-0.7242263047655714,-1.002823037063428,-0.0031130826547873373,0.01786219591161148,0.016725589704687183
4903,0.0,299.71376000000004,11571.892,-0.04902999645135553,0.0,0.0,0.0,0.0,-0.007482670694092003,-1.8135138130798785,-0.7164124948969083,-0.987639788289958,-0.02132366698273208,-0.004723529900751105,0.02396413594832608
4904,0.0,299.78621,11688.87,-0.04904000612605308,0.0,0.0,0.0,0.0,-0.007484198311977747,-1.8367572637488283,-0.7178555251593243,-0.99851177947794,-0.0064140217767896645,-0.0019740444449730184,0.026689223456271276
4905,0.0,299.91344,11807.598999999998,-0.04905001580075041,0.0,0.0,0.0,0.0,-0.007485725929863435,-1.8041878591594782,-0.7513362874186182,-1.0336910022173589,0.015927862967207683,0.0065744832037009735,0.015871250657620482
4906,0.0,300.2248,11879.461000000001,-0.04905999244021808,0.0,0.0,0.0,0.0,-0.007487248506105992,-1.7943890214174085,-0.7795377532118862,-1.037132810157039,0.014842250598066088,0.0012443280674556188,-0.0024725041177171576
4907,0.0,299.90205,11879.451000000001,-0.04907000211491541,0.0,0.0,0.0,0.0,-0.007488776123991708,-1.819367460232588,-0.7465752278487382,-1.045113877219709,0.006626536191813204,-0.035057525322908366,0.01983168458148488
4908,0.0,300.20878,11751.191,-0.04908001178961274,0.0,0.0,0.0,0.0,-0.007490303741877424,-1.8304474514010982,-0.7503263607789463,-0.9912948853756881,-0.004949065288834715,-0.009459243120704612,-0.004670291207371855
4909,0.0,300.35834,11518.141000000001,-0.0490899884290803,0.0,0.0,0.0,0.0,-0.007491826318119982,-1.7956655138933884,-0.7288479512541922,-0.976713679414135,-0.004385065863847306,0.01077792104869799,0.02227406619227918
4910,0.0,300.67019,11585.083,-0.04909999810377774,0.0,0.0,0.0,0.0,-0.007493353936005698,-1.7938317338624086,-0.7308367990804763,-0.9969074600646061,-0.014377918607240086,0.000929727083656919,0.005161653164490506
4911,0.0,300.31822999999997,11774.616000000002,-0.049110007778475295,0.0,0.0,0.0,0.0,-0.0074948815538914415,-1.7865501133437682,-0.7590688852917663,-1.033570121480429,-0.016364804781330483,-0.014107969528848185,0.029337841992419574
4912,0.0,299.94561,11756.927,-0.04911998441794263,0.0,0.0,0.0,0.0,-0.007496404130133971,-1.7905558962891084,-0.7564707701803522,-1.026785601460849,0.006495403795671443,-0.017825994512038684,-0.006681901798477365
4913,0.0,299.7355,11796.936000000002,-0.04912999409264018,0.0,0.0,0.0,0.0,-0.007497931748019687,-1.8147913188059583,-0.7523460620707753,-1.0188367557513591,0.04623160993545466,0.006006315470452184,0.01084066757439059
4914,0.0,299.81515,11859.853000000001,-0.049140003767337515,0.0,0.0,0.0,0.0,-0.007499459365905403,-1.8525312373305984,-0.7495497653723023,-1.003018320755201,0.013766206349618788,0.008525405585367022,0.02137436799123588
4915,0.0,299.5767,11909.344,-0.04915001344203507,0.0,0.0,0.0,0.0,-0.007500986983791147,-1.8619897243640782,-0.7412550366086763,-1.016898509635069,-0.00025909967254864676,-0.013539764204020687,0.02317788730797938
4916,0.0,300.03766,11936.389,-0.049159990081502514,0.0,0.0,0.0,0.0,-0.007502509560033677,-1.8583109172260084,-0.7332177645629593,-1.036835522577699,-0.018087305633328082,0.00860935143097683,0.033488108322518965
4917,0.0,299.53193,11924.524,-0.04916999975620007,0.0,0.0,0.0,0.0,-0.00750403717791942,-1.8256848719560683,-0.7553541381726493,-1.0437186318320089,0.0025610819348341075,0.031233463716752872,0.013501515025995788
4918,0.0,299.87065,11635.843,-0.0491800094308974,0.0,0.0,0.0,0.0,-0.007505564795805109,-1.7726324139451983,-0.7388830890520833,-1.025490161207999,-0.017288394406481684,-0.005924251838228135,0.026780778708807077
4919,0.0,300.16647,11619.548,-0.049189986070364844,0.0,0.0,0.0,0.0,-0.007507087372047666,-1.805817266645288,-0.7313376587374073,-0.9948974657087352,-0.01136135856227879,-0.026541870547228678,0.018915352866799982
4920,0.0,300.11371,11837.605,-0.0491999957450624,0.0,0.0,0.0,0.0,-0.007508614989933382,-1.8448011523176984,-0.7444082506548743,-1.0091270232230831,-0.0038900465804927067,-0.016166087184968585,0.028956121295496674
4921,0.0,299.92298,11759.601,-0.04921000541975973,0.0,0.0,0.0,0.0,-0.007510142607819098,-1.8335378642060982,-0.7444660971030833,-0.996621186513853,0.03449833589747067,0.026487158081578973,0.016710106229909084
4922,0.0,300.39883,11625.09,-0.04922001509445728,0.0,0.0,0.0,0.0,-0.007511670225704842,-1.7735315720839384,-0.7652148449658253,-0.9949906847179352,-0.0030065823685765775,0.022771240658596478,0.0049951197350299355
4923,0.0,300.05917999999997,11798.656,-0.04922999173392473,0.0,0.0,0.0,0.0,-0.0075131928019473715,-1.7976159190108782,-0.7507729507605213,-1.038107860728269,-0.006109891516874344,-0.002227859744672638,0.016398885448443985
4924,0.0,300.69754,12104.018999999998,-0.04924000140862228,0.0,0.0,0.0,0.0,-0.007514720419833115,-1.8228599306772681,-0.7944694423830293,-1.061990165585269,-0.01168572018429079,-0.012272416310193188,-0.008765178657230782
4925,0.0,300.2297,11846.216,-0.04925001108331961,0.0,0.0,0.0,0.0,-0.0075162480377188035,-1.8413614722032283,-0.7462617890628043,-1.013330450732929,0.010887736081285888,0.001079027864691759,0.014967207640148384
4926,0.0,300.32193,11709.973999999998,-0.04925998772278706,0.0,0.0,0.0,0.0,-0.007517770613961361,-1.8228801956792682,-0.7379855419810023,-0.9986737779039281,-0.010810746298937591,-0.01148847382707409,0.009012307924820542
4927,0.0,300.17116,11643.127,-0.04926999739748461,0.0,0.0,0.0,0.0,-0.007519298231847077,-1.8179933917719784,-0.7247597505457183,-0.996466746933611,-0.02404825698487818,-0.02073370413850728,0.03419874824040367
4928,0.0,300.39922,11611.428,-0.04928000707218205,0.0,0.0,0.0,0.0,-0.007520825849732821,-1.8044421849345782,-0.7142954202704693,-1.010846488377781,-0.0049828903129479855,0.008245625042579832,0.017963789432887983
4929,0.0,299.88433,11736.604,-0.04928998371164928,0.0,0.0,0.0,0.0,-0.007522348425975323,-1.7887579853116684,-0.7405522767368192,-1.038324290949629,0.024504947043449975,0.03953356979865956,0.013099223325542687
4930,0.0,299.61753,11769.523000000001,-0.04929999338634683,0.0,0.0,0.0,0.0,-0.007523876043861066,-1.8007537519205583,-0.7475792269753252,-1.029308290234819,0.016332668541158883,0.014779728000645587,0.015401077279967985
4931,0.0,299.46796,11615.018,-0.04931000306104438,0.0,0.0,0.0,0.0,-0.00752540366174681,-1.797827282981738,-0.7230046696500053,-1.0098434923687931,-0.002164950491013978,-0.016573554566932484,0.005179586981985435
4932,0.0,300.51589,11779.716,-0.049320012735741825,0.0,0.0,0.0,0.0,-0.007526931279632498,-1.830383413994778,-0.7398743718899153,-1.010481748739284,0.006050116549750015,-0.023513773636628776,0.023311316134147775
4933,0.0,300.34559,12082.05,-0.04932998937520916,0.0,0.0,0.0,0.0,-0.007528453855875056,-1.8660711970918882,-0.7590673046216103,-1.047503120955509,0.02009492695746488,0.009164482181813972,0.01692339334945888
4934,0.0,300.06692999999996,11934.308,-0.04933999904990671,0.0,0.0,0.0,0.0,-0.007529981473760772,-1.8342882772301583,-0.7556236930967523,-1.037819793724839,0.0019204009581788185,-0.0015427120847288285,0.04011845828638356
4935,0.0,300.07346,11730.216,-0.049350008724604266,0.0,0.0,0.0,0.0,-0.0075315090916465155,-1.7914261767999984,-0.7422770614545423,-1.031989653974449,-0.027466486594731176,-0.013908209298133387,0.022853054524670877
4936,0.0,300.35499,11883.936000000002,-0.04935998536407149,0.0,0.0,0.0,0.0,-0.0075330316678890175,-1.8367548319485882,-0.7348319226347643,-1.040833199522239,-0.0053717729655527145,-0.0027034177360065574,0.03462098576907527
4937,0.0,300.56726000000003,11923.923,-0.04936999503876904,0.0,0.0,0.0,0.0,-0.007534559285774761,-1.8523698265896682,-0.7459312972776873,-1.026273808835339,0.012874393260853687,0.017975568465300483,0.029522333557377472
4938,0.0,300.51301,11718.815,-0.049380004713466596,0.0,0.0,0.0,0.0,-0.007536086903660505,-1.8228087615472182,-0.7326892229132963,-1.0067292073914371,0.03152969650273877,-0.007640814132714644,0.014203588927535088
4939,0.0,300.22261000000003,11764.4,-0.04939001438816415,0.0,0.0,0.0,0.0,-0.007537614521546221,-1.8191964236157083,-0.7400765152848653,-1.016810964826429,-0.015553963547806686,-0.028794871661332575,0.02149051178394838
4940,0.0,300.82122000000004,11918.97,-0.049399991027631374,0.0,0.0,0.0,0.0,-0.007539137097788751,-1.8081797605784484,-0.7750422056982103,-1.039847205849929,0.0013385867725832288,-0.006601078181725694,-0.012522340526858789
4941,0.0,299.9356,11882.51,-0.04941000070232893,0.0,0.0,0.0,0.0,-0.007540664715674467,-1.8049926837139083,-0.7597124612252822,-1.047281117858599,-0.0020276321016867082,0.02061568380660958,-0.0017354602194515885
4942,0.0,300.34892,11890.085,-0.04942001037702648,0.0,0.0,0.0,0.0,-0.00754219233356021,-1.808945777654048,-0.7741057700882913,-1.031237315775199,0.005235527506756335,0.005461559691363975,-0.008887138201542251
4943,0.0,300.30662,11827.308,-0.049429987016493815,0.0,0.0,0.0,0.0,-0.00754371490980274,-1.8261322218752183,-0.7541267173990124,-1.0149474965675191,-0.015103073332807287,-0.02013699608836678,0.024557051403342273
4944,0.0,300.49584,11660.893999999998,-0.04943999669119126,0.0,0.0,0.0,0.0,-0.007545242527688456,-1.8136182791651883,-0.7327971239164452,-0.998205240925187,0.006501946250242133,-0.0042678864282075955,0.01081796266614979
4945,0.0,300.20488,11770.639,-0.04945000636588881,0.0,0.0,0.0,0.0,-0.0075467701455742,-1.8326468120681585,-0.7453267618705243,-1.00000683000049,0.009123499457669292,0.026442931741214176,0.03497215596223307
4946,0.0,299.80517000000003,11979.031,-0.04946001604058625,0.0,0.0,0.0,0.0,-0.007548297763459916,-1.8355651750061786,-0.7496205104942842,-1.056140571432959,0.01166647349864129,0.002390926946866118,0.03054598264315377
4947,0.0,299.2212,11920.768,-0.04946999268005359,0.0,0.0,0.0,0.0,-0.0075498203397024455,-1.832979462075988,-0.7452209785600843,-1.045415217799449,-0.005945786645253454,-0.012617226332473289,0.03210296402506587
4948,0.0,299.62363,11861.181,-0.04948000235475103,0.0,0.0,0.0,0.0,-0.0075513479575881615,-1.8357487759242983,-0.7429457254605343,-1.0268081969380791,-0.002803270696261278,0.0020613720127915782,0.024104369762166077
4949,0.0,299.90355,11963.313,-0.04949001202944858,0.0,0.0,0.0,0.0,-0.007552875575473905,-1.8583395922038382,-0.7445715967034953,-1.033637299962059,0.0011854366544184888,0.03278303418743357,0.012348823473733988
4950,0.0,299.83491000000004,11831.581,-0.04949998866891603,0.0,0.0,0.0,0.0,-0.007554398151716435,-1.8196593775863983,-0.7381903299587133,-1.038655421082309,-0.01087223436800599,-0.009290944812219861,0.025269449310150478
4951,0.0,300.76533,11713.948,-0.04950999834361336,0.0,0.0,0.0,0.0,-0.007555925769602151,-1.800713120591548,-0.7396080998961363,-1.020426545158259,-0.01143320103411909,-0.018510829989626682,0.011512791829474091
4952,0.0,300.26371,11682.025,-0.049520008018311135,0.0,0.0,0.0,0.0,-0.007557453387487922,-1.7809990226709183,-0.7369376893900873,-1.033107167509739,-0.0005533619809325754,-0.004184867807764296,0.019056910998520683
4953,0.0,299.35397,11699.788999999999,-0.04952998465777836,0.0,0.0,0.0,0.0,-0.007558975963730424,-1.810284686336188,-0.7417695954069593,-1.004389369730513,0.025740928767181873,0.03231604444159527,0.001097908260430109
4954,0.0,299.33452,11748.5,-0.04953999433247591,0.0,0.0,0.0,0.0,-0.007560503581616168,-1.8334771705251085,-0.7341315033706383,-1.0036418546017392,0.007592022391374274,-0.0008242462587692722,0.012595722125600988
4955,0.0,298.93379,11970.776000000002,-0.049550004007173465,0.0,0.0,0.0,0.0,-0.007562031199501884,-1.846513848961728,-0.7664854301937223,-1.025817846290339,-0.002450953301340258,-0.015330815478283686,0.017701183377970782
4956,0.0,298.45042,12028.809,-0.049560013681870796,0.0,0.0,0.0,0.0,-0.0075635588173876,-1.8490893280659082,-0.7670969975565793,-1.040271352341789,2.7778953673819274e-05,-0.015703367275051682,0.02325622268646048
4957,0.0,298.84362999999996,11961.347,-0.04956999032133824,0.0,0.0,0.0,0.0,-0.00756508139363013,-1.8370684328545381,-0.7563979782931682,-1.042484493210209,0.002520794806883077,0.01283394330361159,0.03563867998401386
4958,0.0,299.97902,11990.452,-0.04957999999603557,0.0,0.0,0.0,0.0,-0.007566609011515846,-1.8289557446038782,-0.7593754745070244,-1.056466736640149,-0.012838412749802687,-0.02147382760780178,0.017397542720503784
4959,0.0,300.26718999999997,12002.236,-0.04959000967073335,0.0,0.0,0.0,0.0,-0.007568136629401617,-1.8551214085612282,-0.7453312303034653,-1.047927470097389,-0.005253464060026535,-0.017190265187297087,0.03331168121510697
4960,0.0,300.89128,11891.169,-0.04959998631020057,0.0,0.0,0.0,0.0,-0.007569659205644119,-1.8466524615754083,-0.7516587643954443,-1.016307379526729,0.0064167476222086834,0.015662692376287382,0.002375125412881628
4961,0.0,300.16103,11843.035,-0.049609995984898014,0.0,0.0,0.0,0.0,-0.007571186823529863,-1.841533826045238,-0.7490749969054463,-1.009378066067859,0.02080564996185778,0.03869793332193867,0.001028529708857979
4962,0.0,300.18377999999996,11995.094,-0.049620005659595456,0.0,0.0,0.0,0.0,-0.007572714441415551,-1.849220442628848,-0.7655325799321833,-1.031455873821769,0.00962541998745499,0.01063680976027139,0.02215877859590118
4963,0.0,299.94807000000003,11951.021999999999,-0.04963001533429312,0.0,0.0,0.0,0.0,-0.007574242059301323,-1.8248736639260086,-0.7591269141249932,-1.048811530809639,-0.0015287015716210987,-0.007398885877888182,0.025255150324739274
4964,0.0,300.43687,12008.248,-0.049639991973760345,0.0,0.0,0.0,0.0,-0.007575764635543825,-1.8310356430841483,-0.7700650705445052,-1.049106791888779,0.018420570683968785,-0.009538620018963502,0.029898746850276575
4965,0.0,299.76131000000004,12022.167,-0.0496500016484579,0.0,0.0,0.0,0.0,-0.007577292253429568,-1.863216364935138,-0.7424592640875243,-1.048762894804839,-0.001854091237184558,0.012346864861290687,0.031027689846694573
4966,0.0,299.95256,11988.788,-0.04966001132315545,0.0,0.0,0.0,0.0,-0.007578819871315312,-1.864942436480488,-0.7549209737548993,-1.024428680403239,-0.0048081225038997455,-0.011793170291145289,0.03317913999602617
4967,0.0,299.9663,11951.695,-0.0496699879626229,0.0,0.0,0.0,0.0,-0.007580342447557842,-1.843367606076218,-0.7620777618612192,-1.0275715795634188,-0.03534831898235746,-0.02085736523371168,0.011200024828356388
4968,0.0,299.8179,11960.768,-0.04967999763732023,0.0,0.0,0.0,0.0,-0.007581870065443558,-1.8470597881156083,-0.7545646339597313,-1.0341505111377092,0.01101023700512579,0.024240040910805775,0.02309442387074218
4969,0.0,299.46263999999996,11945.912,-0.04969000731201756,0.0,0.0,0.0,0.0,-0.007583397683329246,-1.8229871948898282,-0.7612622373857333,-1.0470095668317991,0.005925668969817994,0.027054822330853073,0.013591327488359587
4970,0.0,299.3492,11868.213,-0.04969998395148523,0.0,0.0,0.0,0.0,-0.0075849202595718035,-1.8177394712969182,-0.7433682507522343,-1.046532731334739,0.023272138819031275,0.00999815406791598,0.0034525649067166267
4971,0.0,299.51001,11849.972,-0.04970999362618256,0.0,0.0,0.0,0.0,-0.0075864478774575195,-1.8376294694349085,-0.7443523091168534,-1.0201136535273791,-0.020973109805884783,-0.017985481091028783,0.014712156377976786
4972,0.0,300.12351,11856.97,-0.04972000330088011,0.0,0.0,0.0,0.0,-0.007587975495343263,-1.8355178562265084,-0.7464088116523143,-1.022295991592759,0.01788499606536168,-0.00932653187825703,-0.004449324563989146
4973,0.0,300.49795,11885.876,-0.049730012975577664,0.0,0.0,0.0,0.0,-0.007589503113229007,-1.8369824079210482,-0.7561074389594943,-1.019919717458239,-0.012447925413014588,0.008387423111924213,0.005461650985197985
4974,0.0,300.50917999999996,11885.536,-0.04973998961504511,0.0,0.0,0.0,0.0,-0.007591025689471537,-1.8287246222560682,-0.7545101818993573,-1.029671337745649,-0.004878934703038365,0.0026983026468517376,0.02066255979598588
4975,0.0,300.58723,11989.54,-0.04974999928974244,0.0,0.0,0.0,0.0,-0.007592553307357253,-1.8265378258902485,-0.7565994732080543,-1.0613834314253892,-0.018732084294712785,-0.004610667923787495,0.054729629093143856
4976,0.0,299.95041000000003,11987.471000000001,-0.049760008964439995,0.0,0.0,0.0,0.0,-0.007594080925242969,-1.8417006070116981,-0.7559519557316493,-1.046239192780769,0.016513499233505483,0.008271220348055892,0.03907102315450976
4977,0.0,300.03201,11967.293,-0.04976998560390733,0.0,0.0,0.0,0.0,-0.007595603501485498,-1.8599784229155782,-0.7475188372693653,-1.030261049303849,0.02833207373115797,0.013395464217529386,0.035317689445084566
4978,0.0,300.59294,12069.917,-0.04977999527860488,0.0,0.0,0.0,0.0,-0.007597131119371242,-1.873296582229978,-0.7555114553831753,-1.040145405354359,0.011962353673592387,-0.02006277551854178,0.02190921205652088
4979,0.0,299.81032000000005,12036.097,-0.049790004953302325,0.0,0.0,0.0,0.0,-0.007598658737256958,-1.8576570669364783,-0.7678495992008553,-1.033166239990569,-0.0061526904918232745,-0.024980915198424377,0.014387344872920387
4980,0.0,299.58602,11949.124,-0.04980001462799977,0.0,0.0,0.0,0.0,-0.007600186355142702,-1.8327867419069683,-0.7595634425330753,-1.0398852027286791,-0.0060532766741618945,-0.0005992644497452964,0.008605162148438381
4981,0.0,299.71448,11951.382,-0.04980999126746721,0.0,0.0,0.0,0.0,-0.0076017089313852315,-1.8272588546614081,-0.7505827029217453,-1.055080306528319,-0.0019643940483705983,0.02469612909881818,0.01991518246922548
4982,0.0,300.05656,11784.173999999999,-0.049820000942164544,0.0,0.0,0.0,0.0,-0.0076032365492709475,-1.8244222610064584,-0.7299298085184633,-1.0277426161802992,-0.020198463892433183,0.0004232648325504866,0.021300222401918277
4983,0.0,300.37712,11670.011999999999,-0.0498300106168621,0.0,0.0,0.0,0.0,-0.0076047641671566635,-1.8168187309310482,-0.7296683494626592,-1.0009052788641601,-0.026105128343375576,-0.005716697586419125,0.01908474092576728
4984,0.0,299.93326,11927.813,-0.04983998725632954,0.0,0.0,0.0,0.0,-0.007606286743399193,-1.8439855873122084,-0.7589504464875773,-1.022821260444599,0.003508016842289307,0.0017072817341705882,0.016354980308360884
4985,0.0,299.53492,12105.489,-0.049849996931027096,0.0,0.0,0.0,0.0,-0.007607814361284937,-1.8613206753230482,-0.7786874438604673,-1.039758141166139,0.021989343927429277,0.015441719754729084,0.014905931340350884
4986,0.0,299.56057000000004,11995.968,-0.04986000660572443,0.0,0.0,0.0,0.0,-0.007609341979170653,-1.8447440050120585,-0.7609778991426713,-1.040752848789309,0.0016022357658283584,-0.0037330308118714564,0.014467978302628288
4987,0.0,300.91983999999997,11977.205,-0.04987001628042198,0.0,0.0,0.0,0.0,-0.007610869597056397,-1.8305897117151382,-0.7535082396704733,-1.056673540985559,-0.004762895680386205,-0.01832665861170038,0.029426311898400868
4988,0.0,300.53526,12115.873,-0.049879992919889427,0.0,0.0,0.0,0.0,-0.007612392173298926,-1.8656382353241583,-0.7654879361327772,-1.051796768254259,-0.0077157636346615825,-0.0017339408509266386,0.02060063400287428
4989,0.0,300.32133,12138.114,-0.04989000259458698,0.0,0.0,0.0,0.0,-0.00761391979118467,-1.8862179528052183,-0.7699256574632463,-1.033539825302439,0.006407401403286285,0.009047818085175121,0.004297741335779046
4990,0.0,299.04691,11947.976999999999,-0.04990001226928431,0.0,0.0,0.0,0.0,-0.007615447409070358,-1.8595061470439682,-0.7577915720832052,-1.014589008682139,-0.014361864672655685,-0.02215874110564748,-0.005880130369248684
4991,0.0,299.2391,11808.829,-0.04990998890875187,0.0,0.0,0.0,0.0,-0.007616969985312916,-1.828457326879688,-0.7446304057392993,-1.016501315595869,0.0036748073333002463,-0.018683096692128084,0.007700335078038903
4992,0.0,299.26191,11879.885,-0.04991999858344931,0.0,0.0,0.0,0.0,-0.007618497603198632,-1.8189326746146783,-0.7581585408719222,-1.034097011532429,0.013424535376148487,0.012184204782987387,0.005929241892320615
4993,0.0,300.03209,11970.89,-0.04993000825814664,0.0,0.0,0.0,0.0,-0.007620025221084348,-1.8393495628046683,-0.7454884259239793,-1.054013658148049,0.033755618507920165,0.02916076133869307,0.02217902839914968
4994,0.0,299.8353,12006.878999999999,-0.0499399848976142,0.0,0.0,0.0,0.0,-0.007621547797326905,-1.8676843925760982,-0.7491141083593063,-1.032992974223469,-0.008003996203157924,0.013326768900499686,0.03517849826559747
4995,0.0,300.52653,11916.642,-0.04994999457231153,0.0,0.0,0.0,0.0,-0.007623075415212621,-1.8479271302012081,-0.7477477203344542,-1.026686910901109,-0.01963801803687148,2.310045777508768e-05,0.016858651734319382
4996,0.0,300.67984,11955.31,-0.04996000424700908,0.0,0.0,0.0,0.0,-0.007624603033098365,-1.851616171165288,-0.7486118808147403,-1.033887674061769,-0.008039204313657691,0.0036374793009412566,0.014800619191207386
4997,0.0,300.4626,12212.011,-0.049970013921706524,0.0,0.0,0.0,0.0,-0.007626130650984053,-1.869844135164248,-0.7821716765818343,-1.060130547676739,-6.320906828374934e-05,0.008724534155969481,0.008679116334812092
4998,0.0,300.16284,12231.678,-0.04997999056117408,0.0,0.0,0.0,0.0,-0.007627653227226611,-1.8741100194102585,-0.7616381227753303,-1.082376554947249,-0.005851933746790895,-0.014064385589046786,0.028500688680298973
4999,0.0,299.78636,11954.036,-0.04999000023587141,0.0,0.0,0.0,0.0,-0.007629180845112327,-1.8413806226301181,-0.7598348111748573,-1.032512896326089,-0.023929700643677578,-0.03713761632069736,0.016055726010576785
5000,0.0,299.25954,11889.614,-0.050000009910568965,0.0,0.0,0.0,0.0,-0.00763070846299807,-1.851274503231568,-0.7346755477468313,-1.028195640300009,0.028972272502090675,0.01051770119776629,0.023540181973985077
5001,0.0,300.11831,12065.171999999999,-0.05000998655003641,0.0,0.0,0.0,0.0,-0.0076322310392406,-1.8762311571695982,-0.7604150691096242,-1.030864946363449,0.02064395449764968,0.011600207955351388,0.003130454219801777
5002,0.0,299.95251,12018.776000000002,-0.050019996224733965,0.0,0.0,0.0,0.0,-0.007633758657126344,-1.8631358115521879,-0.7611694642065773,-1.029102499139509,0.03205170674225717,0.006054334304616275,0.009039015272281351
5003,0.0,300.69321,12086.402,-0.050030005899431296,0.0,0.0,0.0,0.0,-0.007635286275012032,-1.8569066539124182,-0.7697520978536172,-1.0473056385110189,-0.022640519236695276,-0.016025524064846086,0.009038000299656181
5004,0.0,300.61275,12097.223,-0.05004001557412863,0.0,0.0,0.0,0.0,-0.007636813892897748,-1.827849984769748,-0.7725766236998762,-1.076826984149549,-0.002323632346774658,0.006837772898460643,0.016334117488801883
5005,0.0,300.44221,12053.358999999999,-0.050049992213596295,0.0,0.0,0.0,0.0,-0.0076383364691403055,-1.8460127967872781,-0.7724227008771852,-1.0454846254312988,-0.019078739445424982,0.011276299256134091,0.022589603419170278
5006,0.0,300.02541,12088.456,-0.050060001888293626,0.0,0.0,0.0,0.0,-0.0076398640870260215,-1.866462412955498,-0.7632113050130912,-1.044914976225079,-0.024169439670337977,-0.003065115293728327,0.02920147575421127
5007,0.0,300.05054,12131.83,-0.05007001156299118,0.0,0.0,0.0,0.0,-0.007641391704911765,-1.8799085457575282,-0.7725706252592842,-1.035294166525579,-0.019658780544670584,-0.02424848939013958,0.01905877132570428
5008,0.0,298.96641,11959.285,-0.050079988202458514,0.0,0.0,0.0,0.0,-0.007642914281154295,-1.8435816044973383,-0.7697664556075342,-1.021975905886169,-0.0002267052461190658,0.018588053832748083,0.006218484265866614
5009,0.0,299.61396,11939.927,-0.05008999787715607,0.0,0.0,0.0,0.0,-0.007644441899040039,-1.842635735528988,-0.7454152388692563,-1.041388663227059,0.029775628857125768,0.026312434247585077,0.016006545890473088
5010,0.0,299.72764,12071.046999999999,-0.05010000755185351,0.0,0.0,0.0,0.0,-0.007645969516925727,-1.8589899974430282,-0.7562100203996183,-1.054097048631279,0.014066650203020288,-0.0057396675608860845,0.02483109299888808
5011,0.0,300.13105,12034.546,-0.050109984191321066,0.0,0.0,0.0,0.0,-0.007647492093168312,-1.8728625058871382,-0.7296996183607453,-1.055639215283479,0.005988157623360144,-0.023551055160808177,0.031013021024996867
5012,0.0,300.30429,12029.743999999999,-0.0501199938660184,0.0,0.0,0.0,0.0,-0.007649019711054,-1.871794134981698,-0.7453032949982082,-1.039644353179909,-0.0037331188633051467,-0.009082816959529241,0.024219139587742976
5013,0.0,300.15652,12171.989,-0.05013000354071595,0.0,0.0,0.0,0.0,-0.007650547328939744,-1.8846058718961183,-0.7674616966650722,-1.047913284595989,0.003121867127854297,-0.0095144296860761,0.008093758813616802
5014,0.0,299.62737000000004,12252.55,-0.05014001321541328,0.0,0.0,0.0,0.0,-0.00765207494682546,-1.8977830881216082,-0.7723613384511293,-1.054324827253759,-0.012865070346683587,-0.01266055797299979,0.027552288613199173
5015,0.0,300.23322,12130.68,-0.05014998985488095,0.0,0.0,0.0,0.0,-0.0076535975230680175,-1.8571705042384583,-0.7778997027027232,-1.0523536505092188,-0.005963559659957514,-0.016768233348395785,0.017703771218726183
5016,0.0,300.06183,12070.723,-0.05015999952957828,0.0,0.0,0.0,0.0,-0.0076551251409537335,-1.854703341569968,-0.7606001899028942,-1.053895006561339,0.00037230342890348764,0.027374141007117374,0.04018734612093226
5017,0.0,300.62165,12016.347,-0.05017000920427561,0.0,0.0,0.0,0.0,-0.007656652758839422,-1.8589717589412282,-0.7537312560174834,-1.039966364061689,0.003352587215374597,0.028103137977063774,0.026388067288049478
5018,0.0,300.60566,12022.758,-0.05017998584374328,0.0,0.0,0.0,0.0,-0.007658175335082007,-1.8663070817151681,-0.7570956212520203,-1.031215530898049,-0.018615188670426084,0.0022966778676144577,0.03755372064651367
5019,0.0,301.24489,12148.438,-0.05018999551844061,0.0,0.0,0.0,0.0,-0.007659702952967695,-1.8776299489326482,-0.7698515584834332,-1.045340237292049,-0.014556593103373885,-0.017989591846684482,0.00924790974999763
5020,0.0,300.53082,12168.768999999998,-0.050200005193138164,0.0,0.0,0.0,0.0,-0.007661230570853439,-1.880821484097628,-0.7690988453816463,-1.049081663286299,-0.016928319771445086,0.0028750243060678073,0.01132353089629549
5021,0.0,300.46619,12037.628,-0.050210014867835495,0.0,0.0,0.0,0.0,-0.007662758188739155,-1.843500544489338,-0.7712782146242332,-1.044359512520259,0.01056471194940589,-0.004390669339550326,-0.018072689500635584
5022,0.0,299.52184,12030.633999999998,-0.05021999150730305,0.0,0.0,0.0,0.0,-0.007664280764981712,-1.8581668330617882,-0.7541023487341072,-1.044743230333129,-0.016091724760129586,-0.014896916454211186,0.00896709822523369
5023,0.0,300.19403,12103.923,-0.050230001182000494,0.0,0.0,0.0,0.0,-0.007665808382867428,-1.8737294426726983,-0.7588815150832743,-1.046679348624209,0.026189416566194175,-0.0033724646492113465,0.0024302634435733276
5024,0.0,299.75015,11979.24,-0.05024001085669805,0.0,0.0,0.0,0.0,-0.007667336000753144,-1.8518373636621182,-0.7491412229319823,-1.0404111808555891,0.02471816120899258,0.025859663440400076,0.02279539350123018
5025,0.0,300.19539,11940.712,-0.05024998749616538,0.0,0.0,0.0,0.0,-0.007668858576995702,-1.8628676042507182,-0.7585962041201163,-1.008214398990514,0.034790613968316265,0.014870711780124985,0.01045490704931899
5026,0.0,299.73942,12144.075,-0.050259997170862936,0.0,0.0,0.0,0.0,-0.007670386194881418,-1.861208103236938,-0.7700260198856512,-1.0602614595896591,-0.018261931182062284,-0.0003549761530509187,0.031881520242211074
5027,0.0,300.42593,12187.591,-0.05027000684556027,0.0,0.0,0.0,0.0,-0.007671913812767134,-1.879945833361208,-0.7641712074953263,-1.0606063699236992,-0.013863128787934288,-0.002053269761016948,0.031335000496023765
5028,0.0,300.16507,12190.563999999998,-0.05027998348502771,0.0,0.0,0.0,0.0,-0.0076734363890096635,-1.865190277454948,-0.7788168764282413,-1.061620025323739,-0.03280136084199227,0.017794218988902682,0.04354070036663256
5029,0.0,300.11933999999997,12182.027,-0.050289993159725044,0.0,0.0,0.0,0.0,-0.0076749640068953795,-1.8931327767876582,-0.7527526185408993,-1.057146526132239,-0.013976303757853787,-0.008157774232409633,0.02888286939276727
5030,0.0,300.05248,12091.945,-0.0503000028344226,0.0,0.0,0.0,0.0,-0.007676491624781123,-1.875155794838468,-0.7487633414396883,-1.051730197722689,-0.02128730143664308,-0.01102658680873939,0.035812410832909765
5031,0.0,299.85515,12047.313999999998,-0.05031001250912015,0.0,0.0,0.0,0.0,-0.007678019242666839,-1.877174189037668,-0.7511819288983843,-1.033726668620879,0.006029256567291295,-0.005025119841340715,0.007726573392028424
5032,0.0,299.86577,12149.273000000001,-0.050319989148587596,0.0,0.0,0.0,0.0,-0.007679541818909397,-1.8619362247587983,-0.7593525345247603,-1.071786976827139,0.02934033458766557,0.026199151873154972,0.007736137865022363
5033,0.0,300.03577,12104.39,-0.05032999882328515,0.0,0.0,0.0,0.0,-0.007681069436795113,-1.860979615339388,-0.7692941493384212,-1.0491585689688891,0.034294895542392664,0.0071581945987838035,-0.0057045897543491755
5034,0.0,299.62335,11929.545,-0.05034000849798248,0.0,0.0,0.0,0.0,-0.007682597054680829,-1.8544804265479682,-0.7454701468921753,-1.026333286616209,0.0096447995101926,-0.002786970136602537,0.009116890128592002
5035,0.0,299.45658,12045.01,-0.050349985137449926,0.0,0.0,0.0,0.0,-0.007684119630923358,-1.8659216413771282,-0.7648836641706402,-1.0305769806850291,-0.007956117602807672,-0.01174720622685899,0.01729569791320248
5036,0.0,300.17633,12133.443000000001,-0.05035999481214748,0.0,0.0,0.0,0.0,-0.007685647248809102,-1.8807481247903883,-0.7641172012649963,-1.0433982421503891,-0.017006141432125484,-0.007754677099452044,0.026137175417538377
5037,0.0,299.52114,12073.402,-0.05037000448684503,0.0,0.0,0.0,0.0,-0.007687174866694846,-1.8537625388521182,-0.7709187844162603,-1.0453314220161791,-0.01128259660550559,-0.02098915462121828,0.02047727080319928
5038,0.0,300.28517,12157.686000000002,-0.050380014161542364,0.0,0.0,0.0,0.0,-0.007688702484580534,-1.8577619383218282,-0.7731261396266093,-1.064744787307129,-0.004019598103828447,-0.017347980605112383,0.017100013987639984
5039,0.0,300.09378,12207.117,-0.05038999080100981,0.0,0.0,0.0,0.0,-0.0076902250608230915,-1.8638864272262683,-0.7597441050259053,-1.0870282848313388,0.013075241722175886,0.0013175132983284387,0.02995639470146597
5040,0.0,300.07342,12077.313999999998,-0.05040000047570725,0.0,0.0,0.0,0.0,-0.0076917526787088075,-1.8661146655211784,-0.7523566404018193,-1.052730680871429,0.009848920668012792,0.03009834192122507,0.02782703745731477
5041,0.0,300.66778999999997,12146.393,-0.050410010150404694,0.0,0.0,0.0,0.0,-0.0076932802965945235,-1.8774099723359379,-0.7607008461678283,-1.054089347930519,-0.004643443626097206,-0.007394879486992783,0.009435964307607172
5042,0.0,300.68255,12336.077,-0.05041998678987203,0.0,0.0,0.0,0.0,-0.007694802872837053,-1.9185624158723682,-0.7695832903869573,-1.061713750957989,0.001212510393115459,-0.021000499982587982,0.024313502556305877
5043,0.0,299.97913,12162.021,-0.05042999646456958,0.0,0.0,0.0,0.0,-0.007696330490722797,-1.884391062874918,-0.7653461723112863,-1.047213534076929,-0.002217932629467908,-0.011687470067213488,0.021684866325379682
5044,0.0,300.31281,12145.774,-0.050440006139267135,0.0,0.0,0.0,0.0,-0.007697858108608541,-1.8652731613131284,-0.7657330008019633,-1.061005691788109,0.006943855219005154,0.006168618986045295,0.018173302195815283
5045,0.0,299.33808,12243.528,-0.050450015813964466,0.0,0.0,0.0,0.0,-0.007699385726494229,-1.8722872838053684,-0.7606174759496003,-1.088822041483369,-0.01033990620271929,-0.002864227923602287,0.01954395499033818
5046,0.0,299.51011,12226.533000000001,-0.05045999245343191,0.0,0.0,0.0,0.0,-0.007700908302736786,-1.8861060899941784,-0.7659337560442763,-1.064520859035029,-0.002246091255046948,0.013848995975539485,0.03838579960213346
5047,0.0,299.70301,12153.768,-0.050470002128129465,0.0,0.0,0.0,0.0,-0.007702435920622502,-1.875717642018918,-0.7672640217030633,-1.051460267896049,0.005456585342648045,0.009273411329839441,0.03035199793800897
5048,0.0,299.40322000000003,12192.059,-0.05048001180282702,0.0,0.0,0.0,0.0,-0.007703963538508246,-1.8851730893020981,-0.7671006452569393,-1.053807664402719,0.008488628558412413,0.02050063533725518,0.03911198075005196
5049,0.0,299.567,12274.39,-0.05048998844229424,0.0,0.0,0.0,0.0,-0.007705486114750748,-1.8760635656030582,-0.7896167951366103,-1.065427717874529,-0.013310126267607187,0.005594226249482145,0.02222020485671348
5050,0.0,300.29738,12232.398000000001,-0.05049999811699202,0.0,0.0,0.0,0.0,-0.0077070137326365196,-1.859935258461318,-0.7733637771725622,-1.0850443411355388,-0.010323339563584291,-0.016695361414453883,0.008079283725338221
5051,0.0,300.2144,12191.181999999999,-0.05051000779168935,0.0,0.0,0.0,0.0,-0.0077085413505222355,-1.863836473996338,-0.7859654876062543,-1.056012901920359,-0.01834993296649738,0.0002035610534299118,-0.002425152711393938
5052,0.0,300.03423,12119.838,-0.050519984431156795,0.0,0.0,0.0,0.0,-0.007710063926764765,-1.8687266216289582,-0.7681729475727672,-1.047228530178409,-0.007459517649297073,0.0009129217633283631,-0.0013906317560196688
5053,0.0,299.69794,12060.128999999999,-0.050529994105854126,0.0,0.0,0.0,0.0,-0.007711591544650481,-1.8797930352461283,-0.7679779475910222,-1.0182072234642292,-0.002973076416919797,-0.0038485173092440866,-0.0002049486690443588
5054,0.0,299.55548999999996,12099.681999999999,-0.05054000378055168,0.0,0.0,0.0,0.0,-0.007713119162536197,-1.888056799086698,-0.7591167816239933,-1.030827658759769,0.007481785441444733,-0.0058418195856177035,0.01077094786150979
5055,0.0,299.48488,12224.663,-0.05055001345524923,0.0,0.0,0.0,0.0,-0.007714646780421941,-1.9054750749307483,-0.7569161949243123,-1.0536010627073291,0.03384739363572767,0.00979204876374997,0.03438888360841857
5056,0.0,299.43502,12173.758999999998,-0.050559990094716456,0.0,0.0,0.0,0.0,-0.007716169356664443,-1.8520833807863981,-0.7629360657559273,-1.0854991891054289,0.03086975860660797,0.007355337199190263,0.026091133332994374
5057,0.0,299.35224,12091.521999999999,-0.05056999976941412,0.0,0.0,0.0,0.0,-0.007717696974550214,-1.8679521945775284,-0.7500292657171252,-1.057539160545989,0.009172653030620372,0.014288182138633788,0.029796647717200173
5058,0.0,299.13313,12363.552,-0.05058000944411156,0.0,0.0,0.0,0.0,-0.00771922459243593,-1.8808050694460086,-0.7751047333618812,-1.1023012062386592,-0.017526678405998485,-0.0046742999287424855,0.038260155576483365
5059,0.0,299.24881,12487.445,-0.0505899860835789,0.0,0.0,0.0,0.0,-0.00772074716867846,-1.930941393669078,-0.7908305471663982,-1.074099416205359,-0.02963882489487427,0.005633237188932224,0.03441872585036376
5060,0.0,299.65305,12352.023000000001,-0.05059999575827623,0.0,0.0,0.0,0.0,-0.007722274786564176,-1.8964351615135782,-0.7908940272851633,-1.067377413716949,-0.02194741665154138,-0.007786087041951962,0.026091943933074374
5061,0.0,299.73318,12189.062,-0.050610005432974,0.0,0.0,0.0,0.0,-0.00772380240444992,-1.8898217794358882,-0.7705360899859912,-1.044812637964979,-0.015537378670169884,-0.007373454110978264,0.022125669635633578
5062,0.0,300.19794,12167.221000000001,-0.050620015107671334,0.0,0.0,0.0,0.0,-0.007725330022335636,-1.8709870812770484,-0.7653595472126062,-1.062184709604469,-0.004482856556173496,-0.015375539324447587,0.013973701731596986
5063,0.0,299.67774,12083.165,-0.05062999174713878,0.0,0.0,0.0,0.0,-0.0077268525985781655,-1.8718773228149084,-0.7590639710287813,-1.0420392711162692,0.015516166279326383,0.003308700617768327,0.014322969041066985
5064,0.0,299.94489,12092.393999999998,-0.050640001421836334,0.0,0.0,0.0,0.0,-0.007728380216463909,-1.867424899225488,-0.7545876246045002,-1.0537732138993188,0.01883167766029188,-0.007530922498419182,0.009091204441207021
5065,0.0,300.11028999999996,12247.082,-0.050650011096533665,0.0,0.0,0.0,0.0,-0.007729907834349625,-1.8926693161919181,-0.7818226828498912,-1.0483151395856491,0.01704316457752938,-0.006432989008061584,0.018698603471658484
5066,0.0,300.51795,12109.722,-0.05065998773600111,0.0,0.0,0.0,0.0,-0.007731430410592155,-1.8896781005717085,-0.7427522250889372,-1.048622660990999,0.0036141148682103667,-0.01274657277398879,0.026748823840403373
5067,0.0,300.10643,12269.825,-0.050669997410698664,0.0,0.0,0.0,0.0,-0.007732958028477899,-1.8762311571695982,-0.7885429830781332,-1.0649462214270091,-0.0035177901461288567,0.008068182759892644,0.02774353754307397
5068,0.0,300.3066,12448.358999999999,-0.05068000708539622,0.0,0.0,0.0,0.0,-0.007734485646363615,-1.893868497685268,-0.7879681662964033,-1.102153575699089,-0.0017562917295824983,-0.006244646180798594,0.016641090725847785
5069,0.0,299.45202,12350.095,-0.05068998372486344,0.0,0.0,0.0,0.0,-0.007736008222606117,-1.8718320305354381,-0.7974290851301232,-1.084859524317299,-0.01928129523316568,0.003128239964358247,0.011519744751660288
5070,0.0,299.76234,12255.707,-0.050699993399560994,0.0,0.0,0.0,0.0,-0.00773753584049186,-1.8686918671505282,-0.7924973638459003,-1.064239682132279,-0.013617645646456988,-0.0029427372771255573,0.01980283025838718
5071,0.0,300.21911,12282.051000000001,-0.05071000307425855,0.0,0.0,0.0,0.0,-0.007739063458377604,-1.9140460562016381,-0.7587248564853133,-1.0606659490295791,-0.016198542598921683,0.017648560234027284,0.039084563215596065
5072,0.0,299.89649,12234.723,-0.05072001274895599,0.0,0.0,0.0,0.0,-0.007740591076263348,-1.900766400391038,-0.7735594965618783,-1.044724282556259,0.006143747546440675,-0.01027424759623929,0.022283932208502878
5073,0.0,300.03626,12152.161,-0.050729989388423324,0.0,0.0,0.0,0.0,-0.00774211365250585,-1.8900928238376382,-0.7511979382499643,-1.052662691789719,0.003524542850095296,-0.007239925277024994,0.018502690551573383
5074,0.0,300.10287,12251.206,-0.050739999063120766,0.0,0.0,0.0,0.0,-0.0077436412703915936,-1.895431942589568,-0.7605831571687133,-1.0680455508328888,0.018379897811704682,-0.015363828179791785,0.014832746312128086
5075,0.0,299.92045,12230.747,-0.05075000873781832,0.0,0.0,0.0,0.0,-0.0077451688882773095,-1.8821921075078982,-0.7635435699858832,-1.072105846633609,0.003333317528947827,0.005358219934865135,0.01145087414236329
5076,0.0,300.42375,12262.298,-0.050759985377285766,0.0,0.0,0.0,0.0,-0.007746691464519839,-1.8871668615238681,-0.7770927401905823,-1.063172729776979,0.014422090232099486,-0.015138061872010385,0.00945555509299063
5077,0.0,300.56177,12382.943000000001,-0.0507699950519831,0.0,0.0,0.0,0.0,-0.007748219082405555,-1.917466383239198,-0.7865622919151543,-1.060076845421439,-0.002038320066391528,-0.005899248878760535,0.035337270503267064
5078,0.0,300.57478,12422.003,-0.05078000472668065,0.0,0.0,0.0,0.0,-0.007749746700291299,-1.9129550898189682,-0.7834866522966122,-1.0795370228670091,0.018988613888780283,0.004041301414345396,0.03192646599014687
5079,0.0,300.62728,12303.848999999998,-0.0507900144013782,0.0,0.0,0.0,0.0,-0.007751274318177043,-1.8844379763545485,-0.7773677362677223,-1.078257085340689,-0.0038119399938841866,0.017881325060249382,0.03794090276147556
5080,0.0,300.43833,12251.393999999998,-0.05079999104084543,0.0,0.0,0.0,0.0,-0.007752796894419545,-1.8743998089388585,-0.7870461998979122,-1.0626717789275388,-0.003112031205158567,0.006043738748320574,0.007349931104606723
5081,0.0,300.02815,12378.621000000001,-0.05081000071554298,0.0,0.0,0.0,0.0,-0.007754324512305288,-1.8894255986467883,-0.7863748305141532,-1.0869913012026888,-0.043309664145081056,0.009198150760111802,0.008684427893161303
5082,0.0,300.3193,12296.291000000001,-0.05082001039024053,0.0,0.0,0.0,0.0,-0.007755852130191004,-1.8898665650903084,-0.7770880387101183,-1.070810710355789,-0.012585331245825488,0.004130763900124656,0.015712304140933685
5083,0.0,299.73758,12206.183,-0.05082998702970798,0.0,0.0,0.0,0.0,-0.007757374706433534,-1.9148297038289783,-0.7642918551847333,-1.031253325126779,-0.025003188462122575,0.009107629225328023,0.027325593155076076
5084,0.0,300.29103,12272.133,-0.05083999670440531,0.0,0.0,0.0,0.0,-0.00775890232431925,-1.8940353799767382,-0.7636678147131453,-1.072718660294089,0.017022945171783883,-0.014755182016973086,0.014593549374271186
5085,0.0,300.07636,12251.803,-0.05085000637910286,0.0,0.0,0.0,0.0,-0.007760429942204994,-1.9008564783249284,-0.7686247456598563,-1.054760930096799,0.011223014459875289,-0.027522726028281576,0.013564033570415888
5086,0.0,300.42827,12258.906,-0.050860016053800416,0.0,0.0,0.0,0.0,-0.0077619575600907376,-1.8741370731879283,-0.7749846936225342,-1.077279400319199,0.03876743417279786,-0.0027045830749465676,0.009373365209804122
5087,0.0,300.09057,12498.415,-0.05086999269326775,0.0,0.0,0.0,0.0,-0.007763480136333267,-1.9190472560452183,-0.7867606254897282,-1.093398284235009,0.02382773221986408,0.015639937818791683,0.014211667570582386
5088,0.0,299.57695,12426.333999999999,-0.050880002367965194,0.0,0.0,0.0,0.0,-0.0077650077542189555,-1.9113646924620082,-0.7971441997320072,-1.0687865406310189,0.009460040447208301,0.001208123020182459,0.022545721583839478
5089,0.0,299.18645,12266.868999999999,-0.05089001204266275,0.0,0.0,0.0,0.0,-0.007766535372104699,-1.9154966250447982,-0.7670603280354602,-1.046264726683289,-0.021590490184565478,0.007091570770258543,0.029180743643915177
5090,0.0,299.80104,12469.528999999999,-0.05089998868213008,0.0,0.0,0.0,0.0,-0.007768057948347229,-1.909400608468168,-0.8024802382036332,-1.0785445443940591,-0.016300649837998882,0.0008965833689108892,0.04016782991075617
5091,0.0,300.00676,12410.246000000001,-0.050909998356827524,0.0,0.0,0.0,0.0,-0.007769585566232945,-1.911949641744738,-0.7686643536062653,-1.0917908642763687,-0.011156551332815888,0.014243580895731987,0.03931841525917546
5092,0.0,300.07575,12265.981000000002,-0.050920008031524966,0.0,0.0,0.0,0.0,-0.007771113184118689,-1.8737509235748182,-0.7844968322488092,-1.070304085305789,-0.022564930779235277,-0.014739406726166186,0.004020229155990726
5093,0.0,299.59631,12223.341999999999,-0.05092998467099241,0.0,0.0,0.0,0.0,-0.007772635760361218,-1.8867443362321683,-0.7742566430281812,-1.054589893479919,-0.01072102705558299,-0.009017202226778572,0.001225833314705329
5094,0.0,299.9708,12361.839,-0.050939994345689965,0.0,0.0,0.0,0.0,-0.007774163378246962,-1.921854769422298,-0.7721853571737612,-1.063650375874119,-0.0027190407353234274,0.0032915495359756475,0.02070675675209778
5095,0.0,300.18646,12323.435,-0.050950004020387296,0.0,0.0,0.0,0.0,-0.00777569099613265,-1.919730389262638,-0.7692427775583514,-1.057043478597069,0.012687900526948287,0.017734992494057484,0.028858190673331674
5096,0.0,299.68688,12386.257,-0.05096001369508485,0.0,0.0,0.0,0.0,-0.007777218614018394,-1.9062311621553683,-0.7789721063435613,-1.079909493603769,0.008720833462629252,-0.012435765398564488,0.00987096422791332
5097,0.0,299.93172000000004,12466.344,-0.050969990334552295,0.0,0.0,0.0,0.0,-0.007778741190260924,-1.9069372961500584,-0.7927413342049783,-1.089778549577769,0.023799137288791978,-0.01994512096993018,0.02060227749453648
5098,0.0,299.79381,12399.873,-0.05098000000924985,0.0,0.0,0.0,0.0,-0.0077802688081466675,-1.8829787948855383,-0.7957857859854423,-1.090487216697709,0.01989387787262288,-0.011519193543605888,0.007343709445017693
5099,0.0,300.38878,12435.291000000001,-0.05099000968394718,0.0,0.0,0.0,0.0,-0.0077817964260323835,-1.9125062200246683,-0.7855181174221022,-1.081993546409449,0.021988919375637378,-0.004901973983812166,0.016836849631917682
5100,0.0,300.76701,12461.528999999999,-0.05099998632341485,0.0,0.0,0.0,0.0,-0.007783319002274941,-1.9422041751556283,-0.7844706903962293,-1.061318786069009,-0.01085091558590199,-0.01132162801260769,0.01718809581883298
5101,0.0,300.65072000000004,12292.303999999998,-0.05100999599811218,0.0,0.0,0.0,0.0,-0.007784846620160657,-1.9121633361908281,-0.7674877067951393,-1.056902434183149,-0.0074813859169303035,-0.0003581530366194527,0.03324424334145137
5102,0.0,300.5322,12132.713,-0.05102000567280951,0.0,0.0,0.0,0.0,-0.007786374238046345,-1.897446283788368,-0.7449702700878413,-1.045625365870189,-0.0026854661866348773,0.022558284871829377,0.03380166464546457
5103,0.0,300.4979,12366.608,-0.05103001534750706,0.0,0.0,0.0,0.0,-0.007787901855932089,-1.895709370466948,-0.7789735755562063,-1.0844569600525689,-0.007919361043505081,0.03804228350023106,0.03181364971076277
5104,0.0,299.90629,12535.356000000002,-0.05103999198697451,0.0,0.0,0.0,0.0,-0.007789424432174619,-1.9140447389765083,-0.8046389371441802,-1.0917514488474789,-0.028150548962492875,0.008285020206467833,-0.0018659102929760082
5105,0.0,300.06931000000003,12442.402,-0.05105000166167206,0.0,0.0,0.0,0.0,-0.007790952050060362,-1.9213136938688982,-0.7890822145163512,-1.071783531776799,-0.02177873685439398,-0.006398981092305264,0.01055789277623289
5106,0.0,299.91798,12314.03,-0.05106001133636939,0.0,0.0,0.0,0.0,-0.007792479667946078,-1.916762883694768,-0.7712882660652253,-1.055106448380899,3.293028982446657e-05,0.012582226647519089,0.011559192604553488
5107,0.0,300.03238999999996,12319.694,-0.05106998797583695,0.0,0.0,0.0,0.0,-0.007794002244188636,-1.922208900332248,-0.7489863273891953,-1.0736842876393888,0.020762111618310878,-0.0005570517007742224,0.04393222628477316
5108,0.0,300.19009,12328.728000000001,-0.05107999765053428,0.0,0.0,0.0,0.0,-0.007795529862074352,-1.902526213164718,-0.7782757704773383,-1.0668234698872792,0.015556212963028686,-0.017362633214808482,0.016202601678822284
5109,0.0,300.09411,12368.964,-0.051090007325231834,0.0,0.0,0.0,0.0,-0.007797057479960068,-1.900234545413548,-0.7748492018191623,-1.0847724861337091,0.012805818520585887,-0.026797033266911272,0.025036352137895578
5110,0.0,299.78442,12379.628999999999,-0.05109998396469928,0.0,0.0,0.0,0.0,-0.007798580056202625,-1.8886824810234484,-0.7805945224036812,-1.0938211135017388,0.03297824391194926,0.006314838270876014,0.013434195702601886
5111,0.0,300.31059,12345.971000000001,-0.051109993639396833,0.0,0.0,0.0,0.0,-0.007800107674088341,-1.9185315117443182,-0.7887616525822142,-1.045573892765109,0.007567848473138493,0.0038343774040985865,0.01803301366646988
5112,0.0,300.4616,12428.268999999998,-0.051120003314094165,0.0,0.0,0.0,0.0,-0.007801635291974057,-1.920147645653818,-0.7968065138711802,-1.060929394055579,-0.015948405599735087,0.003753590061700497,0.011053206915366591
5113,0.0,300.67609,12537.103000000001,-0.051130012988791496,0.0,0.0,0.0,0.0,-0.007803162909859773,-1.9376166853278782,-0.7934426552616932,-1.0799070618035291,-0.03701600807019557,-0.004584974333051736,0.03739875316296957
5114,0.0,300.3905,12406.883,-0.051139989628259164,0.0,0.0,0.0,0.0,-0.007804685486102331,-1.9076929780746381,-0.7765857909005502,-1.0871037719637888,-0.01202405756493209,0.029431528109915676,0.03218692192835187
5115,0.0,300.47481,12360.722,-0.051149999302956495,0.0,0.0,0.0,0.0,-0.007806213103988047,-1.8906827380458582,-0.7779683909270023,-1.088699742196299,-0.00899173084178974,0.020921652912806378,0.02042778670806558
5116,0.0,299.85229,12396.9,-0.05116000897765405,0.0,0.0,0.0,0.0,-0.007807740721873763,-1.8972146548155082,-0.7841526210573383,-1.086980662076639,0.003364176263393346,8.918120147199932e-05,0.008863095499194423
5117,0.0,299.77271,12411.798,-0.051169985617121494,0.0,0.0,0.0,0.0,-0.00780926329811632,-1.926742890554718,-0.7771436560081073,-1.068990102576109,0.0007592102235482153,-0.033037346790282265,0.009204856854573642
5118,0.0,299.2624,12303.909,-0.05117999529181905,0.0,0.0,0.0,0.0,-0.007810790916002036,-1.924994122207128,-0.7526028905736223,-1.0624840236840092,0.029205439588602472,-0.0022825500201451476,0.025752891197862476
5119,0.0,299.74685,12486.226999999999,-0.05119000496651638,0.0,0.0,0.0,0.0,-0.007812318533887752,-1.932503926648288,-0.7889483743106422,-1.074049057675389,0.030847731562684073,-0.01005620458469512,0.026269582887605974
5120,0.0,300.53496,12579.127,-0.05120001464121393,0.0,0.0,0.0,0.0,-0.007813846151773496,-1.9285061483787382,-0.7890565488913183,-1.106177698471239,0.016902557887652585,-0.0027930278523253874,0.03340395587521377
5121,0.0,300.9923,12549.561000000002,-0.051209991280681266,0.0,0.0,0.0,0.0,-0.007815368728016026,-1.8950071881476482,-0.8195715382404132,-1.100174495603769,-0.009069913928780812,-0.011903074489741988,0.014749070092369884
5122,0.0,300.79228,12558.761,-0.05122000095537882,0.0,0.0,0.0,0.0,-0.00781689634590177,-1.9119481218695882,-0.8029498086974762,-1.1026517907732591,-0.007565394685371323,0.022040741038751775,0.019201778405067982
5123,0.0,301.05596,12517.63,-0.05123001063007626,0.0,0.0,0.0,0.0,-0.007818423963787458,-1.9416773864286379,-0.7832325190390312,-1.080137069576229,-0.014025620666720987,0.007158324396121613,0.027743657106585773
5124,0.0,300.25383999999997,12345.865,-0.05123998726954382,0.0,0.0,0.0,0.0,-0.007819946540030043,-1.9148278799787983,-0.7847021673815743,-1.053304484403059,-0.030082110667873176,-0.005277459950219745,0.006354332023998744
5125,0.0,300.16536,12207.028999999999,-0.05124999694424115,0.0,0.0,0.0,0.0,-0.007821474157915731,-1.9068761971690285,-0.7471538747158464,-1.056601802878479,-0.013390573259296686,-0.013469053532542088,0.025463486704300476
5126,0.0,299.69846,12266.513,-0.05126000661893848,0.0,0.0,0.0,0.0,-0.007823001775801447,-1.8857912731881084,-0.7685808719305263,-1.074341481654249,-0.007608497736675263,0.008741147809909122,0.030093103418208072
5127,0.0,299.72989,12344.866000000002,-0.051270016293636034,0.0,0.0,0.0,0.0,-0.00782452939368719,-1.8929144213911082,-0.7706224492920143,-1.088994192675359,0.02156216072501958,0.010214580337600589,0.02016484729386548
5128,0.0,299.96291,12510.052,-0.05127999293310348,0.0,0.0,0.0,0.0,-0.00782605196992972,-1.9165375368725281,-0.7933862678936282,-1.0928197184279091,-0.0014434569420331085,-0.007725236003221433,0.005231771692610665
5129,0.0,300.51072,12604.648000000001,-0.05129000260780103,0.0,0.0,0.0,0.0,-0.007827579587815464,-1.9500998252348682,-0.7954921866364663,-1.085906414320619,0.020484442587407083,-0.006088997590537275,0.015829784410528087
5130,0.0,299.8892,12575.997,-0.051300012282498364,0.0,0.0,0.0,0.0,-0.007829107205701152,-1.9450394515854479,-0.7984565207315233,-1.079293234892949,-0.005690079810267155,-0.0012465068591456488,0.02093780715915068
5131,0.0,300.10334,12511.938999999998,-0.05130998892196603,0.0,0.0,0.0,0.0,-0.007830629781943738,-1.9192917532943483,-0.7996547801672822,-1.084370529819039,0.023265152459591775,-0.003507493903912697,0.024251451120181875
5132,0.0,299.78527,12562.454,-0.05131999859666336,0.0,0.0,0.0,0.0,-0.007832157399829426,-1.9192249801127583,-0.8019584751971393,-1.097489078863739,-0.0047091885614857255,-0.006205596231219665,0.02985654498361157
5133,0.0,299.72402999999997,12473.973,-0.051330008271360916,0.0,0.0,0.0,0.0,-0.00783368501771517,-1.911337942659368,-0.7904113453350262,-1.0900269985022888,0.003129301039862967,-0.014935142327483787,0.028662179467986874
5134,0.0,300.13374,12230.809,-0.05133998491082825,0.0,0.0,0.0,0.0,-0.0078352075939577,-1.906306649287818,-0.7562709775256343,-1.055282753898299,-0.014453231460672886,0.013579615330453685,0.03487672705456497
5135,0.0,300.84394,12281.451000000001,-0.051349994585525804,0.0,0.0,0.0,0.0,-0.007836735211843443,-1.9267499833054182,-0.7617164571405612,-1.0447879146625392,-0.005687281213490955,0.014655749758159885,0.025252701299247577
5136,0.0,300.13118,12489.348,-0.051360004260223246,0.0,0.0,0.0,0.0,-0.007838262829729159,-1.943144572573438,-0.7695982155609302,-1.083707256303579,-0.012996206187875685,0.0052434731100655056,0.02105241993096208
5137,0.0,300.4892,12614.468,-0.05137001393492058,0.0,0.0,0.0,0.0,-0.007839790447614847,-1.9377688754928983,-0.8000872353099622,-1.096627208328679,-0.002808769604553977,-0.013994888791187985,0.016007725313589485
5138,0.0,300.53122,12526.07,-0.051379990574388135,0.0,0.0,0.0,0.0,-0.007841313023857432,-1.9123905068632483,-0.7857601018109842,-1.109461844695359,0.0022515429458849876,0.0001174735010837319,0.026082624058654576
5139,0.0,300.35336,12627.376,-0.051390000249085466,0.0,0.0,0.0,0.0,-0.00784284064174312,-1.9271331944932382,-0.8067316329732133,-1.104542110159819,0.006043827610354344,-0.01078002050290519,0.017946658413447284
5140,0.0,299.58569,12656.388,-0.05140000992378302,0.0,0.0,0.0,0.0,-0.007844368259628864,-1.9491882041198982,-0.8099029234011952,-1.0881347539405388,0.0034239574113432867,0.003692787051024707,0.006758748712561563
5141,0.0,299.63655,12538.007,-0.051409986563250465,0.0,0.0,0.0,0.0,-0.007845890835871394,-1.9473045721839983,-0.7951280650805302,-1.0688083255081688,0.013573782049627985,-0.006451417798230364,0.03372057120021127
5142,0.0,299.58248,12342.84,-0.05141999623794802,0.0,0.0,0.0,0.0,-0.007847418453757138,-1.9094061813437182,-0.7807918123306523,-1.0617171960083291,0.012280417946232887,0.01193692514908279,0.015682432514735587
5143,0.0,300.03985,12361.643999999998,-0.05143000591264535,0.0,0.0,0.0,0.0,-0.007848946071642854,-1.902917023728288,-0.7773688103128282,-1.077345464225719,0.013852739934658987,0.005060285192686266,0.03414449781679957
5144,0.0,300.16692,12433.916000000001,-0.0514400155873429,0.0,0.0,0.0,0.0,-0.00785047368952857,-1.903558309716578,-0.7840380933985353,-1.092003444147349,-0.0049240836076192155,-0.00027106903385993073,0.007058429082012713
5145,0.0,299.87408,12497.43,-0.05144999222681035,0.0,0.0,0.0,0.0,-0.007851996265771127,-1.934641580384258,-0.7683185414796363,-1.095946405586489,-0.016060107304009186,-0.011816108246909091,0.04455029567352186
5146,0.0,299.90013,12507.16,-0.0514600019015079,0.0,0.0,0.0,0.0,-0.007853523883656843,-1.9318866546873683,-0.7837921168042592,-1.0861855647231689,-0.008057026572316613,0.007320748589801633,0.02180281876952068
5147,0.0,299.94901,12512.233999999999,-0.05147001157620523,0.0,0.0,0.0,0.0,-0.00785505150154256,-1.937084121075318,-0.7794923089449013,-1.086830093111779,-0.0038604358661953565,0.0008735834225059712,0.02434327995024468
5148,0.0,300.17394,12673.706,-0.05147998821567279,0.0,0.0,0.0,0.0,-0.007856574077785117,-1.9365360540962282,-0.7966232270605912,-1.1193307993443489,-0.008399462853587442,0.005762141144129055,-0.0011588958852741188
5149,0.0,299.90701,12636.027,-0.05148999789037023,0.0,0.0,0.0,0.0,-0.007858101695670833,-1.945045024460998,-0.7911218667026493,-1.104869795242159,-0.01170605104754729,-0.006636178583739834,0.02101677987194468
5150,0.0,300.34445,12441.431999999999,-0.05150000756506756,0.0,0.0,0.0,0.0,-0.007859629313556549,-1.9142954170512483,-0.7722633571664592,-1.0953259925502592,0.014289262263240385,0.008618624999867062,0.02667299118966927
5151,0.0,300.31153,12435.7,-0.05150998420453501,0.0,0.0,0.0,0.0,-0.007861151889799078,-1.9210206619399781,-0.7771834260745323,-1.0819383242789988,0.015476717413183086,0.004637325520668396,0.03726505683877476
5152,0.0,299.96387999999996,12475.41,-0.05151999387923256,0.0,0.0,0.0,0.0,-0.007862679507684822,-1.933117854883878,-0.7791736215234493,-1.0799216526049689,0.019845183099317085,-0.004891055707359615,0.04624333526561186
5153,0.0,300.06012999999996,12543.912,-0.051530003553930004,0.0,0.0,0.0,0.0,-0.007864207125570538,-1.9421005196703982,-0.7939566061099163,-1.0769788703395389,-0.0060568264945622344,-0.02118555998085198,0.037116294498843065
5154,0.0,300.29915,12572.465,-0.051540013228627446,0.0,0.0,0.0,0.0,-0.007865734743456254,-1.9377918762701682,-0.7846706755684663,-1.099252843312809,-0.007820427303741082,0.006829619984181014,0.03891823719843096
5155,0.0,299.73712,12519.665,-0.051549989868095,0.0,0.0,0.0,0.0,-0.007867257319698812,-1.918420054233318,-0.8045655069094333,-1.082680023352199,-0.008367758156633431,0.012137113984589887,0.005199560978556715
5156,0.0,299.52327,12435.96,-0.051559999542792334,0.0,0.0,0.0,0.0,-0.007868784937584528,-1.9049852698324083,-0.7890465886428353,-1.086189516398559,-0.018046659105566583,0.018563906056364883,0.009267002725606962
5157,0.0,299.66521,12490.681,-0.05157000921748989,0.0,0.0,0.0,0.0,-0.007870312555470271,-1.9403339181210482,-0.7725062636129323,-1.084014777708929,-0.01902121622399788,-0.005920765244634035,0.009135612254664732
5158,0.0,300.1954,12623.633999999998,-0.05157998585695711,0.0,0.0,0.0,0.0,-0.007871835131712773,-1.952758796147288,-0.7933714845746692,-1.091139445787079,-0.013030174384228089,0.004634994437488335,0.02375881094806208
5159,0.0,299.82337,12479.221000000001,-0.051589995531654886,0.0,0.0,0.0,0.0,-0.007873362749598545,-1.9270270058827583,-0.7831035626988043,-1.083240958607559,0.006404270460477284,0.011220826852909389,0.006655879408084154
5160,0.0,300.05073,12466.78,-0.05160000520635222,0.0,0.0,0.0,0.0,-0.007874890367484233,-1.901207164184538,-0.7981172947305443,-1.090265416250819,-0.002315180929015568,0.0017909549141784883,-0.0027745276280245574
5161,0.0,299.98593,12604.661,-0.05161001488104955,0.0,0.0,0.0,0.0,-0.007876417985369949,-1.9321796866162881,-0.7999539625243092,-1.099368556474229,0.011224303314002489,-0.006966562863021223,0.02094706826506468
5162,0.0,300.01679,12669.438,-0.05161999152051722,0.0,0.0,0.0,0.0,-0.007877940561612506,-1.9334859686452082,-0.8064356119564983,-1.1112712053989289,-0.001009170066087331,-0.002926692461792057,0.02889600212731337
5163,0.0,300.14287,12523.785,-0.05163000119521455,0.0,0.0,0.0,0.0,-0.007879468179498222,-1.9580863638480783,-0.7821461021493102,-1.0666853638986489,0.02335965626991858,0.007729846899126492,0.03804706502745296
5164,0.0,300.53754,12486.909,-0.0516400108699121,0.0,0.0,0.0,0.0,-0.007880995797383966,-1.9286799207708882,-0.7981912315903412,-1.068837304461029,0.0014461110493450484,-0.0032278745692164166,0.039019625029937166
5165,0.0,299.89207000000005,12456.651000000002,-0.05164998750937955,0.0,0.0,0.0,0.0,-0.007882518373626496,-1.9439214314251083,-0.7745367864158293,-1.068052846233609,0.006101902039835844,-0.006788156067563843,0.031140646967842574
5166,0.0,300.20104,12613.871000000001,-0.05165999718407699,0.0,0.0,0.0,0.0,-0.00788404599151224,-1.932128112186198,-0.7839889710336873,-1.118184712156239,-0.015030643175908987,0.005048517609999895,0.03349365181381607
5167,0.0,299.88704,12799.813999999998,-0.05167000685877443,0.0,0.0,0.0,0.0,-0.007885573609397928,-1.973636915782798,-0.8028967143922362,-1.1142902853968888,-0.011218629113442489,0.01890049558058368,0.008594166966303243
5168,0.0,299.77156,12587.425,-0.051679983498241766,0.0,0.0,0.0,0.0,-0.007887096185640458,-1.9317236227462782,-0.7794840509565862,-1.1150552892223888,-0.014061316454493884,0.008105077526508872,0.011135066377695488
5169,0.0,300.02241000000004,12408.239,-0.05168999317293932,0.0,0.0,0.0,0.0,-0.007888623803526201,-1.954063659626068,-0.7653197467486783,-1.0524115070899291,-0.00979500785934201,-0.007931367145264993,0.012601455094666788
5170,0.0,300.71912000000003,12611.003999999999,-0.05170000284763687,0.0,0.0,0.0,0.0,-0.007890151421411945,-1.9574362625839181,-0.7769292725519492,-1.099064682769239,0.011715894772268788,-0.01239315823185949,0.029404024449201274
5171,0.0,300.59339,12786.943000000001,-0.0517100125223342,0.0,0.0,0.0,0.0,-0.007891679039297661,-1.9705157001747584,-0.8175603381169232,-1.098835282946599,0.013741746492204788,-0.006548375396324333,0.017752360614021585
5172,0.0,301.03724,12488.232,-0.05171998916180165,0.0,0.0,0.0,0.0,-0.00789320161554019,-1.9140385581508983,-0.7884462683560882,-1.0936257588824592,0.018338723380641082,-0.012476390648073887,0.013871743440284487
5173,0.0,300.48357000000004,12344.561000000002,-0.0517299988364992,0.0,0.0,0.0,0.0,-0.007894729233425934,-1.8942152318694883,-0.7948324594963562,-1.063390679873489,0.0050165193744919154,-0.006339055454891064,0.02303594414122068
5174,0.0,300.69244,12522.082,-0.051740008511196534,0.0,0.0,0.0,0.0,-0.007896256851311623,-1.925889531320498,-0.7896329260782022,-1.090877824611259,0.016167132859071787,0.0065603448184306246,0.023183084267742276
5175,0.0,300.11811,12757.383,-0.05174998515066398,0.0,0.0,0.0,0.0,-0.007897779427554152,-1.9790783727948282,-0.7999066538771402,-1.0989408636070188,-0.0013808602760302985,0.02268446997303288,0.03414916383351006
5176,0.0,300.2583,12757.633999999998,-0.05175999482536153,0.0,0.0,0.0,0.0,-0.007899307045439896,-1.951645842237448,-0.8189985959713683,-1.1073576282126887,-0.014211995863614787,-0.010469584990267589,0.017877783751149883
5177,0.0,300.22342000000003,12525.46,-0.051770004500059086,0.0,0.0,0.0,0.0,-0.00790083466332564,-1.930919507466918,-0.7852081236865082,-1.091299336652859,-0.02011798548999058,-0.015909994301694184,0.024589822951326577
5178,0.0,300.44956,12489.633999999998,-0.05178001417475642,0.0,0.0,0.0,0.0,-0.007902362281211356,-1.9115547781807682,-0.7820440881292422,-1.1029380339265091,-0.005572686882831374,-0.012594945976024388,0.015637193937520884
5179,0.0,299.92717999999996,12638.067,-0.05178999081422386,0.0,0.0,0.0,0.0,-0.007903884857453886,-1.9466576119951482,-0.7875313643107942,-1.107467869823569,0.007095981447943844,0.01029843488937639,0.012780759832362787
5180,0.0,299.6338,12781.926000000001,-0.051800000488921416,0.0,0.0,0.0,0.0,-0.007905412475339602,-1.9719366821149982,-0.8006677972197592,-1.1127818599730188,0.011448711866649888,-0.0013726035036154187,0.017012430675496185
5181,0.0,299.82343,12639.106000000002,-0.05181001016361897,0.0,0.0,0.0,0.0,-0.007906940093225345,-1.974305863498818,-0.7929491619329893,-1.074717600091369,0.004125008943531686,-0.013694005187243088,0.03346594854283197
5182,0.0,299.91176,12446.087,-0.05181998680308619,0.0,0.0,0.0,0.0,-0.007908462669467847,-1.9431397089729583,-0.7737140475996312,-1.066445831575009,0.03439450511997337,-0.016328555759002984,0.033471401854870166
5183,0.0,299.57869,12640.333999999999,-0.051829996477783746,0.0,0.0,0.0,0.0,-0.007909990287353591,-1.9539559511404379,-0.7957227010342163,-1.0926671229628488,0.02159702058145998,0.007005245509438904,0.032715202159489074
5184,0.0,300.13624,12982.453000000001,-0.0518400061524813,0.0,0.0,0.0,0.0,-0.007911517905239335,-1.9724243593881283,-0.8267987674936852,-1.1471184740617788,0.011553694709510889,-0.01093097551605329,0.034905249031629865
5185,0.0,300.17028,12828.002,-0.05185001582717863,0.0,0.0,0.0,0.0,-0.00791304552312505,-1.9496691939423683,-0.8169639289755622,-1.132758997619609,-0.03344008026777897,-0.012233457857098288,0.028323078096770173
5186,0.0,300.78672,12495.812,-0.051859992466645966,0.0,0.0,0.0,0.0,-0.00791456809936758,-1.9250252289851981,-0.7917878658608782,-1.0816015199457591,-0.010892430468999188,0.0012033870892150587,0.03146488396009227
5187,0.0,301.31489,12458.017,-0.05187000214134352,0.0,0.0,0.0,0.0,-0.007916095717253296,-1.9454112130471382,-0.7794842029441013,-1.062030492939249,0.0035779562277917865,0.020473380936065377,0.014596338851796488
5188,0.0,299.95597000000004,12530.466,-0.05188001181604107,0.0,0.0,0.0,0.0,-0.00791762333513904,-1.946618804516318,-0.7746030023098642,-1.0877269207752889,0.002434264160268168,0.007534716714743644,0.018149619501227985
5189,0.0,299.99766,12720.378999999999,-0.051889988455508296,0.0,0.0,0.0,0.0,-0.007919145911381542,-1.9613665583968083,-0.8176175664825712,-1.087693382196979,-0.01976809097870868,0.0007232626431254653,0.0018755460987769882
5190,0.0,300.28831,12662.653999999999,-0.05189999813020585,0.0,0.0,0.0,0.0,-0.007920673529267286,-1.9424012523000782,-0.7977675511935272,-1.108961704445999,-0.0039008279668567465,-0.008455273175720493,0.012112902373450387
5191,0.0,299.61352999999997,12481.157,-0.0519100078049034,0.0,0.0,0.0,0.0,-0.00792220114715303,-1.933590536055528,-0.7894075893884633,-1.0709618872707092,0.013500134979359587,0.013784628249686886,0.003021589717132687
5192,0.0,299.67945,12633.038,-0.05191998444437085,0.0,0.0,0.0,0.0,-0.00792372372339556,-1.961726464832328,-0.7995421472861662,-1.0788593612001292,0.02914096040523887,-0.013671251642997486,0.017779810572480684
5193,0.0,300.42049,12917.12,-0.05192999411906818,0.0,0.0,0.0,0.0,-0.007925251341281275,-2.019005796960358,-0.7959373985979052,-1.111538804750339,0.004790976792332595,-0.01008973120665394,0.03508499351986927
5194,0.0,300.08078,12892.431,-0.05194000379376573,0.0,0.0,0.0,0.0,-0.007926778959166991,-1.9715749518292982,-0.8346211089281903,-1.1127810493729389,0.011875376285008387,-0.0003171376655565507,0.04292177680804955
5195,0.0,300.36215,12592.823999999999,-0.051950013468463285,0.0,0.0,0.0,0.0,-0.007928306577052735,-1.9524580635176083,-0.7831501823359053,-1.092295766801199,0.012894554911343488,0.013450848467995387,0.03312664452159527
5196,0.0,300.39317,12558.032,-0.05195999010793073,0.0,0.0,0.0,0.0,-0.007929829153295265,-1.9098654876140482,-0.8040751445235382,-1.1033876129958788,0.004376123729064785,-0.012926399335486288,0.02565824553252168
5197,0.0,300.59105,12704.096000000001,-0.05196999978262806,0.0,0.0,0.0,0.0,-0.00793135677118098,-1.9579136047060282,-0.8037614422925782,-1.100052804266759,-0.01960054602167328,0.005969092106828524,0.027975895042755876
5198,0.0,301.03659,12873.616000000002,-0.051980009457325616,0.0,0.0,0.0,0.0,-0.007932884389066724,-1.984920164921368,-0.8066624989188903,-1.121675156100719,-0.018175674214299383,-0.006320919595326193,0.024675583426540477
5199,0.0,300.48437,12672.152,-0.05198998609679295,0.0,0.0,0.0,0.0,-0.007934406965309254,-1.9799321373290881,-0.8018996965588382,-1.070185940344129,-0.0040808030708189055,0.02877105825748237,0.012360553870141688
5200,0.0,300.33095,12472.785,-0.05199999577149039,0.0,0.0,0.0,0.0,-0.00793593458319497,-1.9372256721142882,-0.7756385641770662,-1.078551130519709,-0.006858319077363393,-0.006803984554000993,0.01104769078182219
5201,0.0,300.19203,12601.537,-0.052010005446187946,0.0,0.0,0.0,0.0,-0.007937462201080686,-1.9498284768580878,-0.7904875620075482,-1.090236639947979,0.005415388721407255,-0.00047406038742111754,0.006530100620170753
5202,0.0,300.52816,12888.995,-0.0520200151208855,0.0,0.0,0.0,0.0,-0.00793898981896643,-1.9617943525890282,-0.8282699458438793,-1.127868444686949,0.008791791265807241,-0.006086599835500635,0.024190179886634876
5203,0.0,300.11023,12862.988000000001,-0.052029991760352834,0.0,0.0,0.0,0.0,-0.00794051239520896,-1.979119612073898,-0.8097138408000342,-1.121193760978209,0.02007807964805218,0.015364306433838987,0.025126248700017676
5204,0.0,299.91622,12597.355,-0.052040001435050165,0.0,0.0,0.0,0.0,-0.007942040013094676,-1.9540821007778881,-0.7927090824542953,-1.0824900389584489,0.02111394346378398,-0.009879955201350661,0.039442840344955266
5205,0.0,299.77046,12532.889,-0.05205001110974772,0.0,0.0,0.0,0.0,-0.00794356763098042,-1.9393269501716683,-0.7895417133042003,-1.080816757743309,0.016041291249652184,0.004056338045829396,0.015876489160637483
5206,0.0,299.87869,12801.993999999999,-0.052059987749215164,0.0,0.0,0.0,0.0,-0.007945090207222949,-1.9732466118442782,-0.7950625989915692,-1.1231772993739688,-0.011372550922883388,0.003781875242217027,0.03810758138967547
5207,0.0,299.55694,12885.173,-0.05206999742391272,0.0,0.0,0.0,0.0,-0.007946617825108693,-1.958130845527468,-0.8419584683348312,-1.116681454307879,-0.024460248528538578,0.018270280362886283,-0.0004039621749654626
5208,0.0,299.95252,12570.758,-0.05208000709861005,0.0,0.0,0.0,0.0,-0.007948145442994381,-1.9304278785183981,-0.7864317650372722,-1.104336825689559,-0.03805461982019857,-0.00015734139680588684,0.02135801920087238
5209,0.0,300.56335,12405.69,-0.052089983738077716,0.0,0.0,0.0,0.0,-0.007949668019236966,-1.9333139187782282,-0.7769309748121173,-1.060775177390359,-0.00995111180419827,-0.012802672379025387,0.01034477182969949
5210,0.0,300.78805,12633.107,-0.05209999341277505,0.0,0.0,0.0,0.0,-0.007951195637122654,-1.968540571754828,-0.7853610129940973,-1.086247474304279,0.01069598761911179,0.00018896752634714283,0.020720687927722678
5211,0.0,300.45977,12827.236,-0.05211000308747238,0.0,0.0,0.0,0.0,-0.00795272325500837,-1.9973087685940283,-0.7844563630398153,-1.117394275753229,0.014521552888415685,0.012890141193907885,0.02246746726536638
5212,0.0,300.37452,12882.434,-0.052120012762170154,0.0,0.0,0.0,0.0,-0.007954250872894142,-1.9770430573189581,-0.8130049176548383,-1.125890175191709,0.014208563985526087,-0.0005389237445601326,0.028399563280568675
5213,0.0,300.45652,12740.595,-0.05212998940163738,0.0,0.0,0.0,0.0,-0.007955773449136644,-1.9571925759348683,-0.7938393933383482,-1.121790666612119,0.005593506537936115,0.006515732632427744,0.034754890822790666
5214,0.0,300.2114,12708.721000000001,-0.05213999907633493,0.0,0.0,0.0,0.0,-0.007957301067022388,-1.9468365519628084,-0.8055620079852803,-1.1107353987460489,0.0064098267187256445,0.005933017160868204,0.01965414593871318
5215,0.0,299.49994,12891.513,-0.05215000875103226,0.0,0.0,0.0,0.0,-0.007958828684908076,-1.9888163142058881,-0.8180801658157262,-1.111801641826279,-4.2100946955039954e-07,0.01165507240851609,0.03518252593474496
5216,0.0,299.9312,12966.791000000001,-0.05215998539049982,0.0,0.0,0.0,0.0,-0.007960351261150661,-1.989282409251888,-0.8076370124675673,-1.144661241244269,-0.010917569203980189,-0.006355436466607744,0.03375086636495117
5217,0.0,299.82385,12574.268999999998,-0.05216999506519726,0.0,0.0,0.0,0.0,-0.00796187887903635,-1.9459960610048583,-0.7905558449317872,-1.085711870301419,-0.006489984427511594,-0.006885718677292524,0.025559068612733677
5218,0.0,299.91226,12361.651000000002,-0.0521800047398947,0.0,0.0,0.0,0.0,-0.007963406496922093,-1.9074096733466783,-0.7762380333337293,-1.0739856282191291,0.00011110200206991388,0.011357414992889591,0.017022970503036382
5219,0.0,299.965,12704.958,-0.052190014414592256,0.0,0.0,0.0,0.0,-0.007964934114807837,-1.9465796930624581,-0.8071143274034822,-1.1082961004553091,0.0012097836357713488,0.015707622925471683,0.004537991445789886
5220,0.0,299.48255,12872.138,-0.0521999910540597,0.0,0.0,0.0,0.0,-0.007966456691050366,-1.9773252474718082,-0.8115430510730632,-1.123940175374259,0.005130646698180405,0.003766830504732226,0.009340574106092892
5221,0.0,299.75065,12800.478000000001,-0.05221000072875703,0.0,0.0,0.0,0.0,-0.007967984308936082,-1.989211076444848,-0.8130844476551872,-1.0887300383742888,-0.005704935779258324,-0.0002866727611598987,0.008006411994046342
5222,0.0,300.52864,12697.274,-0.052220010403454475,0.0,0.0,0.0,0.0,-0.00796951192682177,-1.966066721635678,-0.7962841429146262,-1.097303552770429,0.016898805822532285,-0.0001986481279350438,0.034779519892971365
5223,0.0,299.96963,12670.616000000002,-0.05222998704292203,0.0,0.0,0.0,0.0,-0.007971034503064356,-1.9664382804473481,-0.7921202017611773,-1.0929922749199388,0.006817322167717313,0.011961310025989387,0.02107472257891318
5224,0.0,300.4412,12871.239,-0.052239996717619364,0.0,0.0,0.0,0.0,-0.007972562120950044,-1.966750361478148,-0.8092232149691132,-1.1365618265699189,-0.0005489574030128774,0.002914057233045057,0.041117715402502565
5225,0.0,300.60756000000003,12995.821000000002,-0.05225000639231692,0.0,0.0,0.0,0.0,-0.007974089738835788,-1.9902752930248782,-0.8179594269338102,-1.142170267198429,-0.01890140345267328,-0.006152642058468495,0.02886189004944677
5226,0.0,300.17687,12734.896,-0.05226001606701447,0.0,0.0,0.0,0.0,-0.007975617356721532,-1.973091483253968,-0.7905652681577173,-1.1074335206451789,-0.004908738948104815,0.01903950842805318,0.04294104781170146
5227,0.0,300.35753,12469.986,-0.052269992706481916,0.0,0.0,0.0,0.0,-0.007977139932964061,-1.9571373538044181,-0.7700983456777893,-1.063328466317349,0.013650837693232788,0.005328524310209405,0.023497528197775477
5228,0.0,300.29398,12676.681999999999,-0.05228000238117925,0.0,0.0,0.0,0.0,-0.007978667550849777,-1.966850571913038,-0.7847027550666322,-1.101841595993299,0.01872836060059528,-0.013255266880692987,0.024017183644061475
5229,0.0,299.8253,13074.868,-0.0522900120558768,0.0,0.0,0.0,0.0,-0.007980195168735493,-2.016259990514368,-0.8205337813303792,-1.137639823351309,-0.0009296269036195322,-0.015241471137466087,0.034597264570984165
5230,0.0,300.02173,12979.101,-0.052299988695344246,0.0,0.0,0.0,0.0,-0.00798171774497805,-1.972787710873988,-0.8248380474901772,-1.147696837218859,0.00043577702233784364,-0.013044834086674888,0.017716319307964586
5231,0.0,299.61091,12683.015,-0.05230999837004169,0.0,0.0,0.0,0.0,-0.007983245362863767,-1.9593501906978084,-0.7895035441729332,-1.106466272099719,-0.005163453912568225,0.007669173888438533,0.03323622650666017
5232,0.0,299.34504,12729.263,-0.05232000804473913,0.0,0.0,0.0,0.0,-0.007984772980749483,-1.966305646009258,-0.8005315556113133,-1.102540941212319,-0.021477383102402683,0.00852367718334644,0.023343243644798777
5233,0.0,299.65537,12867.598,-0.05232998468420669,0.0,0.0,0.0,0.0,-0.00798629555699204,-2.008050131579118,-0.8074379594854222,-1.095940224760879,0.009330185252817591,0.0013254935547910287,0.023060817404675478
5234,0.0,299.32398,12918.177,-0.05233999435890402,0.0,0.0,0.0,0.0,-0.007987823174877756,-1.988732011797568,-0.8207823518449112,-1.117288897742829,-0.0015573320677717084,0.015076037793639087,0.017097819287923383
5235,0.0,299.86867,12765.205,-0.05235000403360146,0.0,0.0,0.0,0.0,-0.007989350792763472,-1.967039644381698,-0.8176228860455962,-1.0956409106813387,0.027913453505343373,-4.4954839828947254e-05,0.013285054407132787
5236,0.0,300.24563,12472.591999999999,-0.0523600137082989,0.0,0.0,0.0,0.0,-0.007990878410649188,-1.9136404521866082,-0.7937195359840191,-1.083996640532139,0.010643740390955388,-0.01006013285400781,0.02276893754111918
5237,0.0,300.30837,12591.706,-0.05236999034776635,0.0,0.0,0.0,0.0,-0.007992400986891746,-1.9365980650023482,-0.8010055337430912,-1.089960529295729,0.010187604580188291,-0.003906493149490856,0.006685664908023753
5238,0.0,300.24773,12948.198,-0.0523800000224639,0.0,0.0,0.0,0.0,-0.007993928604777462,-1.992358737880498,-0.8146779759549563,-1.1288922325879889,-0.013697582973346186,0.0022267856995666383,0.034235393443520265
5239,0.0,300.37167,12993.604,-0.05239000969716123,0.0,0.0,0.0,0.0,-0.007995456222663178,-2.0094074814130782,-0.8117168032002112,-1.1286068000348188,-0.012760106755574489,0.005467787025153564,0.008460387960900283
5240,0.0,299.85312999999996,12746.357,-0.0523999863366289,0.0,0.0,0.0,0.0,-0.007996978798905735,-1.9717269393442982,-0.8080022384661122,-1.0948450027277887,-0.017184454197973584,0.0037807689757578464,0.033852057625937966
5241,0.0,299.65608,12707.003,-0.05240999601132623,0.0,0.0,0.0,0.0,-0.007998506416791451,-1.961025701063168,-0.7867238546435992,-1.114861961103309,0.0018406820880111784,-0.015290345256039587,0.028347314025912073
5242,0.0,299.50458,13025.143,-0.052420005686023785,0.0,0.0,0.0,0.0,-0.008000034034677195,-1.992205129165338,-0.8205976464841822,-1.146515387602259,-0.0005861755686635244,0.014928154954794185,0.04182196981825706
5243,0.0,299.53409,13000.614,-0.052430015360721116,0.0,0.0,0.0,0.0,-0.008001561652562883,-2.0097084166927783,-0.8088700567792592,-1.133283557196379,0.01857306887701918,0.00857727446593608,0.05150599011199545
5244,0.0,300.10112999999996,12803.402,-0.052439992000188784,0.0,0.0,0.0,0.0,-0.008003084228805468,-1.9933943808077081,-0.7905550039342043,-1.107965172972649,-0.0011091320317878088,-0.005781776107216875,0.03364383574363807
5245,0.0,300.48266,12708.192,-0.052450001674886115,0.0,0.0,0.0,0.0,-0.008004611846691156,-1.979838614344858,-0.7893667452769323,-1.0937677152214689,0.01067658489294689,-0.016510941790253083,0.049055804448930956
5246,0.0,300.51178,12747.821000000002,-0.052460011349583446,0.0,0.0,0.0,0.0,-0.008006139464576872,-1.980869393671588,-0.7893069939185353,-1.1048429441145091,0.021052551653475082,-0.002132302964841918,0.004453764220627305
5247,0.0,300.16884,13047.773000000001,-0.052469987989051003,0.0,0.0,0.0,0.0,-0.00800766204081943,-1.994984474189638,-0.8344432632706381,-1.136769340190399,0.022271896823815078,-0.008952603378578162,0.04588664387265916
5248,0.0,300.41192,12993.027,-0.052479997663748446,0.0,0.0,0.0,0.0,-0.008009189658705146,-1.9891601099648182,-0.8230482121160342,-1.1373472980474388,-0.011854690784216887,0.001167153366964069,0.009082486741321652
5249,0.0,299.70415,12656.032,-0.052490007338446,0.0,0.0,0.0,0.0,-0.00801071727659089,-1.9568954910055483,-0.7918511635946253,-1.098371113075789,-0.00909528794043503,-0.011406023639936888,0.03798796316237006
5250,0.0,299.92416000000003,12592.958,-0.052499983977913334,0.0,0.0,0.0,0.0,-0.00801223985283342,-1.9400825307712382,-0.7926768307036122,-1.095185556086399,-0.010365448211240089,0.02026421369142218,0.0023323937177393375
5251,0.0,300.02218999999997,12938.864,-0.05250999365261089,0.0,0.0,0.0,0.0,-0.008013767470719163,-1.998869376398048,-0.8056594319823952,-1.1285627236554687,-0.007238402970074754,0.01224006222125009,0.03223343618744247
5252,0.0,299.4113,12943.652,-0.05252000332730822,0.0,0.0,0.0,0.0,-0.008015295088604851,-1.987263305777618,-0.8167151254135072,-1.1305686548784388,-0.003002501605123837,0.014759765960425487,0.01718783946655768
5253,0.0,299.91818,12656.073,-0.05253001300200577,0.0,0.0,0.0,0.0,-0.008016822706490595,-1.9424015562751085,-0.7913336359735492,-1.1133948762835189,-0.0034851759558850864,-0.015630123478323085,0.028182745997670473
5254,0.0,299.65674,12600.612,-0.05253998964147322,0.0,0.0,0.0,0.0,-0.008018345282733125,-1.946392849744018,-0.7884338459098622,-1.095444644136969,0.013635921638510686,0.004207009146299476,0.02100431385596438
5255,0.0,299.33648,12806.333999999999,-0.05254999931617077,0.0,0.0,0.0,0.0,-0.008019872900618868,-1.9682651703776481,-0.8092270247894893,-1.115313465347869,0.015918594768542984,-0.018777453581190384,0.026092971368675777
5256,0.0,299.63648,13055.861,-0.0525600089908681,0.0,0.0,0.0,0.0,-0.008021400518504584,-2.005770825479168,-0.8329152821198381,-1.129969621419319,0.013047719822959688,-0.006646600975593444,0.019040792215929882
5257,0.0,299.70066,13112.152,-0.05256998563033577,0.0,0.0,0.0,0.0,-0.008022923094747142,-2.024870184564128,-0.8257779585479392,-1.1351185531274788,-0.0013688866995985986,-0.014165801791555785,0.022020411188745377
5258,0.0,299.79385,12848.825,-0.0525799953050331,0.0,0.0,0.0,0.0,-0.008024450712632858,-1.9948586285272178,-0.7984753063883773,-1.112388009659149,0.009047533564547043,0.029177407011335872,0.02211961040003558
5259,0.0,300.59328,12723.23,-0.05259000497973043,0.0,0.0,0.0,0.0,-0.008025978330518546,-1.9596514299525383,-0.7972672082941472,-1.1106256637602188,0.0062784294590077444,0.013300150820372687,0.03292128608407797
5260,0.0,300.31172999999995,12843.873,-0.052600014654427985,0.0,0.0,0.0,0.0,-0.00802750594840429,-1.992511130695538,-0.7800113361761253,-1.131694274414529,-0.020054380741463283,0.015188499435488185,0.040802168043110466
5261,0.0,299.84674,13066.203000000001,-0.05260999129389543,0.0,0.0,0.0,0.0,-0.00802902852464682,-2.0190391328886483,-0.7999772470116072,-1.1527831500708388,-0.026805441216241073,0.0013477422978368087,0.05623420923288436
5262,0.0,300.12037000000004,12904.265,-0.052620000968592984,0.0,0.0,0.0,0.0,-0.008030556142532563,-2.000944309952828,-0.7980402471929402,-1.1235896921646689,-0.013782205568697787,0.0014952850899481486,0.032466733983217165
5263,0.0,299.42463,12697.116000000002,-0.052630010643290315,0.0,0.0,0.0,0.0,-0.00803208376041828,-1.982086408366698,-0.7859805242377382,-1.091539172951529,-0.004507937231923766,-0.0016001518143476886,0.024974283476519876
5264,0.0,299.70344,12874.536,-0.05263998728275787,0.0,0.0,0.0,0.0,-0.008033606336660837,-1.9801768372282382,-0.8220796970079493,-1.111280932599889,0.00042083052958273955,-0.003176040949750837,0.010860972093144489
5265,0.0,299.48508,13088.858,-0.0526499969574552,0.0,0.0,0.0,0.0,-0.008035133954546525,-2.007592243858928,-0.8320534014522772,-1.139040337639529,0.013280821048214986,-0.0059608832611433744,0.023258238040909377
5266,0.0,299.62462,13002.294,-0.052660006632152756,0.0,0.0,0.0,0.0,-0.008036661572432269,-1.9964656431858179,-0.8279482490696302,-1.127958725270859,0.00946955729744754,0.017580612695571384,0.018284703978059785
5267,0.0,299.83607,12772.817,-0.0526700163068502,0.0,0.0,0.0,0.0,-0.008038189190317985,-1.9702056456441583,-0.8164379305836502,-1.095973662014179,0.017258553177786583,-0.007069247553330414,0.022865797157928476
5268,0.0,300.41626,12754.839,-0.052679992946317755,0.0,0.0,0.0,0.0,-0.008039711766560542,-1.969484008922938,-0.8140883150592612,-1.093580061302949,-0.0027521038966865073,-0.016240396920802383,0.024195726417682275
5269,0.0,300.14054,12853.71,-0.052690002621015086,0.0,0.0,0.0,0.0,-0.008041239384446258,-1.9846753636972083,-0.8101140036620272,-1.112417596562069,0.002192831384740608,-0.014760490434246987,0.005184605508405725
5270,0.0,300.10175,13097.633999999998,-0.05270001229571242,0.0,0.0,0.0,0.0,-0.008042767002331974,-2.0066391808148683,-0.8336667387915012,-1.141047586087629,-0.005067271856100795,-0.010406800974321291,0.026819992500927176
5271,0.0,300.03526,12876.85,-0.052709988935180085,0.0,0.0,0.0,0.0,-0.008044289578574532,-1.9805335012634377,-0.8014032749373452,-1.1323041496497188,-0.005272560582011215,-0.010262405742320591,0.016979408854737185
5272,0.0,299.80521,12683.237,-0.052719998609877416,0.0,0.0,0.0,0.0,-0.00804581719646022,-1.9552548364436282,-0.7918226507368112,-1.108309779331659,-0.019310956103342984,0.008096458213208212,0.03177401744635137
5273,0.0,299.9123,12930.508,-0.05273000828457497,0.0,0.0,0.0,0.0,-0.008047344814345964,-1.984873454091758,-0.8154568309093232,-1.130221312744159,0.005813318684154885,0.00931174481027266,0.024190479808664477
5274,0.0,300.40337,13282.853000000001,-0.052739984924042416,0.0,0.0,0.0,0.0,-0.008048867390588493,-2.0517512030920777,-0.8345161463503312,-1.1513881073331589,-0.0065859323218809135,0.021349343753516183,0.04784394719682996
5275,0.0,300.06914,13135.392,-0.05274999459873997,0.0,0.0,0.0,0.0,-0.008050395008474237,-2.017899935801218,-0.8404946056503592,-1.1344367371351887,0.02039821804364738,-0.0024698901351091775,0.02813382020334187
5276,0.0,299.64952999999997,12848.876,-0.0527600042734373,0.0,0.0,0.0,0.0,-0.008051922626359953,-1.994587786775488,-0.8114495382213343,-1.099699990581939,0.001174555158944569,-0.013985636804524887,0.024016004220945075
5277,0.0,299.77665,12937.706,-0.05277001394813485,0.0,0.0,0.0,0.0,-0.008053450244245697,-1.9926620036354283,-0.8235714949976782,-1.116505959390559,0.010838889320465091,0.0015344882429421986,0.03424546413626417
5278,0.0,299.4443,12963.475,-0.05277999058760219,0.0,0.0,0.0,0.0,-0.008054972820488226,-2.015413622705838,-0.7965069870091191,-1.1286520923142886,0.0028571337543521476,0.0062143030893289635,0.03182655851703677
5279,0.0,299.88327999999996,12978.821000000002,-0.05279000026229974,0.0,0.0,0.0,0.0,-0.008056500438373942,-1.9982729773891879,-0.8164381332336703,-1.130526301024259,-0.01039182716434349,-0.01140150353124079,0.03269613481910727
5280,0.0,300.0243,12861.661,-0.05280000993699718,0.0,0.0,0.0,0.0,-0.008058028056259658,-1.997821777119658,-0.8022264494510862,-1.1095754300315688,-0.00952486089320558,-0.009520979841347551,0.03003060615204007
5281,0.0,299.79868999999997,12699.081,-0.05280998657646452,0.0,0.0,0.0,0.0,-0.008059550632502188,-1.9672496911274284,-0.7896511949775052,-1.1033027026374989,-0.0016797562885790384,0.004096044581473126,0.01946171961222218
5282,0.0,300.63736,12868.57,-0.05281999625116207,0.0,0.0,0.0,0.0,-0.008061078250387932,-1.9769592615356881,-0.8180034323856533,-1.1167610957657388,0.011784445194534188,0.01203673332368309,0.008653282915562532
5283,0.0,300.75606,13131.493,-0.0528300059258594,0.0,0.0,0.0,0.0,-0.008062605868273648,-2.002674029198538,-0.8331665985421413,-1.155805472469119,-0.016799522511483783,0.0072956847340030235,0.032408689951238676
5284,0.0,300.38901,13171.165,-0.052840015600556955,0.0,0.0,0.0,0.0,-0.008064133486159392,-2.014921689782288,-0.8534573573596832,-1.1353261680729687,-0.001072148200487789,0.0009089119375151242,0.014402787817694487
5285,0.0,300.59536,13047.794,-0.0528499922400244,0.0,0.0,0.0,0.0,-0.008065656062401921,-1.9974601481589682,-0.8416234371892662,-1.1271198555130688,-0.017834645641392484,0.013630868560261985,0.02249631956196388
5286,0.0,300.29196,12936.608999999999,-0.052860001914721955,0.0,0.0,0.0,0.0,-0.008067183680287637,-2.010536343349488,-0.8196113691018443,-1.102258345759429,0.005202912911212525,0.009742971792506449,0.017095401673184785
5287,0.0,299.69092,12989.215,-0.052870011589419286,0.0,0.0,0.0,0.0,-0.008068711298173353,-1.989592666432508,-0.8260941533741453,-1.132710260289799,0.003389672169034597,-0.007426064285320482,0.025473811722819477
5288,0.0,300.00567,12998.298,-0.05287998822888673,0.0,0.0,0.0,0.0,-0.008070233874415883,-2.0012834447612984,-0.8246463507037582,-1.1252283202263889,0.018485894917915784,-0.006056020251457664,0.025003081057611978
5289,0.0,299.65105,12880.976999999999,-0.052889997903584285,0.0,0.0,0.0,0.0,-0.008071761492301627,-1.9737302361170082,-0.8152532993617363,-1.1265119054530688,0.009036036620962383,0.001090912477764679,0.03970004780333967
5290,0.0,299.88437999999996,12841.544,-0.05290000757828184,0.0,0.0,0.0,0.0,-0.00807328911018737,-2.0003768898968284,-0.7917165837163432,-1.111415289563149,0.012856231766061288,0.0016872239418160386,0.03596334355455567
5291,0.0,300.07121,12922.427,-0.05290998421774906,0.0,0.0,0.0,0.0,-0.008074811686429872,-2.000857474419258,-0.8010189289094132,-1.1262187721991388,-0.019334633731679783,0.008952541772972082,0.030915381205610572
5292,0.0,300.12517,13013.758,-0.052919993892446615,0.0,0.0,0.0,0.0,-0.008076339304315616,-2.028527510800078,-0.8160617412190232,-1.1112680643236188,-0.022125301825847276,-0.005036112895650645,0.025429260129172578
5293,0.0,299.57937000000004,13161.768,-0.05293000356714417,0.0,0.0,0.0,0.0,-0.008077866922201332,-2.011794293348638,-0.8367367042094831,-1.152317865624919,-0.02000555120589418,0.005943087954937114,0.023708009627798378
5294,0.0,299.40465,13012.406,-0.0529400132418415,0.0,0.0,0.0,0.0,-0.008079394540087048,-2.011776561471888,-0.8092470972739703,-1.134422754283809,0.0006883303595679173,0.002913568745171847,0.027091031836426676
5295,0.0,298.97425,12919.344,-0.052949989881308945,0.0,0.0,0.0,0.0,-0.008080917116329578,-1.990823157353948,-0.8068281349127372,-1.1295066674486292,0.004482544981767746,0.002809594998085437,0.03572792097332127
5296,0.0,299.86978,13055.893999999998,-0.0529599995560065,0.0,0.0,0.0,0.0,-0.008082444734215322,-2.018385282599118,-0.8123452310447322,-1.137935388405479,0.019438302389161083,-0.0014940220736984985,0.04293253752411155
5297,0.0,300.22709,12998.525,-0.05297000923070394,0.0,0.0,0.0,0.0,-0.008083972352101065,-2.006544036630478,-0.8204154134536973,-1.1242676578065791,0.004272861384873586,-0.002719031717397537,0.024596119287447975
5298,0.0,299.78081000000003,12845.903999999999,-0.052979985870171165,0.0,0.0,0.0,0.0,-0.008085494928343567,-1.9947156589381083,-0.8131815980747752,-1.0969368575592389,0.010169487668400291,-0.011267659272531389,0.02138798708582998
5299,0.0,299.75811,12824.12,-0.05298999554486872,0.0,0.0,0.0,0.0,-0.008087022546229311,-1.981719307855468,-0.8127019052124332,-1.1037909878606889,-0.0072921595355801136,-0.0096377351304954,0.001753863273067828
5300,0.0,300.17953,12953.018999999998,-0.05300000521956627,0.0,0.0,0.0,0.0,-0.008088550164115027,-1.9891434926631781,-0.8343215314036241,-1.113929264386259,0.012032382427753688,-0.012860019294935089,0.01882261211164718
5301,0.0,300.16341,13014.627,-0.053010014894263824,0.0,0.0,0.0,0.0,-0.00809007778200077,-1.992166726986548,-0.8380815201397062,-1.1258733552400488,-0.005560953649323395,-0.005449710744694574,0.009376423401255942
5302,0.0,300.14482999999996,13096.13,-0.05301999153373105,0.0,0.0,0.0,0.0,-0.008091600358243273,-2.0091000613327377,-0.8331088331539401,-1.138687625279719,-0.008186744066018733,-0.016190986792925983,0.03627408709522367
5303,0.0,299.85469,12935.677,-0.05303000120842882,0.0,0.0,0.0,0.0,-0.008093127976129044,-2.005267341504478,-0.8041560018815183,-1.122699349301799,-0.013354816676517788,0.008368235397430533,0.009374041047620822
5304,0.0,299.28632999999996,12907.712,-0.053040010883126154,0.0,0.0,0.0,0.0,-0.00809465559401476,-1.988328940907788,-0.8120721297452792,-1.123221071778289,-0.005312852168262684,0.006292278156074504,0.025966209728165372
5305,0.0,299.79865,13164.351999999999,-0.0530499875225936,0.0,0.0,0.0,0.0,-0.00809617817025729,-2.015535314042848,-0.8383491802861223,-1.1477499315240989,0.012271395967342488,0.018493138642880682,0.02209938491478948
5306,0.0,299.9011,13174.437,-0.05305999719729093,0.0,0.0,0.0,0.0,-0.008097705788143006,-2.024391423891878,-0.8164641838937412,-1.1638440921374689,-0.0057164315069428645,0.0018155465954304984,0.04330928012329316
5307,0.0,299.49717000000004,12950.684,-0.053070006871988484,0.0,0.0,0.0,0.0,-0.008099233406028722,-1.9979920031364582,-0.8116515093637672,-1.1270410246552889,0.012742375892074588,0.017705538326900583,0.030055877622784173
5308,0.0,299.79900000000004,12895.662,-0.05307998351145593,0.0,0.0,0.0,0.0,-0.00810075598227128,-2.003545424284538,-0.7899202939390633,-1.126493464301249,-0.008013259943522182,-0.009346769522504331,0.04205860728636136
5309,0.0,300.1256,13099.116000000002,-0.05308999318615326,0.0,0.0,0.0,0.0,-0.008102283600156968,-2.028781532600148,-0.8219342854860983,-1.131088249529719,0.012709076440788189,-0.006561284202598334,0.034044875066967566
5310,0.0,299.80421,13114.773000000001,-0.053100002860850926,0.0,0.0,0.0,0.0,-0.008103811218042739,-2.021450161501598,-0.8319009579747322,-1.133212427039359,-0.011480047639242489,-0.024441641203702177,0.02159160881267588
5311,0.0,300.32302000000004,13066.223,-0.05311001253554837,0.0,0.0,0.0,0.0,-0.008105338835928455,-2.0174438719312078,-0.8278882140012053,-1.126473503274279,0.0005277151415564294,-0.005022392982671596,0.016541213650240683
5312,0.0,300.17382000000003,12965.773000000001,-0.0531199891750157,0.0,0.0,0.0,0.0,-0.008106861412170985,-2.005661394468368,-0.8085597692011363,-1.1270501439061889,0.0022082553817378376,0.001090369882336129,0.020698197828503084
5313,0.0,299.94085,12948.028,-0.053129998849713145,0.0,0.0,0.0,0.0,-0.0081083890300567,-1.996860405424778,-0.8119631445645232,-1.1270536902815387,0.006446559365325874,-0.0017508058922160881,0.026651273187025874
5314,0.0,300.40738,13146.466,-0.05314000852441081,0.0,0.0,0.0,0.0,-0.008109916647942444,-2.033331532174198,-0.8192370846474052,-1.1436287393923688,0.005519944074051064,0.0017368271951614983,0.033078161517560364
5315,0.0,300.21128999999996,13173.298,-0.05314998516387803,0.0,0.0,0.0,0.0,-0.008111439224184974,-2.027502810973948,-0.8211531811165093,-1.155697460008459,-0.015739385276356384,0.007910677287498061,0.032997358875085765
5316,0.0,299.61487999999997,12979.403,-0.053159994838575586,0.0,0.0,0.0,0.0,-0.00811296684207069,-2.001668479799298,-0.8183449584643592,-1.1254010793684388,0.004217393237299306,0.01043358218771439,0.018306640842724785
5317,0.0,300.37271,12930.268999999998,-0.05317000451327314,0.0,0.0,0.0,0.0,-0.008114494459956434,-1.993880436880678,-0.8010067395107102,-1.1355918422491889,-0.009096436662073402,0.011671646140401788,0.028089951540262375
5318,0.0,299.57074,13124.832,-0.05318001418797047,0.0,0.0,0.0,0.0,-0.00811602207784215,-2.008629001361248,-0.8360367510404032,-1.144955387748299,0.0063690894037551835,0.012361503285485388,0.02513759102163708
5319,0.0,299.22763,13210.489,-0.053189990827437916,0.0,0.0,0.0,0.0,-0.00811754465408468,-2.025649069915998,-0.8324712252635131,-1.157538434115149,-0.01137567071994129,0.005148807483697735,0.03403464225420767
5320,0.0,299.80694,12982.74,-0.05320000050213525,0.0,0.0,0.0,0.0,-0.008119072271970396,-2.013585922175458,-0.8271525538986012,-1.105690426498149,0.0018452222590592583,-0.000938503977613131,0.017265358165458183
5321,0.0,299.37477,12877.223999999998,-0.05321001017683302,0.0,0.0,0.0,0.0,-0.00812059988985614,-1.9818111083145282,-0.8254984332428522,-1.1070450405568388,-0.0038048180615813066,-0.016217290765521985,0.023994180840291274
5322,0.0,299.9929,13113.003,-0.053219986816300247,0.0,0.0,0.0,0.0,-0.008122122466098669,-2.020907768723068,-0.8196361937292942,-1.145481568525229,0.012413710996887886,-0.024517987572236978,0.014558077514770383
5323,0.0,300.69247,13364.986,-0.0532299964909978,0.0,0.0,0.0,0.0,-0.008123650083984385,-2.028351002632658,-0.8525543286055612,-1.181716709326359,0.000853934679216791,0.002895691365707487,0.025898414177224476
5324,0.0,300.10265,13164.835,-0.05324000616569535,0.0,0.0,0.0,0.0,-0.008125177701870129,-2.026804276355008,-0.8153249057463032,-1.1596517698487188,-0.006514459382352084,0.007357441314347924,0.027127885769063873
5325,0.0,300.06638,13019.37,-0.053250015840392906,0.0,0.0,0.0,0.0,-0.008126705319755873,-2.015129000752748,-0.7962113915574462,-1.1462230649484089,-0.008510835656879082,0.018575647598523683,0.04281887214114366
5326,0.0,299.98506000000003,12980.101,-0.05325999247986013,0.0,0.0,0.0,0.0,-0.008128227895998374,-2.0232855627327377,-0.8105019872578182,-1.111839132079979,-0.0031404020053085466,0.007971029503204361,0.02935261011262707
5327,0.0,300.38302999999996,13234.841999999999,-0.05327000215455768,0.0,0.0,0.0,0.0,-0.008129755513884118,-2.037253519336268,-0.8283414711684381,-1.157466493358049,-0.011573499695965488,0.0024571360521254476,0.04579920038902916
5328,0.0,300.21757,13298.943000000001,-0.053280011829255236,0.0,0.0,0.0,0.0,-0.008131283131769834,-2.0395342439863584,-0.8517183263455542,-1.151294077723879,-0.00032432830634871173,0.006946083254650045,0.02026391883564308
5329,0.0,299.3789,13055.622,-0.05328998846872257,0.0,0.0,0.0,0.0,-0.008132805708012392,-2.0099606146426683,-0.8240716859095432,-1.134550829096449,-0.007105454221803732,0.002832655861086367,0.033324682227140065
5330,0.0,299.45878999999996,12938.065,-0.0532999981434199,0.0,0.0,0.0,0.0,-0.00813433332589808,-1.9931211072557382,-0.8196349980941762,-1.1200925607695291,0.02030134525458678,-0.009337837925522851,0.00984539861066519
5331,0.0,299.71815,13138.873,-0.053310007818117455,0.0,0.0,0.0,0.0,-0.008135860943783824,-2.0259557807212683,-0.8378807547648921,-1.130052809252529,0.0004168883584786776,-0.011347379763899188,0.028148507263541376
5332,0.0,300.13469,13272.873,-0.0533199844575849,0.0,0.0,0.0,0.0,-0.008137383520026353,-2.035299567843428,-0.8534227548687681,-1.145899534191479,5.989800405747275e-05,-0.0030918707705688874,0.009725720297628861
5333,0.0,300.96761000000004,13080.322,-0.05332999413228223,0.0,0.0,0.0,0.0,-0.00813891113791207,-2.024400948442818,-0.8152328519747182,-1.136457360484609,-0.008458667867530523,-0.015000760403959788,0.029901133054262074
5334,0.0,300.3132,12920.918,-0.053340003806979785,0.0,0.0,0.0,0.0,-0.008140438755797813,-1.9787324492106881,-0.8218428193995712,-1.127061289657289,-0.018283854874475983,-0.008493344731002862,0.008925153420119061
5335,0.0,300.50275,13058.521,-0.05335001348167734,0.0,0.0,0.0,0.0,-0.008141966373683529,-2.013798806021468,-0.8099907215223603,-1.1456746939942888,-0.0005593313007167016,0.004262822204207796,0.037469448635696664
5336,0.0,300.9786,13337.765,-0.053359990121144785,0.0,0.0,0.0,0.0,-0.008143488949926087,-2.041494376304808,-0.8397214248965522,-1.173131846529099,-0.004174687987984626,0.014782139535883587,0.03196698484839577
5337,0.0,300.09404,13318.538999999999,-0.053369999795842116,0.0,0.0,0.0,0.0,-0.008145016567811775,-2.0616659566455877,-0.8324244131088933,-1.154413064181699,0.0005616572669837565,0.030912950418620674,0.04565845691038886
5338,0.0,299.2589,13068.226,-0.05338000947053967,0.0,0.0,0.0,0.0,-0.008146544185697518,-2.0267375031734183,-0.8123932084369672,-1.1332834558713687,-0.0018243221518965782,0.016598733831917487,0.03810624896579397
5339,0.0,299.89678,13109.938999999998,-0.053389986110007115,0.0,0.0,0.0,0.0,-0.008148066761940048,-2.029690721914878,-0.8292101912741742,-1.126193136971609,0.017053785465077582,0.017238306414288383,0.032836300745190575
5340,0.0,300.10152,13275.851,-0.05339999578470467,0.0,0.0,0.0,0.0,-0.008149594379825792,-2.037402365775958,-0.8253333646690613,-1.172791597145519,-0.005774644245063015,-0.002770526506029677,0.035294487031044666
5341,0.0,300.83648,13368.413,-0.053410005459402,0.0,0.0,0.0,0.0,-0.008151121997711508,-2.053166308181738,-0.8410301083282092,-1.169467224892429,0.011391982020051091,-0.01080375689974779,0.036098552661149766
5342,0.0,300.12289,13070.93,-0.05342001513409955,0.0,0.0,0.0,0.0,-0.008152649615597224,-2.020849912142358,-0.8160834349036642,-1.1363029411693688,-0.01004400373626599,-0.003648810172834527,0.02786828889538597
5343,0.0,300.11278,12875.341999999999,-0.053429991773567,0.0,0.0,0.0,0.0,-0.008154172191839781,-2.0075055096503682,-0.7963086736995473,-1.1099682670953388,-0.0006082077295004294,-0.006248874878765933,0.027049534178581174
5344,0.0,300.29687,13086.383999999998,-0.05344000144826433,0.0,0.0,0.0,0.0,-0.00815569980972547,-2.031128422481768,-0.8298158919189522,-1.116989684988299,0.003299358857146367,0.014004662601652586,0.0067011873929307035
5345,0.0,300.78159,13348.628,-0.05345001112296188,0.0,0.0,0.0,0.0,-0.008157227427611213,-2.060157024596668,-0.8304983462588053,-1.166994286698369,0.003072196898677227,0.0039323931392719865,0.03203177509954007
5346,0.0,299.81317,13200.03,-0.05345998776242922,0.0,0.0,0.0,0.0,-0.008158750003853743,-2.0220065371315084,-0.8375048997727982,-1.152968270864109,-0.00948525021102131,0.0056692212463585745,0.016629001638904684
5347,0.0,300.0451,12978.495,-0.05346999743712677,0.0,0.0,0.0,0.0,-0.008160277621739487,-1.9960704756468182,-0.8156098620719262,-1.1334582415136187,-0.0038467082525155466,-0.013042833930977486,0.02980531404530547
5348,0.0,299.68944,13080.907,-0.05348000711182421,0.0,0.0,0.0,0.0,-0.008161805239625203,-2.009926468114298,-0.8261023910974582,-1.140240127082939,0.018696600276210784,0.004037177283788376,0.013463269900971287
5349,0.0,300.29627,13335.036,-0.05348998375129177,0.0,0.0,0.0,0.0,-0.00816332781586776,-2.054608568374078,-0.8394775153324803,-1.159431793252009,0.016513819420537083,-0.003787823932229116,0.043500614166176364
5350,0.0,299.97267999999997,13322.752,-0.0534999934259891,0.0,0.0,0.0,0.0,-0.008164855433753448,-2.058419807300218,-0.8464342270740542,-1.1449299551707888,-0.006157464723644454,0.009197141563012202,0.018048756533273584
5351,0.0,300.24324,13137.085,-0.053510003100686654,0.0,0.0,0.0,0.0,-0.008166383051639192,-2.029158360312338,-0.8143703025620912,-1.149817164378119,-0.006427479764617864,-0.01376056558631209,0.04614732171263605
5352,0.0,299.45221000000004,13027.707,-0.053520012775383985,0.0,0.0,0.0,0.0,-0.008167910669524908,-2.0144191177326882,-0.8239575736832812,-1.121721157655259,-3.535974743023537e-05,0.008181150013541642,0.010066265043613012
5353,0.0,299.73749,13196.045,-0.05352998941485165,0.0,0.0,0.0,0.0,-0.008169433245767466,-2.032373301554628,-0.8149569642374902,-1.1639380204217389,0.01150836088678679,-0.0024170033434896578,0.04599384066698866
5354,0.0,299.73945,13329.964,-0.053539999089548984,0.0,0.0,0.0,0.0,-0.008170960863653182,-2.0590945305418082,-0.8349695048425742,-1.157912019427019,0.015263144557105087,-0.009100418836291412,0.01773824300037828
5355,0.0,300.19491,13251.425,-0.053550008764246315,0.0,0.0,0.0,0.0,-0.008172488481538898,-2.035838008946568,-0.8382013065665281,-1.154063087597159,0.0063047804464083845,-0.01074903328834699,0.03620344633800197
5356,0.0,300.44096,13019.372,-0.05355998540371398,0.0,0.0,0.0,0.0,-0.008174011057781455,-2.0219409798500383,-0.8138769004258962,-1.121745982282709,0.0020174308010049184,0.00042164147416777356,0.02086373553709038
5357,0.0,300.73727,13236.94,-0.053569995078411314,0.0,0.0,0.0,0.0,-0.008175538675667143,-2.021300099161788,-0.8493608986628942,-1.153038083795999,-0.005453741656242395,-0.0017660815493986783,0.032292390118010765
5358,0.0,300.27074,13459.162,-0.05358000475310887,0.0,0.0,0.0,0.0,-0.008177066293552887,-2.067929970088798,-0.8374068779581242,-1.1859122740154289,-0.004157286633417245,0.020917244261621278,0.02428876608161458
5359,0.0,300.87157,13398.213,-0.0535900144278062,0.0,0.0,0.0,0.0,-0.008178593911438603,-2.050715053539818,-0.8434732265718261,-1.178533786787229,0.007863421126684242,0.0028056223484183673,0.03901833617580996
5360,0.0,299.79893,13040.266000000001,-0.053599991067273756,0.0,0.0,0.0,0.0,-0.00818011648768116,-2.0146342307289182,-0.8367312123939412,-1.1125499270251291,0.015838449725383286,0.020643039532809382,0.016367181866065086
5361,0.0,299.93503,13001.01,-0.0536100007419712,0.0,0.0,0.0,0.0,-0.008181644105566876,-2.0211831701002483,-0.7963212278682863,-1.134478077739269,0.005617351352539415,-0.01025926669351079,0.03756064722419726
5362,0.0,299.8433,13300.886,-0.05362001041666864,0.0,0.0,0.0,0.0,-0.00818317172345262,-2.039351757643348,-0.8584831893131941,-1.1453023245825389,0.009439076809264351,-0.004919436133385545,0.013576982906693884
5363,0.0,299.79702000000003,13402.396,-0.053629987056136086,0.0,0.0,0.0,0.0,-0.00818469429969515,-2.061933150696958,-0.8372794921555522,-1.1747809110668488,-0.005501544060185125,-0.009011712741711801,0.03320415916749537
5364,0.0,299.7577,13172.642,-0.05363999673083364,0.0,0.0,0.0,0.0,-0.008186221917580866,-2.028954190417188,-0.8272639708795971,-1.147935964242459,-0.007548523564581274,0.01110595164932209,0.012302715527933489
5365,0.0,300.08949,13061.546999999999,-0.05365000640553097,0.0,0.0,0.0,0.0,-0.008187749535466582,-2.0221765604982878,-0.8278256660725323,-1.120381843673079,-0.0005881300166489134,-0.008239339446909492,0.028093631664625574
5366,0.0,300.01648,13208.362,-0.05366001608022841,0.0,0.0,0.0,0.0,-0.008189277153352298,-2.035247588113298,-0.8284430697559652,-1.151321435476579,-0.0034467507763178166,0.008672429086802111,0.021201679776692878
5367,0.0,300.24922999999995,13463.21,-0.05366999271969597,0.0,0.0,0.0,0.0,-0.008190799729594855,-2.066958972517968,-0.8604754112623112,-1.165045401456029,0.016411597684198587,-0.015256468252196185,0.03368395740784777
5368,0.0,300.50841,13470.713,-0.0536800023943933,0.0,0.0,0.0,0.0,-0.008192327347480571,-2.055275692239918,-0.8615789622112232,-1.1779057743752488,0.002164265128646338,0.006707353121114213,0.024564997310626474
5369,0.0,300.32599,13207.721000000001,-0.05369001206909085,0.0,0.0,0.0,0.0,-0.008193854965366315,-2.038363534820818,-0.8249533857490602,-1.151500476769249,0.006742891449821573,0.0005175848190441445,0.03967633167149906
5370,0.0,300.71597,13124.712,-0.0536999887085583,0.0,0.0,0.0,0.0,-0.008195377541608845,-2.021993060905178,-0.8310889190795903,-1.136502855414099,-0.008350477885453003,0.01195314728318379,0.025601884508959272
5371,0.0,300.64357,13310.396999999999,-0.05370999838325585,0.0,0.0,0.0,0.0,-0.00819690515949456,-2.064055707006438,-0.8211202403557581,-1.160852268567199,0.013154262057724589,0.005202854041381715,0.028944866113385873
5372,0.0,300.39826,13353.11,-0.053720008057953184,0.0,0.0,0.0,0.0,-0.008198432777380277,-2.065337569707948,-0.8339464667466083,-1.159727966256239,0.010347297862198792,0.01028831150762729,0.035120364054360066
5373,0.0,300.21635,13188.402,-0.05372998469742074,0.0,0.0,0.0,0.0,-0.008199955353622834,-2.044878125013758,-0.8355567744680332,-1.128509933325259,0.010091098182363851,-0.015521286232081684,0.014405543857966486
5374,0.0,300.16988,13069.618,-0.05373999437211818,0.0,0.0,0.0,0.0,-0.00820148297150855,-2.0268706442365585,-0.8127718397343353,-1.133194897812629,-0.01007033587721477,-0.001210646012931459,0.04011893958018106
5375,0.0,299.89735,13137.839,-0.053750004046815736,0.0,0.0,0.0,0.0,-0.008203010589394294,-2.029051361101778,-0.8311887343469412,-1.1333351316264688,0.003252639212260497,-0.004704264672624776,0.0008142337772436174
5376,0.0,300.2282,13386.877,-0.05376001372151307,0.0,0.0,0.0,0.0,-0.00820453820728001,-2.063214000148368,-0.8448141212241623,-1.161248246706279,-0.00018596352351067083,0.017620352364493382,0.033514171141591165
5377,0.0,299.98084,13446.856000000002,-0.053769990360980624,0.0,0.0,0.0,0.0,-0.008206060783522567,-2.076049649765148,-0.8472399331560713,-1.164218792024449,0.0026755488999561173,0.01001940526623831,0.017146557630983484
5378,0.0,299.55998,13306.277,-0.053780000035677955,0.0,0.0,0.0,0.0,-0.008207588401408256,-2.047523214399808,-0.8511107005255861,-1.146142004940409,-0.0012119641499865488,0.014390958122776987,0.03965180493957846
5379,0.0,299.56421,13188.625,-0.0537900097103754,0.0,0.0,0.0,0.0,-0.008209116019293972,-2.024683037270658,-0.8236280546182603,-1.1607016996023387,-0.0005025766396229525,-0.007394961053625833,0.03245772720307827
5380,0.0,299.72874,13336.665,-0.053799986349842954,0.0,0.0,0.0,0.0,-0.008210638595536529,-2.032110464478688,-0.8571240156290543,-1.164778714029709,-0.0008370789192982572,0.009611921874922831,0.03838944324949307
5381,0.0,299.94734,13323.483,-0.053809996024540285,0.0,0.0,0.0,0.0,-0.008212166213422245,-2.046324235556478,-0.8322951325286342,-1.1713868272068788,-0.0024669189818409478,-0.0086535470698636,0.026454151459571477
5382,0.0,300.81959,13198.005,-0.05382000569923784,0.0,0.0,0.0,0.0,-0.008213693831307989,-2.042408631870038,-0.8159201293850472,-1.153535285620069,0.0009277636886731472,0.001996737903487688,0.03237767841867807
5383,0.0,300.66082,13016.853000000001,-0.05383001537393517,0.0,0.0,0.0,0.0,-0.008215221449193705,-2.028752553647288,-0.8247364286376482,-1.103309288763149,0.01072970250293919,-0.0072308090658752934,0.0070475900417179835
5384,0.0,300.74625,13272.735,-0.05383999201340284,0.0,0.0,0.0,0.0,-0.008216744025436262,-2.056856463720928,-0.8356417658864213,-1.1420818104646988,0.024743803529273276,0.003394508715736927,0.030752644120299672
5385,0.0,299.81807000000003,13544.053,-0.05385000168810017,0.0,0.0,0.0,0.0,-0.00821827164332195,-2.074759985037868,-0.8698807330630441,-1.1724133508831889,0.012416254254638888,-0.008806996400782871,0.030077136623132265
5386,0.0,300.16634,13554.775,-0.05386001136279772,0.0,0.0,0.0,0.0,-0.008219799261207694,-2.079691878574608,-0.8562286470456882,-1.184392500190439,0.0042277101498175065,-0.0014578777201063285,0.04704025849576205
5387,0.0,299.72059,13390.62,-0.05386998800226517,0.0,0.0,0.0,0.0,-0.008221321837450224,-2.0563219742931778,-0.8355374821861293,-1.178554558414279,-0.0072442670537034935,0.00996418333843833,0.031180777751303172
5388,0.0,299.34235,13287.733999999999,-0.05387999767696272,0.0,0.0,0.0,0.0,-0.008222849455335968,-2.044627142963988,-0.8281497034545122,-1.1663625252610188,0.0005313909798717065,0.026933891944668175,0.04110600223134656
5389,0.0,299.25517,13306.989,-0.05389000735166005,0.0,0.0,0.0,0.0,-0.008224377073221684,-2.056430797353918,-0.8308463267406482,-1.157715347582609,-0.015305946267829286,0.008987357857008162,0.027883614303148473
5390,0.0,300.01602,13255.875,-0.0538999839911275,0.0,0.0,0.0,0.0,-0.008225899649464213,-2.055070205119638,-0.8133965996134942,-1.160988145405609,-0.003512821674263507,0.013328902805210287,0.05147470398865775
5391,0.0,300.1326,13145.253999999999,-0.05390999366582494,0.0,0.0,0.0,0.0,-0.008227427267349957,-2.026985040172848,-0.8326723858058662,-1.1361715226313989,-0.005502361246390775,0.003103672297133607,0.024870216611749277
5392,0.0,300.31687,13094.633999999998,-0.05392000334052238,0.0,0.0,0.0,0.0,-0.008228954885235645,-2.0356126621243282,-0.8098890621398273,-1.1349401197848688,0.017994470645915982,0.01736364342515818,0.044585876964033454
5393,0.0,299.97623,13318.51,-0.053930013015219935,0.0,0.0,0.0,0.0,-0.008230482503121389,-2.0379046338505282,-0.8632129293224832,-1.1473770554872988,0.0023339777316206682,-0.006988372666123682,0.006974215333076463
5394,0.0,299.98283,13572.268999999998,-0.05393998965468727,0.0,0.0,0.0,0.0,-0.008232005079363919,-2.090733264914308,-0.8596189616152863,-1.175278720840979,0.014962318708415884,-0.004984362767993305,0.025170681743402874
5395,0.0,299.99095,13616.976999999999,-0.05394999932938482,0.0,0.0,0.0,0.0,-0.008233532697249663,-2.085257864023928,-0.8751356203341611,-1.1788275279912188,0.006546513447940573,-0.00026393540865089673,0.01058702472985799
5396,0.0,300.00832,13357.455,-0.053960009004082155,0.0,0.0,0.0,0.0,-0.008235060315135379,-2.0499634246156377,-0.8446870292641192,-1.1656824317938987,0.00914429094442125,-0.000976956109633061,0.023806760982544375
5397,0.0,299.69739,13252.162,-0.0539699856435496,0.0,0.0,0.0,0.0,-0.008236582891377908,-2.0448320221342082,-0.8271034315337532,-1.1563910297019089,0.001097708143535359,-0.022989271815114478,0.03190527082455507
5398,0.0,299.73987999999997,13285.0,-0.053979995318247154,0.0,0.0,0.0,0.0,-0.008238110509263652,-2.0543073291193483,-0.8113074298948092,-1.1726936158608487,-0.00960143828276318,-0.008666628837929673,0.05406568581936775
5399,0.0,299.85072,13282.437,-0.05399000499294471,0.0,0.0,0.0,0.0,-0.008239638127149368,-2.047331304830868,-0.8326271441889012,-1.1575708581183488,-0.004762217309444256,0.002845410045395107,0.030480832688223974
5400,0.0,299.92411,13281.579,-0.05400001466764204,0.0,0.0,0.0,0.0,-0.008241165745035084,-2.0509347261614983,-0.8367958172203173,-1.149537811325549,-0.0019173690099045881,0.018638526859979382,0.03506308603945717
5401,0.0,299.89587,13246.896999999999,-0.054009991307109706,0.0,0.0,0.0,0.0,-0.008242688321277641,-2.061471007326348,-0.8326213382658282,-1.1326335572572288,-0.005207187813384425,0.004875223978522146,0.024216854708767475
5402,0.0,299.97687,13373.846000000001,-0.05402000098180704,0.0,0.0,0.0,0.0,-0.008244215939163357,-2.063623353188768,-0.8433881034309252,-1.158303843240689,0.007442144057782432,-0.011078966772658887,0.03122266652368727
5403,0.0,299.36248,13466.663999999999,-0.05403001065650437,0.0,0.0,0.0,0.0,-0.008245743557049073,-2.0793370383895877,-0.8637507726080642,-1.150441731739759,0.017440567346249984,-0.004289862303001446,0.01895279651099538
5404,0.0,300.41612000000003,13510.112,-0.054039987295971814,0.0,0.0,0.0,0.0,-0.008247266133291603,-2.081948285222298,-0.8476896135504512,-1.1770987206705987,0.01000803062194072,0.0024446887812719976,0.04330914637427996
5405,0.0,300.27965,13359.948999999999,-0.05404999697066937,0.0,0.0,0.0,0.0,-0.008248793751177347,-2.051680984860148,-0.8493358308554203,-1.1600739911653888,0.004556886432329676,-0.01984935059697838,0.008148936563712423
5406,0.0,300.39932999999996,13194.792,-0.05406000664536692,0.0,0.0,0.0,0.0,-0.008250321369063063,-2.048539402925098,-0.8136327780793032,-1.1487151535693592,0.009537566745484552,-0.008644356992781613,0.045080513238850255
5407,0.0,299.87869,13263.687,-0.05407001632006425,0.0,0.0,0.0,0.0,-0.008251848986948779,-2.0453237524077377,-0.8330052789937202,-1.153500632466649,0.019147935308004082,0.01087924200569759,0.0054495227868010246
5408,0.0,299.84892,13391.721000000001,-0.05407999295953181,0.0,0.0,0.0,0.0,-0.008253371563191336,-2.059132730070578,-0.8398272892670002,-1.171788783521549,0.011417985057367387,0.008796310057278212,0.050039053226720046
5409,0.0,299.67424,13214.726,-0.05409000263422914,0.0,0.0,0.0,0.0,-0.008254899181077052,-2.042806129884268,-0.8277731797173522,-1.146367351762649,-0.010047112894197841,0.003923851744904017,0.01015638127835679
5410,0.0,300.50498,13310.787,-0.05410001230892669,0.0,0.0,0.0,0.0,-0.008256426798962796,-2.0494485922398282,-0.8323018605092981,-1.164396414766979,-0.014915544044049586,0.003932615345018917,0.05274489810201616
5411,0.0,300.16123,13458.302,-0.05410998894839392,0.0,0.0,0.0,0.0,-0.008257949375205298,-2.0636241637888477,-0.8637035551534042,-1.163660085919309,-0.002812233197370807,0.026996054838303175,0.0010770021750918391
5412,0.0,300.55881,13552.865,-0.05411999862309169,0.0,0.0,0.0,0.0,-0.00825947699309107,-2.070568169374168,-0.8603378017662302,-1.188826583953049,-0.019148834060842782,0.012310042339406588,0.04887867211944936
5413,0.0,300.57007000000004,13490.178,-0.05413000829778902,0.0,0.0,0.0,0.0,-0.008261004610976758,-2.066641318611618,-0.8636566619387761,-1.1703790486574188,-0.012642194841437488,-0.008534522201816762,0.007929672687122762
5414,0.0,300.6785,13380.956,-0.05413998493725647,0.0,0.0,0.0,0.0,-0.008262527187219315,-2.0614616854254284,-0.8289427236452772,-1.1770720721929688,-0.0002014397940805598,-0.004119136753902146,0.051479261587607544
5415,0.0,299.83487,13241.156,-0.05414999461195402,0.0,0.0,0.0,0.0,-0.008264054805105031,-2.053733728237738,-0.8325272275965402,-1.138719947957909,0.015830978019145885,0.013083236265464888,0.025732583639358275
5416,0.0,299.74258,13357.207,-0.05416000428665135,0.0,0.0,0.0,0.0,-0.008265582422990747,-2.057926354501518,-0.8333824816084473,-1.1689486434912488,0.018233585510514783,-0.008416910716334412,0.03144106548999157
5417,0.0,299.32973,13444.912,-0.054170013961348906,0.0,0.0,0.0,0.0,-0.00826711004087649,-2.076973835181358,-0.8364693176405942,-1.1734745277129188,-0.0012074769719186988,-0.0029636927077436974,0.02851409904537247
5418,0.0,299.86229,13383.677,-0.05417999060081635,0.0,0.0,0.0,0.0,-0.00826863261711902,-2.057061444216158,-0.8369019754332941,-1.174340248598359,0.016319147731824482,-0.007478955535240442,0.03255026632146117
5419,0.0,299.93638,13298.591,-0.054190000275513905,0.0,0.0,0.0,0.0,-0.008270160235004764,-2.044059722907988,-0.8313962074374172,-1.166983748897329,0.008564051450806071,0.0009460411600719931,0.022659095150778578
5420,0.0,300.40831000000003,13436.091999999999,-0.054200009950211236,0.0,0.0,0.0,0.0,-0.008271687852890452,-2.060281249058928,-0.8485543819807971,-1.1754008174780288,0.013270289326675589,-0.00812638435226169,0.02972951179207437
5421,0.0,300.32499,13495.43,-0.05420998658967868,0.0,0.0,0.0,0.0,-0.00827321042913301,-2.078832237189768,-0.8464848794465532,-1.1769567643315888,-0.013254674129384487,0.0012609280425189087,0.031134861309771573
5422,0.0,300.79841,13449.197,-0.054219996264376236,0.0,0.0,0.0,0.0,-0.008274738047018726,-2.0682632280466877,-0.8522691088349121,-1.1676878563918187,-0.01018615259279499,0.019820368604368085,0.022463980671772278
5423,0.0,300.05068,13381.153,-0.05423000593907368,0.0,0.0,0.0,0.0,-0.00827626566490447,-2.063814756132658,-0.8487260974752442,-1.1549954803391789,-0.015598792771980986,0.032536197343822675,0.018092538056844482
5424,0.0,299.86647999999997,13390.671,-0.05424001561377112,0.0,0.0,0.0,0.0,-0.008277793282790186,-2.066666649864118,-0.8428716295899532,-1.1608912786960488,0.0021776827891205578,0.004261749476326925,0.03164323320294397
5425,0.0,299.99975,13416.966,-0.054249992253238455,0.0,0.0,0.0,0.0,-0.008279315859032715,-2.0505240558959676,-0.8429842726035701,-1.1849143239919389,-0.008854123777508981,-0.014865525966113185,0.026113847360486078
5426,0.0,299.93875,13467.442,-0.05426000192793601,0.0,0.0,0.0,0.0,-0.008280843476918459,-2.083343631935008,-0.8300144484085482,-1.1804078941721887,0.023898936344141378,-0.028648633327399975,0.047317719810395356
5427,0.0,300.61339,13483.395,-0.05427001160263345,0.0,0.0,0.0,0.0,-0.008282371094804147,-2.067459112767328,-0.8444027720810651,-1.186753474248449,0.005808147764919555,-0.016414514831236484,0.024227620491079977
5428,0.0,300.65747999999996,13382.739,-0.054279988242100785,0.0,0.0,0.0,0.0,-0.008283893671046677,-2.067115418333408,-0.8356314408679023,-1.1652717615283688,0.017340590972133085,-0.02013210411688398,0.025718916922009477
5429,0.0,299.68874,13461.366000000002,-0.05428999791679834,0.0,0.0,0.0,0.0,-0.00828542128893242,-2.0686020588801277,-0.8531001968319342,-1.1702169286414188,0.0001182519203405559,-0.0041788541684207965,0.01903767039237178
5430,0.0,299.62439,13630.348999999998,-0.05430000759149589,0.0,0.0,0.0,0.0,-0.008286948906818165,-2.100741338802028,-0.8634158427875092,-1.179128361945909,0.006339290326264244,0.01244750491422309,0.02574581769891437
5431,0.0,299.74922000000004,13497.996000000001,-0.054309984230963115,0.0,0.0,0.0,0.0,-0.008288471483060667,-2.0632724646791383,-0.8479073711294421,-1.1918739336287987,0.0002077284396337008,0.016920780177450984,0.027324093544928076
5432,0.0,299.30712,13296.023000000001,-0.05431999390566067,0.0,0.0,0.0,0.0,-0.00828999910094641,-2.065886852587158,-0.8276679840919703,-1.1481039611090387,-0.002503648690015888,-0.008620535786905643,0.035269665443344964
5433,0.0,300.07207,13463.026000000002,-0.05433000358035822,0.0,0.0,0.0,0.0,-0.008291526718832154,-2.066398746537678,-0.8455435295736492,-1.1804813548044388,-0.0032966582416548373,0.005138697274199935,0.044817574837900255
5434,0.0,299.30683,13478.948999999999,-0.054340013255055775,0.0,0.0,0.0,0.0,-0.00829305433671787,-2.084397817339048,-0.8359286980497392,-1.1769375125796888,0.007099965446012034,0.003994987170824536,0.03305418396719397
5435,0.0,299.9747,13504.528999999999,-0.054349989894523,0.0,0.0,0.0,0.0,-0.008294576912960372,-2.079529454583578,-0.8551058848748803,-1.1704042785849091,0.0029944099924752573,0.026579574596699775,0.02980728583000007
5436,0.0,300.33437000000004,13542.135,-0.05435999956922055,0.0,0.0,0.0,0.0,-0.008296104530846116,-2.0735814738465583,-0.8546432348792201,-1.1882461942957687,-0.01325558909422479,-0.009505504472570252,0.021376907195986478
5437,0.0,300.435,13366.313999999998,-0.054370009243918105,0.0,0.0,0.0,0.0,-0.00829763214873186,-2.054406931604178,-0.8377437025563661,-1.1708749332563588,0.004478676088910915,-0.013950442575551487,0.03636459566040617
5438,0.0,300.2848,13353.203000000001,-0.05437998588338544,0.0,0.0,0.0,0.0,-0.008299154724974389,-2.062980446000318,-0.8454728351141721,-1.150586829154079,0.013441072631030589,-0.009093252624959162,0.028750415313195072
5439,0.0,300.27862999999996,13467.258,-0.05438999555808288,0.0,0.0,0.0,0.0,-0.008300682342860105,-2.074477288259968,-0.8462573338715962,-1.172975603363679,0.022087318119348578,0.00978945119579361,0.025644835167448178
5440,0.0,299.43304,13557.892,-0.054400005232780435,0.0,0.0,0.0,0.0,-0.008302209960745849,-2.087536866148848,-0.8775362833985881,-1.156187569081829,0.001015575711629519,-0.009996746460877061,0.024203521350701578
5441,0.0,300.07046,13439.794,-0.05441001490747788,0.0,0.0,0.0,0.0,-0.008303737578631565,-2.076314412016278,-0.8473614725055661,-1.1616859707494789,-0.014645537210401986,0.004310712254284177,0.015573461519480986
5442,0.0,299.59881,13400.014,-0.05441999154694521,0.0,0.0,0.0,0.0,-0.008305260154874067,-2.0631948497214783,-0.8461929114302382,-1.163881987691209,-0.007474790165404354,0.016527914742678184,0.03420108479513427
5443,0.0,299.61951,13514.921,-0.054430001221642654,0.0,0.0,0.0,0.0,-0.00830678777275981,-2.071676968958598,-0.8644239861070052,-1.172097622152029,3.7232583186319866e-05,0.02508614426105968,0.031230072368668173
5444,0.0,300.10072,13586.598,-0.05444001089634021,0.0,0.0,0.0,0.0,-0.008308315390645554,-2.084135081588118,-0.8467878817564573,-1.1990636523633689,-0.005380624921076335,0.00024727673600931377,0.05349387231093416
5445,0.0,300.18911,13553.581,-0.054449987535807653,0.0,0.0,0.0,0.0,-0.008309837966888084,-2.068152783785788,-0.8561423586671723,-1.1956551803519788,-0.008257192204396422,-0.008986249462723772,0.03598518922671167
5446,0.0,300.14506,13493.896,-0.054459997210504985,0.0,0.0,0.0,0.0,-0.0083113655847738,-2.0849361571171783,-0.8421293326991942,-1.174741900937999,8.379164515659152e-05,0.002854522304869417,0.03576427638690926
5447,0.0,300.43093999999996,13546.008,-0.05447000688520254,0.0,0.0,0.0,0.0,-0.008312893202659544,-2.095204028330538,-0.8510214027942732,-1.171422898910439,0.009013471743885402,0.01176708214082059,0.02101365298213608
5448,0.0,300.19389,13618.755,-0.054479983524669984,0.0,0.0,0.0,0.0,-0.008314415778902073,-2.0941810510295777,-0.8713964234901311,-1.174183904107929,-0.0006567849455296274,-0.005230094763695165,0.013811576649346487
5449,0.0,300.56108,13564.833,-0.05448999319936754,0.0,0.0,0.0,0.0,-0.00831594339678779,-2.106730052193068,-0.8453445880490151,-1.171295837347899,-0.0013815825207015785,0.0012349886373088888,0.03142223930313357
5450,0.0,299.55512999999996,13380.872,-0.05450000287406487,0.0,0.0,0.0,0.0,-0.008317471014673505,-2.0746108346231478,-0.8405264926310063,-1.152313609974499,0.011030245654850489,0.001946022608157478,0.02589175813731758
5451,0.0,300.03123,13336.391000000001,-0.05451001254876242,0.0,0.0,0.0,0.0,-0.008318998632559249,-2.058288388762248,-0.8448523106204312,-1.1507890738740387,0.027382034225396375,0.006924339312804083,0.033692462629187174
5452,0.0,299.88606,13466.902,-0.05451998918822987,0.0,0.0,0.0,0.0,-0.008320521208801779,-2.074396025601948,-0.8459408756003642,-1.1732649875922387,0.013171238049899989,-0.012473153314004387,0.02275234253098138
5453,0.0,299.70214,13508.562,-0.0545299988629272,0.0,0.0,0.0,0.0,-0.008322048826687495,-2.0821663366438177,-0.8462531592811843,-1.1778460939443591,-0.006863080440908304,-0.014056366727755386,0.042808887574658255
5454,0.0,299.72946,13493.93,-0.05454000853762475,0.0,0.0,0.0,0.0,-0.008323576444573239,-2.0778094625388284,-0.8550051779474411,-1.1690032576716387,-0.004878389574484565,0.002398300975793878,0.015177960621198087
5455,0.0,299.83692,13504.78,-0.0545499851770922,0.0,0.0,0.0,0.0,-0.008325099020815768,-2.079213421877388,-0.8364828039994252,-1.189419639236579,-0.011707392590679688,0.014595709623484386,0.03833478955234917
5456,0.0,299.47038,13591.667,-0.05455999485178964,0.0,0.0,0.0,0.0,-0.008326626638701484,-2.090612688152408,-0.8635403610922983,-1.177374122047779,-0.0029190989628926373,-0.0056338657079692545,0.013559686727486886
5457,0.0,300.36545,13703.202,-0.05457000452648708,0.0,0.0,0.0,0.0,-0.0083281542565872,-2.106666318761778,-0.8525432132519641,-1.2062215550447988,-0.015483136352566587,-0.017512539514103087,0.044861565090991755
5458,0.0,299.97684,13622.393,-0.054580014201184635,0.0,0.0,0.0,0.0,-0.008329681874472944,-2.117008866507508,-0.8632233050035072,-1.1606351290707688,0.00926523764393276,0.002789426761469987,0.019096674985445084
5459,0.0,300.16472999999996,13476.833999999999,-0.05458999084065197,0.0,0.0,0.0,0.0,-0.008331204450715474,-2.0733654489252378,-0.8402019182264732,-1.183053591508299,0.008684711400539284,-0.011508604066810788,0.036256222482710564
5460,0.0,300.70904,13364.565,-0.05460000051534952,0.0,0.0,0.0,0.0,-0.008332732068601217,-2.076244193784348,-0.8345045446366862,-1.151745480643429,0.012070533320518887,-0.005535639723400105,0.02289973698327808
5461,0.0,300.48771,13501.538,-0.054610010190046854,0.0,0.0,0.0,0.0,-0.008334259686486933,-2.064439728794338,-0.8458404118529492,-1.1938501766238387,0.0008156113616820741,-0.008701935335014151,0.04414708900822846
5462,0.0,300.51355,13669.033000000001,-0.05461998682951452,0.0,0.0,0.0,0.0,-0.00833578226272949,-2.116344985041988,-0.8487892634864782,-1.1899103562600089,0.006737562767545674,0.024086290340631776,0.03949645546074666
5463,0.0,299.7979,13663.946000000002,-0.05462999650421185,0.0,0.0,0.0,0.0,-0.008337309880615179,-2.074832128444988,-0.8751276764533771,-1.203538570105009,-0.006516135804642535,0.03055363572115907,0.038247309591715566
5464,0.0,299.80165,13515.017,-0.054640006178909184,0.0,0.0,0.0,0.0,-0.008338837498500895,-2.1047076049934677,-0.8417491308641711,-1.161771083757879,-0.01918031270169948,0.007029890284996153,0.03592643895941346
5465,0.0,299.95315,13653.208,-0.05465001585360696,0.0,0.0,0.0,0.0,-0.008340365116386667,-2.078690787475808,-0.8605390433685912,-1.211004399491829,-0.015819671161279983,0.0029875095566442374,0.04622068000662596
5466,0.0,300.01389,13707.858999999999,-0.05465999249307418,0.0,0.0,0.0,0.0,-0.008341887692629169,-2.113976715583258,-0.8587019905397882,-1.194168033180209,-0.012592872866319788,0.003785488188098596,0.03379532575283897
5467,0.0,299.8479,13629.346000000001,-0.054670002167771736,0.0,0.0,0.0,0.0,-0.008343415310514912,-2.088921979035548,-0.8524419895669743,-1.2016168399653488,0.013435684166998788,-0.00041649187371454755,0.04325517358120326
5468,0.0,300.25755,13517.006000000001,-0.05468001184246907,0.0,0.0,0.0,0.0,-0.008344942928400628,-2.0894976064173583,-0.8562085846937082,-1.163126305766629,0.0020781625801986783,-0.014631787406544987,0.01058786471419089
5469,0.0,300.11101,13440.966,-0.054689988481936735,0.0,0.0,0.0,0.0,-0.008346465504643186,-2.078187708801158,-0.8468288575905012,-1.1607016996023387,0.023088382873645976,-0.01048962809049569,0.02986311287075977
5470,0.0,300.34382999999997,13637.535,-0.054699998156634067,0.0,0.0,0.0,0.0,-0.008347993122528874,-2.114294369489608,-0.8695799599033602,-1.1615958928155887,0.009319917584254251,-0.0014906194785376885,0.00043875265417151556
5471,0.0,300.41915,13730.62,-0.05471000783133162,0.0,0.0,0.0,0.0,-0.008349520740414618,-2.109548002046178,-0.8674522258858691,-1.196765398486549,0.01030366528639259,-0.007217906237776884,0.03469618716499707
5472,0.0,300.36977,13554.079,-0.054719984470798955,0.0,0.0,0.0,0.0,-0.008351043316657147,-2.0849692903954478,-0.8531469887215523,-1.181985220602859,-0.01064158824774299,-0.017645471847722485,0.020577036421295377
5473,0.0,300.3975,13442.153999999999,-0.05472999414549651,0.0,0.0,0.0,0.0,-0.008352570934542891,-2.064840266558868,-0.8346679717453153,-1.186570987905439,0.004981167889102995,-0.004545686472349326,0.05825056983913365
5474,0.0,300.11206,13593.181,-0.05474000382019395,0.0,0.0,0.0,0.0,-0.008354098552428607,-2.095451666654978,-0.8573945432732532,-1.1791414328721987,-0.006307997616800894,0.012325095182892187,0.03172816382632597
5475,0.0,299.8429,13789.528999999999,-0.05475001349489128,0.0,0.0,0.0,0.0,-0.008355626170314323,-2.136089581790628,-0.8667100911151261,-1.188872990807629,-0.004519847986849266,0.004769507137288706,0.05131543120543875
5476,0.0,299.29805,13658.597,-0.05475999013435884,0.0,0.0,0.0,0.0,-0.00835714874655688,-2.127283222521508,-0.8644263875097422,-1.160162751874149,-0.043185988864375253,0.004745267864421475,0.028305258067261474
5477,0.0,300.02461,13509.774,-0.05476999980905617,0.0,0.0,0.0,0.0,-0.008358676364442569,-2.0845200153011083,-0.8461888584298382,-1.1759250730797688,-0.003945545530870027,-0.008620311959958552,0.02312592581635118
5478,0.0,299.93355,13560.702,-0.05478000948375372,0.0,0.0,0.0,0.0,-0.008360203982328313,-2.1002567012791977,-0.8511600356729552,-1.1706980197888988,-0.006530510682486224,0.0035772438116464765,0.03620783877718547
5479,0.0,299.88324,13721.58,-0.05478998612322117,0.0,0.0,0.0,0.0,-0.008361726558570842,-2.096997278357518,-0.8737933071316852,-1.2002271674531988,0.015867102411711086,-0.014053695800491787,0.014713306416840287
5480,0.0,300.24577,13781.196000000002,-0.05479999579791872,0.0,0.0,0.0,0.0,-0.008363254176456586,-2.1258719677822278,-0.8546838966057331,-1.2085834410278988,0.017151388807460283,-0.025030002099518875,0.04092139616912736
5481,0.0,300.67109,13642.488000000001,-0.05481000547261605,0.0,0.0,0.0,0.0,-0.008364781794342302,-2.108839537576258,-0.8620945342596061,-1.176041596841269,0.01958925740230918,0.0022146754356964483,0.012193659419670488
5482,0.0,300.28238999999996,13498.396,-0.054820015147313605,0.0,0.0,0.0,0.0,-0.008366309412228046,-2.097653661772298,-0.8386228490056312,-1.166898838538949,0.007128401904768493,0.006957997150650853,0.028847639700040367
5483,0.0,300.48861,13608.451000000001,-0.05482999178678105,0.0,0.0,0.0,0.0,-0.008367831988470575,-2.091045852570158,-0.86720905599437,-1.178374605196519,-0.0032845453433343872,0.00033252734377289367,0.013762944697546887
5484,0.0,300.32762,13739.691,-0.054840001461478605,0.0,0.0,0.0,0.0,-0.008369359606356291,-2.104431595666228,-0.8754990528800293,-1.196592234044459,-0.016444737041969186,0.0023268503277672475,0.04771715819856686
5485,0.0,300.52856,13700.303,-0.054850011136175936,0.0,0.0,0.0,0.0,-0.008370887224242007,-2.094829024468528,-0.8582699204321462,-1.211451242785929,0.0064938662899697045,0.000865453762316136,0.044630511644188554
5486,0.0,300.35899,13534.045,-0.05485998777564349,0.0,0.0,0.0,0.0,-0.008372409800484565,-2.097209655578478,-0.8476704732560622,-1.169131636459309,-0.001112830799952849,0.013603133878524786,0.04046643167547586
5487,0.0,299.9549,13563.556999999999,-0.054869997450340935,0.0,0.0,0.0,0.0,-0.00837393741837028,-2.106880317182898,-0.8512396771308152,-1.1648627124629989,-0.004554833486302066,-0.004303262130273906,0.04079920327331786
5488,0.0,299.96951,13752.95,-0.054880007125038266,0.0,0.0,0.0,0.0,-0.008375465036255997,-2.133540751164078,-0.8730384864696902,-1.173974161337229,-0.0015358162085232587,-0.008622295295704293,0.007465889371225913
5489,0.0,299.62029,13768.291000000001,-0.05488998376450582,0.0,0.0,0.0,0.0,-0.008376987612498554,-2.1175631143122082,-0.8632268513788571,-1.204426683817659,-0.001119796083790269,0.003412251535588007,0.03407228854842307
5490,0.0,299.41567000000003,13772.454,-0.054899993439203154,0.0,0.0,0.0,0.0,-0.00837851523038427,-2.118496013679278,-0.8700798975027001,-1.1979062167741388,0.0044391165758566956,0.014418552976000386,0.006736460655411904
5491,0.0,299.59002000000004,13574.101999999999,-0.05491000311390071,0.0,0.0,0.0,0.0,-0.008380042848269986,-2.076824178141588,-0.8388030555359163,-1.2105608999230588,-0.0019291487515921582,-0.014950168826466787,0.04549383923289236
5492,0.0,299.72059,13400.284,-0.05492001278859815,0.0,0.0,0.0,0.0,-0.008381570466155702,-2.081988612576278,-0.8391775426403751,-1.152185433836849,0.004391074842240345,-0.014649378441531087,0.029128991895057674
5493,0.0,300.36447000000004,13619.761999999999,-0.054929989428065706,0.0,0.0,0.0,0.0,-0.00838309304239826,-2.108684915610998,-0.8495050233571182,-1.181877512117229,0.008570047054297791,0.00036223980864528565,0.05064471030174375
5494,0.0,300.50633999999997,13830.888,-0.05493999910276304,0.0,0.0,0.0,0.0,-0.008384620660283976,-2.149218972611398,-0.8582137255816001,-1.196811906666139,0.007501143381955212,0.011919501300363188,0.025911053458971874
5495,0.0,300.05195,13661.541000000001,-0.05495000877746059,0.0,0.0,0.0,0.0,-0.00838614827816972,-2.1030731312571582,-0.8686500293590832,-1.181044215234989,-0.007215210992510883,0.0007119269886917233,0.016585194784081284
5496,0.0,300.07085,13551.915,-0.05495998541692804,0.0,0.0,0.0,0.0,-0.00838767085441225,-2.093693069781418,-0.8521023278684523,-1.1736483001050688,-0.017123268077434986,0.011748084714695689,0.031742191260710366
5497,0.0,300.14484,13712.255,-0.05496999509162559,0.0,0.0,0.0,0.0,-0.008389198472297993,-2.0965873173670584,-0.8702320268727143,-1.2013637300903688,0.007896032074527692,0.019126311537619983,0.04127479449925506
5498,0.0,299.91192,13791.348999999998,-0.05498000476632292,0.0,0.0,0.0,0.0,-0.008390726090183681,-2.133380657648278,-0.8613386496850063,-1.1975062869596687,-0.006045363393530915,0.024375117281636775,0.043148633372938554
5499,0.0,299.69487000000004,13828.156,-0.05499001444102025,0.0,0.0,0.0,0.0,-0.008392253708069397,-2.119453028398728,-0.8714571880986282,-1.212503806989809,-0.008948011430449971,-0.012176640870990888,0.03159860966853997
5500,0.0,299.82459,13679.559,-0.05499999108048792,0.0,0.0,0.0,0.0,-0.008393776284311955,-2.1236480864627483,-0.8527628352111392,-1.181833638387899,-0.012582009811997688,-0.015493385377328087,0.02252400864744658
5501,0.0,299.84254,13582.464,-0.05501000075518525,0.0,0.0,0.0,0.0,-0.00839530390219767,-2.0830241541784784,-0.8491666890162272,-1.1965391397392187,0.007756102843667752,0.0015040377469619686,0.03697534634368257
5502,0.0,300.47493,13611.993999999999,-0.055020010429882804,0.0,0.0,0.0,0.0,-0.008396831520083414,-2.104979763970328,-0.8498812025892442,-1.182845469937759,0.010771158617530592,0.0004709239730615776,0.020555889891708378
5503,0.0,300.2605,13776.757,-0.05502998706935014,0.0,0.0,0.0,0.0,-0.008398354096325944,-2.111440145282918,-0.8618234999903571,-1.214526456839429,0.017028495755831683,-0.014348193902306487,0.04965846534340895
5504,0.0,300.63997,13734.046999999999,-0.05503999674404769,0.0,0.0,0.0,0.0,-0.008399881714211688,-2.1263153660259877,-0.8523599872363812,-1.1961318131990188,-0.0014373480571802087,-0.016137178146365484,0.03997521511974656
5505,0.0,300.40317999999996,13630.902,-0.055050006418745134,0.0,0.0,0.0,0.0,-0.008401409332097376,-2.100415274919848,-0.8642176174591382,-1.1788209418655688,0.015105349092531884,0.005665396531206105,0.04589310840829716
5506,0.0,300.18305,13732.942,-0.05506001609344269,0.0,0.0,0.0,0.0,-0.00840293694998312,-2.124022988999748,-0.8672092586443901,-1.1832394215766389,-0.00994854534301998,0.01051223572672689,0.013552019463980186
5507,0.0,300.23332,13858.84,-0.05506999273291002,0.0,0.0,0.0,0.0,-0.00840445952622565,-2.128377532629508,-0.8758315509003441,-1.2085323732228588,-0.01939384300127328,-0.005601592983009184,0.026813261480512874
5508,0.0,300.28683,13789.04,-0.055080002407607576,0.0,0.0,0.0,0.0,-0.008405987144111393,-2.1098424525252377,-0.8919088814295533,-1.189772554246409,-0.027233494800486677,0.0014791115918519487,0.023077007114773274
5509,0.0,299.36292000000003,13574.12,-0.05509001208230491,0.0,0.0,0.0,0.0,-0.008407514761997109,-2.099854339664488,-0.8389078458612581,-1.1874313385653488,0.006850594666551054,0.02170026063414898,0.03718794546641447
5510,0.0,300.00115,13603.546,-0.055099988721772575,0.0,0.0,0.0,0.0,-0.008409037338239667,-2.100469990425248,-0.8562600375337861,-1.1784082450998388,-0.008277435320194263,0.013140297444846388,0.05046405084866405
5511,0.0,299.45282000000003,13680.798,-0.055109998396469906,0.0,0.0,0.0,0.0,-0.008410564956125383,-2.101832406509708,-0.8638613789889802,-1.1929272071077488,0.0050898894221829746,-0.0002545741936270168,0.03324810179783217
5512,0.0,299.70507000000003,13830.846000000001,-0.05512000807116724,0.0,0.0,0.0,0.0,-0.00841209257401107,-2.130076347747168,-0.8562753680077992,-1.217880314670429,-0.013473939424524286,-0.009399782159786272,0.045667169847998755
5513,0.0,300.06452,13806.118999999999,-0.055129984710634905,0.0,0.0,0.0,0.0,-0.008413615150253656,-2.115926411425678,-0.8742790389646232,-1.206509926023259,0.01780961836392248,0.00991775915728162,0.006013453817406683
5514,0.0,299.76341,13652.676000000001,-0.055139994385332236,0.0,0.0,0.0,0.0,-0.008415142768139344,-2.1128070196678177,-0.8601649311666691,-1.1771006458457889,0.003732966470490106,0.004203143901143006,0.04263376857312536
5515,0.0,300.34364,13706.625,-0.05515000406002979,0.0,0.0,0.0,0.0,-0.008416670386025088,-2.115593254792798,-0.8680053692479601,-1.1828731316654888,0.005162367809786034,-0.009078679454070902,0.014689113044202586
5516,0.0,300.05908999999997,13852.986,-0.05516001373472712,0.0,0.0,0.0,0.0,-0.008418198003910804,-2.1451929246640584,-0.869703556150558,-1.196065343992459,0.0014153692439610687,0.002095522188861938,0.05613994758933144
5517,0.0,300.26621,13676.385,-0.05516999037419468,0.0,0.0,0.0,0.0,-0.008419720580153361,-2.103621400886268,-0.8456695272235842,-1.207988663219199,0.005137838747390206,0.016262766443260086,0.03221932971955027
5518,0.0,300.27454,13615.24,-0.05518000004889212,0.0,0.0,0.0,0.0,-0.008421248198039077,-2.105186466990728,-0.8519071252366871,-1.1815992736397687,0.007563777031586673,0.01017275945297319,0.033610842293881865
5519,0.0,300.03039,13780.698999999999,-0.05519000972358967,0.0,0.0,0.0,0.0,-0.008422775815924793,-2.109307861772478,-0.8686738407364333,-1.2110067299670588,-0.016779625319270085,-0.0013025750534291487,0.02424336741088408
5520,0.0,299.72818,13965.318000000001,-0.05519998636305701,0.0,0.0,0.0,0.0,-0.008424298392167351,-2.1579652461495877,-0.8653972432255581,-1.2217453571768788,0.0018983259875251883,0.004210826262076196,0.051040476671552856
5521,0.0,299.84537,13948.518999999998,-0.05520999603775456,0.0,0.0,0.0,0.0,-0.008425826010053067,-2.1387482487280183,-0.8834966865818341,-1.217756596833219,-0.0028722812353970876,-0.003144930827955507,0.04588303771555326
5522,0.0,299.37976000000003,13833.733999999999,-0.05522000571245189,0.0,0.0,0.0,0.0,-0.008427353627938783,-2.1344634167051377,-0.8580370451616632,-1.2126092863252187,0.003401241863976437,-0.006189962491451734,0.047587007236471954
5523,0.0,299.99697000000003,13728.017,-0.055230015387149334,0.0,0.0,0.0,0.0,-0.008428881245824499,-2.102219569372918,-0.8668889601552792,-1.2038659512123189,-0.004812344210441396,-0.014829121916520385,0.042346053167480066
5524,0.0,300.35334,13707.447,-0.05523999202661689,0.0,0.0,0.0,0.0,-0.008430403822067056,-2.107104954730068,-0.8714652029069191,-1.188151556736429,0.005147558450299464,-0.011510176630965988,0.028238335937906773
5525,0.0,301.0215,13801.873,-0.05525000170131422,0.0,0.0,0.0,0.0,-0.008431931439952772,-2.116730425380028,-0.8602054307731661,-1.2184888726804888,0.014960331724969788,0.01037951820212869,0.03977886954186876
5526,0.0,300.87177,13864.098999999998,-0.055260011376011775,0.0,0.0,0.0,0.0,-0.008433459057838488,-2.1371382956441276,-0.8972089900526331,-1.1799927656062188,0.014291028358164686,0.003160542478871257,0.024875197749240876
5527,0.0,300.10032,13613.313,-0.05526998801547922,0.0,0.0,0.0,0.0,-0.008434981634081018,-2.110073676198058,-0.8406677599599481,-1.1873656799588688,-0.004474008856300295,0.0055220264043315745,0.03542064477449546
5528,0.0,299.47545,13622.537,-0.055279997690176774,0.0,0.0,0.0,0.0,-0.008436509251966762,-2.108221860315298,-0.8541037501284772,-1.178585259892309,-0.003560853579353887,0.0032513935225875566,0.027100491539360273
5529,0.0,299.84452000000005,13898.865,-0.055290007364874105,0.0,0.0,0.0,0.0,-0.008438036869852478,-2.120672677544098,-0.8783661554954901,-1.2258691837588687,-0.013192035008202487,0.012881307679536089,0.03842973007346906
5530,0.0,299.77713,13867.903,-0.05529998400434155,0.0,0.0,0.0,0.0,-0.008439559446095007,-2.137050750835488,-0.8513328454775101,-1.2271127456065989,-0.008486883133790151,-0.006846224012244703,0.03291124882858737
5531,0.0,300.1047,13691.597,-0.055309993679039104,0.0,0.0,0.0,0.0,-0.008441087063980751,-2.078068550589398,-0.8818061699824932,-1.202029030106029,-0.018994617395622783,-0.0061419277492610735,0.02125994267069298
5532,0.0,299.62235,13690.986,-0.05532000335373666,0.0,0.0,0.0,0.0,-0.008442614681866495,-2.128947688460778,-0.8349015664233692,-1.197868422545409,0.019177703582691982,-0.00932300161358362,0.05277826848080955
5533,0.0,299.51671,13826.062,-0.05533001302843399,0.0,0.0,0.0,0.0,-0.008444142299752183,-2.130155178604948,-0.8542430112222212,-1.2183795429946989,0.014634033782016687,0.000930381004873956,0.03943985328366046
5534,0.0,299.43863999999996,13851.593,-0.055339989667901435,0.0,0.0,0.0,0.0,-0.008445664875994713,-2.1427011400181377,-0.8708439184756032,-1.1969932784340387,0.023555630998259778,-0.012701553058795688,0.05293550260482736
5535,0.0,299.60155,13897.976,-0.05534999934259888,0.0,0.0,0.0,0.0,-0.008447192493880457,-2.129507711791048,-0.8767082351518661,-1.2184217955238688,0.003860674689243926,-0.0045813107246651654,0.043560396935326456
5536,0.0,299.33878,13792.393999999998,-0.05536000901729632,0.0,0.0,0.0,0.0,-0.008448720111766173,-2.1252443606702878,-0.8561755020779432,-1.211123659028599,0.0008778623472807681,-0.004954951258665615,0.04136686144309136
5537,0.0,299.3259,13787.226999999999,-0.055369985656763654,0.0,0.0,0.0,0.0,-0.008450242688008702,-2.103304962880038,-0.8783146621254082,-1.2093532071288686,-0.010157987279765291,0.014209818389149885,0.02813008131047287
5538,0.0,299.57187000000005,13866.567,-0.05537999533146121,0.0,0.0,0.0,0.0,-0.008451770305894446,-2.143657040162478,-0.8590772781118261,-1.2123559738002188,-0.0070683632899681435,-0.0026225598714015074,0.03635197056416017
5539,0.0,300.64575,13882.875,-0.05539000500615876,0.0,0.0,0.0,0.0,-0.00845329792378019,-2.1355578281381478,-0.8799335520751801,-1.204555873205409,0.0013408180506284386,0.008623679395340892,0.026558128145083175
5540,0.0,300.23815,13677.188999999998,-0.05540001468085609,0.0,0.0,0.0,0.0,-0.008454825541665878,-2.133211850181618,-0.8290345950318443,-1.1952774407146989,-0.003947735265661136,0.003095329601110247,0.03925679749409426
5541,0.0,300.48211000000003,13620.618999999999,-0.05540999132032354,0.0,0.0,0.0,0.0,-0.008456348117908408,-2.116963472903028,-0.8364421625379141,-1.1869222817151088,0.011072609641531488,0.01847722555006018,0.03279173800579257
5542,0.0,299.71053,13917.268,-0.05542000099502109,0.0,0.0,0.0,0.0,-0.008457875735794151,-2.1363173604131083,-0.8758703482466732,-1.2183142896882588,-0.0015005087995136886,-0.007645409120593132,0.03225552402637237
5543,0.0,299.74481000000003,14030.573,-0.05543001066971864,0.0,0.0,0.0,0.0,-0.008459403353679895,-2.138254086654248,-0.8812399658266132,-1.2454497353163188,0.00016313579922524985,0.011106901064665789,0.02174109562642908
5544,0.0,299.30494,13902.187,-0.05543998730918587,0.0,0.0,0.0,0.0,-0.008460925929922397,-2.138417017270328,-0.8826588807366492,-1.2048418123836289,-0.00013093179288696188,-0.011104111587140489,0.030566562765934866
5545,0.0,299.99125,13743.428,-0.05544999698388342,0.0,0.0,0.0,0.0,-0.00846245354780814,-2.131248576787858,-0.8577301418388743,-1.1886801693135989,0.014511162008640187,-0.0015186698890060485,0.025394916017033076
5546,0.0,300.02836,13832.659,-0.05546000665858075,0.0,0.0,0.0,0.0,-0.008463981165693857,-2.1459322932620277,-0.8671644020624631,-1.191686077060259,0.005946047050529155,-0.017532026340026284,0.04941292951292645
5547,0.0,300.67626,13840.037,-0.055470016333278305,0.0,0.0,0.0,0.0,-0.008465508783579573,-2.124374688109458,-0.8864336122616862,-1.196217331507459,0.0008195373106520352,-0.006073027654386164,0.01838638565209498
5548,0.0,300.23192,13865.228000000001,-0.05547999297274575,0.0,0.0,0.0,0.0,-0.008467031359822103,-2.133846144744218,-0.8601547581356652,-1.2206821538469488,0.0071314699247462835,0.0017479695012111583,0.05010369959635015
5549,0.0,300.86206,13795.493999999999,-0.055490002647443304,0.0,0.0,0.0,0.0,-0.008468558977707846,-2.120731446049898,-0.87139864250785,-1.201355522764559,-0.004702442848944975,0.023769783433394975,0.011321883351632889
5550,0.0,299.78975,13727.626,-0.05550001232214086,0.0,0.0,0.0,0.0,-0.00847008659559359,-2.125976129892508,-0.8520579069840681,-1.194821579494709,0.007241881457668053,-0.005071366805054935,0.04785776894144405
5551,0.0,300.29596000000004,13920.872,-0.05550998896160808,0.0,0.0,0.0,0.0,-0.008471609171836092,-2.149131022502718,-0.8580502680754681,-1.224416284440479,-0.01930040918305208,0.009684685593754051,0.004904185807455456
5552,0.0,300.07377,14149.286,-0.055519998636305634,0.0,0.0,0.0,0.0,-0.008473136789721836,-2.1873881038783978,-0.8827323920314041,-1.2309091910812788,-0.014312930772326288,-0.0010122740767086731,0.05129064913449295
5553,0.0,299.80334,13947.438,-0.05553000831100319,0.0,0.0,0.0,0.0,-0.00847466440760758,-2.152079276318688,-0.8694736193053652,-1.2181198469940688,-0.02112326131170358,-0.001162905113269799,0.018602555468179283
5554,0.0,299.76861,13744.98,-0.05553998495047052,0.0,0.0,0.0,0.0,-0.00847618698385011,-2.1061736765631585,-0.8602032826829542,-1.2117535966157689,-0.003743566687736267,-0.003747463444970846,0.03737989759185867
5555,0.0,300.33707000000004,13852.348,-0.05554999462516785,0.0,0.0,0.0,0.0,-0.008477714601735797,-2.114723683556978,-0.8813877787512011,-1.2146562541772388,-0.00912567338575884,-0.001079434583281899,0.02203706091438858
5556,0.0,299.59366,13937.32,-0.055560004299865406,0.0,0.0,0.0,0.0,-0.008479242219621541,-2.145509565320308,-0.8708566347643583,-1.220231054902429,0.014667200497539985,-0.007907931683702091,0.051392862764830655
5557,0.0,299.67739,13863.823999999999,-0.05557001397456296,0.0,0.0,0.0,0.0,-0.008480769837507285,-2.133707633455548,-0.8802035224318242,-1.2003450084398288,0.0009412743756390482,0.006962435996688933,0.04149815737779926
5558,0.0,300.7208,13871.365,-0.055579990614030406,0.0,0.0,0.0,0.0,-0.008482292413749815,-2.1472179049889077,-0.8668377403627241,-1.2024929973268188,0.010911730856903988,-0.0050311692484127455,0.04770538625890505
5559,0.0,300.67659,13847.61,-0.05559000028872774,0.0,0.0,0.0,0.0,-0.00848382003163553,-2.120023994830078,-0.8804198411956732,-1.2088837683575389,-0.008477077203297382,0.001874007883800178,0.03473126993645947
5560,0.0,300.29386,14010.458999999999,-0.05560000996342529,0.0,0.0,0.0,0.0,-0.008485347649521274,-2.1539194398252977,-0.8882173782677302,-1.2166930895282588,-0.0035000618157542064,-0.004519677558182445,0.03094090193587927
5561,0.0,300.30126,14188.749,-0.055609986602892736,0.0,0.0,0.0,0.0,-0.008486870225763804,-2.173757255583138,-0.8881255271461651,-1.2511424783531488,-0.019890469299286482,0.0058900568765033546,0.03764288766856376
5562,0.0,299.76252,13900.267,-0.05561999627759007,0.0,0.0,0.0,0.0,-0.008488397843649492,-2.1474418332610083,-0.8685283076245701,-1.209363947579929,-0.0061733832880154944,-0.012629297180914588,0.03567719969981547
5563,0.0,300.54498,13629.708999999999,-0.05563000595228784,0.0,0.0,0.0,0.0,-0.008489925461535264,-2.108076458925948,-0.8458136620503091,-1.189201081190009,-0.01121503410208769,-0.006487877880553693,0.029357184936828574
5564,0.0,300.39064,13844.541000000001,-0.05564001562698517,0.0,0.0,0.0,0.0,-0.00849145307942098,-2.1527562287104978,-0.8545999285699462,-1.201038578133279,0.005154231310158026,0.005822401255401265,0.044583237447522954
5565,0.0,299.94135,14070.465,-0.05564999226645262,0.0,0.0,0.0,0.0,-0.00849297565566351,-2.157758847104218,-0.8958871850321811,-1.2234238059675289,-0.0014077543654845387,0.02091993140088648,0.019117313876731983
5566,0.0,299.87756,13978.927,-0.05566000194114995,0.0,0.0,0.0,0.0,-0.008494503273549225,-2.163847264305098,-0.8710389488548511,-1.2143587639478788,0.005376757649419666,0.005011585454454975,0.03606432405952167
5567,0.0,300.16466,13893.403,-0.055670011615847614,0.0,0.0,0.0,0.0,-0.008496030891434997,-2.1283350774503185,-0.8941114338344281,-1.2008009709848289,-0.003024239467469197,0.003347221954770087,0.023724835658958977
5568,0.0,299.49086,13873.346000000001,-0.05567998825531484,0.0,0.0,0.0,0.0,-0.008497553467677499,-2.1494865719628082,-0.8555400220127262,-1.212124243502349,-0.002087512244171418,-0.0017227169782439284,0.05625144360383524
5569,0.0,299.67843,14076.628999999999,-0.05568999793001239,0.0,0.0,0.0,0.0,-0.008499081085563215,-2.1559543500011276,-0.8907805463831953,-1.2322087856595387,0.001772045539487278,0.01106080223811619,0.046331739310336656
5570,0.0,298.65791,13964.635,-0.055700007604709945,0.0,0.0,0.0,0.0,-0.008500608703448959,-2.1705092823875876,-0.8704178062785491,-1.203973153072899,-0.003240791988116267,-0.001843186132983308,0.04152944147463676
5571,0.0,299.1256,13869.139,-0.05570998424417739,0.0,0.0,0.0,0.0,-0.008502131279691488,-2.147039066346258,-0.8575297412340962,-1.2113030042962987,-0.0047865321707689455,0.009510557044193901,0.02938963731103137
5572,0.0,300.17052,13823.078000000001,-0.05571999391887472,0.0,0.0,0.0,0.0,-0.008503658897577204,-2.154011544259388,-0.8560924155697431,-1.191766529118199,-0.005723275200768285,0.004207850751832535,0.025643276788794373
5573,0.0,300.16981,13841.018999999998,-0.05573000359357205,0.0,0.0,0.0,0.0,-0.00850518651546292,-2.138674889420778,-0.8663715946542191,-1.202277580355559,0.003959205155468127,0.013887229954812886,0.012749207224248788
5574,0.0,300.34201,14122.819,-0.05574001326826983,0.0,0.0,0.0,0.0,-0.008506714133348692,-2.1729827272066977,-0.8874917189436131,-1.2325098222642488,-0.007952166231392702,-0.007409595323495124,0.03076435931795587
5575,0.0,300.44432,14049.238000000001,-0.05574998990773705,0.0,0.0,0.0,0.0,-0.008508236709591194,-2.151959307506848,-0.890950691339987,-1.227707523415299,0.004115214361440037,-0.01194805772793149,0.026988941822601174
5576,0.0,300.01189,13856.705,-0.055759999582434605,0.0,0.0,0.0,0.0,-0.00850976432747691,-2.137096853715038,-0.8746876118024461,-1.2003077208361488,-0.0008764809023594301,-0.006986729073136473,0.03848521666219516
5577,0.0,300.04627,13949.631000000001,-0.05577000925713216,0.0,0.0,0.0,0.0,-0.008511291945362653,-2.1547855660107778,-0.8852696614743131,-1.2002841121088188,0.005532065382347345,0.01170996219293329,0.025254090465134677
5578,0.0,300.16614,14099.993,-0.055779985896599604,0.0,0.0,0.0,0.0,-0.008512814521605183,-2.1735393054866274,-0.8975110399074431,-1.214995490310719,-0.005153485558084425,-0.012832351487704487,0.04792467384554705
5579,0.0,299.44422000000003,13894.571000000002,-0.055789995571296935,0.0,0.0,0.0,0.0,-0.008514342139490899,-2.147716221388088,-0.8727652635802252,-1.2031213137138288,0.008635758147132971,-0.009502346779958612,0.02850390777586667
5580,0.0,299.73465,13900.437,-0.05580000524599449,0.0,0.0,0.0,0.0,-0.008515869757376643,-2.133552403540228,-0.8735498535301582,-1.218283588210229,0.02329857755389058,0.003286767907428737,0.06180246638892854
5581,0.0,300.05113,13915.485,-0.05581001492069204,0.0,0.0,0.0,0.0,-0.008517397375262387,-2.134400392548918,-0.8706833892622602,-1.2248761986608687,0.01977417453230908,0.01312438840502629,0.033903255126990765
5582,0.0,300.03682000000003,13997.788999999999,-0.05581999156015938,0.0,0.0,0.0,0.0,-0.008518919951504916,-2.145124327632288,-0.8768816123764772,-1.2329722696098888,-0.01017604035679699,0.005345719772356464,0.05953096231474854
5583,0.0,300.16472999999996,14156.223999999998,-0.05583000123485682,0.0,0.0,0.0,0.0,-0.008520447569390605,-2.180645836387988,-0.895467294190741,-1.2270256060979987,-0.01989441692167608,-0.008570592385501612,0.007846726514061613
5584,0.0,299.6812,14145.143999999998,-0.05584001090955437,0.0,0.0,0.0,0.0,-0.008521975187276348,-2.193102530467368,-0.8736298192280502,-1.2330381308663887,-0.011805316120093988,0.0017863839403273684,0.03817589876441786
5585,0.0,299.50035,13894.752,-0.05584998754902171,0.0,0.0,0.0,0.0,-0.008523497763518878,-2.154529517710508,-0.8761655687958092,-1.1929626708612489,-0.012323149742700188,-0.0016950765287660281,0.007045330392669974
5586,0.0,300.25477,13907.298999999999,-0.05585999722371915,0.0,0.0,0.0,0.0,-0.008525025381404594,-2.135716300453788,-0.8864197408678173,-1.2053355691573588,-0.01066264358482099,-0.008574513562063603,0.03010893849077087
5587,0.0,300.32006,14043.194,-0.05587000689841659,0.0,0.0,0.0,0.0,-0.008526552999290338,-2.1569355813979683,-0.8773794829456132,-1.2344651923072287,0.00032235821378177865,-0.008102889818217962,0.04018315025226816
5588,0.0,300.32861,13997.22,-0.05587998353788404,0.0,0.0,0.0,0.0,-0.008528075575532867,-2.144119487508118,-0.8799800298572672,-1.2307059331112187,0.02105854300131638,0.007163449009827373,0.052258396199002154
5589,0.0,300.39476,13846.337,-0.05588999321258159,0.0,0.0,0.0,0.0,-0.008529603193418611,-2.1421669545654183,-0.8696621648839732,-1.1971115247207091,0.017706355006481184,0.0059687204466918435,0.043707918043885664
5590,0.0,300.07955,13939.546,-0.05590000288727892,0.0,0.0,0.0,0.0,-0.0085311308113043,-2.144844467954668,-0.8793203432471612,-1.2131090212745388,0.0026198952262885275,-0.007884083829348493,0.034467326391410265
5591,0.0,299.73697000000004,14087.124,-0.055910012561976474,0.0,0.0,0.0,0.0,-0.008532658429190043,-2.182146054486048,-0.8816889774759272,-1.2182988882867387,-0.0007854576567886352,-0.011107430994468091,0.03332897232806347
5592,0.0,299.92244,14240.75,-0.05591998920144392,0.0,0.0,0.0,0.0,-0.008534181005432573,-2.171086530969558,-0.9007320403853312,-1.2570136547325885,0.0012865246652200989,0.006988944949780165,0.02616987705126577
5593,0.0,299.38529,14218.792,-0.055929998876141473,0.0,0.0,0.0,0.0,-0.008535708623318317,-2.1913801066223777,-0.8867421367846351,-1.2440355421517488,-0.005364894111948825,0.005064157530593435,0.04310797265967566
5594,0.0,299.76676000000003,14046.737,-0.055940008550838805,0.0,0.0,0.0,0.0,-0.008537236241204033,-2.1491882711333683,-0.8875068265026042,-1.233162152678629,-0.01994766422768118,-0.0005995448464454694,0.030745210917566074
5595,0.0,299.88383,13800.677,-0.05594998519030636,0.0,0.0,0.0,0.0,-0.00853875881744659,-2.147691599410658,-0.8483442035125541,-1.1990253515095888,-0.01997344333672538,-0.007722641677665394,0.02831561854953397
5596,0.0,300.11547,13987.065,-0.055959994865003804,0.0,0.0,0.0,0.0,-0.008540286435332306,-2.168263514865948,-0.8898509907414551,-1.1936040581745488,0.0014245274036649087,0.010248131074911791,0.006881908958241534
5597,0.0,299.72425,14189.087,-0.055970004539701135,0.0,0.0,0.0,0.0,-0.008541814053217994,-2.193881213169218,-0.8880203315207832,-1.2312266423376088,0.005306158942077114,0.005487731232171905,0.027174932997707076
5598,0.0,299.92438,13929.646999999999,-0.05598001421439869,0.0,0.0,0.0,0.0,-0.008543341671103738,-2.144309269251848,-0.8830103569313371,-1.2069453195912287,0.0098961645685004,-0.007541492014187312,0.015014085656024884
5599,0.0,299.53358,13838.327,-0.055989990853866134,0.0,0.0,0.0,0.0,-0.008544864247346268,-2.118087572563968,-0.8821061426745982,-1.206312342253759,0.016387039541524883,-0.015875093915249786,0.042223979835182356
5600,0.0,299.85652000000005,14129.401000000002,-0.056000000528563576,0.0,0.0,0.0,0.0,-0.008546391865232011,-2.165317692850218,-0.8789542559860312,-1.250713164285779,0.011319181013616189,-0.003936387979116246,0.04770603473896905
5601,0.0,299.81718,14301.437,-0.05601001020326102,0.0,0.0,0.0,0.0,-0.008547919483117727,-2.1791698349673183,-0.9180713333840861,-1.2500384410441887,0.01052863112659499,-0.012837577831720287,0.049017595800910044
5602,0.0,300.63498,14110.67,-0.056019986842728575,0.0,0.0,0.0,0.0,-0.008549442059360285,-2.176509242854738,-0.8958650860475,-1.2169169164753488,-0.013309934763338289,-0.0075815539979661225,0.024957802963643375
5603,0.0,300.07289,14044.992,-0.056029996517425906,0.0,0.0,0.0,0.0,-0.008550969677246001,-2.162407233262978,-0.8813920141366192,-1.2255275158251488,-0.0006440167074420003,0.012904330748308289,0.04465952808730225
5604,0.0,300.6428,14060.443000000001,-0.05604000619212346,0.0,0.0,0.0,0.0,-0.008552497295131717,-2.170210474933098,-0.8894993929567552,-1.2143135729934187,-0.016937543387105385,0.02103713910620398,0.022002127090690878
5605,0.0,300.47433,14033.271999999999,-0.05605001586682079,0.0,0.0,0.0,0.0,-0.008554024913017433,-2.165785307771368,-0.8706414913706251,-1.229337437526159,0.006795064710720675,0.0041566670309810955,0.04392114538167955
5606,0.0,300.0591,14011.628,-0.05605999250628846,0.0,0.0,0.0,0.0,-0.00855554748925999,-2.162972221518738,-0.8771979997202022,-1.2190147494823889,-0.016665344893491484,-0.006645269666287055,0.016738932182003983
5607,0.0,299.7348,13983.152,-0.05607000218098579,0.0,0.0,0.0,0.0,-0.008557075107145706,-2.173461082578908,-0.8614488608983832,-1.2156189430972488,0.0063815533932352845,-0.009202957213286162,0.05051956378189275
5608,0.0,299.96286000000003,13918.944,-0.05608001185568312,0.0,0.0,0.0,0.0,-0.008558602725031422,-2.170542820965898,-0.8674608283792181,-1.1930077604906988,-0.006686320784813484,-0.007725251303297942,0.01964104664142038
5609,0.0,299.57675,14187.763,-0.05608998849515079,0.0,0.0,0.0,0.0,-0.00856012530127398,-2.1852070830381476,-0.8979938434475921,-1.2295246861446387,0.011988376975910688,-0.008786323869592652,0.038468770599822066
5610,0.0,300.00851,14401.569,-0.05609999816984812,0.0,0.0,0.0,0.0,-0.008561652919159696,-2.187274113242148,-0.9152740031705111,-1.2751691713493989,0.0015033617064952485,-0.00912307450057735,0.03823763001351026
5611,0.0,299.96439,14155.315,-0.05611000784454567,0.0,0.0,0.0,0.0,-0.008563180537045412,-2.1643025175750275,-0.892495299924928,-1.2460644741519886,0.025608283183340772,0.006754932103409894,0.05574552681565515
5612,0.0,300.08016000000003,13956.503999999999,-0.05611998448401312,0.0,0.0,0.0,0.0,-0.008564703113287941,-2.133820408191678,-0.8891580593955681,-1.219450244375369,0.0005986454653917073,0.01841934262484758,0.03163743437262167
5613,0.0,300.46345,13986.986,-0.05612999415871067,0.0,0.0,0.0,0.0,-0.008566230731173685,-2.1671362741296982,-0.8583839617309013,-1.2261742733639789,0.009077994294353282,-0.001205039092178099,0.052080984212492944
5614,0.0,299.89673999999997,14027.045,-0.056140003833408,0.0,0.0,0.0,0.0,-0.008567758349059401,-2.161519423525358,-0.888187112487243,-1.214164827878739,-0.015465835107109084,-0.015122841842258287,0.03267182086970767
5615,0.0,299.98388,14071.253,-0.056150013508105556,0.0,0.0,0.0,0.0,-0.008569285966945145,-2.177357029213408,-0.876775646681019,-1.2231767755931489,-0.006161655830033084,-0.014988644972514086,0.03518248439149087
5616,0.0,299.88066000000003,14116.473999999998,-0.05615999014757289,0.0,0.0,0.0,0.0,-0.008570808543187675,-2.171408339201318,-0.8764183442982562,-1.243228995072149,-0.009351099646806681,-0.0033754764338085872,0.03899156712141807
5617,0.0,299.6903,14027.101,-0.056169999822270444,0.0,0.0,0.0,0.0,-0.008572336161073418,-2.172605190219438,-0.8760312118325491,-1.2152521465610489,-0.004931525828278706,0.004121267517537436,0.01851986818051868
5618,0.0,299.99582000000004,14090.348,-0.056180009496967886,0.0,0.0,0.0,0.0,-0.008573863778959107,-2.166151800332538,-0.8870937345693352,-1.2298682792535487,-0.008674080887115132,0.012981626532186789,0.03018206475048787
5619,0.0,300.2289,14352.546,-0.056189986136435444,0.0,0.0,0.0,0.0,-0.008575386355201692,-2.208282840815548,-0.9162036702697621,-1.238329120238569,0.015408290607429884,0.015439360908496284,0.027443046066917772
5620,0.0,299.72868,14324.05,-0.056199995811132775,0.0,0.0,0.0,0.0,-0.00857691397308738,-2.2019001757856276,-0.9000059048336672,-1.2522476302372187,0.014542565668989487,0.015400779384438587,0.031071305197249075
5621,0.0,300.2981,14047.792,-0.056210005485830106,0.0,0.0,0.0,0.0,-0.008578441590973096,-2.163935315738788,-0.8834800591476931,-1.222762660277279,0.022123626923431977,-0.007395011006855764,0.035311682898491764
5622,0.0,300.12106,13967.472,-0.05622001516052766,0.0,0.0,0.0,0.0,-0.00857996920885884,-2.139224273624998,-0.8756787325202621,-1.2308596431513887,0.01037525849870829,-0.01980781038262868,0.04219022644785116
5623,0.0,300.28702999999996,14155.231000000002,-0.056229991799995105,0.0,0.0,0.0,0.0,-0.00858149178510137,-2.187241891888968,-0.8736742299799332,-1.2419207878680387,0.012641709494639589,-0.01157614225222629,0.05361696902583286
5624,0.0,299.98056,14160.411,-0.05624000147469266,0.0,0.0,0.0,0.0,-0.008583019402987113,-2.1697093214336376,-0.8924186880848672,-1.242283227428809,-0.016096086801810086,0.016577966257867883,0.03986685714080246
5625,0.0,300.31023,14038.073,-0.05625001114938999,0.0,0.0,0.0,0.0,-0.008584547020872801,-2.173294200287438,-0.8733330180087581,-1.220596331563479,-0.017421920504659683,0.006747594247510703,0.040302056164753255
5626,0.0,300.65664,14069.81,-0.05625998778885766,0.0,0.0,0.0,0.0,-0.008586069597115359,-2.1736449874720583,-0.8802005840065342,-1.2230252947031988,-0.02807118209540997,0.010869473261483489,0.01941380301499318
5627,0.0,300.26796,14079.587,-0.05626999746355499,0.0,0.0,0.0,0.0,-0.008587597215001075,-2.176874620840798,-0.8736471660697622,-1.2293209215495289,0.003009447941184387,-0.006265928080598953,0.03321607701517157
5628,0.0,299.61557999999997,14226.093,-0.05628000713825254,0.0,0.0,0.0,0.0,-0.008589124832886819,-2.1947999270348877,-0.8889053750856301,-1.2406717544697687,0.02145396385284138,0.012313804537027889,0.012654326484884787
5629,0.0,299.44962999999996,14256.446000000002,-0.056289983777719876,0.0,0.0,0.0,0.0,-0.008590647409129348,-2.194785336233448,-0.8852164962415661,-1.2536016363458486,0.016342866903415385,-0.0067717500285696935,0.04518662889532305
5630,0.0,299.4482,13958.338,-0.05629999345241743,0.0,0.0,0.0,0.0,-0.008592175027015092,-2.159723032423068,-0.876761907009663,-1.2065012120723988,0.012431419568885589,-0.005376257914470345,0.02084872322360878
5631,0.0,299.58786000000003,14001.854,-0.05631000312711487,0.0,0.0,0.0,0.0,-0.008593702644900808,-2.150572674744998,-0.8754468401023762,-1.2301945457857488,0.0078082864397178734,0.0057592370680174445,0.05266803598918045
5632,0.0,300.01723,14327.24,-0.0563200128018122,0.0,0.0,0.0,0.0,-0.008595230262786496,-2.195488937102888,-0.9072928347828311,-1.2523414571964788,0.005629332123046824,0.021162843926860082,0.036340474228525564
5633,0.0,299.95294,14342.925,-0.05632998944127976,0.0,0.0,0.0,0.0,-0.008596752839029054,-2.191000441809908,-0.904153046300458,-1.2647376602448888,-0.0007183784230059303,-0.01166001098950349,0.061482486060348944
5634,0.0,300.2153,14073.921999999999,-0.05633999911597709,0.0,0.0,0.0,0.0,-0.00859828045691477,-2.1694223690053183,-0.8812640710464921,-1.2274344525133487,-0.002070229743840768,-0.015026744189524184,0.046852785949009955
5635,0.0,300.58056,14058.187,-0.056350008790674644,0.0,0.0,0.0,0.0,-0.008599808074800513,-2.1616152769848185,-0.8854496653545781,-1.226272761273699,-0.005725735574661104,-0.003385402333113197,0.04121861890046096
5636,0.0,300.04219,14207.082,-0.05635998543014209,0.0,0.0,0.0,0.0,-0.008601330651043043,-2.186506170991358,-0.8880730711884882,-1.2440189248501088,-0.0048099898225090355,0.016272331524204087,0.03589100357691627
5637,0.0,299.69216,14368.343,-0.05636999510483964,0.0,0.0,0.0,0.0,-0.008602858268928787,-2.196667448294198,-0.9256415376637072,-1.2453084882523788,-0.018813784676775983,0.013196422381135487,0.02297352286881018
5638,0.0,299.33804,14270.158000000001,-0.056380004779536974,0.0,0.0,0.0,0.0,-0.008604385886814503,-2.2009497471918276,-0.8911671215613471,-1.2456549184615688,-0.02338973561238718,0.004289896854829856,0.015276380643161383
5639,0.0,299.37132,14129.418,-0.05639001445423453,0.0,0.0,0.0,0.0,-0.008605913504700219,-2.1928199350144775,-0.8819324310774542,-1.2202378436780987,-0.0005400201014333345,0.005637675629670265,0.02006351924411518
5640,0.0,300.16062999999997,14082.975,-0.05639999109370197,0.0,0.0,0.0,0.0,-0.008607436080942749,-2.182274230623698,-0.8963564211534912,-1.2022422179270689,0.01869242365929858,0.002112271213014938,0.028942027999855773
5641,0.0,300.14027000000004,14211.007,-0.056410000768399526,0.0,0.0,0.0,0.0,-0.008608963698828492,-2.200878110409758,-0.8821717506185732,-1.2367413573318689,0.022309885596564275,-0.016026526169194984,0.051410460892567456
5642,0.0,299.91188,14279.096000000001,-0.05642001044309686,0.0,0.0,0.0,0.0,-0.008610491316714208,-2.188060597969768,-0.9074082743667242,-1.2450198132988888,0.014044182395302886,-0.02043503853903128,0.050314293497134156
5643,0.0,300.04341,14114.643999999998,-0.056429987082564304,0.0,0.0,0.0,0.0,-0.008612013892956738,-2.171607240195948,-0.887696071223781,-1.2311960421845887,0.015174267324583587,0.0023723230670800576,0.05776490386745215
5644,0.0,299.56744,14040.367,-0.05643999675726186,0.0,0.0,0.0,0.0,-0.008613541510842482,-2.156479618852968,-0.8840531736692552,-1.2273882483087888,0.005207340206199465,0.01986965207598198,0.042968375166898456
5645,0.0,299.92346000000003,14240.905,-0.05645000643195919,0.0,0.0,0.0,0.0,-0.008615069128728198,-2.192216240604898,-0.9059812737208901,-1.2306820204088589,-0.016138356556231786,0.009025721836269393,0.03576419532690126
5646,0.0,299.9613,14383.452,-0.05646001610665674,0.0,0.0,0.0,0.0,-0.008616596746613914,-2.2092007440811376,-0.8979351560018001,-1.2650744645781289,-0.04330443070831455,-0.004044203058656767,0.03786269809225737
5647,0.0,299.53702000000004,14318.702,-0.056469992746124076,0.0,0.0,0.0,0.0,-0.008618119322856443,-2.203922015035168,-0.9135261467480111,-1.235079728492879,-0.01000115906373755,0.004904524435638875,0.015031876301280686
5648,0.0,300.2886,14253.665,-0.05648000242082163,0.0,0.0,0.0,0.0,-0.008619646940742187,-2.195754509954098,-0.9005279515501892,-1.2364757844806589,0.002120331617560438,0.008134000547963352,0.036661298594438466
5649,0.0,300.55681,14120.375,-0.05649001209551907,0.0,0.0,0.0,0.0,-0.008621174558627903,-2.1822743319487077,-0.8757306413228851,-1.2342366030846688,-0.0025420327316290976,0.0010034862497838822,0.025626879362426074
5650,0.0,300.26608999999996,14131.645,-0.056499988734986406,0.0,0.0,0.0,0.0,-0.008622697134870433,-2.1842353761922477,-0.8843954191555321,-1.227036346549059,-0.008682525414773542,-0.009148010686863361,0.04850602102417155
5651,0.0,300.35451,14312.2,-0.05650999840968396,0.0,0.0,0.0,0.0,-0.008624224752756177,-2.210052482115198,-0.8913748783618511,-1.2491238815039287,0.03145810025067276,0.018677745718349983,0.03160196048662067
5652,0.0,299.79733999999996,14234.178,-0.05652000808438151,0.0,0.0,0.0,0.0,-0.00862575237064192,-2.191249194709458,-0.8877181904734641,-1.2478674513799288,0.031007408632692968,0.012392611076805489,0.058742632458696445
5653,0.0,299.70282000000003,14065.993999999999,-0.056529984723848736,0.0,0.0,0.0,0.0,-0.008627274946884422,-2.166364278878508,-0.9017736614881312,-1.2075731293531888,0.023032793946659774,-0.0036018977064546267,0.011642369292012388
5654,0.0,299.6699,14256.267,-0.05653999439854651,0.0,0.0,0.0,0.0,-0.008628802564770166,-2.191710628804998,-0.8875589886177521,-1.2542797033127688,-0.008153287054341781,-0.029667839311487768,0.060401293488143534
5655,0.0,299.52991000000003,14543.778999999999,-0.05655000407324384,0.0,0.0,0.0,0.0,-0.008630330182655882,-2.198283480878688,-0.9434835546995771,-1.2791787033201087,-0.0013596463653116485,-0.008395204467392172,0.03212378935437117
5656,0.0,299.86524,14383.981000000002,-0.056560013747941174,0.0,0.0,0.0,0.0,-0.008631857800541598,-2.1925320706610685,-0.9151696181452091,-1.2646691645381287,0.0016838675508597885,0.0024563838152512076,0.049926376775849754
5657,0.0,300.08592999999996,14168.473,-0.05656999038740884,0.0,0.0,0.0,0.0,-0.008633380376784155,-2.1780335763051775,-0.8873158187262532,-1.241512752052769,-0.009903380935712601,0.004864921454155365,0.03097412438015807
5658,0.0,300.33709,14150.983,-0.05658000006210617,0.0,0.0,0.0,0.0,-0.008634907994669871,-2.1882057967090978,-0.8879530517141431,-1.2253865727362387,-0.016284613128666185,-0.007833506842656933,0.038986484658916465
5659,0.0,300.02819,14087.08,-0.056590009736803726,0.0,0.0,0.0,0.0,-0.008636435612555615,-2.1979992642256376,-0.8559045083386981,-1.2282167829155588,-0.0011337427621416988,0.013826835182602387,0.03418532875607927
5660,0.0,300.04469,14182.696000000002,-0.05659998637627095,0.0,0.0,0.0,0.0,-0.008637958188798117,-2.208913589002798,-0.8797709355666312,-1.2225009377764489,0.018433932413037483,0.013316957599781385,0.025811247310871775
5661,0.0,300.32104,14286.32,-0.056609996050968614,0.0,0.0,0.0,0.0,-0.008639485806683861,-2.199179396617108,-0.8827733273354441,-1.2607318772995488,-0.0012648190242279189,-0.005925058283982724,0.04481398286629575
5662,0.0,299.83653,14268.021999999999,-0.056620005725666056,0.0,0.0,0.0,0.0,-0.008641013424569577,-2.199518227450548,-0.8824449025805312,-1.255159305724579,0.005425246732955165,-0.02110567128996758,0.044935512083289754
5663,0.0,299.59779,14310.614,-0.05663001540036361,0.0,0.0,0.0,0.0,-0.00864254104245532,-2.191543847838538,-0.9062392877263542,-1.2522861337410187,-0.009551199518955002,0.002322255137238738,0.03927979117861356
5664,0.0,299.61869,14443.052,-0.05663999203983083,0.0,0.0,0.0,0.0,-0.008644063618697823,-2.221233595643688,-0.9062039252978642,-1.262889796037519,0.021594624244973482,0.01241555207231959,0.033015394726865765
5665,0.0,299.76776,14446.296999999999,-0.0566500017145285,0.0,0.0,0.0,0.0,-0.008645591236583594,-2.2269697057847977,-0.9195892934913972,-1.2447545444227088,0.0005580330233635715,-0.0055733581610226245,0.05248355354347345
5666,0.0,300.27785,14252.556999999999,-0.05666001138922583,0.0,0.0,0.0,0.0,-0.00864711885446931,-2.1932946426863276,-0.9080375229438261,-1.231089245624049,0.003365351532184337,-0.01063339409418429,0.03935229327626896
5667,0.0,300.24722,14153.892,-0.056669988028693274,0.0,0.0,0.0,0.0,-0.00864864143071184,-2.180855376508668,-0.8823506399237282,-1.2392237187518589,-0.008767888087998181,0.0062975989349996235,0.03641292566367596
5668,0.0,300.02808999999996,14162.248,-0.05667999770339083,0.0,0.0,0.0,0.0,-0.008650169048597556,-2.1845808944763476,-0.8792752434852101,-1.2411137341633889,0.0029747187940068875,0.0085730494156691,0.04567525963679716
5669,0.0,300.23368999999997,14153.372,-0.05669000737808816,0.0,0.0,0.0,0.0,-0.008651696666483272,-2.167611893726638,-0.8974916564330301,-1.2371682395989987,-0.02083177256268588,-0.0028445415887343975,0.01770087433669028
5670,0.0,300.67057,14186.505,-0.056699984017555605,0.0,0.0,0.0,0.0,-0.008653219242725801,-2.193860948167218,-0.8807352963493063,-1.237747109381129,-0.008580269025281622,-0.010666059250908091,0.03629783058481696
5671,0.0,300.30844,14329.308,-0.056709993692252936,0.0,0.0,0.0,0.0,-0.008654746860611517,-2.212840338440338,-0.9045715895192652,-1.2383397593646188,-0.008515202460835054,0.0057834747196845145,0.015491863475677884
5672,0.0,299.98962,14345.985,-0.05672000336695071,0.0,0.0,0.0,0.0,-0.008656274478497289,-2.2030527477743775,-0.9100936809742531,-1.247674933860929,0.015146663352109286,0.012706160307000386,0.03209971757174547
5673,0.0,299.28522999999996,14367.243999999999,-0.05673001304164804,0.0,0.0,0.0,0.0,-0.008657802096382977,-2.193878477393948,-0.9171481308204731,-1.256256655582879,0.00907971722482332,-0.0069986293915859435,0.02987853048428137
5674,0.0,300.01746,14493.111,-0.05673998968111549,0.0,0.0,0.0,0.0,-0.008659324672625535,-2.218714250595048,-0.9221541436020282,-1.2646755480137588,0.015144913469186585,-0.028593018055911173,0.05663648472133585
5675,0.0,299.83432999999997,14320.281,-0.05674999935581304,0.0,0.0,0.0,0.0,-0.00866085229051125,-2.201860152406678,-0.9033546356191611,-1.2477931801475988,0.008221566938830482,0.005183804027576625,0.041224543373795663
5676,0.0,300.37344,14108.162,-0.056760009030510594,0.0,0.0,0.0,0.0,-0.008662379908396994,-2.1949680252264776,-0.8787447867928583,-1.2148160437180089,0.017424444510658783,0.009345050847684711,0.04958490946564955
5677,0.0,299.75539,14230.042,-0.05676998566997782,0.0,0.0,0.0,0.0,-0.008663902484639496,-2.205681929133858,-0.8841546506667702,-1.235740671533109,-0.011701331328581489,0.005151375059451135,0.05683877605080045
5678,0.0,300.03174,14462.423999999999,-0.05677999534467537,0.0,0.0,0.0,0.0,-0.00866543010252524,-2.225439394158768,-0.8992464130887111,-1.271529880965229,-0.023639224131509776,-0.00926643702807613,0.04815950975497355
5679,0.0,300.14866,14355.743,-0.05679000501937281,0.0,0.0,0.0,0.0,-0.008666957720410984,-2.2301831271519377,-0.8902246165833292,-1.2433795640370089,-0.017618782840088484,0.025665281541216077,0.03473780843935476
5680,0.0,300.84466000000003,14403.497,-0.056800014694070255,0.0,0.0,0.0,0.0,-0.008668485338296672,-2.214729644576798,-0.9117137158966381,-1.2518600620739686,-0.013817056305887287,0.012460799768785186,0.02987408839584297
5681,0.0,300.41616,14417.226,-0.05680999133353759,0.0,0.0,0.0,0.0,-0.00867000791453923,-2.226314031645088,-0.9047073447676632,-1.2514554713090387,-0.009035070689642051,0.0005181271003651636,0.024895272260222076
5682,0.0,299.4999,14393.442,-0.056820001008235144,0.0,0.0,0.0,0.0,-0.008671535532424945,-2.213790057759068,-0.9136452542972661,-1.247811722624429,-0.005273260231205265,-0.02027356092359468,0.03640521381716487
5683,0.0,299.39838,14403.573,-0.0568300106829327,0.0,0.0,0.0,0.0,-0.00867306315031069,-2.224954756635938,-0.9066813890099862,-1.2466903587387588,0.021437137821680777,0.008582982610374431,0.027847118047796573
5684,0.0,300.26093,14402.46,-0.05683998732239992,0.0,0.0,0.0,0.0,-0.008674585726553191,-2.2072581409894183,-0.9015079569144081,-1.2692220012124589,0.02071639884004938,0.008090830824802832,0.062100096446802346
5685,0.0,300.55127000000005,14116.576000000001,-0.056849996997097474,0.0,0.0,0.0,0.0,-0.008676113344438935,-2.179514137351298,-0.8909677848691742,-1.220604640214299,0.005011976771643595,-0.006173918588043324,0.04428113186395746
5686,0.0,299.81588,14137.296999999999,-0.05686000667179503,0.0,0.0,0.0,0.0,-0.008677640962324679,-2.171919118576728,-0.8788940486650891,-1.2465720111270788,-0.000983158831577722,-0.022639495854094277,0.06265271697184173
5687,0.0,299.68232,14508.726999999999,-0.05687001634649258,0.0,0.0,0.0,0.0,-0.008679168580210395,-2.221644265909218,-0.9258063630574741,-1.2628401467826187,0.007669910318611213,0.012564460320265688,0.03326872143736717
5688,0.0,299.95371,14495.808,-0.056879992985959804,0.0,0.0,0.0,0.0,-0.008680691156452924,-2.2251878041589377,-0.9229408715096722,-1.2582349250781188,0.0028756319521527776,0.012648850881344386,0.050861589392898046
5689,0.0,300.51027999999997,14274.882,-0.05689000266065736,0.0,0.0,0.0,0.0,-0.00868221877433864,-2.199543254728018,-0.9011953692585581,-1.2384691514023887,-0.024326898735877976,-0.00036467417240803864,0.01926858907691168
5690,0.0,300.44587,14410.712,-0.05690001233535491,0.0,0.0,0.0,0.0,-0.008683746392224384,-2.220276884899268,-0.9109344657747321,-1.249285292244859,-0.023642770506859777,-0.002145924288586238,0.04088361815239896
5691,0.0,299.5171,14454.972,-0.056909988974822356,0.0,0.0,0.0,0.0,-0.008685268968466914,-2.248779407562248,-0.9013807230993511,-1.2437903356275488,-0.009537927766495181,0.013797774156484286,0.02095265025986558
5692,0.0,299.50093,14360.528999999999,-0.05691999864951969,0.0,0.0,0.0,0.0,-0.00868679658635263,-2.2109267143014777,-0.8823879781899132,-1.271927480304469,0.012473852456573387,0.016134775730378383,0.03513603903340707
5693,0.0,299.6631,14322.613000000001,-0.05693000832421724,0.0,0.0,0.0,0.0,-0.008688324204238373,-2.214380579917348,-0.9001149001469241,-1.239221388276629,0.003092416507072747,0.0015563293554727486,0.03955905709167496
5694,0.0,300.31295,14337.626,-0.056939984963684576,0.0,0.0,0.0,0.0,-0.008689846780480903,-2.199911368489348,-0.8853649779112202,-1.2730038558856989,0.016211032932904382,-0.009600285001499361,0.05820764248539704
5695,0.0,300.07774,14350.645,-0.05694999463838202,0.0,0.0,0.0,0.0,-0.00869137439836662,-2.209737462659108,-0.9063757725148242,-1.2461243572328988,0.024164599374610275,0.008051113548708043,0.05175890037670575
5696,0.0,300.3729,14515.746000000001,-0.05696000431307957,0.0,0.0,0.0,0.0,-0.008692902016252335,-2.2287733922878084,-0.9138902581714462,-1.269760543640609,0.008957103424922282,0.005984632019637194,0.051436058629843746
5697,0.0,300.58776,14551.871000000001,-0.056970013987777124,0.0,0.0,0.0,0.0,-0.008694429634138079,-2.248513733386028,-0.9063026563876081,-1.2685889225499787,-0.018338056662075282,-0.01036919115710949,0.06431874331626573
5698,0.0,300.14011,14340.88,-0.05697999062724446,0.0,0.0,0.0,0.0,-0.008695952210380609,-2.201423340288568,-0.9124578771675812,-1.245388332360259,-0.019085178649810484,-0.004091220801722056,0.03609067970787276
5699,0.0,299.72562999999997,14385.561000000002,-0.05699000030194179,0.0,0.0,0.0,0.0,-0.008697479828266325,-2.2301140234951182,-0.9050167508181991,-1.2377206635535187,0.0002071385963529878,0.014646671037263886,0.03676129523355737
5700,0.0,299.94749,14646.726,-0.05700000997663934,0.0,0.0,0.0,0.0,-0.008699007446152068,-2.237305768729888,-0.9284141141773391,-1.2865189910195387,0.001841751978791768,0.0075434840638839125,0.031733130778316174
5701,0.0,300.01013,14514.749,-0.05700998661610679,0.0,0.0,0.0,0.0,-0.008700530022394598,-2.224725964763358,-0.921314807749192,-1.2660804192774089,-0.00970624897443219,-0.00915954349950156,0.02638274063227377
5702,0.0,299.87486,14221.296999999999,-0.05701999629080434,0.0,0.0,0.0,0.0,-0.008702057640280342,-2.1975873780599877,-0.8861497806436742,-1.2391819728477387,-0.004775297051010125,-0.0008145083477557151,0.026800248309478573
5703,0.0,300.24805,14239.273000000001,-0.05703000596550167,0.0,0.0,0.0,0.0,-0.00870358525816603,-2.202951321439368,-0.8881277258988822,-1.237304521737449,0.002328441231749258,0.004401531380622326,0.025626006954089977
5704,0.0,299.89781,14272.732,-0.057040015640199226,0.0,0.0,0.0,0.0,-0.008705112876051774,-2.198330293033308,-0.8999215213653391,-1.2403023234833088,0.016734920724858084,0.016249330746934087,0.027505622366593575
5705,0.0,300.01981,14375.751,-0.05704999227966667,0.0,0.0,0.0,0.0,-0.008706635452294303,-2.214467922075968,-0.9039385108567851,-1.251462969359779,-0.008823715432732911,-0.014383955551335885,0.04429767925134056
5706,0.0,300.0528,14546.58,-0.057060001954364004,0.0,0.0,0.0,0.0,-0.00870816307018002,-2.212282949560328,-0.9306475605777632,-1.2788667236143187,0.013133840001959088,-0.005341083950498944,0.041479574370965264
5707,0.0,299.72385,14476.938999999998,-0.05707001162906156,0.0,0.0,0.0,0.0,-0.008709690688065763,-2.213951569825008,-0.9104053871025162,-1.2762710808331488,0.010942999754989989,0.005577824364813405,0.05667992680612325
5708,0.0,299.50125,14310.676000000001,-0.057079988268529,0.0,0.0,0.0,0.0,-0.008711213264308293,-2.2101582654256378,-0.8863719255955982,-1.253558066591549,0.01022715274484139,0.006606979248983084,0.03986694428031107
5709,0.0,299.28983,14542.374,-0.057089997943226556,0.0,0.0,0.0,0.0,-0.008712740882194037,-2.240921045086688,-0.9152964871902302,-1.2643010507767989,-0.016236593179926987,-0.011288405568328889,0.051446084739583245
5710,0.0,299.58794,14645.565,-0.05710000761792389,0.0,0.0,0.0,0.0,-0.008714268500079725,-2.2615126175939184,-0.9011325680173602,-1.2892409860881788,-0.020996540201197178,-0.004308637928679456,0.040792630319919164
5711,0.0,299.22981,14412.146,-0.057109984257391444,0.0,0.0,0.0,0.0,-0.008715791076322282,-2.2387718402995778,-0.8937943270831321,-1.2483662744041588,0.005263302414522505,0.008338515860072442,0.04514544635825866
5712,0.0,299.88681,14332.086000000001,-0.057119993932088886,0.0,0.0,0.0,0.0,-0.008717318694207998,-2.210738148457868,-0.8882841717143222,-1.2575739820378886,-0.0016204264422236387,0.0044382436608955455,0.037509099138609864
5713,0.0,299.41032,14343.843,-0.05713000360678633,0.0,0.0,0.0,0.0,-0.008718846312093742,-2.238359244858858,-0.8716734663324732,-1.2501375369039687,0.008126660564238952,-0.005897706408133305,0.05313024826079725
5714,0.0,300.21857,14351.552,-0.05714001328148377,0.0,0.0,0.0,0.0,-0.008720373929979458,-2.2112878366371183,-0.8939225944132911,-1.2573030389611488,-0.0020461059814849383,-0.0006401808262734284,0.03928735711711026
5715,0.0,300.58403,14434.73,-0.05714998992095133,0.0,0.0,0.0,0.0,-0.008721896506222016,-2.228765691587048,-0.9033121399099672,-1.2557195317048688,0.019235778012173483,0.018049693789616086,0.027623204974448076
5716,0.0,300.27268,14547.188999999998,-0.05715999959564866,0.0,0.0,0.0,0.0,-0.008723424124107731,-2.2271782326553775,-0.9295182224138061,-1.2652856258989686,-0.0014560568083516186,0.0007265814830330092,0.04157509852414276
5717,0.0,299.73589,14423.464,-0.0571700092703461,0.0,0.0,0.0,0.0,-0.00872495174199342,-2.224611062202018,-0.9180563271501051,-1.2417055735467988,-0.002763048112341617,-0.02134109589770218,0.04051618732163636
5718,0.0,299.66305,14464.273000000001,-0.05717998590981366,0.0,0.0,0.0,0.0,-0.008726474318235977,-2.198703574370148,-0.9311581575681551,-1.266916046634879,-0.006357439763380454,-0.0013270139365660787,0.03757203108907076
5719,0.0,299.44614,14582.239,-0.05718999558451099,0.0,0.0,0.0,0.0,-0.008728001936121693,-2.2483218238170877,-0.9227576150965862,-1.2615570681809887,0.003491542814213447,0.0016736879337301384,0.04766989920065275
5720,0.0,299.8213,14449.296999999999,-0.05720000525920854,0.0,0.0,0.0,0.0,-0.008729529554007437,-2.2225628784498777,-0.9039067049361461,-1.2657557739453689,0.001132245279818909,0.01090408588489949,0.03905059704574386
5721,0.0,299.63948999999997,14242.606000000002,-0.05721001493390587,0.0,0.0,0.0,0.0,-0.008731057171893153,-2.216368373963528,-0.8881898482625131,-1.2248384044321388,-0.012766750636480188,-0.00840523463013207,0.030030699371049272
5722,0.0,300.05806,14382.311000000002,-0.05721999157337354,0.0,0.0,0.0,0.0,-0.00873257974813571,-2.211575903640548,-0.9013159156229551,-1.2589714565758088,-0.007309279713244744,0.011469086299660688,0.031154127247172973
5723,0.0,300.61057999999997,14601.577,-0.05723000124807087,0.0,0.0,0.0,0.0,-0.008734107366021426,-2.2534874741518975,-0.9133235372580152,-1.2717038560073988,0.006511421759877295,0.01058810080146419,0.03520191244890827
5724,0.0,300.63667999999996,14534.274,-0.057240010922768425,0.0,0.0,0.0,0.0,-0.008735634983907142,-2.2240642111230478,-0.9166698565082712,-1.2773223278118988,0.008760819959275612,0.0070636269537007025,0.027412375999640873
5725,0.0,300.37322,14538.635,-0.05724998756223587,0.0,0.0,0.0,0.0,-0.008737157560149672,-2.2511063364168975,-0.9033565202643472,-1.2649192346628089,0.00016390829096898886,-0.011014587901055188,0.04667392501485775
5726,0.0,299.9882,14594.186000000002,-0.05725999723693331,0.0,0.0,0.0,0.0,-0.008738685178035416,-2.2354767509743776,-0.9273424907390782,-1.273448774004609,-0.0011810607312116189,-0.00047465496257979747,0.04436120192660976
5727,0.0,299.81297,14562.965,-0.057270006911630755,0.0,0.0,0.0,0.0,-0.008740212795921132,-2.2472634840876378,-0.9197317969854611,-1.259782563280859,0.01248418659434329,-0.0015579275548554786,0.04613592366226116
5728,0.0,299.91969,14665.952,-0.05727998355109831,0.0,0.0,0.0,0.0,-0.00874173537216369,-2.2383329003562578,-0.9419682391750271,-1.277782140707279,-0.004530027198678875,-0.004995845323426546,0.05332201800122345
5729,0.0,299.47684,14537.893,-0.05728999322579564,0.0,0.0,0.0,0.0,-0.008743262990049405,-2.2423145679492182,-0.8970041716774192,-1.2798376198601387,0.0002080970093575758,-0.02278445445315058,0.06401503679754224
5730,0.0,299.26125,14208.206,-0.057300002900493086,0.0,0.0,0.0,0.0,-0.008744790607935121,-2.185163209308818,-0.8867392996843553,-1.2470373968980089,-0.0005976085862993754,0.002332339002233938,0.04797083650685295
5731,0.0,299.91157000000004,14260.582,-0.05731001257519053,0.0,0.0,0.0,0.0,-0.008746318225820837,-2.210753347209368,-0.8853387651311332,-1.238768769456959,0.013142848808598189,0.008031656917637823,0.044645607044178366
5732,0.0,300.18221,14595.437,-0.057319989214657974,0.0,0.0,0.0,0.0,-0.008747840802063367,-2.233778442481768,-0.9167929056004152,-1.286077112650929,0.01315828466062159,0.0026516409598715874,0.025777674282058374
5733,0.0,300.23072,14664.896999999999,-0.05732999888935553,0.0,0.0,0.0,0.0,-0.00874936841994911,-2.2464443727067978,-0.9246870763345091,-1.2866310564805987,-0.01067107686540329,-0.016520023550899383,0.038472847918224466
5734,0.0,299.71464,14428.886,-0.05734000856405286,0.0,0.0,0.0,0.0,-0.008750896037834827,-2.2181334556377275,-0.9170372001995252,-1.250850257024309,-0.010110888578017011,0.009884824374706211,0.009303875403371012
5735,0.0,299.79,14462.921,-0.057349985203520526,0.0,0.0,0.0,0.0,-0.008752418614077384,-2.222353844954248,-0.9188224759482182,-1.2551904125026487,-0.008403664801752142,0.0026170480948325375,0.03888554265745426
5736,0.0,299.70716,14529.567,-0.05735999487821786,0.0,0.0,0.0,0.0,-0.0087539462319631,-2.225697671609258,-0.9142494148018921,-1.2766783060483387,0.008076596180772984,0.009885023782325891,0.026012183924952678
5737,0.0,300.29956,14533.882,-0.05737000455291541,0.0,0.0,0.0,0.0,-0.008755473849848844,-2.230626221420668,-0.9182790901845901,-1.2690318141686887,0.004770334253345335,-0.015191237237258385,0.06542739800593145
5738,0.0,299.79689,14577.528999999999,-0.05738001422761274,0.0,0.0,0.0,0.0,-0.008757001467734532,-2.2277841562151774,-0.9186659288077682,-1.2847547199454188,-0.0028522353993937167,0.01103036521836229,0.04118659209130016
5739,0.0,300.34238,14572.418,-0.05738999086708041,0.0,0.0,0.0,0.0,-0.00875852404397709,-2.238877319634988,-0.9149081996194091,-1.2758657807931488,0.008086035213404544,0.0005704921492431915,0.07246425681716534
5740,0.0,300.63052999999996,14445.551000000001,-0.05740000054177774,0.0,0.0,0.0,0.0,-0.008760051661862805,-2.224857281976318,-0.9033331851145441,-1.262896280838159,-0.004502820622893796,0.0023728462081066878,0.027061053818968075
5741,0.0,300.05959,14649.113000000001,-0.05741001021647507,0.0,0.0,0.0,0.0,-0.008761579279748521,-2.248301761465108,-0.9043401125339201,-1.3003225984568487,-0.0007208041032153264,-0.008665130139706762,0.06497028643531803
5742,0.0,300.35152,14760.114,-0.05741998685594263,0.0,0.0,0.0,0.0,-0.008763101855991079,-2.278277651098498,-0.9020054323160052,-1.306422972008909,-0.018143732518146983,0.006636080703780175,0.026574580286956875
5743,0.0,300.48811,14580.74,-0.05742999653064007,0.0,0.0,0.0,0.0,-0.008764629473876795,-2.2525467727590582,-0.9017292811337512,-1.2779048452943886,-0.0009174623295439821,0.013193706870867487,0.04437237807521276
5744,0.0,299.91193,14409.16,-0.057440006205337624,0.0,0.0,0.0,0.0,-0.008766157091762539,-2.217664523491448,-0.8942422038923342,-1.2681181665535186,-0.008408716056150662,0.003339015642210187,0.008862171921728272
5745,0.0,299.89867999999996,14662.78,-0.057450015880034955,0.0,0.0,0.0,0.0,-0.008767684709648227,-2.276764564724168,-0.9059923181469801,-1.2743622189697588,0.014929051681132685,-0.015774078959780384,0.05575348488194055
5746,0.0,300.09238999999997,14749.714,-0.05745999251950251,0.0,0.0,0.0,0.0,-0.008769207285890784,-2.2566622906902274,-0.93600691393419,-1.2908755611494989,0.01216377664772129,0.0014061675145029286,0.03241882853173927
5747,0.0,299.77493,14511.194,-0.05747000219419984,0.0,0.0,0.0,0.0,-0.0087707349037765,-2.240549891575058,-0.9085820840775702,-1.2619084633156687,0.019551623267094982,0.003938219226021976,0.051539478027800456
5748,0.0,300.24545,14476.851,-0.057480011868897396,0.0,0.0,0.0,0.0,-0.008772262521662244,-2.223970485488798,-0.9189618181019701,-1.257669126222279,0.003974576260810136,-0.007908242548832772,0.04643378170140746
5749,0.0,299.41148,14498.66,-0.05748998850836484,0.0,0.0,0.0,0.0,-0.008773785097904774,-2.228433041579218,-0.918088568768287,-1.2607089778472886,-0.0002457874407473318,-0.02217216565622238,0.04892144849892105
5750,0.0,299.25424,14582.05,-0.057499998183062395,0.0,0.0,0.0,0.0,-0.008775312715790518,-2.2171365188643377,-0.9362434774350371,-1.279198968322109,-0.0008775132826213183,0.024888005230504873,0.021423965570380777
5751,0.0,299.84202,14731.873,-0.057510007857759726,0.0,0.0,0.0,0.0,-0.008776840333676234,-2.266590520470068,-0.9334735961666711,-1.2780575420844589,-0.009813525612869571,0.018234794317884082,0.035078533037231664
5752,0.0,299.52493,14528.773000000001,-0.057519984497227394,0.0,0.0,0.0,0.0,-0.008778362909918791,-2.222524577596098,-0.9040061351684591,-1.2898533944486188,-0.014724372121182387,0.008886881139991882,0.01934258470521448
5753,0.0,299.92911000000004,14292.15,-0.057529994171924725,0.0,0.0,0.0,0.0,-0.00877989052780448,-2.229708115505058,-0.8894362573430241,-1.2253124028289188,-0.012814823274224589,-0.021428307347059278,0.03248353164337497
5754,0.0,300.55688,14503.503,-0.057540003846622056,0.0,0.0,0.0,0.0,-0.008781418145690195,-2.242394614707118,-0.900902489317153,-1.2654056960358189,0.005855360659954105,-0.0037797877443610066,0.027119271116713674
5755,0.0,300.17997,14786.909,-0.05755001352131961,0.0,0.0,0.0,0.0,-0.008782945763575939,-2.2783359129792475,-0.9271767432877202,-1.2893383594227887,0.015696272497851483,0.007425150232405273,0.03089362976571387
5756,0.0,299.7861,14638.052,-0.057559990160787056,0.0,0.0,0.0,0.0,-0.008784468339818469,-2.2563584169852375,-0.9197357993233561,-1.273508049135459,0.004260379866166755,-0.007460656947709514,0.03601993458589076
5757,0.0,300.07468,14527.875,-0.05756999983548461,0.0,0.0,0.0,0.0,-0.008785995957704212,-2.2637495698396877,-0.8959316768440723,-1.2564299213499788,0.012710995536477587,-0.013202260728211686,0.06078917677217465
5758,0.0,300.05723,14695.839,-0.05758000951018194,0.0,0.0,0.0,0.0,-0.0087875235755899,-2.2370560025802377,-0.939172874666646,-1.2909393959057989,0.004297331374788586,-0.001003315436082024,0.06172716670774704
5759,0.0,299.91267,14749.021999999999,-0.0575899861496495,0.0,0.0,0.0,0.0,-0.008789046151832486,-2.274302164331148,-0.9129355029997192,-1.2960965349397686,0.007104195157229473,0.002753288994003467,0.06922254956023373
5760,0.0,299.51567,14722.49,-0.05759999582434683,0.0,0.0,0.0,0.0,-0.008790573769718174,-2.246001582413098,-0.9309626509613601,-1.2983051161827388,-0.010067284879838661,-0.008450083815333341,0.05847317379335294
5761,0.0,299.18026000000003,14657.821000000002,-0.05761000549904438,0.0,0.0,0.0,0.0,-0.008792101387603918,-2.258867224232838,-0.9128276830565781,-1.2839167621127188,-0.003020793606529117,-0.006050501686113025,0.035932659301777366
5762,0.0,299.64038,14588.015,-0.05762001517374182,0.0,0.0,0.0,0.0,-0.008793629005489634,-2.246491083536408,-0.9219688201587382,-1.2659322821127887,0.008207542442871373,0.003832293959242966,0.04073582143981257
5763,0.0,299.07242,14514.075,-0.05762999181320938,0.0,0.0,0.0,0.0,-0.008795151581732191,-2.250094302217018,-0.9123119488881792,-1.2495102337670587,0.002973023930564617,0.023586512834807578,0.02043788171881188
5764,0.0,299.44092,14625.958,-0.05764000148790671,0.0,0.0,0.0,0.0,-0.008796679199617907,-2.245172642506288,-0.9104165227211152,-1.2903369173963386,-0.004179113357796376,0.0023779610946114875,0.036167505343704866
5765,0.0,299.57766000000004,14555.317,-0.05765001116260404,0.0,0.0,0.0,0.0,-0.008798206817503595,-2.264593505847978,-0.9073301933140182,-1.252529212440009,-0.01080464045383499,-0.0034169048866722566,0.03409578277849176
5766,0.0,299.62771000000004,14417.457,-0.05765998780207171,0.0,0.0,0.0,0.0,-0.00879972939374618,-2.204001960468058,-0.9203262100241251,-1.258218611751509,0.020013210363400084,0.005850936708692495,0.035127414248555866
5767,0.0,299.59618,14644.436000000002,-0.05766999747676904,0.0,0.0,0.0,0.0,-0.008801257011631869,-2.246916040628348,-0.9297719503713471,-1.2748550638183989,0.012745426788125689,0.005005496024003995,0.03405595191706076
5768,0.0,300.13572,14862.321000000002,-0.057680007151466595,0.0,0.0,0.0,0.0,-0.008802784629517613,-2.2679012607994276,-0.948795538613829,-1.301077571106359,0.004666943834341496,-0.004017715485142646,0.04457720252992736
5769,0.0,299.8744,14701.938999999998,-0.05768998379093404,0.0,0.0,0.0,0.0,-0.008804307205760142,-2.2610656729748078,-0.9282939427154792,-1.2796626315678687,-0.014924955110978383,-0.008359591259502423,0.042098291226527855
5770,0.0,300.13851,14548.085,-0.057699993465631594,0.0,0.0,0.0,0.0,-0.008805834823645886,-2.227453634032558,-0.9111771087761792,-1.2836238315088089,-0.001948983628924708,0.01113933722686699,0.05232625355819916
5771,0.0,300.12911,14591.053999999998,-0.057710003140328925,0.0,0.0,0.0,0.0,-0.008807362441531602,-2.2601154470310276,-0.9059170741945541,-1.269283505493529,0.008061592378592223,0.020775268670859378,0.05139286580458095
5772,0.0,299.75922,14657.743999999999,-0.05772001281502648,0.0,0.0,0.0,0.0,-0.008808890059417318,-2.2471204131735183,-0.9069154599155872,-1.3015521774531986,0.001114937245585739,-0.00014013424175267288,0.04761930255690925
5773,0.0,299.93271,14812.975,-0.05772998945449381,0.0,0.0,0.0,0.0,-0.008810412635659876,-2.288576527764918,-0.9276903192334062,-1.2865076426184185,-0.0003695012756194367,-0.003085812244245957,0.04785502202042296
5774,0.0,299.88975,14769.958999999999,-0.057739999129191366,0.0,0.0,0.0,0.0,-0.008811940253545592,-2.287948008727888,-0.9056136969821131,-1.296137064943769,-0.0015602809295377385,-0.001874520487025768,0.04297170470672705
5775,0.0,299.78675,14566.319,-0.05775000880388881,0.0,0.0,0.0,0.0,-0.008813467871431307,-2.2582221892191776,-0.9052219440959501,-1.2643530305069288,0.0060854070374829145,0.01148399526163209,0.029352346667601073
5776,0.0,300.01971000000003,14624.193000000001,-0.05775998544335614,0.0,0.0,0.0,0.0,-0.008814990447673837,-2.2492129772800378,-0.9124310767024362,-1.2837455228458188,-0.014362930611760884,-0.0012784792567760788,0.03654051006326756
5777,0.0,300.57363,14888.729,-0.057769995118053696,0.0,0.0,0.0,0.0,-0.008816518065559581,-2.298062068576068,-0.93213488000205,-1.2956048046662387,-0.008055223899063702,0.005064578941310026,0.045227513536858055
5778,0.0,300.69407,14799.463,-0.05778000479275103,0.0,0.0,0.0,0.0,-0.008818045683445297,-2.2556713320924278,-0.9404280888905261,-1.3025676567034186,0.013958052083802486,0.0027352767509507972,0.040447590289866366
5779,0.0,300.7587,14608.249,-0.05779001446744858,0.0,0.0,0.0,0.0,-0.008819573301331013,-2.2523858686431777,-0.9387962800019791,-1.2493606780522988,0.012552077390793588,-0.0004018855999455206,0.03918688830344476
5780,0.0,299.86939,14644.282,-0.05779999110691603,0.0,0.0,0.0,0.0,-0.00882109587757357,-2.237188029068268,-0.9322640085947941,-1.2820439719528887,0.018073764558991682,-0.03424799016876347,0.035934474032706464
5781,0.0,299.81171,14761.678999999998,-0.05781000078161358,0.0,0.0,0.0,0.0,-0.008822623495459286,-2.266521923438298,-0.9404890561490431,-1.2801708778180287,0.002014857753700978,-0.02325993726132708,0.03940219381719376
5782,0.0,300.10674,14712.676000000001,-0.05782001045631091,0.0,0.0,0.0,0.0,-0.008824151113345002,-2.258985470519508,-0.92070957319946,-1.2925910948938089,0.00988461777301082,0.014224742549872786,0.037489668041442166
5783,0.0,299.53135,14638.785,-0.05782998709577836,0.0,0.0,0.0,0.0,-0.008825673689587532,-2.2593580425812774,-0.9253247044899381,-1.2651422510098187,-0.0017613159302033482,0.02202390791484048,0.023027935412430277
5784,0.0,299.63281,14570.726,-0.05783999677047591,0.0,0.0,0.0,0.0,-0.008827201307473276,-2.220372637033718,-0.9163590015100921,-1.2924053661504789,-0.018510701306863983,0.007300143135768034,0.038924929715341464
5785,0.0,300.32657,14676.603000000001,-0.05785000644517346,0.0,0.0,0.0,0.0,-0.00882872892535902,-2.2681373480727274,-0.9206886293198931,-1.272494799035459,-0.021357957392616277,0.008460826698193582,0.03145577180194297
5786,0.0,300.23702000000003,14842.481000000002,-0.057860016119870794,0.0,0.0,0.0,0.0,-0.008830256543244708,-2.278605133530818,-0.9224226650110292,-1.3107157073825688,0.0005175124425895014,0.009705185973752282,0.050310368166246754
5787,0.0,300.45767,14850.208999999999,-0.05786999275933824,0.0,0.0,0.0,0.0,-0.008831779119487265,-2.2994178985348777,-0.9171887013544772,-1.2974861061269087,-0.0055448581714848955,0.01953559567701318,0.04788696371657536
5788,0.0,301.02736,14639.26,-0.05788000243403579,0.0,0.0,0.0,0.0,-0.008833306737372981,-2.2576797964406476,-0.9120943128992001,-1.2801954997954588,0.0005026217191199016,-0.023999059639522775,0.06540741772720954
5789,0.0,300.23697000000004,14652.833999999999,-0.057890012108733124,0.0,0.0,0.0,0.0,-0.008834834355258697,-2.2609165225600876,-0.9250838144111642,-1.2680951657762487,0.00981022505199383,-0.003787160658713656,0.046774239814508047
5790,0.0,299.94499,14956.568000000001,-0.05789998874820057,0.0,0.0,0.0,0.0,-0.008836356931501227,-2.2844277752304682,-0.9461239628701652,-1.315871529191409,0.025607559722769374,-0.008318706010017362,0.06499934239518564
5791,0.0,299.92242999999996,14800.806,-0.057909998422898123,0.0,0.0,0.0,0.0,-0.00883788454938697,-2.2960464101521376,-0.9316940148835402,-1.271335032970999,0.02297665077186888,-0.006493584302466874,0.043798752875600366
5792,0.0,299.90272000000004,14439.966999999999,-0.057920008097595566,0.0,0.0,0.0,0.0,-0.008839412167272714,-2.219299301202788,-0.9038824983912571,-1.2662076834899687,-0.001229556502197779,-0.02308304912511958,0.04340124472886936
5793,0.0,300.14957000000004,14507.657,-0.05792998473706279,0.0,0.0,0.0,0.0,-0.008840934743515216,-2.2598858445583683,-0.8995296772866672,-1.2505500310196789,-0.013265938430746188,0.0043042059727420555,0.025896143483750377
5794,0.0,300.82372000000004,14793.722,-0.05793999441176034,0.0,0.0,0.0,0.0,-0.00884246236140096,-2.2649594917840976,-0.9264963661105722,-1.3054662612644887,-0.0021777654703287177,0.018711836517964483,0.03574135666964727
5795,0.0,299.9253,14802.462,-0.057950004086457896,0.0,0.0,0.0,0.0,-0.008843989979286676,-2.294415178816148,-0.9265342616643122,-1.2786293191158888,-0.007839040100128022,0.030442579457198676,0.01092715454992619
5796,0.0,299.94163,14870.326000000001,-0.05796001376115545,0.0,0.0,0.0,0.0,-0.00884551759717242,-2.260978938766248,-0.958683511967196,-1.3005452095038188,0.0051491437814059245,-0.012549810750319888,0.027034637375610977
5797,0.0,300.09698,14681.771999999999,-0.05796999040062267,0.0,0.0,0.0,0.0,-0.008847040173414922,-2.2791224990318777,-0.9172722539577232,-1.266497371693559,-0.0030094721578617775,0.002748310592287137,0.04088446117648216
5798,0.0,300.08543,14609.282,-0.057980000075320226,0.0,0.0,0.0,0.0,-0.008848567791300666,-2.219653634762758,-0.9383103860490251,-1.2828930755366887,0.01699413644494068,0.004221101833990317,0.029154825719607272
5799,0.0,299.76502,14834.282,-0.05799000975001778,0.0,0.0,0.0,0.0,-0.00885009540918641,-2.3026278748516775,-0.9257194667288982,-1.2809038629403688,0.007771803255292263,0.0036401168922765665,0.05680377231284585
5800,0.0,299.89696000000004,14867.407,-0.057999986389485225,0.0,0.0,0.0,0.0,-0.008851617985428939,-2.275871486086028,-0.9370374399483951,-1.3064115222827788,-0.007461094266452674,-0.02158533679455688,0.04960782310341095
5801,0.0,300.21043,14581.95,-0.058009996064182556,0.0,0.0,0.0,0.0,-0.008853145603314655,-2.263443568309488,-0.9256115150632441,-1.243493757323279,-0.006979769463499614,-0.010654495027516789,0.03838302228360937
5802,0.0,300.93381,14618.883,-0.05802000573888011,0.0,0.0,0.0,0.0,-0.008854673221200371,-2.255616413937008,-0.9111558203915782,-1.2770030527053886,0.0046109049229858855,-0.0012038758810632988,0.034006234774404065
5803,0.0,300.14203,14897.823,-0.05803001541357766,0.0,0.0,0.0,0.0,-0.008856200839086115,-2.314456961819118,-0.9232303367982401,-1.2908788035498189,-0.0022118617414937577,0.007474663002516803,0.04115646917907726
5804,0.0,300.48056,14916.971000000001,-0.058039992053044887,0.0,0.0,0.0,0.0,-0.008857723415328617,-2.281844595425528,-0.9181467191915261,-1.3343952608945588,-0.0015203998109017784,-0.004856202943669915,0.051591070696392245
5805,0.0,299.66935,14831.633,-0.05805000172774244,0.0,0.0,0.0,0.0,-0.00885925103321436,-2.292562957633348,-0.9130597983894863,-1.3028231983786387,-0.0019254122905233981,0.016695610673978484,0.04543528756261376
5806,0.0,299.1139,14840.231000000002,-0.05806001140243999,0.0,0.0,0.0,0.0,-0.008860778651100104,-2.2688345654665376,-0.919504150085494,-1.3227209985423987,0.006827267926723884,0.026775459145782075,0.05150235659713685
5807,0.0,299.71967,14910.368999999999,-0.05806998804190733,0.0,0.0,0.0,0.0,-0.008862301227342634,-2.307977734054668,-0.9284723557930872,-1.2959297539733088,-0.01907842939089438,0.014406518604562685,0.04523582826717866
5808,0.0,299.91642,14860.037,-0.05807999771660477,0.0,0.0,0.0,0.0,-0.00886382884522835,-2.280988601741048,-0.935819067498151,-1.300272543901909,-0.00939801150523652,-0.014258067332411688,0.047176631826721056
5809,0.0,299.652,14814.544,-0.05809000739130232,0.0,0.0,0.0,0.0,-0.008865356463114066,-2.297391702309908,-0.9215736627522392,-1.2842861930991787,-0.0005099358244367475,-0.0023460378396109077,0.061822210580377145
5810,0.0,300.74576,14684.617,-0.05809998403076966,0.0,0.0,0.0,0.0,-0.008866879039356595,-2.2330040154303377,-0.9342309499539161,-1.2965220999817688,0.011711687757853589,-0.002924812072256477,0.04486443968152546
5811,0.0,300.63103,14630.497,-0.05810999370546721,0.0,0.0,0.0,0.0,-0.00886840665724234,-2.251585401064178,-0.9241184302458881,-1.271602024372349,0.013126517243486385,-0.0034560698401375363,0.059749715918587847
5812,0.0,300.46957000000003,14878.98,-0.05812000338016454,0.0,0.0,0.0,0.0,-0.008869934275128055,-2.2475111224120776,-0.9544070189926392,-1.3209203517896886,-0.004805445598460556,-0.025950954234659773,0.016817228043731182
5813,0.0,300.65133,14910.425,-0.058130013054862095,0.0,0.0,0.0,0.0,-0.008871461893013799,-2.2997093092636374,-0.9294733759643801,-1.3032142115922287,0.005703658374857254,-0.003888362457501496,0.04955694173638936
5814,0.0,299.71231,14587.667,-0.05813998969432954,0.0,0.0,0.0,0.0,-0.008872984469256329,-2.247471301683148,-0.9241112159051762,-1.2627040672941887,0.009440250963480232,0.015272617432289984,-0.011362000962842188
5815,0.0,299.48887,14550.868,-0.05814999936902687,0.0,0.0,0.0,0.0,-0.008874512087142045,-2.2635612066460977,-0.8905270312081752,-1.2690123597667688,0.0006588727473606774,0.018974319969619582,0.04767245867040536
5816,0.0,299.27455,14810.222,-0.05816000904372465,0.0,0.0,0.0,0.0,-0.008876039705027788,-2.272093988388218,-0.921404409455535,-1.3084394410329188,-0.02121529279178638,0.006066806400097175,0.029116773112101767
5817,0.0,299.54738,14854.448999999999,-0.05816998568319187,0.0,0.0,0.0,0.0,-0.00887756228127029,-2.2882797468106277,-0.9134485216578501,-1.3136533220724886,-0.01140228880006829,0.012623759769118089,0.06988712408882213
5818,0.0,299.40738999999996,14883.079,-0.058179995357889425,0.0,0.0,0.0,0.0,-0.008879089899156034,-2.2613090556488276,-0.9368917447165162,-1.3258834534295088,-0.002082096827686958,0.008479847935695832,0.03880553440305806
5819,0.0,299.88662,14975.203000000001,-0.058190005032586756,0.0,0.0,0.0,0.0,-0.00888061751704175,-2.3103587704646578,-0.9392487468341342,-1.3024802132197888,-0.004912790935254715,-0.004073332175181586,0.07751800482418142
5820,0.0,300.36191,14908.171999999999,-0.05820001470728453,0.0,0.0,0.0,0.0,-0.008882145134927522,-2.307234211131288,-0.9276841282752951,-1.296793549683559,0.007842306818450422,-0.024211758060764477,0.05139715590550435
5821,0.0,300.16267,15008.855,-0.058209991346751755,0.0,0.0,0.0,0.0,-0.008883667711170024,-2.304092527871228,-0.949285728747207,-1.3089387706821987,0.01989955409968308,-0.015106866941181685,0.049278139891873754
5822,0.0,299.77681,15046.669,-0.05822000102144931,0.0,0.0,0.0,0.0,-0.008885195329055767,-2.290344142564368,-0.9471526143716852,-1.3363149645340187,0.01148597819207779,0.008681424518539892,0.05335760233148536
5823,0.0,300.28845,14770.614,-0.05823001069614686,0.0,0.0,0.0,0.0,-0.008886722946941483,-2.264956148058768,-0.918984099471669,-1.3059574849129687,-0.00937868223970387,-0.013522097175277087,0.04887876939145895
5824,0.0,300.08326,14532.427,-0.058239987335614196,0.0,0.0,0.0,0.0,-0.008888245523184013,-2.2268767907506275,-0.9009058938374891,-1.2897122487096886,-0.004492614255961505,-0.0024583993723501277,0.04137296424844366
5825,0.0,299.87385,14777.507,-0.05824999701031153,0.0,0.0,0.0,0.0,-0.008889773141069729,-2.3099273285720776,-0.913554902785849,-1.2685108009672688,-0.004051731000274715,0.012168340326171688,0.050254255388958856
5826,0.0,299.32484,14937.972,-0.05826000668500897,0.0,0.0,0.0,0.0,-0.008891300758955445,-2.313756502024988,-0.9303668092400551,-1.2966471350441087,0.016241582423419384,0.008200200128671743,0.041138662321819855
5827,0.0,299.56931000000003,14830.909,-0.05827001635970663,0.0,0.0,0.0,0.0,-0.008892828376841216,-2.283793683317888,-0.9355550854495981,-1.2888771279772686,0.0018562009252177682,0.004029277986008776,0.041816928899009564
5828,0.0,300.34938,14847.821000000002,-0.05827999299917386,0.0,0.0,0.0,0.0,-0.008894350953083718,-2.273183130920708,-0.9368297034128931,-1.3033538374560087,0.005023069023138316,-0.006420923327195794,0.037987190052543765
5829,0.0,300.2099,14922.428,-0.05829000267387141,0.0,0.0,0.0,0.0,-0.008895878570969462,-2.2968742354838376,-0.927632847687734,-1.3115381624887388,0.0017245929094790685,-0.003269897901213797,0.05624044274749954
5830,0.0,299.90189,14883.62,-0.058300012348568964,0.0,0.0,0.0,0.0,-0.008897406188855178,-2.2607569356693378,-0.9528794127443762,-1.3106125585223887,-0.009550513042012251,0.0045596226128997155,0.018785504866484982
5831,0.0,299.7149,14880.608999999999,-0.05830998898803641,0.0,0.0,0.0,0.0,-0.008898928765097708,-2.317294974024208,-0.9277403737883461,-1.2782980876581989,-0.0072809436675731936,-0.0036638925018980368,0.05680616864933235
5832,0.0,299.2723,14862.341999999999,-0.05831999866273374,0.0,0.0,0.0,0.0,-0.008900456382983424,-2.2824163724569577,-0.9450117587653992,-1.290352724097899,-0.013462812925176187,-0.011560032588886387,0.02160036532004008
5833,0.0,300.01611,14605.173999999999,-0.058330008337431294,0.0,0.0,0.0,0.0,-0.008901984000869168,-2.2783640813320276,-0.8990245214493121,-1.262219429771359,0.0038365248863605267,-0.0005029078609481416,0.03810249690067367
5834,0.0,300.58738999999997,14677.598999999998,-0.05833998497689874,0.0,0.0,0.0,0.0,-0.008903506577111697,-2.2441085272512677,-0.9321730491333171,-1.2853418983783687,0.009730120437513121,0.0017915580006380085,0.032533402800046865
5835,0.0,300.199,14970.048,-0.05834999465159629,0.0,0.0,0.0,0.0,-0.008905034194997441,-2.3073810310707774,-0.9276497790969052,-1.3154898378787387,0.0008813209447746051,-0.0007978955854761633,0.04834472174075255
5836,0.0,300.61228,14945.131000000001,-0.058360004326293624,0.0,0.0,0.0,0.0,-0.008906561812883157,-2.2915273147061375,-0.9362856185066961,-1.3151337817935989,-0.01212526605117059,0.01074675955512259,0.05894671217458754
5837,0.0,300.48956,14771.721000000001,-0.05837001400099118,0.0,0.0,0.0,0.0,-0.008908089430768873,-2.315935901665078,-0.9149445145029931,-1.2593538571635488,0.001097302235545299,0.0032481543646678767,0.061153953900925345
5838,0.0,299.94799,15059.309,-0.05837999064045862,0.0,0.0,0.0,0.0,-0.008909612007011403,-2.3114396043463277,-0.9324627170719051,-1.3337514417810186,0.006530189482204523,0.02077322190565738,0.05053000025792275
5839,0.0,299.63877,15253.895,-0.058390000315155954,0.0,0.0,0.0,0.0,-0.008911139624897119,-2.337697879362818,-0.9661101589726491,-1.3329950505813686,-0.0037374340928310267,-0.005853544409149854,0.03995839922108696
5840,0.0,299.79181,14998.18,-0.05840000998985351,0.0,0.0,0.0,0.0,-0.008912667242782862,-2.285255904537198,-0.9416903249375991,-1.3321258846455886,-0.01043716504006799,0.002452635904456318,0.04726116424281376
5841,0.0,299.45509,14900.323,-0.05840998662932084,0.0,0.0,0.0,0.0,-0.008914189819025392,-2.2910893880129177,-0.9285810066013102,-1.3096557464529588,-0.01092372571158779,-0.0005860270667288684,0.03546105116198326
5842,0.0,299.60816,14747.337,-0.058419996304018396,0.0,0.0,0.0,0.0,-0.008915717436911136,-2.273874572788948,-0.9154107514040071,-1.2935368625371488,0.002471228131866228,0.007976962183864872,0.057735991789098745
5843,0.0,300.11771,14650.688999999998,-0.05843000597871584,0.0,0.0,0.0,0.0,-0.008917245054796824,-2.272029849656888,-0.9103846965354742,-1.2710291327658088,0.014011725968099685,-0.006634877773261453,0.05128826597025775
5844,0.0,299.90491000000003,14835.733999999999,-0.05844001565341328,0.0,0.0,0.0,0.0,-0.008918772672682568,-2.267782305237688,-0.934546739480082,-1.3073636734017486,0.004474264397975516,-0.014100143185075785,0.03670293101454726
5845,0.0,300.06358,14945.366000000002,-0.058449992292880726,0.0,0.0,0.0,0.0,-0.008920295248925098,-2.298014952446418,-0.9352211283491392,-1.3097818960904088,0.021967361466509776,-0.01037754337768379,0.05348826194513045
5846,0.0,300.90596,14812.559,-0.05846000196757828,0.0,0.0,0.0,0.0,-0.008921822866810841,-2.2662846202648774,-0.9471272527216821,-1.2892362238127089,0.006888961989537613,0.007603932031724663,0.02385839316789008
5847,0.0,299.60282,14885.795,-0.05847001164227561,0.0,0.0,0.0,0.0,-0.008923350484696557,-2.307427437925358,-0.9268273645207392,-1.2906550779277388,0.011063319151364591,0.0070854565151801125,0.048846488256523046
5848,0.0,299.29146000000003,15236.77,-0.05847998828174328,0.0,0.0,0.0,0.0,-0.008924873060939115,-2.3479126562709376,-0.9575083343687151,-1.3261766880084487,-0.023754186474605678,0.009796553369719541,0.03963479449689967
5849,0.0,300.26066000000003,15119.372,-0.05848999795644061,0.0,0.0,0.0,0.0,-0.00892640067882483,-2.3433166551423477,-0.9274536949375531,-1.3251410450812386,-0.010717391514224189,0.011880488131762889,0.06375553838068174
5850,0.0,299.56775,14886.698999999999,-0.05850000763113794,0.0,0.0,0.0,0.0,-0.008927928296710519,-2.272509623579238,-0.9337540739268521,-1.3189212093423888,-0.009459429052097961,0.011590658073158887,0.028006420215268477
5851,0.0,299.57606,14915.146999999999,-0.05850998427060561,0.0,0.0,0.0,0.0,-0.008929450872953104,-2.2951924429678576,-0.9144670001283661,-1.3241729859356988,0.0069502156938578835,-0.01987118512338328,0.06442526325952844
5852,0.0,299.5074,14976.636999999999,-0.05851999394530294,0.0,0.0,0.0,0.0,-0.008930978490838792,-2.2842921010420776,-0.9490799376518971,-1.3191517237401387,-0.0016575527364877185,-0.028147404847432576,0.038644670817182064
5853,0.0,299.6256,14855.395,-0.05853000362000049,0.0,0.0,0.0,0.0,-0.008932506108724536,-2.3037839932157778,-0.9288216332350582,-1.2830633015534887,0.008308186751454191,-0.02476527328564218,0.054426956089522346
5854,0.0,300.1046,14913.243999999999,-0.058540013294697824,0.0,0.0,0.0,0.0,-0.008934033726610252,-2.3167684892722478,-0.9384796089482261,-1.2780056636793387,0.02165847116027468,0.012533890564748688,0.059056708578943344
5855,0.0,300.43011,14907.481000000002,-0.05854998993416538,0.0,0.0,0.0,0.0,-0.00893555630285281,-2.2961636431887076,-0.9392342370927022,-1.2961041343155186,0.01142126798769139,-0.006919753444176493,0.05063049642934095
5856,0.0,300.07529,14912.076000000001,-0.05855999960886282,0.0,0.0,0.0,0.0,-0.008937083920738526,-2.278398126535388,-0.943429538336746,-1.3110709528676288,0.011172072297847687,0.01045642489796879,0.042596950104241665
5857,0.0,300.54991,15254.691,-0.058570009283560265,0.0,0.0,0.0,0.0,-0.008938611538624242,-2.316992924169398,-0.9752802648951682,-1.3447720564936687,0.0012421504916657088,-0.0055081754781145945,0.03660246017438156
5858,0.0,299.7719,15199.196000000002,-0.05857998592302771,0.0,0.0,0.0,0.0,-0.008940134114866799,-2.3236663919780183,-0.9552250056658681,-1.3412846522994886,0.005947281189150954,0.0017124875092093582,0.03069824778868117
5859,0.0,299.9638,14911.175,-0.058589995597725264,0.0,0.0,0.0,0.0,-0.008941661732752515,-2.309570360561848,-0.934498295992801,-1.288556332995609,-0.012452038195170488,-0.007767667978984143,0.03322578091137927
5860,0.0,299.60642,14791.892,-0.058600005272422595,0.0,0.0,0.0,0.0,-0.008943189350638231,-2.295815997079398,-0.9155977568424631,-1.2849521010648988,-0.023050799400936777,0.002356050473124078,0.04144753033655276
5861,0.0,299.34112000000005,14948.151000000002,-0.05861001494712004,0.0,0.0,0.0,0.0,-0.008944716968523947,-2.3023068772199977,-0.9396784965990471,-1.3018791532604685,-0.005325320413393205,0.007700164345397054,0.04993220195067466
5862,0.0,299.49262000000004,14863.794,-0.058619991586587594,0.0,0.0,0.0,0.0,-0.008946239544766504,-2.285586730694848,-0.9254776140625292,-1.3071577809814288,0.004894850835609165,0.023140432518032876,0.03775487409611596
5863,0.0,299.70356,14825.178999999998,-0.058630001261284925,0.0,0.0,0.0,0.0,-0.00894776716265222,-2.2825214464923276,-0.9425008946200961,-1.2814619610954487,0.01036902397084299,0.007683113068739222,0.036888248378336666
5864,0.0,299.45874,14882.525,-0.05864001093598248,0.0,0.0,0.0,0.0,-0.008949294780537936,-2.283576442496448,-0.9456156963550032,-1.2947239863543087,-0.007481242744691173,-0.016823315650331985,0.038522999745174064
5865,0.0,300.26456,14942.891000000001,-0.058649987575449924,0.0,0.0,0.0,0.0,-0.008950817356780494,-2.3407368190627373,-0.928992365876908,-1.272536544939579,-0.0017638595932543885,-0.012396866727225488,0.04520244775588426
5866,0.0,299.93082999999996,15128.456,-0.05865999725014748,0.0,0.0,0.0,0.0,-0.00895234497466621,-2.3409019788290375,-0.9593398244544691,-1.2984309618451588,-0.0003518984058721687,0.0025122599986407575,0.047927594032335256
5867,0.0,300.34576,15260.187,-0.05867000692484481,0.0,0.0,0.0,0.0,-0.008953872592551926,-2.349881502540248,-0.9454359863172671,-1.3433983933330986,-0.0017720401692617484,0.0022964161451136276,0.06354343676374895
5868,0.0,300.59206,15080.582,-0.058679983564312366,0.0,0.0,0.0,0.0,-0.008955395168794483,-2.305425255727758,-0.9421312508511152,-1.3365640214085988,-0.0003808091062054326,0.01103507379157699,0.056771869120197244
5869,0.0,299.72412,14859.252,-0.05868999323900981,0.0,0.0,0.0,0.0,-0.0089569227866802,-2.2758843543622977,-0.9282883799724301,-1.3126688482753288,-0.0012697574025652989,-0.004048637953019457,0.04327533421844296
5870,0.0,299.20662000000004,15050.098,-0.05870000291370736,0.0,0.0,0.0,0.0,-0.008958450404565943,-2.309793680883888,-0.935782965397088,-1.3292774359644688,0.007164102454816863,0.01988981980597238,0.04891789401757025
5871,0.0,299.34311,15087.64,-0.05871001258840469,0.0,0.0,0.0,0.0,-0.008959978022451631,-2.3446904196279275,-0.9475114872921031,-1.2940639552391686,-0.00877527731567744,0.0029752684821861375,0.044950985425566865
5872,0.0,300.03975,14832.826000000001,-0.05871998922787225,0.0,0.0,0.0,0.0,-0.008961500598694216,-2.307729183805138,-0.9195260058901511,-1.2815535589044886,-0.014436008235473089,0.0008617078577564442,0.04662843211186796
5873,0.0,300.79717,14890.407,-0.05872999890256958,0.0,0.0,0.0,0.0,-0.008963028216579905,-2.284076278770778,-0.9503976592744461,-1.2918378447694687,-0.01015646031186459,-0.000998989668755104,0.01728307079045628
5874,0.0,300.29376,15066.618,-0.05874000857726702,0.0,0.0,0.0,0.0,-0.00896455583446562,-2.285918164802558,-0.9606706980633162,-1.3332868666101687,0.000926321144770779,0.008782101149800901,0.05233642557595305
5875,0.0,299.81086,15058.472,-0.05874998521673458,0.0,0.0,0.0,0.0,-0.008966078410708178,-2.289739738879718,-0.966493228305455,-1.3211665715639886,0.011568779976999689,-0.0022942512349499677,0.022698605825177978
5876,0.0,300.12416,15154.508999999998,-0.05875999489143191,0.0,0.0,0.0,0.0,-0.008967606028593894,-2.3230611776932877,-0.9668184309250502,-1.316712729424429,-0.0012004061074208589,-0.013883951077489288,0.06556711810197074
5877,0.0,299.89017,15133.308,-0.05877000456612946,0.0,0.0,0.0,0.0,-0.008969133646479638,-2.3475989540399778,-0.965834149645409,-1.2867145482888387,0.011807777304586889,-0.005983346610560334,0.03515878345840177
5878,0.0,299.49096000000003,14970.976,-0.058780014240826794,0.0,0.0,0.0,0.0,-0.008970661264365326,-2.324859189995738,-0.9313694810090112,-1.294574227989529,0.0015828584722409685,0.004322901146362126,0.05541626612940965
5879,0.0,300.53168999999997,14998.851999999999,-0.05878999088029446,0.0,0.0,0.0,0.0,-0.008972183840607911,-2.312485683749568,-0.9411119212505151,-1.3056789424604789,0.010100028158145171,0.02466242232099158,0.025017443877779478
5880,0.0,299.8256,15093.399,-0.058800000554991794,0.0,0.0,0.0,0.0,-0.0089737114584936,-2.308669783872968,-0.9276751610119102,-1.3516715803995987,-0.011314260671130592,0.01046895677520559,0.06033480502983164
5881,0.0,299.70136,14984.843,-0.05881001022968935,0.0,0.0,0.0,0.0,-0.008975239076379343,-2.305751826234988,-0.933088317948647,-1.3161781386716687,-0.01363290113996259,0.015635191755323286,0.03147610469169967
5882,0.0,300.40897,14927.285,-0.05881998686915679,0.0,0.0,0.0,0.0,-0.008976761652621873,-2.308610914042158,-0.9279969489786682,-1.3009142351902387,-0.012765269264833987,0.01177868588096579,0.035078248313953564
5883,0.0,299.93253,15051.292,-0.058829996543854346,0.0,0.0,0.0,0.0,-0.008978289270507617,-2.3439234906272377,-0.9269779841481041,-1.3043153104758989,0.00027939013752365974,-0.008276540417705942,0.05846998306878804
5884,0.0,299.47348999999997,15149.953000000001,-0.05884000621855168,0.0,0.0,0.0,0.0,-0.008979816888393333,-2.3327577785002678,-0.9519773060478451,-1.3204722925954686,0.0015630322075342684,-0.022994930816922977,0.047017379308504054
5885,0.0,299.11219,15096.298,-0.05885001589324901,0.0,0.0,0.0,0.0,-0.008981344506279021,-2.3124615683971874,-0.9512910216226141,-1.3251448954316187,0.004954231952419626,-0.025420099335018476,0.048434097492323254
5886,0.0,298.47442,15104.168,-0.058859992532716565,0.0,0.0,0.0,0.0,-0.008982867082521606,-2.2908644464907177,-0.9628606760344501,-1.3375649098573787,0.02170032649540548,-0.011657410989746887,0.04035135078211826
5887,0.0,299.02156,15190.596000000001,-0.05887000220741401,0.0,0.0,0.0,0.0,-0.008984394700407294,-2.329655510669098,-0.9518065126109891,-1.3360999528627988,0.012864906200167387,0.00847210022013119,0.06064287460348574
5888,0.0,300.40704,15111.761999999999,-0.05888001188211156,0.0,0.0,0.0,0.0,-0.008985922318293038,-2.3415129686393374,-0.940809405300659,-1.3112757307128386,0.010256637309501292,0.01001029787036448,0.05516763178012136
5889,0.0,299.79900000000004,15045.652,-0.058889988521578895,0.0,0.0,0.0,0.0,-0.008987444894535568,-2.3328966950889773,-0.9427861042582442,-1.2978196680598288,-0.006307501833526964,0.011251104792397592,0.04367797549018055
5890,0.0,299.78913,15084.072,-0.05889999819627645,0.0,0.0,0.0,0.0,-0.008988972512421312,-2.3170622304762376,-0.9369124960785641,-1.331206461504849,5.470808030326715e-05,0.01090863031159799,0.04631966643539515
5891,0.0,299.88851,15014.396,-0.05891000787097378,0.0,0.0,0.0,0.0,-0.008990500130307028,-2.2896102455169376,-0.9513255734510242,-1.323065604901409,0.002317052807250308,0.01077872252952709,0.022108501125939182
5892,0.0,299.93136,15027.461000000001,-0.058919984510441226,0.0,0.0,0.0,0.0,-0.008992022706549557,-2.3024887556129476,-0.9328040405005911,-1.3326802337752988,-0.006047196970911874,-0.005702186730412015,0.03497326344459237
5893,0.0,300.23992999999996,15244.707,-0.05892999418513878,0.0,0.0,0.0,0.0,-0.008993550324435301,-2.3309807404748875,-0.967838885233261,-1.3351907635480686,-0.011032818296854388,0.008163013343376692,0.01840611059179168
5894,0.0,300.18501000000003,15017.048999999999,-0.05894000385983633,0.0,0.0,0.0,0.0,-0.008995077942321017,-2.3229166882290277,-0.9464622769460541,-1.295428904448879,-0.014872798062080885,0.025087249716918773,0.04824444240485575
5895,0.0,300.48033,14991.857,-0.05895001353453366,0.0,0.0,0.0,0.0,-0.008996605560206733,-2.3073576249934677,-0.9550805162016082,-1.2947121313281387,-0.01183196966397449,0.02087776398472488,0.042947770726114956
5896,0.0,300.84456,15252.77,-0.05895999017400111,0.0,0.0,0.0,0.0,-0.008998128136449263,-2.3304935698268077,-0.9565384716379972,-1.3494291566032888,-0.0028356869987605175,-0.018775722950019582,0.07289579902150523
5897,0.0,300.69543999999996,15232.863000000001,-0.05896999984869866,0.0,0.0,0.0,0.0,-0.008999655754335006,-2.332294520554548,-0.9577855089335701,-1.3403299680552687,-0.007397237421300493,-0.015233591091438386,0.047873904949286554
5898,0.0,300.25282999999996,15033.413,-0.05898000952339599,0.0,0.0,0.0,0.0,-0.009001183372220722,-2.310348536638648,-0.9450871141753361,-1.3143465877909088,0.0017706975115542383,-0.013585275345512288,0.045811841697276756
5899,0.0,300.32812,15084.21,-0.05898998616286344,0.0,0.0,0.0,0.0,-0.009002705948463252,-2.3402910903437477,-0.935833131409539,-1.309098965523009,-0.002110443411159548,0.0006682302538891914,0.05657638480490445
5900,0.0,299.00268,15146.213,-0.05899999583756099,0.0,0.0,0.0,0.0,-0.009004233566348996,-2.352186646517748,-0.9310324638932501,-1.3208514507828886,-0.009522313278479152,0.007687346225007003,0.03728372394536706
5901,0.0,299.50444,15077.361,-0.059010005512258545,0.0,0.0,0.0,0.0,-0.009005761184234712,-2.3379995239175875,-0.9293062504928861,-1.3158355588128587,0.0018718216953844185,0.023066015377688476,0.04311843142720786
5902,0.0,300.00352999999996,15098.628999999999,-0.059020015186955876,0.0,0.0,0.0,0.0,-0.009007288802120428,-2.305557788840838,-0.947404518479046,-1.3366439668414887,0.004862864961752405,0.012441457837626289,0.023408454394734577
5903,0.0,300.15294,15077.931999999999,-0.05902999182642332,0.0,0.0,0.0,0.0,-0.009008811378362958,-2.310034327782638,-0.9376093183048351,-1.3356712467454885,-0.008667863584501534,-0.007983918247126383,0.047787891161547656
5904,0.0,300.45123,15144.341,-0.059040001501120765,0.0,0.0,0.0,0.0,-0.009010338996248701,-2.3160520201265378,-0.962683944952008,-1.3247654332691687,-0.012203510237142688,-0.03344043186556367,0.02993793125814377
5905,0.0,300.53122,15214.662,-0.05905001117581832,0.0,0.0,0.0,0.0,-0.009011866614134445,-2.3499557737725776,-0.9605846224673211,-1.3143369619149587,0.004081545884467215,-0.004495008160647766,0.04364446933587376
5906,0.0,299.52347000000003,15214.828000000001,-0.05905998781528554,0.0,0.0,0.0,0.0,-0.009013389190376947,-2.3457044803280076,-0.9714183128015231,-1.3078049438202988,-0.0018952316230447983,0.0017049143766369485,0.055095812613033354
5907,0.0,300.04964,15006.466999999999,-0.059069997489983095,0.0,0.0,0.0,0.0,-0.00901491680826269,-2.305614632171448,-0.952733383139964,-1.3032432918700987,0.014474037538226287,0.007623550478835853,0.04455968850194886
5908,0.0,299.9012,15040.813999999998,-0.05908000716468065,0.0,0.0,0.0,0.0,-0.009016444426148407,-2.2889004638218875,-0.947957297071101,-1.3351740449214187,-0.0004683990855348905,0.0049868710686158555,0.06129772902386484
5909,0.0,298.87228999999996,15230.086000000001,-0.059089983804148094,0.0,0.0,0.0,0.0,-0.009017967002390936,-2.3144421683676577,-0.9691856466036761,-1.3459380033837387,0.015956689932552684,0.008771352592740101,0.01933483030219918
5910,0.0,299.47282,15124.264,-0.059099993478845425,0.0,0.0,0.0,0.0,-0.009019494620276652,-2.321329127972348,-0.953474808635637,-1.3225947475799387,0.014114972100289287,-0.013308800936476385,0.042500645748487165
5911,0.0,299.17732,14877.013,-0.05911000315354298,0.0,0.0,0.0,0.0,-0.009021022238162396,-2.3081181705185276,-0.9338858572348581,-1.2802363337744886,0.01221682231695649,-0.011837589149029088,0.014179336786391588
5912,0.0,299.79744,15111.485,-0.05912001282824053,0.0,0.0,0.0,0.0,-0.00902254985604814,-2.3538905278859077,-0.93082403834768,-1.3087995501184588,-0.006766386085190313,-0.013247908658466787,0.04953878936084786
5913,0.0,300.29524,15341.276000000002,-0.059129989467707755,0.0,0.0,0.0,0.0,-0.009024072432290642,-2.3621364585247178,-0.9589371791297311,-1.3422913162738386,-0.013678918906504186,0.022618729293294778,0.03075258433854377
5914,0.0,300.08707000000004,15208.075,-0.05913999914240553,0.0,0.0,0.0,0.0,-0.009025600050176413,-2.320147678355748,-0.956405320442356,-1.3463219238466289,-0.0002367781274831818,0.015561076563508686,0.051105249697445454
5915,0.0,300.24079,15204.546999999999,-0.05915000881710286,0.0,0.0,0.0,0.0,-0.009027127668062102,-2.321909922929668,-0.9483059969605152,-1.3515867713662286,-0.011299707359944289,0.006256751479743295,0.06919555657756973
5916,0.0,300.31705,15233.247,-0.05915998545657031,0.0,0.0,0.0,0.0,-0.009028650244304631,-2.3390496563212277,-0.956339935413403,-1.3351371626177788,-0.0031039131466823774,-0.014554177515135488,0.06419787676483714
5917,0.0,299.80733,15151.928999999998,-0.05916999513126764,0.0,0.0,0.0,0.0,-0.009030177862190347,-2.350381237489568,-0.947537578482178,-1.3078892462286187,0.012846140808315388,-0.019711018653576082,0.07449682841176453
5918,0.0,300.11413,15232.666000000001,-0.0591800048059653,0.0,0.0,0.0,0.0,-0.009031705480076119,-2.348120068566408,-0.9646535410263921,-1.3175763224846588,0.021318318035454184,-0.010910052914738387,0.04311809908117505
5919,0.0,300.05343999999997,15171.312,-0.059190014480662745,0.0,0.0,0.0,0.0,-0.009033233097961835,-2.3333015898289378,-0.940382492636026,-1.3380161101269088,0.008816624911183133,-0.007876327805133032,0.06478433275046584
5920,0.0,299.75034,15014.973999999998,-0.05919999112013008,0.0,0.0,0.0,0.0,-0.009034755674204364,-2.2979000498850777,-0.9376393409052981,-1.3286379738263587,0.007540890346277932,-0.0005008152360466155,0.01264194456866279
5921,0.0,300.11912,15061.586000000001,-0.05921000079482763,0.0,0.0,0.0,0.0,-0.009036283292090108,-2.3095083496557276,-0.9267081455139731,-1.3421295002328688,-0.003298727197034027,0.024902662906451475,0.05300861163929265
5922,0.0,299.51117,15196.308,-0.059220010469524964,0.0,0.0,0.0,0.0,-0.009037810909975796,-2.3385314802200874,-0.9480896174016601,-1.3326769913749787,0.0005806435676225584,0.016888010655966883,0.026303231910176875
5923,0.0,298.98631,15120.678,-0.05922998710899241,0.0,0.0,0.0,0.0,-0.009039333486218326,-2.3438510432450874,-0.9367682599268292,-1.3156892454984186,-0.013642149073625287,-0.0016331513436044884,0.04786339450599925
5924,0.0,299.37271,15140.437,-0.05923999678368974,0.0,0.0,0.0,0.0,-0.009040861104104042,-2.344510669060188,-0.9520730581822952,-1.3057311248406287,-0.006658060226274384,-0.01184372437838459,0.03464756230594817
5925,0.0,299.67663999999996,15345.062,-0.059250006458387516,0.0,0.0,0.0,0.0,-0.009042388721989814,-2.344761144484908,-0.9694781617750451,-1.3502762336868885,-0.012939655686544588,0.008017045243245762,0.047104035496806355
5926,0.0,299.93582999999995,15281.438999999998,-0.05926001613308485,0.0,0.0,0.0,0.0,-0.00904391633987553,-2.342232578860358,-0.9573222307228482,-1.3456211600774686,0.0006372550868746803,0.009099438415494652,0.06245181886126465
5927,0.0,299.94612,15142.447,-0.059269992772552293,0.0,0.0,0.0,0.0,-0.00904543891611806,-2.306448233028718,-0.95688452694465,-1.3395929299325289,-0.002981777600828537,-0.0006771191829089603,0.05544100057760075
5928,0.0,300.14623,15138.681999999999,-0.05928000244724985,0.0,0.0,0.0,0.0,-0.009046966534003803,-2.341509624914008,-0.9441494018702912,-1.3161224099161688,0.006291349613682864,-0.007117168811509873,0.05855208976414135
5929,0.0,299.54545,15183.645,-0.0592900121219474,0.0,0.0,0.0,0.0,-0.009048494151889519,-2.3396100849515378,-0.9452893487627951,-1.3305494701400087,0.013100933691711489,0.004616988679236305,0.04441153208557696
5930,0.0,300.28155,15211.812,-0.059299988761414624,0.0,0.0,0.0,0.0,-0.009050016728132021,-2.3639583835295275,-0.945286329277497,-1.3147663773073386,0.023522311281971374,-0.002860016045586607,0.03599199522763337
5931,0.0,299.75223,15281.993,-0.05930999843611218,0.0,0.0,0.0,0.0,-0.009051544346017765,-2.342052119017548,-0.9524652974285062,-1.3508268337912286,-0.0046435084741036055,-0.0036919599349680764,0.049402036061101356
5932,0.0,299.07615,15241.29,-0.05932000811080973,0.0,0.0,0.0,0.0,-0.009053071963903508,-2.353423824889848,-0.9371179325363391,-1.3424298275625088,-0.006241798238742525,-0.00872861339954707,0.03950369614596126
5933,0.0,299.31408999999996,15194.374,-0.059329984750277065,0.0,0.0,0.0,0.0,-0.009054594540146038,-2.3295575293844277,-0.9497149820195712,-1.3394377000172089,-0.008964403182617712,0.027985020373156474,0.04223494725426476
5934,0.0,299.42798999999997,15286.48,-0.05933999442497451,0.0,0.0,0.0,0.0,-0.009056122158031754,-2.362817869216968,-0.9487980008115722,-1.335092376963359,-0.014722685059765886,0.014835680684417684,0.03789044898599617
5935,0.0,299.59601000000004,15386.448,-0.05935000409967206,0.0,0.0,0.0,0.0,-0.00905764977591747,-2.3686170035142977,-0.969565970028711,-1.3389129377904188,-0.00960584774454836,0.006474619502995193,0.06452837462945474
5936,0.0,299.87431000000004,15284.683,-0.0593600137743695,0.0,0.0,0.0,0.0,-0.009059177393803214,-2.351510606051028,-0.971596644819123,-1.323054661800329,-0.018379284795394184,-0.02101569873408798,0.04634853595724436
5937,0.0,299.69162,15202.362,-0.059369990413836726,0.0,0.0,0.0,0.0,-0.009060699970045716,-2.330177030495568,-0.9604931766457961,-1.3304684101320088,0.013506941993531385,0.005360247650965255,0.056137982897387535
5938,0.0,299.61502,15284.598999999998,-0.05938000008853428,0.0,0.0,0.0,0.0,-0.00906222758793146,-2.334234489196008,-0.981859358589474,-1.3300424397899686,0.0049355756876033954,-0.007148661232567933,0.044283108714902555
5939,0.0,299.62593,15150.075,-0.05939000976323183,0.0,0.0,0.0,0.0,-0.009063755205817203,-2.327630935644288,-0.941858068491654,-1.3357554478287987,0.01190764526094309,0.007854847916263133,0.04660928168497795
5940,0.0,299.36644,15099.738000000001,-0.05939998640269928,0.0,0.0,0.0,0.0,-0.009065277782059733,-2.328639322143808,-0.95325476111142,-1.3080491370943987,0.008249398588602252,-0.005866401235693724,0.02732793072305677
5941,0.0,300.93573,15244.517,-0.05940999607739661,0.0,0.0,0.0,0.0,-0.009066805399945449,-2.3402386039885683,-0.9630756877056701,-1.3306383321737787,0.007405831302023643,0.013552127881740886,0.019070580755619782
5942,0.0,300.15545,15245.317,-0.05942000575209416,0.0,0.0,0.0,0.0,-0.009068333017831165,-2.3587923278946774,-0.9488765074293201,-1.3265269685680188,0.005643027414048444,0.008218293431732412,0.04113348461380886
5943,0.0,300.08427,15262.683,-0.059430015426791716,0.0,0.0,0.0,0.0,-0.009069860635716909,-2.337994153692058,-0.9598825110755281,-1.3415977465803886,-0.01110351579608169,-0.0024063363530619076,0.03283811648936977
5944,0.0,300.01126,15445.456,-0.05943999206625916,0.0,0.0,0.0,0.0,-0.009071383211959438,-2.3756801673113777,-0.958541788675709,-1.3608110963015987,-0.01715887064619868,-0.013006242430116187,0.059042109671502536
5945,0.0,299.4617,15422.056,-0.05945000174095649,0.0,0.0,0.0,0.0,-0.009072910829845154,-2.362285507614428,-0.961209625526504,-1.3644247514582386,-0.008054796712821543,-0.0005976848941644064,0.04726386252783005
5946,0.0,299.49765,15275.653,-0.059460011415654046,0.0,0.0,0.0,0.0,-0.009074438447730898,-2.3680209084804678,-0.9514963770203811,-1.3238999150337487,-0.004653875238526725,0.021678139357965778,0.06628165599299014
5947,0.0,299.85182000000003,15320.251,-0.05946998805512149,0.0,0.0,0.0,0.0,-0.009075961023973428,-2.3582350403396775,-0.9616851741959371,-1.3370537251819288,-0.001114483309540939,0.01197676411651459,0.06601429779510394
5948,0.0,299.29131,15332.081,-0.05947999772981882,0.0,0.0,0.0,0.0,-0.009077488641859144,-2.3625500672155377,-0.9574172533172262,-1.3406024310071587,0.008968698248466602,-0.01024484814458779,0.06842457052347933
5949,0.0,300.09378,15311.686000000002,-0.059490007404516376,0.0,0.0,0.0,0.0,-0.00907901625974486,-2.3370518310990582,-0.973089273673934,-1.3442291570900886,0.0027407748486434173,0.00014091177948190987,0.04255385759073876
5950,0.0,300.71803,15218.746000000001,-0.05949998404398382,0.0,0.0,0.0,0.0,-0.009080538835987417,-2.3569326086611375,-0.9498753491128981,-1.3193108040058386,0.013086668143553588,-0.018675068711585783,0.04270054884746606
5951,0.0,300.61331,15219.608,-0.059509993718681264,0.0,0.0,0.0,0.0,-0.009082066453873133,-2.3420178711641677,-0.9528350222574951,-1.3315279657615788,0.005745989532235015,-0.007279037237510043,0.03374744461936347
5952,0.0,300.8404,15350.331,-0.059520003393378706,0.0,0.0,0.0,0.0,-0.00908359407175885,-2.3740449842999976,-0.9697134181832631,-1.3223590656066786,0.006751620599433073,-0.012256014830824488,0.03045741951816327
5953,0.0,299.92,15345.746000000001,-0.05953001306807626,0.0,0.0,0.0,0.0,-0.009085121689644593,-2.3550400601243577,-0.969611505488205,-1.3400718932547986,0.007858574042180872,0.021452663852963082,0.02641861069906387
5954,0.0,299.70679,15351.653,-0.059539989707543595,0.0,0.0,0.0,0.0,-0.009086644265887123,-2.3660676662626976,-0.9758970707610422,-1.3245544745983486,-0.0016273792630848284,0.016407285291772985,0.033929879286618364
5955,0.0,299.61087000000003,15204.493999999999,-0.05954999938224115,0.0,0.0,0.0,0.0,-0.009088171883772866,-2.3218397046977377,-0.9453282474341341,-1.3546185169904388,-0.01822174163009588,0.0035104576604551964,0.05575595619893445
5956,0.0,299.80714,15164.591,-0.05956000905693848,0.0,0.0,0.0,0.0,-0.009089699501658555,-2.341771347414838,-0.9576288908656131,-1.3102569077372888,-0.0076155764031988725,-0.01239926610346229,0.037951717179792864
5957,0.0,300.22291,15364.413,-0.05956998569640615,0.0,0.0,0.0,0.0,-0.00909122207790114,-2.3444869590078476,-0.9754346031504001,-1.3504763505816386,-0.004653298496569805,-0.0025245308626517977,0.04757137886692955
5958,0.0,300.38684,15361.378999999999,-0.05957999537110348,0.0,0.0,0.0,0.0,-0.009092749695786828,-2.383456051228798,-0.960129581979912,-1.3258899382301488,0.007941770690666743,-0.002719884772656727,0.05172112641297775
5959,0.0,299.95187999999996,15115.226999999999,-0.05959000504580081,0.0,0.0,0.0,0.0,-0.009094277313672544,-2.320727460062968,-0.9516090402990002,-1.3223151918773488,-0.0007277738352206853,0.0010971573407809988,0.045947796555944456
5960,0.0,300.44716,15202.503,-0.05960001472049836,0.0,0.0,0.0,0.0,-0.009095804931558288,-2.3585242219182176,-0.9344249265530601,-1.3282320658362987,0.01037716138239609,0.005712028225983295,0.05731658629445664
5961,0.0,299.77481,15450.581,-0.05960999135996581,0.0,0.0,0.0,0.0,-0.009097327507800818,-2.354726965843458,-0.9657059633752582,-1.3761579849662187,0.016164387964550886,0.0023916026833578075,0.047875751090968754
5962,0.0,299.1372,15432.743,-0.05962000103466336,0.0,0.0,0.0,0.0,-0.009098855125686561,-2.3883017171820273,-0.9561374981759242,-1.346729250386829,0.017409309593915085,0.002709048062837227,0.05599818579434065
5963,0.0,299.31147000000004,15378.446000000002,-0.05963001070936069,0.0,0.0,0.0,0.0,-0.00910038274357225,-2.3705239402024976,-0.95166730217975,-1.3524721493036087,0.016793445037383985,-0.013143421294904686,0.04163970132401856
5964,0.0,299.53508999999997,15358.964,-0.05963998734882825,0.0,0.0,0.0,0.0,-0.009101905319814835,-2.3875199947298773,-0.9555564296410771,-1.3256650980329587,0.008917217949310892,-0.006567012409388664,0.05762860653025065
5965,0.0,299.34434,15339.638,-0.05964999702352569,0.0,0.0,0.0,0.0,-0.009103432937700523,-2.3554182050616777,-0.9667053522138901,-1.3407432727710589,-0.0044695641334116356,0.01893052527379738,0.03801722785175826
5966,0.0,299.76911,15449.28,-0.059660006698223245,0.0,0.0,0.0,0.0,-0.009104960555586267,-2.381691273529628,-0.9654088075184311,-1.3490953920203488,-0.017392424794248684,0.019840140153569382,0.06531466582630564
5967,0.0,299.89315,15453.372,-0.059670016372920576,0.0,0.0,0.0,0.0,-0.009106488173471983,-2.358025702869018,-0.9763971603478971,-1.3630162324942288,-0.02269920060298668,0.018927845227282882,0.05454495109016754
5968,0.0,299.86708,15232.095,-0.05967999301238813,0.0,0.0,0.0,0.0,-0.00910801074971454,-2.3469203804480077,-0.9523672958788341,-1.3308888075984988,-0.01930159975191958,-0.001823150632130958,0.04514321112853805
5969,0.0,300.0994,15171.544,-0.059690002687085464,0.0,0.0,0.0,0.0,-0.009109538367600256,-2.317285753448298,-0.9722453072681412,-1.3222392994448589,0.011372603611888589,0.005418332415597775,0.026590880441315575
5970,0.0,299.80984,15444.726999999999,-0.059700012361782906,0.0,0.0,0.0,0.0,-0.009111065985485944,-2.376311118148648,-0.987219948111023,-1.3312802261121286,0.007615376286304122,-0.013011083739093989,0.03799760525032167
5971,0.0,300.33409,15499.497,-0.05970998900125046,0.0,0.0,0.0,0.0,-0.00911258856172853,-2.387600345462808,-0.966872041987841,-1.3569875970492487,0.02306736806657198,-0.02062906884043058,0.04047282021735636
5972,0.0,300.40821,15393.331,-0.059719998675947794,0.0,0.0,0.0,0.0,-0.009114116179614218,-2.366173652223158,-0.9750721939871331,-1.3379425481696487,0.005192219474957165,-0.005996740560982214,0.051684957437408155
5973,0.0,300.54137000000003,15336.296,-0.05973000835064535,0.0,0.0,0.0,0.0,-0.009115643797499962,-2.345651284697758,-0.9597545375878981,-1.3564453055957288,0.017090686007219382,0.009256422773362803,0.04289245537665575
5974,0.0,300.30916,15526.673999999999,-0.05973998499011279,0.0,0.0,0.0,0.0,-0.009117166373742491,-2.390562683455168,-0.9702458101833061,-1.3589126709142385,-0.002553271296438258,0.016351642662531484,0.05298522481373455
5975,0.0,300.06548,15535.495,-0.059749994664810346,0.0,0.0,0.0,0.0,-0.009118693991628235,-2.3905646086303576,-0.9782077065540841,-1.3536300915178885,-0.004549707048746125,0.0016136772846325484,0.033557953678412175
5976,0.0,299.44638,15429.712,-0.05976000433950768,0.0,0.0,0.0,0.0,-0.009120221609513951,-2.3945171959454474,-0.9626583907844861,-1.3330716522889288,-0.006377451047555414,-0.01156538052291419,0.05562764428577105
5977,0.0,300.09622,15298.963,-0.05977001401420523,0.0,0.0,0.0,0.0,-0.009121749227399667,-2.3624856245091777,-0.9591904105947231,-1.3288267423199887,-0.0025997069273210973,-0.01079723359560399,0.03777423730552697
5978,0.0,299.50793,15169.155,-0.05977999065367268,0.0,0.0,0.0,0.0,-0.009123271803642224,-2.3590096700411274,-0.930163936305033,-1.3218708817084988,-0.01917613811128748,0.0018771006270804083,0.07240716220053052
5979,0.0,299.22517999999997,15360.546999999999,-0.05979000032837023,0.0,0.0,0.0,0.0,-0.00912479942152794,-2.350527854779038,-0.9748377887089991,-1.3438569903283588,-0.008726978723160741,-0.01734434607700368,0.04940043411269325
5980,0.0,300.45496,15594.026000000002,-0.05980001000306756,0.0,0.0,0.0,0.0,-0.009126327039413656,-2.4017471407089874,-0.9784068203312352,-1.3600407222505686,-0.002867306988006167,0.01028132920118819,0.061179271981174045
5981,0.0,300.44898,15562.796999999999,-0.05980998664253512,0.0,0.0,0.0,0.0,-0.009127849615656214,-2.3611190540993077,-1.000266404411108,-1.3693164189660088,0.02194229061928548,0.0015797161810308486,0.029564940724082472
5982,0.0,299.73055,15411.665,-0.05981999631723256,0.0,0.0,0.0,0.0,-0.00912937723354193,-2.370029068853658,-0.979050750902286,-1.3356815818965089,0.02949332826001487,-0.003138474094343277,0.04510150879417236
5983,0.0,300.41683,15534.528999999999,-0.05983000599192989,0.0,0.0,0.0,0.0,-0.009130904851427646,-2.383804305288168,-0.9755298081297961,-1.3627746736703885,0.011224475566519489,-0.0065098045113926835,0.04516467480540636
5984,0.0,300.09848999999997,15448.433,-0.059840015666627444,0.0,0.0,0.0,0.0,-0.009132432469313362,-2.3910773131809577,-0.9668439445625681,-1.3380167180769686,0.003916155299794437,-0.0015286366222896886,0.054814092608229746
5985,0.0,300.37407,15240.281,-0.05984999230609478,0.0,0.0,0.0,0.0,-0.00913395504555592,-2.3477802244828676,-0.951133055932024,-1.3337515431060287,-0.004242517888103915,0.008970127437732652,0.04371347572068416
5986,0.0,299.8487,15281.127,-0.05986000198079233,0.0,0.0,0.0,0.0,-0.009135482663441635,-2.3738256156533475,-0.9577294559380382,-1.3135260578599288,-0.02702548671395787,0.023664837067537577,0.04433788704180876
5987,0.0,298.97427999999996,15282.669,-0.059870011655489774,0.0,0.0,0.0,0.0,-0.009137010281327351,-2.3516164906864776,-0.9548269807615861,-1.3391061645844886,-0.011057207226761389,0.0021444638912171076,0.039650290130678965
5988,0.0,298.595,15393.343,-0.05987998829495733,0.0,0.0,0.0,0.0,-0.009138532857569909,-2.3804968543117475,-0.9627642450224331,-1.3359306387710885,-0.014847530644337185,0.010650250522847888,0.032633377147663574
5989,0.0,300.1456,15558.918,-0.05988999796965466,0.0,0.0,0.0,0.0,-0.009140060475455625,-2.385111701892198,-0.975244902466678,-1.3691660526511686,0.006142648879357244,-0.0037719604886635163,0.04562447959478556
5990,0.0,299.85213999999996,15470.468,-0.059900007644352216,0.0,0.0,0.0,0.0,-0.009141588093341368,-2.376873674604168,-0.9681027963543071,-1.3576595845155686,0.002977857032216607,-0.012766477058953188,0.05732110235015234
5991,0.0,299.98326000000003,15406.966,-0.05990998428381966,0.0,0.0,0.0,0.0,-0.009143110669583898,-2.3637239174563875,-0.9611173083098932,-1.3584918681477087,0.005096244729460195,-0.005462894851020745,0.06640575177248743
5992,0.0,299.66167,15542.691,-0.059919993958517215,0.0,0.0,0.0,0.0,-0.009144638287469642,-2.400392627975308,-0.9701795436267661,-1.3540176596811386,0.015592086069569086,0.01014070528605969,0.06544608841727603
5993,0.0,300.14819,15622.695,-0.059930003633214546,0.0,0.0,0.0,0.0,-0.00914616590535533,-2.390414242315518,-0.979706313584485,-1.3787886862008485,0.009048498685267293,0.00915620990667256,0.05274633894365836
5994,0.0,300.52087,15437.956,-0.05994001330791188,0.0,0.0,0.0,0.0,-0.009147693523241046,-2.3961544054570276,-0.9478904022994992,-1.3487084318071587,0.01133855536877829,0.012723868878998089,0.06688375959991313
5995,0.0,299.90218,15226.871000000001,-0.059949989947379545,0.0,0.0,0.0,0.0,-0.009149216099483604,-2.349618564139298,-0.9495262540559452,-1.3294437103058787,0.012165946016185387,-0.016283604944816683,0.05569665269708165
5996,0.0,299.73042000000004,15302.232,-0.059959999622076876,0.0,0.0,0.0,0.0,-0.00915074371736932,-2.375580666151558,-0.936979167935144,-1.3389365465177487,-0.0014189250425369986,-0.008453207158766591,0.059459414698687346
5997,0.0,299.54216,15534.231000000002,-0.05997000929677443,0.0,0.0,0.0,0.0,-0.009152271335255063,-2.380355708572818,-0.9833417637507761,-1.3583209328558385,0.0024914710450140475,-0.01943875733845598,0.04758532929430636
5998,0.0,299.0162,15537.765,-0.059979985936241764,0.0,0.0,0.0,0.0,-0.009153793911497593,-2.384755544482048,-0.9839476163830689,-1.354389421142829,-0.012561669829490288,0.004014117738012577,0.03192720566271987
5999,0.0,299.77172,15504.133999999998,-0.05998999561093932,0.0,0.0,0.0,0.0,-0.009155321529383337,-2.3583287659739276,-0.991602021746,-1.3629389215115988,-0.0057396978570640736,0.01966334624962118,0.028919470012879474
6000,0.0,299.46115,15404.168,-0.06000000528563676,0.0,0.0,0.0,0.0,-0.009156849147269025,-2.3691553432924275,-0.9731221435071781,-1.3402049329929286,-0.0063722839786704635,0.028094000487661974,0.03280539357739027
6001,0.0,299.31212999999997,15472.508999999998,-0.0600100149603342,0.0,0.0,0.0,0.0,-0.009158376765154769,-2.360824806270268,-0.9707031000859372,-1.3717285621540687,0.0005329591262564705,0.004412045572934996,0.053747814064246245
6002,0.0,299.73056,15582.278,-0.06001999159980165,0.0,0.0,0.0,0.0,-0.009159899341397298,-2.391569752729558,-0.9743972376980201,-1.3706565435482687,-0.012591082453393089,-0.008686259342717053,0.062154714680192735
6003,0.0,299.78755,15393.782,-0.0600300012744992,0.0,0.0,0.0,0.0,-0.009161426959283042,-2.382681421527348,-0.9438160932498961,-1.3528280027387287,0.0040221262641529565,-0.011490065642981188,0.06869440510460993
6004,0.0,299.92278999999996,15329.081,-0.06004001094919653,0.0,0.0,0.0,0.0,-0.009162954577168758,-2.3570074878435276,-0.957528832418238,-1.3451214251281487,0.008842956646831872,-0.0014875331187330885,0.04434652702541146
6005,0.0,301.02891,15480.31,-0.0600499875886642,0.0,0.0,0.0,0.0,-0.009164477153411316,-2.3835648742895374,-0.9625790431691551,-1.3594837386705987,0.025351847821532575,-0.004132224297493786,0.05181845516458335
6006,0.0,299.92203,15568.166000000001,-0.06005999726336153,0.0,0.0,0.0,0.0,-0.009166004771297032,-2.3972722229673478,-0.972498143565594,-1.3625635123495488,0.009198664781887531,0.0010084933771405472,0.04626221110172475
6007,0.0,300.01207999999997,15556.389,-0.06007000693805886,0.0,0.0,0.0,0.0,-0.00916753238918272,-2.3930337977990477,-0.959072995173135,-1.3766468781394687,-0.0026722153071271175,-0.0012313354653983488,0.05298938825839545
6008,0.0,299.85303999999996,15510.28,-0.06007998357752631,0.0,0.0,0.0,0.0,-0.00916905496542525,-2.4038232901638876,-0.9594302975558981,-1.3514842304561088,-0.0014655672751152286,0.01127601250635579,0.05666902220854704
6009,0.0,299.87221,15532.833,-0.06008999325222386,0.0,0.0,0.0,0.0,-0.009170582583310993,-2.3924313192895874,-0.9702876371474342,-1.3588743700604586,-0.023301963835724776,-0.0013463125006206989,0.05540801624709545
6010,0.0,300.19723999999997,15616.37,-0.060100002926921414,0.0,0.0,0.0,0.0,-0.009172110201196737,-2.4098360175822977,-0.9682068875370801,-1.3689436442542187,-0.006176525781875634,-0.00031835899669708677,0.05394810017176294
6011,0.0,300.05912,15623.341999999999,-0.060110012601618745,0.0,0.0,0.0,0.0,-0.009173637819082453,-2.3896675783168275,-0.9805232363451091,-1.3789150384883186,-0.011766635297526489,-0.006382994538852514,0.04646221552571366
6012,0.0,299.49314,15439.415,-0.0601199892410863,0.0,0.0,0.0,0.0,-0.00917516039532501,-2.3914736966200776,-0.9545945614536482,-1.347128268276209,0.016656003740819585,0.007400681458390393,0.05890117874159375
6013,0.0,299.84891,15326.656,-0.060129998915783744,0.0,0.0,0.0,0.0,-0.009176688013210726,-2.350406467417058,-0.9626467688058391,-1.3458673798517686,0.029688077968985177,-0.01133335030301459,0.03840921277219417
6014,0.0,299.94083,15455.896999999999,-0.0601400085904813,0.0,0.0,0.0,0.0,-0.009178215631096442,-2.3935247174724976,-0.972023131918714,-1.3326587528731788,0.01072620476359399,-0.002765150808949138,0.06466127352582084
6015,0.0,300.56871,15682.636,-0.06014998522994852,0.0,0.0,0.0,0.0,-0.009179738207338944,-2.390600680333918,-0.9974599954766371,-1.3790689511785088,0.0076127937144492425,-0.0018824727777855981,0.03918370771138086
6016,0.0,300.7782,15633.483999999999,-0.060159994904646186,0.0,0.0,0.0,0.0,-0.009181265825224716,-2.397588356998548,-1.005509619041073,-1.3490907310698887,-0.0050442460515533255,0.005165662291161176,0.03615207759768226
6017,0.0,300.08181,15425.323,-0.06017000457934352,0.0,0.0,0.0,0.0,-0.009182793443110432,-2.359127004402708,-0.9835474231235731,-1.3462384320383887,-0.007705955475018592,0.01246341294079309,0.027455499923896877
6018,0.0,299.88199,15448.351,-0.06018001425404096,0.0,0.0,0.0,0.0,-0.009184321060996148,-2.380586729595618,-0.9712818178805521,-1.3440445429218688,-0.018464288372783383,-0.007162672353625723,0.035198181662040064
6019,0.0,300.29885,15616.653999999999,-0.060189990893508516,0.0,0.0,0.0,0.0,-0.009185843637238705,-2.3907883342524374,-0.984505157250594,-1.371779325984079,-0.011904026944835989,-0.0005991413195931445,0.04660855214490595
6020,0.0,299.95448999999996,15665.377,-0.06020000056820585,0.0,0.0,0.0,0.0,-0.009187371255124394,-2.425396702018018,-0.9719004475966061,-1.3645863648491887,-0.008515095360299482,0.002132140540850888,0.059646550846406236
6021,0.0,300.31741,15630.912,-0.0602100102429034,0.0,0.0,0.0,0.0,-0.009188898873010137,-2.4070276936051376,-0.9725368294544121,-1.3718425527903186,0.003455357727967257,0.001989366407685178,0.06149540398587385
6022,0.0,299.84334,15529.17,-0.060219986882370624,0.0,0.0,0.0,0.0,-0.00919042144925264,-2.401083056593448,-0.9654252120375502,-1.3539717594516087,-0.007095690949140174,-0.012357338827574388,0.056607859392760744
6023,0.0,299.87876,15637.536,-0.0602299965570684,0.0,0.0,0.0,0.0,-0.00919194906713841,-2.4018198920661677,-0.9683271704564511,-1.3832733311434486,0.0018497089305020583,-0.01893715091620128,0.05927211643095244
6024,0.0,299.90482000000003,15811.76,-0.06024000623176573,0.0,0.0,0.0,0.0,-0.009193476685024127,-2.4205546837651477,-1.0025894626503762,-1.3832360435397686,0.002157183726347458,0.007843286529972113,0.04877432154465075
6025,0.0,299.41828,15658.536,-0.06025001590646328,0.0,0.0,0.0,0.0,-0.00919500430290987,-2.3933078819510976,-0.981199064029308,-1.3852970955681787,0.0022112371741321176,0.00023611963650819377,0.059018467506919234
6026,0.0,299.82029,15451.313999999998,-0.06025999254593073,0.0,0.0,0.0,0.0,-0.0091965268791524,-2.395188676786718,-0.9714981163793991,-1.3301267421982887,0.009646615254371802,0.008822539353341843,0.047719709562318656
6027,0.0,299.60982,15430.096000000001,-0.06027000222062828,0.0,0.0,0.0,0.0,-0.009198054497038144,-2.3663893731694476,-0.9811010827446381,-1.3428735297812986,-0.0024354260541578376,0.0030997569974221973,0.04125895537369186
6028,0.0,300.12266,15509.651000000002,-0.060280011895325614,0.0,0.0,0.0,0.0,-0.009199582114923832,-2.405038987633868,-0.9626377306149472,-1.3468697881756986,0.015007564378381287,-0.002132529932864318,0.040784633750129966
6029,0.0,300.48186,15594.746000000001,-0.06028998853479306,0.0,0.0,0.0,0.0,-0.009201104691166362,-2.3855187244573677,-0.9920436670670871,-1.3628509714029187,-0.004333342182017576,0.0016303548746534986,0.027730513226288573
6030,0.0,299.88552999999996,15437.376,-0.0602999982094905,0.0,0.0,0.0,0.0,-0.009202632309052106,-2.385039862460108,-0.9526259380993601,-1.3549110422943087,0.0018582524526952384,-0.007984032541737662,0.04841380310607036
6031,0.0,300.18113,15539.957,-0.060310007884187944,0.0,0.0,0.0,0.0,-0.009204159926937822,-2.3760932693771477,-0.9730258644826761,-1.3746397310163787,0.0014483152736125887,-0.01111622093908559,0.05253594262664386
6032,0.0,300.6845,15688.302,-0.06031998452365528,0.0,0.0,0.0,0.0,-0.009205682503180351,-2.415695642910598,-0.991682514333944,-1.3614739645170186,-0.007028036138638163,0.005025717962874745,0.06384367999363064
6033,0.0,299.51842,15694.105,-0.06032999419835283,0.0,0.0,0.0,0.0,-0.009207210121066095,-2.4018659949457177,-0.982046749062968,-1.3867033853819688,0.003466558093247647,-0.0057979832452163945,0.05672163623323965
6034,0.0,300.13932,15748.33,-0.060340003873050385,0.0,0.0,0.0,0.0,-0.009208737738951811,-2.4260882452112678,-0.9902431419043891,-1.3707676970842386,-0.0018746050934091182,-0.007174175883336034,0.044394992804194656
6035,0.0,299.97175,15582.11,-0.060350013547747716,0.0,0.0,0.0,0.0,-0.009210265356837527,-2.379664672004618,-0.9800102176869779,-1.3768974548891988,0.016081016733072783,-0.007174737730516484,0.029041627444935474
6036,0.0,299.88009,15472.451000000001,-0.06035999018721516,0.0,0.0,0.0,0.0,-0.009211787933080057,-2.390462878320318,-0.9615777798178381,-1.3511980886278687,0.04199674836775636,-0.0072746834031553525,0.03435991073505917
6037,0.0,300.30387,15604.661,-0.060369999861912715,0.0,0.0,0.0,0.0,-0.0092133155509658,-2.392282675499918,-0.974065793457809,-1.3770787253320886,0.015289913611496985,0.008137318232765782,0.05831199103369544
6038,0.0,299.82403999999997,15489.076000000001,-0.06038000953661027,0.0,0.0,0.0,0.0,-0.009214843168851544,-2.4027890657868176,-0.9503183724541212,-1.3551850251213486,0.003785910612065286,0.009855138679901461,0.06742482502081214
6039,0.0,299.20246000000003,15396.354,-0.06038998617607749,0.0,0.0,0.0,0.0,-0.009216365745094046,-2.3713586556348774,-0.9627558350466031,-1.345992820214149,-0.014133158926334186,0.003061694156090687,0.06717982722613274
6040,0.0,299.5555,15605.083999999999,-0.060399995850775046,0.0,0.0,0.0,0.0,-0.00921789336297979,-2.4121917227397875,-0.9750078526057832,-1.3563562409119387,-0.010851988617757888,0.011211297235718887,0.062233863698504144
6041,0.0,299.69255,15731.813999999998,-0.0604100055254726,0.0,0.0,0.0,0.0,-0.009219420980865506,-2.4074456592713878,-0.985068726956214,-1.3895642970393185,-0.017902826227371382,-0.015457785848314684,0.053362561177474746
6042,0.0,300.38556,15783.675,-0.06042001520016993,0.0,0.0,0.0,0.0,-0.009220948598751222,-2.4260464993071476,-0.990032112306062,-1.3817645004195387,-0.007402286953173843,-0.009130945022054112,0.053819353574306644
6043,0.0,300.18212,15722.173999999999,-0.060429991839637376,0.0,0.0,0.0,0.0,-0.009222471174993752,-2.409620296636008,-0.986401454812744,-1.3831266125289685,-0.006840557107085424,-0.0021898602314723782,0.04981632768248875
6044,0.0,299.76144,15645.81,-0.06044000151433493,0.0,0.0,0.0,0.0,-0.009223998792879495,-2.400591123669898,-0.993448203958204,-1.3618961858336887,0.02103028852227788,0.0048389514487923255,0.04988901419166236
6045,0.0,300.40912000000003,15576.015,-0.06045001118903248,0.0,0.0,0.0,0.0,-0.009225526410765239,-2.393858887355478,-0.975902248469053,-1.3649585316109185,0.009106540792070602,0.004818298574654045,0.025857950034480978
6046,0.0,300.7086,15621.362,-0.060459987828499706,0.0,0.0,0.0,0.0,-0.009227048987007741,-2.4108071164781375,-0.985442595978112,-1.3522541992070987,0.018721243531892882,-0.001000879998274165,0.047662973636219255
6047,0.0,300.29329,15533.267,-0.06046999750319726,0.0,0.0,0.0,0.0,-0.009228576604893485,-2.366851313890038,-0.992514889158593,-1.3623592411293886,0.007364610768080492,-0.0002185400208507208,0.025035992434110078
6048,0.0,300.15074,15446.978000000001,-0.0604800071778947,0.0,0.0,0.0,0.0,-0.0092301042227792,-2.3908297761815276,-0.970326221711242,-1.3343396334640687,0.00013560254147542886,-0.004126078023712196,0.04470659862069775
6049,0.0,299.87406,15506.163,-0.06048998381736215,0.0,0.0,0.0,0.0,-0.009231626799021758,-2.3878070484832077,-0.9775193652311501,-1.3481599595280287,-0.0002149763290565118,-0.0025309835432636278,0.040976724690837865
6050,0.0,299.97912,15719.485,-0.06049999349205948,0.0,0.0,0.0,0.0,-0.009233154416907446,-2.4362754617166678,-0.9857668562751141,-1.3562886571302688,-0.01979360461622668,0.008867116176916231,0.06627707914228843
6051,0.0,300.02637999999996,15813.716,-0.06051000316675703,0.0,0.0,0.0,0.0,-0.00923468203479319,-2.4277814874533776,-1.001839232011334,-1.3773541267092686,-0.0038117818255435764,0.008990556890223881,0.05389931319269804
6052,0.0,300.1407,15741.328000000001,-0.060520012841454585,0.0,0.0,0.0,0.0,-0.009236209652678934,-2.432274137071768,-0.987502584093917,-1.3651939096091488,0.0006032482451634665,0.011345628867726387,0.055461501666874045
6053,0.0,299.72758,15789.318000000001,-0.06052998948092203,0.0,0.0,0.0,0.0,-0.009237732228921464,-2.4063487147131277,-0.993448416740725,-1.3997611394206686,-3.149175028649377e-06,0.0006530416855526964,0.054104190336417855
6054,0.0,299.918,15734.344,-0.06053999915561936,0.0,0.0,0.0,0.0,-0.00923925984680718,-2.431008587696868,-0.974413176122093,-1.3774259661413588,0.009645197109531841,-0.012819491317435287,0.050977266077314454
6055,0.0,299.59734,15629.261,-0.060550008830316915,0.0,0.0,0.0,0.0,-0.009240787464692896,-2.4105355654513376,-0.9693121002161561,-1.3710573852878287,0.0013763338851835785,-0.008700290222151793,0.05234362370466345
6056,0.0,299.72288,15589.747,-0.06055998546978436,0.0,0.0,0.0,0.0,-0.009242310040935453,-2.418745221736568,-0.9729895901290961,-1.3471590710792487,0.00872123187256857,9.81012524685898e-05,0.037616583695967765
6057,0.0,300.43449,15533.231000000002,-0.06056999514448169,0.0,0.0,0.0,0.0,-0.009243837658821141,-2.404641286969618,-0.9707072746763491,-1.3463658989009686,-0.0005495878472250974,0.008013923824987702,0.049347711670239956
6058,0.0,300.9799,15690.485,-0.060580004819179245,0.0,0.0,0.0,0.0,-0.009245365276706885,-2.418764270838448,-0.9781785553487071,-1.3725729034623986,-0.007802105208807832,0.014264914876587487,0.04123796893762066
6059,0.0,300.4837,16010.265,-0.0605900144938768,0.0,0.0,0.0,0.0,-0.009246892894592629,-2.4379260461295678,-1.0261094596691192,-1.4026850752342386,-0.004435792304928615,0.0017273822856793584,0.05048521359025265
6060,0.0,300.77866,15927.123,-0.060599991133344244,0.0,0.0,0.0,0.0,-0.009248415470835158,-2.4471995136947875,-1.011678518697396,-1.3825695276239887,0.0016551127289219083,0.005022898189171456,0.03728950757693786
6061,0.0,300.04352,15632.419,-0.060610000808041575,0.0,0.0,0.0,0.0,-0.009249943088720874,-2.402303212363868,-0.9819165362926171,-1.3676452655760787,0.0014787038600117084,0.016471001497811284,0.04839095127656505
6062,0.0,300.09662000000003,15672.423,-0.06062001048273913,0.0,0.0,0.0,0.0,-0.00925147070660659,-2.422267177759158,-0.9944140136885221,-1.3473438878974886,-0.0065589004304130736,-0.004703312521505806,0.04986187023473345
6063,0.0,299.59897,15655.171,-0.06062998712220646,0.0,0.0,0.0,0.0,-0.009252993282849148,-2.417290194592968,-0.9615513339902281,-1.3799396369894386,-0.03085467435236927,-0.005758065649576834,0.057055319756171646
6064,0.0,299.84412000000003,15610.261999999999,-0.06063999679690402,0.0,0.0,0.0,0.0,-0.009254520900734864,-2.4118274593288374,-0.9706483947130382,-1.3626538942584687,-0.016284286862133984,-0.0073503022581183535,0.05000314262992595
6065,0.0,299.66996,15580.261,-0.06065000647160146,0.0,0.0,0.0,0.0,-0.00925604851862058,-2.3738322017789977,-0.980949794372207,-1.3812282884666187,0.0060832021039403045,0.0016576586211231683,0.03858221712076836
6066,0.0,299.88709,15654.601999999999,-0.06066001614629901,0.0,0.0,0.0,0.0,-0.009257576136506324,-2.4201528287754877,-0.974024837888767,-1.3644303243337885,0.014791601265317386,-0.00016266149685343985,0.051473856911574155
6067,0.0,300.4054,15866.719,-0.06066999278576635,0.0,0.0,0.0,0.0,-0.009259098712748853,-2.4257237791502977,-1.0119759683967522,-1.3853865655520088,0.02170440989330848,-0.00948105748343252,0.046915322731931865
6068,0.0,300.63597999999996,15969.685,-0.06068000246046368,0.0,0.0,0.0,0.0,-0.00926062633063457,-2.4710570952493476,-0.9921934456968691,-1.3911349360193288,0.02669667591075677,-0.007453106207964313,0.062132298548230436
6069,0.0,300.23534,15921.608999999999,-0.06069001213516123,0.0,0.0,0.0,0.0,-0.009262153948520285,-2.4349176052576578,-1.0092324620284892,-1.3956216074621286,0.007271650036330983,0.0025919611369316477,0.057524085729435244
6070,0.0,299.96465,15724.882,-0.06069998877462868,0.0,0.0,0.0,0.0,-0.009263676524762843,-2.4205965309942776,-0.9868213963166891,-1.3725535503854887,-0.001090015346126139,-0.0002003719804626748,0.060130920871209845
6071,0.0,299.87386000000004,15712.722,-0.06070999844932623,0.0,0.0,0.0,0.0,-0.009265204142648559,-2.4199372091542077,-0.9653334217109911,-1.3910043280814386,-0.02064548957155118,-0.0030220834739064168,0.057539976530753545
6072,0.0,300.03607999999997,15809.153999999999,-0.06072000812402356,0.0,0.0,0.0,0.0,-0.009266731760534275,-2.4446277836159775,-0.989355149781751,-1.3716050469668788,-0.007267310286152683,0.004807737063561706,0.05744769275139585
6073,0.0,299.81543999999997,15619.593,-0.06072998476349123,0.0,0.0,0.0,0.0,-0.009268254336776832,-2.4151169757784876,-0.968351812698883,-1.3644975028154187,-0.012352246232571789,0.009548769441240171,0.06091755150684424
6074,0.0,299.32285,15532.374,-0.06073999443818856,0.0,0.0,0.0,0.0,-0.009269781954662548,-2.3964960733907477,-0.967346303829647,-1.3576114551358187,-0.002436403333879288,-0.008644945792414722,0.05198625242089366
6075,0.0,299.77675,15740.059,-0.06075000411288611,0.0,0.0,0.0,0.0,-0.009271309572548292,-2.415936289809348,-0.9799405871401061,-1.3887079993798088,-0.0033185264079630566,-0.002261354043953268,0.06120638655385004
6076,0.0,300.37455,15959.393999999998,-0.06076001378758367,0.0,0.0,0.0,0.0,-0.009272837190434008,-2.4299362651160377,-0.9967983532938381,-1.4245226413894385,0.00026831641837326875,-0.011701982848395789,0.045265474951854553
6077,0.0,300.56363,15886.732,-0.060769990427051,0.0,0.0,0.0,0.0,-0.009274359766676565,-2.425839998936768,-0.9993635681745051,-1.4039661273356685,0.012014651564253789,0.004457307150926965,0.04096170731110576
6078,0.0,300.53447,15675.593,-0.060780000101748444,0.0,0.0,0.0,0.0,-0.009275887384562254,-2.4143828760810377,-0.995657129706208,-1.3549489378480488,0.01035803122050809,-0.005096023536963365,0.035022078794660065
6079,0.0,300.3139,15583.469,-0.060790009776445775,0.0,0.0,0.0,0.0,-0.00927741500244797,-2.407508278127568,-0.9695754743146491,-1.3599018056618588,0.014089595251534788,-0.004191480784541946,0.06075314154561824
6080,0.0,301.02431,15719.918,-0.06079998641591333,0.0,0.0,0.0,0.0,-0.009278937578690527,-2.4262410433263475,-0.984601790912631,-1.3676198329985687,0.01009403985005417,-0.010652264864046688,0.06255052056675574
6081,0.0,300.71302000000003,15703.594,-0.060809996090610774,0.0,0.0,0.0,0.0,-0.009280465196576243,-2.4000777098442274,-0.9727511014530591,-1.4006716459605286,0.008736210748796873,0.007939840753201272,0.054417991865887645
6082,0.0,300.45273,15644.178,-0.060820005765308216,0.0,0.0,0.0,0.0,-0.009281992814461987,-2.392700134541118,-0.9786472848449671,-1.3840919358992385,0.004718343884089285,-0.003345380575363356,0.05678750458249036
6083,0.0,299.82493,15658.47,-0.06083001544000577,0.0,0.0,0.0,0.0,-0.009283520432347703,-2.4052070858254577,-0.9702369543774321,-1.3843397768736987,0.0045062579725330355,0.007469823517389182,0.03561130095306176
6084,0.0,299.92335,15895.346000000001,-0.060839992079473215,0.0,0.0,0.0,0.0,-0.00928504300859026,-2.455306122444848,-0.988105559095926,-1.3883764639470886,0.008134521561164773,0.006807329191256084,0.05397529783094716
6085,0.0,299.68167,16039.367,-0.060850001754170546,0.0,0.0,0.0,0.0,-0.009286570626475948,-2.466250439424968,-1.0106146466224002,-1.3987018877661288,0.0030003709428135573,0.0021141908153293884,0.04983896774272315
6086,0.0,299.44612,15820.202,-0.0608600114288681,0.0,0.0,0.0,0.0,-0.009288098244361692,-2.439246716309908,-0.978151440776031,-1.3915483420601287,0.002121354088236348,-0.0054865789641581845,0.07221755068281734
6087,0.0,299.52459,15639.33,-0.060869988068335545,0.0,0.0,0.0,0.0,-0.009289620820604222,-2.396383298654618,-0.9665500513710631,-1.3910323951092087,-0.006677436405286664,-0.018022198234902483,0.06651051980632723
6088,0.0,300.35311,15774.014,-0.0608799977430331,0.0,0.0,0.0,0.0,-0.009291148438489966,-2.420021410237518,-0.9731813882405251,-1.401703641187379,0.0020503012421989784,-0.01049304476983289,0.06642288279192814
6089,0.0,300.37805,15866.482,-0.06089000741773043,0.0,0.0,0.0,0.0,-0.009292676056375682,-2.4466639096919276,-0.9797757009513332,-1.3965748731562089,0.008342952071660262,0.005455353433176464,0.06604752834538354
6090,0.0,300.39335,15786.534,-0.06089998405719799,0.0,0.0,0.0,0.0,-0.009294198632618239,-2.4387392806598274,-0.997149596441003,-1.3628232083501788,0.02109010270218108,0.0056123125611171245,0.03313753594692017
6091,0.0,300.57006,15631.393,-0.06090999373189543,0.0,0.0,0.0,0.0,-0.009295726250503955,-2.4224251434497477,-0.973536046040527,-1.355591946361509,0.012915161378627187,0.013395081208991588,0.05294921491843065
6092,0.0,299.65061000000003,15644.546999999999,-0.06092000340659276,0.0,0.0,0.0,0.0,-0.009297253868389643,-2.414240717092008,-0.981980421711422,-1.3593305352554788,-0.008692301859688403,0.001935819787600538,0.04190177035638276
6093,0.0,300.26408,15900.895,-0.06093001308129031,0.0,0.0,0.0,0.0,-0.009298781486275387,-2.4163185890720777,-0.998686777902711,-1.4184696879420586,-0.016359277502034985,0.007362285359100993,0.058622718362361846
6094,0.0,300.31768999999997,15990.765,-0.06093998972075776,0.0,0.0,0.0,0.0,-0.009300304062517917,-2.4189896176606878,-1.020110107152029,-1.4216936471102386,-0.023413142702947278,0.004302858654084086,0.04201209201402066
6095,0.0,300.01536,15704.216999999999,-0.0609499993954552,0.0,0.0,0.0,0.0,-0.00930183168040366,-2.4050522612101775,-0.9871134859230161,-1.3815240561708086,-0.008315544872355382,0.005463636955393984,0.047673849862792654
6096,0.0,300.18345,15643.336000000001,-0.06096000907015264,0.0,0.0,0.0,0.0,-0.009303359298289376,-2.424882376267258,-0.9754855291004261,-1.3548155941348887,-0.006206941928677474,0.0025058191730550974,0.04096581705351136
6097,0.0,300.18282,15803.518999999998,-0.0609699857096202,0.0,0.0,0.0,0.0,-0.009304881874531934,-2.4358399668236874,-0.9900979330325581,-1.3779372521418185,0.0031323729101911373,-0.004370943183953506,0.06014329366818094
6098,0.0,299.2109,15830.66,-0.06097999538431753,0.0,0.0,0.0,0.0,-0.00930640949241765,-2.4359629753858276,-0.975700257061618,-1.4004621058398488,0.016457065255935883,-0.003979408855837076,0.07003691791735564
6099,0.0,299.80807000000004,15891.67,-0.060990005059015084,0.0,0.0,0.0,0.0,-0.009307937110303366,-2.4097278024716178,-1.009452479155203,-1.4114906239032787,0.02170124855299648,-0.011349053653064389,0.04637584811368986
6100,0.0,298.98093,15701.098,-0.061000014733712415,0.0,0.0,0.0,0.0,-0.009309464728189082,-2.414387131731458,-0.9743440319352691,-1.3840104705911989,0.019399089610291083,-0.004871909941420075,0.05640877398661254
6101,0.0,298.9578,15746.534,-0.061009991373180084,0.0,0.0,0.0,0.0,-0.00931098730443164,-2.433903139257538,-0.98257882695548,-1.3700711889654986,0.019523926075611483,-0.005462259644533055,0.045388004246697256
6102,0.0,299.70468999999997,15953.153,-0.061020001047877415,0.0,0.0,0.0,0.0,-0.009312514922317355,-2.470135240308368,-0.995453648821126,-1.3837712422425885,-0.0006541336145229614,0.016152064816834684,0.060132723443137734
6103,0.0,299.74159,15908.721000000001,-0.061030010722574746,0.0,0.0,0.0,0.0,-0.009314042540203071,-2.4619049137210975,-0.988996003283806,-1.3849529958342186,-0.00015697403284963088,0.014294894920546287,0.05678086070158465
6104,0.0,299.97972999999996,15827.214,-0.061039987362042414,0.0,0.0,0.0,0.0,-0.009315565116445629,-2.4398931698737076,-0.9647138800698472,-1.4064708815828686,-0.016699497501362084,0.016771777697245586,0.07585900435595083
6105,0.0,300.71428,15819.423,-0.061049997036739745,0.0,0.0,0.0,0.0,-0.009317092734331317,-2.4072333833754374,-0.9843345461987562,-1.4171416210359884,-0.019869983408764683,-0.0005786980767680535,0.07454593760436123
6106,0.0,299.90562,15772.521,-0.0610600067114373,0.0,0.0,0.0,0.0,-0.00931862035221706,-2.4123211147775576,-0.970740245834603,-1.4113911227434588,-0.024564018511029875,-0.0008234808091137282,0.06831073187474433
6107,0.0,299.87708,16031.085,-0.06107001638613463,0.0,0.0,0.0,0.0,-0.009320147970102777,-2.450204002891308,-1.0136473953642091,-1.4091980442270187,0.00991711564214311,0.0016286759192377983,0.06244228113807334
6108,0.0,300.02061000000003,16057.153999999999,-0.0610799930256023,0.0,0.0,0.0,0.0,-0.009321670546345334,-2.4747910231928576,-1.014959858218739,-1.3912230887780286,0.016883902940061483,-0.012852386481931788,0.04048596713740386
6109,0.0,299.50248999999997,15778.965,-0.06109000270029963,0.0,0.0,0.0,0.0,-0.00932319816423105,-2.4448221249851576,-0.992978562536854,-1.3586107223844386,0.017822359983929982,-0.010835703662150689,0.04607810558505496
6110,0.0,300.49372,15826.886999999999,-0.06110001237499718,0.0,0.0,0.0,0.0,-0.009324725782116794,-2.4241905290989774,-1.007106906498713,-1.3796808529138986,-0.0014147035386453686,0.007342165555840323,0.04299764796228746
6111,0.0,300.37012000000004,15943.765,-0.061109989014464516,0.0,0.0,0.0,0.0,-0.009326248358359324,-2.4298274420552977,-1.010137892185348,-1.4065410998147987,-0.0018894417093233784,0.009097044612133402,0.050044941223051156
6112,0.0,300.05199,15950.476,-0.06111999868916207,0.0,0.0,0.0,0.0,-0.009327775976245067,-2.4360580182452076,-1.012491277000109,-1.3999970240439488,-0.01255861994668929,0.015004159858045285,0.056324470565042445
6113,0.0,301.30647999999997,15825.571000000002,-0.06113000836385951,0.0,0.0,0.0,0.0,-0.009329303594130756,-2.439543598589208,-0.9904616290234521,-1.3805732222769687,0.0067041970497027335,0.0022435652225476477,0.04495175042939236
6114,0.0,300.60348999999997,15689.608,-0.06113998500332707,0.0,0.0,0.0,0.0,-0.009330826170373313,-2.4309286422639773,-0.964495372685782,-1.3738249766109687,0.02057591677993488,0.01034058204053599,0.06046603105028265
6115,0.0,299.91714,15845.37,-0.0611499946780244,0.0,0.0,0.0,0.0,-0.009332353788259029,-2.4550404482686274,-0.9925556319451141,-1.3690006902348488,0.004802087383654126,0.007317295838760873,0.03459891414214697
6116,0.0,300.29461000000003,16119.593,-0.06116000435272173,0.0,0.0,0.0,0.0,-0.009333881406144745,-2.4645570958578475,-0.993550836060833,-1.4418457730490986,0.004537986075564356,-0.003427897535682147,0.07522414642629523
6117,0.0,299.29627999999997,16032.665,-0.061170014027419284,0.0,0.0,0.0,0.0,-0.009335409024030489,-2.458473238282418,-0.9975980102727581,-1.4174585656672685,-0.014394490312625588,-0.02205736543314248,0.05602205087394594
6118,0.0,299.94789,15867.663,-0.06117999066688673,0.0,0.0,0.0,0.0,-0.009336931600273018,-2.4380102472128775,-0.985930171926232,-1.3994330490382887,-0.011910167240441989,0.012990833935845488,0.06539778577175893
6119,0.0,300.61981000000003,15901.67,-0.06119000034158428,0.0,0.0,0.0,0.0,-0.009338459218158734,-2.4523250393256375,-1.002128545312387,-1.3792569090720588,-0.008330747170230732,-0.005818304077296905,0.06080034177502654
6120,0.0,300.06964,16094.103000000001,-0.061200010016281614,0.0,0.0,0.0,0.0,-0.00933998683604445,-2.4922748563183776,-1.003862895111054,-1.3960678428061686,0.0031608600314525967,0.007213382582705432,0.06696793129897023
6121,0.0,300.7066,16123.76,-0.06120998665574928,0.0,0.0,0.0,0.0,-0.009341509412287008,-2.4983036944133774,-1.005414424194178,-1.3975023009727385,0.013248542953029387,-0.01129875997110079,0.053696912432222646
6122,0.0,300.48865,15856.919,-0.06121999633044661,0.0,0.0,0.0,0.0,-0.009343037030172724,-2.4422649857077876,-0.9861292046433752,-1.3917134005014187,0.01860275913144938,0.006179521962421334,0.052381639835165354
6123,0.0,299.64381000000003,15672.848999999998,-0.061230006005144166,0.0,0.0,0.0,0.0,-0.009344564648058468,-2.408641091739368,-0.9851833255425241,-1.3703304796660885,0.006423238704999305,-9.749198923646021e-05,0.04276913878648536
6124,0.0,300.03696,15856.508999999998,-0.0612400156798415,0.0,0.0,0.0,0.0,-0.009346092265944184,-2.4271740440184275,-1.005974032091907,-1.3868347025949288,-0.0018731939399948482,0.0048414199286859454,0.032795775807441065
6125,0.0,299.65774,15927.431999999999,-0.061249992319309055,0.0,0.0,0.0,0.0,-0.009347614842186741,-2.4493310879301577,-0.997759836446229,-1.3944506956465685,-0.006312452877490594,-0.014161848089665587,0.044673302209161665
6126,0.0,299.53465,15871.479,-0.0612600019940065,0.0,0.0,0.0,0.0,-0.00934914246007243,-2.4437083604752377,-1.0028022553038771,-1.3780226691252486,-0.008186207854065812,-0.0035029305294373265,0.03738347031171126
6127,0.0,299.89567,15795.813999999998,-0.06127001166870383,0.0,0.0,0.0,0.0,-0.009350670077958145,-2.433550224247708,-0.9925107044356801,-1.3754722172985385,-0.006994944606272284,-0.0007832573537989822,0.052261957773103655
6128,0.0,300.04676,15819.681,-0.061279988308171385,0.0,0.0,0.0,0.0,-0.009352192654200703,-2.4189342942052274,-0.999695042812219,-1.3901586695479788,-0.023280845677140578,-6.136820968757073e-05,0.04569308169280605
6129,0.0,300.36614,16060.927,-0.061289997982868716,0.0,0.0,0.0,0.0,-0.009353720272086419,-2.4577440021854473,-1.009008878261423,-1.4153678254109288,-0.0018029346714357982,-0.006194302950905103,0.05743271995466814
6130,0.0,300.7497,16103.15,-0.06130000765756627,0.0,0.0,0.0,0.0,-0.009355247889972163,-2.4696297298334775,-1.001253451863522,-1.4240722517199886,0.012582363436282589,0.006651714950173154,0.050878113475528855
6131,0.0,300.34312,15875.996000000001,-0.061309984297033715,0.0,0.0,0.0,0.0,-0.009356770466214692,-2.455973043660668,-1.002801464968799,-1.3671319530754187,0.03653958496592626,0.00951165175960194,0.059426506361939545
6132,0.0,300.73663999999997,15822.596000000001,-0.06131999397173127,0.0,0.0,0.0,0.0,-0.009358298084100436,-2.4525024594181475,-0.983195622688853,-1.3739760522008786,0.024267957977560976,0.008514418711882701,0.06018923341446485
6133,0.0,300.50892999999996,16064.402,-0.0613300036464286,0.0,0.0,0.0,0.0,-0.009359825701986124,-2.479260976009008,-0.992559350572981,-1.4113567735650687,0.012789972302271987,-0.01008364147222793,0.06939279989503613
6134,0.0,300.22679,16105.219,-0.06134001332112615,0.0,0.0,0.0,0.0,-0.009361353319871868,-2.482858520489058,-0.998185148175704,-1.4145409120043186,-0.0005913800568746675,-0.009785910393319162,0.05773143013714854
6135,0.0,299.73405,15942.38,-0.0613499899605936,0.0,0.0,0.0,0.0,-0.009362875896114398,-2.4472577755755376,-0.9928576311374191,-1.4059702347084588,0.0024281559846903375,-0.008587451955240522,0.05665676390883725
6136,0.0,300.11144,15864.027,-0.06135999963529115,0.0,0.0,0.0,0.0,-0.009364403514000141,-2.441343130766808,-0.997794104564611,-1.3831308681793886,-0.020838090177059378,0.006515783497582765,0.050589515529046454
6137,0.0,299.92989,15932.48,-0.06137000930998848,0.0,0.0,0.0,0.0,-0.009365931131885857,-2.464953175321938,-0.98923962913785,-1.3888832916471088,-0.008422837216169312,-0.0045594567438583455,0.06150155441398085
6138,0.0,299.32097000000005,16041.748,-0.06137998594945593,0.0,0.0,0.0,0.0,-0.009367453708128387,-2.4726326991548477,-0.9953062006665739,-1.4083517777434986,-0.011478405160830388,0.013739026928936386,0.05419319422520185
6139,0.0,299.94386000000003,16109.292,-0.06138999562415348,0.0,0.0,0.0,0.0,-0.00936898132601413,-2.472323860524368,-1.015743303196059,-1.4087553552583287,0.016121781811095984,0.009405071933258331,0.04772252538434655
6140,0.0,299.7888,15804.188,-0.06140000529885081,0.0,0.0,0.0,0.0,-0.009370508943899819,-2.4237023452007977,-0.9907036640748391,-1.3896724108249887,-0.0023806159111984977,0.005173500996584795,0.03997334668656217
6141,0.0,299.92548,15701.246000000001,-0.061410014973548366,0.0,0.0,0.0,0.0,-0.009372036561785563,-2.4331943708125876,-0.9764343770240701,-1.3631579861832188,-0.006808821100703324,-0.01208945779263659,0.04169118760134986
6142,0.0,300.78508,16018.025,-0.0614199916130157,0.0,0.0,0.0,0.0,-0.009373559138028092,-2.4692426682952773,-1.019363645803359,-1.3804734171421187,-0.006658610117103654,0.001021396326828969,0.034906279506981566
6143,0.0,300.21252999999996,16123.573,-0.061430001287713254,0.0,0.0,0.0,0.0,-0.009375086755913836,-2.4995770458140476,-1.013342812384149,-1.3882437281839886,0.013874739620830186,0.0065464981478640626,0.04849250528108766
6144,0.0,300.11002,15953.329,-0.061440010962410696,0.0,0.0,0.0,0.0,-0.009376614373799552,-2.4442456870032676,-1.013449000994629,-1.3917188720519589,0.014929412398168288,0.009249106803665771,0.045937660001944054
6145,0.0,300.42334,15914.808,-0.06144998760187803,0.0,0.0,0.0,0.0,-0.009378136950042082,-2.4595522483139076,-0.996067181889177,-1.3820847887761487,0.01076796586646549,-0.010359535896906589,0.05445081812937735
6146,0.0,299.48073999999997,16020.696000000002,-0.061459997276575584,0.0,0.0,0.0,0.0,-0.009379664567927826,-2.462254687655618,-0.993353860241393,-1.4142828372038487,0.0019293556572625781,-0.011639807795759589,0.046541874208825364
6147,0.0,299.26746,16179.999,-0.06147000695127314,0.0,0.0,0.0,0.0,-0.009381192185813542,-2.487924163038998,-1.019652523406869,-1.4107390963041087,0.002733369408962557,-0.004608789155452076,0.05329598760615445
6148,0.0,299.86854,16104.736,-0.06147998359074036,0.0,0.0,0.0,0.0,-0.009382714762056071,-2.4789580142291077,-1.00585936257809,-1.4106201407423686,0.009455125373623221,0.0030402926927785272,0.05814030593675145
6149,0.0,299.27052000000003,15888.073,-0.061489993265437914,0.0,0.0,0.0,0.0,-0.009384242379941787,-2.4685131282232775,-0.9846811891904671,-1.3763832304634487,-0.004858048882702095,-0.014817828230905786,0.06414376515649674
6150,0.0,299.92647999999997,15892.401000000002,-0.06150000294013547,0.0,0.0,0.0,0.0,-0.009385769997827531,-2.4549735737620275,-0.989742211319951,-1.3861774072550588,-3.480668006190186e-06,0.0030803306625299667,0.07440409474936242
6151,0.0,300.41897,16037.243999999999,-0.0615100126148328,0.0,0.0,0.0,0.0,-0.009387297615713247,-2.4752420208123675,-0.9848678501238892,-1.4148117537560485,-0.004113733901718926,0.011930594362457988,0.05901662136523705
6152,0.0,300.06739,16176.122,-0.061519989254300245,0.0,0.0,0.0,0.0,-0.009388820191955777,-2.473471264937608,-1.020541549044609,-1.4231245589014587,-0.0011993220311388689,0.017766478227664882,0.06634499830974153
6153,0.0,299.70104,16103.551000000001,-0.0615299989289978,0.0,0.0,0.0,0.0,-0.00939034780984152,-2.4765650214679376,-1.002938892079862,-1.4155736165062387,-0.008720348521131393,-0.0032460232970575567,0.06007782048646924
6154,0.0,299.95136,16014.032,-0.06154000860369535,0.0,0.0,0.0,0.0,-0.009391875427727236,-2.4685489972768178,-1.006554594001704,-1.3927624183299487,0.014998822056518485,-0.0024457132784481074,0.06493970654730004
6155,0.0,300.26277999999996,16054.017,-0.061549985243162575,0.0,0.0,0.0,0.0,-0.009393398003969766,-2.4714162924097978,-1.002762252189929,-1.4058418559207886,0.006412767170515844,0.016586710606230883,0.04642578614486836
6156,0.0,300.78978,16173.518999999998,-0.06155999491786013,0.0,0.0,0.0,0.0,-0.009394925621855482,-2.4671275087115276,-1.0207278857379989,-1.4284903261310185,-0.003030051976667847,0.0053660608694389746,0.06624707376707714
6157,0.0,300.78542999999996,16043.066,-0.06157000459255768,0.0,0.0,0.0,0.0,-0.009396453239741226,-2.4555681489207077,-1.006481488006989,-1.4146418317142786,-0.026663942866276272,-0.013785178444491186,0.03762485992278457
6158,0.0,300.43719,15847.979,-0.061580014267255234,0.0,0.0,0.0,0.0,-0.00939798085762697,-2.426736522625248,-0.9944169318488101,-1.3962364476228089,-0.014822879282654288,0.0027829170348775277,0.04138104694449136
6159,0.0,300.67837000000003,15793.202,-0.06158999090672246,0.0,0.0,0.0,0.0,-0.009399503433869472,-2.439380971948158,-0.9888511693145121,-1.3725070422058987,-0.00944868039371215,0.007417206452946283,0.034866545917560166
6160,0.0,300.77822000000003,15954.552,-0.06160000058142001,0.0,0.0,0.0,0.0,-0.009401031051755215,-2.448326551781018,-1.003455294993327,-1.3980035557972088,-0.001092599235206149,-0.0066549526895426925,0.04259867262941166
6161,0.0,300.21001,16166.23,-0.06161001025611745,0.0,0.0,0.0,0.0,-0.009402558669640931,-2.4860577563547976,-1.019872297353559,-1.4082001955285386,0.013088058322690789,-0.008468535707604403,0.06525257284692754
6162,0.0,299.8151,16182.271,-0.0616199868955849,0.0,0.0,0.0,0.0,-0.009404081245883489,-2.4871742566399875,-1.0113489793673731,-1.4204832185407787,0.025992092188719774,-0.004991241824247215,0.05806855871042054
6163,0.0,299.99315,16061.066,-0.06162999657028223,0.0,0.0,0.0,0.0,-0.009405608863769177,-2.4810863460641577,-0.9942691391892241,-1.4068075845910988,0.024375362488160978,0.024335004736677976,0.07715124577823514
6164,0.0,299.7855,16135.383999999998,-0.061640006244979784,0.0,0.0,0.0,0.0,-0.00940713648165492,-2.4761911321810377,-1.009386465911188,-1.4191761259117786,-0.008251057380340961,0.018795387094710285,0.06324398893519574
6165,0.0,300.13016,16278.413999999999,-0.06165001591967734,0.0,0.0,0.0,0.0,-0.009408664099540665,-2.498053117663648,-1.0257751884611293,-1.4244031792026486,-0.02317856415904618,0.00929354754775173,0.07102809233742693
6166,0.0,299.86725,16203.097,-0.06165999255914456,0.0,0.0,0.0,0.0,-0.009410186675783166,-2.4925315125687075,-0.9985209797888479,-1.4342843941778487,-0.002107937339687218,0.00023903525353844275,0.05931309327824654
6167,0.0,299.7839,16021.786,-0.061670002233842336,0.0,0.0,0.0,0.0,-0.009411714293668938,-2.4756499553026274,-1.004025937184645,-1.3905469469862985,0.007577159126982382,0.010983215651458988,0.058450733343388246
6168,0.0,300.41202000000004,15766.27,-0.06168001190853967,0.0,0.0,0.0,0.0,-0.009413241911554626,-2.4406047754189375,-0.9638301537301301,-1.3881175785465385,0.002200414751139028,-0.01095035899046629,0.05166591542827885
6169,0.0,300.35185,15899.806999999999,-0.06168998854800711,0.0,0.0,0.0,0.0,-0.009414764487797184,-2.448739451196768,-0.9947486699315501,-1.3896563001483986,-0.01056370984505699,-0.006458826176336514,0.05479315176841305
6170,0.0,300.27707000000004,16085.173,-0.061699998222704444,0.0,0.0,0.0,0.0,-0.009416292105682872,-2.453883924604488,-1.019323115799359,-1.4162838035013285,0.004691890862403575,0.0034736875236012674,0.039849277251567464
6171,0.0,300.70634,16088.078000000001,-0.06171000789740222,0.0,0.0,0.0,0.0,-0.009417819723568643,-2.4715923952771774,-1.007985222082896,-1.4107962436097488,0.02010571300477938,0.02276720387019808,0.052377094395216754
6172,0.0,300.40056,15988.187,-0.06171998453686944,0.0,0.0,0.0,0.0,-0.009419342299811145,-2.4684167681387676,-1.002780429896723,-1.3888125667901288,0.015354182038839786,-0.0006771851454904702,0.05249374177322895
6173,0.0,299.70724,16129.733999999999,-0.061729994211566996,0.0,0.0,0.0,0.0,-0.009420869917696889,-2.487159969813577,-1.00815862970501,-1.4077175845059087,0.004108522452479595,-0.014861435475459487,0.06975626081190693
6174,0.0,299.66181,16317.007,-0.06174000388626444,0.0,0.0,0.0,0.0,-0.009422397535582633,-2.494040343292618,-1.029996489702739,-1.4359259606648587,0.004160148963624736,-0.03139123283682347,0.06264564549939385
6175,0.0,299.28767,16224.365,-0.06175001356096188,0.0,0.0,0.0,0.0,-0.009423925153468321,-2.4971010678696874,-1.018964323938949,-1.4157365471223187,0.013703723268952186,0.0024272174111227077,0.06821468285801503
6176,0.0,299.47041,15998.518999999998,-0.061759990200429216,0.0,0.0,0.0,0.0,-0.009425447729710879,-2.4596076730943777,-0.9904294988627811,-1.4131129386383887,0.003803352496636666,-0.006370416964036204,0.056467022695111245
6177,0.0,299.80736,15979.45,-0.06176999987512666,0.0,0.0,0.0,0.0,-0.009426975347596567,-2.476347071371427,-0.988208657293601,-1.3927979834084587,-0.00933518918843644,0.009142347936029492,0.06300490041509953
6178,0.0,300.27401000000003,16072.875,-0.06178000954982432,0.0,0.0,0.0,0.0,-0.009428502965482338,-2.4753233847953977,-0.9921368354137821,-1.4182923691745586,-0.002725371521948227,0.008418351659301621,0.05273717612300405
6179,0.0,300.29599,16084.726,-0.061789986189291546,0.0,0.0,0.0,0.0,-0.00943002554172484,-2.484279198454268,-0.984670570329419,-1.4204054009330986,0.014344918064733186,0.014154417926682287,0.06393392004753663
6180,0.0,300.52567999999997,16036.692,-0.0617999958639891,0.0,0.0,0.0,0.0,-0.009431553159610584,-2.4541398715797476,-0.9954497275432391,-1.4251643326777685,0.006986453570434283,-0.010435668469670291,0.052292914590158855
6181,0.0,300.34987,16028.663999999999,-0.06181000553868665,0.0,0.0,0.0,0.0,-0.009433080777496328,-2.4683626605834275,-0.9876084585968661,-1.4163425720071285,-0.015023086356663187,-0.017322447715842484,0.06484647841884913
6182,0.0,299.80683999999997,16213.841,-0.061820015213384205,0.0,0.0,0.0,0.0,-0.009434608395382044,-2.4782691054861177,-1.014650816938239,-1.4356827806408587,-0.00907127847269048,-0.002056776720938058,0.058767921154692246
6183,0.0,300.23789,16360.958999999999,-0.06182999185285143,0.0,0.0,0.0,0.0,-0.009436130971624573,-2.512263139716068,-1.034715094093429,-1.4263449716942884,0.004753079516067425,0.021519121913771977,0.06492179025903184
6184,0.0,299.84653,16224.041000000001,-0.06184000152754898,0.0,0.0,0.0,0.0,-0.00943765858951029,-2.4942201951853677,-1.009786527448171,-1.4276966473276884,0.01906269969634198,0.0013004412500435588,0.08293661608620671
6185,0.0,299.53366,16016.426000000001,-0.061850011202246535,0.0,0.0,0.0,0.0,-0.009439186207396033,-2.4713299635012773,-0.9983227171417811,-1.3989410147897288,-0.006547142777577683,-0.0067439507014761145,0.05409055502982215
6186,0.0,299.56232,16019.948,-0.06185998784171398,0.0,0.0,0.0,0.0,-0.009440708783638563,-2.4500747121785476,-1.000969559450504,-1.4186199529318886,0.003188494401429897,-0.014085019414083187,0.06124686386884485
6187,0.0,299.9651,16094.583,-0.06186999751641131,0.0,0.0,0.0,0.0,-0.009442236401524279,-2.4709269939365077,-1.016106249381879,-1.4053181069440988,-0.005050222504618155,0.007553069207179893,0.03789982560242157
6188,0.0,299.76678,16139.712,-0.061880007191108866,0.0,0.0,0.0,0.0,-0.009443764019410023,-2.4649569243473075,-1.019649179681539,-1.4214634366875187,-0.01060862114248939,0.005458064687794045,0.04931410317767305
6189,0.0,300.01653,16041.133,-0.0618899838305762,0.0,0.0,0.0,0.0,-0.009445286595652552,-2.4806004926412077,-0.9945780386147102,-1.4009253637855685,-0.03172364777063027,-0.0026622709666706875,0.04254907403701666
6190,0.0,300.12501000000003,16079.486,-0.06189999350527364,0.0,0.0,0.0,0.0,-0.00944681421353824,-2.4679437829920876,-1.019650699556689,-1.4001676553607887,-0.027669883380054872,0.017855230830424083,0.04597921946804566
6191,0.0,300.21877,16223.559,-0.061910003179971196,0.0,0.0,0.0,0.0,-0.009448341831423984,-2.4940283869414377,-1.012053107126865,-1.4254752991334587,-0.012323671566501687,0.02226765738539668,0.05413085097304905
6192,0.0,299.95529,16345.788999999999,-0.06192001285466875,0.0,0.0,0.0,0.0,-0.009449869449309728,-2.498011777059568,-1.0244248300528591,-1.4462750945362386,0.010362108538910491,-0.01857988298394168,0.05535094594846304
6193,0.0,299.9947,16235.587,-0.061929989494136084,0.0,0.0,0.0,0.0,-0.009451392025552258,-2.5049730078965875,-1.0037635966012541,-1.4264762889072486,-0.0048718555298897055,0.0018540770516831582,0.07759808096633433
6194,0.0,300.0783,16129.288999999999,-0.061939999168833415,0.0,0.0,0.0,0.0,-0.009452919643437974,-2.4799421840512377,-0.998050537899919,-1.4249083857025087,0.02845817169285287,0.0045030271232641755,0.07328688012285194
6195,0.0,300.20097999999996,16225.586000000001,-0.06195000884353097,0.0,0.0,0.0,0.0,-0.009454447261323717,-2.5069990014715375,-1.010774993450725,-1.4143991583153288,0.010449741500309188,0.019727164793919585,0.08108375148959322
6196,0.0,299.74495,16323.662,-0.061959985482998414,0.0,0.0,0.0,0.0,-0.009455969837566247,-2.516193131553927,-1.006219218351105,-1.4395733570498286,0.0028135522463509873,-0.008542101515214782,0.07067170086650384
6197,0.0,299.93167,16406.627,-0.06196999515769597,0.0,0.0,0.0,0.0,-0.00945749745545199,-2.5325982586229876,-1.007881313285141,-1.4467252815556686,-0.016003273092650084,-0.015065629688611883,0.07916458689918641
6198,0.0,300.16166,16304.128,-0.0619800048323933,0.0,0.0,0.0,0.0,-0.009459025073337679,-2.4863760182112076,-1.0341305501107392,-1.4355412296018886,-0.0018564799742953081,-0.0036326547105901066,0.035881988690776564
6199,0.0,300.2004,16164.753999999999,-0.06199001450709085,0.0,0.0,0.0,0.0,-0.009460552691223423,-2.479496657982268,-1.0148680577596791,-1.4193169676756787,0.004092147520263516,0.009021455344073321,0.04886008911261536
6200,0.0,300.00402,16182.673,-0.0619999911465583,0.0,0.0,0.0,0.0,-0.009462075267465953,-2.4807528854562477,-1.025429872827049,-1.4129457523718885,-0.001981782332011688,-0.006607765531060683,0.04063576400568766
6201,0.0,300.61478,16199.85,-0.06201000082125563,0.0,0.0,0.0,0.0,-0.009463602885351668,-2.502065892034677,-1.001358566428896,-1.4209252995594088,-0.020331464113809282,0.0016440369934038184,0.062318450830102234
6202,0.0,300.34122,15992.118,-0.06202001049595318,0.0,0.0,0.0,0.0,-0.009465130503237412,-2.463547696108227,-0.9998425314967752,-1.3978143820035387,0.008991981722514501,0.013981933375409386,0.054815071407826356
6203,0.0,300.67215,15969.454,-0.06202998713542063,0.0,0.0,0.0,0.0,-0.009466653079479942,-2.4462621560272777,-1.00921615883438,-1.3988369540044587,0.01184770645127759,0.013693195600413188,0.06708327259760354
6204,0.0,299.74908999999997,16108.313,-0.06203999681011818,0.0,0.0,0.0,0.0,-0.009468180697365658,-2.4658555758609975,-1.013413638566139,-1.4172558143222587,0.003545630104551447,-0.017456164305039285,0.04808948809356295
6205,0.0,299.40412000000003,16364.877,-0.06205000648481551,0.0,0.0,0.0,0.0,-0.009469708315251374,-2.504199087470208,-1.036492638743859,-1.4338223521322486,-0.010033461578250559,-0.02537889247995168,0.06652823749757583
6206,0.0,299.81754,16466.568,-0.062060016159513065,0.0,0.0,0.0,0.0,-0.009471235933137118,-2.5311096929010772,-1.036858624679979,-1.4374570828909685,0.007151786095876333,-0.007865382981527863,0.04930441144046655
6207,0.0,300.13388,16303.568000000001,-0.0620699927989804,0.0,0.0,0.0,0.0,-0.009472758509379647,-2.514559569742708,-1.012040603620631,-1.4292774188086987,0.01857151657786598,-0.0015288509246858385,0.06944420612560953
6208,0.0,299.78794,16077.475,-0.06208000247367795,0.0,0.0,0.0,0.0,-0.009474286127265391,-2.4774862684588577,-1.004568269168169,-1.4050963064972088,-0.0007514206202244412,-0.019976768823553582,0.04648799970100836
6209,0.0,300.10016,16150.589,-0.062090012148375395,0.0,0.0,0.0,0.0,-0.009475813745151107,-2.4874508739172874,-0.9925588642129332,-1.4293661795174588,0.007612899497759682,-0.006680602811849163,0.06621810190696784
6210,0.0,300.39802000000003,16350.993999999999,-0.06209998878784295,0.0,0.0,0.0,0.0,-0.009477336321393665,-2.5087889077731877,-1.016355914206519,-1.4451491710251185,0.015144018769348287,0.00891597965636368,0.04908028153159666
6211,0.0,300.4245,16340.252,-0.06210999846254028,0.0,0.0,0.0,0.0,-0.009478863939279353,-2.5213746899153078,-1.033220448870919,-1.4124333517963186,0.018433855406029882,0.021006602787940278,0.04979815605519536
6212,0.0,300.35167,16133.921,-0.062120008137237614,0.0,0.0,0.0,0.0,-0.009480391557165069,-2.5072043872668077,-0.989542428797734,-1.4075623545905886,-0.01013112085203878,-0.013375694694828289,0.06521943754215734
6213,0.0,300.08726,16171.652,-0.06212998477670528,0.0,0.0,0.0,0.0,-0.009481914133407626,-2.5115524460959273,-1.0108355959392061,-1.3933903294169185,-0.019418695999726083,-0.012490634917979688,0.06469650828479824
6214,0.0,300.64945,16406.564,-0.062139994451402614,0.0,0.0,0.0,0.0,-0.009483441751293342,-2.5123920251287877,-1.013671004091539,-1.4611228562015985,-0.008018288501118461,-0.003157757256996377,0.07346058260074503
6215,0.0,300.13003,16454.516,-0.06215000412610017,0.0,0.0,0.0,0.0,-0.009484969369179086,-2.5119964522897473,-1.030722584724399,-1.4590429577213286,0.01055494523169199,0.01136190875708309,0.06464631390134444
6216,0.0,299.79953,16273.153,-0.0621600138007975,0.0,0.0,0.0,0.0,-0.009486496987064802,-2.4697241647427974,-1.040169622031749,-1.4367381819450187,0.0026290489276919273,-0.005582518752526704,0.06575426134244035
6217,0.0,299.43192,16133.927,-0.062169990440265166,0.0,0.0,0.0,0.0,-0.00948801956330736,-2.491112354478648,-1.0125040439513688,-1.4006944440877787,0.01230314717247609,-0.004144259580856576,0.032939361452611865
6218,0.0,299.6628,16231.978000000001,-0.0621800001149625,0.0,0.0,0.0,0.0,-0.009489547181193048,-2.5077324932189273,-1.0200709956981688,-1.4063124092672286,0.0063694958183702945,0.014330571456567288,0.059318434119523644
6219,0.0,299.87987000000004,16306.923,-0.06219000978966005,0.0,0.0,0.0,0.0,-0.009491074799078791,-2.533303683342608,-1.010020750341287,-1.4135729541837885,0.0003026751922417157,0.012916763327035289,0.03530674938375487
6220,0.0,300.04306,16284.878,-0.062199986429127496,0.0,0.0,0.0,0.0,-0.009492597375321321,-2.4955517071417774,-1.015583209680259,-1.4390613617742987,-0.012855005733440289,-0.009546882262928921,0.054238892817961945
6221,0.0,299.80829,16005.461000000001,-0.06220999610382494,0.0,0.0,0.0,0.0,-0.009494124993207065,-2.460954079827258,-1.0024377689779052,-1.4018688009536786,-0.016183106746898285,-0.015007320185107184,0.03242080234293407
6222,0.0,300.63391,16205.216,-0.06222000577852238,0.0,0.0,0.0,0.0,-0.00949565261109278,-2.4747881860925776,-1.0164061714114792,-1.4347866622524186,-0.014123205770601886,0.004864626598376266,0.06366089980809164
6223,0.0,300.15106000000003,16443.769,-0.06223001545321971,0.0,0.0,0.0,0.0,-0.009497180228978497,-2.5457169089926976,-1.026331969391079,-1.4264460940542687,0.004093924862263926,0.0028868131670062775,0.04752333662668815
6224,0.0,299.65464,16367.712,-0.06223999209268727,0.0,0.0,0.0,0.0,-0.009498702805221054,-2.5226737778685178,-1.019451291937009,-1.4332505751008187,-0.004723075052781215,-0.0046088713300351854,0.08284595249375892
6225,0.0,299.69257999999996,16245.542,-0.06225000176738471,0.0,0.0,0.0,0.0,-0.009500230423106742,-2.5102027969627274,-1.010822099447874,-1.4172143723931685,0.008680417955890554,0.0017462819331696083,0.06998342135182593
6226,0.0,299.59257,16252.493,-0.06226001144208215,0.0,0.0,0.0,0.0,-0.009501758040992486,-2.4858133604306776,-1.010542938912823,-1.4439956871112787,0.015541700181846384,0.018921601580166682,0.07826863772351313
6227,0.0,299.01602,16395.744,-0.0622699880815496,0.0,0.0,0.0,0.0,-0.009503280617235016,-2.5169764752062376,-1.017853903154359,-1.4490663959117185,0.0006213930213292164,0.01059173735607309,0.06821803468934584
6228,0.0,299.11502,16466.332,-0.06227999775624715,0.0,0.0,0.0,0.0,-0.00950480823512076,-2.514192874531518,-1.020010200692169,-1.4711507897912786,-0.014479918441806685,-0.0008347272975386702,0.07309186494235544
6229,0.0,298.89041000000003,16180.027,-0.06229000743094448,0.0,0.0,0.0,0.0,-0.009506335853006476,-2.4988438580416874,-1.014813544904299,-1.4046668911048288,-0.013243854644816687,-0.0009224094522297251,0.03985639634677006
6230,0.0,299.8248,16001.44,-0.06229998407041215,0.0,0.0,0.0,0.0,-0.009507858429249033,-2.4863921288877977,-0.985550061283718,-1.3920959024141686,0.006043484219895454,0.016947789372116585,0.055999314554952044
6231,0.0,300.24786,16249.69,-0.06230999374510948,0.0,0.0,0.0,0.0,-0.009509386047134749,-2.5193127259618078,-0.999392060767317,-1.4207951982465685,-0.009530020869339831,0.00026454349043340976,0.04182705329400876
6232,0.0,299.88016,16399.223,-0.062320003419807035,0.0,0.0,0.0,0.0,-0.009510913665020465,-2.5185386028854078,-1.0308196540839791,-1.4355959451072886,-0.003376230595858017,-0.01973549978924218,0.05015611603727325
6233,0.0,299.72533,16328.941,-0.062330013094504366,0.0,0.0,0.0,0.0,-0.009512441282906181,-2.4906210295051574,-1.040298507444469,-1.4326707933935987,-0.002447621532361438,-0.015366020853008184,0.04278736816903446
6234,0.0,300.54269,16248.713,-0.062339989733972034,0.0,0.0,0.0,0.0,-0.009513963859148739,-2.494837163171258,-1.0310564506323492,-1.4133094078327786,0.007210334523754612,0.0101290266667321,0.059332901304451444
6235,0.0,300.14246,16360.752,-0.062349999408669365,0.0,0.0,0.0,0.0,-0.009515491477034455,-2.5298386719756376,-1.0357031142659392,-1.4077181924559687,0.012633178942047687,0.0007575113172380464,0.061094106283768844
6236,0.0,300.51479,16561.299,-0.062360009083366696,0.0,0.0,0.0,0.0,-0.00951701909492017,-2.5622633844507074,-1.039398741355669,-1.4325593358825988,-0.025270818211035575,0.005373056753429415,0.08037856387049662
6237,0.0,299.38378,16504.732,-0.062369985722834254,0.0,0.0,0.0,0.0,-0.009518541671162728,-2.5241580879400076,-1.051087594509269,-1.4417807223926786,-0.0012175456381623988,0.0015376494819291885,0.07197132888201714
6238,0.0,299.83591,16308.848,-0.062379995397531696,0.0,0.0,0.0,0.0,-0.009520069289048444,-2.4944154484796375,-1.027960768926829,-1.4351063426589685,-0.004419874652482666,0.0004196121166024916,0.06883946097567584
6239,0.0,300.18435,16221.657,-0.06239000507222925,0.0,0.0,0.0,0.0,-0.00952159690693416,-2.4957915434404474,-0.9951955841531571,-1.4399915253660986,0.01917274574995268,-0.0030931887049739574,0.06641527125717694
6240,0.0,299.4552,16336.171999999999,-0.06240001474692658,0.0,0.0,0.0,0.0,-0.009523124524819876,-2.5240700365063176,-1.0158639812829688,-1.4258543559958685,-0.009355355297226682,-0.01042885638924799,0.04900490079040716
6241,0.0,299.35187,16419.493000000002,-0.06240999138639414,0.0,0.0,0.0,0.0,-0.009524647101062433,-2.542677057367688,-1.010597816538239,-1.4378411046788686,0.01085204130676309,1.7541463751457683e-05,0.05854327246177114
6242,0.0,299.86073,16219.861,-0.06242000106109147,0.0,0.0,0.0,0.0,-0.00952617471894815,-2.515030832364218,-1.019238104115969,-1.3961638989156486,0.006681872008924425,0.009505292500649331,0.02701219084614568
6243,0.0,299.07657,16113.492,-0.06243001073578902,0.0,0.0,0.0,0.0,-0.009527702336833893,-2.5013165935857273,-0.9907915635210142,-1.4059911076605187,0.004270906318805636,-0.012140330040407288,0.051092417898179046
6244,0.0,300.48422,16415.707,-0.06243998737525647,0.0,0.0,0.0,0.0,-0.009529224913076423,-2.5412451323263676,-1.015997628971159,-1.4327221651736686,-0.016327096678858982,-0.013678392016452186,0.051269263477882354
6245,0.0,300.14177,16578.525,-0.06244999704995402,0.0,0.0,0.0,0.0,-0.009530752530962167,-2.5408184527092574,-1.0584864480644791,-1.4401528347820185,-0.010185497019980292,-0.0024386357264996076,0.06610074930688603
6246,0.0,299.94311,16462.37,-0.06246000672465135,0.0,0.0,0.0,0.0,-0.009532280148847855,-2.5364414149272774,-1.026063559439589,-1.4416444402542288,0.003215104375556097,0.008722358404029752,0.07338978985600833
6247,0.0,300.55952,16484.035,-0.06247001639934868,0.0,0.0,0.0,0.0,-0.00953380776673357,-2.5429067611653577,-1.040571477021409,-1.4272567954592785,0.00901439967832698,0.008603194619394202,0.08110615748905453
6248,0.0,300.56444,16367.018,-0.06247999303881613,0.0,0.0,0.0,0.0,-0.0095353303429761,-2.5324588354092277,-1.020911891956159,-1.4217940601951486,-0.0030495021229374267,0.0015052915426357085,0.06575913811517163
6249,0.0,300.14302000000004,16330.458,-0.06249000271351368,0.0,0.0,0.0,0.0,-0.009536857960861844,-2.504521503652027,-1.015072734279879,-1.4444573238568386,-0.00042480034214952955,0.003932773006734476,0.05858512475715164
6250,0.0,300.16865,16487.099,-0.06250001238821123,0.0,0.0,0.0,0.0,-0.009538385578747588,-2.5165712764912476,-1.046993557480219,-1.4481015791664986,-0.008295785076855243,0.0017058843609576782,0.04225301755654816
6251,0.0,299.35425,16332.925,-0.06250998902767868,0.0,0.0,0.0,0.0,-0.009539908154990118,-2.5153473716954577,-1.013022625352549,-1.4364312684897287,0.01075940998262109,-0.01125442014672479,0.04015799935828596
6252,0.0,300.25966,16157.363000000001,-0.06251999870237623,0.0,0.0,0.0,0.0,-0.009541435772875861,-2.5176708554997678,-0.9870158491433801,-1.4067483094602486,-0.008288514095462652,-0.014947380362191585,0.05720454920439944
6253,0.0,300.11902000000003,16288.476,-0.06253000837707356,0.0,0.0,0.0,0.0,-0.00954296339076155,-2.5173165219397977,-1.033389053687559,-1.400584506451929,-0.004345210279113866,0.007264356054161123,0.027579972632431372
6254,0.0,299.37019,16454.327,-0.0625399850165409,0.0,0.0,0.0,0.0,-0.009544485967004107,-2.5198515723649875,-1.025428352951899,-1.4564246181379186,-0.004613524377144405,0.0010443111804904891,0.06018314378136385
6255,0.0,299.02853999999996,16560.712,-0.06254999469123845,0.0,0.0,0.0,0.0,-0.009546013584889823,-2.5312891394937878,-1.0473132378867689,-1.4554405496407985,0.004693911587078006,-0.014202143019642384,0.04894829658682075
6256,0.0,299.60305,16487.974,-0.062560004365936,0.0,0.0,0.0,0.0,-0.009547541202775567,-2.528948835737818,-1.028306084560909,-1.4546774709904886,-0.001280428952618499,-0.006704367681019573,0.08047265731453293
6257,0.0,299.52672,16299.848999999998,-0.06257001404063345,0.0,0.0,0.0,0.0,-0.009549068820661283,-2.5193910501945376,-1.0056730258847,-1.4296830228237285,0.00943674896848461,-0.0028337568586450277,0.06983498325192623
6258,0.0,300.22949,16368.835,-0.06257999068010078,0.0,0.0,0.0,0.0,-0.009550591396903813,-2.5150077302619374,-1.039967073336759,-1.4207423065913487,0.012160305252878688,0.024621182028671477,0.07887307889841683
6259,0.0,299.38845,16489.875,-0.06259000035479834,0.0,0.0,0.0,0.0,-0.009552119014789556,-2.5405902687867377,-1.012366920815336,-1.4595530278216686,-0.009118139060665262,-0.007067109291644383,0.07076833148879053
6260,0.0,299.65039,16504.47,-0.06260001002949567,0.0,0.0,0.0,0.0,-0.009553646632675244,-2.5238715408117276,-1.030653886367619,-1.4624211335547286,-0.01098238275987679,-0.011996506281462989,0.05897423103405344
6261,0.0,300.43026000000003,16285.502,-0.06260998666896311,0.0,0.0,0.0,0.0,-0.009555169208917802,-2.497967396705188,-1.014514433474779,-1.4379039261850686,-0.007235714412259414,-0.0026204637609196376,0.04247890545434156
6262,0.0,300.80188,16243.857,-0.06261999634366067,0.0,0.0,0.0,0.0,-0.009556696826803518,-2.4933898367284177,-1.008127776239465,-1.4362093667178288,0.008183402265863924,0.004457901726085646,0.04682214222623565
6263,0.0,299.83369,16399.846,-0.06263000601835822,0.0,0.0,0.0,0.0,-0.009558224444689262,-2.5296526392572773,-1.031454961896679,-1.4240360786914186,0.001150714802641709,-0.017771601220170484,0.04070366594788906
6264,0.0,300.37557000000004,16578.322,-0.06264001569305555,0.0,0.0,0.0,0.0,-0.009559752062574978,-2.563841825456487,-1.0210289223427091,-1.4545250781754486,-7.947008281758653e-05,-0.006109384486524305,0.06863598110384393
6265,0.0,300.55994,16498.275,-0.06264999233252322,0.0,0.0,0.0,0.0,-0.009561274638817535,-2.5449115778132176,-1.030337752336419,-1.4398145105736289,0.006245311278164234,0.02001169352800038,0.056175122566552944
6266,0.0,300.60402999999997,16367.989,-0.06266000200722055,0.0,0.0,0.0,0.0,-0.009562802256703251,-2.497017272086418,-1.038434633885519,-1.4400080413427288,-0.0015708329160791386,0.00957371140305175,0.06816683516179284
6267,0.0,300.1229,16478.843999999997,-0.0626700116819181,0.0,0.0,0.0,0.0,-0.009564329874588967,-2.507198409091218,-1.0326951800190791,-1.4692636114800286,0.0019346324611333578,-0.009964255785820482,0.07425653311079923
6268,0.0,300.4268,16717.648,-0.06267998832138533,0.0,0.0,0.0,0.0,-0.009565852450831469,-2.5494901510400876,-1.050404461291849,-1.4818529399974987,-1.6729122907785883e-05,-0.014995708338961185,0.07709316425600292
6269,0.0,299.76897,16637.535,-0.06268999799608299,0.0,0.0,0.0,0.0,-0.00956738006871724,-2.5576271572931475,-1.031106403862279,-1.4686617409206286,0.017885262550137983,-0.00018429504510100484,0.057772430289194945
6270,0.0,301.19245,16289.366000000002,-0.06270000767078043,0.0,0.0,0.0,0.0,-0.009568907686602957,-2.5227086336719577,-1.008063211943093,-1.4207886121209186,0.00960973852360735,-0.0004136330189549006,0.05894301178522235
6271,0.0,300.34538,16132.788,-0.06270998431024777,0.0,0.0,0.0,0.0,-0.009570430262845486,-2.4850871640840078,-1.0039016924573831,-1.4149757989472385,-0.0016055131232768085,-0.007789658951204483,0.04229417070935966
6272,0.0,300.44856,16456.05,-0.06271999398494532,0.0,0.0,0.0,0.0,-0.00957195788073123,-2.5420849140092474,-1.009532505648101,-1.4506107917141384,-0.0008871092170308631,-0.008185727472193403,0.04660214536452365
6273,0.0,300.21314,16617.416,-0.06273000365964265,0.0,0.0,0.0,0.0,-0.009573485498616946,-2.5396057949895776,-1.043318398042509,-1.4683553340903885,-0.005667966234784714,0.013423543404300587,0.051586184804410046
6274,0.0,299.92136,16365.54,-0.0627400133343402,0.0,0.0,0.0,0.0,-0.009575013116502662,-2.5278464196290176,-1.0137627032255891,-1.4331063896115885,-0.0033539692885109973,0.012299009059067688,0.05912364692029965
6275,0.0,299.74082999999996,16416.791,-0.06274998997380743,0.0,0.0,0.0,0.0,-0.009576535692745164,-2.532502303838518,-1.0237207225583689,-1.4340714090068287,-0.017818825767581183,-0.01015605703832479,0.08073623912929642
6276,0.0,300.27123,16707.223,-0.0627599996485052,0.0,0.0,0.0,0.0,-0.009578063310630935,-2.576094754940758,-1.050856066861419,-1.4516277908395088,0.006489906001953854,-0.0036587995015953966,0.07688139701160313
6277,0.0,299.66047000000003,16822.666,-0.06277000932320254,0.0,0.0,0.0,0.0,-0.009579590928516651,-2.5638829634105478,-1.056757235443819,-1.4930303045006186,0.012609998819509988,0.007883562005546992,0.07407676430455742
6278,0.0,300.09281,16659.053,-0.06277998596266998,0.0,0.0,0.0,0.0,-0.009581113504759181,-2.5359763331313774,-1.058846354499999,-1.4691133464901986,0.01040036176993579,-0.0056873531542480545,0.06667492774105303
6279,0.0,299.85756000000003,16362.121000000001,-0.06278999563736753,0.0,0.0,0.0,0.0,-0.009582641122644925,-2.4925788313483777,-1.022933021930629,-1.4581644698846286,0.004533770549848316,-0.010985686968452889,0.06780332763541744
6280,0.0,300.61492999999996,16249.086000000001,-0.06280000531206509,0.0,0.0,0.0,0.0,-0.009584168740530669,-2.517620091669758,-1.00306562940237,-1.4186307947079586,0.0008691188500478523,-0.010275772537639791,0.06319403469201564
6281,0.0,301.09575,16386.473,-0.06281001498676242,0.0,0.0,0.0,0.0,-0.009585696358416357,-2.5358492715688374,-1.0196456333061892,-1.4255836155691488,0.007725482729620783,0.013523148928880886,0.05240569844553975
6282,0.0,300.50462999999996,16438.166,-0.06281999162622987,0.0,0.0,0.0,0.0,-0.009587218934658887,-2.5347092638813273,-1.021414869305799,-1.4406678698078486,-0.02959557026135537,0.0003680997987436217,0.04445168617378986
6283,0.0,300.36552,16394.142,-0.06283000130092742,0.0,0.0,0.0,0.0,-0.00958874655254463,-2.5055984871833177,-1.033062584505339,-1.4447488359106089,-0.012641984085416688,-0.003989853235217855,0.04351810894240296
6284,0.0,300.94917000000004,16491.852,-0.06284001097562475,0.0,0.0,0.0,0.0,-0.009590274170430346,-2.532530370866288,-1.036257058095609,-1.4443236761686487,-0.02157205409899598,-0.005962742980376914,0.04245937201891376
6285,0.0,300.50837,16665.841,-0.0628499876150922,0.0,0.0,0.0,0.0,-0.009591796746672876,-2.5583929717187277,-1.0445863792176489,-1.4630200656888384,0.006681343193697234,0.023493160076594376,0.060360696609636943
6286,0.0,299.98712,16712.695,-0.06285999728978964,0.0,0.0,0.0,0.0,-0.00959332436455862,-2.5728265167432074,-1.057978708439369,-1.4494367388232685,-0.003921574667954286,0.008555902893501872,0.07234489696863543
6287,0.0,299.51538,16607.564,-0.06287000696448719,0.0,0.0,0.0,0.0,-0.009594851982444363,-2.5617619269762177,-1.025209085630259,-1.4613137525204385,0.003989550273437956,0.004953036925251685,0.09347815095282522
6288,0.0,300.03403,16497.464,-0.06287998360395441,0.0,0.0,0.0,0.0,-0.009596374558686865,-2.5403553974135575,-1.020308400196599,-1.4541534180387687,0.012564103656230488,-0.0035206896626150167,0.08352348041162572
6289,0.0,300.05708,16546.497,-0.06288999327865197,0.0,0.0,0.0,0.0,-0.009597902176572581,-2.5329391159566272,-1.024237784084399,-1.4725450219288787,0.01061594795396249,0.0045561584121328255,0.07668815400553153
6290,0.0,299.84249,16481.767,-0.06290000295334952,0.0,0.0,0.0,0.0,-0.009599429794458325,-2.5249178228649876,-1.023671174628479,-1.4614566207845385,-0.005895704327260714,-0.003503513857519897,0.06306375606040814
6291,0.0,299.63498,16427.266,-0.06291001262804707,0.0,0.0,0.0,0.0,-0.009600957412344069,-2.5196822582732774,-1.030466131124089,-1.4433301844455986,-0.02958190759700697,-0.013191341945134088,0.06510787566639703
6292,0.0,300.07388,16585.838,-0.0629199892675143,0.0,0.0,0.0,0.0,-0.00960247998858657,-2.5625638131053576,-1.032713114545849,-1.4464038786239486,-0.003345051573055887,-0.0008490813530928052,0.05321543624970465
6293,0.0,300.48012,16626.956000000002,-0.06292999894221185,0.0,0.0,0.0,0.0,-0.009604007606472315,-2.5564727614542178,-1.0394198169577489,-1.4582868704967087,-0.0023332803115768378,0.006537556722356614,0.05498640490698565
6294,0.0,300.46621,16605.811,-0.0629400086169094,0.0,0.0,0.0,0.0,-0.009605535224358058,-2.5519421149570776,-1.041169801205459,-1.4546399807367885,-0.002902139891993907,-0.009548603268223772,0.043565929280872454
6295,0.0,300.1344,16645.277,-0.06294998525637685,0.0,0.0,0.0,0.0,-0.009607057800600588,-2.5393945323437275,-1.037712591864259,-1.4826415525503287,-0.007153727077767894,-0.010618304773695091,0.06494797568136614
6296,0.0,300.08688,16702.188000000002,-0.06295999493107418,0.0,0.0,0.0,0.0,-0.009608585418486276,-2.5606123947377677,-1.050541351380359,-1.4658944535725187,0.004210170993236526,-0.0045231369966738655,0.06721301015365763
6297,0.0,300.20212000000004,16594.318,-0.06297000460577173,0.0,0.0,0.0,0.0,-0.00961011303637202,-2.5459233080380677,-1.033576403631049,-1.4647586002104185,0.005341227933338155,0.002679947418640217,0.06655000920247453
6298,0.0,299.80815,16427.596,-0.06298001428046929,0.0,0.0,0.0,0.0,-0.009611640654257764,-2.5314683834364775,-1.0161436383105689,-1.4459670665058386,0.005899997467934415,-0.006744275245483144,0.08064653103169292
6299,0.0,299.78516,16414.655,-0.06298999091993651,0.0,0.0,0.0,0.0,-0.009613163230500266,-2.5240525072795874,-1.033088929007939,-1.4325040124271387,-0.001956622116128568,-0.0018751134409842884,0.07610389981237013
6300,0.0,299.92962,16615.606,-0.06300000059463406,0.0,0.0,0.0,0.0,-0.00961469084838601,-2.5391270343173273,-1.037939965186699,-1.4736622314891386,0.007423753568467432,0.0005049198210092065,0.061365345229538036
6301,0.0,299.71247999999997,16605.393,-0.06301001026933162,0.0,0.0,0.0,0.0,-0.009616218466271753,-2.544802653427468,-1.0264751416302091,-1.4763470402791086,0.004832602524990736,-0.002162150374362628,0.04493117537286175
6302,0.0,299.54524,16557.823,-0.06301998690879895,0.0,0.0,0.0,0.0,-0.009617741042514283,-2.545198327591518,-1.041584220496359,-1.4463821950718088,0.010653767513944989,-0.014760877495785186,0.043330354712123056
6303,0.0,299.59591,16563.036,-0.0630299965834964,0.0,0.0,0.0,0.0,-0.009619268660399971,-2.546061515351708,-1.028094315290009,-1.4605934330243486,-0.008553495917889321,-0.010868134758101389,0.05357887588832336
6304,0.0,299.9859,16603.323,-0.06304000625819395,0.0,0.0,0.0,0.0,-0.009620796278285715,-2.5774889870783575,-1.025468376330849,-1.4440383449404885,0.014679516552505486,0.00047478033201467054,0.05379417228282145
6305,0.0,300.36244,16771.891,-0.06305001593289139,0.0,0.0,0.0,0.0,-0.009622323896171459,-2.578624941765468,-1.037746535742609,-1.4818644910486385,0.00020086652757148282,0.007920672999734563,0.08294673034870492
6306,0.0,300.47828,16665.484,-0.06305999257235884,0.0,0.0,0.0,0.0,-0.009623846472413988,-2.5599674610491174,-1.038819364948489,-1.4671041728669088,0.006025791555924324,-0.008207813183298092,0.06716103346327794
6307,0.0,299.94205,16534.766,-0.06307000224705617,0.0,0.0,0.0,0.0,-0.009625374090299704,-2.515415766077208,-1.048455272074479,-1.4622848514162787,-0.014953667579062085,-0.014308240437613385,0.08084941511246602
6308,0.0,300.4621,16714.982,-0.06308001192175372,0.0,0.0,0.0,0.0,-0.009626901708185448,-2.5693680915018873,-1.0473371505891291,-1.4642317101584186,0.006910816780944514,0.01123320167638069,0.05597681128348115
6309,0.0,299.81149,16791.183999999997,-0.06308998856122117,0.0,0.0,0.0,0.0,-0.009628424284427978,-2.5694166261816775,-1.0640246704610592,-1.4706592621677685,-0.0015152919158226688,0.01978091872497468,0.06558147382938753
6310,0.0,298.91535,16540.487,-0.0630999982359185,0.0,0.0,0.0,0.0,-0.009629951902313666,-2.5706311077515376,-1.031612623612239,-1.4256510980258086,0.004427128003323516,0.0026415225430479776,0.05255962025498065
6311,0.0,299.67519,16487.962,-0.06311000791061605,0.0,0.0,0.0,0.0,-0.00963147952019941,-2.5302845020196374,-1.018015921845349,-1.4636284210488786,-0.007583952158302804,-0.00977884429109679,0.07718719690503323
6312,0.0,299.54798,16467.22,-0.0631199845500835,0.0,0.0,0.0,0.0,-0.00963300209644194,-2.5188435911655076,-1.038342529451429,-1.4484375728996586,0.008351424868996461,-0.003937040106880606,0.03220894086627497
6313,0.0,299.82298,16506.824,-0.06312999422478105,0.0,0.0,0.0,0.0,-0.009634529714327683,-2.5374337920752175,-1.014728229245879,-1.4655005019336385,0.01825616578899328,-0.003490568979542337,0.05957602357319574
6314,0.0,300.08288999999996,16586.898999999998,-0.06314000389947838,0.0,0.0,0.0,0.0,-0.009636057332213399,-2.5569432134756473,-1.036426878812369,-1.4486330288439486,-0.0006125651304954714,-0.014401455393812988,0.043196863064448456
6315,0.0,300.08297999999996,16534.171000000002,-0.06315001357417593,0.0,0.0,0.0,0.0,-0.009637584950099143,-2.5644064084122076,-1.026788641211149,-1.4347801774517785,-0.0007527456879102153,-0.016521219186017382,0.06601363715603874
6316,0.0,300.26086000000004,16575.193,-0.06315999021364338,0.0,0.0,0.0,0.0,-0.009639107526341673,-2.5769924945293576,-1.020300902145859,-1.4411514940805787,-0.0053200234458454345,0.008659099376436571,0.07253606179875192
6317,0.0,300.15422,16737.53,-0.06316999988834093,0.0,0.0,0.0,0.0,-0.009640635144227389,-2.568207818812377,-1.053481093895489,-1.4661022711680285,0.0016424510543472984,0.02900910009022527,0.07385392223656463
6318,0.0,299.81723,16793.426,-0.06318000956303826,0.0,0.0,0.0,0.0,-0.009642162762113105,-2.5773774282423476,-1.0509071346664591,-1.4764975079189586,-0.01153081450900279,-0.0001211462185887009,0.07021494190692523
6319,0.0,300.26518,16751.354,-0.06318998620250582,0.0,0.0,0.0,0.0,-0.009643685338355662,-2.565311139426498,-1.0476457865695892,-1.4790362060445086,-0.006322136610021304,0.011245919991635888,0.059768477257439445
6320,0.0,299.89145,16664.965,-0.06319999587720315,0.0,0.0,0.0,0.0,-0.009645212956241378,-2.5680842023001773,-1.0455625443639889,-1.4520862865097586,-0.0037717400054417564,0.010801631101037991,0.04986486945502945
6321,0.0,299.77067999999997,16646.305,-0.0632100055519006,0.0,0.0,0.0,0.0,-0.009646740574127094,-2.5729545915558476,-1.0333017115289391,-1.4538049613293786,0.017319826437833783,0.01939099779499248,0.05655900553918925
6322,0.0,299.78021,16602.113999999998,-0.06322001522659815,0.0,0.0,0.0,0.0,-0.009648268192012838,-2.567482230415768,-1.033538508077309,-1.4456073627203385,-0.009095163411997741,-0.009160275977998851,0.06267147932394344
6323,0.0,299.56497,16597.02,-0.06322999186606548,0.0,0.0,0.0,0.0,-0.009649790768255367,-2.5448782418849274,-1.033645811262899,-1.4665557005877787,-0.006032518624663234,-0.00955287695449555,0.05281922810285195
6324,0.0,299.90891,16656.32,-0.06324000154076304,0.0,0.0,0.0,0.0,-0.009651318386141083,-2.5486462150317974,-1.036677759537129,-1.4777813971206686,-0.01310390352775459,0.006378895334247953,0.05721043618748045
6325,0.0,299.59394,16692.526,-0.06325001121546037,0.0,0.0,0.0,0.0,-0.0096528460040268,-2.5401483904181275,-1.0671819577726591,-1.4667808447599986,-0.0005926517668101754,0.013530020791059088,0.04693265842789276
6326,0.0,299.67408,16765.543,-0.06325998785492803,0.0,0.0,0.0,0.0,-0.009654368580269357,-2.5817070459196474,-1.045942107851449,-1.4686572826201885,-0.008035477073164841,-0.012994002368908186,0.06299776206814504
6327,0.0,300.66409,16838.678,-0.06326999752962537,0.0,0.0,0.0,0.0,-0.009655896198155073,-2.5952823681094275,-1.058362628902259,-1.4648927545236587,-1.1537821133444288e-05,-0.01052117664560929,0.07318937607897903
6328,0.0,300.5554,16841.799,-0.06328000720432292,0.0,0.0,0.0,0.0,-0.009657423816040817,-2.5809449805194373,-1.072085581631609,-1.4664557941279186,0.01998727622709058,0.014436409482512687,0.07029617112769193
6329,0.0,300.42965,16705.304,-0.06328998384379037,0.0,0.0,0.0,0.0,-0.009658946392283346,-2.5649209368129875,-1.042423394229179,-1.4706509535169485,0.005576807163038015,0.0022200554897524177,0.06760776732636714
6330,0.0,300.48511,16693.718999999997,-0.06329999351848792,0.0,0.0,0.0,0.0,-0.00966047401016909,-2.556004031957958,-1.054721514667909,-1.4637480858856886,-0.0007655068535121443,-0.0031698665076164666,0.05470391685860625
6331,0.0,300.37707,16607.223,-0.06331000319318525,0.0,0.0,0.0,0.0,-0.009662001628054778,-2.552563135943368,-1.0258673942202292,-1.4697504781530788,-0.01927894347968358,-0.00033353845591518265,0.05229796260215705
6332,0.0,300.0041,16611.008,-0.06332001286788258,0.0,0.0,0.0,0.0,-0.009663529245940494,-2.5708562519237574,-1.0196489770315191,-1.4588265274999686,0.004490182354396495,0.026312561917097677,0.06838951207001934
6333,0.0,300.1296,16769.843,-0.06332998950735014,0.0,0.0,0.0,0.0,-0.009665051822183052,-2.5862767025456375,-1.048472294676159,-1.4628646331234987,-0.003346563747505127,0.01096808073471529,0.05101456077374516
6334,0.0,299.95183,16788.377,-0.06333999918204758,0.0,0.0,0.0,0.0,-0.009666579440068768,-2.593221924031077,-1.0283470198649491,-1.4816786609802985,0.0014545294351508786,-0.010858775366927689,0.08226078333575722
6335,0.0,300.70792,16802.436,-0.06335000885674513,0.0,0.0,0.0,0.0,-0.009668107057954511,-2.5679378889857376,-1.061343104071409,-1.4782398927909184,0.0030281018755253875,-0.015315458659768086,0.054411682357514944
6336,0.0,300.2907,16965.343999999997,-0.06335998549621247,0.0,0.0,0.0,0.0,-0.009669629634197041,-2.5882487912152676,-1.061958552182149,-1.5068337092879087,0.019589698166102683,0.0055437215075227145,0.08301315699876072
6337,0.0,300.084,16919.943,-0.06336999517091002,0.0,0.0,0.0,0.0,-0.009671157252082785,-2.581868760635608,-1.068431193820949,-1.4929403278917386,-0.0023971504303053276,0.005843336218367385,0.05427388034391494
6338,0.0,299.985,16705.868000000002,-0.06338000484560735,0.0,0.0,0.0,0.0,-0.009672684869968473,-2.5875733586986076,-1.035600066730769,-1.4549931997216488,-0.001859762195344238,-0.015773696964492687,0.08284175257209442
6339,0.0,300.89771,16574.512,-0.0633900145203049,0.0,0.0,0.0,0.0,-0.009674212487854217,-2.5611172972625975,-1.023683840254729,-1.4534366449180287,-0.006007666335485505,-0.007126906550270913,0.06772013777570723
6340,0.0,300.36246,16546.753,-0.06339999115977235,0.0,0.0,0.0,0.0,-0.009675735064096747,-2.555131522296848,-1.033909256288899,-1.4407591636418589,0.0037276193470623864,0.006204315280443244,0.06920158642891483
6341,0.0,300.30152000000004,16704.624,-0.0634100008344699,0.0,0.0,0.0,0.0,-0.00967726268198249,-2.5472190522659477,-1.0581259336788988,-1.4724437982438885,0.005459289200539895,-0.006908449727385905,0.042614461092469864
6342,0.0,299.78827,16802.265,-0.06342001050916724,0.0,0.0,0.0,0.0,-0.009678790299868206,-2.5712375379363874,-1.041794267242089,-1.4944372022644685,-0.008311337553965152,0.0034180761024628463,0.05588892602280754
6343,0.0,299.83436,16683.273,-0.0634299871486349,0.0,0.0,0.0,0.0,-0.009680312876110764,-2.5530716861685576,-1.061918630128209,-1.4563079930514087,0.0038944023400225864,0.005606206006739454,0.044398852273825555
6344,0.0,300.02123,16743.238,-0.06343999682333223,0.0,0.0,0.0,0.0,-0.00968184049399648,-2.5899703031351677,-1.031810106056729,-1.4677459654802485,0.013311203352463488,0.023333500231837178,0.07602148407573633
6345,0.0,299.83715,16975.865,-0.06345000649802957,0.0,0.0,0.0,0.0,-0.009683368111882168,-2.6182135350975577,-1.063906728149419,-1.4781189107289787,-0.006937947565622113,0.003696814314872166,0.06357618095398053
6346,0.0,299.59875,16954.448,-0.06346001617272712,0.0,0.0,0.0,0.0,-0.009684895729767912,-2.6181103862373774,-1.071415012715429,-1.4642033391556186,-0.009191722904127422,-0.018301302027947882,0.06904510413647123
6347,0.0,300.54965,16745.523999999998,-0.06346999281219456,0.0,0.0,0.0,0.0,-0.009686418306010441,-2.570034607417668,-1.0354449381404591,-1.4847417160325986,0.0005892653633859635,-0.011969795995576888,0.06861420433269473
6348,0.0,300.35127,16679.216,-0.06348000248689212,0.0,0.0,0.0,0.0,-0.009687945923896185,-2.5657933451490873,-1.046860821717119,-1.4574110171102685,0.004746605759853515,0.006955628374567072,0.06899483578576013
6349,0.0,300.16616,16784.971,-0.06349001216158945,0.0,0.0,0.0,0.0,-0.009689473541781901,-2.5825020419481075,-1.045850510042409,-1.4738595112836086,0.005451527907423915,0.004441412600583295,0.05518095196593595
6350,0.0,300.18209,16761.601000000002,-0.063499988801057,0.0,0.0,0.0,0.0,-0.009690996118024459,-2.6011255787861076,-1.030313535659029,-1.4636689510528786,-0.015426488579225886,0.006466772286270734,0.06759394659500313
6351,0.0,300.1603,16623.088,-0.06350999847575445,0.0,0.0,0.0,0.0,-0.009692523735910175,-2.5671965952125775,-1.050669324867989,-1.4351377534120686,0.01916564995950238,0.014369063814616187,0.03436531439784247
6352,0.0,300.62435,16656.168,-0.06352000815045189,0.0,0.0,0.0,0.0,-0.00969405135379589,-2.577476422777118,-1.027507339507079,-1.4580753038758287,0.0019360772544509482,0.011887540352458887,0.07069662681896384
6353,0.0,300.74897000000004,16765.262,-0.06352998478991934,0.0,0.0,0.0,0.0,-0.009695573930038448,-2.562984919846918,-1.069489533550399,-1.4637464646855285,0.017342172655539185,-0.012273029326503686,0.029620503306566074
6354,0.0,300.16024,16846.94,-0.06353999446461689,0.0,0.0,0.0,0.0,-0.009697101547924164,-2.5888928129788273,-1.042851897696469,-1.4893044825579087,-0.014849111314493185,-0.022777755856739478,0.07179023778439483
6355,0.0,299.99175,16878.788,-0.06355000413931422,0.0,0.0,0.0,0.0,-0.00969862916580988,-2.576339454839908,-1.056962215939049,-1.4974284178846786,0.008575753780186001,-0.0002802267477337268,0.06233767826399984
6356,0.0,299.35022000000004,16753.984,-0.06356001381401166,0.0,0.0,0.0,0.0,-0.009700156783695596,-2.5826053934583078,-1.043957049580539,-1.4662302446556588,-0.004806650352829456,0.0029839067432636673,0.08570991200740972
6357,0.0,299.8785,16827.509,-0.06356999045347922,0.0,0.0,0.0,0.0,-0.009701679359938153,-2.598646257116418,-1.047285069533989,-1.4692112264498587,-0.0012521223925248588,-0.0006454402123749894,0.06221006751990565
6358,0.0,299.86441,16948.685,-0.06358000012817655,0.0,0.0,0.0,0.0,-0.00970320697782387,-2.606102865927327,-1.066904833870309,-1.4789694328629186,-0.010361113527312291,-0.015060262502832185,0.07938615429855343
6359,0.0,299.64636,16750.348,-0.0635900098028741,0.0,0.0,0.0,0.0,-0.009704734595709585,-2.5609616620472373,-1.053593767306609,-1.4771321064565885,0.012818005892788687,-0.002863503753755817,0.06024124050234754
6360,0.0,299.57681,16594.098,-0.06359998644234155,0.0,0.0,0.0,0.0,-0.009706257171952143,-2.5482031207630675,-1.024089950894809,-1.4718984670400685,0.0029060585354306473,0.016928998649012084,0.06977559970331552
6361,0.0,300.24123,16663.299,-0.0636099961170391,0.0,0.0,0.0,0.0,-0.009707784789837859,-2.5541062145206577,-1.045462536579119,-1.4656580623241886,0.007221409853972663,-0.0068091943820401644,0.037885224668480565
6362,0.0,300.49802,16775.546000000002,-0.06362000579173643,0.0,0.0,0.0,0.0,-0.009709312407723575,-2.5863485419777272,-1.0400981878996989,-1.4729004700639587,-0.016681983473383583,-0.008143062550232701,0.05386758529231674
6363,0.0,300.64062,16731.505,-0.06363001546643399,0.0,0.0,0.0,0.0,-0.009710840025609319,-2.5787278879756275,-1.0422186163839688,-1.4650134326105686,-0.015806951832774682,0.008976174210354423,0.05320772642969375
6364,0.0,300.02962,16874.542,-0.06363999210590143,0.0,0.0,0.0,0.0,-0.009712362601851848,-2.5705155972401377,-1.0748672571311388,-1.4840565563149786,0.013683549459461188,0.007698107143719024,0.07103357908671842
6365,0.0,299.55076,16933.471999999998,-0.06365000178059887,0.0,0.0,0.0,0.0,-0.009713890219737592,-2.5887083001356177,-1.050801756656059,-1.5078425010874685,-0.007961604352099173,-0.0006499931807718324,0.08055377406453851
6366,0.0,299.63136000000003,16967.982,-0.06366001145529632,0.0,0.0,0.0,0.0,-0.00971541783762328,-2.586593444526897,-1.056285162222229,-1.5149641294153184,0.004613873239153836,-0.01136073743996749,0.08262633864058472
6367,0.0,299.60682,16892.843,-0.06366998809476387,0.0,0.0,0.0,0.0,-0.009716940413865865,-2.5859048397589377,-1.050102512762049,-1.4989950038642883,0.013708165357390587,-0.0016718092667197286,0.06989032190613774
6368,0.0,299.6235,16805.015,-0.0636799977694612,0.0,0.0,0.0,0.0,-0.009718468031751554,-2.5938399052670675,-1.0326586016904689,-1.4818064318179087,0.006078784029529275,0.01021532304992389,0.07621630572546373
6369,0.0,299.63311,16761.976000000002,-0.06369000744415865,0.0,0.0,0.0,0.0,-0.00971999564963727,-2.5830883084559675,-1.0591583342057889,-1.4529755147975187,-0.011901394521076188,-0.016941070510703482,0.04680706101174725
6370,0.0,300.59024,16804.759,-0.0636999840836262,0.0,0.0,0.0,0.0,-0.009721518225879827,-2.5860299761462877,-1.042257525187809,-1.4799396198336685,-0.0031563391121564167,-0.0008981329728188233,0.06720839378620204
6371,0.0,300.24577,16760.424,-0.06370999375832354,0.0,0.0,0.0,0.0,-0.009723045843765543,-2.5677477019419674,-1.052526713626299,-1.4744758713194386,-0.0025739699694810577,0.016762882374617684,0.04983398356548125
6372,0.0,299.85677999999996,16646.662,-0.06372000343302109,0.0,0.0,0.0,0.0,-0.009724573461651287,-2.5542355052334176,-1.041559497193919,-1.4643745784225186,0.01953247790645548,0.00097708478226326,0.054425512208129856
6373,0.0,299.61214,16860.261000000002,-0.06373001310771842,0.0,0.0,0.0,0.0,-0.009726101079536975,-2.5931716668261178,-1.0471474701704089,-1.4847791049612884,-0.017895530826651383,-0.011330691534752189,0.04989426384043045
6374,0.0,300.35022999999995,17078.877,-0.06373998974718609,0.0,0.0,0.0,0.0,-0.00972762365577956,-2.6401561752881273,-1.067980702826489,-1.4834153716516987,-0.0025556672276247174,-0.01045405490598489,0.06497585323136744
6375,0.0,300.76883,17025.796000000002,-0.06374999942188342,0.0,0.0,0.0,0.0,-0.009729151273665249,-2.6283267843456577,-1.050487649125059,-1.4966023150781487,-0.006110746801283755,0.01657963305428238,0.07709183284537152
6376,0.0,300.76648,16826.787,-0.06376000909658097,0.0,0.0,0.0,0.0,-0.009730678891550992,-2.5896769672312177,-1.044850634843729,-1.4803954810536588,-0.00012958865895190488,0.017290415840431183,0.07431104697942933
6377,0.0,300.24441,16812.601000000002,-0.06376998573604842,0.0,0.0,0.0,0.0,-0.009732201467793522,-2.5780883245125077,-1.052665630215009,-1.4798569386255087,-0.012591061175140987,-0.000953499471143071,0.07870365841544633
6378,0.0,300.41412,17063.578999999998,-0.06377999541074597,0.0,0.0,0.0,0.0,-0.009733729085679266,-2.6131334030711875,-1.054831148328729,-1.5189373870324487,-0.007851614736519043,-0.002109265203943268,0.07895845535184283
6379,0.0,300.37327,17026.099,-0.0637900050854433,0.0,0.0,0.0,0.0,-0.009735256703564982,-2.6256447113309576,-1.069698465721019,-1.4801657772559884,0.016441350760134983,0.006687321774587273,0.06510484604859804
6380,0.0,300.00569,16796.569,-0.06380001476014063,0.0,0.0,0.0,0.0,-0.00973678432145067,-2.6058758979049275,-1.054080836629679,-1.4457809324624686,0.017355632669867584,-0.0076284632219457025,0.04477888793583216
6381,0.0,299.48066,16764.601000000002,-0.06380999139960819,0.0,0.0,0.0,0.0,-0.009738306897693227,-2.5865761179501874,-1.055783198122689,-1.4536607758401485,-0.0028596617120266376,-0.01074967974191079,0.050782097896052855
6382,0.0,299.88334,16906.366,-0.06382000107430563,0.0,0.0,0.0,0.0,-0.009739834515578943,-2.6024977220715275,-1.075786274971839,-1.4608292163226184,-0.004694867183247316,-0.01115604268126569,0.04620571328939886
6383,0.0,300.8895,16935.07,-0.06383001074900319,0.0,0.0,0.0,0.0,-0.009741362133464687,-2.5902005135578876,-1.054817165477349,-1.5028207322668587,0.00924396861240867,0.027759718133920874,0.06445964182217134
6384,0.0,300.07253,16836.259,-0.06383998738847052,0.0,0.0,0.0,0.0,-0.009742884709707217,-2.578740046976827,-1.0636517944242592,-1.4754105945366887,-0.008046850197587283,0.0028236633677738775,0.06999417598838734
6385,0.0,299.89932999999996,16875.295,-0.06384999706316807,0.0,0.0,0.0,0.0,-0.00974441232759296,-2.5842689474724874,-1.062876759422769,-1.4825225969885885,-0.0036194313914850664,-0.007574457700890773,0.06680817823520384
6386,0.0,299.54438,17073.318,-0.0638600067378654,0.0,0.0,0.0,0.0,-0.009745939945478677,-2.641270750398127,-1.056374936181089,-1.4922167659953287,-0.015194561710836486,-0.00969665623176046,0.07088154597546392
6387,0.0,299.36764,17101.665,-0.06387001641256296,0.0,0.0,0.0,0.0,-0.009747467563364393,-2.6267876574437574,-1.068059938984309,-1.5036315349968785,0.024077920894805774,0.017227442346716183,0.06543038810697653
6388,0.0,300.02465,16981.428,-0.0638799930520304,0.0,0.0,0.0,0.0,-0.009748990139606922,-2.6045629284253473,-1.054364647982689,-1.5030026106598087,0.0053819754821346245,0.0017627737944472283,0.07246531059726934
6389,0.0,300.3164,16744.413,-0.06389000272672796,0.0,0.0,0.0,0.0,-0.009750517757492666,-2.561857071160608,-1.038590978375949,-1.4894352931458186,-0.0003348395906335947,0.005735010156801434,0.06256564636424854
6390,0.0,300.25392,16749.759,-0.06390001240142529,0.0,0.0,0.0,0.0,-0.009752045375378382,-2.5832182071187875,-1.0438020223152389,-1.4644884677337586,0.003523032600821246,-0.0006360040472412124,0.07035585763808253
6391,0.0,300.6224,16989.725,-0.06390998904089273,0.0,0.0,0.0,0.0,-0.009753567951620912,-2.6268824976531175,-1.0534974072220988,-1.4840721603665186,-0.0003926164589582276,0.02333224684146348,0.06667526211358603
6392,0.0,300.11368999999996,17008.932,-0.06391999871559029,0.0,0.0,0.0,0.0,-0.009755095569506655,-2.6154088588207576,-1.0812066563817888,-1.4736749984403987,-0.0008424496919833111,-0.004119734875436176,0.054657986231573245
6393,0.0,300.36492000000004,16882.738999999998,-0.06393000839028762,0.0,0.0,0.0,0.0,-0.009756623187392371,-2.6009094525397773,-1.068651271742669,-1.4623703697247186,-0.008666916195658032,-0.0036456532908229664,0.049235984634713355
6394,0.0,300.22708,16900.961,-0.06393998502975506,0.0,0.0,0.0,0.0,-0.009758145763634901,-2.5944520096524775,-1.047449114725179,-1.4955689013011588,-0.005962844913336974,-0.0066076146581207935,0.07415287255931872
6395,0.0,299.54987,17042.706000000002,-0.06394999470445262,0.0,0.0,0.0,0.0,-0.009759673381520617,-2.6009820012469373,-1.062049947341169,-1.5175251190430685,0.027549912541714676,0.004999988807060475,0.08251590552543582
6396,0.0,299.40535,17139.616,-0.06396000437915017,0.0,0.0,0.0,0.0,-0.009761200999406361,-2.610251517136768,-1.056031241747169,-1.5437324275795288,0.013914500568004287,-0.0042957182806293865,0.08819010709868592
6397,0.0,299.63595,17043.871,-0.0639700140538475,0.0,0.0,0.0,0.0,-0.009762728617292077,-2.6164587885743775,-1.058837133924089,-1.5056152760426587,0.006737380990477733,-0.0025185509645366277,0.07733106727348213
6398,0.0,300.02205,16857.737,-0.06397999069331495,0.0,0.0,0.0,0.0,-0.009764251193534607,-2.6101519146519374,-1.053302052602819,-1.4608770417273385,0.0046997352420277555,-0.013338627979670087,0.05334505728199725
6399,0.0,300.59671000000003,16807.2,-0.06399000036801239,0.0,0.0,0.0,0.0,-0.00976577881142035,-2.6053519462782173,-1.032343784884399,-1.4712733930533786,-0.0026884394677283174,0.01305990820841259,0.056381161908137446
6400,0.0,299.79851,16959.634,-0.06400001004270994,0.0,0.0,0.0,0.0,-0.009767306429306094,-2.595220053228277,-1.0853243021381689,-1.4747607972475587,-0.003854599444294346,0.003579795074073267,0.04860673808411155
6401,0.0,300.34135,16958.39,-0.06400998668217717,0.0,0.0,0.0,0.0,-0.009768829005548596,-2.5819263132412877,-1.0726305075353888,-1.5003702882250187,-0.02092199032508968,0.002437344035272128,0.06271956310743895
6402,0.0,300.51903,16834.861,-0.06401999635687472,0.0,0.0,0.0,0.0,-0.009770356623434312,-2.5875080040671574,-1.049116012464689,-1.4807532596639685,-0.008114715865435102,0.01254068339341909,0.06419756468380634
6403,0.0,300.79277,16890.64,-0.06403000603157227,0.0,0.0,0.0,0.0,-0.009771884241320056,-2.5953755871186273,-1.064230664206389,-1.4747266507191885,-0.016337862461171485,0.013050954117278886,0.07042183744484423
6404,0.0,300.28481,16998.213,-0.0640400157062696,0.0,0.0,0.0,0.0,-0.009773411859205772,-2.6343989895449376,-1.0547411717198492,-1.4778920440315886,-0.0007618485444235972,-0.015682292686221785,0.061187144934451036
6405,0.0,300.63392000000005,17129.533,-0.06404999234573705,0.0,0.0,0.0,0.0,-0.009774934435448301,-2.6278868311522374,-1.0757217309404687,-1.5033418467932886,0.004174896616180215,-0.018325471082583183,0.05487014763026195
6406,0.0,300.3926,17159.41,-0.0640600020204346,0.0,0.0,0.0,0.0,-0.009776462053334045,-2.6288441498467177,-1.064458240178849,-1.5227297795067287,0.024852827213533078,-0.003531424135499427,0.06810891474632653
6407,0.0,299.88857,17065.324,-0.06407001169513216,0.0,0.0,0.0,0.0,-0.009777989671219789,-2.6057464045421477,-1.0503444768859291,-1.5313414934316385,-0.006015590255242535,0.004341922586514396,0.08048918848991442
6408,0.0,299.86721,16909.537,-0.06407998833459938,0.0,0.0,0.0,0.0,-0.00977951224746229,-2.6016171064096176,-1.051249106575209,-1.4872107025512686,-0.004238610998368336,0.0050044191417977155,0.06993497583804473
6409,0.0,300.29524,17061.373,-0.06408999800929693,0.0,0.0,0.0,0.0,-0.009781039865348007,-2.6251037371025676,-1.061416058078609,-1.4997115743350087,-0.028245019335566373,0.014926174050848685,0.07212254734019123
6410,0.0,299.81424,17119.37,-0.06410000768399449,0.0,0.0,0.0,0.0,-0.00978256748323375,-2.6528227134632174,-1.070597218559719,-1.4804410773081587,-0.0007144367787919203,0.007119721188511773,0.049746312100578755
6411,0.0,299.67759,16893.848,-0.06410998432346193,0.0,0.0,0.0,0.0,-0.00978409005947628,-2.603170013512877,-1.0620312022143188,-1.4701068382132487,-0.0031502993309603373,0.00030499739935089973,0.05384293190413365
6412,0.0,299.67413999999997,16779.247,-0.06411999399815926,0.0,0.0,0.0,0.0,-0.009785617677361996,-2.579148285442118,-1.048198717149159,-1.4731250062861185,-3.6789242697815568e-06,-0.008269269740288382,0.05746800030990004
6413,0.0,299.22783,17005.4,-0.06413000367285682,0.0,0.0,0.0,0.0,-0.00978714529524774,-2.5783457913629175,-1.083486570431799,-1.5073847146922885,0.002327483710404758,-0.00969987056505269,0.07683364253439014
6414,0.0,300.55822,17123.833,-0.06414001334755437,0.0,0.0,0.0,0.0,-0.009788672913133484,-2.6335379296099575,-1.061394171876449,-1.5102855484035786,0.0016471308512591583,0.012281116075551789,0.07795083892239882
6415,0.0,300.59573,16951.305,-0.0641499899870217,0.0,0.0,0.0,0.0,-0.009790195489376013,-2.6085747908712875,-1.052250602974049,-1.4919480520688087,-0.005865660651195635,0.01146114545862699,0.08240489891073033
6416,0.0,300.38552999999996,16893.828,-0.06415999966171915,0.0,0.0,0.0,0.0,-0.009791723107261702,-2.6126631536997773,-1.0682579280538491,-1.4543806900361986,0.005681496973970094,-0.0045326634727890554,0.047222942422541554
6417,0.0,300.16267999999997,16979.793999999998,-0.06417000933641659,0.0,0.0,0.0,0.0,-0.009793250725147445,-2.6056723359598375,-1.058578653823579,-1.4971825020854086,0.000986746588061806,-0.006656943523339174,0.05404148940697975
6418,0.0,300.48026,17049.471999999998,-0.06417998597588404,0.0,0.0,0.0,0.0,-0.009794773301389975,-2.6063667162533677,-1.081345167670459,-1.4949017774353186,0.02525316334129318,-0.011692448164954789,0.04297720260176966
6419,0.0,300.31734,16990.603,-0.06418999565058137,0.0,0.0,0.0,0.0,-0.009796300919275691,-2.6012654072999077,-1.061718209258429,-1.5017353387597383,0.013138726907191388,-0.005143879136536345,0.06326281512205374
6420,0.0,299.7942,16900.068,-0.06420000532527892,0.0,0.0,0.0,0.0,-0.009797828537161435,-2.6081180177262073,-1.055590680603689,-1.4734900802971487,-0.002757864831455067,-0.002635773767280617,0.06561451186214814
6421,0.0,299.95977999999997,16955.991,-0.06421001499997647,0.0,0.0,0.0,0.0,-0.009799356155047179,-2.6115610415660075,-1.0725745761298688,-1.4700621538838383,0.0036819781042579467,0.008896982331563792,0.05257476631747546
6422,0.0,300.20128,17208.916,-0.06421999163944392,0.0,0.0,0.0,0.0,-0.009800878731289708,-2.6525987851911177,-1.0743829235833389,-1.5040990485930186,-0.015133695777329485,0.022594088064112876,0.06227336322715244
6423,0.0,300.04275,17250.28,-0.06423000131414125,0.0,0.0,0.0,0.0,-0.009802406349175397,-2.6419735406674874,-1.074248566620079,-1.5274323745458385,0.0030859123533558373,0.005770624479266294,0.06050816502919094
6424,0.0,299.9876,16990.514,-0.06424001098883902,0.0,0.0,0.0,0.0,-0.009803933967061168,-2.6052607537692176,-1.062737538859029,-1.4966937102371685,-0.004991663133638796,-0.02078450444552088,0.08089020957474212
6425,0.0,299.96662000000003,16889.59,-0.06424998762830625,0.0,0.0,0.0,0.0,-0.00980545654330367,-2.5932203028309178,-1.045167072849959,-1.4956263525818287,0.012592582063541089,-0.0057163944219892045,0.07766137059408051
6426,0.0,299.75335,17149.487,-0.0642599973030038,0.0,0.0,0.0,0.0,-0.009806984161189414,-2.6436433768322876,-1.0715258622763688,-1.4978464848759385,0.004069571700085457,-0.015193039809186288,0.08450185950943422
6427,0.0,300.76419,17270.638,-0.06427000697770135,0.0,0.0,0.0,0.0,-0.009808511779075157,-2.6546838512468973,-1.0756636717097388,-1.5194950798874884,0.008420291425293061,0.008631781951090553,0.07566982954903073
6428,0.0,300.85233999999997,16994.878,-0.06427998361716869,0.0,0.0,0.0,0.0,-0.009810034355317687,-2.6200045559743175,-1.067147405944249,-1.4788665879777685,-0.010937152288662889,0.01077014030118009,0.052614074341854854
6429,0.0,300.59361,16887.668999999998,-0.06428999329186613,0.0,0.0,0.0,0.0,-0.009811561973203403,-2.5885842783233777,-1.0632678739613688,-1.4815775386203185,0.015264264198465587,0.016978113921109383,0.04201467681502576
6430,0.0,300.62115,17061.801,-0.06430000296656346,0.0,0.0,0.0,0.0,-0.009813089591089091,-2.6154876896785373,-1.059979978711879,-1.5108939037636184,0.007999116390676322,0.005621070791006494,0.05898592697995774
6431,0.0,300.14135,17199.003,-0.06431001264126113,0.0,0.0,0.0,0.0,-0.009814617208974863,-2.631738701407387,-1.076724949864479,-1.5196040042732384,0.012168823646469387,-0.02223422823809748,0.05951283729695974
6432,0.0,300.29109,17148.098,-0.06431998928072835,0.0,0.0,0.0,0.0,-0.009816139785217365,-2.6441223401545577,-1.0739203749126889,-1.4945506862756686,0.003486511318191877,-0.024733556531011978,0.06320591808918845
6433,0.0,299.77477999999996,16841.13,-0.0643299989554259,0.0,0.0,0.0,0.0,-0.009817667403103109,-2.6020265607750273,-1.038312435923459,-1.4789437976353885,-0.003683463934204587,-0.002216543564905818,0.06528458243083664
6434,0.0,299.70038999999997,16894.793999999998,-0.06434000863012346,0.0,0.0,0.0,0.0,-0.009819195020988852,-2.5939904742319273,-1.062445114880169,-1.4791597212316987,0.015597799786882985,0.014774205787600588,0.07240470405578793
6435,0.0,300.18818,17293.588,-0.0643499852695909,0.0,0.0,0.0,0.0,-0.009820717597231382,-2.6260136356923676,-1.084180038800239,-1.5466251552900185,-0.015630854031645186,0.011680311455256989,0.07577610732551952
6436,0.0,300.10483999999997,17425.221,-0.06435999494428823,0.0,0.0,0.0,0.0,-0.009822245215117098,-2.6415153489722676,-1.1100508469784889,-1.5452657789558586,-0.006362152490920563,0.003854760449735236,0.08726747600812933
6437,0.0,300.29399,17133.514,-0.06437000461898579,0.0,0.0,0.0,0.0,-0.009823772833002814,-2.6230045868703975,-1.0739690109174889,-1.5111867330425186,0.003327771200550447,-0.0028421995624532577,0.07349486287812822
6438,0.0,300.4074,16963.085,-0.06438001429368334,0.0,0.0,0.0,0.0,-0.009825300450888558,-2.6402471651471076,-1.0422682656388689,-1.4738389423065787,0.0009000879679592662,-0.0035939644647966762,0.07778494252327613
6439,0.0,300.32565,17112.816000000003,-0.06438999093315079,0.0,0.0,0.0,0.0,-0.009826823027131087,-2.6465778504468975,-1.0655371488853291,-1.4897538589772585,-0.006042752855973274,-0.012559208644997388,0.054168000774715445
6440,0.0,301.05289,17250.209,-0.06440000060784812,0.0,0.0,0.0,0.0,-0.009828350645016803,-2.6679519560063576,-1.061777687039299,-1.5139031552356088,-0.01190246248668159,0.0005576048542688145,0.06094364168366915
6441,0.0,301.30722000000003,17108.02,-0.06441001028254567,0.0,0.0,0.0,0.0,-0.009829878262902547,-2.6061751106594575,-1.072065519279629,-1.5221702628015088,0.005861158983651354,0.007573302089151722,0.04777023426530505
6442,0.0,300.48713,16966.851000000002,-0.06441998692201312,0.0,0.0,0.0,0.0,-0.009831400839145077,-2.6153318518131576,-1.038535249620449,-1.5036319402969185,0.012753141674387089,-0.0065451668385576745,0.07520512265566773
6443,0.0,299.64957999999996,17091.221999999998,-0.06442999659671045,0.0,0.0,0.0,0.0,-0.009832928457030793,-2.625851110376327,-1.060170571055689,-1.5092829374296286,0.0008173248283961802,-0.012056935504176887,0.07558886681304033
6444,0.0,299.95101,17300.004,-0.064440006271408,0.0,0.0,0.0,0.0,-0.009834456074916509,-2.6671759077547676,-1.081982907283399,-1.5096105211869588,0.011946188281496989,-0.017519304985020783,0.08516913536278922
6445,0.0,300.19056,17372.789,-0.06445001594610555,0.0,0.0,0.0,0.0,-0.009835983692802253,-2.6578725493115973,-1.091523163599949,-1.5314982432221087,0.005523168539844295,-0.005811627975038025,0.07689097627804851
6446,0.0,300.48221,17187.227,-0.06445999258557289,0.0,0.0,0.0,0.0,-0.009837506269044782,-2.643461599764348,-1.075717272640029,-1.5053088692124186,-0.012115073768414688,0.016541509519269883,0.07722717772747903
6447,0.0,299.7853,17000.363,-0.06447000226027033,0.0,0.0,0.0,0.0,-0.009839033886930498,-2.5898365541219674,-1.077014435418049,-1.5008347620708586,-0.03430532897867236,0.016727533118378983,0.049362028894152955
6448,0.0,299.8782,17060.993000000002,-0.06448001193496788,0.0,0.0,0.0,0.0,-0.009840561504816242,-2.6175002070271574,-1.074142175359579,-1.4944735779430587,-0.03125378140775807,0.02900022097959897,0.05320989782465805
6449,0.0,300.13648,17148.118000000002,-0.06448998857443522,0.0,0.0,0.0,0.0,-0.009842084081058772,-2.6282327547363775,-1.0881201631390989,-1.4962467656180587,-0.02249225338931258,0.011972510492594788,0.05843608782644284
6450,0.0,300.44894,16979.711,-0.06449999824913277,0.0,0.0,0.0,0.0,-0.009843611698944515,-2.6350068382799274,-1.050387033390129,-1.4760142889462686,0.007528763059806063,0.003828418581585496,0.05571051598494985
6451,0.0,300.70155,16874.735,-0.0645100079238301,0.0,0.0,0.0,0.0,-0.009845139316830204,-2.614764634407177,-1.046156916872649,-1.4685765265872186,-0.0024260258290051077,-0.018275841079435085,0.054774047951027645
6452,0.0,300.33322999999996,17036.451,-0.06451998456329777,0.0,0.0,0.0,0.0,-0.009846661893072789,-2.6241903934624276,-1.061294974691659,-1.4931701330144185,0.01306532403019709,-0.028686249224112375,0.05450247463272545
6453,0.0,300.08682999999996,17351.115,-0.0645299942379951,0.0,0.0,0.0,0.0,-0.009848189510958477,-2.636620844364218,-1.081684099828909,-1.5560008597903285,0.007797091242012993,0.008669591074597022,0.06894364436420793
6454,0.0,300.68792,17505.003,-0.06454000391269243,0.0,0.0,0.0,0.0,-0.009849717128844193,-2.674464013074047,-1.091319804304879,-1.5552998933711486,0.005148951365211935,0.007021363886729664,0.08630627048626573
6455,0.0,300.28056000000004,17228.482,-0.06455001358738999,0.0,0.0,0.0,0.0,-0.009851244746729937,-2.644800609771498,-1.070585971483609,-1.5216418528743587,-0.004778552116956375,-0.0037105523650280063,0.09375414102831331
6456,0.0,299.5687,17014.983,-0.06455999022685743,0.0,0.0,0.0,0.0,-0.009852767322972467,-2.640706370092427,-1.061945379930849,-1.4694781165261988,-0.02711544204458577,-0.014355640277291385,0.08787795412712882
6457,0.0,299.4521,17150.381999999998,-0.06456999990155499,0.0,0.0,0.0,0.0,-0.00985429494085821,-2.6337878984096275,-1.0772141470127592,-1.5022856348890485,-0.001050420673293449,0.0026706346369711176,0.07775450753002243
6458,0.0,299.60798,17386.957,-0.06458000957625232,0.0,0.0,0.0,0.0,-0.009855822558743899,-2.6668061727932773,-1.0825828526676091,-1.5358118515478287,-0.006571999322405834,0.0024156765938087178,0.08395550390976313
6459,0.0,299.81136000000004,17215.215,-0.06458998621571987,0.0,0.0,0.0,0.0,-0.009857345134986484,-2.6315031207591377,-1.0776473114305092,-1.5238450638917986,0.0042463884021609055,0.01036160191386049,0.06133762574655234
6460,0.0,299.98662,16898.929,-0.06459999589041732,0.0,0.0,0.0,0.0,-0.009858872752872172,-2.6049070281593076,-1.053640072836179,-1.4783053487473787,-0.005107882616133765,0.0036588403355744268,0.06012310465993844
6461,0.0,299.79614,17018.551,-0.06461000556511487,0.0,0.0,0.0,0.0,-0.009860400370757916,-2.6256125913027875,-1.0600862686473689,-1.4875156908313685,0.009633045606382581,0.02738651785708887,0.061880341751864236
6462,0.0,300.226,17423.353,-0.0646200152398122,0.0,0.0,0.0,0.0,-0.009861927988643632,-2.6880476439146475,-1.086033070583119,-1.5221836377028286,0.0050551907738334845,0.020360204952895783,0.07149769525527314
6463,0.0,300.57977999999997,17429.485,-0.06462999187927976,0.0,0.0,0.0,0.0,-0.00986345056488619,-2.6692649254859373,-1.094605267754129,-1.5342580325194786,0.004341363576434226,-0.020819209274695983,0.05685933894832985
6464,0.0,300.77293,17173.793999999998,-0.06464000155397709,0.0,0.0,0.0,0.0,-0.009864978182771905,-2.6241638463098074,-1.0789861187876388,-1.5172546825913786,-0.009195014143102241,-0.03545760408514307,0.05714326479860115
6465,0.0,299.96492,17076.683999999997,-0.06465001122867453,0.0,0.0,0.0,0.0,-0.009866505800657593,-2.6062779555446074,-1.083331644491509,-1.5012759311643986,0.01010543648187893,-0.014417639024410187,0.05673678432223465
6466,0.0,299.73541,17252.88,-0.06465998786814209,0.0,0.0,0.0,0.0,-0.009868028376900151,-2.6479350989558474,-1.076109704403759,-1.5203998109017784,-0.0002081302540933568,0.005479123064622345,0.08130007227994242
6467,0.0,300.58746,17410.66,-0.06466999754283942,0.0,0.0,0.0,0.0,-0.009869555994785867,-2.6728900303687073,-1.096669359532839,-1.5228464045932384,-0.008284568398248243,0.009100244962574252,0.07803070126878063
6468,0.0,300.19924,17207.063000000002,-0.06468000721753697,0.0,0.0,0.0,0.0,-0.00987108361267161,-2.6491776475534774,-1.0726527990375887,-1.5086870450458185,-0.008144242479974152,0.007258397940923103,0.08457740237063972
6469,0.0,299.76131000000004,16890.606,-0.06468998385700442,0.0,0.0,0.0,0.0,-0.00987260618891414,-2.591626663073637,-1.046457852152349,-1.4962380516671985,0.003486305729746587,0.016207347742290684,0.06535983246276324
6470,0.0,299.55627000000004,17120.021,-0.06469999353170197,0.0,0.0,0.0,0.0,-0.009874133806799884,-2.6245698556248773,-1.0643201341902189,-1.5151688059355186,0.009044122154110362,0.004870095413140996,0.06956697860047624
6471,0.0,299.51165,17553.256999999998,-0.0647100032063993,0.0,0.0,0.0,0.0,-0.0098756614246856,-2.6639983554411675,-1.0941453535337389,-1.5776082155228086,-0.009195195312220123,-0.011066300133158789,0.06003943046668044
6472,0.0,299.73596000000003,17453.595,-0.06472001288109686,0.0,0.0,0.0,0.0,-0.009877189042571316,-2.6819675353645875,-1.091440077091749,-1.5320492486264885,-0.004356222686500706,-0.017912859429861584,0.06730057522729964
6473,0.0,300.19379,16919.804,-0.0647299895205643,0.0,0.0,0.0,0.0,-0.009878711618813846,-2.6237329110422776,-1.042702949931769,-1.4767619661950586,-0.0012175968072924489,0.015218308240180087,0.06695794166623434
6474,0.0,299.81684,17035.749,-0.06473999919526185,0.0,0.0,0.0,0.0,-0.00988023923669959,-2.6416970247151976,-1.0433691618725192,-1.4933762280847587,0.0004684676015066525,0.025442086862188476,0.08379980384639672
6475,0.0,300.33701,17474.622,-0.06475000886995919,0.0,0.0,0.0,0.0,-0.009881766854585305,-2.6700982223681775,-1.0834408728522888,-1.5583096514681885,-0.006732675760988364,-0.002145389900483498,0.08001440989055743
6476,0.0,299.73233,17432.927,-0.06475998550942674,0.0,0.0,0.0,0.0,-0.009883289430827863,-2.6694321117524376,-1.0921117605830388,-1.5376305341523184,0.0015034096332249788,-0.02122381827812778,0.07864928234882983
6477,0.0,300.39142999999996,17162.432,-0.06476999518412418,0.0,0.0,0.0,0.0,-0.009884817048713579,-2.6222316796941176,-1.0801285582753888,-1.5145906454284588,0.018017463317185182,-0.022087671743633477,0.06037348585239914
6478,0.0,300.41671,17033.756,-0.06478000485882152,0.0,0.0,0.0,0.0,-0.009886344666599295,-2.6385026524499375,-1.0638198926158489,-1.4755139460468885,0.02326874139144598,-0.00952700878076756,0.06562344062202935
6479,0.0,299.20819,17154.89,-0.06479001453351907,0.0,0.0,0.0,0.0,-0.009887872284485011,-2.635856955113827,-1.0859721742521091,-1.4928289717057486,0.0018310268278082782,-0.01034721072269019,0.05784186325229744
6480,0.0,299.31259,17370.949,-0.0647999911729864,0.0,0.0,0.0,0.0,-0.00988939486072754,-2.6712950733862977,-1.0871946604977591,-1.5218450095194087,-0.0057302455508562045,0.0013879028708503488,0.05877894936878064
6481,0.0,299.35555,17316.907,-0.06481000084768396,0.0,0.0,0.0,0.0,-0.009890922478613284,-2.6445684741735875,-1.0917360474459592,-1.5276028032126587,-0.003912078184042056,0.02380458046832918,0.057201228783821736
6482,0.0,299.4514,16931.225,-0.0648200105223814,0.0,0.0,0.0,0.0,-0.009892450096499,-2.6078823357529473,-1.0452953503126188,-1.4934918399211685,-0.003955153573618267,0.030111396635513474,0.05628488896313605
6483,0.0,300.28424,17132.464,-0.06482998716184896,0.0,0.0,0.0,0.0,-0.009893972672741558,-2.6275853892474874,-1.0652935635612888,-1.5149622042401287,-0.01112632304258259,-0.001092163233688119,0.05295781943827985
6484,0.0,300.07781,17653.485,-0.06483999683654629,0.0,0.0,0.0,0.0,-0.009895500290627274,-2.7220668067470775,-1.105034347058399,-1.5391173773490585,-0.01043566340341979,-0.009184469654611581,0.07213971281013534
6485,0.0,299.47427999999996,17612.086,-0.06485000651124384,0.0,0.0,0.0,0.0,-0.009897027908513018,-2.6959612285206576,-1.087665517819229,-1.5700075225476786,0.0014029789177632385,-0.005273370067516105,0.09103679779088242
6486,0.0,300.31729,17246.235,-0.06486001618594117,0.0,0.0,0.0,0.0,-0.009898555526398706,-2.6560524481569674,-1.073683781014339,-1.5126885723407384,0.008222395574762262,0.0008725944296133651,0.08987416017563901
6487,0.0,300.09091,17136.86,-0.06486999282540884,0.0,0.0,0.0,0.0,-0.009900078102641263,-2.630616425596627,-1.061673524929019,-1.5168874807551385,-0.016053980180654483,-0.008556228146783971,0.09014124783574852
6488,0.0,300.33272,17435.08,-0.06488000250010617,0.0,0.0,0.0,0.0,-0.00990160572052698,-2.675257793202387,-1.094310614625049,-1.5302603555749383,-0.008458240782613372,-0.019373847523799878,0.07849804463890384
6489,0.0,300.15769,17466.125,-0.0648900121748035,0.0,0.0,0.0,0.0,-0.009903133338412695,-2.676480684748077,-1.0953591258285291,-1.5374260602821386,0.0015038853541469285,0.002983016501725807,0.06300130641699485
6490,0.0,300.54564,17143.277,-0.06489998881427117,0.0,0.0,0.0,0.0,-0.009904655914655253,-2.656154381117027,-1.0597125820104891,-1.4952610759207787,0.00988983185670041,0.0001006321556611205,0.05686171400656424
6491,0.0,299.94378,16968.569,-0.0649099984889685,0.0,0.0,0.0,0.0,-0.009906183532540969,-2.6100336683652676,-1.0725996034073388,-1.4753879990594587,0.004604027791907166,0.0006875417064850834,0.04257669523474266
6492,0.0,299.43223,17207.076,-0.06492000816366605,0.0,0.0,0.0,0.0,-0.009907711150426712,-2.6452007422359873,-1.075409751234679,-1.5099109498416086,-0.01020379327703599,-0.0073398531164621025,0.06820491918005143
6493,0.0,299.81305,17604.168,-0.06492998480313339,0.0,0.0,0.0,0.0,-0.009909233726669242,-2.6805488838995775,-1.103851681541679,-1.5668270318087885,0.007711441515035023,0.011823002400589488,0.05907424185867374
6494,0.0,300.13858999999997,17577.005,-0.06493999447783094,0.0,0.0,0.0,0.0,-0.009910761344554958,-2.6765325631531973,-1.1059763656763688,-1.5604615920305684,0.004404475885412926,0.016817455011753586,0.08837881479730993
6495,0.0,299.94083,17068.867,-0.06495000415252838,0.0,0.0,0.0,0.0,-0.009912288962440674,-2.6226914925894977,-1.062740274634299,-1.5030777938172286,0.0009018122055219351,-0.004437226661770176,0.050355322020183356
6496,0.0,299.73264,17097.486,-0.06496001382722583,0.0,0.0,0.0,0.0,-0.009913816580326418,-2.6377729097279174,-1.069629362064199,-1.4898064466574488,-0.007620744586658932,-0.023381860632609976,0.07033373129564884
6497,0.0,299.38761,17558.198,-0.06496999046669327,0.0,0.0,0.0,0.0,-0.009915339156568947,-2.6911617667719874,-1.1001772313790388,-1.5459147656449088,-0.001114332335276039,-0.006662125385675583,0.07172045626325793
6498,0.0,300.27583,17620.262,-0.06498000014139083,0.0,0.0,0.0,0.0,-0.009916866774454691,-2.7085737604654176,-1.092389593760459,-1.5551563158319786,0.012755410341360988,-0.001051094281959929,0.0969768974686246
6499,0.0,300.54949,17210.398999999998,-0.06499000981608816,0.0,0.0,0.0,0.0,-0.009918394392340407,-2.6363879994912374,-1.0785208343417187,-1.5166228198290186,-0.009262706849157991,0.0067124523022424635,0.07167197933872364
6500,0.0,300.26322999999996,16963.743000000002,-0.0649999864555556,0.0,0.0,0.0,0.0,-0.009919916968582937,-2.6167572920538373,-1.039200043011059,-1.5005970535973985,-0.01204200222420309,0.003346119437336277,0.07644789011531933
6501,0.0,300.46537,17300.299,-0.06500999613025316,0.0,0.0,0.0,0.0,-0.009921444586468653,-2.6532005544255073,-1.073286485650129,-1.5323717661333185,-0.011056227413914689,0.017604488920927783,0.07466909916726633
6502,0.0,300.21776,17599.21,-0.06502000580495049,0.0,0.0,0.0,0.0,-0.009922972204354369,-2.7012169567893576,-1.084641270245759,-1.5638622620161884,0.00044683628240930757,0.01926016086257988,0.07837071456508733
6503,0.0,300.19583,17498.957,-0.06503001547964804,0.0,0.0,0.0,0.0,-0.009924499822240113,-2.6850354540173678,-1.092239835395679,-1.5419707909556684,-0.0020423253427118183,-0.005578790904083795,0.07516696669665203
6504,0.0,299.83265,17199.043999999998,-0.06503999211911549,0.0,0.0,0.0,0.0,-0.009926022398482642,-2.6554563531231374,-1.062222706483219,-1.5104010589149786,0.007911282400457784,-0.016097462795445883,0.07511958205572553
6505,0.0,299.66247999999996,17130.927,-0.06505000179381304,0.0,0.0,0.0,0.0,-0.009927550016368386,-2.6340434400848474,-1.0573605245533588,-1.5159701854396086,-0.004001307622298316,-0.005860009451412905,0.07087623553168984
6506,0.0,300.2383,17528.207,-0.06506001146851037,0.0,0.0,0.0,0.0,-0.009929077634254102,-2.6811166079306075,-1.101191393404129,-1.5458292473364685,0.0034427817743511065,-0.005304990462061795,0.07299137890343824
6507,0.0,300.36915,17632.471,-0.06506998810797782,0.0,0.0,0.0,0.0,-0.009930600210496632,-2.691682982623427,-1.099646490976659,-1.5685015289240485,-0.01901100468949008,-0.001257983639053319,0.06249428619945585
6508,0.0,299.60717999999997,17266.029,-0.06507999778267537,0.0,0.0,0.0,0.0,-0.009932127828382348,-2.6455360266940775,-1.088586967460169,-1.5143187904266286,0.002052361382302298,0.008657110974440331,0.053816155756991044
6509,0.0,299.94235,17020.249,-0.06509000745737292,0.0,0.0,0.0,0.0,-0.009933655446268091,-2.6210784997553076,-1.071184194342649,-1.4814679049594988,-0.004891851311338136,0.014300417133591287,0.05016920216231475
6510,0.0,300.00016,17257.121,-0.06509998409684015,0.0,0.0,0.0,0.0,-0.009935178022510593,-2.6725840288385077,-1.066378855743399,-1.5067708877817085,0.004886378950198055,0.003822448815971327,0.06716439036085924
6511,0.0,300.13695,17589.004,-0.06510999377153759,0.0,0.0,0.0,0.0,-0.009936705640396337,-2.6848685717258975,-1.113298313548989,-1.5484510319702185,-0.012495110443671388,-0.006028838905600074,0.054460045798038044
6512,0.0,300.25007,17455.729,-0.06512000344623514,0.0,0.0,0.0,0.0,-0.009938233258282081,-2.6976079625831773,-1.091335813656459,-1.5171620715322385,0.010959617056629989,-0.000984163377859363,0.061933111817072235
6513,0.0,300.40243,17186.231,-0.06513001312093258,0.0,0.0,0.0,0.0,-0.00993976087616777,-2.632976589054558,-1.083290303887429,-1.5079181908699384,0.009403014630255292,0.01132010813745769,0.055379219679253446
6514,0.0,300.7879,17313.263,-0.06513998976039992,0.0,0.0,0.0,0.0,-0.009941283452410327,-2.6768132334308974,-1.066831778538099,-1.5191545265288786,0.0009087516920118091,0.007033057907458773,0.07468049012489053
6515,0.0,299.97377,17736.215,-0.06514999943509747,0.0,0.0,0.0,0.0,-0.009942811070296043,-2.7163675789096073,-1.1021890394525888,-1.5728098683492484,0.007634165590858483,0.001766221175262458,0.08638356930989452
6516,0.0,300.22851,17806.793,-0.06516000910979503,0.0,0.0,0.0,0.0,-0.009944338688181786,-2.741528706717818,-1.1139887421671288,-1.5573030888188486,-0.0003470592956470857,-0.00987311323005041,0.07273344089173173
6517,0.0,300.18748999999997,17361.237,-0.06516998574926225,0.0,0.0,0.0,0.0,-0.009945861264424288,-2.6819649009143274,-1.0634661670059389,-1.5319514699918384,0.025433826847373275,-0.0021624531334925082,0.0878468351900576
6518,0.0,299.87458,17090.209,-0.06517999542396002,0.0,0.0,0.0,0.0,-0.00994738888231006,-2.6558304450600576,-1.061266502363849,-1.4778997447323488,-0.0038646943537156368,-0.011772215265827187,0.06592967216000203
6519,0.0,300.05163999999996,17469.108,-0.06519000509865736,0.0,0.0,0.0,0.0,-0.009948916500195776,-2.6716625791975677,-1.109670979515999,-1.5288391709846787,-0.004213549473044956,-0.004050311436884616,0.06703943027902663
6520,0.0,299.9986,17662.135,-0.06520001477335491,0.0,0.0,0.0,0.0,-0.00995044411808152,-2.7155886935577374,-1.1095818135071989,-1.5436775094241086,-0.015163156023986985,-0.005170781534641405,0.058352519011195245
6521,0.0,299.85127,17340.012,-0.06520999141282213,0.0,0.0,0.0,0.0,-0.009951966694324021,-2.6651095868258374,-1.1024854151068388,-1.5033355646426685,-0.0013199318249921287,0.01974034819097068,0.057414956667165035
6522,0.0,300.59517999999997,16987.742,-0.06522000108751991,0.0,0.0,0.0,0.0,-0.009953494312209765,-2.6368558170624077,-1.059730111237219,-1.4672636584326486,0.0005264571003647705,0.006015585188992034,0.052497375288087546
6523,0.0,300.04026,17178.315,-0.06523001076221724,0.0,0.0,0.0,0.0,-0.009955021930095481,-2.6521996659767275,-1.0712187461710592,-1.4983603040016487,-0.006233656368888984,0.0014409259446083189,0.055550968610953745
6524,0.0,299.63985,17699.353,-0.06523998740168468,0.0,0.0,0.0,0.0,-0.009956544506338011,-2.7073439788190474,-1.1269199412683388,-1.5458976417182186,0.006703727610931403,0.007422155267759693,0.06006586413528925
6525,0.0,299.7849,17750.578,-0.06524999707638213,0.0,0.0,0.0,0.0,-0.009958072124223755,-2.6925652194854974,-1.1147894123961488,-1.5883779495106984,0.015247834348094085,0.004660626118642985,0.06399968808502744
6526,0.0,299.59586,17335.221,-0.06526000675107957,0.0,0.0,0.0,0.0,-0.00995959974210947,-2.6424724650167275,-1.090058105280359,-1.5369438545595486,0.02277000449347448,0.005281862927204285,0.08497391651902263
6527,0.0,299.1843,17129.023999999998,-0.06527001642577712,0.0,0.0,0.0,0.0,-0.009961127359995187,-2.6259696606380274,-1.068691295121619,-1.5121347298360786,0.009565252081941882,-0.012562951590866789,0.07559517429491283
6528,0.0,299.40647,17486.425,-0.06527999306524435,0.0,0.0,0.0,0.0,-0.009962649936237716,-2.707076784767677,-1.072512362573729,-1.5358476192763586,0.0052130122789342545,-0.014754565960912286,0.08237507186753662
6529,0.0,299.80904,17700.526,-0.06529000273994201,0.0,0.0,0.0,0.0,-0.00996417755412346,-2.735391653512137,-1.0938093598005791,-1.5513170098780684,-0.006202277026542084,-0.00044281763118769757,0.07195944953784474
6530,0.0,300.51069,17407.978,-0.06530001241463934,0.0,0.0,0.0,0.0,-0.009965705172009176,-2.688918836350627,-1.082235307883309,-1.5204362879053785,-0.0015612218335805987,-0.007706202505392973,0.07383842964253563
6531,0.0,299.94985,17257.128,-0.06530998905410679,0.0,0.0,0.0,0.0,-0.009967227748251706,-2.6514806637057675,-1.0845255570843388,-1.5097297807237284,-0.003577186664340837,0.014164781448705087,0.061910489995339636
6532,0.0,300.1354,17505.147,-0.06531999872880434,0.0,0.0,0.0,0.0,-0.00996875536613745,-2.6870636767425373,-1.091799274252199,-1.5422645321596586,-0.009134231802728493,0.013421653692864088,0.06951998507408834
6533,0.0,299.73118999999997,17755.692,-0.0653300084035019,0.0,0.0,0.0,0.0,-0.009970282984023193,-2.7313646936397076,-1.0914292353156791,-1.5744931807403786,0.0009599259389748141,0.022541337250656778,0.08320887132182622
6534,0.0,299.97132999999997,17684.833,-0.06533998504296912,0.0,0.0,0.0,0.0,-0.009971805560265695,-2.7201995894627973,-1.1068206056596888,-1.5487273452724886,-0.011131653751358689,0.011781988063041688,0.08041509457635193
6535,0.0,300.06853,17299.091,-0.06534999471766667,0.0,0.0,0.0,0.0,-0.009973333178151439,-2.6664709896601977,-1.069594911560799,-1.5224259058017384,0.009466094616555802,-0.005689611182095905,0.08213269332436572
6536,0.0,300.26489,17301.646,-0.06536000439236422,0.0,0.0,0.0,0.0,-0.009974860796037155,-2.6518247634397274,-1.078553359669929,-1.5288900361396984,0.0008206922739110212,-0.006064364872656214,0.06986743461287893
6537,0.0,299.45296,17578.339,-0.06537001406706155,0.0,0.0,0.0,0.0,-0.009976388413922871,-2.6782586346985475,-1.096942126459759,-1.5681753637168587,0.006492475300232424,-0.0061715042157050445,0.07178720715334573
6538,0.0,299.85276,17656.771,-0.065379990706529,0.0,0.0,0.0,0.0,-0.0099779109901654,-2.704617120149927,-1.0910794613811592,-1.5715207102470183,0.008092485563541143,-0.013985634778024687,0.07203491336554244
6539,0.0,299.50183,17417.648999999998,-0.06539000038122655,0.0,0.0,0.0,0.0,-0.009979438608051144,-2.6721563359712976,-1.0999517832317889,-1.5224223594263884,-0.0099764180294208,-0.008410770623378432,0.05420760162837375
6540,0.0,300.48143,17189.433,-0.06540001005592411,0.0,0.0,0.0,0.0,-0.009980966225936888,-2.6741064371137573,-1.069099128286869,-1.4819527451323486,-0.0034983388852841664,0.001229886315105329,0.056915664508138744
6541,0.0,301.07212999999996,17409.354,-0.06540998669539133,0.0,0.0,0.0,0.0,-0.00998248880217939,-2.6866278778745274,-1.0958261327996188,-1.5095547924314587,-0.014376253837325789,-0.003513958338225687,0.05504420069268964
6542,0.0,300.97952999999995,17739.29,-0.06541999637008888,0.0,0.0,0.0,0.0,-0.009984016420065134,-2.730916938420518,-1.1154912907404189,-1.5458929807677586,-0.018010823489279883,0.005889334631832074,0.06771914479060923
6543,0.0,299.74279,17620.411,-0.06543000604478633,0.0,0.0,0.0,0.0,-0.00998554403795085,-2.6815453140479177,-1.104083006539509,-1.5705365404248885,0.0016125487266711687,0.00023433752209981275,0.05787312708413295
6544,0.0,299.93676,17368.002,-0.06544001571948388,0.0,0.0,0.0,0.0,-0.009987071655836594,-2.6818006530731178,-1.071496984648519,-1.5261412912684185,0.01069004693377549,0.00885538071425803,0.06923075080654313
6545,0.0,300.28071,17459.584,-0.0654499923589511,0.0,0.0,0.0,0.0,-0.009988594232079095,-2.683515072242318,-1.072888886310889,-1.5508737129593184,-0.002690378321794667,0.014473456945918986,0.08887070313785551
6546,0.0,300.07857,17700.69,-0.06546000203364866,0.0,0.0,0.0,0.0,-0.00999012184996484,-2.731282012431547,-1.0888039043065791,-1.5604819583575784,-0.008094821408996672,-0.0050649155429932455,0.08853575305229851
6547,0.0,299.25133999999997,17762.904,-0.06547001170834621,0.0,0.0,0.0,0.0,-0.009991649467850583,-2.7112791382324177,-1.1097944947031888,-1.5784057446765185,0.0024689265342640776,0.006774259950392403,0.09982430858164221
6548,0.0,299.94567,17530.893,-0.06547998834781366,0.0,0.0,0.0,0.0,-0.009993172044093113,-2.678339694706547,-1.101977371506699,-1.5486365580635286,0.004869030892585935,0.006305670890596264,0.06711916799564614
6549,0.0,300.44446,17302.195,-0.06548999802251099,0.0,0.0,0.0,0.0,-0.009994699661978829,-2.6557103749232076,-1.075657186909099,-1.5280676823585384,0.007895229580448491,-0.006860701937623563,0.08876970642088791
6550,0.0,300.46902,17331.014,-0.06550000769720854,0.0,0.0,0.0,0.0,-0.009996227279864545,-2.6846275195271074,-1.072519657974449,-1.5110485257288786,-0.001234903119000449,-0.010766076155028989,0.04857776723725236
6551,0.0,300.84295,17608.446,-0.06550998433667599,0.0,0.0,0.0,0.0,-0.009997749856107074,-2.7190947415537576,-1.096052898171999,-1.5373802613776184,-0.0008543026612556081,-0.00955870749954598,0.08450561056130441
6552,0.0,300.80854,17574.871,-0.06551999401137332,0.0,0.0,0.0,0.0,-0.00999927747399279,-2.7172500184216974,-1.113772919895829,-1.5112991024786087,0.002869893815511467,0.0017153669633435385,0.04967450002624145
6553,0.0,300.18079,17371.768,-0.06553000368607087,0.0,0.0,0.0,0.0,-0.010000805091878534,-2.6746596716683575,-1.0829431644031688,-1.5229808628815087,-0.0014248317839949487,-0.004369177595654256,0.08105341174184892
6554,0.0,300.54767999999996,17540.03,-0.06554001336076842,0.0,0.0,0.0,0.0,-0.010002332709764278,-2.6883503017195176,-1.096255548191999,-1.5471251942143684,-0.0022422627908691077,0.002031959996838838,0.05849937948068924
6555,0.0,300.38239,17800.022,-0.06554999000023587,0.0,0.0,0.0,0.0,-0.010003855286006808,-2.7092810090352173,-1.110645016837129,-1.5908362969033185,0.004898201045739806,-0.0032627129447546973,0.08551651194757262
6556,0.0,300.07358999999997,17767.011000000002,-0.0655599996749332,0.0,0.0,0.0,0.0,-0.010005382903892523,-2.719526082121327,-1.120221040882209,-1.5609805787317883,0.01079608659649079,0.00961956634030228,0.06059984085848865
6557,0.0,300.12239,17623.051,-0.06557000934963075,0.0,0.0,0.0,0.0,-0.01000691052177824,-2.7119312659967774,-1.0909527037936488,-1.5540834866260986,-0.001127468312222459,0.007647861287160143,0.0904032145298526
6558,0.0,300.17241,17465.745,-0.06557998598909809,0.0,0.0,0.0,0.0,-0.01000843309802077,-2.710620829642447,-1.084324325614479,-1.5142051037654087,-0.0035388916874114166,-4.621337649990516e-05,0.08163218323871922
6559,0.0,300.0953,17502.672,-0.06558999566379564,0.0,0.0,0.0,0.0,-0.010009960715906513,-2.6786316120603573,-1.097909678980249,-1.5438339552395486,-0.003316500515713117,0.012787423978270488,0.06714015341846723
6560,0.0,300.23195,17564.661,-0.06560000533849308,0.0,0.0,0.0,0.0,-0.010011488333792229,-2.6884828348325973,-1.090726445046319,-1.5600089732108986,0.0004895950414617685,-0.008364723269933913,0.06762764931982934
6561,0.0,300.07628,17569.631999999998,-0.06561001501319064,0.0,0.0,0.0,0.0,-0.010013015951677973,-2.6876241053728473,-1.1030628663388289,-1.5500423412522684,0.012167808369869188,-0.005999376733767384,0.06221072511922054
6562,0.0,299.76959,17328.025,-0.06561999165265797,0.0,0.0,0.0,0.0,-0.010014538527920502,-2.6850008008639477,-1.073484069419629,-1.5088021502571787,0.012646337007846288,-0.016201339169197682,0.06967231912062254
6563,0.0,299.18798,17353.878,-0.0656300013273553,0.0,0.0,0.0,0.0,-0.010016066145806218,-2.6940590541079272,-1.063086806168499,-1.5179997253899087,0.009847942375041241,-0.01018677675485659,0.08032758523146542
6564,0.0,299.71331000000004,17774.921000000002,-0.06564001100205286,0.0,0.0,0.0,0.0,-0.010017593763691934,-2.7366371405350574,-1.117229825261999,-1.5492651784255684,-0.0007026827736568903,0.004564685519674386,0.07474831404683423
6565,0.0,300.43408,17937.131,-0.0656499876415203,0.0,0.0,0.0,0.0,-0.010019116339934464,-2.738497873018697,-1.108764728626559,-1.6051773321936684,-0.005450082404831255,-0.0012644344958149688,0.09042273377977901
6566,0.0,300.1128,17653.036,-0.06565999731621786,0.0,0.0,0.0,0.0,-0.010020643957820208,-2.6915002936303973,-1.098834776321549,-1.5757469764141185,-0.004965839948215246,0.013424849483679488,0.07340898385265263
6567,0.0,299.96289,17470.414,-0.06567000699091519,0.0,0.0,0.0,0.0,-0.010022171575705924,-2.6855975038478372,-1.073209782617559,-1.5517622319720086,0.001873247946225178,-0.00012844964424949288,0.08398732705565383
6568,0.0,300.52774,17722.82,-0.06567998363038285,0.0,0.0,0.0,0.0,-0.010023694151948481,-2.7137071894470477,-1.115952724835959,-1.5576349282265984,0.008465419862221891,0.015748918946547286,0.06986061847945624
6569,0.0,300.18269,17726.273999999998,-0.06568999330508019,0.0,0.0,0.0,0.0,-0.010025221769834197,-2.739553983597927,-1.0983273406714689,-1.5504632453438087,-0.008469408419915532,0.006413806663793434,0.08465732652527762
6570,0.0,300.12899,17517.47,-0.06570000297977774,0.0,0.0,0.0,0.0,-0.010026749387719941,-2.7025484687457677,-1.0947206769405189,-1.5276044244128184,0.0049350299510995356,0.0018849434868294383,0.06746305798683543
6571,0.0,299.80208,17341.981,-0.06571001265447507,0.0,0.0,0.0,0.0,-0.01002827700560563,-2.672039508234768,-1.073194786516079,-1.5262947986585687,-0.003645278692260997,-0.0037184132606288165,0.06499338043159723
6572,0.0,299.52148,17413.372,-0.06571998929394263,0.0,0.0,0.0,0.0,-0.010029799581848187,-2.6692609738105473,-1.084712299077769,-1.5392571045378485,-0.0002195076240337158,0.006297692660633874,0.05835424660261574
6573,0.0,299.44514,17698.93,-0.06572999896864007,0.0,0.0,0.0,0.0,-0.010031327199733903,-2.7092230511294977,-1.098249117763749,-1.5725605074996385,-0.011569368675307789,0.006161057100548995,0.07092297574555273
6574,0.0,299.70608,17841.283,-0.0657400086433374,0.0,0.0,0.0,0.0,-0.010032854817619619,-2.7420042249897474,-1.108956942170529,-1.5723432666781985,-0.023394367178594274,-0.0004670981838640016,0.08142270087329492
6575,0.0,299.76383,17638.606,-0.06574998528280496,0.0,0.0,0.0,0.0,-0.010034377393862176,-2.7177689037979076,-1.101197979529779,-1.5427288033554787,-0.008191704533208293,0.008194134306948092,0.06474122605146153
6576,0.0,300.08082,17492.624,-0.06575999495750229,0.0,0.0,0.0,0.0,-0.010035905011747892,-2.7024831141143175,-1.0832210989055988,-1.5316166921587984,-0.01143157375445849,0.0024042455114805577,0.08251136515173771
6577,0.0,300.64449,17742.5,-0.06577000463219984,0.0,0.0,0.0,0.0,-0.010037432629633636,-2.696713364069887,-1.1171780481818887,-1.5793855575232185,0.006998089633257674,0.008835911721536591,0.07382146884911173
6578,0.0,300.52122,17742.106,-0.06578001430689728,0.0,0.0,0.0,0.0,-0.010038960247519324,-2.715796916453287,-1.087100529563469,-1.5902598589214285,-0.001083851340467799,0.0012900630358943087,0.09449297868323091
6579,0.0,299.8659,17615.014,-0.06578999094636484,0.0,0.0,0.0,0.0,-0.010040482823761882,-2.6939326004954474,-1.1025724532904289,-1.5580191526645184,0.0012613956574400588,0.01077573850798259,0.08358888165258031
6580,0.0,300.56723,17556.611,-0.06580000062106217,0.0,0.0,0.0,0.0,-0.010042010441647597,-2.7122691849051273,-1.094654511708989,-1.5298478614592286,0.013708649690938386,0.005755165423815605,0.07598642460902623
6581,0.0,299.96426,17575.769,-0.06581001029575972,0.0,0.0,0.0,0.0,-0.010043538059533341,-2.7176949365406076,-1.086908721319539,-1.5379911498629086,-0.0008294067212635702,-0.010128203502350861,0.07621534820411922
6582,0.0,299.45734,17735.981,-0.06581998693522717,0.0,0.0,0.0,0.0,-0.010045060635775871,-2.722564312546177,-1.116018586092459,-1.5527122552657684,-0.011576949812555989,-0.008422771253587803,0.06179741432392995
6583,0.0,299.25846,17751.397,-0.06582999660992472,0.0,0.0,0.0,0.0,-0.010046588253661615,-2.7145523413554575,-1.109369638936259,-1.5720595566501985,-0.02846274246405397,-0.014576500428088588,0.06960176955590984
6584,0.0,298.97626,17604.458,-0.06584000628462205,0.0,0.0,0.0,0.0,-0.01004811587154733,-2.688753676584327,-1.112514361946619,-1.5500477114777986,0.002051267882794378,0.007231465753265103,0.050677750361004546
6585,0.0,298.88364,17537.97,-0.06585001595931939,0.0,0.0,0.0,0.0,-0.010049643489433019,-2.7139381091448374,-1.0877183081494388,-1.5294486409198285,-0.012263096435773387,0.012730614084913787,0.07427011268863944
6586,0.0,299.23024,17707.519,-0.06585999259878705,0.0,0.0,0.0,0.0,-0.010051166065675576,-2.7464915043826075,-1.096498930866019,-1.5396532853269485,0.0001141686744250709,0.015868889784887485,0.06711443409117893
6587,0.0,298.91292000000004,17762.293,-0.06587000227348438,0.0,0.0,0.0,0.0,-0.010052693683561292,-2.744181294154607,-1.106283988406729,-1.5488281636574384,0.004688497893118715,0.004744598106105375,0.07897331162480901
6588,0.0,299.83579,17682.407,-0.06588001194818194,0.0,0.0,0.0,0.0,-0.010054221301447036,-2.7168412733313576,-1.0883552371622989,-1.5698136878035485,0.013610950089796188,0.0065068189699730335,0.08522101376790923
6589,0.0,299.96648,17571.389,-0.06588998858764938,0.0,0.0,0.0,0.0,-0.010055743877689566,-2.6860867009961176,-1.0952108873388988,-1.5599657074316287,0.028396472867763672,-0.006732537047049674,0.07554804499301151
6590,0.0,299.78778,17653.561999999998,-0.06589999826234683,0.0,0.0,0.0,0.0,-0.01005727149557531,-2.704144945603327,-1.0958252208745292,-1.5662718720789985,0.014225000928648288,-0.02844094542790277,0.0933854112109225
6591,0.0,300.23271,17800.968,-0.06591000793704427,0.0,0.0,0.0,0.0,-0.010058799113461026,-2.7373598918313875,-1.115825460623399,-1.5578644293742485,-0.0035067684168410967,-0.006357340870170694,0.05471767983471454
6592,0.0,300.32473999999996,17760.117,-0.06591998457651183,0.0,0.0,0.0,0.0,-0.010060321689703583,-2.7506432966673575,-1.105500036804359,-1.5424886630817785,0.0003241749509460767,-0.016930103091621084,0.07764168111813732
6593,0.0,300.56448,17610.655,-0.06592999425120916,0.0,0.0,0.0,0.0,-0.010061849307589271,-2.7150269477022975,-1.102549857813199,-1.5356227790791686,-0.00859655803388922,0.00014740338916258188,0.051611394466898046
6594,0.0,300.15952000000004,17541.63,-0.06594000392590671,0.0,0.0,0.0,0.0,-0.010063376925475015,-2.703021960517497,-1.079912432029059,-1.5492830116273286,-0.005184301128075685,-0.006468784499644323,0.09140585184830521
6595,0.0,300.05827999999997,17747.779,-0.06595001360060404,0.0,0.0,0.0,0.0,-0.010064904543360731,-2.6942156012483776,-1.114291805272039,-1.5863743487629585,-0.0046819164284191755,-0.0018120550369109083,0.05799527337043785
6596,0.0,299.79122,17855.039,-0.06595999024007171,0.0,0.0,0.0,0.0,-0.010066427119603288,-2.7340535554300773,-1.111397152386359,-1.5820352065347185,0.0075939493904144525,0.022647308012365277,0.08097112367472772
6597,0.0,299.98138,17664.642,-0.06596999991476904,0.0,0.0,0.0,0.0,-0.010067954737489004,-2.7215059728167272,-1.107652078691749,-1.5404520303807787,0.003385230080596197,0.008773949248771373,0.06184594292421934
6598,0.0,299.38158,17609.74,-0.06598000958946637,0.0,0.0,0.0,0.0,-0.010069482355374693,-2.7306203601162475,-1.0950370136217389,-1.5272639723792185,0.01936086576351868,0.0016230315082307383,0.07180510013686163
6599,0.0,299.59691000000004,17742.108,-0.06598998622893404,0.0,0.0,0.0,0.0,-0.010071004931617278,-2.7212336111898474,-1.113327596476879,-1.5585967052215186,0.010032363519117191,0.011575763296688888,0.07507372742245003
6600,0.0,299.28036000000003,17869.572,-0.06599999590363137,0.0,0.0,0.0,0.0,-0.010072532549502966,-2.7168559654578077,-1.126913152492669,-1.5881345668366784,0.009882485489500381,0.01198485187881279,0.07850067706266363
6601,0.0,300.48151,17784.804,-0.06601000557832892,0.0,0.0,0.0,0.0,-0.01007406016738871,-2.6991518517605475,-1.102661416649209,-1.6043228583843383,-0.0031113458427909266,-0.006088494613187635,0.08392939245468613
6602,0.0,299.8354,17615.526,-0.06602001525302625,0.0,0.0,0.0,0.0,-0.010075587785274426,-2.6912156716773072,-1.105246825604369,-1.5582174457090885,-0.006542117259731703,-0.013304616213563386,0.07571034536752932
6603,0.0,300.15521,17603.808999999997,-0.06602999189249381,0.0,0.0,0.0,0.0,-0.010077110361516983,-2.7110731444870875,-1.0904389859929489,-1.5496061370842185,-0.005889168357490665,-0.007555035520323952,0.07121494477511783
6604,0.0,300.10251,17819.476000000002,-0.06604000156719125,0.0,0.0,0.0,0.0,-0.0100786379794027,-2.7623813937758177,-1.1051741755721989,-1.5491201823362586,-0.016947058818794485,0.004772525508011595,0.07676992024885122
6605,0.0,299.98701,17866.349,-0.0660500112418888,0.0,0.0,0.0,0.0,-0.010080165597288443,-2.7413827987034174,-1.114515936194159,-1.5750250357178686,-0.006126457953359324,0.008569927085485951,0.07334897310223003
6606,0.0,299.87255,17715.334,-0.06605998788135614,0.0,0.0,0.0,0.0,-0.010081688173530973,-2.7316469851175675,-1.086277365182229,-1.5670947324852085,-0.01852160894419048,0.0046239094813943366,0.0911708213948595
6607,0.0,300.45432999999997,17703.843,-0.0660699975560537,0.0,0.0,0.0,0.0,-0.010083215791416689,-2.7009107526091376,-1.111952920066209,-1.5686624330399286,0.01758407801091338,0.02248734013957768,0.06262425275003253
6608,0.0,299.43535,17883.686,-0.06608000723075103,0.0,0.0,0.0,0.0,-0.010084743409302405,-2.7579527815637475,-1.1131204881564387,-1.5651207186403884,0.012975531832835289,0.021965033017779977,0.08073433624560863
6609,0.0,299.49165,18041.644,-0.06608998387021847,0.0,0.0,0.0,0.0,-0.010086265985544934,-2.763160076477668,-1.1310679845277187,-1.5899812151439285,0.01051511538351109,0.013646270975032088,0.07617759146564293
6610,0.0,299.12687,17810.173,-0.06609999354491602,0.0,0.0,0.0,0.0,-0.010087793603430678,-2.749305198585297,-1.110690106466579,-1.5538526682533185,-0.0013084689266108288,-0.007060659144157804,0.08628836230399832
6611,0.0,298.89342,17548.993000000002,-0.06611000321961336,0.0,0.0,0.0,0.0,-0.010089321221316394,-2.681947473012608,-1.104621751617679,-1.5478865503395087,0.010337463256728189,-0.01044523456386439,0.06196514065273324
6612,0.0,299.45158,17627.952,-0.06612001289431091,0.0,0.0,0.0,0.0,-0.01009084883920211,-2.696719342245477,-1.1031866855010488,-1.5585510076420086,0.013740071589789486,-0.003260731534184147,0.07647888340937813
6613,0.0,299.3121,17826.288,-0.06612998953377835,0.0,0.0,0.0,0.0,-0.010092371415444668,-2.7088944541220674,-1.124161469196099,-1.5856906075954786,-0.003142565902222107,-0.02163294739025568,0.07531851446110863
6614,0.0,299.52158,17819.248,-0.06613999920847591,0.0,0.0,0.0,0.0,-0.010093899033330384,-2.7540642316549775,-1.095166405659509,-1.5673759093879585,-0.013398655955344386,-0.01699396419242368,0.07954855903783152
6615,0.0,299.84807,17672.451,-0.06615000888317324,0.0,0.0,0.0,0.0,-0.0100954266512161,-2.7269172349757773,-1.105471969776589,-1.5395946181461586,-0.02074600803447158,-0.0012989347497948788,0.07160901597750964
6616,0.0,300.09918,17733.245,-0.06615998552264091,0.0,0.0,0.0,0.0,-0.010096949227458657,-2.7417123076359373,-1.102992242806859,-1.5457592317545585,-0.0029121904210608176,0.02180753544873618,0.07396555503983193
6617,0.0,300.92458,18069.609,-0.06616999519733824,0.0,0.0,0.0,0.0,-0.010098476845344373,-2.767401440071257,-1.131167384362529,-1.5941411134294785,-0.01055620064856589,0.024728100179223476,0.08192114595523763
6618,0.0,300.25719,18135.61,-0.06618000487203579,0.0,0.0,0.0,0.0,-0.010100004463230117,-2.7718186025571976,-1.1363477268237887,-1.6046061631122985,-0.008816302089701272,0.014762274767673089,0.06841127465566714
6619,0.0,299.95283,17848.422,-0.06619001454673312,0.0,0.0,0.0,0.0,-0.010101532081115805,-2.7389800787412875,-1.110129880486289,-1.5763647550000883,0.01132150946234599,0.016641064381345185,0.07620816223441003
6620,0.0,299.96997000000005,17650.693,-0.06619999118620068,0.0,0.0,0.0,0.0,-0.01010305465735839,-2.7253462920207374,-1.1015059062351689,-1.5385176346148683,0.020650533530548982,0.00046630593374331246,0.07181241985558402
6621,0.0,299.77052000000003,17681.491,-0.06621000086089812,0.0,0.0,0.0,0.0,-0.010104582275244078,-2.737839057803677,-1.091745065371849,-1.5451476339941985,0.02162027973750548,-0.015090445196810985,0.08268716201758752
6622,0.0,299.72895,17861.085,-0.06622001053559545,0.0,0.0,0.0,0.0,-0.010106109893129794,-2.746870358594997,-1.1055198965063189,-1.5769335936062285,-0.0015950334827925484,-0.03079220951020447,0.08646391700307422
6623,0.0,300.26554,17799.999,-0.06622998717506301,0.0,0.0,0.0,0.0,-0.010107632469372352,-2.7193392388028874,-1.122075288565209,-1.5693408039818786,0.005807031568609395,6.535686667972053e-05,0.07713459503934182
6624,0.0,299.36607999999995,17706.021,-0.06623999684976034,0.0,0.0,0.0,0.0,-0.010109160087258068,-2.712515303354418,-1.1002800762641889,-1.5693927837120085,-0.005519477877680055,0.0028754662857614272,0.08476500258690442
6625,0.0,299.7815,17898.272,-0.0662500065244579,0.0,0.0,0.0,0.0,-0.010110687705143812,-2.7452847235135076,-1.1216022020935188,-1.5737408425411286,-0.002474535684167658,0.005815252370645724,0.07503554410568163
6626,0.0,299.94214,18070.141,-0.06626001619915534,0.0,0.0,0.0,0.0,-0.0101122153230295,-2.7937076418174773,-1.128405163264919,-1.5707588474968286,-0.013949999785257787,0.00012042851327786888,0.08222567219329202
6627,0.0,300.64305,18074.66,-0.0662699928386229,0.0,0.0,0.0,0.0,-0.010113737899272085,-2.7856321398454873,-1.133925451134729,-1.5746876234345686,-0.0027813582509236875,-0.004283461703444756,0.06005412259313044
6628,0.0,301.21385,17904.974,-0.06628000251332022,0.0,0.0,0.0,0.0,-0.010115265517157773,-2.7484536632012575,-1.115994268090059,-1.5782170775078985,-0.0024082106630968878,0.009300048965693372,0.07907771691511302
6629,0.0,300.46868,17724.019,-0.06629001218801778,0.0,0.0,0.0,0.0,-0.010116793135043517,-2.7076293100472077,-1.1105831072560188,-1.5694467899423383,-0.01026409280373709,0.003853691470879736,0.061684225168509035
6630,0.0,300.27766,17836.62,-0.06629998882748522,0.0,0.0,0.0,0.0,-0.010118315711286047,-2.7236858790818674,-1.1080432945553589,-1.5901580272863787,0.004295813120838746,0.017452510525178683,0.08281444446864933
6631,0.0,300.03503,17885.575,-0.06630999850218278,0.0,0.0,0.0,0.0,-0.01011984332917179,-2.743484583385847,-1.121656208323849,-1.5716273041575384,0.001045086620792019,0.02238180811516248,0.06778850986595503
6632,0.0,299.83463,17796.968999999997,-0.06632000817688011,0.0,0.0,0.0,0.0,-0.010121370947057506,-2.7397071870130474,-1.116089006974409,-1.5540380930216184,0.006872952536632603,0.01065000835607399,0.07659345159818513
6633,0.0,300.29782,17762.255,-0.06632998481634755,0.0,0.0,0.0,0.0,-0.010122893523300036,-2.7277731273352477,-1.1163850786536291,-1.5551237905037685,0.0006913724808731514,-0.01932859172133348,0.07260691128549424
6634,0.0,299.57752999999997,17921.747,-0.0663399944910451,0.0,0.0,0.0,0.0,-0.01012442114118578,-2.7392652073194275,-1.1292342044967387,-1.5792641701612384,0.005002721238605145,-0.022817539095415777,0.08306303930118372
6635,0.0,299.58756,18098.531000000003,-0.06635000416574244,0.0,0.0,0.0,0.0,-0.010125948759071468,-2.7445027984113373,-1.137473346359879,-1.6195254602347184,-0.006102276537072805,-0.014775285912207186,0.07687521415949293
6636,0.0,300.28603,18030.306,-0.06636001384043999,0.0,0.0,0.0,0.0,-0.010127476376957212,-2.750501948278407,-1.1272679926776887,-1.6029930689530985,-0.01137796877116809,-0.015092867877800087,0.08518905282000491
6637,0.0,300.3053,17751.111,-0.06636999047990733,0.0,0.0,0.0,0.0,-0.010128998953199742,-2.7351982240680472,-1.0992966157171289,-1.5613996589731485,-0.013054056689085089,0.002304765629912658,0.07862569489975192
6638,0.0,300.56762000000003,17807.105,-0.06638000015460488,0.0,0.0,0.0,0.0,-0.010130526571085485,-2.763501237786337,-1.092019453498929,-1.5573947879528987,-0.0018639969728121784,0.0036356107664318464,0.08524698235472211
6639,0.0,300.90822000000003,18019.421000000002,-0.06639000982930232,0.0,0.0,0.0,0.0,-0.010132054188971201,-2.774238851746057,-1.127712809471589,-1.5755025804899985,0.02697187869091718,0.025649609601919372,0.060961683614949747
6640,0.0,300.1982,17892.433999999997,-0.06639998646876966,0.0,0.0,0.0,0.0,-0.010133576765213731,-2.7518453152609874,-1.108966466721469,-1.5780412786155484,-0.0033192228147567865,0.01083943343576879,0.07642928684348334
6641,0.0,300.14361,17769.054,-0.06640999614346721,0.0,0.0,0.0,0.0,-0.010135104383099475,-2.7163489351077676,-1.108954206395259,-1.5760456825435984,0.0037076131291379267,0.00895289033100648,0.06497511862504494
6642,0.0,299.32219,17716.366,-0.06642000581816476,0.0,0.0,0.0,0.0,-0.01013663200098519,-2.7039492870090176,-1.099836981995459,-1.5815467186615086,-0.0017919856935052182,0.001151019892246819,0.08401657249329013
6643,0.0,299.44819,17843.236,-0.0664300154928621,0.0,0.0,0.0,0.0,-0.010138159618870907,-2.7407942017203273,-1.100286763714849,-1.5828173342869085,0.006680816607620264,0.0011933192335714389,0.07968911101220293
6644,0.0,300.33083,18039.099,-0.06643999213232954,0.0,0.0,0.0,0.0,-0.010139682195113436,-2.7699729675000473,-1.122669559748859,-1.5907931324490585,-2.6291198551989275e-05,-0.014406438557804787,0.0874203227592141
6645,0.0,299.51568,17882.771,-0.06645000180702709,0.0,0.0,0.0,0.0,-0.01014120981299918,-2.7523382614346374,-1.1031216348446289,-1.5804559549288586,-0.015907268658925184,-0.01938109023551468,0.08901634466747922
6646,0.0,299.8049,17767.162,-0.06646001148172442,0.0,0.0,0.0,0.0,-0.010142737430884896,-2.725126518074047,-1.108500675650499,-1.5671464082403086,-0.0009997931558194022,-0.01753611683067998,0.07422286787622673
6647,0.0,300.4349,18039.381999999998,-0.06646998812119187,0.0,0.0,0.0,0.0,-0.010144260007127426,-2.7461264303715773,-1.122995724956049,-1.6143996306288382,0.004001314411073986,-0.005573093094796464,0.08458361967325333
6648,0.0,299.78246,18089.666,-0.06647999779588942,0.0,0.0,0.0,0.0,-0.01014578762501317,-2.763518463038037,-1.130443214516059,-1.6048448848358585,0.01982840874391158,0.007901707085687772,0.07121647174301853
6649,0.0,300.10069,17948.75,-0.06649000747058698,0.0,0.0,0.0,0.0,-0.010147315242898886,-2.7656104191944975,-1.116778422342449,-1.5735829781755486,0.005357463644990495,0.005152628044524795,0.08891547562002422
6650,0.0,299.88088999999997,17815.537,-0.0664999841100542,0.0,0.0,0.0,0.0,-0.010148837819141387,-2.747078176190507,-1.117480705986759,-1.5509196131888485,0.0014610652022709087,0.02556293517511527,0.05541656199843885
6651,0.0,299.46738,17838.924,-0.06650999378475175,0.0,0.0,0.0,0.0,-0.010150365437027131,-2.746049423363977,-1.0979729057864889,-1.5785650275922383,-0.008514966069586722,0.017018762475371083,0.07392271279910373
6652,0.0,300.31744,18002.802,-0.0665200034594493,0.0,0.0,0.0,0.0,-0.010151893054912875,-2.7455995403195774,-1.1335030271680386,-1.5932996092214284,-0.002897304257216667,-2.066121217335288e-05,0.06305127889867673
6653,0.0,300.25982,17934.564,-0.06653001313414686,0.0,0.0,0.0,0.0,-0.010153420672798619,-2.7309236258711773,-1.107622795763859,-1.6131131069768685,-0.0030246605742107573,-0.0016771125164181183,0.08980423679948811
6654,0.0,299.77847,17824.34,-0.06653998977361408,0.0,0.0,0.0,0.0,-0.01015494324904112,-2.727794709562377,-1.120859692420239,-1.5694999855725884,-0.00026516992217523374,-0.026667404128617872,0.07942743613412763
6655,0.0,300.63802999999996,17916.868000000002,-0.06654999944831153,0.0,0.0,0.0,0.0,-0.010156470866926864,-2.7699329441210976,-1.110580168830729,-1.5657671722041886,0.009486243702744361,-0.01118620612349259,0.0908899788646425
6656,0.0,299.85976,18070.029,-0.06656000912300908,0.0,0.0,0.0,0.0,-0.01015799848481258,-2.7912427082992077,-1.130122723509429,-1.5714720742422186,0.006091078400942634,-0.012299839924149687,0.08520324946715602
6657,0.0,299.58495,18228.925,-0.06656998576247652,0.0,0.0,0.0,0.0,-0.01015952106105511,-2.7984333389588674,-1.1469570633208488,-1.5957476214630284,0.016558616220708183,-0.0015959847219864285,0.07561531568040063
6658,0.0,299.43005,18041.471,-0.06657999543717386,0.0,0.0,0.0,0.0,-0.010161048678940826,-2.7608249402972076,-1.1322587560452388,-1.5910728908016685,-0.004616933963730905,-0.007517230247167862,0.07283693932319622
6659,0.0,299.58553,17709.065,-0.06659000511187141,0.0,0.0,0.0,0.0,-0.01016257629682657,-2.7215598777220475,-1.093377208632929,-1.5681765796169786,-0.0021574121129199976,0.0038573480878406168,0.07168508471551702
6660,0.0,299.75335,17778.655,-0.06660001478656896,0.0,0.0,0.0,0.0,-0.010164103914712314,-2.7434658382589974,-1.1065222035052389,-1.5542791452204086,-0.005327109914394814,-0.0007796807633310001,0.07178158564179092
6661,0.0,299.88026,17964.91,-0.06660999142603619,0.0,0.0,0.0,0.0,-0.010165626490954816,-2.7731889219924373,-1.107205843347709,-1.5804892908571484,-0.0003421542937679997,0.005573930343354095,0.08574785011765391
6662,0.0,299.54188999999997,17924.33,-0.06662000110073374,0.0,0.0,0.0,0.0,-0.01016715410884056,-2.7645261402624874,-1.118232537560959,-1.5657901729814585,4.095560146600316e-05,0.012400390811073289,0.05989510920193704
6663,0.0,300.13716,17924.626,-0.06663001077543129,0.0,0.0,0.0,0.0,-0.010168681726726275,-2.7477884645106077,-1.112753691620239,-1.5880966712829385,-0.014704592465980286,0.012588439897132288,0.07649017506849252
6664,0.0,300.0662,18033.84,-0.06663998741489874,0.0,0.0,0.0,0.0,-0.010170204302968805,-2.7552718231241573,-1.1342330738650888,-1.5923322593509586,0.0054490807057823954,0.012555282300859887,0.06730660710514494
6665,0.0,300.20435,18156.641,-0.06664999708959607,0.0,0.0,0.0,0.0,-0.010171731920854521,-2.764549546339797,-1.144352098638759,-1.6102637463706586,7.270550963947513e-05,-0.005479949066103865,0.09676838174379572
6666,0.0,299.90827,18127.7,-0.06666000676429362,0.0,0.0,0.0,0.0,-0.010173259538740265,-2.775046614725777,-1.145189043221359,-1.5901323920588486,0.01027400238971509,-0.013499936382339988,0.07313346696496123
6667,0.0,299.81883,18046.333,-0.06667001643899118,0.0,0.0,0.0,0.0,-0.010174787156626008,-2.7876399962436476,-1.128883417312119,-1.5691113028342285,-0.008834492259471501,-0.01965915950020798,0.10513302679082191
6668,0.0,300.19194,17875.894,-0.06667999307845862,0.0,0.0,0.0,0.0,-0.010176309732868538,-2.7605297805430773,-1.1251085540645689,-1.5481872829691885,-0.005873734329317443,-0.005311644779443525,0.059577508997842345
6669,0.0,300.07043,17944.769,-0.06669000275315595,0.0,0.0,0.0,0.0,-0.010177837350754254,-2.7716994443454372,-1.118970082308749,-1.5640921684638787,-0.00936574617700218,0.011472622542509688,0.07870265529784733
6670,0.0,299.52344,18100.929,-0.0667000124278535,0.0,0.0,0.0,0.0,-0.01017936496863997,-2.758907769782997,-1.1397468769342591,-1.6035758904106185,-0.0015937874891445785,0.005744069017995474,0.04552180493565236
6671,0.0,299.28515,18047.578,-0.06670998906732084,0.0,0.0,0.0,0.0,-0.0101808875448825,-2.768604370589977,-1.1146565753080389,-1.6027522194043287,-0.009597692297143481,0.013872635100372488,0.07840067029104372
6672,0.0,299.23895,17908.101000000002,-0.06671999874201828,0.0,0.0,0.0,0.0,-0.010182415162768216,-2.7547327740709577,-1.1177810333163989,-1.5711018326556787,0.00845881296494484,0.004491879143013956,0.06324109610616024
6673,0.0,299.95257000000004,17990.938000000002,-0.06673000841671584,0.0,0.0,0.0,0.0,-0.01018394278065396,-2.7780228342445072,-1.106528283005839,-1.5842446997027786,0.00891140736528743,0.0014348000371537386,0.09187004401061741
6674,0.0,300.66347,18128.956000000002,-0.06673998505618317,0.0,0.0,0.0,0.0,-0.01018546535689649,-2.786519746933087,-1.127374586588209,-1.5968556104473786,0.009872447828709741,-0.003708348951360546,0.08040242185735122
6675,0.0,300.42901,18134.402,-0.06674999473088072,0.0,0.0,0.0,0.0,-0.010186992974782233,-2.781507705313437,-1.129693409442059,-1.6012041759015485,0.004695397822324686,0.0057564114174635745,0.08513572242749161
6676,0.0,300.31146,18028.886000000002,-0.06676000440557806,0.0,0.0,0.0,0.0,-0.010188520592667949,-2.761074909096877,-1.1255852882366189,-1.5936708640580683,-0.0023823171581163977,0.0025616109527113176,0.06922085236631623
6677,0.0,299.90662000000003,17931.48,-0.06677001408027583,0.0,0.0,0.0,0.0,-0.010190048210553693,-2.7601633893069177,-1.109488087872949,-1.5810705924395185,-0.01193316396471159,0.003295321258147887,0.08334583132459313
6678,0.0,299.77609,17950.021,-0.06677999071974305,0.0,0.0,0.0,0.0,-0.010191570786796195,-2.7672171298780674,-1.119778149263499,-1.5693626901840383,0.005025689389221925,0.004252766912865416,0.06652630725613534
6679,0.0,299.56917999999996,18148.444,-0.06679000039444061,0.0,0.0,0.0,0.0,-0.010193098404681938,-2.7868503704407175,-1.1262248516997388,-1.6035986885378686,0.0057987080230129245,0.00010773942015555289,0.0853232598222501
6680,0.0,299.20807,18104.584,-0.06680001006913794,0.0,0.0,0.0,0.0,-0.010194626022567654,-2.784249965384077,-1.125678405920809,-1.5934131945576384,0.0003405425472314327,-0.004341245836772606,0.06496927217196795
6681,0.0,299.92385,17998.609,-0.0668099867086056,0.0,0.0,0.0,0.0,-0.010196148598810212,-2.7611303338773476,-1.1143743851551888,-1.5956229917007285,-0.0077308438358998826,-0.003959894773486186,0.08176786553311002
6682,0.0,300.29981000000004,17934.693,-0.06681999638330294,0.0,0.0,0.0,0.0,-0.010197676216695928,-2.7377902191488577,-1.1152688823434689,-1.5986398425484685,-0.004652840406199595,0.008088160100189251,0.053546089141587545
6683,0.0,300.68299,18114.537,-0.06683000605800027,0.0,0.0,0.0,0.0,-0.010199203834581616,-2.772945640643427,-1.126751336451699,-1.6066698495909684,-0.005825392977646525,-0.003226885434468797,0.09431293629946211
6684,0.0,300.23202000000003,18166.762,-0.06684001573269804,0.0,0.0,0.0,0.0,-0.010200731452467388,-2.798777236042808,-1.131189169239679,-1.5922756186703686,0.006581567645750154,-0.01103980161654359,0.07152786376375052
6685,0.0,299.15145,18029.014,-0.06684999237216527,0.0,0.0,0.0,0.0,-0.01020225402870989,-2.7850718125401874,-1.120184462553599,-1.5751136951016185,0.004700623355740405,-0.002689349974268177,0.08928024362952401
6686,0.0,299.64831000000004,17974.813000000002,-0.06686000204686282,0.0,0.0,0.0,0.0,-0.010203781646595633,-2.7604323058834574,-1.130807376601999,-1.5726544357839087,0.01056448092838309,-0.009166742540137052,0.06736547186970444
6687,0.0,300.15353999999996,18059.223,-0.06687001172156026,0.0,0.0,0.0,0.0,-0.010205309264481377,-2.7658781198709175,-1.1260576654332388,-1.5976169665725186,0.017980374310524783,-0.0042519714102119055,0.07424562851322303
6688,0.0,299.80406,18111.778000000002,-0.06687998836102771,0.0,0.0,0.0,0.0,-0.010206831840723907,-2.7610894998983175,-1.148973025719809,-1.5954657352852086,-0.002062306330708788,-0.001029434946497319,0.05095653700676865
6689,0.0,300.28777,18116.037,-0.06688999803572504,0.0,0.0,0.0,0.0,-0.010208359458609623,-2.791846808008827,-1.117255359164519,-1.5977208247077685,-0.009223025644766762,0.003544123401652747,0.07623031492134633
6690,0.0,300.06755,18007.682,-0.0669000077104226,0.0,0.0,0.0,0.0,-0.010209887076495366,-2.7857480556569274,-1.112910340085699,-1.5752270777878086,-0.011349520761360489,0.0028664343770200473,0.07207662177940873
6691,0.0,300.08691,17966.258,-0.06690998434989004,0.0,0.0,0.0,0.0,-0.010211409652737896,-2.7729749235713177,-1.1177288509362489,-1.5705899387051587,-0.008631465715734341,0.01186100941184049,0.08345218306833922
6692,0.0,300.84058999999996,18188.253,-0.06691999402458759,0.0,0.0,0.0,0.0,-0.010212937270623612,-2.794631725908677,-1.140814741214649,-1.5933283855242684,-0.005347128595295504,0.0035994353060616064,0.08004499079182552
6693,0.0,300.24029,18240.601000000002,-0.06693000369928492,0.0,0.0,0.0,0.0,-0.010214464888509328,-2.785221266929937,-1.1390128785618188,-1.6204530907012684,0.0056603151832796145,-0.001085145868795559,0.08924402804444982
6694,0.0,300.17183,18013.61,-0.06694001337398248,0.0,0.0,0.0,0.0,-0.010215992506395072,-2.7630478083665873,-1.124927790246729,-1.5877122441949985,0.0033134567124127163,0.007333163436651884,0.07227082939957553
6695,0.0,299.70397,18045.951,-0.06694999001344992,0.0,0.0,0.0,0.0,-0.010217515082637602,-2.778342717301077,-1.1236658885721889,-1.5835097894052486,0.00010923795625844691,0.004060297725895186,0.0924479218208995
6696,0.0,299.23714,18178.15,-0.06695999968814725,0.0,0.0,0.0,0.0,-0.010219042700523318,-2.8056912494251676,-1.135236090139079,-1.5847763520302485,0.005033712202188715,-0.0014653219672660185,0.07923514051689952
6697,0.0,299.93962999999997,18251.157,-0.0669700093628448,0.0,0.0,0.0,0.0,-0.010220570318409034,-2.7980181090678875,-1.1468478349600688,-1.6030300525817485,0.017057764498220284,-0.00872971024278032,0.08453764446321592
6698,0.0,299.8924,18062.773,-0.06697998600231225,0.0,0.0,0.0,0.0,-0.010222092894651591,-2.759747146165837,-1.130057774178019,-1.6008271455393384,-0.003414849914144447,-0.018826265891507783,0.07442699926787293
6699,0.0,299.73654,18015.566000000003,-0.0669899956770098,0.0,0.0,0.0,0.0,-0.010223620512537307,-2.7489028369705872,-1.125766761329529,-1.6016125156918484,-0.017276875779344884,-0.01759437668492978,0.07542348210521814
6700,0.0,300.47275,18142.892,-0.06700000535170714,0.0,0.0,0.0,0.0,-0.010225148130423023,-2.782512748087627,-1.132390883858279,-1.6000825080408483,-0.025099729918400475,-0.007218416307877223,0.07702441118371753
6701,0.0,300.18361,18124.655,-0.06701001502640469,0.0,0.0,0.0,0.0,-0.010226675748308767,-2.796033658747037,-1.131517867572119,-1.5818910210454884,-0.010844290956748189,0.009131430267527,0.08497810326843581
6702,0.0,300.12595,18123.537,-0.06701999166587203,0.0,0.0,0.0,0.0,-0.010228198324551296,-2.7970675791490773,-1.120456824180479,-1.5915782999515486,-0.0014827228152083486,0.024434154298713276,0.08068647233738482
6703,0.0,300.46808,18074.129,-0.06703000134056958,0.0,0.0,0.0,0.0,-0.01022972594243704,-2.7780756245747176,-1.1217624982593388,-1.5942457821648086,0.0016390081318325086,0.017562203967754587,0.08099608813069152
6704,0.0,299.70977999999997,18038.0,-0.06704001101526702,0.0,0.0,0.0,0.0,-0.010231253560322728,-2.7499866092775473,-1.139297196539879,-1.5938178866475785,0.008430905625390601,0.003121730845715847,0.07553974039519193
6705,0.0,299.75197000000003,18235.612,-0.06704998765473458,0.0,0.0,0.0,0.0,-0.010232776136565314,-2.7775751803503272,-1.139369542597019,-1.6262259818210085,0.005004838627339115,-0.018644136212532983,0.06226650859022594
6706,0.0,300.06565,18375.288,-0.06705999732943191,0.0,0.0,0.0,0.0,-0.010234303754451002,-2.8123131428036974,-1.165458807496829,-1.6078567707581086,0.006944820339725403,-0.005725475777335464,0.07814013835908122
6707,0.0,299.5423,18113.232,-0.06707000700412924,0.0,0.0,0.0,0.0,-0.010235831372336718,-2.797373985979317,-1.1334359500114188,-1.5751603046062184,-0.0007128780657655873,-0.02124563355278078,0.07624883713317433
6708,0.0,299.73546,18060.816000000003,-0.06707998364359691,0.0,0.0,0.0,0.0,-0.010237353948579275,-2.790307275806887,-1.1200391624892592,-1.5796905458033186,-0.0068305620027989825,-0.01975796354395918,0.0912337239610675
6709,0.0,299.98812000000004,18185.888,-0.06708999331829424,0.0,0.0,0.0,0.0,-0.010238881566464991,-2.786705070376377,-1.1357009692849591,-1.6056499120403085,-0.007301980664824383,-0.019484179313938782,0.08361963075336501
6710,0.0,300.65283,18191.633,-0.06710000299299179,0.0,0.0,0.0,0.0,-0.010240409184350735,-2.779710604936077,-1.1326951628633088,-1.6173964191245984,0.0034522853510140367,-0.007526323254890273,0.0941077055314574
6711,0.0,301.3567,18201.51,-0.06711001266768912,0.0,0.0,0.0,0.0,-0.010241936802236423,-2.7804561543596575,-1.126970502448329,-1.6253778914873087,0.012639240204145887,-0.003275297308346677,0.07970524600679532
6712,0.0,301.33027999999996,18250.332,-0.06711998930715679,0.0,0.0,0.0,0.0,-0.010243459378479008,-2.825963952125927,-1.1325041652194592,-1.5891773025145883,-0.0053966006327530154,-0.009766880137891022,0.07766754331368972
6713,0.0,300.63159,18227.207,-0.06712999898185412,0.0,0.0,0.0,0.0,-0.010244986996364697,-2.8114938287728375,-1.129546893477599,-1.5995751737157786,0.007312831661470294,-0.0004142962114103526,0.07626644539341214
6714,0.0,300.09743,18260.822,-0.06714000865655168,0.0,0.0,0.0,0.0,-0.01024651461425044,-2.8122473828722074,-1.145094000361979,-1.5934924307154585,-0.0009289279738330532,0.014370423596250386,0.07201942178476353
6715,0.0,299.73586,18272.069,-0.06714998529601912,0.0,0.0,0.0,0.0,-0.01024803719049297,-2.8069056296700174,-1.133071990575499,-1.6142750008665383,0.006921565641980343,-0.0013763285149580487,0.07736310725489422
6716,0.0,299.88102000000003,18143.713,-0.06715999497071656,0.0,0.0,0.0,0.0,-0.010249564808378714,-2.7780653907487074,-1.1188122179431688,-1.6183580947945087,0.003206908296822207,0.002197257362502418,0.07628153370065122
6717,0.0,300.42522,18030.762,-0.067170004645414,0.0,0.0,0.0,0.0,-0.01025109242626443,-2.7637033811812874,-1.1276489747152887,-1.5895489626512684,-0.005654557794886405,0.0033267251211472073,0.07025003379763853
6718,0.0,299.77206,18125.245,-0.06718001432011134,0.0,0.0,0.0,0.0,-0.010252620044150118,-2.7978117100225175,-1.129553884903289,-1.5822562977065384,0.00978372916982889,-0.0014772388016921186,0.08817078036627851
6719,0.0,299.60131,18272.31,-0.0671899909595789,0.0,0.0,0.0,0.0,-0.010254142620392703,-2.802536596563827,-1.147539479478329,-1.6042499043771385,0.0035552188955477863,-0.016944167003009082,0.09293332738730532
6720,0.0,299.93096,18281.436999999998,-0.06720000063427634,0.0,0.0,0.0,0.0,-0.010255670238278392,-2.8128913033107574,-1.136394944278449,-1.6078143155789184,0.01224170368641209,-0.017333231736656785,0.0923085249516421
6721,0.0,300.35725,18294.564,-0.06721001030897378,0.0,0.0,0.0,0.0,-0.010257197856164135,-2.7984544145609473,-1.133662411408769,-1.6289737134421884,0.006898469011250883,-0.01185203505570479,0.08680683731391782
6722,0.0,300.28912,18332.875,-0.06721998694844122,0.0,0.0,0.0,0.0,-0.010258720432406665,-2.7818893966261076,-1.160125565595479,-1.6307212658896584,-0.0016975213999323184,0.006903060959379073,0.07386945637384773
6723,0.0,300.94579,18268.122,-0.06722999662313878,0.0,0.0,0.0,0.0,-0.010260248050292409,-2.7933359816807974,-1.138887742174469,-1.6208293104633984,-0.005462666464448204,0.0056897853597880944,0.07881927633135694
6724,0.0,301.03915,18225.058,-0.06724000629783611,0.0,0.0,0.0,0.0,-0.010261775668178125,-2.824455324052037,-1.128607914609929,-1.5868993136397684,-0.015865568351059685,0.003204438094403417,0.07429095524319643
6725,0.0,300.41274,18154.913,-0.06725001597253366,0.0,0.0,0.0,0.0,-0.01026330328606384,-2.804646892547097,-1.128884531887229,-1.5851089007130683,0.001065067710113999,0.013802611412461687,0.06861924626519234
6726,0.0,300.61697999999996,17958.721999999998,-0.06725999261200111,0.0,0.0,0.0,0.0,-0.010264825862306398,-2.783880737047637,-1.0936210979319991,-1.5815013250570287,-0.0006513273474435044,0.00985180498574745,0.08053638567957243
6727,0.0,300.04943,18041.576,-0.06727000228669866,0.0,0.0,0.0,0.0,-0.010266353480192114,-2.755992953220327,-1.1347132530874788,-1.5934822982144587,-0.0007030210573352764,0.0038504159372814662,0.08458917329705141
6728,0.0,299.57729,18335.366,-0.06728001196139599,0.0,0.0,0.0,0.0,-0.01026788109807783,-2.7895519991823474,-1.142645481495329,-1.6412959492332984,-0.014714413899199587,-0.002144191630915238,0.085014693756047
6729,0.0,299.83771,18390.374,-0.06728998860086355,0.0,0.0,0.0,0.0,-0.010269403674320388,-2.8243753786191474,-1.140933392801359,-1.6249057169407086,0.012648114248521688,-0.0025548676719708073,0.09435841501695051
6730,0.0,299.5868,18239.718,-0.06729999827556099,0.0,0.0,0.0,0.0,-0.010270931292206104,-2.8071516467942974,-1.1448172817596687,-1.5924499990125784,-0.0024421432943707777,0.0039150962507899165,0.09028455585039193
6731,0.0,299.73251,18326.828999999998,-0.06731000795025832,0.0,0.0,0.0,0.0,-0.01027245891009182,-2.809035481380217,-1.1480420515279288,-1.6138208621717183,0.009434512624188901,-0.012855070581446687,0.0936669427512075
6732,0.0,300.49267000000003,18423.29,-0.06731998458972588,0.0,0.0,0.0,0.0,-0.010273981486334377,-2.8324814807441574,-1.1410893319917488,-1.6266492163877784,-0.005665724418938464,-0.01088872298688329,0.09543329605428301
6733,0.0,300.47393,18374.035,-0.06732999426442332,0.0,0.0,0.0,0.0,-0.010275509104220093,-2.8132869774748075,-1.1475542729297887,-1.6244066912664585,0.019755112258177783,0.0017045198170480083,0.07372785669887293
6734,0.0,299.99406,18262.464,-0.06734000393912076,0.0,0.0,0.0,0.0,-0.010277036722105809,-2.7881733710962875,-1.139302769415429,-1.6238570030872086,0.010890026026511889,0.026351342038174973,0.07670277925747492
6735,0.0,300.40262,18230.773,-0.0673500136138182,0.0,0.0,0.0,0.0,-0.010278564339991525,-2.8113899706375873,-1.1437103060254188,-1.5865995942601883,-0.014307761170316088,0.013403909657112885,0.062301611626690345
6736,0.0,300.55487,18270.561999999998,-0.06735999025328576,0.0,0.0,0.0,0.0,-0.010280086916234082,-2.8122572113981774,-1.138239160785459,-1.6032981585582087,-0.025967145971257776,0.007552297921203773,0.07045266963213713
6737,0.0,299.95992,18277.282,-0.06736999992798309,0.0,0.0,0.0,0.0,-0.010281614534119798,-2.811420266815577,-1.1366050923491888,-1.6078119851036883,-0.02067826517253588,0.0004919400770957054,0.06613663963867815
6738,0.0,299.24425,18298.756,-0.06738000960268065,0.0,0.0,0.0,0.0,-0.010283142152005542,-2.797722949313757,-1.146387616764649,-1.6182543379842684,0.0058311885655685045,-0.0006721426962353194,0.09739458854409751
6739,0.0,299.28917,18206.908,-0.06738998624214809,0.0,0.0,0.0,0.0,-0.010284664728248072,-2.7713070125817074,-1.135947999659339,-1.6271903932661884,0.0014760071961955686,-0.01835581285682768,0.08253489585881002
6740,0.0,300.00158999999996,18226.543,-0.06739999591684565,0.0,0.0,0.0,0.0,-0.010286192346133816,-2.7875240804322075,-1.1391919198544889,-1.6136980562595984,0.004449553862486777,-0.017054872682434885,0.0970893783622256
6741,0.0,300.38066000000003,18380.853,-0.06741000559154298,0.0,0.0,0.0,0.0,-0.010287719964019504,-2.840629835398337,-1.150002285171389,-1.5966884241808785,0.004790161835277165,-0.006914003047208973,0.08377026659273162
6742,0.0,300.90867000000003,18379.479,-0.06742001526624031,0.0,0.0,0.0,0.0,-0.01028924758190522,-2.8389070062533075,-1.131302045300819,-1.6166936288552385,0.007931822398534924,0.00982889033473595,0.09853238531988931
6743,0.0,300.01863,18255.902,-0.06742999190570798,0.0,0.0,0.0,0.0,-0.010290770158147777,-2.8052770327842875,-1.148400640738319,-1.5956607859294587,-0.004956138585132795,0.008619777166555771,0.06015502406458865
6744,0.0,299.91431,18226.655,-0.0674400015804053,0.0,0.0,0.0,0.0,-0.010292297776033493,-2.8079305321461674,-1.113648087483509,-1.6188692794699586,-0.007005953973908823,-0.012182175243037089,0.07972402558414872
6745,0.0,299.73781,18298.881999999998,-0.06745001125510286,0.0,0.0,0.0,0.0,-0.010293825393919237,-2.8003503068230575,-1.138470384458279,-1.6235826149601285,-0.0034829263380130667,-0.003883508786872476,0.06192734541075315
6746,0.0,299.92281,18245.261000000002,-0.0674599878945703,0.0,0.0,0.0,0.0,-0.010295347970161767,-2.8133155511276273,-1.128611258335259,-1.6041769503699383,0.014283589075930487,0.007273850714223173,0.07464776417316073
6747,0.0,299.59342000000004,18157.955,-0.06746999756926786,0.0,0.0,0.0,0.0,-0.01029687558804751,-2.8150302742718574,-1.122726200429449,-1.5818083398373286,-0.007311760048164534,-0.008269180776929601,0.06833207598810083
6748,0.0,299.84123,18306.563000000002,-0.06748000724396519,0.0,0.0,0.0,0.0,-0.010298403205933199,-2.8061017170406775,-1.1556641240801688,-1.6029722973260485,-0.01087490225551929,0.00973312725718487,0.08967680742716182
6749,0.0,299.85014,18339.214,-0.06748998388343252,0.0,0.0,0.0,0.0,-0.010299925782175728,-2.807756354453977,-1.1443320362867788,-1.6225745324356382,-0.00014812161123096488,0.018942279988207484,0.09259690200960272
6750,0.0,300.11165,18403.093,-0.06749999355813008,0.0,0.0,0.0,0.0,-0.010301453400061472,-2.808731101050177,-1.145946650321129,-1.6394028940714684,0.014211666557332286,0.017406389407126882,0.11275060051261789
6751,0.0,300.24086,18450.173,-0.06751000323282763,0.0,0.0,0.0,0.0,-0.010302981017947216,-2.8057324887042374,-1.165487279824639,-1.6371723253013284,0.002045827236382428,-0.012099441345871887,0.08490438729716061
6752,0.0,300.39736,18450.297,-0.06752001290752507,0.0,0.0,0.0,0.0,-0.010304508635832932,-2.8390639586937976,-1.152492347292139,-1.6168731767729585,-0.00023632872066632876,-0.017382882004806883,0.09743155596074592
6753,0.0,300.19118,18366.284,-0.06752998954699241,0.0,0.0,0.0,0.0,-0.010306031212075462,-2.8417462343585176,-1.145709651122739,-1.5954357430822486,0.0028201792059800172,-0.00901885250721644,0.06882884414112803
6754,0.0,300.08963,18333.869,-0.06753999922168996,0.0,0.0,0.0,0.0,-0.010307558829961205,-2.826727942701327,-1.137433019005899,-1.6088775189088484,-0.015905714333271787,0.00897068553588773,0.08395062207078131
6755,0.0,299.71409,18166.317,-0.06755000889638729,0.0,0.0,0.0,0.0,-0.010309086447846894,-2.796178654836347,-1.127468818847509,-1.5984591800556383,-0.00891652741936774,0.007289369044804713,0.06427276000022754
6756,0.0,299.68372,18105.304,-0.06755998553585474,0.0,0.0,0.0,0.0,-0.010310609024089423,-2.7681498265951174,-1.126140447966409,-1.6092700519975882,-0.01124683394322609,0.013885993789690885,0.07103255367761724
6757,0.0,299.47111,18281.648,-0.06756999521055229,0.0,0.0,0.0,0.0,-0.010312136641975167,-2.7875240804322075,-1.1400658480657389,-1.6295745707514884,0.020562702985380783,0.02034851812624238,0.07613611711254974
6758,0.0,299.68717000000004,18354.29,-0.06758000488524984,0.0,0.0,0.0,0.0,-0.01031366425986091,-2.8316372407608372,-1.1354594104611189,-1.6121491008317286,0.006561234553343433,-0.0048244241781335954,0.09143160157309652
6759,0.0,299.85854,18431.162,-0.06759001455994718,0.0,0.0,0.0,0.0,-0.010315191877746627,-2.8315913405313076,-1.171768113219509,-1.5992536694590485,0.005980813181335305,-0.022533221117355777,0.07148968449998253
6760,0.0,299.87329,18457.709,-0.06759999119941462,0.0,0.0,0.0,0.0,-0.010316714453989156,-2.826388503917827,-1.1578138354923289,-1.6264803075961085,0.0010312056010470692,-0.014641906735293685,0.09168919204001873
6761,0.0,299.42256000000003,18481.814,-0.06761000087411217,0.0,0.0,0.0,0.0,-0.0103182420718749,-2.8147501106192077,-1.1769733816332288,-1.6262865741769883,-0.0015457511257537585,0.006264473053455354,0.08276804065381962
6762,0.0,300.62734,18435.522,-0.06762001054880973,0.0,0.0,0.0,0.0,-0.010319769689760616,-2.8150971487784573,-1.136651904503809,-1.6521891984083783,-0.0026506615523249275,0.0010780913176243292,0.10413095283942492
6763,0.0,300.46758,18335.679,-0.06762998718827695,0.0,0.0,0.0,0.0,-0.010321292266003118,-2.8083076638333875,-1.148881934535819,-1.6163987730761384,-0.0026551025261882175,-0.016323946484298087,0.07724892207462501
6764,0.0,300.57816,18317.589,-0.0676399968629745,0.0,0.0,0.0,0.0,-0.010322819883888862,-2.832203140941687,-1.1342639779931387,-1.6016226481928484,0.01133580844775719,-0.01026294580462389,0.07912132415966672
6765,0.0,300.10202000000004,18280.066000000003,-0.06765000653767184,0.0,0.0,0.0,0.0,-0.010324347501774578,-2.826085136837887,-1.1328282026014387,-1.5977701699876383,0.01043636355923889,0.013340057675561186,0.06451675974355844
6766,0.0,299.8959,18322.696,-0.06766001621236939,0.0,0.0,0.0,0.0,-0.010325875119660322,-2.8215833679685973,-1.1451453721420488,-1.6029133261702286,0.0005242038449248914,0.02118511617730818,0.06975069806885793
6767,0.0,300.00449,18486.998,-0.06766999285183684,0.0,0.0,0.0,0.0,-0.010327397695902851,-2.8345032186686874,-1.130714664217849,-1.6543677874483884,-0.014029700011623588,-0.0034650399406228167,0.07523958329156873
6768,0.0,299.97506,18466.708,-0.06768000252653428,0.0,0.0,0.0,0.0,-0.010328925313788595,-2.8005246871652676,-1.1607509435571988,-1.6521425889037784,-0.009631798498159502,-0.003015418314748617,0.08522333816363861
6769,0.0,299.76271,18289.475,-0.06769001220123183,0.0,0.0,0.0,0.0,-0.010330452931674311,-2.806387960193927,-1.139308646266009,-1.6138470040242985,0.0020745344355656077,-0.0035884950420818867,0.08758216311818652
6770,0.0,299.70014,18492.069,-0.06769998884069905,0.0,0.0,0.0,0.0,-0.010331975507916813,-2.8533454148782673,-1.1409098853990387,-1.6268718274347485,0.0054711245696579544,-0.015508374386057384,0.10177128587404391
6771,0.0,299.86473,18525.428,-0.06770999851539661,0.0,0.0,0.0,0.0,-0.010333503125802557,-2.8506714478643675,-1.167252057523809,-1.6133441279996683,-0.006279054836969463,-0.02462346690764698,0.07658768012561552
6772,0.0,300.0946,18393.873,-0.06772000819009416,0.0,0.0,0.0,0.0,-0.0103350307436883,-2.824023679509437,-1.1595254175612488,-1.6077291012455086,-0.00906496085831698,-0.005911444863589184,0.08293804172909743
6773,0.0,299.86703,18342.337,-0.0677299848295616,0.0,0.0,0.0,0.0,-0.01033655331993083,-2.8031513353994972,-1.152238021517039,-1.6202229816035587,0.004339548440205086,0.004690579210149126,0.06856126505472003
6774,0.0,299.60899,18358.955,-0.06773999450425894,0.0,0.0,0.0,0.0,-0.010338080937816546,-2.7992633934407873,-1.1541412091798688,-1.6272592942729884,0.004177804643967216,0.017550450266594585,0.08523714268300102
6775,0.0,300.2052,18387.047,-0.06775000417895671,0.0,0.0,0.0,0.0,-0.010339608555702318,-2.8230627131145973,-1.1321555058600488,-1.6339851471117783,-0.0017026028491838182,-0.00027446548872513474,0.07237079766769164
6776,0.0,300.64191,18438.551,-0.06776001385365404,0.0,0.0,0.0,0.0,-0.010341136173588006,-2.8445945817146274,-1.1479019190390989,-1.6123623899777786,0.007444677487007463,-0.0031398952789335366,0.07542555825467302
6777,0.0,300.04086,18406.016,-0.06776999049312149,0.0,0.0,0.0,0.0,-0.010342658749830536,-2.8301769447167175,-1.155208262860179,-1.6095842608535986,0.016617360408505786,-0.0008185276778548922,0.06447668671535353
6778,0.0,300.44702,18349.248,-0.06778000016781904,0.0,0.0,0.0,0.0,-0.01034418636771628,-2.838017980615567,-1.1289252645412489,-1.6107700674456285,0.016223754287909883,0.0035701183329682465,0.08153529626415723
6779,0.0,300.1941,18592.896,-0.06779000984251637,0.0,0.0,0.0,0.0,-0.010345713985601995,-2.8222345838078673,-1.180647021195789,-1.6488945143832185,-0.004041663651256146,-0.010848300387393888,0.07603110184568553
6780,0.0,299.88262000000003,18740.831000000002,-0.06779998648198382,0.0,0.0,0.0,0.0,-0.010347236561844525,-2.8584757027845873,-1.1700313012230987,-1.6682376614422383,-0.003032247993609577,0.004352275165436115,0.0938193011157441
6781,0.0,299.67068,18540.76,-0.06780999615668115,0.0,0.0,0.0,0.0,-0.010348764179730241,-2.8388101395437473,-1.151067616326529,-1.6460504226775285,-0.0015440413675350184,-0.0008067491520674422,0.10834253701257589
6782,0.0,299.84927999999996,18363.058999999997,-0.06782000583137882,0.0,0.0,0.0,0.0,-0.010350291797616012,-2.8293237881325175,-1.1518370784524687,-1.6007504425067685,0.0017400986757593684,0.004498862766678186,0.08868604843963152
6783,0.0,299.2946,18386.501,-0.06783001550607626,0.0,0.0,0.0,0.0,-0.0103518194155017,-2.8350484485474974,-1.1336289741554688,-1.6203596690420485,-0.0005109621657280396,-0.0012016679077703888,0.09853757620015159
6784,0.0,299.61814,18485.552,-0.06783999214554359,0.0,0.0,0.0,0.0,-0.01035334199174423,-2.8377396408130973,-1.1663007170049189,-1.6151057646235285,-0.013833351393995488,0.0005721415278884725,0.07480894895931843
6785,0.0,299.55273,18316.539,-0.06785000182024115,0.0,0.0,0.0,0.0,-0.010354869609629974,-2.7954450617639472,-1.136754445413929,-1.6355708835182785,-0.008300043159075482,-0.0024154078798821975,0.07764295983976352
6786,0.0,300.0078,18284.238,-0.0678600114949387,0.0,0.0,0.0,0.0,-0.010356397227515718,-2.790939341219268,-1.1392013430804189,-1.6278111102774486,0.0015291101140614187,-0.0026257416793655274,0.07163623288844573
6787,0.0,300.03083,18363.185,-0.06786998813440592,0.0,0.0,0.0,0.0,-0.01035791980375822,-2.8274114812187876,-1.149404771587419,-1.6051334584643384,0.01114262724994169,0.0003417927762648207,0.07259041861361652
6788,0.0,299.78607999999997,18493.365,-0.06787999780910348,0.0,0.0,0.0,0.0,-0.010359447421643964,-2.8465192502795773,-1.152040235097519,-1.6229615939738382,0.004643217975299936,0.009841993989004181,0.06562173532211103
6789,0.0,299.90946,18679.326,-0.06789000748380103,0.0,0.0,0.0,0.0,-0.01036097503952968,-2.872150627459197,-1.1768540207714488,-1.6290439316741185,-0.005273891992642615,0.013999648026907688,0.07604576154813232
6790,0.0,300.38017,18630.584,-0.06789998412326848,0.0,0.0,0.0,0.0,-0.010362497615772237,-2.8624695293787474,-1.1505476163752089,-1.6502153872135785,-0.01000118865064047,-0.006953024321810072,0.08534694251683742
6791,0.0,300.17049,18443.91,-0.0679099937979658,0.0,0.0,0.0,0.0,-0.010364025233657925,-2.8092958866559172,-1.148333867556729,-1.6488582400296383,-0.01019577238924439,-0.015277330058505085,0.09107448157535152
6792,0.0,300.50371,18461.084,-0.06792000347266336,0.0,0.0,0.0,0.0,-0.010365552851543669,-2.835156258358137,-1.152426283385619,-1.6241262236387786,0.004531346754284106,-0.01172291152921129,0.08835821542277691
6793,0.0,300.71046,18612.227,-0.06793001314736091,0.0,0.0,0.0,0.0,-0.010367080469429413,-2.8503243083801073,-1.1479480219186489,-1.6593798290680382,-0.0007826659501131151,-0.0030751104993397772,0.10723537889330789
6794,0.0,300.6622,18409.638,-0.06793998978682814,0.0,0.0,0.0,0.0,-0.010368603045671915,-2.8343580199293577,-1.154364022876859,-1.6073482205329184,0.0027566458915847677,0.006199751095367795,0.07847112359699693
6795,0.0,300.92166000000003,18358.647,-0.06794999946152569,0.0,0.0,0.0,0.0,-0.010370130663557658,-2.8190748646960273,-1.1538779668038888,-1.6076173397594784,-0.0039368217514840565,0.009801153626498553,0.08003286016162832
6796,0.0,300.65262,18454.403000000002,-0.06796000913622324,0.0,0.0,0.0,0.0,-0.010371658281443374,-2.840430123803627,-1.144727305150789,-1.6245201752776586,0.014744666507435287,0.006191013535780464,0.06699272451566714
6797,0.0,299.64403,18602.585,-0.06796998577569058,0.0,0.0,0.0,0.0,-0.010373180857685932,-2.825951793124727,-1.1685752608293989,-1.6601941781734084,-0.006551598544892434,0.014970989089521587,0.07583805642338343
6798,0.0,300.09425,18693.391,-0.06797999545038802,0.0,0.0,0.0,0.0,-0.01037470847557162,-2.8667839483045476,-1.160789852361039,-1.6547501880361286,-0.005543430198118964,0.002762921861379157,0.07599902944027022
6799,0.0,300.01902,18630.622,-0.06799000512508557,0.0,0.0,0.0,0.0,-0.010376236093457364,-2.8683439481585076,-1.1511670161613388,-1.6437330183738184,-0.00020917926178938583,0.0068540022266373535,0.09158285650827422
6800,0.0,299.82475,18588.951,-0.06800001479978302,0.0,0.0,0.0,0.0,-0.010377763711343108,-2.8633389992895575,-1.1541760649833088,-1.6330618736206586,-0.004303541787301505,-0.00045995048461107863,0.088332064450946
6801,0.0,299.77681,18530.751,-0.06800999143925046,0.0,0.0,0.0,0.0,-0.010379286287585637,-2.8506780339900173,-1.1376371889010488,-1.6445702669314486,-0.004756618494691695,0.008306334530271393,0.11019300527270288
6802,0.0,299.84584,18596.943,-0.06802000111394779,0.0,0.0,0.0,0.0,-0.010380813905471353,-2.820502939386967,-1.184243957725779,-1.6482592065705184,-0.017219266431659285,-0.008015476833415972,0.09296677375985622
6803,0.0,300.03767,18544.66,-0.06803001078864535,0.0,0.0,0.0,0.0,-0.01038234152335707,-2.8188234773462177,-1.1625076152555687,-1.6557824872380085,-0.004753765993010176,-0.0026316991846534873,0.09204361375274742
6804,0.0,299.76229,18389.048,-0.06803998742811279,0.0,0.0,0.0,0.0,-0.010383864099599627,-2.8202398996610074,-1.1458931507158487,-1.6236784684195884,0.015792351912083787,-0.016841821650158382,0.07661774528258272
6805,0.0,300.13586000000004,18417.036,-0.06804999710281012,0.0,0.0,0.0,0.0,-0.010385391717485315,-2.821119198097787,-1.1666505922644488,-1.6105493815738485,0.01901751988763308,-0.001004670060273215,0.07383901023484292
6806,0.0,300.56104,18613.225,-0.06806000677750768,0.0,0.0,0.0,0.0,-0.010386919335371059,-2.8607168093557673,-1.1552350126628188,-1.6420038057531585,0.01055471319741909,0.0016521010456496783,0.08832198058595082
6807,0.0,300.25319,18601.696,-0.06807001645220523,0.0,0.0,0.0,0.0,-0.010388446953256802,-2.846257122478707,-1.1597872413870889,-1.6484066344600683,-0.016174995679847787,0.015839261338713384,0.08031613145233502
6808,0.0,300.22747000000004,18511.143,-0.06807999309167267,0.0,0.0,0.0,0.0,-0.010389969529499332,-2.8321705142884674,-1.154804584020339,-1.6399500491254684,-0.015548746323041786,0.016208614304915683,0.08445928983298293
6809,0.0,300.4577,18595.281000000003,-0.06809000276637,0.0,0.0,0.0,0.0,-0.010391497147385048,-2.8363149098474874,-1.143919339521049,-1.672266850464888,-0.013566046898364588,0.01961244765734788,0.0921785350963131
6810,0.0,299.94265,18646.903000000002,-0.06810001244106756,0.0,0.0,0.0,0.0,-0.010393024765270764,-2.8678711656618474,-1.169811020651359,-1.6305108138438884,0.005541437743122325,0.0054841846541718855,0.08541934227623273
6811,0.0,300.42432,18656.832,-0.068109989080535,0.0,0.0,0.0,0.0,-0.010394547341513322,-2.8614633720294473,-1.1627510992545989,-1.6469964942958983,0.006498341106386334,-0.016270305024004086,0.09138206782870792
6812,0.0,300.18132,18611.543,-0.06811999875523256,0.0,0.0,0.0,0.0,-0.010396074959399038,-2.8770800891956974,-1.168687224965449,-1.6116769262851285,0.012875491623962088,-0.024061263063161774,0.09044568490779412
6813,0.0,299.89648,18603.818,-0.06813000842992989,0.0,0.0,0.0,0.0,-0.010397602577284754,-2.8551265059040474,-1.1641555652182092,-1.6358138608922586,0.021897398573604978,-0.00043964849898242857,0.08799693603337141
6814,0.0,299.90662000000003,18594.736,-0.06813998506939745,0.0,0.0,0.0,0.0,-0.010399125153527311,-2.8340156427205674,-1.164565526208669,-1.6537542645128385,0.015098707238126386,0.001209926808010479,0.07895670141591972
6815,0.0,300.02186,18642.455,-0.06814999474409478,0.0,0.0,0.0,0.0,-0.010400652771413027,-2.8395254941143473,-1.1705118857455288,-1.6568034380387684,0.0017851028882259383,0.02292668639618778,0.07734259907287022
6816,0.0,300.18935,18608.746,-0.06816000441879222,0.0,0.0,0.0,0.0,-0.010402180389298743,-2.861190807752547,-1.154079299598759,-1.6413238136110484,-0.01052921171890229,0.001083567427789779,0.07615114969103333
6817,0.0,299.9157,18419.387,-0.06817001409348977,0.0,0.0,0.0,0.0,-0.010403708007184459,-2.8454728669013076,-1.1343420995758489,-1.6192187494294483,-5.675402274618595e-05,0.002778096902826817,0.08702398896934901
6818,0.0,300.70418,18431.082,-0.06817999073295711,0.0,0.0,0.0,0.0,-0.010405230583427016,-2.8460566002839176,-1.1484984193729688,-1.6080336842255682,-0.0006850086521625904,-0.0020415133240816777,0.07243804809007873
6819,0.0,300.67367,18668.431,-0.06819000040765466,0.0,0.0,0.0,0.0,-0.010406758201312732,-2.8565227645418476,-1.152872012104609,-1.6653419953064585,0.00996460515445496,-0.0014872338046535486,0.09661637801679411
6820,0.0,300.43209,18773.117,-0.06820001008235199,0.0,0.0,0.0,0.0,-0.010408285819198448,-2.860124159372277,-1.180506584731929,-1.6659279578392885,0.006202140744403634,-0.005266098782148485,0.07299205676775514
6821,0.0,300.1054,18771.506,-0.06820998672181966,0.0,0.0,0.0,0.0,-0.010409808395441006,-2.8702933400258974,-1.169218775967909,-1.6665568821763586,-0.015319596773176484,0.011609040456473091,0.1030513855203799
6822,0.0,299.78792000000004,18731.891,-0.06821999639651699,0.0,0.0,0.0,0.0,-0.010411336013326722,-2.8746054284764675,-1.1828538799135888,-1.6365677189666585,0.006762079670940303,0.010387220929388891,0.08913339025278072
6823,0.0,299.36188,18718.587,-0.06823000607121454,0.0,0.0,0.0,0.0,-0.010412863631212466,-2.8629822339293476,-1.185383864088279,-1.6416169468649784,0.001061182199955529,-0.0031645021589370467,0.08845731533555733
6824,0.0,299.56392,18689.168,-0.06824001574591188,0.0,0.0,0.0,0.0,-0.010414391249098154,-2.888530321950747,-1.1525124096441188,-1.6399977732051785,0.018305438114856083,-0.006540866605133274,0.08869805241356622
6825,0.0,300.3105,18583.468,-0.06824999238537954,0.0,0.0,0.0,0.0,-0.010415913825340739,-2.8527476986442775,-1.1537541476416688,-1.6424082951930785,0.0033766549449998967,-0.030501519202265574,0.08513204838262901
6826,0.0,300.33541,18334.145,-0.06826000206007687,0.0,0.0,0.0,0.0,-0.010417441443226427,-2.825206041051127,-1.140654951673879,-1.6072611823493286,0.0074997754943202126,-0.005638614912512964,0.08604129747911492
6827,0.0,300.15349,18381.637,-0.0682700117347742,0.0,0.0,0.0,0.0,-0.010418969061112143,-2.8190719262707375,-1.149229377995109,-1.6192572529332485,-0.006747866305162555,0.00931231020382846,0.08010692671743813
6828,0.0,300.27891,18687.643,-0.06827998837424176,0.0,0.0,0.0,0.0,-0.0104204916373547,-2.8793441965441473,-1.157686976579809,-1.6435456684303285,-0.002092694917107908,0.019799957694353682,0.08331191379074572
6829,0.0,299.85024,18841.122,-0.0682899980489392,0.0,0.0,0.0,0.0,-0.010422019255240417,-2.8899973054455272,-1.1676546217885388,-1.6695785966245782,-0.0014445650323424686,0.014808225659708086,0.08101925609422803
6830,0.0,299.26714,18631.048,-0.06830000772363676,0.0,0.0,0.0,0.0,-0.01042354687312616,-2.8718214225017076,-1.154730312788009,-1.6368216394417183,-0.003133493463476727,5.815046782200435e-06,0.09348050675930772
6831,0.0,299.77398999999997,18620.546000000002,-0.06830998436310409,0.0,0.0,0.0,0.0,-0.01042506944936869,-2.838837801271477,-1.1652981060309688,-1.6560450203389183,0.009094429514950311,-0.013009735103210886,0.07621402591273872
6832,0.0,299.28426,18773.702,-0.06831999403780165,0.0,0.0,0.0,0.0,-0.010426597067254434,-2.869617502209197,-1.164559852008109,-1.6725592744437483,-0.007602787565736712,-0.016073311979312385,0.10193670908536989
6833,0.0,299.38372999999996,18658.525,-0.06833000371249898,0.0,0.0,0.0,0.0,-0.010428124685140122,-2.8636717506223976,-1.160414037898949,-1.6476399081093984,-0.015702915365507088,-0.016881490391573384,0.08777491672445982
6834,0.0,300.37141,18524.995,-0.06834001338719653,0.0,0.0,0.0,0.0,-0.010429652303025866,-2.8512357268450574,-1.155844178622939,-1.6240559040818383,0.001026460145528729,-0.007463227157913172,0.08841981292285611
6835,0.0,300.10692,18387.168999999998,-0.06834999002666398,0.0,0.0,0.0,0.0,-0.010431174879268396,-2.8317431253962875,-1.141513073183569,-1.6159839484851986,0.007221999464205853,0.009111792163363872,0.06999586507630402
6836,0.0,300.60887,18543.44,-0.06835999970136153,0.0,0.0,0.0,0.0,-0.01043270249715414,-2.8530114476453075,-1.163031060257229,-1.6207001210756484,0.03206196488626957,0.013098584977979687,0.08003993467382652
6837,0.0,300.57846,18790.043,-0.06837000937605886,0.0,0.0,0.0,0.0,-0.010434230115039855,-2.864769404455727,-1.1668858689376689,-1.6800486112328885,0.00982619519079496,-0.005012278112223335,0.08759025797323541
6838,0.0,299.72377,18922.173,-0.06837998601552653,0.0,0.0,0.0,0.0,-0.010435752691282413,-2.8837633855302873,-1.1829405127971389,-1.6851641056877484,-0.001015908766937389,-0.006867043971324473,0.0883287470701186
6839,0.0,299.58353999999997,18805.932,-0.06838999569022386,0.0,0.0,0.0,0.0,-0.010437280309168129,-2.8650940497877673,-1.1891496080849289,-1.6622900860052585,-0.01035490635719969,-0.017523139123399183,0.07200233636157734
6840,0.0,299.88903999999997,18676.08,-0.06840000536492119,0.0,0.0,0.0,0.0,-0.010438807927053817,-2.8571846195071675,-1.1576217232733688,-1.6622556355018585,-0.013898680694192986,0.0026296947733056675,0.09085145712234072
6841,0.0,299.89871,18727.056,-0.06841001503961874,0.0,0.0,0.0,0.0,-0.01044033554493956,-2.874920447932557,-1.1763174035184887,-1.6413193553106087,-0.008896376813304031,-0.0053747224352688056,0.08661304715279222
6842,0.0,300.27569,18734.124,-0.06841999167908619,0.0,0.0,0.0,0.0,-0.01044185812118209,-2.886455591045987,-1.1487357225463888,-1.6595143886813184,-0.014836168057715787,-0.005300081062677276,0.10847800855094589
6843,0.0,299.60631,18518.802,-0.06843000135378374,0.0,0.0,0.0,0.0,-0.010443385739067834,-2.8345555023738473,-1.161160600572629,-1.6335371892425683,-0.002086928916088848,0.002298536066972848,0.06960337555731834
6844,0.0,299.6042,18498.761000000002,-0.06844001102848107,0.0,0.0,0.0,0.0,-0.01044491335695355,-2.830512938449877,-1.1618275217884488,-1.6308210710245086,-0.008016889000080343,0.0094683268065261,0.09252436343494372
6845,0.0,300.5668,18715.077,-0.06844998766794863,0.0,0.0,0.0,0.0,-0.010446435933196108,-2.8747429265150375,-1.166357053710479,-1.6478161123017883,0.023090418493096877,0.013885719198913788,0.06466458178739734
6846,0.0,300.78949,18832.373,-0.06845999734264607,0.0,0.0,0.0,0.0,-0.010447963551081824,-2.8824429179999678,-1.1829558128736488,-1.6591723154475586,-0.0026951088825365372,0.009085644332608282,0.08742567474624233
6847,0.0,300.71985,18898.41,-0.06847000701734351,0.0,0.0,0.0,0.0,-0.01044949116896754,-2.9040189643043575,-1.1943309637962887,-1.6462949199266586,0.00961755797727907,0.004498523631869715,0.05504174862744765
6848,0.0,300.30151,18856.145,-0.06847998365681096,0.0,0.0,0.0,0.0,-0.01045101374521007,-2.887549293203927,-1.1801810274747988,-1.6640670227056287,-0.003421987957123916,0.008044547789385053,0.09653864754862271
6849,0.0,299.7388,18677.523,-0.06848999333150851,0.0,0.0,0.0,0.0,-0.010452541363095813,-2.8581699039044075,-1.173607162151009,-1.6457236495202785,-0.012729867319590088,-0.002089067279099888,0.08204728444693651
6850,0.0,299.67296,18769.302,-0.06850000300620585,0.0,0.0,0.0,0.0,-0.010454068980981529,-2.8807133000792677,-1.163338075037529,-1.6613475607622383,-0.01064119510670419,-0.017312175386328683,0.08858933169108632
6851,0.0,300.149,18789.482,-0.06851001268090329,0.0,0.0,0.0,0.0,-0.010455596598867245,-2.870034454625347,-1.1744283000320488,-1.6670704986520486,-0.012537332575338386,-0.028150526670990675,0.08982606119339201
6852,0.0,299.72438999999997,18587.188000000002,-0.06851998932037084,0.0,0.0,0.0,0.0,-0.010457119175109802,-2.855163489532697,-1.1639254561204988,-1.6309519829374284,0.002069382768082178,0.008500960724054502,0.08142982199499772
6853,0.0,299.61872,18567.685,-0.06852999899506818,0.0,0.0,0.0,0.0,-0.010458646792995518,-2.8596309092235974,-1.1453190432091889,-1.6391625511477483,0.006451526114666054,-0.002463294383583228,0.0956668289240809
6854,0.0,300.28168999999997,18730.698,-0.06854000866976573,0.0,0.0,0.0,0.0,-0.010460174410881234,-2.884593136037177,-1.162725160052039,-1.6463459877316984,-0.001974059643724518,0.003677142064180666,0.07874574882460032
6855,0.0,299.78701,18907.385,-0.06854998530923317,0.0,0.0,0.0,0.0,-0.010461696987123764,-2.8793624350459472,-1.187276108650029,-1.6807344802255786,-0.0008925066483260481,0.006812432729359765,0.07734682027278683
6856,0.0,300.47897,18867.015,-0.06855999498393073,0.0,0.0,0.0,0.0,-0.010463224605009508,-2.8818591846173574,-1.1858921103384388,-1.6673501556796484,-0.0017089266443829285,0.011373416238468789,0.07276720035856353
6857,0.0,300.36145,18782.159,-0.06857000465862806,0.0,0.0,0.0,0.0,-0.010464752222895224,-2.8650033639038175,-1.195443715056109,-1.6488602665298382,-0.0026844232483069475,-0.00018727364575746983,0.07180235220259043
6858,0.0,300.43478,18761.236,-0.06858001433332561,0.0,0.0,0.0,0.0,-0.010466279840780968,-2.891392145533187,-1.1583585587460887,-1.6531966729828085,-0.014587928875966487,-0.02055682714805088,0.09280004345590122
6859,0.0,300.35918,18805.83,-0.06858999097279306,0.0,0.0,0.0,0.0,-0.010467802417023497,-2.890843369279027,-1.1789159847249489,-1.6467434857459284,0.0046479556287925055,-0.019457310961037082,0.08826773624184732
6860,0.0,300.05796000000004,18799.134,-0.0686000006474905,0.0,0.0,0.0,0.0,-0.010469330034909241,-2.8782498864361474,-1.179208104728779,-1.6570093304590885,0.008693194533026503,0.007982966298657431,0.10207350798137091
6861,0.0,299.84776,18740.947,-0.06861001032218794,0.0,0.0,0.0,0.0,-0.01047085765279493,-2.860718430555927,-1.167101589883959,-1.6689601087635384,-8.441648609575852e-05,0.013611044322055486,0.0982709120785839
6862,0.0,300.05123,18744.962,-0.06861998696165528,0.0,0.0,0.0,0.0,-0.010472380229037459,-2.8793408528188174,-1.1673663521350888,-1.6512930800199384,-2.8711708146124974e-05,-0.0036592327673381567,0.08656995869228973
6863,0.0,299.68145,18850.128,-0.06862999663635283,0.0,0.0,0.0,0.0,-0.010473907846923203,-2.880953541677977,-1.1787099909796188,-1.6703048942962584,-0.014106788079231587,-0.0041966291083000455,0.07138294772119844
6864,0.0,299.96202,18897.962,-0.06864000631105027,0.0,0.0,0.0,0.0,-0.010475435464808919,-2.9076366724613973,-1.171986873916099,-1.6648851208363682,0.006081757006647683,0.005808004390030405,0.08926829741084501
6865,0.0,299.59185,18769.853,-0.06865001598574771,0.0,0.0,0.0,0.0,-0.010476963082694662,-2.8812976414119373,-1.171789796771649,-1.6524792919120086,-0.019128098910796382,-0.007592719304793053,0.09008524550272151
6866,0.0,299.15156,18707.677,-0.06865999262521516,0.0,0.0,0.0,0.0,-0.010478485658937192,-2.8798359268176768,-1.161285230334929,-1.6455454188276883,-0.017265241641696683,-0.0038088254657268066,0.08402796142441413
6867,0.0,300.17127,18766.306,-0.06867000229991271,0.0,0.0,0.0,0.0,-0.010480013276822936,-2.8808595120686973,-1.163195713398479,-1.6604333051970086,-0.015367950081198586,0.0008881728256608332,0.08284724641413663
6868,0.0,299.81599,18783.776,-0.06868001197461004,0.0,0.0,0.0,0.0,-0.010481540894708624,-2.8746225524031574,-1.180007457732669,-1.6551689643024585,0.02717719558518037,0.03699377128350097,0.08234972035003463
6869,0.0,299.57106,18822.224,-0.06868998861407771,0.0,0.0,0.0,0.0,-0.010483063470951182,-2.8868571420606175,-1.1783457275686688,-1.6562831341124185,0.007327230553341353,0.02110702397885108,0.08370300401134333
6870,0.0,299.87474,18855.521,-0.06869999828877504,0.0,0.0,0.0,0.0,-0.010484591088836898,-2.9095742093026176,-1.160459735478459,-1.6615735155345381,-0.013775187798505185,-0.01047618023516849,0.1020726568512869
6871,0.0,299.9482,18774.593,-0.0687100079634726,0.0,0.0,0.0,0.0,-0.010486118706722641,-2.897334350744637,-1.154547725119989,-1.6551252932231484,0.004037442653989566,-0.02249712306929318,0.09448432654062701
6872,0.0,300.58776,18850.153000000002,-0.06871998460293982,0.0,0.0,0.0,0.0,-0.010487641282965143,-2.870311375877677,-1.1806069978168388,-1.6790573486600586,0.00025656668915366074,0.007366790471695613,0.1089543678204589
6873,0.0,300.61062999999996,18890.021,-0.0687299942776376,0.0,0.0,0.0,0.0,-0.010489168900850915,-2.8816752797242073,-1.1916008627268488,-1.6688186590495784,0.009564600866102611,0.007174655150633333,0.08390202254298491
6874,0.0,299.59821,18949.356,-0.06874000395233493,0.0,0.0,0.0,0.0,-0.010490696518736603,-2.8852729255292675,-1.185924129041599,-1.6889340040098084,-0.025554228317005975,-0.01056379090506499,0.08760644869658332
6875,0.0,299.86393,18864.221999999998,-0.06875001362703226,0.0,0.0,0.0,0.0,-0.010492224136622319,-2.8919369701119573,-1.1999143771473288,-1.6424012024423786,-0.0016732095783579285,-0.004740935612293915,0.048803569008787254
6876,0.0,299.95765,18736.167,-0.06875999026649982,0.0,0.0,0.0,0.0,-0.010493746712864876,-2.8870912028337177,-1.157869969547869,-1.6503656522034085,0.009736447981737601,0.0037672994368785065,0.08340485415616822
6877,0.0,299.95341,18811.165,-0.06876999994119726,0.0,0.0,0.0,0.0,-0.010495274330750592,-2.902628481192127,-1.165493258000229,-1.6500027060175881,0.033308837022076265,-0.0025448598007331074,0.08884938536900161
6878,0.0,299.48348,18868.568,-0.06878000961589481,0.0,0.0,0.0,0.0,-0.010496801948636336,-2.881845404415997,-1.174357676500079,-1.679370240290938,0.006052060976691915,-0.013404457825416986,0.0954630410242186
6879,0.0,299.1761,18824.449,-0.06878998625536203,0.0,0.0,0.0,0.0,-0.010498324524878838,-2.890573338127377,-1.160580413565369,-1.6710085964907084,-0.0019137997351023278,-0.008085278315579843,0.08884702348301851
6880,0.0,298.90127,18813.894,-0.0687999959300597,0.0,0.0,0.0,0.0,-0.01049985214276461,-2.8726301987315273,-1.1759876919359489,-1.6703362037243485,0.0011229905573805388,0.018180981618323183,0.09504041846050901
6881,0.0,299.16671,18738.913,-0.06881000560475703,0.0,0.0,0.0,0.0,-0.010501379760650298,-2.8786320843738675,-1.163896071867599,-1.6536335864259284,-0.012644007545866387,0.015104069357655587,0.092376381297589
6882,0.0,299.26043,18841.855,-0.06882001527945458,0.0,0.0,0.0,0.0,-0.010502907378536042,-2.902043937209437,-1.170197474239499,-1.6552121287567183,-0.014287167875283686,-0.002349951518122158,0.09272619373561282
6883,0.0,299.84671000000003,19023.515,-0.06882999191892203,0.0,0.0,0.0,0.0,-0.010504429954778571,-2.910408418109947,-1.2012199499011789,-1.6710451748193185,-0.006283414244199704,-0.004925559913014915,0.09184266396641522
6884,0.0,300.0681,18891.983,-0.06884000159361958,0.0,0.0,0.0,0.0,-0.010505957572664315,-2.891662176684837,-1.169562470401829,-1.6814665534228284,0.011658135463568389,0.01012899312815379,0.09170985322280782
6885,0.0,300.37622000000005,18735.828,-0.06885001126831691,0.0,0.0,0.0,0.0,-0.010507485190550031,-2.8644212517213674,-1.165114809087879,-1.6656878175655883,0.01145059043233529,-0.008099475773331023,0.06851899631354844
6886,0.0,300.2116,18938.799,-0.06885998790778436,0.0,0.0,0.0,0.0,-0.01050900776679256,-2.882558631161387,-1.189000660320229,-1.6853627027073486,-0.01298793401405929,-0.030123407702198873,0.07793686215051943
6887,0.0,300.32018,19029.842,-0.06886999758248191,0.0,0.0,0.0,0.0,-0.010510535384678305,-2.9122333828650575,-1.1910385089213489,-1.6813247997338383,0.0050062992273582655,-0.012275670869514388,0.06660820015571754
6888,0.0,300.41405,18899.599,-0.06888000725717924,0.0,0.0,0.0,0.0,-0.010512063002563993,-2.909951239664827,-1.1769076217017387,-1.6581474129714087,0.001058081249349489,0.017006903396200684,0.09923448049968071
6889,0.0,300.30442,18798.478,-0.06888998389664669,0.0,0.0,0.0,0.0,-0.01051358557880655,-2.891495091743347,-1.169161020712209,-1.6536115988987585,0.02261443716587118,0.016617510369520583,0.10672482243291989
6890,0.0,299.93152000000003,18838.273,-0.06889999357134424,0.0,0.0,0.0,0.0,-0.010515113196692266,-2.893600422801127,-1.1712080898892387,-1.6615561889578283,-0.005376824726576286,-0.00948582269732781,0.1088801269856319
6891,0.0,299.68587,18941.993000000002,-0.0689100032460418,0.0,0.0,0.0,0.0,-0.01051664081457801,-2.887755590924287,-1.1910721488246687,-1.6790651506858283,0.021008787355155878,0.0005733246898977414,0.0933991316305266
6892,0.0,299.30634,18997.874,-0.06892001292073913,0.0,0.0,0.0,0.0,-0.010518168432463726,-2.902245979279377,-1.179629920745409,-1.6930034190614285,0.008639677398519773,0.028571348689272573,0.08277789147129183
6893,0.0,299.43231000000003,18969.117,-0.06892998956020646,0.0,0.0,0.0,0.0,-0.010519691008706256,-2.909152393285987,-1.1758039896928187,-1.6811815261696985,-0.001941164073927978,0.015439468313006884,0.09091512975862473
6894,0.0,299.72393,18853.34,-0.06893999923490401,0.0,0.0,0.0,0.0,-0.010521218626592,-2.8942214437874174,-1.175216912584879,-1.6615063370529086,-0.01141848053666629,0.002104464424969468,0.06557252480450433
6895,0.0,299.85571,18846.585,-0.06895000890960157,0.0,0.0,0.0,0.0,-0.010522746244477715,-2.882933938998427,-1.1763146677432188,-1.6696427353559085,-0.013313731411462987,-0.012449279115148188,0.09437896676872881
6896,0.0,299.44242,18909.414,-0.06895998554906879,0.0,0.0,0.0,0.0,-0.010524268820720245,-2.906868426235577,-1.182199320348989,-1.6589220426728584,0.010189411205116591,0.0039578405102334464,0.07280541812583534
6897,0.0,300.02881,18954.887,-0.06896999522376634,0.0,0.0,0.0,0.0,-0.010525796438605961,-2.8998084035138074,-1.1786787828765388,-1.6833253607312784,-0.004812705535427056,-0.021618242091554378,0.1002610892889991
6898,0.0,299.8619,18800.645,-0.0689800048984639,0.0,0.0,0.0,0.0,-0.010527324056491705,-2.890752683395077,-1.185228634172959,-1.6389454116513185,-0.0037516187836309466,-0.013830099874424589,0.07575260904245043
6899,0.0,300.04091,18850.118000000002,-0.06899001457316123,0.0,0.0,0.0,0.0,-0.01052885167437742,-2.9005492919869273,-1.1699957361445887,-1.6594201564220183,-0.0030306279080246873,-0.0018826472594528183,0.09238486220092601
6900,0.0,300.02927999999997,18978.017,-0.06899999121262868,0.0,0.0,0.0,0.0,-0.01053037425061995,-2.9194429613015873,-1.1759219320044592,-1.6734782922844484,0.025457056619165877,0.043949271177955364,0.0980458246483695
6901,0.0,300.20763999999997,18968.084,-0.06901000088732623,0.0,0.0,0.0,0.0,-0.010531901868505694,-2.919462821003547,-1.1724337172101988,-1.6739273647287685,0.015623895029958385,0.019409931386361084,0.0959489805734271
6902,0.0,299.62991,18968.886000000002,-0.06902001056202378,0.0,0.0,0.0,0.0,-0.01053342948639141,-2.9055549501309472,-1.172515891793309,-1.6879967476673083,-0.0035568095968797767,-0.015424074004237585,0.0964047556671586
6903,0.0,299.93562000000003,18957.671000000002,-0.069029987201491,0.0,0.0,0.0,0.0,-0.01053495206263394,-2.897088029645327,-1.194465118109529,-1.6711052605502486,-0.0060509250220048055,-0.014503726779406385,0.07207407142890702
6904,0.0,299.50147999999996,18974.932,-0.06903999687618856,0.0,0.0,0.0,0.0,-0.010536479680519656,-2.9021339138183175,-1.1876322660601788,-1.6781394453944685,-0.005793175677466925,-0.0014975594311226084,0.09485521052773041
6905,0.0,299.93272,19057.738999999998,-0.06905000655088611,0.0,0.0,0.0,0.0,-0.0105380072984054,-2.9312929212210874,-1.1904544715637089,-1.6713292901473584,0.003696815530772286,0.002299956238313008,0.07537786355921593
6906,0.0,300.42236,18987.05,-0.06906001622558366,0.0,0.0,0.0,0.0,-0.010539534916291143,-2.896867647748577,-1.1928099740711788,-1.6819113702167283,-0.017528320884410583,-0.016127437773154184,0.09286313347337771
6907,0.0,300.47913,18815.381999999998,-0.06906999286505089,0.0,0.0,0.0,0.0,-0.010541057492533645,-2.881689769200637,-1.1823880888426188,-1.6553285511932085,0.008962328046412912,0.008242114333633352,0.08791036394482742
6908,0.0,300.09069,18864.141,-0.06908000253974844,0.0,0.0,0.0,0.0,-0.010542585110419389,-2.8839214525458874,-1.1793613081438987,-1.6709450657094385,0.01976525387842868,0.015479196836177787,0.10578455673762291
6909,0.0,299.83249,19108.14,-0.069090012214446,0.0,0.0,0.0,0.0,-0.010544112728305105,-2.930916194833907,-1.1868137626293989,-1.6906675736058985,0.02097821557313868,0.003984072136772306,0.1022452944033249
6910,0.0,299.74157,19171.503,-0.06909998885391333,0.0,0.0,0.0,0.0,-0.010545635304547663,-2.9465042370223267,-1.2016582818944388,-1.6794957819783283,-0.006590062227963503,-0.015130962028559687,0.0928002349601701
6911,0.0,299.40207000000004,18977.085,-0.06910999852861077,0.0,0.0,0.0,0.0,-0.01054716292243335,-2.929818743650597,-1.182525688206199,-1.6562156516557585,-0.005535618039847964,0.0008183484947072082,0.08056128630077992
6912,0.0,299.77067999999997,19001.089,-0.06912000820330821,0.0,0.0,0.0,0.0,-0.010548690540319094,-2.900180468950527,-1.190824307850209,-1.6848519233319383,-0.0014958051912244788,0.021706732262537682,0.09029012365969141
6913,0.0,300.46844,19049.058,-0.06912998484277566,0.0,0.0,0.0,0.0,-0.010550213116561624,-2.921729968102297,-1.1762947067162488,-1.6924134035281984,0.004899353719053565,0.015272187814247586,0.09653662206167281
6914,0.0,300.22968,19096.84,-0.06913999451747299,0.0,0.0,0.0,0.0,-0.01055174073444734,-2.905074669583547,-1.1987618051585789,-1.7011260371630685,-0.004201062888087626,-0.0025555910312171975,0.08213708069729872
6915,0.0,299.93475,19014.468,-0.06915000419217054,0.0,0.0,0.0,0.0,-0.010553268352333084,-2.9182727587610975,-1.196081454669049,-1.6655693686288984,-0.0030611398069609773,0.005156813476712865,0.07911486469027922
6916,0.0,299.56276,18861.822,-0.0691600138668681,0.0,0.0,0.0,0.0,-0.0105547959702188,-2.8970167981632975,-1.1767607004372387,-1.6597455110291284,-0.0034361189456685367,0.014861922848757585,0.08647429167084811
6917,0.0,299.53782,18811.168999999998,-0.06916999050633554,0.0,0.0,0.0,0.0,-0.010556318546461357,-2.9128664615275373,-1.162832767212659,-1.6424265336948785,-0.0004078309057022766,0.0055549866194844946,0.08537852856220472
6918,0.0,299.25985,19020.195,-0.06918000018103287,0.0,0.0,0.0,0.0,-0.010557846164347046,-2.9052701255278373,-1.181281417083399,-1.6951127017945984,-0.014231944731583587,-0.0029839648024943973,0.10041334328877541
6919,0.0,299.27921000000003,19066.402,-0.06919000985573043,0.0,0.0,0.0,0.0,-0.01055937378223279,-2.9195794460900575,-1.188501938621009,-1.6876286339059785,-0.0010625341795639591,0.004088462228324806,0.09001226920401932
6920,0.0,299.44772,18895.445,-0.06919998649519787,0.0,0.0,0.0,0.0,-0.010560896358475319,-2.888511982123937,-1.172883296279569,-1.6823483849848584,-0.002011849616804098,0.0014206249722297686,0.1112357105531099
6921,0.0,300.18323,18944.504,-0.06920999616989543,0.0,0.0,0.0,0.0,-0.010562423976361063,-2.921790256483247,-1.183496888427049,-1.6533691281498284,-0.004074519096348726,0.009381057399263282,0.08283361414729122
6922,0.0,300.2595,19233.529,-0.06922000584459276,0.0,0.0,0.0,0.0,-0.010563951594246779,-2.959540814133937,-1.1976880640276089,-1.6892836766193184,-0.0003811662768656826,-0.008907146344641903,0.08101831174513484
6923,0.0,300.58353999999997,19286.279,-0.06923001551929031,0.0,0.0,0.0,0.0,-0.010565479212132495,-2.9580562000874173,-1.211091032375379,-1.6934001064755784,0.008724087515325402,0.005394561365601755,0.07638368653598293
6924,0.0,300.54485,19023.001,-0.06923999215875776,0.0,0.0,0.0,0.0,-0.010567001788375052,-2.907065503380027,-1.188743092144809,-1.6867087041401885,0.011231067771670092,0.009744995860906212,0.08584512516700422
6925,0.0,300.0267,18873.105,-0.06925000183345509,0.0,0.0,0.0,0.0,-0.01056852940626074,-2.8852325981752873,-1.1723389783258489,-1.6793809807419984,0.0020880384249483477,0.004096545025697516,0.0993027816624215
6926,0.0,300.09956,18917.708,-0.06926001150815264,0.0,0.0,0.0,0.0,-0.010570057024146484,-2.8920414361972675,-1.167849571107779,-1.6906199508511983,-0.0007551315068606773,0.00042747364041836357,0.09465301545702531
6927,0.0,300.03575,18995.381,-0.06926998814761998,0.0,0.0,0.0,0.0,-0.010571579600389014,-2.908631582734587,-1.1914283062348188,-1.6740617216920286,-0.02128145903656648,0.002289787665609448,0.0943622511818291
6928,0.0,299.10342,18965.074,-0.06927999782231753,0.0,0.0,0.0,0.0,-0.010573107218274758,-2.915088924296877,-1.187921954263769,-1.6618980595415684,-0.011329053109340488,0.00033693434336033067,0.08530107775106091
6929,0.0,299.22272999999996,18912.175,-0.06929000749701497,0.0,0.0,0.0,0.0,-0.010574634836160474,-2.911170483510157,-1.171775509945239,-1.6658829695348485,-0.023847872592101776,-0.01116070971122629,0.09601125289807291
6930,0.0,299.77403,18998.543999999998,-0.06929998413648253,0.0,0.0,0.0,0.0,-0.010576157412403031,-2.9042120897734174,-1.1954336838801187,-1.6754372087027787,0.004703718429495865,-0.015345747745007386,0.07116392661933273
6931,0.0,300.42564,19142.234,-0.06930999381117986,0.0,0.0,0.0,0.0,-0.010577685030288747,-2.924563522006947,-1.1921068798267886,-1.7020907525832785,0.025777734063814273,-0.006760112851171193,0.09732048247153381
6932,0.0,300.67757,19192.366,-0.06932000348587741,0.0,0.0,0.0,0.0,-0.010579212648174463,-2.9230433428819174,-1.203905265316199,-1.7070514224228583,0.036111623587439766,0.023727022252674777,0.09429025672247382
6933,0.0,300.86994,19063.453999999998,-0.06933001316057474,0.0,0.0,0.0,0.0,-0.010580740266060179,-2.930145719457867,-1.1780770136421488,-1.6865913697786086,0.01032102834010619,0.012899295908561386,0.09247127115620392
6934,0.0,299.9642,19012.688000000002,-0.06933998980004241,0.0,0.0,0.0,0.0,-0.010582262842302737,-2.9245791260584872,-1.1816793203976688,-1.6731240600494885,-0.0051358208598160544,0.0003206806566512167,0.06856439903727934
6935,0.0,299.2541,19066.145,-0.06934999947473974,0.0,0.0,0.0,0.0,-0.010583790460188452,-2.9266049169834174,-1.1917718993437287,-1.6772551820321986,-0.013503547605696385,-0.00027954735340917573,0.07990953951845753
6936,0.0,299.4051,18955.556,-0.06936000914943707,0.0,0.0,0.0,0.0,-0.010585318078074168,-2.908903336411407,-1.1778218772669689,-1.6752903887632882,-0.0005087306850328094,0.0005301696385986695,0.08786981874207592
6937,0.0,299.67045,19034.021,-0.06936998578890474,0.0,0.0,0.0,0.0,-0.010586840654316726,-2.9070506086035572,-1.191149763782329,-1.6876666307847286,-0.0025329462087073274,-0.005993397646252295,0.0968280338036829
6938,0.0,299.56453999999997,19053.606,-0.06937999546360207,0.0,0.0,0.0,0.0,-0.010588368272202442,-2.9270007937974873,-1.1751486195281386,-1.6896711434575584,-0.008168642251657223,-0.01082959680379799,0.0983428173719304
6939,0.0,299.67017999999996,19092.572,-0.06939000513829963,0.0,0.0,0.0,0.0,-0.010589895890088158,-2.936491400859137,-1.189650153634329,-1.6775235919836884,-0.002996604793516867,-0.00015249231619981986,0.10495035806279389
6940,0.0,300.56671,19204.22,-0.06940001481299718,0.0,0.0,0.0,0.0,-0.010591423507973902,-2.9455086174740677,-1.2023225686599988,-1.6897722658175385,0.013023755444844588,0.007015309616057153,0.08899685074880533
6941,0.0,300.35649,19202.858,-0.06940999145246451,0.0,0.0,0.0,0.0,-0.010592946084216431,-2.9364419542542572,-1.2112084680619688,-1.6895389143195085,0.006086669851082545,0.0013661119141997488,0.08031805257452462
6942,0.0,300.21854,19154.587,-0.06942000112716196,0.0,0.0,0.0,0.0,-0.010594473702102147,-2.928734870018627,-1.196756887185709,-1.6970244007582684,0.009914825696917111,-0.015928917760561788,0.07579526585841033
6943,0.0,300.60942,19148.806,-0.06943001080185951,0.0,0.0,0.0,0.0,-0.010596001319987891,-2.927063108678637,-1.1932766770672387,-1.7004188899182786,0.02220032691625168,-0.0029598218897116772,0.08565904989214002
6944,0.0,300.3087,19018.164,-0.06943998744132684,0.0,0.0,0.0,0.0,-0.01059752389623042,-2.917605026945197,-1.1768893831999387,-1.6865526636247883,0.021851501383825276,0.008771260285655991,0.1054579457003889
6945,0.0,299.90252999999996,18968.871,-0.0694499971160244,0.0,0.0,0.0,0.0,-0.010599051514116165,-2.9336489303536073,-1.166786063802819,-1.6656282384597085,-0.00913510654153982,0.002194633855343498,0.09456279262837101
6946,0.0,300.55002,19174.335,-0.06946000679072173,0.0,0.0,0.0,0.0,-0.010600579132001853,-2.9402200599021273,-1.2018251641859088,-1.6864737314419984,-0.017997943054008682,-0.010553060586505989,0.07822958098515852
6947,0.0,299.58405,19185.32,-0.06947001646541928,0.0,0.0,0.0,0.0,-0.010602106749887596,-2.949489373141937,-1.195789638640249,-1.6865792107774085,-0.01020964580961359,-0.002548443362361778,0.06470724772260814
6948,0.0,299.41078999999996,19233.17,-0.06947999310488673,0.0,0.0,0.0,0.0,-0.010603629326130126,-2.9318990474309072,-1.2142512581122686,-1.7002532235269283,0.0003336148651052237,0.007344990801094154,0.08840601752274461
6949,0.0,300.06432,19201.107,-0.06949000277958406,0.0,0.0,0.0,0.0,-0.010605156944015842,-2.9309856024657575,-1.2109171586582188,-1.6947542139092182,0.004219635559770606,-0.00884801347410594,0.09102528017699572
6950,0.0,300.05643,19147.46,-0.06950001245428161,0.0,0.0,0.0,0.0,-0.010606684561901586,-2.9385347210107975,-1.1977054919293288,-1.6841096163086786,0.004423209055911746,-0.015422496373831885,0.0995941386889262
6951,0.0,300.11437,19206.813000000002,-0.06950998909374906,0.0,0.0,0.0,0.0,-0.010608207138144116,-2.9682703690454773,-1.1825314637317688,-1.6875897251021383,0.004887165840225715,-0.0038360814881167665,0.0979529400117025
6952,0.0,301.16264,19203.946,-0.06951999876844661,0.0,0.0,0.0,0.0,-0.01060973475602986,-2.950867899902987,-1.207112809832759,-1.6795391490826086,0.006803007375604553,0.008156920467875372,0.08557167530951681
6953,0.0,300.57299,19044.724,-0.06953000844314394,0.0,0.0,0.0,0.0,-0.010611262373915548,-2.9274915108209174,-1.1812805051583088,-1.6803486345874985,-0.003182018112090737,0.006514790512484764,0.07867790261115443
6954,0.0,300.03822,19165.546000000002,-0.0695399850826115,0.0,0.0,0.0,0.0,-0.010612784950158105,-2.938324876915087,-1.186511104824529,-1.7010113372517484,0.0005231414015325365,-0.007026833714744494,0.08439838438272201
6955,0.0,299.02632,19208.021,-0.06954999475730894,0.0,0.0,0.0,0.0,-0.010614312568043821,-2.9436503167906674,-1.182212289950269,-1.712896152974688,0.01063323400066849,0.0025086951821389376,0.093782468461359
6956,0.0,299.7121,19152.176,-0.0695600044320065,0.0,0.0,0.0,0.0,-0.010615840185929565,-2.9473887030346173,-1.174962890784809,-1.6994317816708584,0.01738865854362698,-0.0011533859325553288,0.11289757243962288
6957,0.0,299.90002000000004,19194.837,-0.06957001410670383,0.0,0.0,0.0,0.0,-0.01061736780381528,-2.941270192305767,-1.2016486560184887,-1.6918324059208583,-0.0038627801216267158,-0.02015436218183068,0.08696819637909273
6958,0.0,299.84425,19192.775,-0.06957999074617138,0.0,0.0,0.0,0.0,-0.010618890380057838,-2.9487263958166374,-1.196138196674649,-1.6892596625919483,-0.01158906929700209,-0.01023682219054569,0.0962377416531756
6959,0.0,299.49174,19163.322,-0.06959000042086871,0.0,0.0,0.0,0.0,-0.010620417997943526,-2.945657261263737,-1.2025058656030887,-1.6770084556328484,-0.018745267691763882,-0.002088499656393868,0.08100125671945162
6960,0.0,300.78246,19204.404,-0.06960001009556616,0.0,0.0,0.0,0.0,-0.010621945615829242,-2.9444921249737472,-1.193827986446649,-1.6993391706117182,0.002217858966185638,-0.0037187389192109566,0.1086279290357419
6961,0.0,299.99285,19193.129,-0.06960998673503371,0.0,0.0,0.0,0.0,-0.0106234681920718,-2.9318904348050574,-1.1975005114340989,-1.7048409160046984,-0.017831722414853982,-0.004498410249183526,0.09242900950778302
6962,0.0,301.03767999999997,19223.92,-0.06961999640973104,0.0,0.0,0.0,0.0,-0.010624995809957516,-2.938476763105077,-1.2104275562098987,-1.6946874407276282,0.006134265754654895,0.002068891139133658,0.09943554478327421
6963,0.0,300.37285,19160.019,-0.0696300060844286,0.0,0.0,0.0,0.0,-0.01062652342784326,-2.9366476440245575,-1.1899331543872589,-1.6975865519137483,0.005300109433680075,0.0072594868808055725,0.0920365939560546
6964,0.0,300.18068,19147.447,-0.06964001575912593,0.0,0.0,0.0,0.0,-0.010628051045728976,-2.9254113083656175,-1.1992533327820887,-1.6956811351006984,0.0042382630482839965,0.021720894459185378,0.07826052462996243
6965,0.0,300.34887000000003,19227.433999999997,-0.0696499923985936,0.0,0.0,0.0,0.0,-0.010629573621971533,-2.9227180895998175,-1.2111507128062688,-1.7107910245669282,-0.004093100380657556,0.007791276301014103,0.08221043797803852
6966,0.0,300.52797000000004,19190.474,-0.06966000207329093,0.0,0.0,0.0,0.0,-0.010631101239857221,-2.933380317752097,-1.196421197427579,-1.7036234960095487,-0.016207211966777286,0.004166023078429466,0.07810064693643372
6967,0.0,299.65157,19107.093999999997,-0.06967001174798848,0.0,0.0,0.0,0.0,-0.010632628857742965,-2.9341890939819173,-1.180385805320009,-1.6935047752109085,0.0001074508769245759,0.0029122955964211972,0.11844207698682288
6968,0.0,299.6202,19102.193,-0.06967998838745593,0.0,0.0,0.0,0.0,-0.010634151433985495,-2.9444738864719473,-1.180621284643249,-1.6814946204505985,0.013839545391856787,-0.007788727673037572,0.1078677280157159
6969,0.0,299.95489,19260.283,-0.06968999806215348,0.0,0.0,0.0,0.0,-0.010635679051871239,-2.938168836399687,-1.2083502921798888,-1.7081259741539083,-0.004512710349169836,-0.017530438577119584,0.1096463264462499
6970,0.0,300.1669,19462.028000000002,-0.06970000773685081,0.0,0.0,0.0,0.0,-0.010637206669756955,-2.965353728632627,-1.2277535249698386,-1.7228633928833783,-0.018345623613822082,-0.014493528417149884,0.08398283025171002
6971,0.0,299.82822000000004,19415.584,-0.06970998437631837,0.0,0.0,0.0,0.0,-0.010638729245999512,-2.965782941374987,-1.216960080929609,-1.7191098078879286,0.0015326231534831287,0.01290284633691179,0.09396002432938241
6972,0.0,300.02221000000003,19197.742,-0.0697199940510157,0.0,0.0,0.0,0.0,-0.010640256863885228,-2.9471797708639973,-1.182122414666399,-1.7063322175018785,0.0009379556167915122,0.023356826262389278,0.09929799202919881
6973,0.0,300.68904,19149.341,-0.06973000372571314,0.0,0.0,0.0,0.0,-0.010641784481770916,-2.939734409129197,-1.1870238093751289,-1.6941632864508984,0.007549770976779383,0.00965739866723604,0.10687379046262188
6974,0.0,299.94295,19185.388,-0.0697400134004107,0.0,0.0,0.0,0.0,-0.01064331209965666,-2.947305211226377,-1.1861029676842487,-1.6984708152760182,-0.007951180643020432,-0.00017014206902921485,0.10574582018629991
6975,0.0,300.00943,19220.5,-0.06974999003987803,0.0,0.0,0.0,0.0,-0.01064483467589919,-2.956776161236087,-1.1835614324584187,-1.7022143690954783,-0.007651720756791043,0.0010753190653507289,0.09816702658558121
6976,0.0,299.94996000000003,19147.599,-0.06975999971457558,0.0,0.0,0.0,0.0,-0.010646362293784933,-2.9308741449547573,-1.1891788910128187,-1.7003388431603785,-0.002362014969837728,-0.003092740240479697,0.08759811066151042
6977,0.0,299.51631000000003,19155.788,-0.06977000938927291,0.0,0.0,0.0,0.0,-0.01064788991167065,-2.922190287622727,-1.1989758035796987,-1.7017150394461982,-0.013436684244847487,-0.00956894477060632,0.08123013775804042
6978,0.0,299.16137000000003,19333.374,-0.06977998602874058,0.0,0.0,0.0,0.0,-0.010649412487913207,-2.9456021404582975,-1.221833307285559,-1.7094275952323685,-0.014400778542746186,-0.01149747858071279,0.08692874852619951
6979,0.0,299.59214,19379.983,-0.06978999570343791,0.0,0.0,0.0,0.0,-0.010650940105798923,-2.971288030493297,-1.205949294742929,-1.7137935885882585,0.006222368864099994,0.006142736322840874,0.1048335809887689
6980,0.0,299.87248999999997,19313.277,-0.06980000537813547,0.0,0.0,0.0,0.0,-0.010652467723684639,-2.967291164148837,-1.1988594824682188,-1.7046032075312383,0.016558716532468088,0.007103541610914974,0.10081221932314141
6981,0.0,300.28522999999996,19204.976000000002,-0.0698100150528328,0.0,0.0,0.0,0.0,-0.010653995341570355,-2.9328296163227474,-1.208230627343079,-1.6967730134084584,0.013610959209047088,-0.005241335861629575,0.08414862532582272
6982,0.0,300.46227000000005,19239.802,-0.06981999169230046,0.0,0.0,0.0,0.0,-0.010655517917812912,-2.929579110001947,-1.2135117881892887,-1.7053284919528182,-0.010359963488448792,-0.007265530917652073,0.07495503935873643
6983,0.0,300.14713,19337.623,-0.0698300013669978,0.0,0.0,0.0,0.0,-0.010657045535698628,-2.955898180024437,-1.1920833724244688,-1.7301730804297883,-0.010681721057703791,-0.002300079753500198,0.08901686142503022
6984,0.0,299.78198,19273.502,-0.06984001104169513,0.0,0.0,0.0,0.0,-0.010658573153584344,-2.9578106895881873,-1.1981746267256288,-1.7026781336662484,-0.0072565215030629135,0.01213226760936159,0.08974356237025001
6985,0.0,299.48704,19132.51,-0.0698499876811628,0.0,0.0,0.0,0.0,-0.010660095729826902,-2.945296645553147,-1.1770184712626788,-1.6934900830844584,-0.0013488334668694986,0.002990513640540717,0.09878319917014271
6986,0.0,299.70619,19135.568,-0.06985999735586013,0.0,0.0,0.0,0.0,-0.010661623347712618,-2.943447768095677,-1.1961104336219088,-1.6771766551494485,-0.005695244751326894,0.009790796487951382,0.08854752701846051
6987,0.0,300.08068,19318.237,-0.06987000703055768,0.0,0.0,0.0,0.0,-0.010663150965598334,-2.9551019680958572,-1.2166032142443888,-1.7005566919318786,-0.006566671146754984,0.021713846291489775,0.08524573909684942
6988,0.0,300.12371,19404.146,-0.06987998367002501,0.0,0.0,0.0,0.0,-0.010664673541840891,-2.9766898694264174,-1.1947006987577788,-1.7269852942901784,-0.001992115963156538,0.008407091512265331,0.1016571736477819
6989,0.0,300.3034,19309.543999999998,-0.06988999334472257,0.0,0.0,0.0,0.0,-0.010666201159726607,-2.959144835994857,-1.2065371824509488,-1.7039371982405083,0.005099175150074404,-0.008304052184421143,0.07896119619336332
6990,0.0,299.96342999999996,19258.925,-0.06990000301942001,0.0,0.0,0.0,0.0,-0.010667728777612323,-2.950114548453637,-1.214949286106159,-1.6891684700829481,-8.079576959917162e-05,-0.016723082923939786,0.09866750627372471
6991,0.0,299.35146000000003,19256.593999999997,-0.06991001269411745,0.0,0.0,0.0,0.0,-0.010669256395498067,-2.9656443287613072,-1.191915172907869,-1.6959640345286184,0.007621767766609913,-0.008456218234088762,0.1024581782493349
6992,0.0,299.70662000000004,19440.065,-0.0699199893335849,0.0,0.0,0.0,0.0,-0.010670778971740597,-2.987550289298257,-1.2157238144825988,-1.7060203391210984,-0.01023369226098679,-0.009252136928089821,0.1086710529599979
6993,0.0,300.2985,19373.157,-0.06992999900828245,0.0,0.0,0.0,0.0,-0.01067230658962634,-2.9594913675290573,-1.203061633282939,-1.7264029794577085,-0.00994588900655782,-0.008521657471922111,0.09649630484019382
6994,0.0,299.76639,19189.946,-0.06994000868297978,0.0,0.0,0.0,0.0,-0.010673834207512028,-2.930624074830077,-1.207044922076059,-1.6955954141422382,-0.0033671569412125173,-0.013944934548007886,0.08705739177214561
6995,0.0,300.11577,19234.725,-0.06994998532244723,0.0,0.0,0.0,0.0,-0.010675356783754586,-2.932516319391827,-1.2042710486022987,-1.7100886395976087,-0.005504077996035204,0.00952671078391315,0.0889699408526495
6996,0.0,300.67364,19305.147,-0.06995999499714478,0.0,0.0,0.0,0.0,-0.010676884401640302,-2.973064663218637,-1.1810052051061388,-1.7142125675046083,0.0049824302974025856,0.005180337901634545,0.1022886209776009
6997,0.0,300.11936000000003,19370.162,-0.06997000467184211,0.0,0.0,0.0,0.0,-0.010678412019526018,-2.970464562137027,-1.2101088890534488,-1.7074721238643786,0.01187471159294279,-0.003265937309222917,0.0962651824923838
6998,0.0,300.31981,19369.267,-0.06998001434653967,0.0,0.0,0.0,0.0,-0.010679939637411762,-2.972936689731007,-1.2024689832994488,-1.7123678443725485,0.003042154945137317,0.008776355312458831,0.08842068229144191
6999,0.0,299.85244,19329.804,-0.06998999098600711,0.0,0.0,0.0,0.0,-0.010681462213654291,-2.9469396305902973,-1.222211350897869,-1.7066267693059485,-0.014267345663577386,0.0003098610504934047,0.08681855251157401
7000,0.0,300.16663,19409.183999999997,-0.07000000066070466,0.0,0.0,0.0,0.0,-0.010682989831540035,-2.9788620749907975,-1.215097828570819,-1.7059474864389084,-0.005566873360382625,0.004619207595630295,0.08271616022219942
7001,0.0,299.90941000000004,19541.952,-0.070010010335402,0.0,0.0,0.0,0.0,-0.010684517449425723,-2.9879786914405373,-1.2158421620942788,-1.7364445919237383,-0.01997545058517348,-0.0014597942826704788,0.1010654619338845
7002,0.0,299.82821,19418.082,-0.07001998697486944,0.0,0.0,0.0,0.0,-0.01068604002566828,-2.9832932203281173,-1.223633042113179,-1.6956857960511587,0.012504890333636588,-0.011733603344266489,0.0929175723615004
7003,0.0,299.84632999999997,19235.814,-0.070029996649567,0.0,0.0,0.0,0.0,-0.010687567643553997,-2.962578943233777,-1.1905830530013988,-1.6940451414892383,0.018104143823489884,-0.01804064141322268,0.1157587475419989
7004,0.0,299.86139,19290.641,-0.07004000632426444,0.0,0.0,0.0,0.0,-0.01068909526143974,-2.9571892633018573,-1.2041704328673688,-1.7025134805249984,0.015485317880031883,-0.005598262328605474,0.10571366976062689
7005,0.0,299.8899,19437.982,-0.07005001599896188,0.0,0.0,0.0,0.0,-0.010690622879325457,-2.981235714675057,-1.2094441969878489,-1.7179814525765682,0.015150836929271185,-0.003670969952521527,0.09538035677630832
7006,0.0,300.45337,19440.025,-0.07005999263842921,0.0,0.0,0.0,0.0,-0.010692145455567986,-2.9800055277286472,-1.203727237273629,-1.7255494175734682,-0.007744975128419532,-0.0008856825507575622,0.08834612734908392
7007,0.0,299.90782,19312.931,-0.07007000231312677,0.0,0.0,0.0,0.0,-0.01069367307345373,-2.949236060616937,-1.2143154981686088,-1.7070971200023686,-0.0059133177550740245,0.006496916882045774,0.08757131424936582
7008,0.0,300.22102,19404.69,-0.07008001198782421,0.0,0.0,0.0,0.0,-0.010695200691339418,-2.978645948744467,-1.204858328360259,-1.7150369477859682,-0.017383658154383485,-0.009316107155928191,0.09498875587766031
7009,0.0,300.55924,19548.842,-0.07008998862729154,0.0,0.0,0.0,0.0,-0.010696723267581976,-2.9885295955199074,-1.216156776250329,-1.7376734616450185,0.004776958173224066,0.006628200455102453,0.1070919837391559
7010,0.0,300.38992,19437.732,-0.0700999983019891,0.0,0.0,0.0,0.0,-0.010698250885467692,-2.971147898004467,-1.2243093865549288,-1.7131279845975682,-0.002215822029509608,-0.007725285348501303,0.08798464226990811
7011,0.0,300.8684,19314.533,-0.07011000797668665,0.0,0.0,0.0,0.0,-0.010699778503353435,-2.9565714847158873,-1.1962900828646388,-1.7182742818554682,0.01042209193158039,-0.0005793130385187455,0.1063600321319179
7012,0.0,300.75261,19270.821,-0.07011998461615387,0.0,0.0,0.0,0.0,-0.010701301079595937,-2.9574790528304575,-1.2141815465053887,-1.6861878935887884,-0.0014230966945237085,0.005645882144880184,0.08064358247390192
7013,0.0,300.08052999999995,19380.862,-0.07012999429085143,0.0,0.0,0.0,0.0,-0.010702828697481681,-2.9701280617788175,-1.2113504244009787,-1.7098195203710482,0.0004193678017383796,0.007716994024258013,0.08669625525100422
7014,0.0,300.17512999999997,19430.785,-0.07014000396554898,0.0,0.0,0.0,0.0,-0.010704356315367425,-2.997201901800797,-1.208258795695859,-1.7010125531518683,-0.002410594333957138,-0.00014725135098507685,0.08275681586921182
7015,0.0,300.23498,19310.516,-0.07015001364024653,0.0,0.0,0.0,0.0,-0.01070588393325314,-2.9473876897845175,-1.2155679766172187,-1.7069589126887283,0.003241888730024507,-0.008666642516806022,0.1026368142419649
7016,0.0,300.57127,19337.032,-0.07015999027971376,0.0,0.0,0.0,0.0,-0.01070740650949567,-2.961074368160287,-1.2056409627374989,-1.7112595514131683,0.0012975005956033388,-0.005965759425924614,0.09125734586064882
7017,0.0,300.29301,19552.124,-0.07016999995441131,0.0,0.0,0.0,0.0,-0.010708934127381387,-2.984052549953057,-1.2255983420071388,-1.7337063848534982,-0.002121875506737808,-0.015115149247499087,0.08880898607426452
7018,0.0,299.79456,19571.926,-0.07018000962910886,0.0,0.0,0.0,0.0,-0.01071046174526713,-2.993413866301947,-1.2322225658608987,-1.7237402595199183,-0.0017345785905395783,-0.0023975618098459276,0.08118236402907551
7019,0.0,300.50917999999996,19468.019,-0.0701899862685762,0.0,0.0,0.0,0.0,-0.01071198432150966,-2.9800321762062767,-1.201853433863699,-1.7359062521456086,-0.016238177903083385,0.013045789581519186,0.10096508329947791
7020,0.0,300.32862,19388.5,-0.07019999594327364,0.0,0.0,0.0,0.0,-0.010713511939395376,-2.980272519129997,-1.2202172747010689,-1.6931301766489384,0.0015682296739222184,0.007071439719921763,0.0986472129007219
7021,0.0,299.93631,19383.547,-0.0702100056179712,0.0,0.0,0.0,0.0,-0.01071503955728112,-2.966658490786397,-1.2042879698789688,-1.7211678201660383,-0.00940857656270421,0.01081635970449159,0.1066362643741799
7022,0.0,300.14026,19482.386000000002,-0.07022001529266875,0.0,0.0,0.0,0.0,-0.010716567175166836,-2.992104037897677,-1.2206635100451089,-1.7093913208787885,-0.01105489093703279,-0.001146664335366959,0.1021618633900909
7023,0.0,300.28767999999997,19332.976000000002,-0.07022999193213597,0.0,0.0,0.0,0.0,-0.010718089751409365,-2.9701929097852173,-1.2088381721030386,-1.6977110803510382,-0.012375623938878989,-0.01002619505515841,0.09968466650586061
7024,0.0,300.14576,19321.136000000002,-0.07024000160683341,0.0,0.0,0.0,0.0,-0.010719617369295081,-2.974255637386177,-1.207406044411699,-1.6914812134361983,-0.012591978166481489,-0.011102742686255388,0.07931566755534693
7025,0.0,300.47171000000003,19447.52,-0.07025001128153097,0.0,0.0,0.0,0.0,-0.010721144987180825,-2.980295215932237,-1.2198632451161289,-1.7114019130522182,-0.004168591870082986,0.004712678701455175,0.08098831852892471
7026,0.0,299.54945,19442.781000000003,-0.07025998792099841,0.0,0.0,0.0,0.0,-0.010722667563423355,-2.991668644329707,-1.2107684135435388,-1.7076829812101884,0.0015292583525510484,-0.014695959575128287,0.07934204042894973
7027,0.0,299.45632,19483.444,-0.07026999759569574,0.0,0.0,0.0,0.0,-0.01072419518130907,-2.9749311712278472,-1.1964829043586689,-1.7510662974917883,0.006994109181564833,0.012626992036937089,0.10006087714873971
7028,0.0,299.64786000000004,19486.592,-0.07028000727039352,0.0,0.0,0.0,0.0,-0.010725722799194842,-2.9822450130996674,-1.217571172064919,-1.7236211013081586,0.013520329053852587,-0.0015263806209420386,0.09615848624360371
7029,0.0,299.77918,19415.231,-0.07028998390986074,0.0,0.0,0.0,0.0,-0.010727245375437344,-2.9636698082914372,-1.2086299492074888,-1.7294456681829984,0.006801122223793504,-0.0015828345595386083,0.0953051158636326
7030,0.0,300.18458,19465.286,-0.0702999935845583,0.0,0.0,0.0,0.0,-0.010728772993323088,-2.982792472128697,-1.2250421690272488,-1.7091261533276183,-0.008509690380291052,-0.0009664960046107291,0.08830329828060701
7031,0.0,300.95902,19615.802,-0.07031000325925563,0.0,0.0,0.0,0.0,-0.010730300611208776,-3.012326280743457,-1.225935146340379,-1.7244526756652285,-0.014637549759863686,0.0007541115389125142,0.1101073856392529
7032,0.0,300.73263,19566.773,-0.07032001293395318,0.0,0.0,0.0,0.0,-0.01073182822909452,-3.000477232749047,-1.2174082414488387,-1.7299249354802981,-0.0028880262300259975,0.012574287832985588,0.1138918544977509
7033,0.0,300.20613,19477.224,-0.07032998957342063,0.0,0.0,0.0,0.0,-0.01073335080533705,-2.968461468014337,-1.2333983412769387,-1.7187298391004284,-0.0003107215936708337,0.00917425771480374,0.1024534970338729
7034,0.0,299.59397,19372.984,-0.07033999924811796,0.0,0.0,0.0,0.0,-0.010734878423222766,-2.968163977784977,-1.1938159287704588,-1.7269232833840586,0.011798276058399188,0.0008450628741237122,0.09964689659513301
7035,0.0,299.31571,19443.418999999998,-0.07035000892281573,0.0,0.0,0.0,0.0,-0.010736406041108537,-2.977690048600127,-1.1971577289252688,-1.7354659949771585,0.004045543892514096,-0.007143595590017994,0.0996851457731579
7036,0.0,299.58277999999996,19511.296000000002,-0.07035998556228296,0.0,0.0,0.0,0.0,-0.010737928617351039,-2.9925960721462372,-1.2229064404664687,-1.7154441730011585,0.003070781286962517,-0.009157815705431041,0.07124492887207703
7037,0.0,299.46024,19508.361,-0.07036999523698051,0.0,0.0,0.0,0.0,-0.010739456235236755,-3.0001919015208873,-1.211298647320869,-1.7185641727090784,-0.011797052052278387,-0.006100361494383805,0.08234641816795872
7038,0.0,299.78176,19562.018,-0.07038000491167795,0.0,0.0,0.0,0.0,-0.010740983853122499,-2.988721201113817,-1.236848153892409,-1.7207955520792984,-0.015345944315526787,-0.00033509918530921464,0.08865618187968391
7039,0.0,300.41797,19495.948,-0.0703900145863755,0.0,0.0,0.0,0.0,-0.010742511471008243,-2.994148675274467,-1.2045399651788387,-1.7275928390501383,-0.0071026547131024425,0.01953075031503498,0.1117492459687919
7040,0.0,300.58261,19496.423,-0.07039999122584273,0.0,0.0,0.0,0.0,-0.010744034047250745,-2.987424848935877,-1.2005267855077688,-1.7384741318740382,-0.015018268352437686,0.013048910391827186,0.1098220746760949
7041,0.0,300.2227,19597.825,-0.07041000090054028,0.0,0.0,0.0,0.0,-0.010745561665136488,-2.9829243972917174,-1.2349957300595886,-1.7393293149584381,-0.0002323221068559068,0.017394273975681183,0.0967648850177006
7042,0.0,300.66687,19602.703999999998,-0.07042001057523783,0.0,0.0,0.0,0.0,-0.010747089283022232,-3.000799446280847,-1.2279840393675887,-1.7299489495076683,-0.008234424373324412,-0.008172333217796493,0.09334878829930811
7043,0.0,299.38006,19424.611,-0.07042998721470528,0.0,0.0,0.0,0.0,-0.010748611859264762,-2.9864495957146273,-1.212701086784279,-1.7054460289644182,0.007439702631666483,-0.00904096537342381,0.09551775348986832
7044,0.0,299.2629,19465.909,-0.07043999688940261,0.0,0.0,0.0,0.0,-0.01075013947715045,-2.9851048101819075,-1.2213324577611289,-1.7107131056342382,0.006806082184358013,-0.015194910268870885,0.09502461378544923
7045,0.0,299.86052,19545.027,-0.07045000656410016,0.0,0.0,0.0,0.0,-0.010751667095036194,-2.994338254368177,-1.2215302441806488,-1.7253315688019684,0.017163229648128882,0.004396422370968106,0.10023015476344609
7046,0.0,300.3762,19477.213,-0.07046001623879772,0.0,0.0,0.0,0.0,-0.010753194712921937,-2.973062332743407,-1.2192650222570887,-1.7282591523158983,0.007203342591439562,-0.0031740726101065772,0.0987125138299166
7047,0.0,300.05383,19614.571,-0.07046999287826494,0.0,0.0,0.0,0.0,-0.01075471728916444,-2.996104045317447,-1.2240830264825886,-1.7421526350370782,-0.008548827064078543,0.0034846538281085564,0.1024089140294729
7048,0.0,300.39607,19747.533,-0.0704800025529625,0.0,0.0,0.0,0.0,-0.010756244907050183,-3.029634517626647,-1.218052263212399,-1.7550700539369282,-0.008621490775124892,-0.005200042677654255,0.1020331400973869
7049,0.0,300.21558,19600.245,-0.07049001222766005,0.0,0.0,0.0,0.0,-0.010757772524935927,-2.999426593720357,-1.2397020741240687,-1.7188563940379185,-0.01924237325707438,0.0023336949335177578,0.07829969586557832
7050,0.0,299.89132,19518.735,-0.0704999888671275,0.0,0.0,0.0,0.0,-0.010759295101178457,-2.994600787469087,-1.215028218288949,-1.7235790514290086,-0.008134742247036553,-0.011826685564702987,0.1088447949546449
7051,0.0,300.0328,19550.856,-0.07050999854182483,0.0,0.0,0.0,0.0,-0.010760822719064145,-2.994844372793127,-1.2122136121611689,-1.7359139528463683,-0.0069374702235000035,-0.01116229443438269,0.10743657996566489
7052,0.0,299.71414,19540.893,-0.07052000821652238,0.0,0.0,0.0,0.0,-0.010762350336949889,-2.983482292796777,-1.220580322211899,-1.7358809208931085,0.01079285432867179,0.0039576138461860765,0.1197112436645799
7053,0.0,299.2828,19567.234,-0.07052998485598971,0.0,0.0,0.0,0.0,-0.010763872913192418,-2.984024482925287,-1.2275912023038187,-1.7363347556128985,-0.002927758806197297,0.01060737585811649,0.0902046428415051
7054,0.0,299.80752,19644.067,-0.07053999453068727,0.0,0.0,0.0,0.0,-0.010765400531078162,-3.0135828121924675,-1.2390085044306187,-1.7187146403489284,-0.0030942463354283376,-0.0008830662072768492,0.092591848931354
7055,0.0,300.65868,19576.648,-0.07055000420538471,0.0,0.0,0.0,0.0,-0.010766928148963878,-2.993338176519477,-1.235358574920399,-1.7221153103345486,-0.005590112150101114,-0.01021707293284659,0.08384124577548671
7056,0.0,300.22343,19578.225,-0.07056001388008215,0.0,0.0,0.0,0.0,-0.010768455766849622,-3.017182383172717,-1.2113038148963788,-1.7228054349776583,0.012809377054937088,-0.008596588026092181,0.09532219115431781
7057,0.0,300.41277,19736.386000000002,-0.0705699905195496,0.0,0.0,0.0,0.0,-0.010769978343092151,-3.0057822049726073,-1.2444412474917887,-1.7491450739771783,0.006075703647900265,-0.0041092729668286655,0.08791272076456001
7058,0.0,299.90083,19611.979,-0.07058000019424693,0.0,0.0,0.0,0.0,-0.01077150596097784,-2.993300990240807,-1.214545708591329,-1.7537054087022481,0.003128109559070377,-0.00819593515635082,0.1068662924118819
7059,0.0,299.90526,19474.639,-0.07059000986894448,0.0,0.0,0.0,0.0,-0.010773033578863583,-2.980092464587227,-1.205027743776979,-1.7346835632499382,-0.007407688792106963,-0.0019248523685181382,0.0931678056194465
7060,0.0,299.87175,19538.048,-0.07059998650841193,0.0,0.0,0.0,0.0,-0.010774556155106113,-3.0120776291689175,-1.2023271282854489,-1.7246740708120782,-0.006539168600615693,0.015466905099214685,0.0940191444329671
7061,0.0,299.95414,19546.276,-0.07060999618310948,0.0,0.0,0.0,0.0,-0.010776083772991857,-3.003889757760837,-1.207962622691629,-1.7297274530358087,-0.008160256391179602,0.0057438132736702344,0.07745668495462964
7062,0.0,300.45429,19617.306,-0.07062000585780681,0.0,0.0,0.0,0.0,-0.010777611390877573,-3.0044356969147175,-1.2210057859288888,-1.7377297983505784,-0.00999856848720688,-0.013099333769803588,0.09685640683298309
7063,0.0,299.69066000000004,19607.064,-0.07063001553250436,0.0,0.0,0.0,0.0,-0.010779139008763317,-2.9941328685729074,-1.2173433934424387,-1.7485816055965682,-0.0029939502809048875,-0.02336575603552058,0.10857684096569989
7064,0.0,299.21349,19570.19,-0.07063999217197181,0.0,0.0,0.0,0.0,-0.010780661585005846,-2.9915086521389176,-1.2123180782464789,-1.7450224632953086,0.01111043122801419,-0.007013385555442264,0.11972295683573587
7065,0.0,299.75609,19707.921000000002,-0.07065000184666936,0.0,0.0,0.0,0.0,-0.010782189202891562,-3.011160941803447,-1.2388391903389089,-1.7407158463952785,0.001195104580247639,0.009196536652702501,0.09264903170074751
7066,0.0,299.26202,19743.053,-0.0706600115213667,0.0,0.0,0.0,0.0,-0.010783716820777278,-3.019383972989997,-1.2313511707748988,-1.7506598828766784,0.0036354385139148464,-0.011232277592289489,0.1009428860295372
7067,0.0,299.56167999999997,19652.125,-0.07066998816083425,0.0,0.0,0.0,0.0,-0.010785239397019836,-2.9984495166489267,-1.2488008573720488,-1.7265048110927586,0.0005357112452505835,0.0016788832722928785,0.07728410617109742
7068,0.0,300.95592999999997,19523.066000000003,-0.0706799978355317,0.0,0.0,0.0,0.0,-0.010786767014905552,-2.9992517067530975,-1.1920015018163888,-1.7432714657974984,0.012799735980235588,0.007652421013935153,0.1015963178467759
7069,0.0,300.29295,19522.358,-0.07069000751022902,0.0,0.0,0.0,0.0,-0.010788294632791268,-2.978509565281007,-1.2138656151242089,-1.7419340769905083,0.005186849350752175,-0.0016203186324129986,0.07813580468840352
7070,0.0,299.78162000000003,19627.721,-0.07069998414969658,0.0,0.0,0.0,0.0,-0.010789817209033825,-3.0068882687817675,-1.212311492120829,-1.7471373189040285,-0.014208618701031486,-0.008211801234366682,0.1035692981764939
7071,0.0,300.86991,19710.839,-0.07070999382439391,0.0,0.0,0.0,0.0,-0.010791344826919541,-3.0230574099025374,-1.222920524642859,-1.7456248404797585,-0.019729550997905083,-0.004453031843455026,0.09122741343944472
7072,0.0,300.10542999999996,19600.262,-0.07072000349909147,0.0,0.0,0.0,0.0,-0.010792872444805257,-3.0137079485798175,-1.2292359098661387,-1.7150462696868882,-0.004682476147774415,0.009588406265277022,0.08219546822106112
7073,0.0,300.04877,19644.773,-0.07073001317378891,0.0,0.0,0.0,0.0,-0.010794400062690973,-3.015438275775587,-1.231861139550229,-1.7242210466923684,-0.003741028800210796,0.016348225983194287,0.06888144296706913
7074,0.0,299.8565,19714.751,-0.07073998981325647,0.0,0.0,0.0,0.0,-0.01079592263893353,-3.0229538557423177,-1.222202231646969,-1.7476357366282183,-0.0013816169712049789,-0.007267593185580603,0.10830518861388988
7075,0.0,299.94985,19628.914,-0.0707499994879538,0.0,0.0,0.0,0.0,-0.010797450256819247,-2.995136188821927,-1.2346193076474388,-1.7369440228980284,0.01094255493819609,-0.012987778986793987,0.11340564643726589
7076,0.0,300.04789,19630.731,-0.07076000916265135,0.0,0.0,0.0,0.0,-0.01079897787470499,-3.0056477466843368,-1.2154129493519188,-1.7461914499356783,0.011578253865434688,0.0039263735217528965,0.11850677300570789
7077,0.0,300.28719,19658.918999999998,-0.0707699858021188,0.0,0.0,0.0,0.0,-0.01080050045094752,-3.024491260119047,-1.2236687085166988,-1.7276604228318084,0.01056108958029839,0.0037997358017297263,0.1012586461714503
7078,0.0,300.10475,19754.522,-0.07077999547681635,0.0,0.0,0.0,0.0,-0.010802028068833264,-3.027963060261687,-1.2295032052425188,-1.7474152534064584,-0.0075901160626361324,-0.01160025760460629,0.0898426339120276
7079,0.0,300.27036,19810.067,-0.07079000515151368,0.0,0.0,0.0,0.0,-0.010803555686718952,-3.031032194814587,-1.2390214740318988,-1.7517120417805183,-0.006169628993744973,-0.0019249270450505084,0.08746593218596542
7080,0.0,299.88115,19827.945,-0.07080001482621101,0.0,0.0,0.0,0.0,-0.010805083304604668,-3.0149765377050173,-1.2522841072408188,-1.7599394299424984,-0.002320909338455918,-0.0015914104044099785,0.1025733746532039
7081,0.0,300.39105,19624.635,-0.07080999146567868,0.0,0.0,0.0,0.0,-0.010806605880847225,-2.996048721861987,-1.2190505172109187,-1.7502996724661284,0.00985010677857985,0.0038751682186743265,0.08535984321711061
7082,0.0,300.55841000000004,19543.673,-0.07082000114037601,0.0,0.0,0.0,0.0,-0.010808133498732941,-3.0077881361955767,-1.2131697149555287,-1.7198306340090683,-0.007718127243169853,-0.013812180546406089,0.10669113186709489
7083,0.0,299.6663,19676.856,-0.07083001081507356,0.0,0.0,0.0,0.0,-0.010809661116618685,-3.015101066142307,-1.2313069930705387,-1.7348649350178382,-0.015348573699536286,-0.0025389644076762776,0.0887945533398401
7084,0.0,299.51139,19838.383,-0.07083998745454101,0.0,0.0,0.0,0.0,-0.010811183692861215,-3.044642271482797,-1.2451087766576687,-1.7406218167859981,-0.018915837200347785,0.005021342748942946,0.1000940185330105
7085,0.0,299.61384,19762.643,-0.07084999712923845,0.0,0.0,0.0,0.0,-0.010812711310746959,-3.0091322124532267,-1.2572612930570288,-1.7409565946190382,-0.01799259005373038,0.01191255952392809,0.06502613576757994
7086,0.0,300.04435,19737.538,-0.0708600068039359,0.0,0.0,0.0,0.0,-0.010814238928632647,-3.0263056870731173,-1.223356627485899,-1.7500562897921084,-0.009134373353767461,0.0039159197191461865,0.11557751762911289
7087,0.0,300.28016,19891.873,-0.07087001647863345,0.0,0.0,0.0,0.0,-0.01081576654651839,-3.0149256725499973,-1.2496544192562886,-1.7820526001248984,0.0032399690263850466,0.0023758142202996075,0.11058330921122289
7088,0.0,299.99404,19845.843,-0.07087999311810078,0.0,0.0,0.0,0.0,-0.01081728912276092,-3.0463728013285873,-1.241878636663879,-1.7443893846328282,0.032825964580920464,0.001982241435631998,0.11153259283240989
7089,0.0,300.13192999999995,19776.24,-0.07089000279279833,0.0,0.0,0.0,0.0,-0.010818816740646664,-3.023044541626267,-1.2391408348936788,-1.7492979734172682,0.014809656368849285,-0.0015535404858975086,0.08959228109056971
7090,0.0,300.64468999999997,19661.698,-0.07090001246749567,0.0,0.0,0.0,0.0,-0.01082034435853238,-3.040187314768127,-1.2119793487380488,-1.7244986772197683,0.01024987183858359,-0.008022849342468582,0.09095952632500631
7091,0.0,300.54445,19530.602,-0.07090998910696333,0.0,0.0,0.0,0.0,-0.010821866934774937,-3.0004338656447676,-1.2137315621359788,-1.7226497997622983,-0.017402689017761683,-0.0019935890261519183,0.08366758281434751
7092,0.0,300.23904,19717.682,-0.07091999878166066,0.0,0.0,0.0,0.0,-0.010823394552660653,-3.0091885491587873,-1.2260344448501788,-1.758459983471488,-0.0030775392598294767,0.017587451120496284,0.0881987572147896
7093,0.0,299.32176,19882.964,-0.070930008456358,0.0,0.0,0.0,0.0,-0.010824922170546342,-3.029973348460087,-1.2502968198196887,-1.7636545114341484,-0.020202627337094083,0.012993057006564886,0.0964104146689671
7094,0.0,299.4172,19827.536,-0.07093998509582566,0.0,0.0,0.0,0.0,-0.010826444746788927,-3.042342497730827,-1.2331508042775088,-1.751582548417738,-0.025045089393507875,0.014897212323240384,0.1034416387963949
7095,0.0,299.77913,19740.985,-0.070949994770523,0.0,0.0,0.0,0.0,-0.010827972364674615,-3.031575296868187,-1.2292538443929089,-1.7399374676684585,-0.029313745891791473,0.007366607174752523,0.11101282592861289
7096,0.0,299.51135,19906.473,-0.07096000444522055,0.0,0.0,0.0,0.0,-0.010829499982560359,-3.052925185750257,-1.261550178080309,-1.736595566188638,-0.01057978911089389,0.007892386704642923,0.09096082125863411
7097,0.0,299.69493,19918.267,-0.07097001411991788,0.0,0.0,0.0,0.0,-0.010831027600446075,-3.034157564748037,-1.249317614923049,-1.7711805278769086,0.005439850503996444,0.0005414428869587524,0.0966627281293685
7098,0.0,300.26401,19653.971,-0.07097999075938544,0.0,0.0,0.0,0.0,-0.010832550176688632,-3.0001135772881575,-1.2297195341388687,-1.7444833129170982,0.011532078031877488,-0.01008947667822882,0.09058805667934511
7099,0.0,300.68368,19658.996,-0.07099000043408288,0.0,0.0,0.0,0.0,-0.010834077794574348,-3.0123527265710677,-1.2070677202033089,-1.7564235534205084,0.02014258416266828,-0.007308189962762192,0.11702947462490988
7100,0.0,300.61097,19841.949,-0.07100001010878043,0.0,0.0,0.0,0.0,-0.010835605412460064,-3.046164781083057,-1.2347597441112987,-1.7505326186641184,0.013191597284159287,-0.007127726472251833,0.1005350052415325
7101,0.0,299.9679,19815.596999999998,-0.07100998674824777,0.0,0.0,0.0,0.0,-0.010837127988702622,-3.0297222650853075,-1.2537041772559687,-1.7400201488766183,-0.013510364752369186,-0.01040112576051119,0.08684699849488142
7102,0.0,300.19133,19768.918999999998,-0.07101999642294532,0.0,0.0,0.0,0.0,-0.010838655606588338,-3.0483923101028974,-1.2114977509655187,-1.7493677863491583,-0.016130866611492586,-0.008554315941195252,0.09112163620850532
7103,0.0,299.97567000000004,19878.148,-0.07103000609764265,0.0,0.0,0.0,0.0,-0.010840183224474054,-3.0297036212834674,-1.245174131289119,-1.767583084721868,-0.016794926409030183,0.007071510140803712,0.08221704740844082
7104,0.0,300.04449,19727.673,-0.07104001577234009,0.0,0.0,0.0,0.0,-0.01084171084235977,-3.007865143203177,-1.2305612409969389,-1.7582937091300785,-0.016516233995525383,0.007073741013548883,0.1022405118628529
7105,0.0,300.34257,19800.208,-0.07104999241180765,0.0,0.0,0.0,0.0,-0.010843233418602327,-3.0171500604945267,-1.2379749893286187,-1.7636438723080985,-0.0032525418389258874,-0.0023277427984553277,0.10054633540415071
7106,0.0,299.96854,19905.273,-0.07106000208650498,0.0,0.0,0.0,0.0,-0.010844761036488043,-3.0512528164602073,-1.2408923390165387,-1.7585607005314283,0.0006133450392299425,-0.007313157624027463,0.12611291726637588
7107,0.0,300.04145,19756.754,-0.07107001176120253,0.0,0.0,0.0,0.0,-0.010846288654373759,-3.040843292882867,-1.2305650913473187,-1.7341515056224286,0.0072706852195857635,-0.0015985771223672785,0.0950377992090005
7108,0.0,300.13976,19706.333,-0.07107998840066998,0.0,0.0,0.0,0.0,-0.010847811230616317,-3.010058424369637,-1.2373057376375687,-1.7428691041827882,0.007164620833568024,0.0017263802826554683,0.0972892814612045
7109,0.0,299.30782999999997,19776.433,-0.07108999807536753,0.0,0.0,0.0,0.0,-0.010849338848502033,-3.004925704663077,-1.2451202263837988,-1.7614959847461185,0.0021879249237813777,-0.0026893185635150775,0.07691660947907833
7110,0.0,298.9692,19820.099,-0.07110000775006486,0.0,0.0,0.0,0.0,-0.010850866466387749,-3.023630098859057,-1.2324962447129089,-1.768688844555998,-0.002898226416132677,-0.006242368597223814,0.10694803129744888
7111,0.0,299.29415,19663.943,-0.07110998438953231,0.0,0.0,0.0,0.0,-0.010852389042630278,-3.020518610451977,-1.215604250970799,-1.7412248019205083,-0.004655231879085615,0.003159139127482757,0.1102396451748059
7112,0.0,299.55345,19751.832,-0.07111999406422986,0.0,0.0,0.0,0.0,-0.010853916660516022,-3.044955163113677,-1.2232131512717388,-1.7358955116945485,-0.0070655673276422025,-0.012870063643176386,0.0961447141482445
7113,0.0,299.80331,19794.229,-0.07113000373892742,0.0,0.0,0.0,0.0,-0.010855444278401766,-3.0405621159801175,-1.2249249359906789,-1.7514644034560785,-0.004298968989600206,-0.007732579026696133,0.1066910913370909
7114,0.0,300.12495,19826.124,-0.07114001341362475,0.0,0.0,0.0,0.0,-0.010856971896287454,-3.031688375579347,-1.252473686334529,-1.7424844744448285,-0.013360310518559987,-0.004309343454724086,0.08912734824243441
7115,0.0,300.40755,19902.703999999998,-0.0711499900530922,0.0,0.0,0.0,0.0,-0.010858494472530011,-3.031838741894187,-1.222000189577029,-1.7960861140098985,-0.0004638636159672746,0.004894457593245355,0.12084786709675589
7116,0.0,300.01462000000004,19971.128,-0.07115999972778975,0.0,0.0,0.0,0.0,-0.010860022090415727,-3.048197360783657,-1.2505171003914288,-1.7720098730837583,0.0010064390936228049,-0.0024185218000895175,0.097272912405839
7117,0.0,300.50255,19836.354,-0.07117000940248708,0.0,0.0,0.0,0.0,-0.010861549708301443,-3.0332539483088574,-1.2432576700499787,-1.7532445825567684,-0.0008255828268436811,-0.01064717226904409,0.11758887987261889
7118,0.0,300.40505,19702.959,-0.07117998604195441,0.0,0.0,0.0,0.0,-0.010863072284543973,-3.0340842054407973,-1.214479340709779,-1.7406439056381782,0.0031220535658726973,-0.01015309226853219,0.1042288125340829
7119,0.0,299.76842999999997,19730.79,-0.07118999571665197,0.0,0.0,0.0,0.0,-0.010864599902429717,-3.026184806336187,-1.231172433457259,-1.7403102423802486,0.0046827883301302255,0.004076403133584666,0.09512808384591091
7120,0.0,299.607,19719.032,-0.07120000539134952,0.0,0.0,0.0,0.0,-0.01086612752031546,-3.0186799668205175,-1.2195115460064188,-1.7559017296190085,0.007133078155305004,-0.0011800607546879288,0.08598228275354061
7121,0.0,299.96755,19819.966,-0.07121001506604696,0.0,0.0,0.0,0.0,-0.010867655138201149,-3.0035434288766574,-1.251175003681359,-1.7700563268909584,0.0039255372864453655,-0.014093214580891987,0.08997144231774001
7122,0.0,299.62043,19994.384,-0.0712199917055143,0.0,0.0,0.0,0.0,-0.010869177714443679,-3.053597679841627,-1.249735580589299,-1.774460215800588,0.01147283025878019,-0.0041453906719432065,0.10597424728884389
7123,0.0,300.00907,19965.506,-0.07123000138021185,0.0,0.0,0.0,0.0,-0.010870705332329422,-3.064638660881287,-1.228201077539009,-1.776175648219888,0.00978254194468672,0.003710949153767167,0.12345350052391188
7124,0.0,300.11735,19911.987,-0.0712400110549094,0.0,0.0,0.0,0.0,-0.010872232950215166,-3.0704134771762175,-1.2450095794728788,-1.7373236877104983,-0.001059967313085629,-0.0018926355749635882,0.098201292677463
7125,0.0,300.36084,20097.651,-0.07124998769437663,0.0,0.0,0.0,0.0,-0.010873755526457668,-3.062899113109607,-1.2644040983119689,-1.7818809555579584,-0.013045399480230686,-0.014776258632303186,0.11416478354468688
7126,0.0,300.29958,19996.379,-0.0712599973690744,0.0,0.0,0.0,0.0,-0.01087528314434344,-3.051813447740537,-1.2515556817439288,-1.775030675606888,0.001085142423745219,-0.009722225091408911,0.09066489346092832
7127,0.0,300.22081000000003,19844.206000000002,-0.07127000704377173,0.0,0.0,0.0,0.0,-0.010876810762229155,-3.0168681743167074,-1.2478474903529588,-1.7674273481814984,-0.004385793580069126,-0.002390113205710808,0.10581682875330789
7128,0.0,300.30672999999996,19797.266,-0.07127998368323918,0.0,0.0,0.0,0.0,-0.010878333338471685,-3.0419983979968674,-1.2292402668415687,-1.7466359627545485,0.005275545414155794,-0.01091144309387559,0.07589072719008162
7129,0.0,299.85542999999996,19803.123,-0.07128999335793673,0.0,0.0,0.0,0.0,-0.010879860956357429,-3.048697399708007,-1.2338643349979288,-1.7370931733127486,-0.006997696390893864,-0.018297430399315782,0.11872052824680389
7130,0.0,299.42227,19824.171000000002,-0.07130000303263406,0.0,0.0,0.0,0.0,-0.010881388574243117,-3.051594585718937,-1.2453593534073988,-1.7290989339987783,0.018496406374453184,0.005494673717882074,0.07822977147617734
7131,0.0,299.84112000000005,19949.961,-0.07131001270733162,0.0,0.0,0.0,0.0,-0.01088291619212886,-3.057462519698057,-1.2344817082838588,-1.7723457654919086,0.004633501413465985,0.016212790921827886,0.1111350644206769
7132,0.0,299.59938,20030.327,-0.07131998934679884,0.0,0.0,0.0,0.0,-0.010884438768371363,-3.0434112739363073,-1.273937363202829,-1.7713705122706587,0.0012548666790956988,0.012837718673484188,0.07816877483340742
7133,0.0,299.62253,19936.203,-0.0713299990214965,0.0,0.0,0.0,0.0,-0.010885966386257134,-3.038319286883767,-1.2406105541637287,-1.7811782666136085,-0.01014119671235819,-0.018462466549103582,0.11971927873787289
7134,0.0,299.65283,19961.292,-0.07134000869619395,0.0,0.0,0.0,0.0,-0.01088749400414285,-3.048422099655837,-1.2511787527067288,-1.7681334821761883,-0.0005528741111419265,-0.018655252579380083,0.1077922003532619
7135,0.0,299.61168,20081.448,-0.07134998533566128,0.0,0.0,0.0,0.0,-0.01088901658038538,-3.0827617534948972,-1.249363312502559,-1.7721335909209681,-0.002940041829209537,-0.00018523475350874682,0.12126728171064889
7136,0.0,299.4714,20015.887,-0.07135999501035883,0.0,0.0,0.0,0.0,-0.010890544198271096,-3.077819626132147,-1.2374427290510888,-1.7690674961183683,-0.005603230901795834,-0.002158472985774698,0.11723083781728288
7137,0.0,299.60395,19926.426,-0.07137000468505639,0.0,0.0,0.0,0.0,-0.01089207181615684,-3.0379409392964267,-1.268942546834879,-1.750252657661488,-0.011903488909032887,0.01712069340893088,0.08497955424257903
7138,0.0,299.93526,19877.256999999998,-0.07138001435975372,0.0,0.0,0.0,0.0,-0.010893599434042556,-3.020005601926347,-1.2406048799631688,-1.7815792096781782,-0.008503726896827503,0.012455181296980688,0.10451095202442791
7139,0.0,300.019,19850.089,-0.07138999099922116,0.0,0.0,0.0,0.0,-0.010895122010285085,-3.009098775199927,-1.2527572950375188,-1.7720753290402185,0.014884982394533385,0.0065104866313600036,0.07504464917108022
7140,0.0,300.14205,19749.413,-0.07140000067391872,0.0,0.0,0.0,0.0,-0.01089664962817083,-3.044905007233727,-1.2286360658069388,-1.7297872347917085,-0.005946451641294084,-0.002464616573638718,0.1028753434480059
7141,0.0,300.05484,19744.879,-0.07141001034861605,0.0,0.0,0.0,0.0,-0.010898177246056545,-3.044581071176757,-1.2240382408281687,-1.7333306717164183,0.01153839058000049,-0.003816296766664166,0.09337187824258691
7142,0.0,300.02308999999997,19806.081000000002,-0.0714199869880835,0.0,0.0,0.0,0.0,-0.010899699822299075,-3.058102083161177,-1.2306757382582387,-1.7317763460630182,-0.002197652935341458,-0.004793465334578195,0.12287883572969689
7143,0.0,300.44287,19958.691000000003,-0.07142999666278105,0.0,0.0,0.0,0.0,-0.01090122744018479,-3.041249200872927,-1.2575654707370487,-1.7681291252007585,-0.0003462416534788907,0.01747969602536168,0.09199100378105521
7144,0.0,300.31338,20190.724,-0.0714400063374786,0.0,0.0,0.0,0.0,-0.010902755058070535,-3.064981139415087,-1.2610208562280687,-1.8114737353285382,-0.006216867220032025,0.0010925110824474488,0.1042507797962509
7145,0.0,299.65083,20186.181,-0.07145001601217593,0.0,0.0,0.0,0.0,-0.01090428267595625,-3.074948176673757,-1.2650834825040187,-1.7960634172076582,-0.009373799691447,0.004100278852316016,0.09269539397232311
7146,0.0,298.87177,20040.377,-0.07145999265164338,0.0,0.0,0.0,0.0,-0.01090580525219878,-3.074809766710097,-1.238773734382449,-1.7781906986937583,-0.00025687614586670176,-5.623026971649554e-05,0.1128019722926879
7147,0.0,299.61782999999997,19909.645,-0.07147000232634093,0.0,0.0,0.0,0.0,-0.010907332870084524,-3.0763242716345673,-1.2287444835676387,-1.7469661809621384,0.005119810089685915,-0.0034118080360192363,0.09518693645146922
7148,0.0,300.46646,19982.861,-0.07148001200103848,0.0,0.0,0.0,0.0,-0.010908860487970268,-3.0614457071661674,-1.2436361189623288,-1.7692090471573383,-0.011382534476118688,-0.0025875481287711177,0.10947245272908988
7149,0.0,300.31217000000004,19870.701,-0.07148998864050571,0.0,0.0,0.0,0.0,-0.01091038306421277,-3.039183791869087,-1.2242466663737388,-1.7767665756782083,-0.017467066876115284,0.0062902589512752235,0.09456397610448782
7150,0.0,300.1208,19806.627,-0.07149999831520315,0.0,0.0,0.0,0.0,-0.010911910682098486,-3.006568284400187,-1.2444220970648987,-1.7697297563837282,-0.005067930164690765,0.004404480242388356,0.1018766436194419
7151,0.0,300.32345,19891.197,-0.0715100079899007,0.0,0.0,0.0,0.0,-0.01091343829998423,-3.046958459886387,-1.230413914432399,-1.7690548304921183,0.011125930914793887,0.008416810404574513,0.11143982978575488
7152,0.0,300.20364,20085.931,-0.07151998462936815,0.0,0.0,0.0,0.0,-0.01091496087622676,-3.0655937504255473,-1.2641752051143789,-1.7758525227629982,0.016655281293498286,-0.014383922114082586,0.11476462760388689
7153,0.0,300.45739,20123.941000000003,-0.07152999430406548,0.0,0.0,0.0,0.0,-0.010916488494112475,-3.081445744265017,-1.2739940038834188,-1.7617357197197783,0.00999146185498051,0.0008335012547851693,0.09239479914465672
7154,0.0,300.18472,20115.973,-0.07154000397876303,0.0,0.0,0.0,0.0,-0.010918016111998219,-3.083341940502157,-1.2430021283747588,-1.7884093259522584,0.0014467390617570286,0.008012047589777532,0.11956845646048789
7155,0.0,299.21223,20095.791,-0.07155001365346059,0.0,0.0,0.0,0.0,-0.010919543729883963,-3.0541183890680172,-1.2749701690297588,-1.7795301140009485,-0.012899088192290886,0.018205498217742783,0.07764869990158002
7156,0.0,299.71362,20025.825,-0.07155999029292781,0.0,0.0,0.0,0.0,-0.010921066306126465,-3.056668030294647,-1.2464987531448488,-1.7841840730352585,-0.020839367885435483,0.003636000259770287,0.09111690027753791
7157,0.0,299.86929,19987.083,-0.07156999996762536,0.0,0.0,0.0,0.0,-0.01092259392401218,-3.062388840359247,-1.244181551491159,-1.769003661362068,-0.016299904085925285,5.6137627246602445e-05,0.08489807880203801
7158,0.0,300.18729,19902.78,-0.07158000964232292,0.0,0.0,0.0,0.0,-0.010924121541897924,-3.068400959827597,-1.2350311938130887,-1.7465158926176985,-0.005473241350441864,-0.013309714888066588,0.11082913381798389
7159,0.0,300.04977,19800.679,-0.07158998628179036,0.0,0.0,0.0,0.0,-0.010925644118140454,-3.044580463226697,-1.2249223015404187,-1.7494092282782485,-0.003216563962325147,-0.02236678769568008,0.09562905394710282
7160,0.0,300.36525,19839.488999999998,-0.0715999959564877,0.0,0.0,0.0,0.0,-0.01092717173602617,-3.040459777720017,-1.2403198527100388,-1.7499295322045982,0.0018868806183706182,-0.013110365023642287,0.09710492364525981
7161,0.0,300.00192000000004,20024.208,-0.07161000563118525,0.0,0.0,0.0,0.0,-0.010928699353911914,-3.0394414613695173,-1.2591531323187388,-1.7882645325129682,0.004817128068138526,0.003855501338208356,0.097181263934294
7162,0.0,300.24816,20101.197,-0.0716200153058828,0.0,0.0,0.0,0.0,-0.010930226971797657,-3.062069159952697,-1.255777388285579,-1.7924154128726282,0.017339589881034283,0.02247370179323168,0.10039787703924899
7163,0.0,300.25719,20073.918999999998,-0.07162999194535025,0.0,0.0,0.0,0.0,-0.010931749548040187,-3.069340951945367,-1.2685043161666287,-1.7641248621305683,-0.00046334630112871957,0.007694545873592553,0.1111840044005069
7164,0.0,299.63336,20039.416,-0.07164000162004758,0.0,0.0,0.0,0.0,-0.010933277165925875,-3.076995043200767,-1.2493818549793887,-1.7651051816023182,0.008290668670475293,-0.0016747001705800383,0.09830026188098051
7165,0.0,299.45954,20108.922,-0.07165001129474513,0.0,0.0,0.0,0.0,-0.01093480478381162,-3.089953093429627,-1.2554680430300487,-1.7671891330829883,3.2541461178092174e-05,0.0005529639357632915,0.1161312081462579
7166,0.0,299.47024,20057.971999999998,-0.07165998793421247,0.0,0.0,0.0,0.0,-0.010936327360054149,-3.071012510635337,-1.2501638814065688,-1.7759461470722382,0.0005007739258400386,0.00018173674058601983,0.0957670961009765
7167,0.0,299.44021000000004,20069.939,-0.07166999760890991,0.0,0.0,0.0,0.0,-0.010937854977939865,-3.0624498380152674,-1.2462550664957988,-1.7920552024620782,-0.007637309300618743,-0.01057633494130299,0.1048897454418119
7168,0.0,299.78011000000004,20035.304,-0.07168000728360746,0.0,0.0,0.0,0.0,-0.010939382595825609,-3.063036915123207,-1.2593736155404986,-1.7678215024703985,-0.012508429616235888,-0.00910520218736349,0.07284603222959364
7169,0.0,299.76198999999997,19854.984,-0.0716899839230748,0.0,0.0,0.0,0.0,-0.010940905172068138,-3.057665980318137,-1.225824904729499,-1.7519283706768682,0.0033935175544891065,0.007559704272809723,0.09431586256575092
7170,0.0,299.75256,20045.968,-0.07169999359777235,0.0,0.0,0.0,0.0,-0.010942432789953882,-3.075443959947687,-1.2486080358780187,-1.7694217283533282,0.006793060603347883,-0.003708204968521337,0.10080243538017582
7171,0.0,300.77617000000004,20345.543,-0.07171000327246968,0.0,0.0,0.0,0.0,-0.01094396040783957,-3.098816194704347,-1.292884836097799,-1.7928361143141485,0.009299050103744792,-0.00964666034400125,0.10818283866431488
7172,0.0,300.24208,20163.433,-0.07172001294716723,0.0,0.0,0.0,0.0,-0.010945488025725314,-3.072924513574037,-1.264023521574409,-1.7922322172545484,0.0017936993020743384,-0.018199530174653783,0.1104922686897379
7173,0.0,300.22643999999997,20035.48,-0.07172998958663468,0.0,0.0,0.0,0.0,-0.010947010601967844,-3.048041624243287,-1.2636194374345289,-1.7786243697365587,0.015946311211778384,0.0032432180128306974,0.1017990691917859
7174,0.0,300.12304,20096.677,-0.07173999926133223,0.0,0.0,0.0,0.0,-0.010948538219853587,-3.073988527504047,-1.2584656421258889,-1.7764338243453683,0.008187499545293292,0.002526174759614038,0.11371128319742989
7175,0.0,300.15209,20183.194,-0.07175000893602956,0.0,0.0,0.0,0.0,-0.010950065837739303,-3.094792071932197,-1.2660912610534787,-1.7743036686601383,0.006781016504709223,-0.001121749123358019,0.0941102761469611
7176,0.0,300.1021,20046.888,-0.07175998557549723,0.0,0.0,0.0,0.0,-0.010951588413981861,-3.076206025347897,-1.2592162577999688,-1.7583310980587683,0.006163020576592774,-0.0007118700237711013,0.0950422787876926
7177,0.0,299.34643,19911.118000000002,-0.07176999525019456,0.0,0.0,0.0,0.0,-0.010953116031867577,-3.0649301729350573,-1.2387599541810888,-1.7487923616173684,-0.0007743517669475693,0.01343170209410579,0.09317514357667071
7178,0.0,298.85676,19916.036,-0.0717800049248919,0.0,0.0,0.0,0.0,-0.010954643649753265,-3.036477806152027,-1.2390057686553488,-1.7784941670987082,-0.008511038610874112,0.007835878151865962,0.1062084296519559
7179,0.0,299.56625,20139.093999999997,-0.07179001459958945,0.0,0.0,0.0,0.0,-0.010956171267639009,-3.074690608498337,-1.253067957518179,-1.7940232381313084,-0.026103896231253976,-0.022810970195017478,0.08690387627599482
7180,0.0,299.70266000000004,20293.064,-0.07179999123905689,0.0,0.0,0.0,0.0,-0.010957693843881539,-3.086967957310017,-1.2694768336126088,-1.8121398459442783,-0.004514495695846036,-0.008845299179738062,0.09977860593588171
7181,0.0,300.10297,20058.462,-0.07181000091375445,0.0,0.0,0.0,0.0,-0.010959221461767282,-3.0857282458126676,-1.2507161027110687,-1.7608271383551086,-0.007389972215433472,-0.002087679126462888,0.11119556558414789
7182,0.0,300.22422,19958.462,-0.07182001058845178,0.0,0.0,0.0,0.0,-0.010960749079652998,-3.051859246645057,-1.2553346993168886,-1.7596801392419086,0.016190860136663484,0.0022685564283140875,0.11075530841569789
7183,0.0,299.90307,20226.47,-0.07182998722791933,0.0,0.0,0.0,0.0,-0.010962271655895556,-3.103138516980927,-1.2615328515035988,-1.7836703552345585,0.009499650926742553,0.0037067496374027066,0.12855539716242986
7184,0.0,300.03749,20351.933,-0.07183999690261667,0.0,0.0,0.0,0.0,-0.010963799273781272,-3.071788254911897,-1.3006518034143386,-1.8140394872317582,0.01985628730716298,0.0021149172143260777,0.10161538721365791
7185,0.0,300.04526,20125.023,-0.07185000657731422,0.0,0.0,0.0,0.0,-0.010965326891666988,-3.0830791034262175,-1.2416753786938188,-1.7927499880556481,0.018546439651141083,0.011581111230716689,0.1154146478080389
7186,0.0,300.20696,19988.25,-0.07186001625201166,0.0,0.0,0.0,0.0,-0.010966854509552704,-3.054833642313607,-1.2463703743571788,-1.7747249780517182,-0.0008595753108009782,-0.008254312243637192,0.08914868424979011
7187,0.0,300.63256,20068.221999999998,-0.07186999289147922,0.0,0.0,0.0,0.0,-0.010968377085795261,-3.091157341173477,-1.2590261720812088,-1.7500548712419683,-0.0057547594145005345,-0.004999030677765915,0.0911425040943148
7188,0.0,300.22042000000005,20232.326,-0.07188000256617655,0.0,0.0,0.0,0.0,-0.010969904703680977,-3.105000668014707,-1.2488892127807687,-1.7962320220242982,-0.01185055875030909,-0.01205737221496999,0.1071154911414759
7189,0.0,299.7644,20240.98,-0.07189001224087388,0.0,0.0,0.0,0.0,-0.010971432321566693,-3.100308002826577,-1.2634816354209288,-1.7889627631568785,0.0026953488201602173,0.01989227795071498,0.11012565453855591
7190,0.0,299.94327000000004,20072.055,-0.07189998888034155,0.0,0.0,0.0,0.0,-0.01097295489780925,-3.0593994485892173,-1.2411824325201688,-1.8008215383522481,-0.005600376069639084,-0.0033901722079589473,0.1113100121829429
7191,0.0,300.12512999999996,20054.148,-0.07190999855503888,0.0,0.0,0.0,0.0,-0.010974482515694967,-3.068658933303057,-1.2469915979934887,-1.7803098099528984,-0.007166618760115204,-0.008178653669270272,0.09806506728101859
7192,0.0,299.69376,20225.261000000002,-0.07192000822973643,0.0,0.0,0.0,0.0,-0.010976010133580683,-3.0887315191090674,-1.2829819375704588,-1.7762608625532985,-0.0034902558852614365,-0.012411391667408988,0.08807231373481061
7193,0.0,299.52858,20397.323,-0.07192998486920388,0.0,0.0,0.0,0.0,-0.01097753270982324,-3.1355790361575573,-1.2714271374050885,-1.7932705959570285,0.018814887092884782,-0.0033923948733783067,0.1010797700385466
7194,0.0,299.64806,20175.656000000003,-0.07193999454390143,0.0,0.0,0.0,0.0,-0.010979060327708956,-3.0933382606887174,-1.256254122457629,-1.7833034573733482,0.005839605735474214,0.0027719579244459475,0.1134399246881489
7195,0.0,300.21238,19983.176,-0.07195000421859876,0.0,0.0,0.0,0.0,-0.010980587945594672,-3.0506409147248172,-1.2586390092179986,-1.7651066001524582,-0.009098186646321112,-0.010483728948413491,0.1038717938613479
7196,0.0,300.25527,20071.935,-0.07196001389329632,0.0,0.0,0.0,0.0,-0.010982115563480416,-3.0574159101934573,-1.2483923149317289,-1.7955590213078783,0.0032612402870593566,0.013489275978037885,0.10263984385976391
7197,0.0,300.22401,20241.943,-0.07196999053276365,0.0,0.0,0.0,0.0,-0.010983638139722945,-3.099059982678407,-1.262780263701709,-1.791204984303168,0.0050277479081250855,0.024088144588314774,0.1092491729370539
7198,0.0,299.48391000000004,20214.166,-0.0719800002074612,0.0,0.0,0.0,0.0,-0.01098516575760869,-3.0985028977734266,-1.2614051819909988,-1.7846937378355583,-0.004471691148021556,0.014836728385021087,0.09655833702456591
7199,0.0,299.72247999999996,20146.065,-0.07199000988215865,0.0,0.0,0.0,0.0,-0.010986693375494377,-3.102024549820987,-1.2561040601178188,-1.7657721028181381,-0.022169829101491775,-0.02011248658169788,0.1121378780446469
7200,0.0,300.3436,20113.03,-0.0719999865216262,0.0,0.0,0.0,0.0,-0.010988215951736963,-3.0825482616988267,-1.2602341688504288,-1.7710765684166485,-0.0011158748059032688,0.005715913634816754,0.09209938607800172
7201,0.0,299.94827000000004,20183.896,-0.07200999619632353,0.0,0.0,0.0,0.0,-0.01098974356962265,-3.0881313710748373,-1.2259559179674289,-1.8213129004245883,0.016431323637145383,0.005966956986217804,0.12898019213435388
7202,0.0,300.54902999999996,20366.656000000003,-0.07202000587102086,0.0,0.0,0.0,0.0,-0.010991271187508367,-3.088648027300827,-1.2862201835650486,-1.8160866577337984,0.005312628847940645,-0.013910953179404184,0.0954180577860291
7203,0.0,299.93372999999997,20175.15,-0.07203001554571842,0.0,0.0,0.0,0.0,-0.01099279880539411,-3.092846733065207,-1.2450989481316987,-1.7947962466325982,-0.008939839771043491,-0.033432582217038966,0.11142621170441089
7204,0.0,299.71945,19975.343999999997,-0.07203999218518586,0.0,0.0,0.0,0.0,-0.01099432138163664,-3.0705066961854173,-1.2466318942079888,-1.7548670999418983,-0.004174500536716126,-0.01139298108464969,0.08401869930525001
7205,0.0,299.80641,20182.787,-0.07205000185988342,0.0,0.0,0.0,0.0,-0.010995848999522384,-3.103150169357077,-1.2730205745123488,-1.7588924386141684,0.015988447217186886,0.02159624037888298,0.1101984565582409
7206,0.0,299.59712,20298.495,-0.07206001153458075,0.0,0.0,0.0,0.0,-0.010997376617408072,-3.1061531386784473,-1.2606061329621387,-1.8034762536142481,0.017071525447828383,0.013217425029208288,0.11087905665041088
7207,0.0,299.88574,20239.51,-0.07206998817404842,0.0,0.0,0.0,0.0,-0.010998899193650657,-3.0814529383407265,-1.2902852416412387,-1.7805674794533282,-0.013736677201954487,0.003780747798830757,0.1150298660825639
7208,0.0,300.133,20141.807,-0.07207999784874575,0.0,0.0,0.0,0.0,-0.011000426811536346,-3.050961912356497,-1.2685979404758687,-1.8030464329218283,-0.005922128268668555,0.015661723709191788,0.0983963504144637
7209,0.0,299.97452999999996,20199.135,-0.0720900075234433,0.0,0.0,0.0,0.0,-0.01100195442942209,-3.0843252997242074,-1.254389134323569,-1.8013181322262584,-0.0036710198044264467,0.02049198218140118,0.1040534189417729
7210,0.0,300.40918999999997,20334.779,-0.07209998416291064,0.0,0.0,0.0,0.0,-0.01100347700566462,-3.104072733573127,-1.2764654222023288,-1.8007267994678984,-0.005659376508386975,0.006397300009064353,0.09335496709841791
7211,0.0,300.22446,20382.688000000002,-0.07210999383760819,0.0,0.0,0.0,0.0,-0.011005004623550363,-3.1323708836909367,-1.2746157341447788,-1.788841578444918,-0.020713835317296377,-0.01882813533794228,0.09921043202180731
7212,0.0,299.91795,20247.182,-0.07212000351230563,0.0,0.0,0.0,0.0,-0.011006532241436079,-3.092716935727397,-1.271884518500229,-1.7900363016378282,-0.0072314849036919935,0.012178584284682688,0.09701415771455191
7213,0.0,300.49869,20174.433999999997,-0.07213001318700296,0.0,0.0,0.0,0.0,-0.011008059859321767,-3.086364262900437,-1.2531531718515887,-1.7930066443059784,0.001184275368478879,0.012258010933521487,0.11731445121553488
7214,0.0,300.24338,20270.742,-0.07213998982647052,0.0,0.0,0.0,0.0,-0.011009582435564352,-3.082668433160687,-1.2752992726622385,-1.8038316004243184,-0.0029730222080394473,0.005453045654748704,0.10253737387715091
7215,0.0,299.72557,20432.074,-0.07214999950116785,0.0,0.0,0.0,0.0,-0.01101111005345004,-3.117579864031177,-1.2912314145846187,-1.8020289271714083,-0.00995504260663621,-0.02024038407557038,0.10906264372614488
7216,0.0,299.33422,20285.683,-0.0721600091758654,0.0,0.0,0.0,0.0,-0.011012637671335784,-3.0992304113452267,-1.2767345414288886,-1.7903762470463782,0.00869123956828356,0.011307742433237289,0.09888350586379221
7217,0.0,299.33236,20044.46,-0.07216998581533285,0.0,0.0,0.0,0.0,-0.011014160247578314,-3.092767800882417,-1.2507500465894188,-1.7494973810369483,0.013134908980814588,0.01055285793648599,0.12035919683852787
7218,0.0,299.87461,20187.089,-0.0721799954900304,0.0,0.0,0.0,0.0,-0.011015687865464058,-3.081924200962237,-1.2583111214856386,-1.7961358645898082,0.005459495498260255,0.001911778605127858,0.10758215360753191
7219,0.0,299.82946,20399.216,-0.07219000516472773,0.0,0.0,0.0,0.0,-0.011017215483349774,-3.115832716883747,-1.2518744502253887,-1.8331451284673383,-0.00044443035044436054,-0.012411186990888789,0.11561541318285289
7220,0.0,299.60695,20289.349,-0.07220001483942529,0.0,0.0,0.0,0.0,-0.01101874310123549,-3.0919972241813674,-1.2667499749434887,-1.8087083731556182,0.004169786491950886,0.005717666557489755,0.09512700574780451
7221,0.0,299.6837,20121.249,-0.07220999147889273,0.0,0.0,0.0,0.0,-0.01102026567747802,-3.1003418453799174,-1.2395346852075488,-1.7764807378249983,-0.0027897056078975075,0.02317563586625718,0.0958424089544093
7222,0.0,300.252,20256.416,-0.07222000115359029,0.0,0.0,0.0,0.0,-0.011021793295363763,-3.113416520695287,-1.2606325787897488,-1.7833954604824285,-0.02777470410289987,0.002596000357130288,0.1025881377071609
7223,0.0,300.57381000000004,20435.058999999997,-0.07223001082828762,0.0,0.0,0.0,0.0,-0.01102332091324948,-3.138819713952387,-1.2923279538428387,-1.7806000047815382,-0.018252139133095882,-0.017999217722634485,0.09989121348574521
7224,0.0,300.41891,20416.613,-0.07223998746775517,0.0,0.0,0.0,0.0,-0.011024843489492037,-3.121282381221587,-1.280953106895229,-1.8039051623815783,-0.0007345696935088842,-0.0026372969861559476,0.10849304518242989
7225,0.0,299.42248,20209.284,-0.07224999714245262,0.0,0.0,0.0,0.0,-0.011026371107377753,-3.094067800760717,-1.258985338102179,-1.7900646726406284,0.023393438028252576,-0.0036933506207303267,0.10149080811386291
7226,0.0,299.9837,20165.698,-0.07226000681714995,0.0,0.0,0.0,0.0,-0.011027898725263469,-3.071016259660707,-1.277189389398779,-1.7816631067864583,0.008085304761407452,-0.017945366519569784,0.1061310578743199
7227,0.0,300.27801,20286.591,-0.0722700164918475,0.0,0.0,0.0,0.0,-0.011029426343149185,-3.089829375592417,-1.276781252258499,-1.8000065812968185,0.016440946473345083,-0.03368234228718837,0.08654855175742701
7228,0.0,300.04093,20399.788,-0.07227999313131495,0.0,0.0,0.0,0.0,-0.011030948919391714,-3.108894182848967,-1.2775817198374988,-1.8145501652821583,0.029451536759640372,-0.0022022170190918976,0.11451103136885889
7229,0.0,299.41303,20274.707,-0.07229000280601239,0.0,0.0,0.0,0.0,-0.011032476537277458,-3.116708266295157,-1.243978597496129,-1.8023179060999286,0.03051688007378157,0.02799406667004927,0.1110437401891639
7230,0.0,299.33988,20124.067,-0.07230001248070983,0.0,0.0,0.0,0.0,-0.011034004155163174,-3.074209821325887,-1.2496008183259988,-1.7934032303951182,0.0002004853428838628,0.012819190382155588,0.1104743645604709
7231,0.0,299.6349,20284.861,-0.07230998912017739,0.0,0.0,0.0,0.0,-0.011035526731405731,-3.1045430842695474,-1.2692126793115386,-1.7923352647897182,-0.035408196997016965,-0.01943034837587608,0.09750567925856131
7232,0.0,300.64066,20518.741,-0.07231999879487472,0.0,0.0,0.0,0.0,-0.011037054349291447,-3.128295895763767,-1.2813279081072189,-1.8275609045162182,-0.024163104830712774,0.011455040626774488,0.1017870520455999
7233,0.0,300.53814,20411.147,-0.07233000846957227,0.0,0.0,0.0,0.0,-0.011038581967177191,-3.1316862305983673,-1.2860506668233187,-1.7867421242377184,-0.004134440579437517,0.004988764529077725,0.10481280936171891
7234,0.0,300.30644,20300.25,-0.07233998510903972,0.0,0.0,0.0,0.0,-0.011040104543419721,-3.112292522359357,-1.2685511283212487,-1.789925553401898,-0.01260328705084759,-0.004023044167418546,0.1025083949242909
7235,0.0,299.99958,20323.165,-0.07234999478373727,0.0,0.0,0.0,0.0,-0.011041632161305437,-3.1245383590929268,-1.2696178780265288,-1.7835783521254782,-0.008461122364572762,-0.030807943257757268,0.11475587312302289
7236,0.0,300.16344,20390.92,-0.0723600044584346,0.0,0.0,0.0,0.0,-0.011043159779191153,-3.099915368412827,-1.2865327712208987,-1.8118824804188782,0.017087669561671685,-0.0008796661047112852,0.10858667962417089
7237,0.0,300.09582,20427.585,-0.07237001413313193,0.0,0.0,0.0,0.0,-0.011044687397076869,-3.127307267641197,-1.2715929051214487,-1.8105756917649085,0.03539131726360107,0.008046610259963602,0.1110457565568629
7238,0.0,299.69038,20316.011000000002,-0.0723799907725996,0.0,0.0,0.0,0.0,-0.011046209973319426,-3.103387472530497,-1.2644734046188089,-1.807699277381028,0.018613349621494583,-0.006019829896310953,0.10736249111835289
7239,0.0,299.65527000000003,20144.681,-0.07239000044729693,0.0,0.0,0.0,0.0,-0.011047737591205142,-3.087933685980327,-1.272793201189909,-1.7627533267952085,-0.0006926080380450914,-0.019415664355426878,0.07395061872010784
7240,0.0,300.34283999999997,20270.074,-0.07240001012199448,0.0,0.0,0.0,0.0,-0.011049265209090886,-3.104320169247547,-1.2571048472415887,-1.8001713357630784,0.012316580842301889,0.004847616560997505,0.1192494042689999
7241,0.0,299.52365,20469.781000000003,-0.07240998676146193,0.0,0.0,0.0,0.0,-0.011050787785333416,-3.131690587573797,-1.2739547911045488,-1.816656813565068,0.00016134391708590487,0.008727301139342562,0.08772528266831132
7242,0.0,299.98284,20489.801,-0.07241999643615948,0.0,0.0,0.0,0.0,-0.011052315403219132,-3.117592630982437,-1.2801208232630887,-1.830674419423498,-0.01899430126159158,-0.0004210639722732786,0.12223529019368388
7243,0.0,299.69951000000003,20255.639,-0.07243000611085681,0.0,0.0,0.0,0.0,-0.011053843021104848,-3.099850115106387,-1.272617402297559,-1.7847408539652083,-0.02308852574191008,-0.009528810339445361,0.08208315856672702
7244,0.0,299.92276,20302.552,-0.07244001578555437,0.0,0.0,0.0,0.0,-0.011055370638990591,-3.109202920154437,-1.272953700005749,-1.7893121317913585,-0.013520871142656089,0.01045545420437299,0.11629818163023689
7245,0.0,300.39266000000003,20479.407,-0.0724499924250217,0.0,0.0,0.0,0.0,-0.011056893215233121,-3.138136884709997,-1.2760417823355188,-1.8110494875116685,-0.0016249109858412288,0.004539313230545336,0.09421748408704171
7246,0.0,300.48181,20495.793,-0.07246000209971926,0.0,0.0,0.0,0.0,-0.011058420833118865,-3.144552075068127,-1.2760098649573688,-1.8096474533482985,0.00958583595374835,-0.01130027781975059,0.12089780006168388
7247,0.0,299.95715,20333.1,-0.0724700117744167,0.0,0.0,0.0,0.0,-0.011059948451004581,-3.103425165434217,-1.2755973708416588,-1.8017322475421282,0.012682932561707988,-0.016780377150844284,0.1015011837948869
7248,0.0,300.39537,20252.235,-0.07247998841388403,0.0,0.0,0.0,0.0,-0.01106147102724711,-3.076260842178307,-1.2611460939404289,-1.818766906898318,0.027867963642103873,0.0031172978765283466,0.1062912020526249
7249,0.0,300.00675,20349.407,-0.07248999808858159,0.0,0.0,0.0,0.0,-0.011062998645132827,-3.1075172772880766,-1.2844237924627588,-1.793770533556368,0.004787759723265095,0.015395869174453986,0.1027081673140069
7250,0.0,300.17079,20572.921000000002,-0.07250000776327892,0.0,0.0,0.0,0.0,-0.011064526263018543,-3.129837353140897,-1.2861837065614488,-1.8376332184602784,-0.02053235006538518,0.008578029539910602,0.1028840270013629
7251,0.0,300.34746,20516.823,-0.07250998440274636,0.0,0.0,0.0,0.0,-0.011066048839261072,-3.1325124347299074,-1.2886474241795987,-1.8154421293451883,-0.03441830129857187,0.003497085798885497,0.0995067651195531
7252,0.0,299.95184,20218.5,-0.07251999407744392,0.0,0.0,0.0,0.0,-0.011067576457146816,-3.0972512299248973,-1.2618700611368787,-1.7867979543182284,-0.013662309710864988,0.02599733575798727,0.1101189569553949
7253,0.0,300.25563999999997,20306.526,-0.07253000375214147,0.0,0.0,0.0,0.0,-0.01106910407503256,-3.104893567479137,-1.2576940521747386,-1.8100891290668881,-0.005629226035761354,0.007550303541031942,0.1064687032051429
7254,0.0,300.00319,20596.737,-0.0725400134268388,0.0,0.0,0.0,0.0,-0.011070631692918276,-3.1231850622593673,-1.3017140948191788,-1.8359943877485383,-0.016465648497532983,-0.00963871555129216,0.12021206279150688
7255,0.0,299.73546,20445.409,-0.07254999006630625,0.0,0.0,0.0,0.0,-0.011072154269160805,-3.118652895887077,-1.279827386034129,-1.8164136335410683,-0.007254655400353744,-0.023553839572082978,0.089067167265995
7256,0.0,299.99227,20379.106,-0.0725599997410038,0.0,0.0,0.0,0.0,-0.011073681887046521,-3.110129841345917,-1.2814031925896487,-1.8032063237876086,-0.006481279697227504,0.008489249579398702,0.1052475037871199
7257,0.0,300.02065,20411.935,-0.07257000941570135,0.0,0.0,0.0,0.0,-0.011075209504932265,-3.121425857435747,-1.2869364500607385,-1.7963561451615482,0.006232636633988343,0.00964498665748607,0.09077372564091922
7258,0.0,299.99372,20418.118000000002,-0.07257998605516858,0.0,0.0,0.0,0.0,-0.011076732081174767,-3.127903767975067,-1.2670598268240687,-1.811634335469388,0.007982769221512982,-0.011295842824062888,0.1188210730542269
7259,0.0,300.41822,20450.497,-0.07258999572986613,0.0,0.0,0.0,0.0,-0.011078259699060511,-3.1111128965929367,-1.2811013453848588,-1.8242260957870982,0.013520290550348786,-0.012858022178987988,0.090215564664333
7260,0.0,300.37774,20474.122,-0.07260000540456368,0.0,0.0,0.0,0.0,-0.011079787316946255,-3.1168501213091573,-1.2755208704591088,-1.8312508574053883,0.026810057583696676,-0.0011792841998112889,0.1173521238542529
7261,0.0,299.58948,20355.17,-0.07261001507926101,0.0,0.0,0.0,0.0,-0.01108131493483197,-3.116084610858607,-1.2714056565029686,-1.7999731440435183,0.01033328157356549,0.014219057203561685,0.1027707152426799
7262,0.0,299.83083999999997,20313.513,-0.07261999171872835,0.0,0.0,0.0,0.0,-0.0110828375110745,-3.1045338636936366,-1.2715618996683888,-1.7987049602183582,-0.029208279728632772,0.0035285224911880565,0.10879883393010889
7263,0.0,299.38874,20567.528000000002,-0.0726300013934259,0.0,0.0,0.0,0.0,-0.011084365128960216,-3.157382455784387,-1.2869605654131189,-1.8076719196283282,-0.02347102258840958,6.846823653653883e-05,0.1153814233372599
7264,0.0,299.24087000000003,20607.54,-0.07264001106812346,0.0,0.0,0.0,0.0,-0.01108589274684596,-3.1448366970212174,-1.2817855931773887,-1.8375551982025784,-0.016988195759604384,0.01891195645246478,0.12219448661215689
7265,0.0,299.28108,20416.368000000002,-0.07264998770759068,0.0,0.0,0.0,0.0,-0.011087415323088462,-3.125020463490507,-1.2788964118422488,-1.802149301283288,-0.007285250892423283,-0.0011954331772550688,0.1139389300973969
7266,0.0,300.15539,20430.789,-0.07265999738228823,0.0,0.0,0.0,0.0,-0.011088942940974206,-3.119618219257347,-1.2682534354418689,-1.8225781458244583,-0.007686904042663363,-0.028516826714641678,0.1059191467484059
7267,0.0,300.20668,20604.013,-0.07267000705698579,0.0,0.0,0.0,0.0,-0.01109047055885995,-3.151796205333067,-1.2911313054747386,-1.8201777563375583,0.003926583669823637,-0.015421084916442587,0.0997501954163278
7268,0.0,300.35823,20589.527,-0.07267998369645323,0.0,0.0,0.0,0.0,-0.01109199313510248,-3.1299538769023973,-1.2916712664530288,-1.8370770454803884,0.034431482669122764,0.003080106227632817,0.1029529888031689
7269,0.0,300.33361,20402.542,-0.07268999337115056,0.0,0.0,0.0,0.0,-0.011093520752988195,-3.143233026087947,-1.2627582761745388,-1.7958719129387584,0.02499557996712168,0.02243061839897968,0.1118868554648729
7270,0.0,299.48753999999997,20351.115,-0.07270000304584812,0.0,0.0,0.0,0.0,-0.011095048370873911,-3.104538018019047,-1.2713653291489888,-1.8103273441653984,0.001097534067168179,0.007640825683765783,0.1117567136220289
7271,0.0,300.006,20342.721,-0.07271001272054567,0.0,0.0,0.0,0.0,-0.011096575988759655,-3.125415225729467,-1.2599947378517988,-1.7982693640003684,-0.004905260156536486,-0.0030711584186497373,0.0986691396328859
7272,0.0,299.44487999999996,20470.603,-0.07271998936001312,0.0,0.0,0.0,0.0,-0.011098098565002185,-3.123811757446217,-1.2833733560840888,-1.815367148837788,-0.01220362574765409,0.015524268227125985,0.1157182580680029
7273,0.0,299.93262000000004,20682.926,-0.07272999903471045,0.0,0.0,0.0,0.0,-0.0110996261828879,-3.1599505381628368,-1.3065146711429587,-1.8206279433569883,-0.004265522921024336,-0.009276089856478792,0.1020003817216539
7274,0.0,300.00945,20562.889,-0.072740008709408,0.0,0.0,0.0,0.0,-0.011101153800773644,-3.1383194723780172,-1.2804264194932489,-1.8318589087903983,-0.027852316020809575,-0.014328205517583785,0.1143692979448709
7275,0.0,299.9296,20420.542,-0.07274998534887545,0.0,0.0,0.0,0.0,-0.011102676377016174,-3.134524952078527,-1.2798021561066386,-1.7930078602060984,-0.016453270634311384,0.008435315897775861,0.1021702227034159
7276,0.0,300.01939,20567.378,-0.07275999502357278,0.0,0.0,0.0,0.0,-0.01110420399490189,-3.1355163159763673,-1.2805986720102487,-1.8358542552597084,0.005606510083094465,0.02386028186607648,0.12083571822805687
7277,0.0,300.32041,20575.768,-0.07277000469827033,0.0,0.0,0.0,0.0,-0.011105731612787606,-3.1525151062790173,-1.2718375036955887,-1.8301670850984284,0.010545312262991291,0.01158607412970649,0.11696836551137889
7278,0.0,300.09937,20439.479,-0.07278001437296788,0.0,0.0,0.0,0.0,-0.01110725923067335,-3.123829387997957,-1.2865127088689188,-1.8027492466674984,-0.0015522173839169285,-0.029993909273168372,0.1022265087464709
7279,0.0,300.77197,20412.671000000002,-0.07278999101243522,0.0,0.0,0.0,0.0,-0.01110878180691588,-3.1209254132113573,-1.2687816427189988,-1.8152353249997781,0.004841664020635035,-0.02142277297501308,0.09630008287882821
7280,0.0,300.22331,20442.292,-0.07280000068713266,0.0,0.0,0.0,0.0,-0.011110309424801595,-3.1248312896968367,-1.2730846119186687,-1.8160304223532484,0.008497139149977342,-0.0025985843475353075,0.0993207222686921
7281,0.0,300.17071,20516.535,-0.07281001036183032,0.0,0.0,0.0,0.0,-0.011111837042687367,-3.128914180974787,-1.2861241274555686,-1.8214759323656782,0.0070778528837796935,0.0024238929375446075,0.1104351720466029
7282,0.0,300.24192,20654.509,-0.07281998700129755,0.0,0.0,0.0,0.0,-0.011113359618929869,-3.138805528450987,-1.2873049691221088,-1.8523445966621783,-0.0008512256334844291,0.002368990082201118,0.1097659710180579
7283,0.0,299.594,20579.895,-0.0728299966759951,0.0,0.0,0.0,0.0,-0.011114887236815613,-3.140854320153187,-1.2970682417856687,-1.8178515367579782,0.005487101699884775,0.008063559198361332,0.11554887304878589
7284,0.0,299.36161,20478.174,-0.07284000635069243,0.0,0.0,0.0,0.0,-0.0111164148547013,-3.126800135966147,-1.2876393416551088,-1.8104139770489482,0.003377901039972877,0.026732556110047875,0.10411785151563191
7285,0.0,300.03799,20619.148999999998,-0.07285001602538999,0.0,0.0,0.0,0.0,-0.011117942472587045,-3.1442536729136767,-1.2919155610521387,-1.8315373032086584,-0.015501021230081685,0.02066990281946058,0.11412040319030689
7286,0.0,299.63763,20775.83,-0.07285999266485743,0.0,0.0,0.0,0.0,-0.011119465048829574,-3.167131948246587,-1.295730042378599,-1.8524715568997083,-0.017435172802717586,-0.01106719483299709,0.10592340239882589
7287,0.0,300.20202,20492.146,-0.07287000233955476,0.0,0.0,0.0,0.0,-0.01112099266671529,-3.134471452473247,-1.2602843247303788,-1.8343450192357584,-0.015228924061477788,-0.0047183531046651956,0.1108288805054589
7288,0.0,299.73509,20173.262,-0.07288001201425254,0.0,0.0,0.0,0.0,-0.011122520284601062,-3.085308557621247,-1.2589597028746489,-1.7878996611519582,0.008970295941224282,0.0003802178646395817,0.09636865457934572
7289,0.0,300.54463,20410.443,-0.07288998865371976,0.0,0.0,0.0,0.0,-0.011124042860843564,-3.1360208132011573,-1.248408526933329,-1.819835885753818,0.005659634684512455,-0.025929790479821076,0.1111208586542749
7290,0.0,300.21429,20686.11,-0.07289999832841731,0.0,0.0,0.0,0.0,-0.011125570478729307,-3.1607682309935368,-1.2889864576630587,-1.838306117851688,0.012379783330539488,-0.03108380566373277,0.09364768188005661
7291,0.0,299.869,20646.143,-0.07291000800311487,0.0,0.0,0.0,0.0,-0.011127098096615023,-3.1537833914291866,-1.3034687400173488,-1.8186599076877585,0.03570187639275086,-0.01874465974170388,0.0975613178348024
7292,0.0,300.00987000000003,20540.359,-0.0729199846425822,0.0,0.0,0.0,0.0,-0.011128620672857581,-3.139810773875197,-1.267481744165709,-1.8364636238698484,0.032797633094874365,-0.0029456214935352073,0.10842669756588189
7293,0.0,300.08099,20555.57,-0.07292999431727964,0.0,0.0,0.0,0.0,-0.01113014829074327,-3.154802417054757,-1.2757451027062388,-1.8178325889811084,0.018521728507702284,0.001090870630535549,0.1255102665043989
7294,0.0,300.07379,20622.394,-0.07294000399197709,0.0,0.0,0.0,0.0,-0.011131675908629013,-3.132882980291477,-1.2854640963404287,-1.8503457581899083,-0.015712977952250184,-0.0016532901959670386,0.11446182794400289
7295,0.0,300.78045,20744.862,-0.07295001366667464,0.0,0.0,0.0,0.0,-0.011133203526514757,-3.1676819404008674,-1.3002479219244787,-1.8379901864705082,-0.027929716169448372,0.010817519875856092,0.1180308696987399
7296,0.0,299.99174,20530.0,-0.07295999030614209,0.0,0.0,0.0,0.0,-0.011134726102757286,-3.1329175321198868,-1.2901770265305588,-1.8175128072495486,-0.024610820533148874,0.01151840523502809,0.1058031498769579
7297,0.0,299.40139,20351.495,-0.07296999998083942,0.0,0.0,0.0,0.0,-0.011136253720643002,-3.123536254744027,-1.2559349486761289,-1.806875099749688,-0.022791431693339182,0.0017175934791132785,0.1105128376667679
7298,0.0,299.92595,20499.552,-0.07298000965553697,0.0,0.0,0.0,0.0,-0.011137781338528718,-3.1431330183030766,-1.2740411200130686,-1.8141777958704084,-0.010880635224585091,-0.01798365116134818,0.0882710678081761
7299,0.0,299.54547,20747.563000000002,-0.07298998629500442,0.0,0.0,0.0,0.0,-0.011139303914771276,-3.1677324002558467,-1.3008610395599887,-1.8381476455360481,0.019709375161913883,0.003095258876253267,0.1123667611097359
7300,0.0,299.48541,20589.026,-0.07299999596970175,0.0,0.0,0.0,0.0,-0.011140831532656964,-3.145203088257377,-1.2777046270746288,-1.8356420806887683,0.02944801267579257,-0.0036839961944821168,0.0949910589951376
7301,0.0,299.99165,20532.51,-0.0730100056443993,0.0,0.0,0.0,0.0,-0.011142359150542708,-3.148704070002897,-1.283187120715709,-1.8094792538316982,0.019168057441739984,-0.018858559185444882,0.11630095793551087
7302,0.0,300.27203,20718.595,-0.07302001531909685,0.0,0.0,0.0,0.0,-0.011143886768428451,-3.158226797092717,-1.2942673145342387,-1.8454414250558882,0.006445136964835494,0.0017166070801409284,0.1084353405892349
7303,0.0,300.50433,20763.26,-0.0730299919585643,0.0,0.0,0.0,0.0,-0.011145409344670981,-3.169194925450187,-1.302628350384409,-1.8396894068882081,0.007727728193167392,0.007453148967118533,0.1072106353258659
7304,0.0,300.18003999999996,20753.23,-0.07304000163326163,0.0,0.0,0.0,0.0,-0.011146936962556697,-3.1595353082718574,-1.3071391371795886,-1.8417893677204584,0.012883631062015387,0.013657185705109287,0.11167781183674189
7305,0.0,300.63451000000003,20748.117,-0.07305001130795918,0.0,0.0,0.0,0.0,-0.011148464580442413,-3.1681548242225372,-1.2884704093871286,-1.8502843552338482,-0.009310873212536642,-0.012878353042244488,0.1198906699922879
7306,0.0,299.66735,20583.422,-0.07305998794742663,0.0,0.0,0.0,0.0,-0.011149987156684943,-3.1370002207478174,-1.3041739620869488,-1.8156720357928784,-0.003153832635384047,-0.014146667576667386,0.1085978152427699
7307,0.0,300.31993,20521.811,-0.07306999762212418,0.0,0.0,0.0,0.0,-0.011151514774570687,-3.1501743972230067,-1.2903922408517987,-1.7975514763045184,-0.0008036740494714532,0.003090807161938917,0.10035159076143091
7308,0.0,299.57765,20703.783,-0.07308000729682151,0.0,0.0,0.0,0.0,-0.011153042392456403,-3.169117006517497,-1.3029647494176089,-1.8213512012783681,0.004969252473227035,-0.002068978582617288,0.10888865855147391
7309,0.0,299.51426000000004,20651.206000000002,-0.07308998393628907,0.0,0.0,0.0,0.0,-0.01115456496869896,-3.183849358996467,-1.2947534719322187,-1.7988483351075084,-0.0004887167866725916,-0.004032368905438826,0.09059373999915601
7310,0.0,299.57386,20517.48,-0.0730999936109864,0.0,0.0,0.0,0.0,-0.011156092586584676,-3.155339642257777,-1.2667043786889887,-1.8147576789026383,-0.010056018349326741,0.002217802832130098,0.1139978505907119
7311,0.0,300.10421,20713.023,-0.07311000328568384,0.0,0.0,0.0,0.0,-0.011157620204470392,-3.164117630524097,-1.2898535970986387,-1.842270458867938,0.02109640410455298,0.0017396836485184084,0.0981591668045555
7312,0.0,299.07835,20889.034,-0.0731200129603814,0.0,0.0,0.0,0.0,-0.011159147822356108,-3.187024276859807,-1.2999982570998385,-1.8627222028613681,0.00902075072995378,0.004043762396188276,0.11740476219694788
7313,0.0,299.81524,20842.895,-0.07312998959984873,0.0,0.0,0.0,0.0,-0.011160670398598638,-3.1884606602015673,-1.301903876562909,-1.845355298797388,0.00949766384197144,0.00047910736590421545,0.12617645818014686
7314,0.0,299.89881,20719.793999999998,-0.07313999927454629,0.0,0.0,0.0,0.0,-0.011162198016484381,-3.175436647391197,-1.300546121428909,-1.8223171325986982,0.004054491701497177,0.0017683117128687784,0.09202831266298732
7315,0.0,300.01354,20655.786,-0.07315000894924362,0.0,0.0,0.0,0.0,-0.011163725634370097,-3.180452539361227,-1.2741325151720886,-1.8242580131652484,-0.0062869302220467035,0.02081941800421658,0.10591590434808591
7316,0.0,300.69762000000003,20579.067,-0.07315998558871128,0.0,0.0,0.0,0.0,-0.011165248210612655,-3.142586876499177,-1.3001498393147988,-1.8127857928830282,-0.0069757113968491125,0.004819574053879925,0.09055932394625942
7317,0.0,299.78819,20555.182,-0.07316999526340862,0.0,0.0,0.0,0.0,-0.011166775828498371,-3.1395319274476767,-1.2899095285041589,-1.8188206091536183,-0.007590032368177873,-0.00889749756923964,0.10108755787881521
7318,0.0,299.65931,20762.828,-0.07318000493810617,0.0,0.0,0.0,0.0,-0.011168303446384115,-3.158839610753197,-1.3055116548689687,-1.8470300998876783,-0.007237204700506494,-0.0035517426371047068,0.10547976097504191
7319,0.0,300.22521,20695.686999999998,-0.0731900146128035,0.0,0.0,0.0,0.0,-0.011169831064269803,-3.158956742464757,-1.3036982411649987,-1.8283169917408382,-0.0076370994565230325,-0.012831430443363588,0.10740656749770289
7320,0.0,299.73355,20554.195,-0.07319999125227117,0.0,0.0,0.0,0.0,-0.01117135364051236,-3.143816050195487,-1.2885424514692387,-1.8156034387611084,-0.005236201926022895,0.0034947211771271264,0.1089715728071569
7321,0.0,300.17983,20855.139,-0.0732100009269685,0.0,0.0,0.0,0.0,-0.011172881258398076,-3.1917715562283266,-1.296249434379859,-1.851420613895988,-0.004922249726263225,-0.007159885814525713,0.11714184406099988
7322,0.0,300.17986,20938.098,-0.07322001060166583,0.0,0.0,0.0,0.0,-0.011174408876283792,-3.188562289186597,-1.3113855670236787,-1.8647112128076682,0.007379593595984182,0.014007745921706886,0.11411373600464889
7323,0.0,299.49686,20644.313000000002,-0.07322998724113339,0.0,0.0,0.0,0.0,-0.01117593145252635,-3.161718862237357,-1.2753005898873686,-1.8383362113796582,0.012087574160700687,0.020091789935155282,0.1064748029707449
7324,0.0,299.75652,20650.299,-0.07323999691583083,0.0,0.0,0.0,0.0,-0.011177459070412066,-3.163433078756537,-1.2914614223573189,-1.8222807569201085,0.014470639097390886,0.00982229123948467,0.10421318821754091
7325,0.0,299.63212000000004,20711.398999999998,-0.07325000659052838,0.0,0.0,0.0,0.0,-0.01117898668829781,-3.1678862116210267,-1.2825971051824787,-1.8452648155634583,-0.002987617062479847,-0.005456467704311434,0.10576345073803989
7326,0.0,298.95617999999996,20602.561,-0.07326001626522571,0.0,0.0,0.0,0.0,-0.011180514306183498,-3.1620427982943267,-1.2765051416062487,-1.8241162594762583,0.0029882983718470873,-0.0016076933335169787,0.10228034272428391
7327,0.0,300.03564,20688.985,-0.07326999290469327,0.0,0.0,0.0,0.0,-0.011182036882426055,-3.167880942720507,-1.2975160983298686,-1.8235376936691583,0.009612560425135851,0.0059975164065837845,0.11052296003526689
7328,0.0,300.10204,20644.054,-0.0732800025793906,0.0,0.0,0.0,0.0,-0.011183564500311771,-3.1547179119964173,-1.2699016893795387,-1.850657433920668,-0.016987897864074984,0.0016879329129110086,0.10677688322305791
7329,0.0,299.87147999999996,20619.296000000002,-0.07329001225408815,0.0,0.0,0.0,0.0,-0.011185092118197515,-3.1420985912759867,-1.2957143370020487,-1.8299380905758282,-0.0035957320795961265,-0.018816987560342082,0.13268876856036188
7330,0.0,300.11003,20809.145,-0.0732999888935556,0.0,0.0,0.0,0.0,-0.011186614694440045,-3.169878362642637,-1.2985982494366688,-1.8569839648950484,-0.0013280818008464686,-0.006292156464737494,0.1099869102023629
7331,0.0,299.99349,21001.974,-0.07330999856825315,0.0,0.0,0.0,0.0,-0.011188142312325788,-3.1931542373147868,-1.2978740795901988,-1.8930473598042281,0.00981882389764247,0.01143050984185349,0.14928636248591684
7332,0.0,300.445,20805.392,-0.07332000824295049,0.0,0.0,0.0,0.0,-0.011189669930211504,-3.172510786402437,-1.3104218648535688,-1.8413870061057482,0.0010256988907285992,0.0030527814055610674,0.10388811732045891
7333,0.0,300.15672,20674.305,-0.07332998488241815,0.0,0.0,0.0,0.0,-0.011191192506454062,-3.1590637416753173,-1.275024377910109,-1.850384261693708,-0.004046259247084696,0.010475950227395791,0.11962961623652388
7334,0.0,299.69177,20795.429,-0.07333999455711548,0.0,0.0,0.0,0.0,-0.01119272012433975,-3.168868557592977,-1.3223019183010387,-1.8301206782438482,-0.001037955569238239,0.027891501441926876,0.07922992734513502
7335,0.0,299.77008,20791.861,-0.07335000423181282,0.0,0.0,0.0,0.0,-0.011194247742225466,-3.170047575409337,-1.3065073757422385,-1.843651620079248,0.006202456169159765,0.014732034318438588,0.0999113599374835
7336,0.0,300.1933,20667.853,-0.07336001390651037,0.0,0.0,0.0,0.0,-0.01119577536011121,-3.1705438653083173,-1.2873587727024187,-1.8246085976998483,-0.00951628737880944,0.0035649360653317967,0.08404895292673582
7337,0.0,299.97848999999997,20639.366,-0.07336999054597781,0.0,0.0,0.0,0.0,-0.01119729793635374,-3.145146346251777,-1.3009859732973188,-1.827719680806888,-0.009137394561590632,-0.008750201604852662,0.09768878773713272
7338,0.0,300.00316000000004,20629.102,-0.07338000022067537,0.0,0.0,0.0,0.0,-0.011198825554239483,-3.1632791660663466,-1.2846925063892787,-1.8227602268674286,-0.002014517909617438,0.0050601301654209655,0.11317472673947589
7339,0.0,299.45007000000004,20693.714,-0.0733900098953727,0.0,0.0,0.0,0.0,-0.0112003531721252,-3.153227117124287,-1.2881755536080288,-1.8489696632290982,0.007012642539143932,0.0026234802064673377,0.11483612253094289
7340,0.0,300.03222,20941.767,-0.07339998653484026,0.0,0.0,0.0,0.0,-0.011201875748367757,-3.1987594355429767,-1.3112856605638188,-1.8557290546461982,-0.004967301764134516,-0.00893690580405393,0.12782859286569986
7341,0.0,300.09324,20956.653000000002,-0.07340999620953759,0.0,0.0,0.0,0.0,-0.011203403366253445,-3.201115951300547,-1.2948405101158087,-1.8743427629582283,-0.001026760574183379,-0.00964137898050502,0.12542340057332588
7342,0.0,300.15573,20808.663,-0.07342000588423514,0.0,0.0,0.0,0.0,-0.011204930984139189,-3.186053785914027,-1.3035669239520387,-1.8356933511438285,0.0034597563479763665,-0.0015613018803384985,0.12185618266876888
7343,0.0,300.39041000000003,20911.259,-0.07343001555893258,0.0,0.0,0.0,0.0,-0.011206458602024905,-3.1928098336057973,-1.295532965234149,-1.8681577830228182,0.015300680407059586,-0.01028058243586449,0.11619195248975289
7344,0.0,300.62856,20964.367,-0.07343999219840014,0.0,0.0,0.0,0.0,-0.011207981178267462,-3.223323961692307,-1.2830018985974287,-1.8663183287912783,-0.006525402686082104,-0.011935048609897591,0.12755520785621888
7345,0.0,300.68192,20742.468999999997,-0.07345000187309747,0.0,0.0,0.0,0.0,-0.011209508796153178,-3.1684269831993968,-1.2995678284573589,-1.8371979262173181,0.01024813310141199,-0.0002165376258705998,0.1041570642945019
7346,0.0,300.40794,20528.069,-0.0734600115477948,0.0,0.0,0.0,0.0,-0.011211036414038894,-3.148034413011807,-1.282266582999859,-1.8097194954304083,0.01724399074734938,0.011379705481839489,0.08668270505741692
7347,0.0,300.02845,20641.438000000002,-0.07346998818726247,0.0,0.0,0.0,0.0,-0.011212558990281452,-3.164344598546497,-1.2840827324790987,-1.8260545055925483,0.004949897876441885,0.012588067021095488,0.10356758578382491
7348,0.0,300.28323,20816.718999999997,-0.0734799978619598,0.0,0.0,0.0,0.0,-0.01121408660816714,-3.178854036003467,-1.3147216929779286,-1.8341871548701782,-0.023225420896670578,0.0072086784677911735,0.10272266692293791
7349,0.0,299.77957000000004,20807.841,-0.07349000753665735,0.0,0.0,0.0,0.0,-0.011215614226052883,-3.174071495531467,-1.2948266285894388,-1.8561659680893183,-0.011492269461948689,-0.0069551175951916636,0.1173457910411279
7350,0.0,299.75221,20905.238999999998,-0.0734999841761248,0.0,0.0,0.0,0.0,-0.011217136802295413,-3.172891768440037,-1.3285823463958686,-1.8531967399962783,-0.008516475913560731,0.005839433685607235,0.1113604821704239
7351,0.0,299.96037,20860.629,-0.07350999385082235,0.0,0.0,0.0,0.0,-0.011218664420181157,-3.157010795647707,-1.3130229791852788,-1.8710765512608782,-0.010935577698007489,-0.017171332609178584,0.1212868171725769
7352,0.0,299.51704,20810.643,-0.07352000352551968,0.0,0.0,0.0,0.0,-0.011220192038066873,-3.170958183274207,-1.3082231121365686,-1.8467343321834881,-0.005651750484159344,-0.028789405177043075,0.11420856608150788
7353,0.0,300.1729,20912.92,-0.07353001320021724,0.0,0.0,0.0,0.0,-0.011221719655952617,-3.182705196983547,-1.3166490973181488,-1.8576510887608881,0.0015464934327770183,-0.02987334467026957,0.10536903300411389
7354,0.0,301.07268,20845.093,-0.07353998983968468,0.0,0.0,0.0,0.0,-0.011223242232195146,-3.192452966920577,-1.2992639547523688,-1.8446709496798483,0.03569695402376507,-0.004056178458938646,0.11884863345694689
7355,0.0,300.1083,20622.336,-0.07354999951438213,0.0,0.0,0.0,0.0,-0.011224769850080862,-3.1555736017058673,-1.287941796809959,-1.8251599070792581,0.025489665033884078,0.007094908213437923,0.08701361227507493
7356,0.0,300.13775,20823.888,-0.07356000918907957,0.0,0.0,0.0,0.0,-0.011226297467966578,-3.209200977823477,-1.2841341042591687,-1.8366069987589984,0.011597278649312289,0.013338068665614886,0.11907261239155188
7357,0.0,299.9338,21092.072,-0.0735699858285469,0.0,0.0,0.0,0.0,-0.011227820044209108,-3.2091604478194764,-1.3076209376021388,-1.8946819348655481,-0.00098866511633115,0.004606668220342756,0.1126064859508949
7358,0.0,299.78967,20968.348,-0.07357999550324446,0.0,0.0,0.0,0.0,-0.011229347662094852,-3.2098595903884766,-1.3072397529145188,-1.8567547677224285,-0.0047234688017700754,0.006912878440922984,0.1137238981611749
7359,0.0,300.18857,20911.947,-0.0735900051779419,0.0,0.0,0.0,0.0,-0.011230875279980568,-3.1876448925460568,-1.3036460587848488,-1.8654187653524983,-0.015918293833263288,-0.008382131514601971,0.12003286951132189
7360,0.0,299.46868,20860.238999999998,-0.07360001485263934,0.0,0.0,0.0,0.0,-0.011232402897866312,-3.209792614556867,-1.2875599028472686,-1.8436392584280283,-0.024156479188308877,-0.014635241576135884,0.14057167195334386
7361,0.0,298.78623,20860.118000000002,-0.07360999149210679,0.0,0.0,0.0,0.0,-0.011233925474108841,-3.184426303603407,-1.2977332378262987,-1.858795352098818,-0.03161611863026797,-0.004558211054185406,0.13275117463402086
7362,0.0,299.28573,20894.57,-0.07362000116680434,0.0,0.0,0.0,0.0,-0.011235453091994557,-3.197304611049397,-1.3040180228965588,-1.850104908641138,-0.011591656124507388,0.008680833388431553,0.12146249447491489
7363,0.0,299.18205,20875.91,-0.07363001084150167,0.0,0.0,0.0,0.0,-0.011236980709880273,-3.165876835347717,-1.3255907254756187,-1.8542878077039584,0.01907744451179718,0.014801906018834386,0.12513027745189687
7364,0.0,299.58015,20873.866,-0.07363998748096912,0.0,0.0,0.0,0.0,-0.011238503286122803,-3.189177737297337,-1.304149137459499,-1.8518071688091382,0.01068206860248809,-0.01117884891451649,0.0981373201191494
7365,0.0,299.81661,20899.936,-0.07364999715566667,0.0,0.0,0.0,0.0,-0.011240030904008547,-3.179869515253687,-1.3128312722663589,-1.8603579864030382,0.014183350270037686,-0.01812235800728748,0.09371962061065642
7366,0.0,299.92373,20997.89,-0.07366000683036422,0.0,0.0,0.0,0.0,-0.01124155852189429,-3.1976620856846765,-1.3203985279881887,-1.864773527688818,0.005579390849468005,-0.0030388291543340874,0.07658228760858334
7367,0.0,300.34687,20857.479,-0.07367001650506155,0.0,0.0,0.0,0.0,-0.011243086139779979,-3.167341488367267,-1.2993027622311988,-1.8735086554759082,0.013807603695704385,0.0037839681102985767,0.1028640051793869
7368,0.0,300.20616,20612.995,-0.073679993144529,0.0,0.0,0.0,0.0,-0.011244608716022536,-3.161457747686587,-1.2936219755455487,-1.8107561516077184,-0.000924069459868555,0.01086257809455299,0.09835346967023172
7369,0.0,300.22553999999997,20706.734,-0.07369000281922655,0.0,0.0,0.0,0.0,-0.011246136333908252,-3.160215097763947,-1.289282529342279,-1.844832461745788,-0.010654344053251889,0.001263285470201569,0.12592024775986088
7370,0.0,299.89575,20913.096999999998,-0.07370001249392388,0.0,0.0,0.0,0.0,-0.011247663951793968,-3.212129979887547,-1.2968702527161289,-1.848059258014248,-0.02057067523716758,0.0033606097243663565,0.13053846946314387
7371,0.0,299.38664,20906.229,-0.07370998913339133,0.0,0.0,0.0,0.0,-0.011249186528036498,-3.169436180298997,-1.3269485819346287,-1.8585868252282383,-0.007915092524808813,0.005646166969483295,0.12111644930076287
7372,0.0,299.54121000000004,20936.537,-0.07371999880808888,0.0,0.0,0.0,0.0,-0.011250714145922242,-3.215780517347827,-1.284712771391279,-1.8636911739319983,-0.01057013689044129,-0.004557856517975415,0.15054346135498287
7373,0.0,299.48761,21066.81,-0.07373000848278632,0.0,0.0,0.0,0.0,-0.011252241763807985,-3.205173612651007,-1.3229806945430287,-1.8756297932352484,-0.008280751485121541,-0.005812353259459605,0.12366109520439988
7374,0.0,299.64669,21071.632999999998,-0.07373998512225366,0.0,0.0,0.0,0.0,-0.011253764340050487,-3.241477958433967,-1.3008447262333787,-1.8629275886566383,-0.00903368446218024,-0.003162622985301587,0.12832665595235487
7375,0.0,300.33889,21134.307999999997,-0.0737499947969511,0.0,0.0,0.0,0.0,-0.011255291957936231,-3.217247095542567,-1.3198465093337088,-1.887208202127948,0.004222469721625316,-0.009080175011218501,0.1064802745212849
7376,0.0,300.28406,20986.498,-0.07376000447164865,0.0,0.0,0.0,0.0,-0.011256819575821947,-3.215885388733177,-1.3031746948383287,-1.8603112755734283,0.011265566911074889,-0.024983528370432273,0.12647539735714988
7377,0.0,300.51255,20745.221,-0.07377001414634621,0.0,0.0,0.0,0.0,-0.01125834719370769,-3.169254200581037,-1.2772787580575988,-1.8594961158679781,0.01922983124733658,-0.012154527700808488,0.1020148205355789
7378,0.0,300.40879,20677.243000000002,-0.07377999078581343,0.0,0.0,0.0,0.0,-0.011259869769950193,-3.174723521970817,-1.2766714159476589,-1.8339706233238084,0.018533713229885083,-0.012208259340361387,0.10232126789582291
7379,0.0,299.76372000000003,20841.819,-0.07379000046051121,0.0,0.0,0.0,0.0,-0.011261397387835964,-3.174669617065497,-1.3131831740260886,-1.8475396633629682,0.007161999758209344,0.008090694542664383,0.1019022991119739
7380,0.0,299.81997,20944.084,-0.07380001013520854,0.0,0.0,0.0,0.0,-0.01126292500572168,-3.193726115671227,-1.3204481772430887,-1.8523043706332083,-0.007303879090211743,-0.0016868214788763186,0.1074829969527459
7381,0.0,299.8493,20848.743000000002,-0.07380998677467598,0.0,0.0,0.0,0.0,-0.01126444758196421,-3.174778541451247,-1.3301498443005686,-1.8325687918104585,-0.024374963267621577,-0.0003196081618178697,0.09617157743489571
7382,0.0,299.61404,20984.308999999997,-0.07381999644937332,0.0,0.0,0.0,0.0,-0.011265975199849926,-3.197238648467887,-1.3358957829676488,-1.845571425043718,-0.02248009337486248,0.008088621838259822,0.11137972378982289
7383,0.0,299.91217,21067.046000000002,-0.07383000612407087,0.0,0.0,0.0,0.0,-0.011267502817735642,-3.197065889325837,-1.3240377170473487,-1.882752434813198,-0.02210529418937268,0.0009689972428800822,0.1139006596411199
7384,0.0,299.92341,20955.234,-0.07384001579876842,0.0,0.0,0.0,0.0,-0.011269030435621386,-3.194514829549067,-1.3179164705432287,-1.857436583714718,-0.0016517905858190384,-0.005462235123880635,0.11951172458738889
7385,0.0,299.87302,20949.145,-0.07384999243823565,0.0,0.0,0.0,0.0,-0.011270553011863887,-3.1981290926557673,-1.2862525062432386,-1.8836353809503381,0.00040119617444497966,-0.013374351125195685,0.12117481250652289
7386,0.0,300.14692,21011.885,-0.07386000211293342,0.0,0.0,0.0,0.0,-0.011272080629749659,-3.218663315207337,-1.2955984211906089,-1.8728265355085882,0.02006054839482198,-0.005039886846973105,0.1154062378322089
7387,0.0,299.53317999999996,20774.258,-0.07387001178763075,0.0,0.0,0.0,0.0,-0.011273608247635375,-3.187165422598737,-1.2828938861367687,-1.844796288717218,0.012573032416111688,-0.0013125869776672487,0.098720694811224
7388,0.0,300.19216,20916.074,-0.07387998842709809,0.0,0.0,0.0,0.0,-0.011275130823877905,-3.2106817415196174,-1.2795206752288588,-1.8677617035587282,0.006881968841322443,0.006998538807027003,0.12825319532010487
7389,0.0,300.24778,21105.36,-0.07388999810179564,0.0,0.0,0.0,0.0,-0.011276658441763648,-3.210437142945477,-1.3245189095198386,-1.8805463866954781,-0.006321915113549443,0.004299254320828366,0.10098612647755471
7390,0.0,300.31552,20981.581000000002,-0.07390000777649319,0.0,0.0,0.0,0.0,-0.011278186059649364,-3.205361874519587,-1.2964512737997789,-1.8760637682530783,-0.0031175956707327366,0.019464881965784282,0.14037350049878586
7391,0.0,300.25229,20942.068,-0.07390998441596042,0.0,0.0,0.0,0.0,-0.011279708635891866,-3.1906426942919173,-1.3186114587868187,-1.8566115954832985,-0.0068790813825124735,0.013087668221402289,0.11081208081880091
7392,0.0,299.7856,21119.081000000002,-0.07391999409065797,0.0,0.0,0.0,0.0,-0.01128123625377761,-3.217962247463147,-1.3248035314729287,-1.8769076029363585,-0.011994265985491886,0.0031138128028093976,0.14547112122188186
7393,0.0,299.55499,21102.342999999997,-0.07393000376535552,0.0,0.0,0.0,0.0,-0.011282763871663354,-3.221367781049247,-1.3227605152962987,-1.8704569488247285,-0.013624267235860486,-0.00022118775481953182,0.11094651884206888
7394,0.0,299.78611,21064.249,-0.07394001344005285,0.0,0.0,0.0,0.0,-0.01128429148954907,-3.220738755387167,-1.3165076476041888,-1.8657593187111083,0.0009915615120070023,-0.005620130292263675,0.1359249171272449
7395,0.0,299.42205,20986.046000000002,-0.0739499900795203,0.0,0.0,0.0,0.0,-0.0112858140657916,-3.197343013228187,-1.3101665258283688,-1.8717246260248384,-0.001940006233038708,0.00930269304182932,0.1028778056457489
7396,0.0,299.77337,20908.484,-0.07395999975421785,0.0,0.0,0.0,0.0,-0.011287341683677343,-3.205484275131667,-1.2893225527212286,-1.8608502233016182,0.0016401118651664386,-0.0025173277690159076,0.11908244091752188
7397,0.0,300.41353,20918.526,-0.0739700094289154,0.0,0.0,0.0,0.0,-0.01128886930156306,-3.1826142071245673,-1.3167955119575987,-1.8592997479985982,-0.010669802196777491,-0.007524435671278982,0.08740632673558281
7398,0.0,299.8643,21147.833,-0.07397998606838263,0.0,0.0,0.0,0.0,-0.011290391877805561,-3.2380324014689172,-1.3126821218516387,-1.8776986472894281,0.008081335962090763,0.0017926349841692981,0.10436711104023191
7399,0.0,300.6881,21136.662999999997,-0.07398999574308018,0.0,0.0,0.0,0.0,-0.011291919495691305,-3.2301443507654266,-1.3224787304434886,-1.8723944856659482,0.01098419445105559,0.004697232818255785,0.1015733272020069
7400,0.0,300.49891,20953.242,-0.07400000541777774,0.0,0.0,0.0,0.0,-0.011293447113577049,-3.208069177461777,-1.318562214831959,-1.842631175903538,0.014925819413313685,0.0020648855588383383,0.10468931443953089
7401,0.0,300.0466,20988.424,-0.07401001509247529,0.0,0.0,0.0,0.0,-0.011294974731462792,-3.200611048775717,-1.3159465096988088,-1.8633992565781883,-0.001994231426715318,9.11113253754877e-05,0.1099019998439829
7402,0.0,300.3279,21272.21,-0.07401999173194251,0.0,0.0,0.0,0.0,-0.011296497307705294,-3.2467413874034268,-1.3351478017438287,-1.8843314837690381,0.005794894250961535,0.006470184507307494,0.12378207726633988
7403,0.0,300.14291000000003,21170.703999999998,-0.07403000140664007,0.0,0.0,0.0,0.0,-0.011298024925591038,-3.210533807005017,-1.331556843389429,-1.8932747331266684,-0.0011452089029233188,0.0012776287346421388,0.13445062809924388
7404,0.0,299.84207999999995,20961.78,-0.07404001108133762,0.0,0.0,0.0,0.0,-0.011299552543476754,-3.211538140504137,-1.2986609696178588,-1.8616586955564083,-0.013907812104094187,-0.0005223602667654445,0.13913945306949485
7405,0.0,300.13827000000003,21057.095,-0.07404998772080496,0.0,0.0,0.0,0.0,-0.011301075119719284,-3.2078930745943968,-1.3310452534139385,-1.8618926550044983,-0.027515988928366673,-0.004362505445070766,0.12003929351695589
7406,0.0,299.8171,21036.281000000003,-0.0740599973955024,0.0,0.0,0.0,0.0,-0.011302602737605,-3.2285491911329967,-1.2886544156052886,-1.877300440000128,-0.014234704824855986,0.008807730804455351,0.12005867699136888
7407,0.0,299.60535,21093.693,-0.07407000707019984,0.0,0.0,0.0,0.0,-0.011304130355490744,-3.224002636609287,-1.3214632511932687,-1.8664901760082382,0.002273208867473248,0.02045375630812858,0.1021472117936449
7408,0.0,299.81372999999996,21210.782000000003,-0.07407998370966729,0.0,0.0,0.0,0.0,-0.011305652931733273,-3.253777396097827,-1.3250807567002887,-1.8686900433003482,0.004153668722610186,0.007262198743373213,0.11528989645572689
7409,0.0,299.24976000000004,21145.884,-0.07408999338436462,0.0,0.0,0.0,0.0,-0.01130718054961899,-3.222998607085197,-1.322298270600679,-1.8825237442656284,0.025321715790058773,-0.008145334155631893,0.1047075630738319
7410,0.0,299.27427,21099.516,-0.07410000305906217,0.0,0.0,0.0,0.0,-0.011308708167504733,-3.239768402865247,-1.326379439353459,-1.8475782681917783,0.006610847837864884,-0.01040075592422469,0.1031627011763659
7411,0.0,300.1232,21163.618,-0.07411001273375972,0.0,0.0,0.0,0.0,-0.011310235785390449,-3.2238305867423067,-1.3210281616003288,-1.888352465465878,0.0075688206866094425,-0.0033344604750606267,0.1200356762140989
7412,0.0,300.2601,21043.629,-0.07411998937322717,0.0,0.0,0.0,0.0,-0.011311758361632979,-3.2259319661246972,-1.3098998384020488,-1.8609058507321081,0.0028321312001845875,-0.008165445852891763,0.12353670862212388
7413,0.0,300.26877,20981.874,-0.0741299990479245,0.0,0.0,0.0,0.0,-0.011313285979518695,-3.1854524219796767,-1.3231082627306188,-1.8694049925709082,-0.0006060802690604654,0.0028598080253410775,0.1148359806759289
7414,0.0,300.01097999999996,21049.867000000002,-0.07414000872262205,0.0,0.0,0.0,0.0,-0.011314813597404438,-3.222011296187757,-1.3196971562689686,-1.8569256016892883,0.001940654206477658,-0.007563314077615983,0.11779454937791689
7415,0.0,300.46699,21063.99,-0.0741499853620895,0.0,0.0,0.0,0.0,-0.011316336173646968,-3.2051157560702968,-1.3322716913349786,-1.8655394434394086,-0.005184670153762105,0.0014906711542927887,0.1093919094786409
7416,0.0,300.04166000000004,21119.995,-0.07415999503678705,0.0,0.0,0.0,0.0,-0.011317863791532712,-3.235848138228347,-1.3207284422207488,-1.8633745332757483,-0.0069575061296523934,-0.004334865603542926,0.12390592682606287
7417,0.0,299.94547,21171.087000000003,-0.07417000471148438,0.0,0.0,0.0,0.0,-0.011319391409418428,-3.230165932992557,-1.3213991124619386,-1.8839167605031084,-0.0029492172141650772,-0.004649968247466136,0.08964148046242532
7418,0.0,299.1873,21226.836,-0.07418001438618194,0.0,0.0,0.0,0.0,-0.011320919027304144,-3.250728222571897,-1.3320475604128588,-1.8696523269203182,0.00958078378742474,0.004808683439155106,0.1126511297503009
7419,0.0,299.4951,21112.387000000002,-0.07418999102564938,0.0,0.0,0.0,0.0,-0.011322441603546674,-3.2377719961932168,-1.2972631911049088,-1.8826032843984783,0.009742712501805861,0.007493407926716784,0.10574073367079789
7420,0.0,299.48757,21153.551,-0.07420000070034671,0.0,0.0,0.0,0.0,-0.01132396922143239,-3.2338104922772466,-1.3112390510592187,-1.8851016551700484,0.012542382613836788,0.0039585401594274955,0.12647691723229987
7421,0.0,300.23408,21271.46,-0.07421001037504427,0.0,0.0,0.0,0.0,-0.011325496839318133,-3.240564412143807,-1.3308158535912986,-1.894612425908688,0.01910020717529368,-0.005256398027016095,0.1098180318081959
7422,0.0,300.33932000000004,21110.792999999998,-0.0742199870145116,0.0,0.0,0.0,0.0,-0.011327019415560663,-3.2411007254217368,-1.2984558877976187,-1.8775974236044382,0.020684740853924983,-0.008748530552787742,0.13900367755609486
7423,0.0,300.4056,20953.578999999998,-0.07422999668920915,0.0,0.0,0.0,0.0,-0.011328547033446407,-3.197632296131737,-1.3118097135155387,-1.859922795485088,-0.00017974932144237683,-0.0020113949714842282,0.10918481129070191
7424,0.0,300.47968,21021.055,-0.0742400063639066,0.0,0.0,0.0,0.0,-0.011330074651332123,-3.218152434506917,-1.3008491845338188,-1.8708743065409184,0.001011221471974789,-0.0039381974411448264,0.12713659370990488
7425,0.0,299.93305,21171.493,-0.07425001603860404,0.0,0.0,0.0,0.0,-0.011331602269217839,-3.207200315501027,-1.3461041764001387,-1.8823006265936082,-0.0026740685415600177,-0.0008026067728761213,0.10191817674104091
7426,0.0,299.86556,21234.946,-0.07425999267807148,0.0,0.0,0.0,0.0,-0.011333124845460368,-3.2308797676880068,-1.3483351504703187,-1.8756784292400484,-0.008122318686235442,-0.006227284039010084,0.10003327621601571
7427,0.0,299.45853,21134.013,-0.07427000235276904,0.0,0.0,0.0,0.0,-0.011334652463346112,-3.221633961850517,-1.3296099846472886,-1.872968390522588,-0.00869488645804348,0.0012224956688759287,0.09900878410615621
7428,0.0,300.07177,20988.092,-0.07428001202746637,0.0,0.0,0.0,0.0,-0.011336180081231828,-3.2168601353293766,-1.3048184904755589,-1.8581771682128085,-0.016528770939012685,0.0025366917890269876,0.11177106124344488
7429,0.0,299.87432,21004.943,-0.07428998866693404,0.0,0.0,0.0,0.0,-0.011337702657474386,-3.193867565385187,-1.3109193706526687,-1.880191343860438,0.0006720878287424044,0.005000283966814604,0.09886946019090599
7430,0.0,299.58813,21186.382,-0.07429999834163137,0.0,0.0,0.0,0.0,-0.011339230275360102,-3.240182518181117,-1.3102852787400885,-1.8896634084452584,0.01027608461867059,0.004415403483766396,0.10735344279495991
7431,0.0,299.82698,21213.321,-0.0743100080163287,0.0,0.0,0.0,0.0,-0.011340757893245818,-3.2400274909158173,-1.3054333306362387,-1.902859065822568,0.015142377304186288,0.008348510052433793,0.12281248811314889
7432,0.0,300.66165,21109.722999999998,-0.07431998465579637,0.0,0.0,0.0,0.0,-0.011342280469488375,-3.235845909078127,-1.311091724494679,-1.869891251293898,0.015787479192352884,-0.0072195750606915835,0.12261914986156788
7433,0.0,300.26685,21121.604,-0.0743299943304937,0.0,0.0,0.0,0.0,-0.011343808087374063,-3.232016431650187,-1.309550368442559,-1.8788733081303581,-0.006248475455576515,-0.004017677690913916,0.11961731538030988
7434,0.0,299.93003999999996,21332.761000000002,-0.07434000400519125,0.0,0.0,0.0,0.0,-0.011345335705259807,-3.252194395466597,-1.3414210357629488,-1.891011335053288,-0.00041219456858293665,-0.016323597926263686,0.12755379943857986
7435,0.0,300.13437999999996,21317.352000000003,-0.07435001367988858,0.0,0.0,0.0,0.0,-0.011346863323145523,-3.2270783572878368,-1.3386854631429685,-1.9141789946147585,-0.018074579212072086,-0.007323381621511493,0.1257966413801619
7436,0.0,299.87497,21061.574,-0.07435999031935614,0.0,0.0,0.0,0.0,-0.01134838589938808,-3.218472520213507,-1.323244443544059,-1.8604757260646583,-0.0037113430040810365,0.005655794871933495,0.10821749181773489
7437,0.0,300.12306,21149.194,-0.07436999999405358,0.0,0.0,0.0,0.0,-0.011349913517273796,-3.2160107277705468,-1.3292541312121686,-1.8835621229681083,0.0003847665267234996,-0.0036118183368587164,0.12862039715634488
7438,0.0,300.41898,21348.741,-0.07438000966875113,0.0,0.0,0.0,0.0,-0.01135144113515954,-3.276960558385827,-1.3376772792934688,-1.8748462469329183,-0.00046951393422241754,0.0003659031029243246,0.1154888177153589
7439,0.0,299.70999,21339.596,-0.07438998630821847,0.0,0.0,0.0,0.0,-0.01135296371140207,-3.265900629569297,-1.3273367580479387,-1.8934668453456285,-0.010366074399801889,0.005182269156325145,0.13551820866960587
7440,0.0,299.48506000000003,21242.689,-0.07439999598291602,0.0,0.0,0.0,0.0,-0.011354491329287786,-3.2661832250221865,-1.307661062306099,-1.8834027387273784,0.0015183139342459186,0.01100046724766159,0.11850485796301888
7441,0.0,299.83653,21277.982999999997,-0.07441000565761335,0.0,0.0,0.0,0.0,-0.011356018947173502,-3.218958880261507,-1.3335837488894688,-1.915432790288498,-0.009583170295385272,0.019841668134720183,0.12284982637933387
7442,0.0,300.33465,21294.832000000002,-0.0744200153323108,0.0,0.0,0.0,0.0,-0.011357546565059218,-3.2482836553806367,-1.3376584328416088,-1.8871550064976983,-0.0009112469521055721,0.0002293832154708608,0.1009889179815802
7443,0.0,300.24818,21394.362,-0.07442999197177835,0.0,0.0,0.0,0.0,-0.011359069141301775,-3.2463493609397367,-1.3567030764211687,-1.900299292094938,0.009456332661117372,-0.006711366402110294,0.11211797781268289
7444,0.0,300.56197000000003,21251.264,-0.07444000164647568,0.0,0.0,0.0,0.0,-0.011360596759187491,-3.2658498657392867,-1.3336513326711388,-1.8603524135274883,-0.0056831274960310145,-0.007656414333904263,0.1032452405295119
7445,0.0,300.07451000000003,21020.101000000002,-0.07445001132117324,0.0,0.0,0.0,0.0,-0.011362124377073235,-3.2312817240026765,-1.3265736793976288,-1.8317305300027285,0.014824218799286486,-0.0029123932737308376,0.1064335940891779
7446,0.0,300.68502,21023.156000000003,-0.07445998796064068,0.0,0.0,0.0,0.0,-0.011363646953315765,-3.221948981306607,-1.3304783399829887,-1.838087255830088,-0.017671060465747884,-0.006973688544349472,0.0985229377759569
7447,0.0,301.17827,21310.421000000002,-0.07446999763533824,0.0,0.0,0.0,0.0,-0.01136517457120148,-3.239114147275677,-1.3287315981355987,-1.9099902187013584,-0.0008460787586739722,0.012374368522005089,0.12380971872906787
7448,0.0,300.49454,21371.932,-0.07448000731003557,0.0,0.0,0.0,0.0,-0.011366702189087197,-3.251559796928967,-1.3613902700587588,-1.883583705195238,-0.011740760942972888,0.015134505364159384,0.11691007323312588
7449,0.0,299.98287999999997,21391.537999999997,-0.07448998394950312,0.0,0.0,0.0,0.0,-0.011368224765329754,-3.2595369123162468,-1.3371748085688788,-1.9057816844110085,0.0013733411496882188,0.015674431891945985,0.13693103394654085
7450,0.0,300.29283,21512.689,-0.07449999362420057,0.0,0.0,0.0,0.0,-0.01136975238321547,-3.298996518910607,-1.3324757599051187,-1.907848106664948,-0.006705778327808794,-0.003984906649554666,0.13743379851365986
7451,0.0,299.9915,21390.232999999997,-0.07451000329889812,0.0,0.0,0.0,0.0,-0.011371280001101214,-3.2811454839488468,-1.3189517081703988,-1.901999525762738,0.0010376203861051589,0.0028333120418511273,0.14665661370638086
7452,0.0,300.31759,21269.32,-0.07452001297359545,0.0,0.0,0.0,0.0,-0.011372807618986902,-3.247593328087507,-1.3171444752920387,-1.9006044830250584,0.006673995002647024,0.0027402651838431174,0.11147268948649788
7453,0.0,299.92449,21276.282000000003,-0.07452998961306301,0.0,0.0,0.0,0.0,-0.011374330195229487,-3.2266213814927367,-1.3273007876693885,-1.913536391401338,0.01158300499515359,-0.0005150033414993725,0.12493554091517789
7454,0.0,299.40391,21197.782000000003,-0.07453999928776034,0.0,0.0,0.0,0.0,-0.011375857813115176,-3.2336643816128268,-1.3399551668432788,-1.8699769722523583,0.014217740991681788,-0.007643704935249943,0.09994101675466041
7455,0.0,299.87676,21123.002,-0.07455000896245778,0.0,0.0,0.0,0.0,-0.011377385431000892,-3.239203617259507,-1.3132499472076788,-1.8684113995228482,0.00916960324914438,-0.012327555354134987,0.11650858301350189
7456,0.0,300.04181,21154.82,-0.07455998560192534,0.0,0.0,0.0,0.0,-0.011378908007243449,-3.255289874522097,-1.3365457829067988,-1.8387012853906881,0.003583682914706966,-0.005853935321038434,0.0991123098953734
7457,0.0,300.13299,21249.342999999997,-0.07456999527662267,0.0,0.0,0.0,0.0,-0.011380435625129165,-3.2412874674151673,-1.3404954317965987,-1.8774867766935182,-0.015521340947587087,-0.005326322112442064,0.11176040185239289
7458,0.0,300.84163,21308.816000000003,-0.07458000495132022,0.0,0.0,0.0,0.0,-0.011381963243014909,-3.234187522639457,-1.3535163035316589,-1.8896441566933582,-0.022623026486968876,0.0013232864934232089,0.1045872801544609
7459,0.0,300.13482,21445.506,-0.07459001462601755,0.0,0.0,0.0,0.0,-0.011383490860900597,-3.240861497073127,-1.3500268728372788,-1.9280098584797585,-0.013948454578855286,0.005223291397223725,0.12385358232589688
7460,0.0,300.13622000000004,21501.37,-0.07459999126548522,0.0,0.0,0.0,0.0,-0.011385013437143182,-3.259746452436927,-1.3446352677301687,-1.9314977692989879,0.0037998892077948663,0.014975622682228885,0.1207957049816079
7461,0.0,300.3792,21305.002999999997,-0.07461000094018255,0.0,0.0,0.0,0.0,-0.01138654105502887,-3.250205993470357,-1.3225692136774188,-1.9034137189273082,0.001961813300365898,0.0038793465581116963,0.12637984787271989
7462,0.0,300.14265,21172.847,-0.0746200106148801,0.0,0.0,0.0,0.0,-0.011388068672914614,-3.252837201330037,-1.3004438844938186,-1.8827356148615382,0.010756201019554388,-0.006240176329307454,0.12264453177657289
7463,0.0,300.08687000000003,21352.267999999996,-0.07462998725434755,0.0,0.0,0.0,0.0,-0.011389591249157144,-3.2668164050096764,-1.3113283183930287,-1.9124116837903382,0.0067702891245755145,-0.0012536543253510487,0.12884700040870886
7464,0.0,300.142,21310.033,-0.0746399969290451,0.0,0.0,0.0,0.0,-0.011391118867042888,-3.2424533129802264,-1.3410538339267088,-1.8942108748940585,0.015339007605342186,0.010919065774377889,0.09434860472948231
7465,0.0,300.3346,21159.445,-0.07465000660374244,0.0,0.0,0.0,0.0,-0.011392646484928604,-3.2237841798877267,-1.3108045694163386,-1.8973542806792882,-0.005561150625142834,0.0023381961957619976,0.11734973258401687
7466,0.0,300.16234,21363.807,-0.07466001627843977,0.0,0.0,0.0,0.0,-0.011394174102814292,-3.2443127282387367,-1.3455019005406987,-1.904249346284778,-0.013022756380245987,-0.005866209123474765,0.0966422766893501
7467,0.0,300.0205,21444.301,-0.07466999291790721,0.0,0.0,0.0,0.0,-0.01139569667905685,-3.272891953934287,-1.3302975761651488,-1.915342509704588,-0.005437221626611995,-0.01180976530128309,0.15232826087612886
7468,0.0,299.16027,21275.124,-0.07468000259260477,0.0,0.0,0.0,0.0,-0.011397224296942565,-3.268357355761757,-1.3201069146094089,-1.8786420844575382,0.011891282285078188,-0.0034610695201059663,0.11483743975607288
7469,0.0,299.27662000000004,21361.243,-0.07469001226730232,0.0,0.0,0.0,0.0,-0.011398751914828309,-3.2468459548137467,-1.3281269918009289,-1.9183115351476083,-0.0012685430223204487,-0.012455421437254388,0.14690830503122088
7470,0.0,299.55935,21382.103,-0.07469998890676965,0.0,0.0,0.0,0.0,-0.011400274491070839,-3.2480471628072967,-1.3271703823815186,-1.9244080583492882,0.006687914931195814,-0.027418816217276473,0.10517302990476989
7471,0.0,299.77537,21312.005,-0.07470999858146721,0.0,0.0,0.0,0.0,-0.011401802108956582,-3.235344552928647,-1.3292397430607488,-1.9137330632457483,0.007403529299121452,-0.0015155936617024487,0.12632111989692388
7472,0.0,300.04995,21298.667999999998,-0.07472000825616454,0.0,0.0,0.0,0.0,-0.011403329726842298,-3.247160467644787,-1.3444707159139286,-1.882632060701318,0.014747512726966184,0.0009044652286562681,0.08116274852038961
7473,0.0,300.23555,21220.595,-0.07472998489563198,0.0,0.0,0.0,0.0,-0.011404852303084828,-3.2536486120101173,-1.3161156211404987,-1.880766869917238,0.0017200560821563184,-0.0015674403520943186,0.12212453182525289
7474,0.0,300.12325,21035.96,-0.07473999457032954,0.0,0.0,0.0,0.0,-0.011406379920970572,-3.233501349671737,-1.3168609679140588,-1.844044153167988,-0.023043203064937078,-0.008047570719733391,0.08537822762692501
7475,0.0,300.0647,21308.109,-0.07475000424502709,0.0,0.0,0.0,0.0,-0.011407907538856288,-3.2341215600579467,-1.3425815111024786,-1.9004302040078582,-0.005275555546656795,0.0073059842186195025,0.10520753107067492
7476,0.0,299.91622,21461.134,-0.07476001391972442,0.0,0.0,0.0,0.0,-0.011409435156742004,-3.253008136621907,-1.3580904184580886,-1.912550296404018,-0.0028645197396310875,0.01795912138967728,0.09308862721688221
7477,0.0,299.9343,21410.521,-0.07476999055919209,0.0,0.0,0.0,0.0,-0.011410957732984561,-3.244434622225767,-1.3581811043420386,-1.9056480367228181,0.003081822875952237,0.006131562200738074,0.1155788449867439
7478,0.0,301.00955,21321.498,-0.07478000023388942,0.0,0.0,0.0,0.0,-0.011412485350870277,-3.270426513790967,-1.3278547314990587,-1.8829216475798984,-0.018067139929837883,-0.006180261027044275,0.12243278277067489
7479,0.0,300.48519,21457.208,-0.07479000990858675,0.0,0.0,0.0,0.0,-0.011414012968755993,-3.2956553267058566,-1.3254265789594186,-1.9013734385259482,0.002916254668536927,0.004893529253503736,0.16011232172185585
7480,0.0,300.44312,21511.301,-0.07479998654805442,0.0,0.0,0.0,0.0,-0.01141553554499855,-3.2950564958967568,-1.3376082769616588,-1.9062335939556083,0.013357533200035887,-0.004741019610727206,0.14594460286111086
7481,0.0,300.02371,21409.681,-0.07480999622275175,0.0,0.0,0.0,0.0,-0.011417063162884267,-3.259044168792617,-1.3213998217370089,-1.9275645350608084,0.015839932110279585,-0.009305204787502212,0.13977681777989787
7482,0.0,299.63395,21479.987999999998,-0.0748200058974493,0.0,0.0,0.0,0.0,-0.011418590780769983,-3.267135274816147,-1.3539343705229188,-1.9083103513605681,0.00021734090015237682,-0.01158426142527759,0.1079619096125109
7483,0.0,299.87487000000004,21487.519,-0.07483001557214664,0.0,0.0,0.0,0.0,-0.011420118398655699,-3.272895196334607,-1.334578355187629,-1.924195681128328,0.003394920500577567,0.001111367058858389,0.1136816051020009
7484,0.0,300.13299,21336.796000000002,-0.07483999221161419,0.0,0.0,0.0,0.0,-0.011421640974898256,-3.274580737875957,-1.3379756814479187,-1.8732967848799982,-0.0004428376428771725,0.01781497035095068,0.08523090916838581
7485,0.0,299.61967999999996,21351.221,-0.07485000188631163,0.0,0.0,0.0,0.0,-0.011423168592783972,-3.266471393350627,-1.3463641763757987,-1.8774024742851982,-0.0016672208649668888,0.007571725168021092,0.1136810376819449
7486,0.0,300.14713,21368.778,-0.07486001156100908,0.0,0.0,0.0,0.0,-0.011424696210669716,-3.2585675359455766,-1.3311921746784388,-1.9058152229893182,0.0024682587011231674,-0.006568566127092004,0.1083357279719039
7487,0.0,300.36359,21301.532000000003,-0.07486998820047652,0.0,0.0,0.0,0.0,-0.011426218786912246,-3.243725752455807,-1.3440618694985786,-1.8873463081165782,-0.004414272392679766,0.015520037907958485,0.12460323541238189
7488,0.0,300.61405,21411.202,-0.07487999787517408,0.0,0.0,0.0,0.0,-0.01142774640479799,-3.255286834771797,-1.3539088366203988,-1.899275200218868,0.01000840147147732,0.002953267884089847,0.11166025221250889
7489,0.0,300.67864,21505.854,-0.0748900075498714,0.0,0.0,0.0,0.0,-0.011429274022683678,-3.276444104809857,-1.3504977301587486,-1.9103008811820184,-0.004345941947011076,-0.0062169140321866444,0.12999417177442588
7490,0.0,299.49698,21381.336,-0.07489998418933885,0.0,0.0,0.0,0.0,-0.011430796598926207,-3.278622491199847,-1.3359806933260288,-1.8847891688392084,-0.006216825778102933,-0.006725576626812733,0.1296669021246269
7491,0.0,299.63599,21543.967999999997,-0.0749099938640364,0.0,0.0,0.0,0.0,-0.011432324216811951,-3.298739153385207,-1.3519061477977488,-1.8981829166110682,-0.003366678889815337,0.008124162902742451,0.1344049203872329
7492,0.0,299.55134,21629.152000000002,-0.07492000353873374,0.0,0.0,0.0,0.0,-0.011433851834697667,-3.291548522725547,-1.3468876213774588,-1.9362860852965584,0.0019103555966874183,0.006516055555234614,0.13826207980790486
7493,0.0,299.86516,21465.76,-0.07493001321343129,0.0,0.0,0.0,0.0,-0.01143537945258341,-3.265075945312907,-1.3421871541635588,-1.9177919404963284,-0.00984558900035898,-0.004873273066779605,0.1091719632794339
7494,0.0,299.94587,21322.106,-0.07493998985289874,0.0,0.0,0.0,0.0,-0.01143690202882594,-3.247831340535997,-1.3370177548033788,-1.8965387156737983,0.007111094985110433,-0.0012491899454104489,0.1022523263590189
7495,0.0,299.77983,21395.658,-0.07494999952759629,0.0,0.0,0.0,0.0,-0.011438429646711684,-3.282732638905487,-1.3207872107265488,-1.9002258314626883,0.006780826722965493,0.0073075692457509325,0.0994648996519213
7496,0.0,300.06269,21530.193,-0.07496000920229362,0.0,0.0,0.0,0.0,-0.011439957264597372,-3.316735995036357,-1.3295103821624588,-1.8983947872069782,0.013227346774187486,-0.002113933145828958,0.12381524094211288
7497,0.0,300.24802,21429.362999999998,-0.07496998584176107,0.0,0.0,0.0,0.0,-0.011441479840839902,-3.2801412517747366,-1.3292761187393387,-1.9045739916168183,-0.009796150400154772,-0.012449990416718387,0.13518501150672188
7498,0.0,299.87752,21443.626,-0.07497999551645862,0.0,0.0,0.0,0.0,-0.011443007458725646,-3.260279725964557,-1.3392940211530286,-1.9187530082161783,0.003308094592883517,-0.0008270362429196221,0.15170398735701787
7499,0.0,299.45212999999995,21541.927000000003,-0.07499000519115606,0.0,0.0,0.0,0.0,-0.01144453507661139,-3.277415609005737,-1.3380969674848886,-1.9326953295921783,0.01020506997216199,0.009001658058319482,0.15047114569534586
7500,0.0,299.28172,21581.444,-0.0750000148658535,0.0,0.0,0.0,0.0,-0.011446062694497106,-3.2816099577946867,-1.3537224999270088,-1.9248875282966083,0.014417795064925586,0.007276577876867323,0.12177591299584689
7501,0.0,299.24367,21614.819,-0.07500999150532084,0.0,0.0,0.0,0.0,-0.011447585270739635,-3.2906931369911265,-1.3632514078424385,-1.916420607810988,-0.01842906374630698,-0.018382830157494087,0.12119916090642588
7502,0.0,300.06548,21521.319,-0.07502000118001839,0.0,0.0,0.0,0.0,-0.011449112888625379,-3.289131110636967,-1.3409427817157489,-1.9118696963118482,0.005915088916248824,-0.01109713130720159,0.11898257498766587
7503,0.0,300.18817,21333.009,-0.07503001085471583,0.0,0.0,0.0,0.0,-0.011450640506511067,-3.2535641069517767,-1.3439617603886989,-1.8871762847497981,-0.0018632908388174882,0.01234341575795029,0.10559648738656188
7504,0.0,299.94555,21358.727000000003,-0.07503998749418317,0.0,0.0,0.0,0.0,-0.011452163082753597,-3.252076453154957,-1.335617240515159,-1.9048257842666683,0.008143833329583773,0.004658722120380076,0.09171123630919432
7505,0.0,299.90699,21492.972,-0.07504999716888072,0.0,0.0,0.0,0.0,-0.01145369070063934,-3.269114354911467,-1.3463479643741987,-1.9178643878784785,-0.012737039103797887,-0.0027742202079442174,0.09833853943000821
7506,0.0,300.07261,21401.186,-0.07506000684357828,0.0,0.0,0.0,0.0,-0.011455218318525084,-3.265552476834937,-1.3432333348918089,-1.8966402433338179,-0.0006009416623708243,0.004068410515470856,0.10097001276121441
7507,0.0,300.68296000000004,21371.537999999997,-0.0750699834830455,0.0,0.0,0.0,0.0,-0.011456740894767586,-3.273940262487747,-1.3292908108657886,-1.8931829326676084,0.008264088992527082,0.014735406414771383,0.11834770287250888
7508,0.0,300.29097,21425.221,-0.07507999315774305,0.0,0.0,0.0,0.0,-0.01145826851265333,-3.297850837022537,-1.3181534697416188,-1.896727788142458,-0.0009237489587294243,0.018531560073422583,0.14158532735338386
7509,0.0,299.76814,21611.691000000003,-0.0750900028324406,0.0,0.0,0.0,0.0,-0.011459796130539074,-3.289380268836557,-1.3483366703454687,-1.931697480893698,-0.017801576197878782,0.0003548559511915557,0.14367434508455387
7510,0.0,299.43266,21699.342999999997,-0.07510001250713816,0.0,0.0,0.0,0.0,-0.01146132374842479,-3.307070399682437,-1.3469154857552088,-1.942072553967638,-0.005618438569896715,0.006444776754424944,0.14635519206663286
7511,0.0,299.57202,21713.927000000003,-0.07510998914660538,0.0,0.0,0.0,0.0,-0.011462846324667292,-3.295244149815277,-1.3567246586482986,-1.948522904104238,0.0024803291442644275,0.024475720857565577,0.13306443103493687
7512,0.0,299.38866,21511.458,-0.07511999882130294,0.0,0.0,0.0,0.0,-0.011464373942553036,-3.289612303109457,-1.3404046445876387,-1.908928940546618,0.006295378397405474,0.0037576309030992964,0.11516022070792888
7513,0.0,299.77836,21352.356,-0.07513000849600049,0.0,0.0,0.0,0.0,-0.01146590156043878,-3.276076700323597,-1.324616789479499,-1.8898895658675783,0.0026395363702019572,-0.015161828666355986,0.1067318239911109
7514,0.0,299.54687,21437.356,-0.07513998513546782,0.0,0.0,0.0,0.0,-0.011467424136681309,-3.2838620074669467,-1.3357172483000288,-1.896841677453698,0.013815608371494386,-0.012942243527299988,0.10705726979072991
7515,0.0,300.09114,21551.885,-0.07514999481016527,0.0,0.0,0.0,0.0,-0.011468951754567025,-3.268769545902437,-1.351184308426509,-1.931280933777588,0.012350034307603489,0.0037553914177282767,0.11226402768209691
7516,0.0,299.92135,21472.365,-0.07516000448486282,0.0,0.0,0.0,0.0,-0.011470479372452769,-3.2635534357126468,-1.3439159614841787,-1.9195933978491182,0.008789039379860652,0.008890218481846252,0.09908666656184259
7517,0.0,300.19345,21470.565,-0.07517001415956037,0.0,0.0,0.0,0.0,-0.011472006990338485,-3.2580455094940572,-1.3592729826497987,-1.9091972491730984,-0.0041655984253125555,0.002180232329022178,0.10934081127609789
7518,0.0,300.69591,21561.252,-0.0751799907990276,0.0,0.0,0.0,0.0,-0.011473529566580987,-3.292423058886857,-1.3552955707072587,-1.9063634926184283,-0.006489861621599474,0.011139270352360389,0.12380907024900388
7519,0.0,300.32592999999997,21637.246,-0.07519000047372504,0.0,0.0,0.0,0.0,-0.01147505718446673,-3.313335122400717,-1.3682801680887386,-1.8955673128029285,-0.0075672362674280725,0.013851759108562187,0.1210763752593079
7520,0.0,299.89562,21648.801,-0.07520001014842259,0.0,0.0,0.0,0.0,-0.011476584802352474,-3.3133331972255267,-1.3508421338677385,-1.9165195010207483,-0.011167279624874689,-0.009075900210371612,0.13136639611985387
7521,0.0,299.80266,21620.215,-0.07520998678789004,0.0,0.0,0.0,0.0,-0.011478107378595004,-3.2738165446505367,-1.3638360531501386,-1.9343529054307682,0.0004884643556751786,-0.017173684362660684,0.12134746019106188
7522,0.0,299.62315,21501.726000000002,-0.07521999646258737,0.0,0.0,0.0,0.0,-0.01147963499648072,-3.2658764128919073,-1.3361463597173788,-1.933965033292488,0.0034947067889757066,-0.002254579149809638,0.13435404509971186
7523,0.0,299.84332,21453.44,-0.07523000613728492,0.0,0.0,0.0,0.0,-0.011481162614366464,-3.246732470802547,-1.3496609882261688,-1.9249167098994882,0.017157248432788586,0.012265195889980589,0.10002712882765899
7524,0.0,300.31951000000004,21589.464,-0.07524001581198247,0.0,0.0,0.0,0.0,-0.01148269023225218,-3.3119231583863673,-1.3266984104849386,-1.9240363982126083,-0.00976474481463028,0.003318708286356007,0.12334860887355988
7525,0.0,299.96744,21538.072999999997,-0.07524999245144992,0.0,0.0,0.0,0.0,-0.01148421280849471,-3.3142063148366967,-1.3277729622159886,-1.9050572105895083,-0.010437724354123188,-0.008282905756159153,0.1015130793510609
7526,0.0,300.13743999999997,21388.425,-0.07526000212614725,0.0,0.0,0.0,0.0,-0.011485740426380425,-3.2886119212857263,-1.3247674597693688,-1.8881676486476382,-0.0026770816433823877,-0.010748020038246991,0.13506302632718287
7527,0.0,300.83131000000003,21586.569,-0.0752700118008448,0.0,0.0,0.0,0.0,-0.011487268044266169,-3.2872127242226368,-1.3529950876802186,-1.921570046144198,0.006110232779508024,0.0038484937005167563,0.1135483627138509
7528,0.0,300.56477,21789.534,-0.07527998844031225,0.0,0.0,0.0,0.0,-0.011488790620508699,-3.315732168162287,-1.3688303628930385,-1.938911618955678,-0.006726622604890963,-0.0027210554818222674,0.14745680770785385
7529,0.0,300.05753,21641.042999999998,-0.07528999811500958,0.0,0.0,0.0,0.0,-0.011490318238394415,-3.296318498896307,-1.366498570437909,-1.9155195244970584,-0.006598313224852812,-0.012533089083919589,0.1133248498742919
7530,0.0,299.59957,21632.141,-0.07530000778970714,0.0,0.0,0.0,0.0,-0.011491845856280158,-3.308208482194757,-1.3513039732633187,-1.916118152656138,0.006195487237621983,0.012022986559576386,0.13464803961622687
7531,0.0,299.28142,21570.965,-0.07530998442917458,0.0,0.0,0.0,0.0,-0.011493368432522688,-3.3060855205852366,-1.353577098537659,-1.8973722152060581,0.010357154759171589,0.003534094049512927,0.1060881163350819
7532,0.0,299.49845,21528.325,-0.07531999410387213,0.0,0.0,0.0,0.0,-0.011494896050408404,-3.280052389740967,-1.3372762349038887,-1.9267448157299083,0.016468737897087884,0.0026837735523428277,0.1206920900263819
7533,0.0,300.14783,21480.907000000003,-0.07533000377856947,0.0,0.0,0.0,0.0,-0.01149642366829412,-3.268487963699647,-1.3377850891041088,-1.9233862969484483,-0.00027916872211180774,-0.010750378884479791,0.1036294244374279
7534,0.0,299.80728,21536.925,-0.07534001345326713,0.0,0.0,0.0,0.0,-0.011497951286179892,-3.262174807626587,-1.3468663431253587,-1.937646170905788,0.0074324364125493625,-0.003129299621312827,0.12591820099465886
7535,0.0,299.52761,21414.412,-0.07534999009273435,0.0,0.0,0.0,0.0,-0.011499473862422394,-3.2623406766679572,-1.3317338581818987,-1.9153719952824981,0.0023797061139337076,0.015604116388006385,0.10865349333576489
7536,0.0,299.99633,21575.316000000003,-0.0753599997674319,0.0,0.0,0.0,0.0,-0.011501001480308137,-3.318162549852147,-1.3523662646681587,-1.8878284125141582,0.008977878598347632,0.00895284321487683,0.11987863258109988
7537,0.0,299.85464,21820.724,-0.07537000944212935,0.0,0.0,0.0,0.0,-0.011502529098193826,-3.3497930768988367,-1.3694230128765288,-1.913739345396368,-0.01273773014036609,-0.015458024975338285,0.1095660973033319
7538,0.0,299.90254,21806.585,-0.0753799860815969,0.0,0.0,0.0,0.0,-0.01150405167443641,-3.3338142241468467,-1.3649053359806687,-1.9299377694450282,-1.5310641668792686e-05,0.005099772461008355,0.14380249082470087
7539,0.0,300.3428,21679.568,-0.07538999575629424,0.0,0.0,0.0,0.0,-0.011505579292322099,-3.2918268625280174,-1.3726845636234186,-1.9255357043855783,0.006637200750440713,0.007969636689616902,0.12183463083914188
7540,0.0,300.12523999999996,21657.168999999998,-0.07540000543099157,0.0,0.0,0.0,0.0,-0.011507106910207815,-3.299013744162307,-1.3371892980453088,-1.947035756932468,0.01056204203539239,0.008651390468350761,0.15394797155848183
7541,0.0,299.73842,21648.972999999998,-0.07541001510568934,0.0,0.0,0.0,0.0,-0.011508634528093586,-3.305416775519237,-1.3414351199393386,-1.933895423010618,-0.004600780325336665,-0.002230522768585458,0.11857604891504489
7542,0.0,300.39716,21609.741,-0.07541999174515657,0.0,0.0,0.0,0.0,-0.011510157104336088,-3.336194348631747,-1.3308672253713687,-1.901759993439098,0.004167108167961556,0.0015967547920624284,0.13507119312298888
7543,0.0,299.58173,21579.23,-0.07543000141985412,0.0,0.0,0.0,0.0,-0.011511684722221832,-3.3019099169231367,-1.3497908868889887,-1.9078463841397781,0.011694425015899887,0.0001985691653547508,0.10728476470318189
7544,0.0,299.48644,21619.23,-0.07544001109455145,0.0,0.0,0.0,0.0,-0.01151321234010752,-3.2987639780126568,-1.3504375431028088,-1.922504465386418,0.007380532980151894,0.0041883312992561155,0.12273530885303188
7545,0.0,299.45932999999997,21576.917,-0.07544998773401912,0.0,0.0,0.0,0.0,-0.011514734916350106,-3.2790851411955066,-1.3543200135109787,-1.9254387363510084,0.0035467566360126265,-0.009998752797400071,0.1071098169409159
7546,0.0,299.14229,21606.47,-0.07545999740871645,0.0,0.0,0.0,0.0,-0.011516262534235794,-3.286872272189037,-1.352362920942829,-1.9285921733122284,0.004223492090976216,-0.0015023340682438285,0.12759791634793388
7547,0.0,299.53938,21801.083,-0.075470007083414,0.0,0.0,0.0,0.0,-0.011517790152121538,-3.3296236243832675,-1.3801386393090789,-1.9172226965901482,0.014134043493671488,0.005151449330683465,0.12683455398759588
7548,0.0,300.43369,21765.151,-0.07547998372288134,0.0,0.0,0.0,0.0,-0.011519312728364067,-3.344512017377636,-1.3585220630006887,-1.913028347801198,0.004012930208895376,-0.006089572812619045,0.13062450452913488
7549,0.0,299.7789,21627.39,-0.07548999339757889,0.0,0.0,0.0,0.0,-0.011520840346249811,-3.304916939244907,-1.3631838240607685,-1.9060858620910281,-0.006118910557339454,-0.006860854431763613,0.12091672757355189
7550,0.0,300.35447,21735.504,-0.07550000307227633,0.0,0.0,0.0,0.0,-0.011522367964135527,-3.298621008423547,-1.3701692715751788,-1.938260200466388,-0.0033857473447722465,0.008517931649979403,0.1294835241215289
7551,0.0,300.16814,21627.235,-0.07551001274697378,0.0,0.0,0.0,0.0,-0.011523895582021243,-3.263937153525517,-1.3514966934323385,-1.9587056623091978,0.005261537434173315,0.01115235242440149,0.13197562287497988
7552,0.0,299.63317,21524.667999999998,-0.07551998938644122,0.0,0.0,0.0,0.0,-0.0115254181582638,-3.260087715070607,-1.3629762091152788,-1.9198975755291383,0.006816346002570974,-8.727671482254112e-05,0.10147608558990992
7553,0.0,300.38099,21663.174,-0.07552999906113855,0.0,0.0,0.0,0.0,-0.011526945776149489,-3.3198073587394763,-1.3360034914532788,-1.929253015027448,0.00965515826993993,-0.017851692561074883,0.11981998566531188
7554,0.0,300.0216,21675.227000000003,-0.0755400087358361,0.0,0.0,0.0,0.0,-0.011528473394035232,-3.334458144585397,-1.3522197487036989,-1.9020497829676983,0.01134632497054509,0.0074399071055366636,0.1079230514711759
7555,0.0,299.58942,21638.737,-0.07554998537530355,0.0,0.0,0.0,0.0,-0.011529995970277762,-3.289845553282477,-1.3618152271506987,-1.9259748469789182,0.03236993009516337,-0.001133426121485449,0.1179620902819519
7556,0.0,299.71432000000004,21782.652000000002,-0.0755599950500011,0.0,0.0,0.0,0.0,-0.011531523588163506,-3.3129777490904466,-1.3602494517711687,-1.9481549929929283,-0.0030128100063411974,0.013853499872233986,0.12483707327045988
7557,0.0,299.42012,21769.942000000003,-0.07557000472469844,0.0,0.0,0.0,0.0,-0.011533051206049222,-3.294466379038517,-1.3596593349129287,-1.9633931599218182,0.007840524410199513,-0.01032383706938339,0.13554834272757985
7558,0.0,299.60065,21636.562,-0.07558001439939599,0.0,0.0,0.0,0.0,-0.011534578823934938,-3.3089915218720365,-1.3400399758766488,-1.927943085298168,-0.008902546189187902,0.003179814293123237,0.14346959763684686
7559,0.0,300.01473,21732.33,-0.07558999103886344,0.0,0.0,0.0,0.0,-0.011536101400177495,-3.3401717605742864,-1.3509265376010686,-1.9149874668695483,-0.0026620068123696175,0.017229013897621284,0.13812366984424487
7560,0.0,299.33886,21900.488999999998,-0.07560000071356099,0.0,0.0,0.0,0.0,-0.011537629018063211,-3.371253106066777,-1.3625764819508288,-1.923372314097068,-0.033368276299442466,0.0039459735277122664,0.14073814894477388
7561,0.0,299.73576,21859.757999999998,-0.07561001038825832,0.0,0.0,0.0,0.0,-0.011539156635948927,-3.3292792206742767,-1.3684919373596387,-1.947049435808818,-0.008749468417080302,0.006183183544307703,0.12275850214782087
7562,0.0,300.16823,21623.217,-0.07561998702772588,0.0,0.0,0.0,0.0,-0.011540679212191485,-3.288142381189387,-1.3361565935433888,-1.948619061538728,-0.007781445241918853,0.025365222722852576,0.1342142064534109
7563,0.0,300.54534,21595.905,-0.07562999670242332,0.0,0.0,0.0,0.0,-0.0115422068300772,-3.2578857199532867,-1.3416796171884686,-1.9650505331103882,0.023315201948281277,0.016922849234155185,0.11630315668822788
7564,0.0,299.88451000000003,21665.49,-0.07564000637712065,0.0,0.0,0.0,0.0,-0.011543734447962917,-3.3034016237203567,-1.3465935761984387,-1.935772671470888,-0.002436681268381718,-0.0014358502708823888,0.11870705202047388
7565,0.0,300.50141,21789.885,-0.0756500160518182,0.0,0.0,0.0,0.0,-0.011545262065848633,-3.3502265452916173,-1.3624447594378288,-1.910909439192078,-0.0023589146271817477,-0.016845549397276286,0.11059950094782088
7566,0.0,300.1097,21839.338,-0.07565999269128554,0.0,0.0,0.0,0.0,-0.01154678464209119,-3.3616609713451067,-1.3659060217794288,-1.9110464306055983,0.007204634383992054,-0.003174661308414677,0.11583929079244788
7567,0.0,299.72201,21679.996,-0.07567000236598309,0.0,0.0,0.0,0.0,-0.011548312259976906,-3.3119728076412667,-1.3538681039663787,-1.924336624217238,-0.0045089420720479355,0.0054530847662025645,0.11472146314962689
7568,0.0,299.60419,21659.946,-0.07568001204068053,0.0,0.0,0.0,0.0,-0.011549839877862622,-3.2823921868718866,-1.3612226784922188,-1.9404677684592582,-0.0059545329187916446,0.0038267373970195767,0.11917362329402088
7569,0.0,299.564,21857.647999999997,-0.07568998868014809,0.0,0.0,0.0,0.0,-0.01155136245410518,-3.299862645096087,-1.3584130372899288,-1.9859035241434182,-0.016292100033655086,-0.0035545706181338062,0.14311903336724885
7570,0.0,298.97722000000005,21885.882999999998,-0.07569999835484542,0.0,0.0,0.0,0.0,-0.011552890071990896,-3.3315971316030364,-1.3759366911443787,-1.945228118754068,-0.0029034051373937773,0.03155193227618327,0.14215476377708286
7571,0.0,300.71538,21695.695,-0.07571000802954297,0.0,0.0,0.0,0.0,-0.01155441768987664,-3.339070155065567,-1.341212914192409,-1.9146665705628783,-0.004197746419185316,0.0005393239378196285,0.14221089783262286
7572,0.0,300.30982,21705.639,-0.07571998466901042,0.0,0.0,0.0,0.0,-0.011555940266119169,-3.326350826560267,-1.3633142293486387,-1.9083071089602484,0.005033652116457785,0.004040938772134606,0.1069854506236419
7573,0.0,299.87208,21854.632999999998,-0.07572999434370797,0.0,0.0,0.0,0.0,-0.011557467884004913,-3.3336035694510566,-1.3554905200264986,-1.9541684296864081,-0.004076666274635636,-0.009730663742216742,0.1225005185398599
7574,0.0,299.83862999999997,21878.02,-0.0757400040184053,0.0,0.0,0.0,0.0,-0.011558995501890601,-3.3076278898874567,-1.3661969258831386,-1.976546970069998,0.015646649587454084,0.004479586798100795,0.11645024007274389
7575,0.0,300.02794,21789.531000000003,-0.07575001369310264,0.0,0.0,0.0,0.0,-0.011560523119776317,-3.2952052410114367,-1.3645240499680384,-1.9637440484314481,0.01013454979170219,-0.004845285579142456,0.12616820019183186
7576,0.0,300.00147000000004,21871.034,-0.0757599903325703,0.0,0.0,0.0,0.0,-0.011562045696018874,-3.3389790638815766,-1.3612495296198686,-1.9480195214545584,0.0030826260793065073,0.006765813497558804,0.13999234620866888
7577,0.0,300.19529,21824.976000000002,-0.07577000000726763,0.0,0.0,0.0,0.0,-0.01156357331390459,-3.351314674574007,-1.367722069933659,-1.915210989841608,0.007418883280536773,-0.006770675882138683,0.12780734501110289
7578,0.0,299.87003,21636.361,-0.07578000968196519,0.0,0.0,0.0,0.0,-0.011565100931790334,-3.3326489865318467,-1.3436981127126788,-1.9005661821712783,0.0013264029467557788,0.008434608547881053,0.13068577576268187
7579,0.0,299.49425,21813.932999999997,-0.07578998632143252,0.0,0.0,0.0,0.0,-0.011566623508032864,-3.323541185357976,-1.3647285238382187,-1.9426214315468082,-0.0036093806597681365,0.003915535697358286,0.13174144051186787
7580,0.0,299.66963,21873.647999999997,-0.07579999599613008,0.0,0.0,0.0,0.0,-0.011568151125918608,-3.3094440393666966,-1.3765048204754486,-1.963093744517268,-0.002883681818897237,-0.01038663729733129,0.12127004788342188
7581,0.0,299.66287,21768.029,-0.07581000567082752,0.0,0.0,0.0,0.0,-0.011569678743804296,-3.2841134961417673,-1.3708344702658288,-1.9619893019082681,-0.006963536690272563,-0.004556794226570576,0.13123119815901088
7582,0.0,300.31678,21811.83,-0.07582001534552507,0.0,0.0,0.0,0.0,-0.01157120636169004,-3.338890201847807,-1.3672947823664887,-1.9240667957156083,-0.0015001543646287086,-0.0032750664899738975,0.12578457357147088
7583,0.0,299.73654,21926.339,-0.0758299919849924,0.0,0.0,0.0,0.0,-0.01157272893793257,-3.346250045274167,-1.3857913589669588,-1.9330180497490284,0.009434790963991371,-0.010340931611820491,0.11985270351104088
7584,0.0,299.89471000000003,21959.674,-0.07584000165968996,0.0,0.0,0.0,0.0,-0.011574256555818313,-3.361316770286137,-1.3762369171490088,-1.9376389768300784,0.013109472350304185,-0.001879424313534738,0.1022403092128329
7585,0.0,300.3124,21838.134,-0.07585001133438729,0.0,0.0,0.0,0.0,-0.011575784173704029,-3.3351576924544366,-1.3615392178234589,-1.9415504261911083,0.025130613781448475,0.002090406694407078,0.11693173652026388
7586,0.0,300.28247000000005,21625.006,-0.07585998797385496,0.0,0.0,0.0,0.0,-0.011577306749946586,-3.2919512896402967,-1.3316245284961088,-1.9498861307887783,0.01986188956696588,0.016602631805052184,0.1257794769234679
7587,0.0,300.46505,21620.852000000003,-0.07586999764855229,0.0,0.0,0.0,0.0,-0.011578834367832302,-3.2956790367581967,-1.3389632963203886,-1.9375569035719782,0.00981967138002611,0.0003885448958163956,0.15288943931151286
7588,0.0,299.79746,21799.808999999997,-0.07588000732324962,0.0,0.0,0.0,0.0,-0.01158036198571799,-3.346065228455927,-1.3588456950826289,-1.9216865699056982,-0.023527944952527375,-0.00906222103004658,0.13284271164805486
7589,0.0,298.876,21988.66,-0.07588998396271729,0.0,0.0,0.0,0.0,-0.011581884561960548,-3.3723192478219963,-1.3638628029527786,-1.947821532385018,-0.008296143564740623,0.0018293730009950582,0.14488367934390586
7590,0.0,299.17269,21912.438,-0.07589999363741462,0.0,0.0,0.0,0.0,-0.011583412179846264,-3.350239717542917,-1.3761006350105587,-1.9344935445446483,-0.013501297177224288,0.004811646283772516,0.1122740588580869
7591,0.0,299.75178999999997,21855.612999999998,-0.07591000331211217,0.0,0.0,0.0,0.0,-0.011584939797732008,-3.327265082125497,-1.3731612977954686,-1.9431341360974084,0.017763523590373285,-0.015987636617106882,0.12655848386534987
7592,0.0,299.97041,21991.037999999997,-0.0759200129868095,0.0,0.0,0.0,0.0,-0.011586467415617724,-3.315475410586947,-1.3981871567153288,-1.9710638684788584,0.011087629047763791,-0.017554491107993384,0.1153682206884569
7593,0.0,300.22483,21983.162999999997,-0.07592998962627706,0.0,0.0,0.0,0.0,-0.011587989991860281,-3.336836546545127,-1.3885477032139886,-1.9569484839857783,0.028003634790743574,-0.0001827279119663408,0.12955916324149389
7594,0.0,300.34153,21765.436,-0.0759399993009745,0.0,0.0,0.0,0.0,-0.011589517609745997,-3.3375739899679067,-1.3488003335912286,-1.929774636178928,0.017302199939094185,0.007271895749480233,0.12507975680191089
7595,0.0,300.25514,21738.327,-0.07595000897567206,0.0,0.0,0.0,0.0,-0.011591045227631713,-3.3296357833844668,-1.3647163648370186,-1.913556453753318,0.009389167757038712,0.004572296547800536,0.1113331649477279
7596,0.0,300.4862,21749.874,-0.07595998561513939,0.0,0.0,0.0,0.0,-0.011592567803874243,-3.314235395114567,-1.3704655459044186,-1.9267175593022179,-0.003726084678460926,0.002751481558475088,0.1114898843406949
7597,0.0,299.8295,21805.208,-0.07596999528983694,0.0,0.0,0.0,0.0,-0.011594095421759987,-3.319505308884667,-1.3616554376099288,-1.9470779081366283,-0.005676504386752364,0.0026344422553242074,0.10493805720657991
7598,0.0,299.73691,22001.959,-0.07598000496453428,0.0,0.0,0.0,0.0,-0.011595623039645703,-3.3319654480143868,-1.3836032453760088,-1.972477453693368,-0.012466085894556887,0.0025305397397198275,0.12460421826497889
7599,0.0,299.54093,21960.314,-0.07599001463923172,0.0,0.0,0.0,0.0,-0.011597150657531419,-3.3558644714980366,-1.3699675334802688,-1.9495552033061183,-0.027316313810660273,-0.00969561917028311,0.14032544204654285
7600,0.0,299.61048,21856.017999999996,-0.07599999127869927,0.0,0.0,0.0,0.0,-0.011598673233773976,-3.351152757208027,-1.3591938478169885,-1.933337020880508,-0.007305366440033533,-0.005579227006926834,0.13460909028238288
7601,0.0,299.67591,22048.289,-0.0760100009533966,0.0,0.0,0.0,0.0,-0.011600200851659692,-3.3711020304768673,-1.3923461751888686,-1.9386811045579284,-0.0054062253941279045,0.011646305768650887,0.1257389874494719
7602,0.0,299.89547999999996,22068.058999999997,-0.07602001062809416,0.0,0.0,0.0,0.0,-0.011601728469545408,-3.363818383458027,-1.367139451126159,-1.9771809606575679,0.005098267987259875,0.02029540456925048,0.14368438639304487
7603,0.0,300.0579,21770.446,-0.0760299872675616,0.0,0.0,0.0,0.0,-0.011603251045787938,-3.318077842143787,-1.353307574011059,-1.946286458483518,-0.0019293094530580181,-0.002299946815087078,0.12779635124751787
7604,0.0,300.90693999999996,21821.456000000002,-0.07603999694225916,0.0,0.0,0.0,0.0,-0.011604778663673682,-3.3189030330252267,-1.3566916266950386,-1.9575830825234082,0.01041863776198949,-0.00984355338090808,0.12765458742602687
7605,0.0,300.44795,21983.319,-0.07605000661695649,0.0,0.0,0.0,0.0,-0.011606306281559398,-3.3780326611608666,-1.3586099117843589,-1.9457373782543281,0.0047321297596498455,-0.004673416273330276,0.13011575165392486
7606,0.0,300.74048,21966.785,-0.07606001629165404,0.0,0.0,0.0,0.0,-0.011607833899445141,-3.364454805845837,-1.3772364883726589,-1.9356629364850584,0.013211965637669488,-0.0026089859677618675,0.13188727759876087
7607,0.0,300.23174,21866.303,-0.07606999293112149,0.0,0.0,0.0,0.0,-0.011609356475687671,-3.350343575678167,-1.3670091471632988,-1.9294574888976281,-0.014679280465232186,-0.0030277251491382076,0.1038127112480169
7608,0.0,299.89482000000004,21914.547000000002,-0.07608000260581904,0.0,0.0,0.0,0.0,-0.011610884093573415,-3.3202084031290573,-1.3834335259842587,-1.9578331526480879,0.0007673571089897501,0.0006608815460814303,0.1181383147393439
7609,0.0,300.2317,21957.007,-0.07609001228051637,0.0,0.0,0.0,0.0,-0.011612411711459103,-3.3280101249240266,-1.3834307902089886,-1.9629409464021879,0.0055630869460839335,0.002012849188027748,0.1120350635569999
7610,0.0,300.37194,21919.599,-0.07609998891998382,0.0,0.0,0.0,0.0,-0.011613934287701633,-3.330337965703767,-1.3706598872735987,-1.962013113285618,0.012850118828207989,0.008937320122019822,0.13232655191461387
7611,0.0,299.29900000000004,21870.509,-0.07610999859468126,0.0,0.0,0.0,0.0,-0.011615461905587376,-3.3551817435806566,-1.3703441585424385,-1.9225627272671681,-0.01766575204847398,-0.0016893982752056282,0.13582592259247486
7612,0.0,299.5962,21877.228,-0.0761200082693787,0.0,0.0,0.0,0.0,-0.011616989523473092,-3.3479941526712964,-1.3702570190338386,-1.9318797645866879,-0.004065192331828246,-0.015941909653343984,0.12714811436354187
7613,0.0,299.27966000000004,21801.051,-0.07612998490884604,0.0,0.0,0.0,0.0,-0.011618512099715622,-3.3517203799140467,-1.3500018455598088,-1.9252530076076781,-0.006959058327480583,0.02063235481050488,0.1174635509677499
7614,0.0,300.02909,21930.799,-0.07613999458354359,0.0,0.0,0.0,0.0,-0.011620039717601366,-3.332663678658297,-1.3785968779569187,-1.9551548286587581,0.004361813699227496,0.009311100788509101,0.1149602659331949
7615,0.0,299.92675,22058.067000000003,-0.07615000425824114,0.0,0.0,0.0,0.0,-0.01162156733548711,-3.354457168434147,-1.3638915792556188,-1.986752830377238,-0.0007066421294826484,0.008844591931168261,0.12392855270079589
7616,0.0,300.18357000000003,21969.02,-0.07616001393293848,0.0,0.0,0.0,0.0,-0.011623094953372798,-3.3518345732003167,-1.3685997471702787,-1.9575993958500182,-0.004423057777671816,-0.01053146214737439,0.12032991391063788
7617,0.0,300.02677,22008.421000000002,-0.07616999057240592,0.0,0.0,0.0,0.0,-0.011624617529615328,-3.386001467897327,-1.3688035117653885,-1.935205555389918,0.016464986845217685,-0.001205787377376949,0.1317853446387009
7618,0.0,300.49325,22129.123,-0.07618000024710347,0.0,0.0,0.0,0.0,-0.011626145147501071,-3.3954496197797868,-1.3711672215986688,-1.9600838850952182,0.013548622036394885,-0.006581047747123843,0.13994937427192786
7619,0.0,300.65535,22040.376,-0.07619000992180103,0.0,0.0,0.0,0.0,-0.011627672765386815,-3.3690130127456968,-1.3890981006683087,-1.941612842397268,-0.003707549395706637,0.005104012507376815,0.1256993693705619
7620,0.0,300.18461,22019.992000000002,-0.07619998656126825,0.0,0.0,0.0,0.0,-0.011629195341629317,-3.334305346470317,-1.3943441017360487,-1.964878179268378,-0.011207299964074388,-0.017663853217786584,0.12733565682455086
7621,0.0,299.79975,22050.659,-0.0762099962359658,0.0,0.0,0.0,0.0,-0.01163072295951506,-3.346077691432157,-1.3809890601180088,-1.9757831821446181,-0.013257416997405187,0.021817928355011878,0.12350809443929989
7622,0.0,299.19599999999997,21848.26,-0.07622000591066336,0.0,0.0,0.0,0.0,-0.011632250577400804,-3.3436013081877567,-1.3687780791878787,-1.9289463042221782,-0.017098660285506384,0.022301946782030777,0.12575454083850687
7623,0.0,299.56357,21796.658,-0.07623001558536069,0.0,0.0,0.0,0.0,-0.011633778195286493,-3.356030948489467,-1.3617234266916385,-1.9078852929436183,-0.014177901010999885,0.007508161152147812,0.12335745454693288
7624,0.0,299.90834,22010.994,-0.07623999222482813,0.0,0.0,0.0,0.0,-0.011635300771529022,-3.377753814733347,-1.3839623412114488,-1.9290764055350182,-0.0036307374387508865,0.0003234819385401817,0.1096865220777169
7625,0.0,300.04242999999997,22070.661,-0.07625000189952569,0.0,0.0,0.0,0.0,-0.011636828389414766,-3.3714860522647667,-1.3812282884666187,-1.9562153975384282,0.011524796816658888,0.007864821235672422,0.11618130323120189
7626,0.0,299.95692,21969.947999999997,-0.07626001157422324,0.0,0.0,0.0,0.0,-0.01163835600730051,-3.313458637587907,-1.3910895424148488,-1.973767321070668,0.025595064322536176,-0.0032922496917947466,0.11115258351490591
7627,0.0,299.8167,22087.322,-0.07626998821369046,0.0,0.0,0.0,0.0,-0.011639878583543012,-3.3257030557713367,-1.3956389340388384,-1.992652276434468,0.0017126895512792981,0.0069848700631780026,0.1285058796300429
7628,0.0,300.00998,22215.053,-0.07627999788838802,0.0,0.0,0.0,0.0,-0.011641406201428756,-3.3732624823400865,-1.3978255277546388,-1.981733189381838,0.005110034455371135,-0.01920164566930488,0.12492071706621488
7629,0.0,300.6037,22153.51,-0.07629000756308557,0.0,0.0,0.0,0.0,-0.011642933819314472,-3.3991988477998065,-1.3881248739472587,-1.9467900437832182,-0.005162015502726265,0.009317617607852262,0.14274284400262185
7630,0.0,300.11745,21924.925,-0.0762999842025529,0.0,0.0,0.0,0.0,-0.011644456395557029,-3.3781631677737467,-1.3584920707977288,-1.9279745973762783,-0.0050038051122371155,0.004982280944337845,0.12857445639681087
7631,0.0,299.62235,21891.397,-0.07630999387725024,0.0,0.0,0.0,0.0,-0.011645984013442717,-3.3603370587644465,-1.3545242847311387,-1.939576716321318,-0.025612570244513876,0.0037175879684223667,0.14346721649911187
7632,0.0,299.68453999999997,21961.617000000002,-0.07632000355194801,0.0,0.0,0.0,0.0,-0.011647511631328489,-3.328657693062937,-1.3736485697685588,-1.9734768222669983,-0.018004323489888382,-0.009277103309228811,0.12038677750624989
7633,0.0,299.1912,22015.777000000002,-0.07633001322664534,0.0,0.0,0.0,0.0,-0.011649039249214205,-3.3522993510211867,-1.3688121243912388,-1.9711349986358782,-0.009267794175260071,0.017602383387219984,0.13130471958626688
7634,0.0,299.72772000000003,22181.456000000002,-0.07633998986611279,0.0,0.0,0.0,0.0,-0.011650561825456734,-3.3885278043716567,-1.3771258414617387,-1.976955208535288,0.0030219433414175874,0.01137058420443929,0.13933638835893086
7635,0.0,300.02418,22165.446,-0.07634999954081012,0.0,0.0,0.0,0.0,-0.01165208944334245,-3.407134217282967,-1.3801023649554987,-1.9505055305749084,0.005827762361680365,-0.007067475480230523,0.12472463290686289
7636,0.0,299.66867,22028.874,-0.07636000921550767,0.0,0.0,0.0,0.0,-0.011653617061228166,-3.368063496076987,-1.3775294189765686,-1.9506347199626581,0.02324175347503248,-0.022406286211078277,0.12337236958840489
7637,0.0,300.56277,22180.553,-0.07636998585497512,0.0,0.0,0.0,0.0,-0.011655139637470724,-3.374907189902407,-1.3831442430807088,-1.9842828306084679,0.027208081474728578,-0.01260559422132529,0.1218959831326969
7638,0.0,300.407,22153.422000000002,-0.07637999552967245,0.0,0.0,0.0,0.0,-0.011656667255356412,-3.330462291491037,-1.3947213347482788,-2.008903592138348,0.03101345368278957,-0.007614091485177322,0.11997461776307287
7639,0.0,299.67138,21881.095,-0.07639000520437023,0.0,0.0,0.0,0.0,-0.011658194873242184,-3.313653080282097,-1.3789953892212488,-1.9586581408795083,-0.006580292673149323,-0.004337787918156336,0.11145212050946789
7640,0.0,300.53976,21891.13,-0.07640001487906756,0.0,0.0,0.0,0.0,-0.0116597224911279,-3.3400289936351966,-1.3698983284984385,-1.9444294750252482,-0.003118474361219457,0.00025324506280834173,0.12486565705578087
7641,0.0,299.75119,21950.349,-0.076409991518535,0.0,0.0,0.0,0.0,-0.01166124506737043,-3.3810424192579065,-1.372864010216129,-1.9184514649864182,-0.015796658225008784,0.02167439945184668,0.11808210975629688
7642,0.0,299.30553,21970.017999999996,-0.07642000119323256,0.0,0.0,0.0,0.0,-0.011662772685256173,-3.3732133397102366,-1.3699034960739487,-1.935219943541338,-0.0026249348283108975,0.027471314731457672,0.11339755056896689
7643,0.0,299.85434,22167.17,-0.07643001086793011,0.0,0.0,0.0,0.0,-0.011664300303141889,-3.3757404867846463,-1.3851411563777885,-1.977384522602658,-0.01077505051116469,-0.0025213162253845374,0.1180382765569709
7644,0.0,300.05155,22245.659,-0.07643998750739733,0.0,0.0,0.0,0.0,-0.011665822879384419,-3.3499258126619362,-1.3980727607790386,-2.0141261871287783,-0.008327522400462471,-0.01981226361681818,0.1155696953383409
7645,0.0,300.23496,22123.185,-0.07644999718209478,0.0,0.0,0.0,0.0,-0.011667350497270135,-3.3736994971082166,-1.3666813607559487,-1.984514966206378,0.004861129365656115,0.0007672480832789903,0.14219833353138286
7646,0.0,300.22166,22204.453999999998,-0.07646000685679233,0.0,0.0,0.0,0.0,-0.011668878115155878,-3.3804434871237965,-1.3781389902367287,-1.9910169920980783,0.00987318476550747,-0.005010009242599415,0.14182076614661987
7647,0.0,299.14734,22237.938,-0.07646998349625977,0.0,0.0,0.0,0.0,-0.011670400691398408,-3.411817357920157,-1.3777181874701987,-1.970242426622788,-0.0038933016464389562,-0.001863247066413168,0.15723910920829184
7648,0.0,300.09758,22085.631,-0.0764799931709571,0.0,0.0,0.0,0.0,-0.011671928309284124,-3.3651472609641764,-1.3723978138451185,-1.975935270984628,-0.0049591565505556455,-3.570089354015387e-05,0.13743528799130686
7649,0.0,300.43928999999997,22001.236,-0.07649000284565466,0.0,0.0,0.0,0.0,-0.011673455927169868,-3.342705088474307,-1.3781218663100385,-1.966999519677738,0.027851559122984874,0.010947404353174688,0.1377211562420199
7650,0.0,300.33659,22047.052000000003,-0.07650001252035221,0.0,0.0,0.0,0.0,-0.011674983545055584,-3.3335834057740668,-1.3775217182758086,-1.9906481690616782,0.005204623784006375,0.003086875042275847,0.12215385528314687
7651,0.0,299.93397999999996,22050.132999999998,-0.07650998915981944,0.0,0.0,0.0,0.0,-0.011676506121298114,-3.361029513882787,-1.3758029421311788,-1.9658573841650182,-0.003763436015572216,-0.015974760234836086,0.12485137022937089
7652,0.0,300.1329,22043.384,-0.07651999883451699,0.0,0.0,0.0,0.0,-0.01167803373918383,-3.3577312834822766,-1.3928243279110588,-1.950082701308178,-0.02782765047362527,-0.020881992277392177,0.1297148795168619
7653,0.0,300.13097999999997,22165.804,-0.07653000850921454,0.0,0.0,0.0,0.0,-0.011679561357069573,-3.394801038390777,-1.3854721851854588,-1.957577509647858,-0.01243116625636059,0.014052588318132487,0.1200081766063849
7654,0.0,300.59223,22207.257,-0.07653998514868199,0.0,0.0,0.0,0.0,-0.011681083933312103,-3.383653362115587,-1.3878979059248588,-1.978900243427248,-0.007301548412331722,0.024176449334529775,0.12354546310298789
7655,0.0,299.91549,22120.987999999998,-0.07654999482337932,0.0,0.0,0.0,0.0,-0.011682611551197819,-3.338590989093277,-1.3944548499719787,-1.991182253189388,-0.01078738176488169,0.01130234484995459,0.10846605219976589
7656,0.0,299.66301,22235.776,-0.07656000449807687,0.0,0.0,0.0,0.0,-0.011684139169083563,-3.366188071466897,-1.3876367913740886,-2.005295813832288,-0.009257629655556912,0.011521091361043189,0.12399506243735989
7657,0.0,299.83036,22317.182,-0.07657001417277443,0.0,0.0,0.0,0.0,-0.011685666786969279,-3.4032299619976465,-1.3933441252123588,-1.9872920820804583,0.023756950620878476,0.0007063168255380433,0.1412629010390629
7658,0.0,300.04365,22014.702,-0.07657999081224176,0.0,0.0,0.0,0.0,-0.011687189363211836,-3.3821258875898366,-1.3618301219271687,-1.947963894024068,0.02857090083272837,-0.008996649563075181,0.14279629294539686
7659,0.0,300.05022,22030.963,-0.0765900004869392,0.0,0.0,0.0,0.0,-0.011688716981097524,-3.3939752395592766,-1.3596119148082488,-1.9432754844863585,0.007314362074421333,-0.010414918120872389,0.15277300674252184
7660,0.0,300.14751,22215.892999999996,-0.07660001016163676,0.0,0.0,0.0,0.0,-0.011690244598983268,-3.3808755369664367,-1.4032844126683885,-1.968916588866938,-0.007119884220452863,-0.007939988282415832,0.13003802523875388
7661,0.0,300.49605,22262.487,-0.07660998680110409,0.0,0.0,0.0,0.0,-0.011691767175225798,-3.3828916006904066,-1.3882085684055185,-1.996140085928688,-0.004896291069301306,0.003062897086609407,0.14671175477682286
7662,0.0,300.21823,22216.037999999997,-0.07661999647580153,0.0,0.0,0.0,0.0,-0.011693294793111514,-3.3813223802605363,-1.3930002281284186,-1.9787983104671878,-0.005229300983566825,0.004233001645814736,0.10016145741991621
7663,0.0,299.60224,22262.889,-0.07663000615049897,0.0,0.0,0.0,0.0,-0.011694822410997258,-3.4069598369407568,-1.3821889508864287,-1.9782135638344782,-0.018176796895410182,-0.014284850572304986,0.14561980554155587
7664,0.0,299.65052000000003,22223.985,-0.07664001582519653,0.0,0.0,0.0,0.0,-0.011696350028882974,-3.3894161207343263,-1.3917314363531987,-1.974388747356998,-0.017506876459294184,-0.003120539668898287,0.11158990225806588
7665,0.0,299.79722000000004,22282.815,-0.07664999246466397,0.0,0.0,0.0,0.0,-0.011697872605125531,-3.411449953433897,-1.3877272746080187,-1.9742422313925383,-0.0008629168069807582,0.01856681813715228,0.15494999484737385
7666,0.0,299.8999,22299.658,-0.0766600021393613,0.0,0.0,0.0,0.0,-0.01169940022301122,-3.380015895581597,-1.3880010547850385,-2.010522157848088,0.015448940174941684,0.015337172609411087,0.11674315041165188
7667,0.0,300.12045,22084.759,-0.07667001181405886,0.0,0.0,0.0,0.0,-0.011700927840896963,-3.3479131939883064,-1.3780670494796288,-1.987235137424838,-0.007632654227009322,0.014312740281307487,0.14064388628797087
7668,0.0,299.79031000000003,22008.498,-0.0766799884535263,0.0,0.0,0.0,0.0,-0.011702450417139493,-3.348871424607877,-1.3862713355393288,-1.9548909783327182,-0.005626502824792595,-0.003970316050764686,0.1197872272895789
7669,0.0,300.0126,22264.617000000002,-0.07668999812822386,0.0,0.0,0.0,0.0,-0.011703978035025236,-3.4114446845333766,-1.3950426363549886,-1.961400299625138,0.016282578522465386,-0.009988966625284252,0.13658897084528188
7670,0.0,300.57964,22291.523999999998,-0.07670000780292119,0.0,0.0,0.0,0.0,-0.011705505652910952,-3.396775761510667,-1.3980920125309386,-1.9811989026041081,0.013074610467363587,-0.002835029804745657,0.14553724592340786
7671,0.0,300.62484,22093.545,-0.07670998444238886,0.0,0.0,0.0,0.0,-0.01170702822915351,-3.381358249314076,-1.3833322009742588,-1.951195452567998,0.016907186414109383,-0.015187758749665086,0.12817446578733488
7672,0.0,299.98302,22132.342999999997,-0.07671999411708619,0.0,0.0,0.0,0.0,-0.011708555847039226,-3.3401638572235073,-1.3970546470785588,-1.9904610217682082,0.004638122745847076,0.005687693606281655,0.13978239065544787
7673,0.0,299.79983,22352.839,-0.07673000379178352,0.0,0.0,0.0,0.0,-0.011710083464924914,-3.3851063627589864,-1.4119058537942588,-1.9976925877319083,-0.0012716124608483789,0.018261738664543285,0.1161689922424869
7674,0.0,299.42585,22351.496,-0.07674001346648107,0.0,0.0,0.0,0.0,-0.011711611082810658,-3.407889595232517,-1.3888357702174188,-1.997571301694938,-0.006441717347073004,0.007690511618319404,0.13352856037574287
7675,0.0,299.65359,22262.999,-0.07674999010594852,0.0,0.0,0.0,0.0,-0.011713133659053188,-3.4141084177212666,-1.389481615831159,-1.9638058566875483,-0.015871303346625683,-0.006321626033295915,0.1193628376176949
7676,0.0,300.02115,22073.072,-0.07675999978064607,0.0,0.0,0.0,0.0,-0.011714661276938931,-3.380502356954607,-1.3735060054794885,-1.9556544622830683,-0.00893862883584898,0.003946046177744436,0.14707876409554385
7677,0.0,299.84361,22072.555,-0.0767700094553434,0.0,0.0,0.0,0.0,-0.011716188894824647,-3.372725257137067,-1.3673821245251088,-1.9693982879644782,0.00991943882197239,0.01051391366889249,0.15100978944850585
7678,0.0,299.65238,22386.334,-0.07677998609481096,0.0,0.0,0.0,0.0,-0.011717711471067205,-3.3894157154342865,-1.3943702435886287,-2.021100590217098,-0.0016949375108523082,0.007716259823235553,0.12951062856170387
7679,0.0,300.02077,22526.01,-0.07678999576950829,0.0,0.0,0.0,0.0,-0.01171923908895292,-3.4196538341935567,-1.4115386519580186,-2.016152180703728,0.012900935347223186,-0.01091931706040269,0.14178239436533288
7680,0.0,300.47622,22192.568,-0.07680000544420584,0.0,0.0,0.0,0.0,-0.011720766706838637,-3.371934922059067,-1.4030820666234185,-1.9709695348945484,0.005140836143836025,0.008907666648568253,0.11844909881001589
7681,0.0,300.20129,22080.703999999998,-0.07681001511890329,0.0,0.0,0.0,0.0,-0.011722294324724353,-3.3867821770993762,-1.3910720131881187,-1.9341283692086082,0.015360660759979184,0.01981136891697988,0.12338926046757188
7682,0.0,300.02445,22306.092999999997,-0.07681999175837084,0.0,0.0,0.0,0.0,-0.01172381690096691,-3.397468520604037,-1.4079942017832088,-1.9750325664705382,-0.015684012171641486,0.0016972773079832284,0.13164943740278787
7683,0.0,300.07996,22285.415,-0.07683000143306817,0.0,0.0,0.0,0.0,-0.011725344518852626,-3.396971825405017,-1.381982551841059,-1.995255315941368,-0.02333719251520158,-0.00957502720963161,0.13680234105133987
7684,0.0,299.8648,22176.991,-0.0768400111077655,0.0,0.0,0.0,0.0,-0.011726872136738342,-3.339377980445947,-1.4108955421195486,-1.990978083294238,-0.02999123733265467,0.0017267301579149982,0.11933839802528289
7685,0.0,299.3809,22053.681,-0.07684998774723317,0.0,0.0,0.0,0.0,-0.0117283947129809,-3.364513371701617,-1.3668149071191287,-1.9724401660896878,-0.016327600264158686,0.013607751259230486,0.12287020283884487
7686,0.0,299.21091,22280.982000000004,-0.0768599974219305,0.0,0.0,0.0,0.0,-0.011729922330866616,-3.4056310607596165,-1.3912551074811885,-1.9759761049636584,-0.016391939619008485,0.004421907333508277,0.11395533461651589
7687,0.0,299.72062999999997,22522.389,-0.07687000709662806,0.0,0.0,0.0,0.0,-0.011731449948752332,-3.453782022736747,-1.4079789017066986,-1.984482744853198,0.004732274553089136,-0.002223279854220638,0.12012578454549187
7688,0.0,300.11458999999996,22418.132999999998,-0.0768799837360955,0.0,0.0,0.0,0.0,-0.011732972524994861,-3.425156491511627,-1.3973087702036386,-1.992087389503718,0.014789247485335088,0.015172220559381588,0.13713929737209488
7689,0.0,300.07473,22213.729,-0.07688999341079306,0.0,0.0,0.0,0.0,-0.011734500142880605,-3.3763011180649767,-1.3867838374399089,-1.989333781031958,0.03321841762290257,0.012985534637822487,0.13978926049112586
7690,0.0,300.00954,22198.51,-0.07690000308549039,0.0,0.0,0.0,0.0,-0.011736027760766321,-3.3812976569580964,-1.3754565119219886,-1.9910384730001982,0.013087087629094989,-0.008057119082050741,0.13572322969483985
7691,0.0,300.15531,22436.822,-0.07691001276018794,0.0,0.0,0.0,0.0,-0.011737555378652065,-3.422700170619207,-1.4120518631336687,-1.985481505476768,0.005906418129843083,-0.02166530350569898,0.13619921406181587
7692,0.0,300.50178999999997,22409.659,-0.07691998939965528,0.0,0.0,0.0,0.0,-0.011739077954894594,-3.4327381353848763,-1.4030466028699187,-1.976191927234958,-0.012480097116939688,-0.012907360366107288,0.12273001968750988
7693,0.0,300.36915,22149.909,-0.07692999907435283,0.0,0.0,0.0,0.0,-0.011740605572780338,-3.397918910273487,-1.3856501119030187,-1.9494501292707482,-0.007887494631835112,0.008682550036750971,0.1293962427579149
7694,0.0,299.67024,22091.372000000003,-0.07694000874905027,0.0,0.0,0.0,0.0,-0.011742133190666026,-3.3771920688779065,-1.3810136820954386,-1.957019614142798,0.0003496795097431807,-0.0038974513108984963,0.12277718647966489
7695,0.0,299.89454,22435.621,-0.07694998538851783,0.0,0.0,0.0,0.0,-0.011743655766908584,-3.3969387934517568,-1.4000893311280587,-2.022840340638798,-0.0024856201336366074,-0.008298672231690181,0.15126940438912787
7696,0.0,300.41876,22472.666,-0.07695999506321516,0.0,0.0,0.0,0.0,-0.0117451833847943,-3.394447515430887,-1.3972319658460588,-2.039449941578038,-0.006481904872539203,-0.004567850203711715,0.13337473887806187
7697,0.0,300.29091,22360.398999999998,-0.07697000473791249,0.0,0.0,0.0,0.0,-0.011746711002680016,-3.391851872649717,-1.4104462670252087,-1.9947046145120182,0.0018341173419382881,-0.005639552979455545,0.1289310191070009
7698,0.0,299.94689,22285.275,-0.07698001441261004,0.0,0.0,0.0,0.0,-0.01174823862056576,-3.412653998527727,-1.3868514212215788,-1.9746617169339382,-0.0035334872140280363,-0.012735086570855187,0.11145321481957589
7699,0.0,299.87266,22371.677000000003,-0.07698999105207749,0.0,0.0,0.0,0.0,-0.01174976119680829,-3.4364783454790064,-1.3926486303437187,-1.971304414052598,0.0022632350414389076,0.008049388085112753,0.1199544642185839
7700,0.0,299.83897,22431.859,-0.07700000072677504,0.0,0.0,0.0,0.0,-0.011751288814694033,-3.4135557911167265,-1.4062549579865586,-1.9989142633774781,0.014516371127404287,0.0064287883771220146,0.12418081144569187
7701,0.0,300.47157999999996,22412.441000000003,-0.07701001040147237,0.0,0.0,0.0,0.0,-0.011752816432579721,-3.401381793815247,-1.3979824801951288,-2.013458252662858,0.006528492592262054,0.003115074096533877,0.14051949970569488
7702,0.0,300.30769,22251.904,-0.07701998704094004,0.0,0.0,0.0,0.0,-0.011754339008822279,-3.367107089307597,-1.4074268830522185,-1.989489314922308,0.001819137148484858,-0.01731757094311118,0.13182256131487388
7703,0.0,299.84125,22114.335,-0.07702999671563737,0.0,0.0,0.0,0.0,-0.011755866626707995,-3.3929185210299866,-1.3629277757604987,-1.9663592469395483,0.01023645539400949,-0.02428696857593718,0.13181686684931188
7704,0.0,300.06657,22375.592999999997,-0.07704000639033493,0.0,0.0,0.0,0.0,-0.011757394244593738,-3.4068884028087068,-1.4104573114512986,-1.984275737857768,0.014818027841175486,-0.0021984159126667577,0.12283474921784587
7705,0.0,299.71528,22538.327999999998,-0.07705001606503226,0.0,0.0,0.0,0.0,-0.011758921862479454,-3.4509164501289367,-1.4020891828504287,-1.998083398295478,-0.0014805372347426486,0.008923653911296072,0.14119438506730086
7706,0.0,299.53442,22474.22,-0.07705999270449981,0.0,0.0,0.0,0.0,-0.011760444438722012,-3.410937046233277,-1.4091583248230986,-2.011506428995228,-0.008442472077932122,0.0009681817791996021,0.13460182527916587
7707,0.0,299.40075,22387.417,-0.07707000237919726,0.0,0.0,0.0,0.0,-0.011761972056607728,-3.3983350520895566,-1.3902319275302086,-2.016648774577738,-0.026973553593332478,0.011369477735330091,0.14748944449357487
7708,0.0,299.42726,22503.641,-0.07708001205389459,0.0,0.0,0.0,0.0,-0.011763499674493416,-3.4138587528966267,-1.3918033771102987,-2.034882818077298,-0.012281238678813887,0.007700387969694123,0.15072460007535987
7709,0.0,299.65505,22566.985,-0.07708998869336214,0.0,0.0,0.0,0.0,-0.011765022250735974,-3.425870731507117,-1.4182227588926886,-2.015706350659728,-0.006616655179488024,-0.0007698125078245793,0.13661911503575688
7710,0.0,300.4475,22389.656000000003,-0.07709999836805947,0.0,0.0,0.0,0.0,-0.01176654986862169,-3.4260283932226763,-1.3944847408499288,-1.985383321542078,0.002235662074417668,-0.008531565538024961,0.12919650076570188
7711,0.0,300.26689,22276.266,-0.07711000804275703,0.0,0.0,0.0,0.0,-0.011768077486507433,-3.427432555211257,-1.3983394482053586,-1.9456565208963479,0.013988148651522786,-0.0025824339515413876,0.11604902343064688
7712,0.0,300.32016,22216.805,-0.07711998468222447,0.0,0.0,0.0,0.0,-0.011769600062749963,-3.387148163035497,-1.3976431427366385,-1.9685626606070081,0.025634495963427775,-0.0027359443814416874,0.12676135680037187
7713,0.0,299.85885,22359.232999999997,-0.07712999435692203,0.0,0.0,0.0,0.0,-0.011771127680635707,-3.3843306184824264,-1.4279566473033485,-1.984361256166208,0.01084229789380149,0.008900684139479132,0.11127876354985888
7714,0.0,300.12068999999997,22585.317000000003,-0.07714000403161936,0.0,0.0,0.0,0.0,-0.011772655298521395,-3.4155569600642264,-1.4204768350651487,-2.029338718830138,-0.009694714641918841,-0.026427888016979473,0.14906063062863886
7715,0.0,300.22832,22550.328999999998,-0.07715001370631691,0.0,0.0,0.0,0.0,-0.011774182916407139,-3.445372350881777,-1.4182287370682787,-1.9911358463348081,-0.01952547330851418,0.001364635203504009,0.12315837116728488
7716,0.0,300.42824,22330.863999999998,-0.07715999034578436,0.0,0.0,0.0,0.0,-0.011775705492649668,-3.407943500137837,-1.3931144214146887,-1.9869669301233681,-0.02257648081712518,0.014780268062948885,0.13508360543671386
7717,0.0,299.85882999999995,22404.604,-0.07717000002048191,0.0,0.0,0.0,0.0,-0.011777233110535412,-3.4303700685761664,-1.3999471721390286,-1.9801229323229181,-0.02102967753246758,0.01791954282752118,0.12308838598287788
7718,0.0,300.14557,22720.86,-0.07718000969517924,0.0,0.0,0.0,0.0,-0.011778760728421128,-3.4404048922665265,-1.4252419476354286,-2.0409271588988283,-0.018170112484500484,0.011757026646828189,0.13884559027549287
7719,0.0,299.36015,22422.722999999998,-0.07718998633464669,0.0,0.0,0.0,0.0,-0.011780283304663658,-3.4368682441174863,-1.3832852874946286,-1.995794364994568,0.0004945238547182045,0.015005244035652284,0.13945265880790586
7720,0.0,299.61009,22083.907000000003,-0.07719999600934424,0.0,0.0,0.0,0.0,-0.011781810922549402,-3.3861039074824366,-1.374497166727309,-1.9523553199574681,0.016573505930927684,-0.0005003168588524295,0.12979657787242488
7721,0.0,299.60485,22271.105,-0.07721000568404157,0.0,0.0,0.0,0.0,-0.01178333854043509,-3.4276624616589464,-1.3856962147825687,-1.9565010327416181,0.023017932607443076,-0.005568509961944145,0.13160313187321787
7722,0.0,299.59223,22601.763,-0.07722001535873912,0.0,0.0,0.0,0.0,-0.011784866158320834,-3.4432106831184366,-1.4322003413721685,-1.994960561487278,0.01801817968500588,-0.01377774726825779,0.10852555024563788
7723,0.0,300.0615,22621.765,-0.07722999199820657,0.0,0.0,0.0,0.0,-0.011786388734563363,-3.4652310395916763,-1.4133336245101686,-1.997887030426098,0.010829193530258189,-0.013658974091535788,0.13394369907421386
7724,0.0,300.59794,22573.276,-0.07724000167290401,0.0,0.0,0.0,0.0,-0.011787916352449107,-3.418255853030587,-1.4304540048248187,-2.013002290117858,0.0024774585054061177,-0.0015766310371263684,0.12528455491212287
7725,0.0,299.67925,22392.585,-0.07725001134760145,0.0,0.0,0.0,0.0,-0.011789443970334823,-3.399483064452857,-1.4024371329347685,-2.0048662971148983,-0.015945420564940485,-0.003558165426838587,0.14674358096246387
7726,0.0,300.26607,22458.131,-0.07725998798706879,0.0,0.0,0.0,0.0,-0.011790966546577353,-3.4150661417157866,-1.4035095568406089,-2.008135244587518,-0.025084755095172575,-0.01070133453988949,0.14116959083735386
7727,0.0,300.19377000000003,22672.607000000004,-0.07726999766176634,0.0,0.0,0.0,0.0,-0.011792494164463097,-3.4479471207108867,-1.4218091576216385,-2.022150013345668,-0.02264000653214468,0.010607201579099291,0.14213569441020085
7728,0.0,300.09811,22466.272999999997,-0.0772800073364639,0.0,0.0,0.0,0.0,-0.011794021782348812,-3.4222316437729665,-1.4012565952432587,-2.0056977701469583,-0.004692760940264446,0.02437419927704618,0.12599381984962188
7729,0.0,300.10151,22250.326,-0.07728998397593112,0.0,0.0,0.0,0.0,-0.011795544358591342,-3.3971432673219364,-1.3995682166016288,-1.966832130761218,-0.004994585549577215,0.011707522286692489,0.12158347653685489
7730,0.0,299.7266,22284.863999999998,-0.0772999936506289,0.0,0.0,0.0,0.0,-0.011797071976477086,-3.400665020694507,-1.3737601286045686,-1.9996169523218281,-0.011170296070422388,-0.009583246998417842,0.13250843030756387
7731,0.0,299.77029,22584.209,-0.07731000332532623,0.0,0.0,0.0,0.0,-0.011798599594362802,-3.4483840341540066,-1.4098681065181486,-2.0067834676291083,0.002660577825753588,0.003205730596230977,0.13916272742429187
7732,0.0,300.52968,22514.507999999998,-0.07732001300002356,0.0,0.0,0.0,0.0,-0.011800127212248518,-3.447097814477067,-1.3942678040035186,-2.002482727579658,0.02467964858594168,-0.002809479487574037,0.13512608088090586
7733,0.0,299.21276,22356.641,-0.077329989639491,0.0,0.0,0.0,0.0,-0.011801649788491048,-3.4256588609112066,-1.3960410930035287,-1.974160563434478,0.005307787842937875,-0.0021508782709751583,0.12329926359368987
7734,0.0,299.25802999999996,22573.35,-0.07733999931418856,0.0,0.0,0.0,0.0,-0.011803177406376791,-3.443637261410536,-1.4127515123277186,-2.005345868387228,0.006155636617814034,-0.018080208829627683,0.13465597336450988
7735,0.0,299.57527999999996,22720.724,-0.07735000898888611,0.0,0.0,0.0,0.0,-0.011804705024262507,-3.454290978261976,-1.4190860479778886,-2.0331557332818484,-0.0006450580144372693,0.0012989243133188489,0.15933235219237885
7736,0.0,299.96045,22579.689,-0.07735998562835333,0.0,0.0,0.0,0.0,-0.011806227600505037,-3.4256292740082865,-1.4115857680876687,-2.0264467003947177,-0.005403132346872645,0.029602843370573173,0.14209546838123085
7737,0.0,300.48741,22450.445,-0.077369995303051,0.0,0.0,0.0,0.0,-0.01180775521839078,-3.423102734883937,-1.3783409309816588,-2.0229309251977377,-0.029182895787127575,0.009054857842894892,0.16353726917987185
7738,0.0,300.38437999999996,22348.82,-0.07738000497774844,0.0,0.0,0.0,0.0,-0.011809282836276497,-3.4104845287386167,-1.3852519046137186,-1.9977467966122584,-0.022289323712284977,-0.003845444121690786,0.13813005331987485
7739,0.0,299.48942999999997,22474.953999999998,-0.077390014652446,0.0,0.0,0.0,0.0,-0.01181081045416224,-3.4159797893309567,-1.4035127992409286,-2.012332227826728,-0.018724408925205282,0.016005860933405485,0.13572884310039385
7740,0.0,300.43505,22804.814,-0.07739999129191333,0.0,0.0,0.0,0.0,-0.01181233303040477,-3.4638123881266667,-1.4391063500787387,-2.029175281589008,0.007017542717952544,0.0099156939509278,0.11981047124687288
7741,0.0,300.31307000000004,22657.897999999997,-0.07741000096661088,0.0,0.0,0.0,0.0,-0.011813860648290514,-3.440218352923117,-1.4262857978884487,-2.020930972150358,-0.005354272413800545,-0.012202592232552089,0.12176736116500288
7742,0.0,299.51402,22449.287,-0.07742001064130821,0.0,0.0,0.0,0.0,-0.011815388266176202,-3.419906640093507,-1.4104792989784687,-1.9936366489066182,0.0060162753136351445,-0.019102268125997083,0.11656239672631288
7743,0.0,300.45737,22592.734,-0.07742998728077566,0.0,0.0,0.0,0.0,-0.01181691084241876,-3.4523794819483267,-1.4054018014023588,-2.009845610756318,0.02422005860558368,-0.00975498063004163,0.1295736425854229
7744,0.0,300.90565,22606.656000000003,-0.07743999695547321,0.0,0.0,0.0,0.0,-0.011818438460304476,-3.431858938273107,-1.4201240213803288,-2.019875976146238,0.025480718035501077,0.018425880114492782,0.13863794493249987
7745,0.0,300.42167,22489.022,-0.07745000663017054,0.0,0.0,0.0,0.0,-0.011819966078190192,-3.4284825862898867,-1.4062597202620288,-2.001358830568738,0.005576272369635235,0.012688245031982287,0.12814540577446687
7746,0.0,300.81663,22499.482000000004,-0.0774600163048681,0.0,0.0,0.0,0.0,-0.011821493696075935,-3.428340427300857,-1.4037042021848187,-2.007235985123768,-0.007098721478864263,-0.014836268369475686,0.15463823805660584
7747,0.0,300.20881,22530.959,-0.07746999294433554,0.0,0.0,0.0,0.0,-0.011823016272318465,-3.438921392795117,-1.4031199621771586,-2.0068076843064984,-0.011472140235462091,0.004493044177978936,0.1318008777627339
7748,0.0,299.79672999999997,22571.103,-0.0774800026190331,0.0,0.0,0.0,0.0,-0.011824543890204209,-3.439905866592276,-1.3898593554684386,-2.031286388172358,-0.015514055679368087,-0.002287517377435388,0.14964998754930386
7749,0.0,299.65305,22620.897999999997,-0.07749001229373043,0.0,0.0,0.0,0.0,-0.011826071508089897,-3.4342109957302367,-1.4235289470163686,-2.018448205430328,-0.022353532357871877,-0.00968576369186045,0.11661591659659488
7750,0.0,299.53056000000004,22558.072999999997,-0.07749998893319787,0.0,0.0,0.0,0.0,-0.011827594084332455,-3.4203880352160168,-1.4012011704627885,-2.035501711238378,-0.00954935246534771,-0.010207072154359589,0.14595470496460786
7751,0.0,300.00165,22556.879,-0.07750999860789543,0.0,0.0,0.0,0.0,-0.01182912170221817,-3.447141282906357,-1.4069233990775287,-2.002663390072488,0.01038622490454059,0.0056956762945444845,0.12640816821301487
7752,0.0,300.44077999999996,22632.49,-0.07752000828259298,0.0,0.0,0.0,0.0,-0.011830649320103914,-3.449532147842317,-1.4232105838349487,-2.0069690950474284,0.02858657986477577,0.013554566774731588,0.13349391735482388
7753,0.0,300.25752,22600.875,-0.0775299849220602,0.0,0.0,0.0,0.0,-0.011832171896346416,-3.4467033562131366,-1.4052814272904788,-2.018116771322618,0.0031881201068429572,0.006930810434567734,0.12826251722102489
7754,0.0,300.05246,22570.648999999998,-0.07753999459675776,0.0,0.0,0.0,0.0,-0.01183369951423216,-3.439009038928767,-1.4129340999957385,-2.008970669294968,-0.0014076503046992687,-0.02202669333936538,0.14120572333591988
7755,0.0,300.22744,22539.852000000003,-0.07755000427145531,0.0,0.0,0.0,0.0,-0.011835227132117904,-3.4470190849442965,-1.4016008976272385,-2.0029321039990085,0.01124015763831719,-0.014013592374783885,0.1337531067304039
7756,0.0,300.21852,22662.951,-0.07756001394615264,0.0,0.0,0.0,0.0,-0.011836754750003592,-3.436611587867157,-1.4204829145657487,-2.0318766063556084,0.005244508752992714,0.0016822981277798982,0.14224763828124887
7757,0.0,300.67999,22653.881,-0.07756999058561997,0.0,0.0,0.0,0.0,-0.01183827732624615,-3.459083955210007,-1.4293200766379088,-1.9978101247435083,-0.0011608909747210189,-0.008546919215465253,0.14160218783504785
7758,0.0,300.00372999999996,22582.134,-0.07758000026031753,0.0,0.0,0.0,0.0,-0.011839804944131865,-3.4328531392712267,-1.4172104207177787,-2.014341502775028,-0.00904645333861543,-0.01094155283384719,0.13454728202628288
7759,0.0,299.92107000000004,22661.167999999998,-0.07759000993501508,0.0,0.0,0.0,0.0,-0.011841332562017609,-3.4452247203422064,-1.4268399443681385,-2.0163645579246876,0.001057296689797059,0.0035526549674947464,0.12731674957768488
7760,0.0,299.84733,22673.801,-0.0775999865744823,0.0,0.0,0.0,0.0,-0.011842855138260111,-3.4426142841095766,-1.4222814334932488,-2.027373520261188,-0.00907016663335575,0.01214357041422709,0.13519183067989488
7761,0.0,299.93771,22514.542,-0.07760999624917986,0.0,0.0,0.0,0.0,-0.011844382756145855,-3.419093000263207,-1.4172863131502687,-2.007479165147768,-0.002943243699525537,0.006492322907417384,0.11376265497749989
7762,0.0,299.90939,22620.405,-0.07762000592387741,0.0,0.0,0.0,0.0,-0.011845910374031599,-3.4341380417230365,-1.4188156115261987,-2.0230846352379084,-0.003905593180752036,-0.01187215820269079,0.13375001631759886
7763,0.0,300.09301,22779.588,-0.07763001559857496,0.0,0.0,0.0,0.0,-0.011847437991917315,-3.486864233201707,-1.4225338340931588,-2.0150278783927678,0.011683118158033988,0.0007368662552580373,0.12390961505642689
7764,0.0,299.84699,22623.987999999998,-0.07763999223804219,0.0,0.0,0.0,0.0,-0.011848960568159844,-3.463253580696517,-1.4105972412901087,-2.0032767103580182,0.006769485617246213,0.008437173995809242,0.13755206506533188
7765,0.0,299.83898,22469.44,-0.07765000191273974,0.0,0.0,0.0,0.0,-0.01185048818604556,-3.4321089070727764,-1.4098673972430789,-1.9881723937673381,0.013016543130632788,-0.005365027556986995,0.12363836800465688
7766,0.0,299.52778,22532.984,-0.0776600115874373,0.0,0.0,0.0,0.0,-0.011852015803931304,-3.4443071210516467,-1.3970233376504686,-2.0081340286873983,0.006008150263733265,-0.007734311887017152,0.15108076761801084
7767,0.0,300.62762999999995,22831.834,-0.07766998822690474,0.0,0.0,0.0,0.0,-0.011853538380173834,-3.449365164225837,-1.4344327339924887,-2.0565093242366683,0.005597579094063045,-0.0003844633926910826,0.14319706375744987
7768,0.0,300.64391,22773.472,-0.07767999790160207,0.0,0.0,0.0,0.0,-0.01185506599805955,-3.4715197763373267,-1.4143433282348186,-2.0367037298320083,0.009589821167716662,0.01192123294478409,0.14244641768586688
7769,0.0,300.38593,22681.792999999998,-0.07769000757629962,0.0,0.0,0.0,0.0,-0.011856593615945293,-3.4720689578915267,-1.4025227525682187,-2.0201069971690377,-0.005871487244570674,0.007262352757388414,0.15928613785531784
7770,0.0,300.33385,22760.657000000003,-0.07769998421576707,0.0,0.0,0.0,0.0,-0.011858116192187823,-3.465965949889207,-1.4206942785366086,-2.032011267293898,-0.009083119212034071,-0.0009210491842354772,0.1254625728221919
7771,0.0,300.37268,22814.142999999996,-0.0777099938904644,0.0,0.0,0.0,0.0,-0.011859643810073539,-3.4808447170076264,-1.4276185257449785,-2.0264666614216877,-0.013633569885028589,0.0026985130988975074,0.14099628454024987
7772,0.0,300.35414,22783.161,-0.07772000356516195,0.0,0.0,0.0,0.0,-0.011861171427959255,-3.4658207511498764,-1.4264736544569885,-2.0332177441879677,-0.00940929495702511,-0.0009231717506774582,0.10766804681850889
7773,0.0,300.37407,22644.701,-0.07773001323985951,0.0,0.0,0.0,0.0,-0.011862699045844999,-3.439737869725697,-1.4107715203073088,-2.032914174458008,-0.0007172935057263573,-0.011746027816992688,0.14878993073192284
7774,0.0,299.67662,22497.996,-0.07773998987932684,0.0,0.0,0.0,0.0,-0.011864221622087529,-3.423604800308487,-1.4139527203212687,-2.0012713870851084,0.013398340834563288,-0.004988922798743346,0.12210914055623388
7775,0.0,299.93315,22554.218999999997,-0.07774999955402428,0.0,0.0,0.0,0.0,-0.011865749239973244,-3.4534457250285566,-1.4008078267739685,-2.001665845349038,0.042255226441766165,0.005218968770972115,0.14311124147397986
7776,0.0,299.86615,22759.519,-0.07776000922872173,0.0,0.0,0.0,0.0,-0.011867276857858988,-3.4564048206205964,-1.4296313470686288,-2.032289303121338,0.01193116684876449,0.01057627515954709,0.12405382081065888
7777,0.0,299.95316,22669.269,-0.07776998586818917,0.0,0.0,0.0,0.0,-0.011868799434101518,-3.452819435141747,-1.4228128831706985,-2.015259406040618,-0.01011354602905428,-0.005693151680595324,0.13432203652905286
7778,0.0,299.77384,22572.464,-0.07777999554288673,0.0,0.0,0.0,0.0,-0.011870327051987262,-3.428163817808427,-1.4112173503513088,-2.022084354739188,-0.016978286173626383,-0.001165049961081479,0.14110416527839686
7779,0.0,300.31237000000004,22888.63,-0.07779000521758406,0.0,0.0,0.0,0.0,-0.01187185466987295,-3.467335762699397,-1.4444195296281088,-2.045816799906398,-0.01795292232556548,0.00991691532259834,0.13678782117740687
7780,0.0,300.77745,22968.097,-0.07780001489228161,0.0,0.0,0.0,0.0,-0.011873382287758694,-3.4990525173295968,-1.4257645820370088,-2.056910976576308,-0.005182525812575475,0.005689135258523934,0.15992202322057483
7781,0.0,300.91228,22726.597999999998,-0.07780999153174906,0.0,0.0,0.0,0.0,-0.011874904864001223,-3.472284577512807,-1.4187407323438088,-2.017293100316328,-0.018479076757992884,-0.008398983282315113,0.12328006250429488
7782,0.0,300.20967,22589.472999999998,-0.07782000120644639,0.0,0.0,0.0,0.0,-0.01187643248188694,-3.4567535813050165,-1.4093022063372986,-2.000580046541878,-0.009621861250453771,-0.007141545886390703,0.14528546340605886
7783,0.0,300.47909,22685.668999999998,-0.07783001088114394,0.0,0.0,0.0,0.0,-0.011877960099772683,-3.473367640544697,-1.4197465857180787,-2.002762789907298,0.018330652843594582,-0.009981115558209411,0.1106006763179369
7784,0.0,300.17904,22720.801,-0.07783998752061139,0.0,0.0,0.0,0.0,-0.011879482676015213,-3.463210618892276,-1.4228151123209185,-2.020530333060818,0.017275092459168882,0.006968320547969693,0.13161016382891189
7785,0.0,300.21576,22643.182,-0.07784999719530894,0.0,0.0,0.0,0.0,-0.011881010293900957,-3.4529282582024865,-1.4195835537769885,-2.010450318415998,0.005576195058652604,-0.0025890253460919077,0.12959686627771488
7786,0.0,300.06681000000003,22602.217,-0.07786000687000627,0.0,0.0,0.0,0.0,-0.011882537911786645,-3.4461516415336866,-1.4078432275183086,-2.016514721589508,-0.00971750213004279,0.005251958167727915,0.15694576317184084
7787,0.0,299.87685,22585.382999999998,-0.07786998350947383,0.0,0.0,0.0,0.0,-0.011884060488029202,-3.4514875178852966,-1.4120379816072985,-2.001866975493888,-0.0012751032087678887,0.016588366256894284,0.13521878313255487
7788,0.0,299.66917,22832.44,-0.07787999318417127,0.0,0.0,0.0,0.0,-0.011885588105914918,-3.4611998240688266,-1.4353310815311486,-2.0439606270482082,-0.014116715903711385,0.01102082850842109,0.12397294318767689
7789,0.0,299.5528,22989.04,-0.07789000285886871,0.0,0.0,0.0,0.0,-0.011887115723800662,-3.493758994832167,-1.4472432550067884,-2.0470918738322377,0.0036578731883539764,-0.00959335558671548,0.1304359386855249
7790,0.0,300.14711,22813.072,-0.07790001253356615,0.0,0.0,0.0,0.0,-0.011888643341686378,-3.4540674552899167,-1.4410141986920288,-2.039522591610208,-0.016004101931231883,0.00011051042613152991,0.1169667443112189
7791,0.0,300.89787,22522.07,-0.07790998917303371,0.0,0.0,0.0,0.0,-0.011890165917928935,-3.455967400552426,-1.3996150287562488,-1.9905645759284283,0.01009174909422809,0.015469778676498286,0.13077197294868886
7792,0.0,300.51937999999996,22674.62,-0.07791999884773104,0.0,0.0,0.0,0.0,-0.011891693535814651,-3.4672105249870366,-1.4203021507479088,-2.005005720328658,-0.013094751852851388,0.007420769141622893,0.13767730277769186
7793,0.0,299.94189,22737.482000000004,-0.07793000852242848,0.0,0.0,0.0,0.0,-0.01189322115370034,-3.4847588008189168,-1.4080676624154587,-2.018800512490098,-0.013075001581902189,0.007540261725915893,0.13781159894594586
7794,0.0,300.06212999999997,22668.576,-0.07793998516189604,0.0,0.0,0.0,0.0,-0.011894743729942897,-3.4695295504909067,-1.3987614668720088,-2.022390153619368,-0.014231937638832884,0.002356901197908038,0.13931268843909186
7795,0.0,300.04913,22737.512000000002,-0.07794999483659337,0.0,0.0,0.0,0.0,-0.011896271347828613,-3.4664726762642166,-1.4317541060281287,-2.013409211358018,0.007711493596090164,-0.01016032079474559,0.11812828356335388
7796,0.0,299.96671000000003,22845.569,-0.07796000451129093,0.0,0.0,0.0,0.0,-0.011897798965714357,-3.4861084499521167,-1.4237571309388886,-2.034616941251058,0.006649528660432383,0.0022137473999298577,0.13617696308961988
7797,0.0,299.5173,22841.799,-0.07797001418598826,0.0,0.0,0.0,0.0,-0.011899326583600073,-3.476108482065196,-1.4375884001039287,-2.0296396541098383,0.014053612713983588,-0.012853864813827689,0.12983605409632087
7798,0.0,299.1443,22881.78,-0.07797999082545592,0.0,0.0,0.0,0.0,-0.01190084915984263,-3.4927738117599367,-1.4253993053759588,-2.037316543492488,0.010214658357858291,0.010193639497783891,0.16398689891174684
7799,0.0,300.22537,22965.139,-0.07799000050015326,0.0,0.0,0.0,0.0,-0.011902376777728318,-3.4883955580778365,-1.4339911595989088,-2.0584422001274283,-0.010750643342755889,0.01800098280430868,0.14010398610468686
7800,0.0,300.22629,22770.021,-0.07800001017485081,0.0,0.0,0.0,0.0,-0.011903904395614062,-3.463671951662807,-1.4259694612072287,-2.0318764037055876,-0.006180997153241924,0.008161749617851972,0.13701271203710186
7801,0.0,300.19558,22702.032000000003,-0.07800998681431826,0.0,0.0,0.0,0.0,-0.011905426971856592,-3.440574206358237,-1.4307627421302884,-2.029513909772428,-0.02146752316567958,-0.003922483046668936,0.11302805878750088
7802,0.0,299.69016,22763.845,-0.07801999648901581,0.0,0.0,0.0,0.0,-0.011906954589742336,-3.456799886834587,-1.4273372475172186,-2.035503332438538,-0.0044093569137946455,0.007330134021502904,0.12904818121606387
7803,0.0,300.11402000000004,22718.671000000002,-0.07803000616371314,0.0,0.0,0.0,0.0,-0.011908482207628052,-3.4777760890797764,-1.4198741539056685,-2.008258354474668,0.016273043839024386,-0.005931417745585354,0.13747793568801586
7804,0.0,299.98028999999997,22576.45,-0.07804001583841069,0.0,0.0,0.0,0.0,-0.011910009825513795,-3.4590811181097267,-1.3948290432339088,-2.0087670060248684,0.011623031413853888,0.0025534451701554176,0.12875116721425087
7805,0.0,300.29112000000003,22679.306,-0.07804999247787803,0.0,0.0,0.0,0.0,-0.011911532401756325,-3.456094259464947,-1.4229866555628485,-2.014861806701378,0.006555475543750064,-0.006027125195705944,0.13483009026169387
7806,0.0,300.25492,22881.773999999998,-0.07806000215257547,0.0,0.0,0.0,0.0,-0.011913060019642013,-3.4553016952367264,-1.4407798339438986,-2.059406408922588,0.0006920333732508764,-0.0033958467124939767,0.12708781585009088
7807,0.0,300.24728999999996,23036.916,-0.07807001182727302,0.0,0.0,0.0,0.0,-0.011914587637527757,-3.4906400083743465,-1.4467850633115686,-2.065222261846568,0.0051487823550952555,0.0009858888617196551,0.13890238294359786
7808,0.0,299.42535,23032.275,-0.07807998846674036,0.0,0.0,0.0,0.0,-0.011916110213770287,-3.4825783879287266,-1.4613935966283187,-2.0572642968861783,0.0008699004509099901,-0.015648969930183085,0.12416139757377588
7809,0.0,299.72952999999995,22821.118,-0.07808999814143791,0.0,0.0,0.0,0.0,-0.01191763783165603,-3.4878336095723763,-1.4081505462736386,-2.0410657715125082,-0.0007138681631008023,-0.01027601470441369,0.15944666706866084
7810,0.0,300.28923,22721.734,-0.07810000781613524,0.0,0.0,0.0,0.0,-0.011919165449541747,-3.454076574540817,-1.4175982928560589,-2.035164805580128,-0.0008052242005344413,0.0014614591539097886,0.15194702552600386
7811,0.0,299.78783,22817.273999999998,-0.07810998445560291,0.0,0.0,0.0,0.0,-0.011920688025784304,-3.4709432370304265,-1.4277023215282487,-2.037235888784528,0.007067781177785693,0.0026343746715425374,0.15308951567625886
7812,0.0,299.42098,22854.991,-0.07811999413030024,0.0,0.0,0.0,0.0,-0.01192221564367002,-3.4826393855847466,-1.4128706705394787,-2.051836518750498,0.008186027596873023,0.006682131400950023,0.13686165671219386
7813,0.0,299.44383999999997,22719.528,-0.0781300038049978,0.0,0.0,0.0,0.0,-0.011923743261555736,-3.4565771744626064,-1.4312758519809288,-2.018316280267308,0.004579938581379745,0.004123698304527337,0.12834090224876088
7814,0.0,300.03609,22669.148999999998,-0.07814001347969513,0.0,0.0,0.0,0.0,-0.011925270879441452,-3.464982793317177,-1.4071058854205385,-2.018766669936758,0.0037859799183721267,0.005637291405232344,0.13576381036134486
7815,0.0,300.5472,23032.144,-0.0781499901191628,0.0,0.0,0.0,0.0,-0.01192679345568401,-3.5260412443431766,-1.4326495151414986,-2.042505802554628,-0.006442744478699374,-0.005603050847253064,0.13899931044816385
7816,0.0,300.7019,23121.495,-0.07815999979386012,0.0,0.0,0.0,0.0,-0.011928321073569725,-3.5144146047457165,-1.4438697401238487,-2.070072892725288,-0.009105142304282582,-0.013064614755127088,0.14639471895303385
7817,0.0,299.88592,22874.402000000002,-0.07817000946855746,0.0,0.0,0.0,0.0,-0.011929848691455441,-3.4798383570083065,-1.4285195077338986,-2.0448891694398483,-0.003114285686631067,-0.01049678974220249,0.13571883218940586
7818,0.0,300.1513,22771.335,-0.07817998610802501,0.0,0.0,0.0,0.0,-0.011931371267697999,-3.4575095672046263,-1.4224174116566686,-2.041990159578738,-0.005371014649177875,-0.006753576374776093,0.13808617959054487
7819,0.0,300.33166,22857.587000000003,-0.07818999578272245,0.0,0.0,0.0,0.0,-0.011932898885583715,-3.490269361487767,-1.4322072314728487,-2.025659202416998,0.017517019092795183,0.021642851909983184,0.13197367743478788
7820,0.0,300.18532999999996,22912.426,-0.07820000545742001,0.0,0.0,0.0,0.0,-0.01193442650346943,-3.491078441692617,-1.4313046282837687,-2.042422310746388,0.0012444626270688988,0.005847612133789384,0.13387690562762186
7821,0.0,299.58987,22784.69,-0.07821001513211734,0.0,0.0,0.0,0.0,-0.011935954121355147,-3.495027583957367,-1.4350263972260786,-1.995922743782238,0.01080908862177399,0.013597138477683087,0.13967869464021387
7822,0.0,299.76718999999997,22736.167999999998,-0.0782199917715849,0.0,0.0,0.0,0.0,-0.011937476697597704,-3.4542954365624166,-1.4288089932874686,-2.028122920035148,-0.005870657392738774,-0.00019874588630469178,0.13709937531815486
7823,0.0,299.81407,22823.042,-0.07823000144628223,0.0,0.0,0.0,0.0,-0.01193900431548342,-3.4819241323391563,-1.4271628671750087,-2.028547674477068,-0.001038021937119789,0.006584202703960213,0.13658158425205288
7824,0.0,300.01812,23079.199,-0.07824001112097978,0.0,0.0,0.0,0.0,-0.011940531933369164,-3.502389048583886,-1.4587258104400287,-2.054385248052038,-0.01047450431950309,-0.02528396614433318,0.12664785252416988
7825,0.0,300.15767,23031.37,-0.07824998776044723,0.0,0.0,0.0,0.0,-0.011942054509611694,-3.5186696472156567,-1.4220271077181488,-2.060264631757288,-0.01180741962730159,-0.003230048699955987,0.15281965677712586
7826,0.0,300.95717,22892.416,-0.07825999743514478,0.0,0.0,0.0,0.0,-0.011943582127497437,-3.4770974141627966,-1.4561870109894686,-2.025438313895198,0.0032888089984301773,0.014278205678149187,0.13500771300422387
7827,0.0,301.23762999999997,22886.377,-0.07827000710984211,0.0,0.0,0.0,0.0,-0.011945109745383126,-3.5000670846547264,-1.4146444661645385,-2.042175483022028,-0.005470898918860684,0.01184915742542079,0.15705245840737087
7828,0.0,300.19374,23015.35,-0.07827998374930978,0.0,0.0,0.0,0.0,-0.011946632321625711,-3.5120090476833066,-1.4266894767282887,-2.057393080973888,0.0024538966915557477,-0.005250289547463235,0.14612549840146388
7829,0.0,299.84841,22994.736,-0.07828999342400711,0.0,0.0,0.0,0.0,-0.011948159939511399,-3.493342954341107,-1.4496728260965686,-2.046809785004398,-0.00022680813153421977,-0.01053328802405459,0.13807259190670387
7830,0.0,299.95932,22836.894,-0.07830000309870444,0.0,0.0,0.0,0.0,-0.011949687557397115,-3.472715816755367,-1.4262067643806486,-2.042922957620798,0.013114929715342788,-0.003120597930779037,0.13356658765199586
7831,0.0,299.82811,22847.862,-0.078310012773402,0.0,0.0,0.0,0.0,-0.011951215175282859,-3.471606814520917,-1.4539385076925588,-2.0196341133473683,-0.006313395504058624,0.0077003047818609135,0.12527765467894186
7832,0.0,299.6744,22882.326,-0.07831998941286944,0.0,0.0,0.0,0.0,-0.011952737751525389,-3.493308706487727,-1.4298720952923887,-2.032474829214648,0.003877131188093056,-0.005277596738983245,0.13483329213200987
7833,0.0,299.44707,22889.315,-0.07832999908756699,0.0,0.0,0.0,0.0,-0.011954265369411132,-3.4882506633135364,-1.4256342780741487,-2.043895373741768,-0.015473111256077185,-0.0014763260660020387,0.14584270029855384
7834,0.0,299.61487999999997,22845.656000000003,-0.07834000876226432,0.0,0.0,0.0,0.0,-0.01195579298729682,-3.4502023114584564,-1.4372734819728485,-2.057033073213358,-0.004429733373305646,-0.0024714702986401277,0.14898607568628086
7835,0.0,300.22574,22878.792,-0.07834998540173188,0.0,0.0,0.0,0.0,-0.011957315563539406,-3.473055052888847,-1.4218894070295587,-2.059637125970358,0.015871820104176683,-0.003462025825550347,0.15234762408553984
7836,0.0,300.26115,22905.952999999998,-0.07835999507642921,0.0,0.0,0.0,0.0,-0.011958843181425094,-3.4843456987531467,-1.4309606298748185,-2.0475314217256178,0.004900935909084715,-0.005370068172259465,0.12419493615208588
7837,0.0,300.25057000000004,23043.927000000003,-0.07837000475112677,0.0,0.0,0.0,0.0,-0.011960370799310838,-3.509950427455136,-1.4487340498789185,-2.046093822483738,0.0033712677981932266,-0.0006604098578948784,0.14495368479331486
7838,0.0,300.66848,23144.786,-0.07838001442582421,0.0,0.0,0.0,0.0,-0.011961898417196554,-3.5149281198963966,-1.4422230060613286,-2.078285892735848,0.008606122405558152,0.0024048232666875773,0.13252741861443787
7839,0.0,300.46684,23030.167999999998,-0.07838999106529176,0.0,0.0,0.0,0.0,-0.011963420993439111,-3.5005333823507465,-1.4395844014759185,-2.060478326203378,-0.016599724790515285,0.02304604421821748,0.15025128055614687
7840,0.0,300.07634,22931.914,-0.0784000007399891,0.0,0.0,0.0,0.0,-0.011964948611324827,-3.480736197921917,-1.4240730623200686,-2.0659200871904377,0.004070210554273506,-0.006726267055430874,0.12661314870824486
7841,0.0,300.17182,22942.405,-0.07841001041468643,0.0,0.0,0.0,0.0,-0.011966476229210515,-3.498578012307767,-1.4147990881297987,-2.060541147709578,-0.01073347280656129,-0.01145198365122279,0.15539959418174587
7842,0.0,299.95499,22851.351000000002,-0.0784199870541541,0.0,0.0,0.0,0.0,-0.0119679988054531,-3.4750857074142565,-1.4320614247834589,-2.039092872242798,0.012502474745398189,-0.00923074975160407,0.12508956506287888
7843,0.0,299.5399,22877.14,-0.07842999672885143,0.0,0.0,0.0,0.0,-0.011969526423338789,-3.4924039754734366,-1.4068458854448789,-2.054829456895878,0.003918354964436527,0.0037332909131721262,0.15411222953219286
7844,0.0,299.82619,23088.912,-0.07844000640354898,0.0,0.0,0.0,0.0,-0.011971054041224533,-3.512679717924496,-1.4400194910688586,-2.065753610199008,0.0073802520058991634,0.007941949124009353,0.14003172110755485
7845,0.0,299.73588,23109.037999999997,-0.07845001607824631,0.0,0.0,0.0,0.0,-0.011972581659110249,-3.5004137175139367,-1.4439168562534987,-2.0802399455536977,0.0048737165663483755,0.004742291138277696,0.16702430860401582
7846,0.0,300.64485,23092.968999999997,-0.07845999271771398,0.0,0.0,0.0,0.0,-0.011974104235352806,-3.500746772821807,-1.4313718067653987,-2.0875674663018677,0.013216241553091486,-0.0007901884708430303,0.16363171422169284
7847,0.0,300.86978999999997,23271.745,-0.07847000239241131,0.0,0.0,0.0,0.0,-0.011975631853238522,-3.5213676282569266,-1.4698550455633985,-2.082806609382008,0.0025685292217440974,0.01012293581773098,0.13974066501632984
7848,0.0,300.37573,23176.955,-0.07848001206710886,0.0,0.0,0.0,0.0,-0.011977159471124238,-3.523791423821137,-1.4473468091670088,-2.074077358445498,0.007836447395772142,-0.004296716534627906,0.13727430281541886
7849,0.0,300.18518,22901.441000000003,-0.07848998870657631,0.0,0.0,0.0,0.0,-0.011978682047366795,-3.489784825289947,-1.4421527878293987,-2.029528500573868,0.006519561805880655,-0.0013848910862531085,0.1130488810770559
7850,0.0,300.57956,22843.94,-0.07849999838127375,0.0,0.0,0.0,0.0,-0.011980209665252511,-3.478923493493017,-1.4295551506611086,-2.035508601339058,-0.0046308181245511655,0.004215272808815036,0.13022805016250788
7851,0.0,299.86003999999997,22900.77,-0.07851000805597119,0.0,0.0,0.0,0.0,-0.011981737283138227,-3.4801977568187765,-1.4343535991596787,-2.046710891794638,-0.004113305398251637,0.02239924614938348,0.12727927958898688
7852,0.0,299.99811,22886.611,-0.07851998469543853,0.0,0.0,0.0,0.0,-0.011983259859380757,-3.4803570397344963,-1.4343197566063384,-2.042281570307498,-0.01947738344551808,0.01037859107828719,0.13252358852905988
7853,0.0,299.87429,22924.981,-0.07852999437013608,0.0,0.0,0.0,0.0,-0.0119847874772665,-3.4931488156219466,-1.4207539589674987,-2.054719113959988,-0.007647205005070373,0.02093689726056088,0.14248600536727388
7854,0.0,300.3268,23080.936,-0.07854000404483352,0.0,0.0,0.0,0.0,-0.011986315095152217,-3.5062855018434362,-1.4525777128082586,-2.057164897051368,-0.004617555896642285,0.01111042210876329,0.14915094161005185
7855,0.0,300.50077999999996,23156.527000000002,-0.07855001371953096,0.0,0.0,0.0,0.0,-0.011987842713037933,-3.5312155073038363,-1.4478484692915186,-2.0599420129254478,-0.0015387624358390287,-0.0005239063850930346,0.15020362740394386
7856,0.0,300.2303,23314.861,-0.07855999035899841,0.0,0.0,0.0,0.0,-0.01198936528928049,-3.5470689196934466,-1.4496909632733588,-2.090375587629008,-0.008438403169505553,-0.026414448267653077,0.14926678649398487
7857,0.0,299.50391,23216.37,-0.07857000003369596,0.0,0.0,0.0,0.0,-0.011990892907166206,-3.534727634800457,-1.4481818285744186,-2.074287405191228,0.0012915642672424689,-0.007090075010460924,0.15908132961260485
7858,0.0,299.54697999999996,23056.942000000003,-0.0785800097083933,0.0,0.0,0.0,0.0,-0.011992420525051922,-3.508108338773337,-1.4395568410731987,-2.061069456311718,0.021803053843543876,-0.0028447331943283072,0.14712505949261284
7859,0.0,299.4711,23040.557999999997,-0.07858998634786074,0.0,0.0,0.0,0.0,-0.011993943101294452,-3.520369678233436,-1.4414191947569988,-2.0419653349512883,0.00016582067894272684,0.008952303861848601,0.13827380311156187
7860,0.0,300.37695,23149.026,-0.0785999960225583,0.0,0.0,0.0,0.0,-0.011995470719180196,-3.5324122569969467,-1.4602569326661385,-2.044056581832678,0.00928142441560527,0.003875126574095216,0.13950592536566286
7861,0.0,300.29006,22959.926,-0.07861000569725585,0.0,0.0,0.0,0.0,-0.01199699833706594,-3.5235609094233866,-1.4310983305634086,-2.024584954660978,0.0032510558063292266,0.011341945703612888,0.12406644590690487
7862,0.0,300.1571,22804.389,-0.07862001537195318,0.0,0.0,0.0,0.0,-0.011998525954951628,-3.4794367046686667,-1.4198471001279986,-2.032681126935008,0.008054410157908393,0.017929020768956583,0.15458270181862485
7863,0.0,299.95178,23013.245,-0.07862999201142062,0.0,0.0,0.0,0.0,-0.012000048531194185,-3.493580156189517,-1.4510810410855486,-2.050790743322288,-0.01226468419868009,-0.008350492172279412,0.13443910744560686
7864,0.0,300.19352000000003,23224.34,-0.07864000168611818,0.0,0.0,0.0,0.0,-0.012001576149079901,-3.5252652974165968,-1.4494965205791686,-2.084857731559438,-0.016283215856778284,-0.006301455972830284,0.16440103449261884
7865,0.0,299.82635,23177.972999999998,-0.07865001136081551,0.0,0.0,0.0,0.0,-0.012003103766965617,-3.5296897553032567,-1.4620562621937185,-2.0537791218422177,-0.007841017660348192,0.014758528782053386,0.12575403421345688
7866,0.0,299.95641,23171.165,-0.07865998800028295,0.0,0.0,0.0,0.0,-0.012004626343208147,-3.527260690838526,-1.4614526691091487,-2.0547421147372584,0.008376237033470232,0.014465546502388288,0.14446076901716787
7867,0.0,299.21241000000003,23090.27,-0.07866999767498051,0.0,0.0,0.0,0.0,-0.01200615396109389,-3.5250346816938363,-1.4487501605555086,-2.045080775033758,0.018837923333908282,-0.02102795602054768,0.12221297842648189
7868,0.0,299.6874,23050.102000000003,-0.07868000734967795,0.0,0.0,0.0,0.0,-0.012007681578979634,-3.509336296569527,-1.4459017118743884,-2.051417641159158,0.013090410076172886,-0.024691009146062877,0.12647812299991887
7869,0.0,299.90112999999997,23147.439,-0.07868998398914517,0.0,0.0,0.0,0.0,-0.012009204155222136,-3.5269643151842764,-1.4426783606562688,-2.066600788607618,0.013162263693764288,-0.006828833398128384,0.13314577475296485
7870,0.0,300.76001,23020.396,-0.07869999366384273,0.0,0.0,0.0,0.0,-0.01201073177310788,-3.506852921899436,-1.4340143630261988,-2.056758279786238,0.006083651075059615,0.01049711499548459,0.14606027549252687
7871,0.0,300.1087,22837.847,-0.07871000333854028,0.0,0.0,0.0,0.0,-0.012012259390993596,-3.4897214971586967,-1.4265685959913588,-2.025844931160328,-0.00993431130694019,0.009125996916515772,0.14417269188123688
7872,0.0,300.0192,23082.993,-0.07872001301323783,0.0,0.0,0.0,0.0,-0.01201378700887934,-3.5164909568506366,-1.4458799269972384,-2.054282403166888,-0.013484358675302588,0.0015647127841501285,0.14377584234707086
7873,0.0,299.86231000000004,23449.277000000002,-0.07872998965270506,0.0,0.0,0.0,0.0,-0.012015309585121842,-3.5737397901506567,-1.4607375171885686,-2.093517372214078,-0.011433437121392389,0.014654784130814587,0.15812602728582384
7874,0.0,300.69961,23330.186,-0.07873999932740261,0.0,0.0,0.0,0.0,-0.012016837203007585,-3.5224744013411566,-1.4608493799996087,-2.108470106589798,-0.0017461135310029884,0.014141601326167385,0.14174161104880786
7875,0.0,300.45974,23044.142999999996,-0.07875000900210016,0.0,0.0,0.0,0.0,-0.01201836482089333,-3.498759384075667,-1.4461615092000286,-2.059923065148578,0.003813429167556156,-0.011874185716140889,0.15031231874217085
7876,0.0,300.11523,23110.765,-0.07875998564156761,0.0,0.0,0.0,0.0,-0.012019887397135859,-3.514756070029417,-1.4379888365434486,-2.072350678950088,-0.00047508685030242157,-0.004979083836297316,0.14166972095421287
7877,0.0,299.95496,23242.952999999998,-0.07876999531626494,0.0,0.0,0.0,0.0,-0.012021415015021547,-3.547078140269357,-1.4441242685489686,-2.074074825320248,0.025014085966948076,0.013117470946593587,0.14237837794165187
7878,0.0,300.05796000000004,23171.308999999997,-0.0787800049909625,0.0,0.0,0.0,0.0,-0.01202294263290729,-3.535466598098387,-1.4490192797820687,-2.059013470533808,0.014996462197035588,0.004917793958948475,0.13813947654580488
7879,0.0,300.00464,23016.259,-0.07879001466566005,0.0,0.0,0.0,0.0,-0.012024470250793035,-3.5115565301886464,-1.4398457186767086,-2.044965771147408,0.01046490985430619,-0.00920148972316633,0.11608068749627187
7880,0.0,299.92298,22893.762000000002,-0.07879999130512727,0.0,0.0,0.0,0.0,-0.012025992827035537,-3.4805384115023963,-1.4347380262476186,-2.043855451687828,-0.01111098344931869,-0.03200573558522017,0.13259395874850488
7881,0.0,299.61168,23030.825,-0.07881000097982482,0.0,0.0,0.0,0.0,-0.01202752044492128,-3.4952265862770067,-1.4541714538905486,-2.051397781457198,0.017303111864184182,-0.004168696234843286,0.12813453360089389
7882,0.0,299.86211000000003,23326.13,-0.07882001065452238,0.0,0.0,0.0,0.0,-0.012029048062807024,-3.540239816669467,-1.4621769402806286,-2.088144208258788,-0.007317982417028633,0.022116187641197774,0.15343732390558487
7883,0.0,299.91965,23333.231,-0.07882998729398971,0.0,0.0,0.0,0.0,-0.012030570639049554,-3.5376047584594064,-1.4733523796085588,-2.081762455153958,0.0012435374284025886,0.0007352262897061853,0.1384702317759479
7884,0.0,299.83249,23091.051,-0.07883999696868715,0.0,0.0,0.0,0.0,-0.012032098256935242,-3.521123232332807,-1.4518252732839987,-2.0461545161647283,-0.02004799422608298,0.0014140589089317486,0.15516255445335186
7885,0.0,300.32603,23164.549,-0.07885000664338482,0.0,0.0,0.0,0.0,-0.012033625874821013,-3.5275173470888563,-1.4477842292351786,-2.0661429008874284,-0.005738163593762655,0.002488134817734788,0.13619892021928687
7886,0.0,300.75075,23356.022,-0.07886001631808226,0.0,0.0,0.0,0.0,-0.01203515349270673,-3.5474289274539768,-1.4566071044809288,-2.095611354870738,0.0094609564252987,0.010150211598497891,0.15505617332535285
7887,0.0,300.36723,23272.867000000002,-0.0788699929575496,0.0,0.0,0.0,0.0,-0.012036676068949259,-3.5389051636377467,-1.4540721553807487,-2.081393226817518,-0.006950398686825943,-0.015284913222253485,0.14327006842715487
7888,0.0,300.27634,23133.677000000003,-0.07888000263224693,0.0,0.0,0.0,0.0,-0.012038203686834975,-3.512233685230476,-1.4487471208052087,-2.071079252724608,0.0014386515021088486,-0.007264613014386484,0.13830884130001989
7889,0.0,299.23902999999996,23122.056,-0.07889001230694448,0.0,0.0,0.0,0.0,-0.012039731304720719,-3.5446560672303167,-1.4282605210083386,-2.055611078023018,0.003520263489622957,-0.004881152808832275,0.13412378401448685
7890,0.0,299.32512,23273.03,-0.07889998894641193,0.0,0.0,0.0,0.0,-0.012041253880963249,-3.5421991383878364,-1.4566481411099785,-2.075572611618068,0.02104239787422298,0.01928465415724718,0.13474151193795186
7891,0.0,299.37946,23268.694,-0.07890999862110926,0.0,0.0,0.0,0.0,-0.012042781498848937,-3.536010004127017,-1.4668040481872886,-2.0702879043965083,-0.0008140742714128752,-0.00903572808630693,0.11424927847052589
7892,0.0,299.92462,23196.397,-0.07892000829580703,0.0,0.0,0.0,0.0,-0.012044309116734708,-3.516862414337297,-1.4508551876382587,-2.0834079733163584,0.004062324226095186,-0.008720320150128592,0.14253422593953285
7893,0.0,300.1955,23019.377,-0.07892998493527426,0.0,0.0,0.0,0.0,-0.01204583169297721,-3.524437978709947,-1.4408822735290088,-2.031995663242358,0.007341368837286691,0.007913594231885942,0.13995056990704588
7894,0.0,300.16449,23071.997000000003,-0.07893999460997181,0.0,0.0,0.0,0.0,-0.012047359310862954,-3.5152999826830964,-1.4452926472392786,-2.052718147662508,0.0028204933135110174,0.01878570751650498,0.15147512455693085
7895,0.0,299.58887000000004,23275.735,-0.07895000428466914,0.0,0.0,0.0,0.0,-0.01204888692874867,-3.561600648652617,-1.4429933801123587,-2.070648216132068,-0.015371566370805485,-0.005446752459702615,0.14566038620806085
7896,0.0,300.50383999999997,23398.744,-0.07896001395936691,0.0,0.0,0.0,0.0,-0.012050414546634441,-3.5487015695795763,-1.4735008207482088,-2.090431519034528,-0.02398509603989468,-0.0024634597459995476,0.15265335203821287
7897,0.0,301.14059,23263.98,-0.07896999059883414,0.0,0.0,0.0,0.0,-0.012051937122876943,-3.5398448517804866,-1.4604775172129087,-2.071346548100988,0.002362253894211308,0.01201983737826559,0.1139691350828779
7898,0.0,300.94545,23237.929,-0.07898000027353169,0.0,0.0,0.0,0.0,-0.01205346474076266,-3.5256021017498362,-1.4590223887442986,-2.079125775743738,0.003032540417588437,0.020327667465684582,0.13772386161978686
7899,0.0,300.6998,23333.232000000004,-0.07899000994822925,0.0,0.0,0.0,0.0,-0.012054992358648403,-3.5505221773592566,-1.4771453800328986,-2.065052339804798,0.011913737933794388,-0.014666920840512385,0.12110128094676588
7900,0.0,299.9229,23280.78,-0.07899998658769658,0.0,0.0,0.0,0.0,-0.012056514934890933,-3.549317321665347,-1.4442132319077485,-2.083245144025288,0.002100053848609178,-0.023755448984230276,0.15508496989319487
7901,0.0,299.88293999999996,23147.653,-0.07900999626239391,0.0,0.0,0.0,0.0,-0.012058042552776649,-3.550497859356857,-1.4435578617430684,-2.042252895329668,0.016952334812065185,-0.02057472621106738,0.13316784334014287
7902,0.0,300.13375,23073.831000000002,-0.07902000593709146,0.0,0.0,0.0,0.0,-0.012059570170662393,-3.522175999186707,-1.4250224776637688,-2.066669892264438,0.011783624461953187,0.007223877928566242,0.15594973832354087
7903,0.0,299.60558,23115.898999999998,-0.07903001561178902,0.0,0.0,0.0,0.0,-0.012061097788548136,-3.513070021863017,-1.4477302230048488,-2.065855745809088,-0.01148588699956879,-0.001036183901438389,0.13664824597613187
7904,0.0,298.91706,23438.612,-0.07903999225125624,0.0,0.0,0.0,0.0,-0.012062620364790638,-3.546473229959657,-1.4742086772680685,-2.1040708786306284,-0.021969621014232776,0.015027716909620185,0.15369853978136486
7905,0.0,299.98229,23649.889,-0.0790500019259538,0.0,0.0,0.0,0.0,-0.012064147982676354,-3.5807036554379366,-1.4814503757327686,-2.126821687100958,0.0014238848004514886,0.020494911487440284,0.16049826868494585
7906,0.0,300.37163,23304.401,-0.07906001160065135,0.0,0.0,0.0,0.0,-0.012065675600562098,-3.552110244240987,-1.4485086017316686,-2.083337248459378,-0.007998688191184062,0.01768410403428518,0.15984964676593186
7907,0.0,300.09735,23190.609,-0.0790699882401188,0.0,0.0,0.0,0.0,-0.012067198176804628,-3.532564345836957,-1.4627185224590786,-2.0540831981972283,-0.0037101682419150963,-0.012694578858357387,0.15067218464768686
7908,0.0,300.20187999999996,23473.621,-0.07907999791481612,0.0,0.0,0.0,0.0,-0.012068725794690344,-3.5627627451923067,-1.4585810170007385,-2.114050885490578,-0.016402665884567083,-0.015480526220308986,0.14800648575460285
7909,0.0,300.18546000000003,23464.92,-0.07909000758951368,0.0,0.0,0.0,0.0,-0.012070253412576087,-3.5578770558601267,-1.4790387391697586,-2.095833864592698,0.019158728448069283,0.023599502701089577,0.12223753960890588
7910,0.0,300.33979,23217.398999999998,-0.07909998422898112,0.0,0.0,0.0,0.0,-0.012071775988818617,-3.527369513899267,-1.4606800659078987,-2.069459876414788,0.003158068223452067,0.03105305858944827,0.13137803836350287
7911,0.0,300.48916,23057.252,-0.07910999390367868,0.0,0.0,0.0,0.0,-0.012073303606704361,-3.5238911276309763,-1.4328654387378088,-2.052072504698788,0.006980777444699093,0.01869876964467488,0.13973464631073587
7912,0.0,299.17427000000004,23191.078999999998,-0.07912000357837601,0.0,0.0,0.0,0.0,-0.012074831224590049,-3.556586783182787,-1.4410332477939087,-2.051888903780668,-0.01164103889463109,-0.004023891953777216,0.14800466190442285
7913,0.0,300.05877999999996,23501.892000000003,-0.07913001325307356,0.0,0.0,0.0,0.0,-0.012076358842475793,-3.5819378953847463,-1.4567356859186185,-2.105314845778398,0.022320525735864377,-0.013025136504730887,0.16358049442913786
7914,0.0,299.76183,23522.35,-0.07913998989254101,0.0,0.0,0.0,0.0,-0.012077881418718323,-3.5585560347521366,-1.4815512954427288,-2.110099818050638,-0.0008292358467667062,-0.0012262034549668588,0.16181542288743883
7915,0.0,299.59262,23268.067000000003,-0.07914999956723834,0.0,0.0,0.0,0.0,-0.012079409036604039,-3.5184396394429567,-1.4650604474152087,-2.089411378833848,0.0032122455917239575,-0.013492801075135787,0.13728720148919188
7916,0.0,299.57262000000003,23134.376,-0.07916000924193589,0.0,0.0,0.0,0.0,-0.012080936654489782,-3.510379437547477,-1.4405408082453086,-2.081352392838488,-0.012771743932972989,0.016754836155573584,0.14995318237672686
7917,0.0,299.93664,23402.773999999998,-0.07916998588140323,0.0,0.0,0.0,0.0,-0.012082459230732312,-3.5680746075165466,-1.4777430962668885,-2.068041224949778,-0.016437973597551683,0.02020261112509248,0.13826233312042985
7918,0.0,299.73109,23479.597,-0.07917999555610078,0.0,0.0,0.0,0.0,-0.012083986848618056,-3.587454636879207,-1.4419008938545386,-2.107855671729158,-0.003020974471671967,0.005321395690455865,0.16565335082121285
7919,0.0,300.63335,23176.186,-0.07919000523079822,0.0,0.0,0.0,0.0,-0.012085514466503744,-3.5433731912787065,-1.4462094359297586,-2.0553991061020978,-0.01992144435484348,-0.022586664993880276,0.14330773093337185
7920,0.0,300.27759,23028.548,-0.07920001490549566,0.0,0.0,0.0,0.0,-0.012087042084389488,-3.5002668975744466,-1.4280890790914187,-2.0717474911655582,-0.0022694053292478676,-0.017255409062726282,0.13907818183594786
7921,0.0,300.45447,23463.416,-0.07920999154496311,0.0,0.0,0.0,0.0,-0.012088564660632017,-3.5652591907886864,-1.4547802145506286,-2.112253278488168,0.015508303458550384,0.008538585132067742,0.14607448125892886
7922,0.0,300.22727000000003,23674.159,-0.07922000121966066,0.0,0.0,0.0,0.0,-0.012090092278517761,-3.565431544630697,-1.5096544962412985,-2.1212671513777677,0.02700653387083737,0.024881967273158976,0.13890227148608686
7923,0.0,299.76667000000003,23428.722999999998,-0.079230010894358,0.0,0.0,0.0,0.0,-0.012091619896403477,-3.581287084845517,-1.4655926063677287,-2.074867186898448,0.011823967014684687,0.004566278652806615,0.14863820666194885
7924,0.0,299.72625,23401.982000000004,-0.07923998753382566,0.0,0.0,0.0,0.0,-0.012093142472646035,-3.577157482737957,-1.4588736436296186,-2.0775871554668877,-0.007729065784624403,0.005402867989921556,0.15536440400577284
7925,0.0,299.90267,23381.332000000002,-0.079249997208523,0.0,0.0,0.0,0.0,-0.01209467009053175,-3.568984202131317,-1.4737218105950187,-2.064635184738628,0.00979571693176199,-0.0016469542417667286,0.14792129168619486
7926,0.0,299.80749,23335.655,-0.07926000688322032,0.0,0.0,0.0,0.0,-0.012096197708417439,-3.5361228801881563,-1.4474582666780087,-2.109875281828478,0.0023127150835722077,-0.02021580060164418,0.15226041364943285
7927,0.0,300.36623,23403.017999999996,-0.07926998352268799,0.0,0.0,0.0,0.0,-0.012097720284660024,-3.545547929968337,-1.4691663394704286,-2.099218930526778,-0.010395872058742688,-0.02221664024286168,0.13492301542836485
7928,0.0,300.79193,23308.189,-0.07927999319738532,0.0,0.0,0.0,0.0,-0.012099247902545712,-3.527227861535287,-1.4603915936044287,-2.097488096705958,-0.004374717337925985,0.004566592253712565,0.13916606101712087
7929,0.0,300.8647,23166.552000000003,-0.07929000287208288,0.0,0.0,0.0,0.0,-0.012100775520431456,-3.5523625435158865,-1.4218958918301987,-2.067794903850468,-0.004307381093255416,0.017691224142737882,0.13833492235759387
7930,0.0,300.90044,23446.726000000002,-0.07930001254678021,0.0,0.0,0.0,0.0,-0.012102303138317172,-3.5736959164213267,-1.4774273675357286,-2.076096056619728,-0.0018056635566051184,0.014050267975403485,0.14237131558845487
7931,0.0,300.05895,23561.327999999998,-0.07930998918624776,0.0,0.0,0.0,0.0,-0.01210382571455973,-3.581611527527537,-1.4650896290180886,-2.1153543304192177,0.003448239139389707,-0.023265932662168774,0.15072476219537587
7932,0.0,299.73491,23384.953999999998,-0.0793199988609452,0.0,0.0,0.0,0.0,-0.012105353332445445,-3.5394268861142364,-1.4722818808779088,-2.096733326706468,0.01178711916154809,-0.016166338470993386,0.14869876862042586
7933,0.0,300.12537000000003,23380.165,-0.07933000853564276,0.0,0.0,0.0,0.0,-0.012106880950331161,-3.5400371666494665,-1.4763885835332087,-2.090560607097268,0.024308124224775077,-0.016290647033011686,0.14506976272477087
7934,0.0,300.33598,23486.245,-0.0793399851751101,0.0,0.0,0.0,0.0,-0.012108403526573719,-3.5606483962086366,-1.4603599802013087,-2.118223753377408,0.005563520718451744,-4.8222558229195955e-05,0.15948509964495386
7935,0.0,300.28208,23439.327999999998,-0.07934999484980765,0.0,0.0,0.0,0.0,-0.012109931144459435,-3.5768783323354065,-1.4787662762178686,-2.069325924751568,-0.015383234958957088,-0.0036539247553642965,0.15956697025303385
7936,0.0,300.06001000000003,23383.28,-0.07936000452450498,0.0,0.0,0.0,0.0,-0.01211145876234515,-3.568224365881327,-1.4496737380216587,-2.0900352369204183,-0.024042672963577077,0.012989859189249288,0.15837432422282885
7937,0.0,299.80983,23422.006,-0.07937001419920242,0.0,0.0,0.0,0.0,-0.012112986380230867,-3.5674503441299366,-1.4563021162008287,-2.095952617504418,-0.0027722213694719475,0.03723003587556847,0.16206299028437185
7938,0.0,299.27772999999996,23375.892000000003,-0.07937999083866998,0.0,0.0,0.0,0.0,-0.012114508956473424,-3.535556878682297,-1.4769141563600785,-2.0932164369343784,0.006663779516463834,0.006255818073751174,0.13122080221298488
7939,0.0,299.14886,23407.368,-0.07939000051336731,0.0,0.0,0.0,0.0,-0.01211603657435914,-3.5291953905794666,-1.4635172675129087,-2.1225427319286583,0.015691541633134586,-0.019588001985435283,0.14982201715128188
7940,0.0,300.05916,23520.291,-0.07940001018806486,0.0,0.0,0.0,0.0,-0.012117564192244856,-3.5569131510399967,-1.4925629935544986,-2.100105017739228,0.004449658733872126,-0.024229734130788577,0.12741615954499588
7941,0.0,300.53798,23459.502999999997,-0.07940998682753231,0.0,0.0,0.0,0.0,-0.012119086768487414,-3.5935993907856467,-1.4464634577298285,-2.091040279694608,0.016922075111078783,-0.001080112954223849,0.16976106672661284
7942,0.0,299.93688,23358.311,-0.07941999650222986,0.0,0.0,0.0,0.0,-0.01212061438637313,-3.565765106563617,-1.4577419445929285,-2.0768361344927677,-0.01724805692000068,0.007340972859147612,0.14796718178322385
7943,0.0,300.18523999999996,23468.534,-0.07943000617692719,0.0,0.0,0.0,0.0,-0.012122142004258846,-3.5614067125834765,-1.4735106492741785,-2.098930964848358,-0.016571464231976182,-0.006044515404522224,0.15878573416093186
7944,0.0,300.42427999999995,23475.658,-0.07944001585162475,0.0,0.0,0.0,0.0,-0.01212366962214459,-3.540342762879626,-1.4670133856579486,-2.128657696282158,-0.015867600930760287,0.0004620751282157645,0.15237610654585085
7945,0.0,300.29105,23464.127,-0.07944999249109219,0.0,0.0,0.0,0.0,-0.01212519219838712,-3.550175645825057,-1.4754871962442486,-2.1068458666794982,0.01039532287718849,0.01984223758127638,0.15253124526866185
7946,0.0,300.06827999999996,23446.066000000003,-0.07946000216578974,0.0,0.0,0.0,0.0,-0.012126719816272863,-3.573068410634397,-1.4635210165382788,-2.090429188559298,0.01938328392198118,0.0013238351683523587,0.14290777072139885
7947,0.0,300.10228,23473.147,-0.07947001184048708,0.0,0.0,0.0,0.0,-0.012128247434158551,-3.597155594661617,-1.4618530042236588,-2.076241863309118,-0.006797638163324654,-0.01994844747000848,0.16081953989415285
7948,0.0,299.73798999999997,23406.667,-0.07947998847995463,0.0,0.0,0.0,0.0,-0.012129770010401136,-3.566539128315007,-1.4756520520355185,-2.072851021849468,-0.017402006087194284,-0.0037830033948783666,0.1281149677414629
7949,0.0,300.0859,23553.405,-0.07948999815465196,0.0,0.0,0.0,0.0,-0.012131297628286825,-3.5816661417079265,-1.4650647030656285,-2.112916146703588,-0.002132928038828608,0.012406037653880589,0.14554823968699285
7950,0.0,299.63319,23561.986,-0.0795000078293494,0.0,0.0,0.0,0.0,-0.01213282524617254,-3.561471661914887,-1.4786098304024287,-2.122173807567248,0.0015478748979633585,-0.0029046051294872076,0.1303099815655939
7951,0.0,299.83043,23453.216,-0.07950998446881696,0.0,0.0,0.0,0.0,-0.012134347822415098,-3.5637897754936665,-1.4604876497139088,-2.104914510663888,0.0052689809720579345,-0.03467197758035776,0.15521512186853986
7952,0.0,300.01223,23410.955,-0.0795199941435143,0.0,0.0,0.0,0.0,-0.012135875440300814,-3.5606377570825862,-1.4609690448364185,-2.094738946534638,0.009292762380249241,-0.031036135286278074,0.15008707324494083
7953,0.0,300.50581,23550.61,-0.07953000381821185,0.0,0.0,0.0,0.0,-0.012137403058186558,-3.6121275807892363,-1.4655643366899385,-2.081105463789118,0.007707425802238701,0.008611276403516811,0.17008644159872482
7954,0.0,300.2189,23551.612,-0.07954001349290918,0.0,0.0,0.0,0.0,-0.012138930676072246,-3.5965022509971365,-1.4598230589733185,-2.102776654277898,0.009186588157920662,0.004142148879573266,0.14646649759011787
7955,0.0,299.86846,23473.117000000002,-0.07954999013237685,0.0,0.0,0.0,0.0,-0.012140453252314831,-3.5728865322414465,-1.4754148501871087,-2.086940163164958,-0.011248285930619389,0.023786479768542777,0.14486678846473885
7956,0.0,300.03282,23501.802000000003,-0.07955999980707418,0.0,0.0,0.0,0.0,-0.01214198087020052,-3.544948389884167,-1.5033013167892884,-2.0957113626556083,-0.0036288046641851364,0.02404451302575868,0.1201896902292989
7957,0.0,299.71387999999996,23536.596,-0.07957000948177173,0.0,0.0,0.0,0.0,-0.012143508488086263,-3.5797724785960363,-1.4693884438923486,-2.105376451384478,-0.00993970372264738,0.034776232909646966,0.14663805096454885
7958,0.0,299.51751,23547.376,-0.07957998612123918,0.0,0.0,0.0,0.0,-0.012145031064328793,-3.5881410124969464,-1.4902743655536288,-2.079399049295708,-0.007167744075676263,-0.0051671602801090155,0.13567349937993187
7959,0.0,300.20786,23577.402000000002,-0.07958999579593673,0.0,0.0,0.0,0.0,-0.012146558682214537,-3.6094998179798963,-1.4630049682623487,-2.094436795354818,-0.02087024465573278,-0.043261202419298254,0.16449430416432384
7960,0.0,300.65966000000003,23434.246,-0.07960000547063406,0.0,0.0,0.0,0.0,-0.012148086300100253,-3.5648324098465665,-1.4670573607122885,-2.0915358603185177,0.001008598339718406,-0.016402448035795585,0.14452197945570885
7961,0.0,300.56727,23409.36,-0.07961001514533139,0.0,0.0,0.0,0.0,-0.01214961391798594,-3.550592496916197,-1.4690606574849987,-2.0962078552046077,0.012562529065575088,0.013081242189268087,0.14615510556938585
7962,0.0,300.63897000000003,23607.66,-0.07961999178479895,0.0,0.0,0.0,0.0,-0.012151136494228526,-3.5769929309217163,-1.4733530888836288,-2.125793136924448,0.012840435197002288,0.01994615549828228,0.14729890281226987
7963,0.0,300.35646,23641.66,-0.07963000145949639,0.0,0.0,0.0,0.0,-0.012152664112114214,-3.5892582220572065,-1.4869882941543184,-2.110227791538268,-0.00971931199737141,-0.0035899932336797467,0.15992248931562086
7964,0.0,300.1887,23445.411,-0.07964001113419394,0.0,0.0,0.0,0.0,-0.012154191729999958,-3.5764721203703167,-1.4740386539012884,-2.076308636490708,0.010821719797520592,5.2459631721862545e-05,0.13981414591358185
7965,0.0,300.0995,23453.697,-0.07964998777366128,0.0,0.0,0.0,0.0,-0.012155714306242488,-3.587387458397577,-1.4611710869063586,-2.080779805206978,-0.006473535528038214,0.017644506220377183,0.15292976666549285
7966,0.0,299.86429,23666.714,-0.07965999744835883,0.0,0.0,0.0,0.0,-0.012157241924128231,-3.5978306218782365,-1.5022099451065787,-2.094049429841588,-0.00019135701326296683,-0.005777297136474834,0.14127598209785386
7967,0.0,300.23612,23716.771,-0.07967000712305616,0.0,0.0,0.0,0.0,-0.012158769542013947,-3.5989931237179666,-1.4832494012853186,-2.127063752549848,-0.02058442808077488,-0.0012595874113115989,0.14919156280656085
7968,0.0,299.97749,23554.702,-0.07967998376252361,0.0,0.0,0.0,0.0,-0.012160292118256477,-3.5592550759961266,-1.4938485039563685,-2.106937667138558,0.009526420791734531,0.014294347765492287,0.1366755530663269
7969,0.0,299.8796,23454.561,-0.07968999343722116,0.0,0.0,0.0,0.0,-0.012161819736142221,-3.577634824860067,-1.4633048902919485,-2.088661269784818,0.012771151181664487,0.02924245158825527,0.16358435491201884
7970,0.0,299.6569,23525.427000000003,-0.07970000311191872,0.0,0.0,0.0,0.0,-0.012163347354027937,-3.594114324486467,-1.4657206811803687,-2.091307473745978,-0.0009480407483493371,-0.005297215591394474,0.15328818362336585
7971,0.0,299.77502000000004,23637.141,-0.07971001278661605,0.0,0.0,0.0,0.0,-0.012164874971913653,-3.599961993463586,-1.4925570153789087,-2.092581534421718,-0.008407525487283162,-0.02202367588056758,0.14642482261350487
7972,0.0,300.1137,23665.246,-0.07971998942608349,0.0,0.0,0.0,0.0,-0.012166397548156183,-3.5802090880641266,-1.4940088001221885,-2.1194259746210578,0.010666311550182989,-0.012215802987355888,0.12821916024924587
7973,0.0,299.94977,23635.894,-0.07972999910078105,0.0,0.0,0.0,0.0,-0.012167925166041926,-3.581404723182126,-1.4893665947890384,-2.113950168430638,0.017098076653448785,0.012070293180245188,0.14216013400261285
7974,0.0,299.87036,23581.507999999998,-0.07974000877547838,0.0,0.0,0.0,0.0,-0.012169452783927642,-3.573790047355617,-1.4920473505786087,-2.102352305136018,0.00966663251672235,-0.003108796100239287,0.1125368148740189
7975,0.0,300.05758,23669.042,-0.07974998541494582,0.0,0.0,0.0,0.0,-0.012170975360170172,-3.6221939165577064,-1.4668789273696787,-2.1057250094188777,-0.016291089823305384,-0.01149243056871459,0.16427948501062284
7976,0.0,300.54433,23686.65,-0.07975999508964338,0.0,0.0,0.0,0.0,-0.012172502978055888,-3.6165840573790566,-1.4983083242715185,-2.085257864023928,0.009314212884866242,0.006151031193459514,0.14804643820604585
7977,0.0,300.08576,23518.867000000002,-0.07977000476434093,0.0,0.0,0.0,0.0,-0.012174030595941632,-3.594390232488697,-1.4736030576832986,-2.081155214369028,0.013833928946552486,0.016852322974194783,0.15866284718880386
7978,0.0,300.24958,23590.027000000002,-0.07978001443903826,0.0,0.0,0.0,0.0,-0.012175558213827348,-3.592817769658507,-1.4684045780452486,-2.1095569186470584,-0.0057378312477298545,-0.006576794021879034,0.14066831574788186
7979,0.0,299.9191,23730.037,-0.0797899910785057,0.0,0.0,0.0,0.0,-0.012177080790069877,-3.5879765620057165,-1.4929306006907788,-2.132431444954598,-0.008295520415929122,-0.008705043175720871,0.13996686296865385
7980,0.0,299.89754,23604.824,-0.07980000075320315,0.0,0.0,0.0,0.0,-0.012178608407955621,-3.574559306831537,-1.4716631903668485,-2.1290546876713377,-0.005750672470222184,0.011908001924978288,0.13873322083940287
7981,0.0,299.84152,23572.305,-0.0798100104279007,0.0,0.0,0.0,0.0,-0.012180136025841365,-3.5932043245716563,-1.4737044840183087,-2.098483412279188,0.003418262439156237,0.025599368608960976,0.15127790555746684
7982,0.0,300.06374,23669.048,-0.07981998706736793,0.0,0.0,0.0,0.0,-0.012181658602083867,-3.613649482439436,-1.4679483115252185,-2.113201883231788,-0.01741688161191238,-0.003984945761008526,0.15778711539237583
7983,0.0,299.5818,23570.121,-0.0798299967420657,0.0,0.0,0.0,0.0,-0.012183186219969638,-3.597452578265927,-1.4653545939192385,-2.101920964568448,-0.0046050262485557054,-0.012422897122294487,0.16031850798470484
7984,0.0,300.00865,23445.5,-0.07984000641676303,0.0,0.0,0.0,0.0,-0.012184713837855327,-3.5665704377430965,-1.4705808366100286,-2.089695291511868,0.026804148309113478,-0.018899349594720585,0.13812022479390487
7985,0.0,299.42876,23615.868,-0.07985001609146036,0.0,0.0,0.0,0.0,-0.012186241455741043,-3.5790115277709362,-1.4785290743694588,-2.1210934803106283,0.03348859670906717,0.004940719147761016,0.14894958855017984
7986,0.0,299.07054,23628.131,-0.07985999273092781,0.0,0.0,0.0,0.0,-0.012187764031983572,-3.598373419956807,-1.4700201040046885,-2.113968406932438,0.006623431086881754,-0.01714409239349018,0.13732897779081488
7987,0.0,299.59482,23641.904,-0.07987000240562536,0.0,0.0,0.0,0.0,-0.012189291649869316,-3.6073564900433666,-1.4859318796000587,-2.093260209338698,-0.00989064620580578,-0.001262230879497489,0.15414822017574484
7988,0.0,299.46797999999995,23696.787999999997,-0.07988001208032292,0.0,0.0,0.0,0.0,-0.01219081926775506,-3.6128666454121765,-1.4805491910938287,-2.1098160066976277,-0.012459922294198589,0.025148697255983177,0.15519154353871287
7989,0.0,299.2244,23712.722,-0.07988998871979014,0.0,0.0,0.0,0.0,-0.012192341843997562,-3.5946746517917667,-1.5007573497632185,-2.1126434811016783,-0.0043657033637113755,0.02958223183703897,0.15586281159746185
7990,0.0,300.11975,23683.402000000002,-0.07989999839448791,0.0,0.0,0.0,0.0,-0.012193869461883305,-3.5874566633794065,-1.4969932269667285,-2.114712943105918,-0.026187345482989774,0.0032424355811034766,0.14021153247030085
7991,0.0,300.70555,23688.822,-0.07991000806918525,0.0,0.0,0.0,0.0,-0.012195397079769021,-3.5956866859916468,-1.4617261453111385,-2.143397344161848,-0.02288030284636008,-0.019188415662749182,0.14772226910155284
7992,0.0,300.0431,23686.602000000003,-0.07991998470865269,0.0,0.0,0.0,0.0,-0.012196919656011551,-3.601365142202067,-1.4911778806677987,-2.107592429353178,0.0034297239189873966,-0.011614896028800989,0.14360867634557287
7993,0.0,300.212,23528.811,-0.07992999438335024,0.0,0.0,0.0,0.0,-0.012198447273897295,-3.5965153219234267,-1.4532457485991885,-2.1024100603917177,0.013437439116171988,-0.006158228004944785,0.16152004021828684
7994,0.0,299.92742000000004,23595.048,-0.07994000405804769,0.0,0.0,0.0,0.0,-0.012199974891783039,-3.597717847142107,-1.4768015842739686,-2.097786093560368,0.006159325152153064,-0.0043757646332293456,0.15824840763290185
7995,0.0,299.67129,23734.697999999997,-0.07995001373274513,0.0,0.0,0.0,0.0,-0.012201502509668755,-3.620769894867167,-1.4772493394931587,-2.1167364035556178,-0.015627594406073485,-0.01136846752498039,0.15853237097342684
7996,0.0,299.39218999999997,23748.061,-0.07995999037221246,0.0,0.0,0.0,0.0,-0.012203025085911284,-3.596974020243697,-1.4809679673601588,-2.140875567312968,0.017856248133524485,0.018115712099881585,0.16014486731506786
7997,0.0,299.40432999999996,23701.749,-0.07997000004691002,0.0,0.0,0.0,0.0,-0.012204552703797,-3.580879049030247,-1.4946046925059986,-2.129256223116228,0.014293987048456688,0.01104290722810009,0.13978651458335487
7998,0.0,299.86647,23826.504,-0.07998000972160746,0.0,0.0,0.0,0.0,-0.012206080321682716,-3.6076293582952963,-1.4966763836604586,-2.138356424914348,0.003822046251706596,-0.0011855030223000388,0.15687315366967486
7999,0.0,300.75057000000004,23831.664,-0.0799899863610748,0.0,0.0,0.0,0.0,-0.012207602897925246,-3.626825786739836,-1.4989967263894588,-2.1184082662206176,-0.024538522098763577,-0.029591867845489974,0.14657469243579585
8000,0.0,300.35772000000003,23603.382,-0.07999999603577235,0.0,0.0,0.0,0.0,-0.01220913051581099,-3.6027531935140567,-1.4710823954095287,-2.101003162627868,-0.011363758951765689,0.0071220647346680625,0.15282264586492084
8001,0.0,300.1501,23608.827,-0.0800100057104699,0.0,0.0,0.0,0.0,-0.012210658133696733,-3.5978242384026062,-1.4711558560417786,-2.107513598495398,-0.002231085932991038,0.02048667781712768,0.15242299976047885
8002,0.0,300.12742000000003,23632.979,-0.08002001538516723,0.0,0.0,0.0,0.0,-0.01221218575158245,-3.571299985234867,-1.4836389959487686,-2.128896418005718,0.008077238783986402,0.01003333269283784,0.14634572831069886
8003,0.0,300.42574,23649.426,-0.08002999202463468,0.0,0.0,0.0,0.0,-0.01221370832782498,-3.5807096336135262,-1.4835181152118384,-2.124607330332418,-0.014470331069360486,-0.01063570734416259,0.13569640896469287
8004,0.0,299.70477,23655.349,-0.08004000169933223,0.0,0.0,0.0,0.0,-0.012215235945710695,-3.5990001151436566,-1.4674221307482886,-2.1242130747185084,0.009266358501193383,-0.0005143182425767585,0.14141718863178984
8005,0.0,299.56857,23715.988999999998,-0.08005001137402978,0.0,0.0,0.0,0.0,-0.012216763563596439,-3.610022351056467,-1.4891508738427486,-2.109895040205428,0.01172757551942159,-0.016825668417064184,0.15225760694665585
8006,0.0,299.70808,23729.958,-0.08005998801349701,0.0,0.0,0.0,0.0,-0.01221828613983894,-3.612340160660217,-1.4843848493473788,-2.116589786266148,0.007469731514280103,-0.005399410679255345,0.14501042679891485
8007,0.0,300.83316,23744.278,-0.08006999768819456,0.0,0.0,0.0,0.0,-0.012219813757724685,-3.604029787315046,-1.4877180368763383,-2.125919691861938,-0.005545260127799564,-0.006850761548842524,0.16082011744670985
8008,0.0,300.13,23802.439,-0.08008000736289211,0.0,0.0,0.0,0.0,-0.012221341375610428,-3.5914280971463564,-1.5095842780093685,-2.134334733942438,-0.009879150376796231,0.02611914767175918,0.14922000473686786
8009,0.0,299.83786000000003,23800.264,-0.08008998400235945,0.0,0.0,0.0,0.0,-0.012222863951852958,-3.6097884929333866,-1.4849214666003385,-2.1399761051991977,0.009563023134371901,-0.004462501577564616,0.15384188427301188
8010,0.0,299.91457,23806.922000000002,-0.08009999367705689,0.0,0.0,0.0,0.0,-0.012224391569738674,-3.6203602378517363,-1.5032011063543986,-2.113148484951518,-0.0006034027658037165,-0.012307223477628387,0.14552770110746585
8011,0.0,299.98055,23729.751,-0.08011000335175444,0.0,0.0,0.0,0.0,-0.01222591918762439,-3.6249467144293863,-1.4849837814814886,-2.103321377531658,0.004161355541843816,-0.022556597810412877,0.15332726467972285
8012,0.0,299.77535,23616.051,-0.08012001302645189,0.0,0.0,0.0,0.0,-0.012227446805510134,-3.6073650013442067,-1.4643014217652988,-2.107023388097018,-0.0012303141092975488,0.007493195346845803,0.16224809081263983
8013,0.0,299.45387999999997,23676.353,-0.08012998966591922,0.0,0.0,0.0,0.0,-0.012228969381752636,-3.5890753304141563,-1.4820969306215788,-2.125847751104838,0.004289681336533586,0.014903466102857588,0.14851635320492285
8014,0.0,299.30335,23777.333,-0.08013999934061666,0.0,0.0,0.0,0.0,-0.01223049699963838,-3.6003771220295566,-1.4718996829401885,-2.1554388083502483,-0.008057550118643283,0.013079784122374188,0.16517342491134784
8015,0.0,299.82111000000003,23845.21,-0.08015000901531422,0.0,0.0,0.0,0.0,-0.012232024617524123,-3.6057663966614366,-1.5029005763747385,-2.139681350745108,0.005595095719392954,0.008339314909101303,0.14289372707501286
8016,0.0,300.13965,23752.741,-0.08015998565478166,0.0,0.0,0.0,0.0,-0.012233547193766653,-3.6253501906192067,-1.4905414582799885,-2.104348711808048,-0.007167585400710603,0.006729725987297244,0.14669101354727584
8017,0.0,300.36657,23868.745,-0.080169995329479,0.0,0.0,0.0,0.0,-0.012235074811652369,-3.621013581516217,-1.5080931791622088,-2.1263958180839277,0.02141345512709348,-0.0030739255033478273,0.15072001005240687
8018,0.0,300.56347,23903.798,-0.08018000500417655,0.0,0.0,0.0,0.0,-0.012236602429538085,-3.6414716076602667,-1.5008497581723383,-2.123836348331328,0.0028985033373850077,-0.00985245660688676,0.15659215915194286
8019,0.0,300.20089,23840.455,-0.0801900146788741,0.0,0.0,0.0,0.0,-0.012238130047423829,-3.595107613559496,-1.5069799212773385,-2.144815489001808,0.02187408774180438,-0.010700409442548188,0.15175785173233386
8020,0.0,300.79607999999996,23821.47,-0.08019999131834155,0.0,0.0,0.0,0.0,-0.012239652623666358,-3.606618134695497,-1.4980297818190287,-2.136484040054558,0.00046959031301495557,0.01784274049644138,0.15378828334272188
8021,0.0,300.4158,23767.963,-0.08021000099303888,0.0,0.0,0.0,0.0,-0.012241180241552074,-3.6027432636630765,-1.4878508739644485,-2.134273229661368,0.0036364926993188865,0.0028455766237115475,0.13960714905065286
8022,0.0,299.64712000000003,23762.775,-0.08022001066773643,0.0,0.0,0.0,0.0,-0.012242707859437818,-3.627080213839947,-1.4757067675409186,-2.1205033634523875,-0.018452460704366083,-0.014367462879458186,0.15013123068429887
8023,0.0,299.82136,23872.596,-0.08022998730720388,0.0,0.0,0.0,0.0,-0.012244230435680348,-3.6382449127168166,-1.4936989482416085,-2.124729325644458,-0.005946041376328594,-0.016798179955101286,0.14019598921376686
8024,0.0,299.73174,23899.843999999997,-0.08023999698190121,0.0,0.0,0.0,0.0,-0.012245758053566064,-3.6272681717334962,-1.4856667120488884,-2.152020811787918,0.002944372460136937,0.006846580574954894,0.18333664222891782
8025,0.0,300.09701,23716.947999999997,-0.08025000665659876,0.0,0.0,0.0,0.0,-0.01224728567145178,-3.5884020257227065,-1.4769823480918087,-2.1439756059939183,0.011087197403221189,0.0009455053635516141,0.15497543755738485
8026,0.0,300.26165,23835.384,-0.08026001633129631,0.0,0.0,0.0,0.0,-0.012248813289337523,-3.609302335535406,-1.4984630475617884,-2.1375963860143377,-0.00864562112360637,0.005357060270125684,0.17037113447932184
8027,0.0,300.1649,24007.104,-0.08026999297076365,0.0,0.0,0.0,0.0,-0.012250335865580053,-3.656947280412597,-1.4983793531035288,-2.142233322446968,-0.008417497084167282,-0.014104014813707886,0.1420568534199199
8028,0.0,300.3958,23983.743,-0.08028000264546109,0.0,0.0,0.0,0.0,-0.01225186348346577,-3.6612747702646864,-1.5023925327745984,-2.126791593572988,0.002033186536084888,0.02375814625599648,0.17005752344087083
8029,0.0,300.9047,23799.076,-0.08029001232015864,0.0,0.0,0.0,0.0,-0.012253391101351513,-3.6237949530407167,-1.5062166399770087,-2.104313349379558,0.006234869431908704,0.0026186051562612075,0.12745493662632287
8030,0.0,300.85879,23778.747000000003,-0.08029998895962598,0.0,0.0,0.0,0.0,-0.012254913677594043,-3.6175129037457263,-1.4698553495384288,-2.140777079403248,0.017330883022924983,0.0020782883245360883,0.17547135925517482
8031,0.0,300.67343999999997,23827.966,-0.08030999863432353,0.0,0.0,0.0,0.0,-0.012256441295479786,-3.5885531013126166,-1.5106032023099285,-2.143950477391438,-0.013189561664708388,-0.016790036464047586,0.12873876503302686
8032,0.0,300.39837,23890.882,-0.08032000830902086,0.0,0.0,0.0,0.0,-0.012257968913365475,-3.6203088660716665,-1.4912662360765185,-2.150656369203258,0.00875977600769758,0.004484966244206706,0.16686981836126885
8033,0.0,300.19201,23854.923,-0.08032998494848853,0.0,0.0,0.0,0.0,-0.01225949148960806,-3.6177390611680464,-1.5115293129013285,-2.122032661828318,-0.02113562397617368,-0.00994317298966477,0.11694785732935489
8034,0.0,299.83307,23814.141,-0.08033999462318586,0.0,0.0,0.0,0.0,-0.012261019107493748,-3.6345916394812665,-1.4875199464817883,-2.116792537611158,-0.004481628193077266,0.005772180831419895,0.15401811886290487
8035,0.0,299.34379,23764.9,-0.08035000429788319,0.0,0.0,0.0,0.0,-0.012262546725379464,-3.619588343925557,-1.4864886605300085,-2.117859185991428,-0.006846480364520004,-0.001055592099153829,0.1274485632831939
8036,0.0,300.05865,23920.083,-0.08036001397258075,0.0,0.0,0.0,0.0,-0.012264074343265208,-3.6229484839071766,-1.4949141390865384,-2.153245324533768,0.01081070880868389,0.029069039913140873,0.17549327585483784
8037,0.0,299.9127,24082.338,-0.08036999061204819,0.0,0.0,0.0,0.0,-0.012265596919507737,-3.6232741424893167,-1.5209642925324884,-2.1761910823233377,-0.002194578025262988,0.007142171770977473,0.15146899439382586
8038,0.0,300.06928999999997,23988.815,-0.08038000028674575,0.0,0.0,0.0,0.0,-0.012267124537393481,-3.6441415216737667,-1.5075591963595087,-2.140300243906188,-0.003005848674179167,-0.014440260846142788,0.17449201250352084
8039,0.0,300.14061,23766.48,-0.08039000996144308,0.0,0.0,0.0,0.0,-0.01226865215527917,-3.627312248112847,-1.4983076149964487,-2.0987965065600878,-0.005550481810864905,-0.01096437730559979,0.13043883658081087
8040,0.0,299.88417000000004,23907.803,-0.08039998660091074,0.0,0.0,0.0,0.0,-0.012270174731521755,-3.6564327520118165,-1.4945162357722686,-2.116426045049988,-0.014088876857213887,0.01874720097295468,0.15735364699959584
8041,0.0,300.74884,23995.69,-0.08040999627560808,0.0,0.0,0.0,0.0,-0.012271702349407443,-3.642857227172017,-1.5072687988808484,-2.1439645615678278,0.001993525090070608,0.013185149973772986,0.14932598056482685
8042,0.0,300.45145,23843.391,-0.08042000595030563,0.0,0.0,0.0,0.0,-0.012273229967293187,-3.6098176745362665,-1.4911881144938086,-2.146789806821658,-0.006948649715828333,-0.002498957747352928,0.16160966218963183
8043,0.0,299.87647000000004,23786.535,-0.08043001562500296,0.0,0.0,0.0,0.0,-0.012274757585178903,-3.5970606531272464,-1.4742339071955586,-2.1592180285732274,0.01270231704937109,-0.004201283269984376,0.15544332605606184
8044,0.0,299.58275,23876.574,-0.08043999226447052,0.0,0.0,0.0,0.0,-0.01227628016142146,-3.6399204230821764,-1.4858947946463985,-2.1320668775686182,0.007551487219798763,-0.014623217337199186,0.14961441233829287
8045,0.0,299.69557000000003,23880.515,-0.08045000193916796,0.0,0.0,0.0,0.0,-0.012277807779307176,-3.6264780393055167,-1.4947385428442086,-2.137863681390718,0.01101046093339789,-0.01976484959163878,0.1371134392295429
8046,0.0,299.80387,24050.333,-0.08046001161386529,0.0,0.0,0.0,0.0,-0.012279335397192864,-3.677027566919367,-1.5068213476366885,-2.126851881953938,-0.0005215964383100605,-0.018326509663935682,0.15513776022340486
8047,0.0,299.8234,24057.987,-0.08046998825333285,0.0,0.0,0.0,0.0,-0.01228085797343545,-3.628777205107426,-1.5279704103489384,-2.1562796032832274,0.019756221767037282,0.006399843773440404,0.15097895624796284
8048,0.0,299.93557000000004,23830.632999999998,-0.08047999792803018,0.0,0.0,0.0,0.0,-0.012282385591321138,-3.6281875948742366,-1.4790123946671587,-2.136717594202608,0.009729009814078511,0.021991387652880976,0.16462271334949682
8049,0.0,300.55021,23869.107999999997,-0.08049000760272773,0.0,0.0,0.0,0.0,-0.012283913209206881,-3.5984022975846566,-1.5178644565015587,-2.139345964962008,-0.002376590572526228,0.014781434313813986,0.14503344784118685
8050,0.0,300.54376,23961.137000000002,-0.08049998424219518,0.0,0.0,0.0,0.0,-0.012285435785449411,-3.668907481942976,-1.4828098533919385,-2.1318700030741877,-0.015999685174045982,-0.012803614701618386,0.17137767686365984
8051,0.0,300.55539,23886.683999999997,-0.08050999391689273,0.0,0.0,0.0,0.0,-0.012286963403335155,-3.631525443353657,-1.5066851668232486,-2.122744672673588,0.007197268157090062,-0.008059111638372392,0.12205990673387489
8052,0.0,300.58172,23762.464,-0.08052000359159006,0.0,0.0,0.0,0.0,-0.012288491021220871,-3.6413304619213362,-1.4813644521242884,-2.100500691903278,0.014629484289067685,-0.000889594334491125,0.15254638322515585
8053,0.0,299.57214,23852.827,-0.08053001326628761,0.0,0.0,0.0,0.0,-0.012290018639106587,-3.601918984706726,-1.4887840773065486,-2.159960538246508,0.0014490797708130386,0.003569298107012297,0.13917631510813286
8054,0.0,299.48283,24001.057999999997,-0.08053998990575506,0.0,0.0,0.0,0.0,-0.012291541215349144,-3.6303623335638666,-1.5048509814922286,-2.160509010525638,-0.014188728601568485,-0.014087290107557287,0.16994233716950283
8055,0.0,299.55109,24016.304,-0.08054999958045261,0.0,0.0,0.0,0.0,-0.01229306883323486,-3.6443620048955263,-1.4924737262206886,-2.163520896447888,-0.003188540402984437,-0.0068627796069536135,0.15984242229271883
8056,0.0,299.81964,24042.001,-0.08056000925514994,0.0,0.0,0.0,0.0,-0.012294596451120576,-3.6842200214292067,-1.4904851215744286,-2.133462832231388,-0.002327074053389328,0.0036879474645720766,0.16605931960627884
8057,0.0,299.7618,23942.525,-0.0805699858946175,0.0,0.0,0.0,0.0,-0.012296119027363134,-3.6577908111208464,-1.5058971622204786,-2.114241781809418,0.01005342260522056,0.005156594209391224,0.14513429662363986
8058,0.0,299.88122000000004,23979.103,-0.08057999556931494,0.0,0.0,0.0,0.0,-0.01229764664524885,-3.6663450737650862,-1.4947414812694986,-2.127961897438488,-0.004612490760717396,0.006055924296673194,0.15643423399135686
8059,0.0,300.19372000000004,24114.917,-0.08059000524401227,0.0,0.0,0.0,0.0,-0.012299174263134566,-3.6376668535347663,-1.5226027179441886,-2.1700628443935277,0.007373890923096373,0.016419227457451585,0.15150044567692986
8060,0.0,300.02391,24091.259,-0.08060001491870983,0.0,0.0,0.0,0.0,-0.012300701881020282,-3.6451528465985765,-1.5093803107642385,-2.168608121224958,0.017371161740900185,0.009437157004299881,0.16503669694285383
8061,0.0,300.01302000000004,23772.096,-0.08060999155817716,0.0,0.0,0.0,0.0,-0.012302224457262811,-3.6099721951765167,-1.4778958943819687,-2.1382553025543682,-0.015235207225347885,-0.004135132426605796,0.14625033081378386
8062,0.0,299.92869,23806.946,-0.08062000123287472,0.0,0.0,0.0,0.0,-0.012303752075148555,-3.6341414524618365,-1.4985590023462585,-2.104016568425268,-0.015735357607208882,-0.016364381242788686,0.14456166846212587
8063,0.0,299.60326000000003,24075.199,-0.08063001090757216,0.0,0.0,0.0,0.0,-0.012305279693034271,-3.6581587222321565,-1.5102978087297885,-2.149803009969038,-0.015851137643135484,-0.008072327256776674,0.12697389614134788
8064,0.0,300.08847000000003,24127.744,-0.08063998754703972,0.0,0.0,0.0,0.0,-0.012306802269276829,-3.6678834913919167,-1.5108743480366886,-2.155474069453728,0.017793418521323684,0.01285682249086959,0.15239966461067586
8065,0.0,300.28647,23926.157000000003,-0.08064999722173705,0.0,0.0,0.0,0.0,-0.012308329887162545,-3.6030791560712263,-1.5042902488868883,-2.165584785576578,-0.0015190346590420484,0.0032344657611169166,0.14034022536550186
8066,0.0,299.50851,23903.772999999997,-0.0806600068964346,0.0,0.0,0.0,0.0,-0.012309857505048288,-3.634997344821307,-1.4744219664141187,-2.156730702227748,0.01210542661421259,0.004387191257257066,0.18787554671437282
8067,0.0,299.94178,24150.835,-0.08066998353590205,0.0,0.0,0.0,0.0,-0.012311380081290818,-3.6596230712766764,-1.5247651963076085,-2.156862424740748,-0.006528113332749624,0.0020572515299349184,0.15753804838529487
8068,0.0,299.66603,24181.731,-0.0806799932105996,0.0,0.0,0.0,0.0,-0.012312907699176562,-3.709893651137997,-1.5069563125500085,-2.1337924424889185,0.02043501219452868,0.005765578595093306,0.17771083449369385
8069,0.0,299.02386,24071.61,-0.08069000288529693,0.0,0.0,0.0,0.0,-0.01231443531706225,-3.657470117464196,-1.5196220401250187,-2.140076315634088,-0.008796764905248102,0.012317518098644387,0.13912177185524988
8070,0.0,299.04145,24021.673,-0.08070001255999426,0.0,0.0,0.0,0.0,-0.012315962934947966,-3.654992214344646,-1.5129107780876685,-2.134085575742848,0.004112089599456646,-0.015236163733442287,0.16374862301823084
8071,0.0,299.50034,23996.053,-0.08070998919946193,0.0,0.0,0.0,0.0,-0.012317485511190523,-3.6092041516007165,-1.5053008645366286,-2.179696015744248,-0.00991870462094993,0.004807887125901516,0.13493620794466687
8072,0.0,299.94703,24104.701,-0.08071999887415926,0.0,0.0,0.0,0.0,-0.01231901312907624,-3.659973959786307,-1.5144066392102986,-2.1528465092944082,0.0011048669581418791,-0.017330267980114285,0.16569518791784185
8073,0.0,300.6604,24092.132999999998,-0.08073000854885681,0.0,0.0,0.0,0.0,-0.012320540746961983,-3.654048270551486,-1.4990813327728088,-2.1702771467896778,0.006290177283317165,-0.002731682854171107,0.17113962388516582
8074,0.0,299.73097,23906.16,-0.08073998518832415,0.0,0.0,0.0,0.0,-0.012322063323204513,-3.6597259161618263,-1.4949673347167884,-2.112182452306178,-0.00918891417485022,-0.008451485038896632,0.15947170447863185
8075,0.0,299.79956,23959.593999999997,-0.0807499948630217,0.0,0.0,0.0,0.0,-0.012323590941090229,-3.6409735952361166,-1.5080742313853386,-2.134070376991348,0.014467207219302185,0.01049392021791929,0.15044352449761988
8076,0.0,299.83996,24198.091,-0.08076000453771914,0.0,0.0,0.0,0.0,-0.012325118558975945,-3.679002796664307,-1.5258265757873586,-2.150785963891048,0.0068924974217865346,0.013806626922607985,0.13546542847189685
8077,0.0,300.21207999999996,24178.48,-0.0807700142124167,0.0,0.0,0.0,0.0,-0.012326646176861689,-3.644502238709367,-1.5231291013711385,-2.182022640623868,-0.008438246926340133,0.016049307071193283,0.16308488340772484
8078,0.0,300.30342,24019.301,-0.08077999085188403,0.0,0.0,0.0,0.0,-0.012328168753104218,-3.6706641536413467,-1.5012348945353486,-2.129368491227308,-0.01013694714143879,-0.02131830182345258,0.14206866791608586
8079,0.0,300.24287000000004,23975.671000000002,-0.08079000052658158,0.0,0.0,0.0,0.0,-0.012329696370989962,-3.654902035085746,-1.4969508731125485,-2.136152301971818,-0.01073266625948169,-0.006837677348976213,0.16431591135171786
8080,0.0,300.37732,24052.737999999998,-0.08080001020127892,0.0,0.0,0.0,0.0,-0.012331223988875678,-3.6812957816406064,-1.5142202011918986,-2.115915873624638,0.007921641464180142,0.003403627561336887,0.13207656284994188
8081,0.0,301.18589,24192.599,-0.08080998684074658,0.0,0.0,0.0,0.0,-0.012332746565118236,-3.6690009036021967,-1.5086638416185287,-2.1762814642322583,0.013699235584259287,0.01358064276605509,0.15780065241371186
8082,0.0,300.49025,24122.023999999998,-0.08081999651544391,0.0,0.0,0.0,0.0,-0.012334274183003924,-3.6541594240874566,-1.5178052826957185,-2.160528262277538,-0.00030595623792052965,0.014301642152962186,0.14471257179951885
8083,0.0,300.44385,24093.859,-0.08083000619014125,0.0,0.0,0.0,0.0,-0.01233580180088964,-3.616922989537507,-1.5115210042505087,-2.1954875185527483,-0.004011079304937707,0.00892801200130118,0.15868628366361684
8084,0.0,300.25798,24005.549,-0.0808400158648388,0.0,0.0,0.0,0.0,-0.012337329418775383,-3.6687149644239767,-1.4871346074687586,-2.141238006873738,-0.014216302176539786,0.0021782168732482677,0.16746784870278983
8085,0.0,299.83513999999997,24053.097,-0.08084999250430625,0.0,0.0,0.0,0.0,-0.012338851995017913,-3.6511327447137467,-1.5045544031879585,-2.155853835591208,-0.01033663847114679,0.007024735172462384,0.17750005820789183
8086,0.0,299.71936,24203.542999999998,-0.0808600021790038,0.0,0.0,0.0,0.0,-0.012340379612903657,-3.711440782715686,-1.4982713406428687,-2.1475606874977378,-0.015169793825392087,-0.012645045113968788,0.17488285346459384
8087,0.0,300.4784,24220.898999999998,-0.08087001185370113,0.0,0.0,0.0,0.0,-0.012341907230789373,-3.665338713765767,-1.5274900284765285,-2.169719859234678,0.005073727880437955,0.015603913737986384,0.15144645971160187
8088,0.0,299.61225,23984.342,-0.08087998849316869,0.0,0.0,0.0,0.0,-0.01234342980703193,-3.637882067856007,-1.5055831560144883,-2.1471758551097584,0.012115761765232588,1.5376966993838484e-05,0.13499577691804587
8089,0.0,300.33042,24047.467999999997,-0.08088999816786613,0.0,0.0,0.0,0.0,-0.012344957424917619,-3.640277593742426,-1.4899970390012587,-2.179555072655338,0.025495874230496873,0.00990933337475006,0.16225260990808585
8090,0.0,300.57944,24090.032000000003,-0.08090000784256368,0.0,0.0,0.0,0.0,-0.012346485042803362,-3.6746584868605567,-1.5104610433208985,-2.137648669719498,0.008789440728225262,-0.02000520974061048,0.14560903469299286
8091,0.0,300.93122,24068.159,-0.08090998448203102,0.0,0.0,0.0,0.0,-0.012348007619045892,-3.659405627805217,-1.4971145130036987,-2.1595992132608477,0.0045315706825562055,-0.001016002897871679,0.15365997548255886
8092,0.0,300.43757,23987.357000000004,-0.08091999415672857,0.0,0.0,0.0,0.0,-0.012349535236931636,-3.6575089249430266,-1.5062407553293884,-2.1278079847482982,0.0003295282957294107,-0.012358005546140187,0.13513151190144188
8093,0.0,301.01265,23982.415,-0.0809300038314259,0.0,0.0,0.0,0.0,-0.012351062854817352,-3.6335665343550967,-1.5040950969176285,-2.152393586499708,-0.0089424854683796,0.003872701258655856,0.15548949986311886
8094,0.0,300.33014,24082.194,-0.08094001350612334,0.0,0.0,0.0,0.0,-0.012352590472703068,-3.6402377730134963,-1.5014007635767184,-2.1787470057005875,-0.011951214001992987,-0.014401076438275588,0.13575108394008886
8095,0.0,299.60346,24252.57,-0.0809499901455909,0.0,0.0,0.0,0.0,-0.012354113048945625,-3.664410576674167,-1.5229341520518986,-2.1848309646010278,-0.017439791196673382,-0.007814633742319303,0.17268379677256385
8096,0.0,299.90078,24207.206000000002,-0.08095999982028823,0.0,0.0,0.0,0.0,-0.012355640666831313,-3.6846196472686463,-1.5096855016943587,-2.164081223753188,-0.004398599744107996,0.004078312198098076,0.17499005532517384
8097,0.0,299.68773,24106.047000000002,-0.08097000949498578,0.0,0.0,0.0,0.0,-0.012357168284717057,-3.6704743718976167,-1.4983681060274185,-2.158793679431348,-0.012488284177747689,0.005805228084756405,0.18430243169423383
8098,0.0,299.66029,24230.576,-0.08097998613445323,0.0,0.0,0.0,0.0,-0.012358690860959587,-3.6857055474008167,-1.5199986651871884,-2.159785752604258,0.02004415806120438,0.019208490173730382,0.16444007501897184
8099,0.0,299.97142,24454.263,-0.08098999580915078,0.0,0.0,0.0,0.0,-0.01236021847884533,-3.685496817880217,-1.5230100444843884,-2.2249785680132876,-0.0011699984719198589,0.02201955701891108,0.15989435136034386
8100,0.0,300.38022,24228.729,-0.08100000548384811,0.0,0.0,0.0,0.0,-0.012361746096731047,-3.665703281151747,-1.5184952046888087,-2.180730240121318,0.03474631264744407,0.005276057105456295,0.14292061873266684
8101,0.0,300.13366,23918.427000000003,-0.08101001515854567,0.0,0.0,0.0,0.0,-0.01236327371461679,-3.6502108897727665,-1.4723884747884286,-2.148005098991598,-0.008912751644195102,-0.015150318145219988,0.15516798547388785
8102,0.0,300.77845,24011.659,-0.08101999179801311,0.0,0.0,0.0,0.0,-0.01236479629085932,-3.6808589695224967,-1.4886959245478486,-2.129389870804418,0.0016300438068727985,-0.028299707483213674,0.16507981073460884
8103,0.0,300.05528,24246.322999999997,-0.08103000147271067,0.0,0.0,0.0,0.0,-0.012366323908745036,-3.686178025922447,-1.5272699505548086,-2.156828784837428,-0.007775920597073612,-0.024693258561284875,0.15392105963582584
8104,0.0,299.98219,24334.012000000002,-0.081040011147408,0.0,0.0,0.0,0.0,-0.012367851526630752,-3.702443223152696,-1.5207160462579885,-2.173772656984658,0.0014353987666378284,0.013367608959030289,0.16756729920010485
8105,0.0,299.51162,24185.692000000003,-0.08104998778687544,0.0,0.0,0.0,0.0,-0.012369374102873282,-3.6373630811547866,-1.5152516897936987,-2.1992315789972583,-0.000979774140546179,0.0007802907196261984,0.15737388160409285
8106,0.0,299.34989,24145.407000000003,-0.08105999746157289,0.0,0.0,0.0,0.0,-0.012370901720759025,-3.647748286729726,-1.5276896387462284,-2.164162993036258,-0.009794975435338811,0.0027806435043031476,0.15258321486629087
8107,0.0,299.77089,24254.085,-0.08107000713627033,0.0,0.0,0.0,0.0,-0.012372429338644741,-3.6779672550621068,-1.5178020402953987,-2.1768668188150277,-0.01011565774358769,0.017230333149251483,0.16020234899324085
8108,0.0,299.67297,24387.627,-0.08107998377573766,0.0,0.0,0.0,0.0,-0.012373951914887271,-3.7115333937748263,-1.5486501356148685,-2.153046018239098,-0.008638963867799351,0.008148416867736133,0.15391930671315285
8109,0.0,299.66827,24214.37,-0.08108999345043522,0.0,0.0,0.0,0.0,-0.012375479532773015,-3.6799115806789966,-1.5112103417698486,-2.1694419247322476,-0.010648373983662689,0.023490469897578876,0.17773740191131582
8110,0.0,300.26545,23979.797000000002,-0.08110000312513277,0.0,0.0,0.0,0.0,-0.012377007150658731,-3.6532764779503166,-1.5035256503614285,-2.132457384157158,0.0009685464985730971,-0.008596524900610952,0.14510182195793486
8111,0.0,299.83634,24082.476000000002,-0.0811100127998301,0.0,0.0,0.0,0.0,-0.012378534768544447,-3.6284153734967166,-1.5249836530291685,-2.167072135398368,0.025376665356231873,0.0019979133749286984,0.14719858091986887
8112,0.0,299.9507,24309.732000000004,-0.08111998943929755,0.0,0.0,0.0,0.0,-0.012380057344786977,-3.696992950864797,-1.5090070294273985,-2.1835514323747476,0.00920144402558682,-0.01960896207700388,0.14726820133423985
8113,0.0,300.3972,24285.632999999998,-0.0811299991139951,0.0,0.0,0.0,0.0,-0.01238158496267272,-3.6959393734108166,-1.5193184703950586,-2.1669681759381083,0.018601566536081682,-0.02237490686873138,0.16689725717397683
8114,0.0,300.01114,24165.224,-0.08114000878869265,0.0,0.0,0.0,0.0,-0.012383112580558464,-3.688913801192447,-1.5110377852778185,-2.145673103886448,-0.004912642899415105,-0.0054121646609140645,0.15206498810264585
8115,0.0,299.75655,24292.548,-0.08114998542815988,0.0,0.0,0.0,0.0,-0.012384635156800966,-3.692256614597357,-1.5202960540915385,-2.171775439712548,0.0024355063035657576,0.014659463319776385,0.17296259253757884
8116,0.0,300.17226,24335.599,-0.08115999510285743,0.0,0.0,0.0,0.0,-0.01238616277468671,-3.6950770975757163,-1.5322511893714186,-2.1700861491458276,-0.002512815057045538,0.016992734106802285,0.16509342881595285
8117,0.0,299.43793,24354.941000000003,-0.08117000477755498,0.0,0.0,0.0,0.0,-0.012387690392572426,-3.671123763886707,-1.5158880108564985,-2.216282045055008,0.004128197438946366,0.003613290589254017,0.17338510769677784
8118,0.0,298.8864,24329.771,-0.08118001445225231,0.0,0.0,0.0,0.0,-0.012389218010458142,-3.692452881141726,-1.5346798485361086,-2.1685100386152776,-0.005515620637199375,-0.014490077287309286,0.15280410338809086
8119,0.0,298.25124,24173.692000000003,-0.08118999109171976,0.0,0.0,0.0,0.0,-0.012390740586700671,-3.6695140134528366,-1.5238917747214087,-2.154792861411498,0.000988805877035042,-0.004127754446002646,0.16408939929186286
8120,0.0,298.84032,24163.972,-0.08120000076641731,0.0,0.0,0.0,0.0,-0.012392268204586415,-3.6937686877215863,-1.5065585105607486,-2.144916814011808,0.007216182699356784,0.011211641740752887,0.15543497687523786
8121,0.0,299.50709,24303.178,-0.08121001044111487,0.0,0.0,0.0,0.0,-0.012393795822472159,-3.6832923909626567,-1.5269205819203286,-2.177346390087358,0.012744120708746788,1.7821853358879985e-06,0.16406368300432483
8122,0.0,300.03396000000004,24286.359,-0.08121998708058209,0.0,0.0,0.0,0.0,-0.012395318398714661,-3.6772056962869466,-1.5156276055807985,-2.189613505073028,-0.0030984791877210873,0.012847842055233288,0.14817991364171887
8123,0.0,300.28876,24136.373,-0.08122999675527964,0.0,0.0,0.0,0.0,-0.012396846016600405,-3.6466899470002763,-1.5092018774216287,-2.1809627810192684,0.0024823716538160076,0.004112932623539846,0.14419273396821486
8124,0.0,300.02005,24123.987999999998,-0.0812400064299772,0.0,0.0,0.0,0.0,-0.01239837363448612,-3.685554167835876,-1.5104718850969685,-2.1370637204367684,-0.0077357998447890024,-0.013368231094591686,0.13651986718846187
8125,0.0,300.79663,24435.013,-0.08125001610467464,0.0,0.0,0.0,0.0,-0.012399901252371864,-3.707665311518076,-1.5213514553956986,-2.198617144136618,-0.004274480963833426,-0.016523730019765183,0.17488782852258483
8126,0.0,300.58144,24444.786,-0.08125999274414186,0.0,0.0,0.0,0.0,-0.012401423828614366,-3.7272608591770067,-1.5424381019017883,-2.160905697939788,0.0006890740142138104,-0.007240282042385203,0.15881481443880185
8127,0.0,300.0743,24213.415,-0.08127000241883942,0.0,0.0,0.0,0.0,-0.01240295144650011,-3.6851572777717068,-1.5114628436947684,-2.163653328235958,0.006156193297418974,0.01100833716118829,0.17974958488740284
8128,0.0,299.7176,24199.73,-0.08128001209353697,0.0,0.0,0.0,0.0,-0.012404479064385854,-3.6709287132424566,-1.5021315195488383,-2.183053419950598,0.008687679210082181,0.02185546623146658,0.16084075735124687
8129,0.0,299.62778,24324.162999999997,-0.08128998873300441,0.0,0.0,0.0,0.0,-0.012406001640628384,-3.6751613628851865,-1.5198899434514586,-2.198886972638248,-0.006320270405987124,-0.005511683755260835,0.16037318296010084
8130,0.0,299.34038,24338.94,-0.08129999840770175,0.0,0.0,0.0,0.0,-0.0124075292585141,-3.698229521286837,-1.5156510116581088,-2.184549483723248,0.005090918681634555,-0.0026955906829590876,0.15802476307082983
8131,0.0,299.74341,24302.13,-0.0813100080823993,0.0,0.0,0.0,0.0,-0.012409056876399815,-3.6796752907556765,-1.5332783209977885,-2.1742871853854377,0.005482783734583625,-0.003598220520516716,0.15293052660306786
8132,0.0,299.32436,24156.795,-0.08131998472186674,0.0,0.0,0.0,0.0,-0.012410579452642373,-3.6954328496858264,-1.4929620114438786,-2.154667522374128,0.01207918546312279,0.02088366819305758,0.15963504039475185
8133,0.0,300.20991000000004,24187.694,-0.08132999439656408,0.0,0.0,0.0,0.0,-0.012412107070528061,-3.677181074309517,-1.4945912162796684,-2.180682820016638,-0.0075840300772354935,-0.015473933001908287,0.15031961414289086
8134,0.0,300.30744,24431.202,-0.08134000407126163,0.0,0.0,0.0,0.0,-0.012413634688413805,-3.6873354615116765,-1.5548825356549587,-2.184257262394408,0.0027133116166080076,-0.003770881681282046,0.14056594709027886
8135,0.0,300.11557,24460.103,-0.08135001374595918,0.0,0.0,0.0,0.0,-0.012415162306299549,-3.689802320205136,-1.5334140965111884,-2.212044025186748,-0.0007795181468224513,-0.008859566450421132,0.13235967506038288
8136,0.0,300.74244,24294.629,-0.08135999038542663,0.0,0.0,0.0,0.0,-0.012416684882542078,-3.6973015868452563,-1.5246862641248184,-2.1629726268187777,0.008838487301965781,0.005746855658420495,0.15334298018877388
8137,0.0,300.55161,24244.822,-0.08137000006012396,0.0,0.0,0.0,0.0,-0.012418212500427794,-3.6910333177516264,-1.5284644710976987,-2.1503226046203183,-0.007614423527235093,-0.014139234373933787,0.15986850335029285
8138,0.0,300.05555,24404.9,-0.08138000973482162,0.0,0.0,0.0,0.0,-0.012419740118313538,-3.720016222287017,-1.5192392342372383,-2.179224550472718,-0.0029021792060977872,0.0050548231666972055,0.17773303480338484
8139,0.0,300.12652,24392.627999999997,-0.08138998637428896,0.0,0.0,0.0,0.0,-0.012421262694556068,-3.6871954303478565,-1.5376459355538383,-2.1899083608521277,0.01059946440133569,0.008207278997845372,0.16079439102667084
8140,0.0,299.63806,24205.862,-0.0813999960489864,0.0,0.0,0.0,0.0,-0.012422790312441784,-3.656423835410936,-1.5095623918072087,-2.191991400407708,0.008354622584987053,0.017298665722745382,0.16072318994214385
8141,0.0,299.68506,24174.142999999996,-0.08141000572368384,0.0,0.0,0.0,0.0,-0.0124243179303275,-3.664416554849757,-1.5134927889451086,-2.1704264998544183,0.004633365536627576,-0.012412231651741887,0.14542853432017885
8142,0.0,300.21516,24418.167999999998,-0.0814200153983814,0.0,0.0,0.0,0.0,-0.012425845548213243,-3.7038348208400365,-1.5474058644920685,-2.1712727663379376,0.004170546530850896,-0.0008221221825846422,0.14636133236223886
8143,0.0,299.81012000000004,24542.588,-0.08142999203784873,0.0,0.0,0.0,0.0,-0.012427368124455773,-3.7262525740024963,-1.5479504864208185,-2.186130863154318,0.020725688316966178,0.004110695265994036,0.15569374068577585
8144,0.0,299.53904,24472.467999999997,-0.08144000171254617,0.0,0.0,0.0,0.0,-0.01242889574234149,-3.738497701460996,-1.5233645806943785,-2.177157013643668,0.0032753764431794866,0.017669479795591882,0.17089829810884885
8145,0.0,300.32108999999997,24359.028,-0.08145001138724384,0.0,0.0,0.0,0.0,-0.012430423360227233,-3.701921804651236,-1.5172570130666085,-2.1853575506779976,0.003421258822351957,-0.006661549049018704,0.16984509555740585
8146,0.0,300.1353,24275.765,-0.08145998802671106,0.0,0.0,0.0,0.0,-0.012431945936469735,-3.6833055632139566,-1.5193554540237086,-2.1765651742602583,-0.007917571846478502,-0.018080529016659283,0.15625255824842685
8147,0.0,300.16927000000004,24488.3,-0.08146999770140861,0.0,0.0,0.0,0.0,-0.012433473554355479,-3.712621928357257,-1.5535117095946684,-2.1776980891970683,0.01001754899205511,-0.0054426121171439945,0.15020945359201887
8148,0.0,300.15526,24601.452999999998,-0.08148000737610595,0.0,0.0,0.0,0.0,-0.012435001172241195,-3.7518371390274963,-1.5371601834558986,-2.189230091235188,0.0024076637106929077,-0.01108569576657299,0.16272714532741883
8149,0.0,299.83752999999996,24351.352000000003,-0.08148998401557361,0.0,0.0,0.0,0.0,-0.012436523748483752,-3.719769597212676,-1.5224114163253086,-2.160021839877558,0.002430400637636868,-0.004332276952187446,0.15910325634476885
8150,0.0,299.72107,24163.566000000003,-0.08149999369027094,0.0,0.0,0.0,0.0,-0.012438051366369468,-3.687112039864626,-1.5202893666408785,-2.137719293251468,-0.01986758605902808,0.018644982276366483,0.14892672962792386
8151,0.0,300.4075,24435.881,-0.0815100033649685,0.0,0.0,0.0,0.0,-0.012439578984255212,-3.6871393976173263,-1.5364316566339986,-2.2043266058000976,0.013076116157012188,0.02105731190244488,0.15451836043727485
8152,0.0,300.49111,24598.722,-0.08152001303966605,0.0,0.0,0.0,0.0,-0.012441106602140928,-3.7134467139386564,-1.5538910704321087,-2.210059473540888,-0.01062445418855199,0.024431074018409275,0.14460642371904286
8153,0.0,300.13128,24491.096,-0.08152998967913339,0.0,0.0,0.0,0.0,-0.012442629178383457,-3.729952760717676,-1.5365976270003785,-2.178131253614818,-0.0036831240901210463,-0.011716716518099888,0.14837448805842188
8154,0.0,299.90112,24314.202999999998,-0.08153999935383083,0.0,0.0,0.0,0.0,-0.012444156796269173,-3.725071124385896,-1.5240675736137586,-2.1417718883514274,-0.010439918040589689,0.003151757093879207,0.14514225063692487
8155,0.0,299.21837,24288.231,-0.08155000902852838,0.0,0.0,0.0,0.0,-0.012445684414154917,-3.7219553803283962,-1.5175015103157383,-2.143558856227788,0.018621170899016482,-0.005036204493459685,0.16094707768423985
8156,0.0,299.87113,24482.394,-0.08155998566799572,0.0,0.0,0.0,0.0,-0.012447206990397447,-3.746543413880046,-1.5023802724483886,-2.193112966943398,0.005486992066223955,-0.002514270894789218,0.18245160879657182
8157,0.0,299.88649,24611.865,-0.08156999534269316,0.0,0.0,0.0,0.0,-0.012448734608283163,-3.723878832993226,-1.5324673156177484,-2.2250463544449777,-0.00927154705098045,-0.018104562295781182,0.17519357674025984
8158,0.0,299.60716,24390.996,-0.0815800050173906,0.0,0.0,0.0,0.0,-0.012450262226168907,-3.7049365276737665,-1.5152908012475588,-2.194026310583538,-0.016220263641315385,0.002968384157031707,0.16236453351413185
8159,0.0,299.77089,24298.482999999997,-0.08159001469208815,0.0,0.0,0.0,0.0,-0.012451789844054623,-3.6940466222240165,-1.5208892107000784,-2.171196265955388,0.006033020588762775,0.0008666639578380733,0.14640072752612684
8160,0.0,300.59751,24520.095,-0.0815999913315556,0.0,0.0,0.0,0.0,-0.012453312420297152,-3.7471651441414067,-1.5349402538118087,-2.1713912152746278,-0.002360599560773038,0.0034834783566675465,0.15919423607124786
8161,0.0,300.12922000000003,24659.07,-0.08161000100625293,0.0,0.0,0.0,0.0,-0.012454840038182868,-3.756956078532696,-1.5314596383932986,-2.207325826096098,0.005452196348514885,-0.026430173909205074,0.15726090421794287
8162,0.0,300.74172000000004,24385.285,-0.08162001068095048,0.0,0.0,0.0,0.0,-0.012456367656068612,-3.6983806982017566,-1.5218025543402185,-2.192334385566558,0.008201062809806883,-9.34860391048537e-05,0.16364475475047982
8163,0.0,300.26492,24106.151,-0.08162998732041793,0.0,0.0,0.0,0.0,-0.012457890232311142,-3.6275088186322466,-1.5140927343293185,-2.1860662177979377,0.0040640542493159265,0.012245531745289888,0.13752429188009085
8164,0.0,300.27817999999996,24410.706000000002,-0.08163999699511548,0.0,0.0,0.0,0.0,-0.012459417850196886,-3.694708578514346,-1.5137101310915586,-2.211826176415248,-0.0015596765258530886,0.0005462682980424835,0.17194248273440182
8165,0.0,300.06899,24741.992000000002,-0.08165000666981281,0.0,0.0,0.0,0.0,-0.012460945468082602,-3.7459560327970762,-1.5553275550988785,-2.219664071238788,-0.01699630176040438,-0.015270327487063985,0.15652567981288185
8166,0.0,299.41897,24613.617000000002,-0.08166001634451037,0.0,0.0,0.0,0.0,-0.012462473085968317,-3.7575741610936966,-1.5385507678931383,-2.1858001383216776,0.002012685548136598,0.012428213645569189,0.17218264327310384
8167,0.0,299.25352000000004,24308.577999999998,-0.08166999298397781,0.0,0.0,0.0,0.0,-0.012463995662210847,-3.7105016011979965,-1.5180808867229185,-2.160618238886418,-0.007352041603240014,0.016113049621734182,0.15846708726948386
8168,0.0,299.91445,24357.246,-0.08168000265867514,0.0,0.0,0.0,0.0,-0.012465523280096563,-3.6869785948264564,-1.5290944086848686,-2.187921377406028,0.0083906593314186,0.004461039558995326,0.17577583077772385
8169,0.0,299.31094,24632.247000000003,-0.0816900123333727,0.0,0.0,0.0,0.0,-0.012467050897982307,-3.7096829964422064,-1.5539550065134184,-2.223950119161788,-0.019994696257572882,-0.02053826339296878,0.15373981959043884
8170,0.0,299.74042000000003,24731.986,-0.08169998897284014,0.0,0.0,0.0,0.0,-0.012468573474224837,-3.728676572216726,-1.5641967358741986,-2.225032878218648,0.024136910289127577,-0.002577896313618558,0.15949711679113984
8171,0.0,300.09215,24317.14,-0.0817099986475377,0.0,0.0,0.0,0.0,-0.01247010109211058,-3.6946223509308367,-1.5302000671939884,-2.166980942889368,0.013230354100484287,0.006508058377495353,0.13064256064591687
8172,0.0,299.89187000000004,24131.674,-0.08172000832223503,0.0,0.0,0.0,0.0,-0.012471628709996296,-3.6894754457228767,-1.4872686604569885,-2.158682120595338,0.017328737972463284,-0.00011135296385468187,0.16486992610889484
8173,0.0,300.13607,24498.07,-0.08172998496170258,0.0,0.0,0.0,0.0,-0.012473151286238854,-3.7343549271021366,-1.5269887736520587,-2.185457862437898,0.010044137383954179,-0.028032440477836474,0.15649020592688087
8174,0.0,299.77596,24831.05,-0.08173999463639992,0.0,0.0,0.0,0.0,-0.012474678904124542,-3.7413047082130264,-1.5483523414104785,-2.258361916407968,0.01025596755118519,0.012677807542702186,0.17592128282957883
8175,0.0,299.77227999999997,24690.262000000002,-0.08175000431109747,0.0,0.0,0.0,0.0,-0.012476206522010286,-3.723346471390686,-1.5520663083270185,-2.229810453765158,-0.001249770740367769,0.010134203260167991,0.14962237648407886
8176,0.0,300.50178999999997,24477.08,-0.08176001398579491,0.0,0.0,0.0,0.0,-0.012477734139896002,-3.705738008502867,-1.5328290459034484,-2.2018539715810683,-0.022661246280740878,-0.003969687025102606,0.18237764153927183
8177,0.0,300.65522999999996,24512.443,-0.08176999062526247,0.0,0.0,0.0,0.0,-0.01247925671613856,-3.7379165012036366,-1.5358844002549885,-2.177369694839658,-0.021419532601193277,-0.004656058387192186,0.15469455449716385
8178,0.0,300.42577,24694.412999999997,-0.0817800002999598,0.0,0.0,0.0,0.0,-0.012480784334024275,-3.7587830697880062,-1.5404211262527285,-2.207280736466648,0.006814038325468224,0.01833995751926288,0.17526539590734783
8179,0.0,301.00915,24706.071,-0.08179000997465713,0.0,0.0,0.0,0.0,-0.012482311951909991,-3.7568189857941667,-1.5554780227387284,-2.1977318675242477,0.023435768577680278,0.02370612498261238,0.15406629890515985
8180,0.0,300.37658,24382.431,-0.0817999866141248,0.0,0.0,0.0,0.0,-0.012483834528152549,-3.692649451661126,-1.5203003097419587,-2.198700433294838,0.007387925348906463,-0.01981530843336868,0.17014962787496085
8181,0.0,299.53312999999997,24231.901,-0.08180999628882213,0.0,0.0,0.0,0.0,-0.012485362146038237,-3.6772494686912665,-1.5152534123188683,-2.173389952421888,0.008001119484799013,-0.03398117000668037,0.14416014784499886
8182,0.0,299.71993,24535.492000000002,-0.08182000596351968,0.0,0.0,0.0,0.0,-0.01248688976392398,-3.7279965800746164,-1.5334479390645286,-2.196732296300598,0.013882842581879887,-0.01059955154084429,0.15560381473940085
8183,0.0,299.63923,24718.755,-0.08183001563821701,0.0,0.0,0.0,0.0,-0.012488417381809697,-3.7365997826986863,-1.5596858477540088,-2.2175988648849683,0.03534070643435617,0.01002945751783039,0.15246263810439087
8184,0.0,299.70241,24491.894,-0.08183999227768468,0.0,0.0,0.0,0.0,-0.012489939958052254,-3.7257922544820667,-1.5310537304032383,-2.188078127196498,-0.005516171135978704,-0.008070542518050531,0.16366013588699785
8185,0.0,299.85385,24309.458,-0.08185000195238201,0.0,0.0,0.0,0.0,-0.01249146757593797,-3.6875303095059064,-1.5231373086969484,-2.178800505305868,-0.005905678862570125,0.005349323092362085,0.17491180201995085
8186,0.0,300.0454,24521.825,-0.08186001162707957,0.0,0.0,0.0,0.0,-0.012492995193823714,-3.7089029965152265,-1.5359208772585884,-2.209198818905948,-0.01004916857600072,0.02311053657383238,0.15641203368166584
8187,0.0,300.37264,24814.991,-0.0818699882665469,0.0,0.0,0.0,0.0,-0.012494517770066244,-3.7494458687914967,-1.5575176951900285,-2.236173968368188,-0.0004186011463152166,0.036796804583311866,0.17276954812852682
8188,0.0,300.66513,24682.061,-0.08187999794124445,0.0,0.0,0.0,0.0,-0.01249604538795196,-3.749773351223817,-1.5545577889979085,-2.198398991390088,-0.013993080139759488,-0.023588498805003577,0.16250680396067285
8189,0.0,300.43733,24435.095,-0.0818900076159419,0.0,0.0,0.0,0.0,-0.012497573005837675,-3.7275728388827964,-1.5220301303126786,-2.178055766482368,-0.013410892976802088,-0.012249560427687487,0.16571809750260283
8190,0.0,299.95513,24442.803,-0.08189998425540945,0.0,0.0,0.0,0.0,-0.012499095582080233,-3.7289902744476864,-1.5311255698353288,-2.1698859309260685,0.003958144485263446,0.003421757848026207,0.15517333543441586
8191,0.0,300.39234,24671.421000000002,-0.08190999393010678,0.0,0.0,0.0,0.0,-0.012500623199965949,-3.7315510614254164,-1.5545001350672185,-2.213444539474968,0.01955558608823608,0.007397632183539452,0.15551722238585483
8192,0.0,299.97444,24763.463,-0.08192000360480411,0.0,0.0,0.0,0.0,-0.012502150817851665,-3.7341828772351566,-1.5575388721171184,-2.235752557651598,-0.00889015728154021,-0.021666647075331582,0.16302694576700685
8193,0.0,299.78039,24617.945,-0.08193001327950167,0.0,0.0,0.0,0.0,-0.012503678435737409,-3.7271709838931364,-1.5494584052196385,-2.206610978150548,-0.005148246852417405,-0.028311955650422476,0.16609962669525682
8194,0.0,299.64948,24484.976000000002,-0.08193998991896911,0.0,0.0,0.0,0.0,-0.012505201011979938,-3.711641304910476,-1.5420661377900786,-2.1891138714487184,0.01859900098682848,0.001235306088565219,0.15471053345124086
8195,0.0,300.0808,24672.166,-0.08194999959366667,0.0,0.0,0.0,0.0,-0.012506728629865654,-3.742968768852257,-1.5385210796652087,-2.218232551497508,0.0067319606090677836,0.029055625495066975,0.16960618131632685
8196,0.0,299.7368,24780.475,-0.081960009268364,0.0,0.0,0.0,0.0,-0.01250825624775137,-3.7478451362835163,-1.5511746482390185,-2.2336256443666875,-0.0015406307676984186,-3.9505244392114065e-05,0.18548129752307882
8197,0.0,300.02813,24644.057,-0.08196998590783167,0.0,0.0,0.0,0.0,-0.012509778823993928,-3.735158738406467,-1.5281231071390087,-2.2278960190262183,-0.015389408691816386,0.007706797789826722,0.1864261633738298
8198,0.0,299.80045,24428.812,-0.081979995582529,0.0,0.0,0.0,0.0,-0.012511306441879644,-3.6934620782413266,-1.5267562327541087,-2.205530752218938,-0.0023440137712111477,0.02234785613081168,0.15803140999148585
8199,0.0,300.31257,24473.217,-0.08199000525722655,0.0,0.0,0.0,0.0,-0.012512834059765388,-3.7233276249388267,-1.5347977908477486,-2.181121557309938,-0.011640755184603089,0.013973045145532187,0.15528560354549586
8200,0.0,300.71947,24660.397,-0.08200001493192388,0.0,0.0,0.0,0.0,-0.012514361677651104,-3.7403141549152665,-1.5363337766743386,-2.219496986297298,-0.010127452481376741,-0.017477704988915183,0.14462815793368786
8201,0.0,300.33632,24762.89,-0.08200999157139144,0.0,0.0,0.0,0.0,-0.012515884253893661,-3.772895617180806,-1.5474070803921884,-2.206997533063698,-0.00960827366793778,-0.01925385338070738,0.15870455256291988
8202,0.0,300.31314,24684.282000000003,-0.08202000124608888,0.0,0.0,0.0,0.0,-0.01251741187177935,-3.7349791904887466,-1.5533991375085587,-2.215027134806158,0.026849117361801577,0.018741057637598382,0.15276075654881285
8203,0.0,300.39173999999997,24604.053,-0.08203001092078621,0.0,0.0,0.0,0.0,-0.012518939489665065,-3.7308325657795067,-1.5462386003768684,-2.201946582640208,0.01072430289315629,0.030835948477271176,0.17196247415887483
8204,0.0,299.9423,24686.423,-0.08203998756025377,0.0,0.0,0.0,0.0,-0.012520462065907623,-3.7179048117286366,-1.5463562387134786,-2.2397952229005775,0.0020365664344434583,-0.017184936505021182,0.18166983568191683
8205,0.0,299.77846,24877.756,-0.0820499972349511,0.0,0.0,0.0,0.0,-0.012521989683793339,-3.7852024515703966,-1.5443900268944286,-2.2326241479678477,-0.01111901953586179,-0.009131121023596481,0.1927263194481068
8206,0.0,299.30237999999997,24822.77,-0.08206000690964865,0.0,0.0,0.0,0.0,-0.012523517301679082,-3.747502759074726,-1.5507830270753686,-2.247216570608008,0.02232492425454848,0.019876706323178183,0.17805545098520484
8207,0.0,299.36114,24527.061,-0.0820699835491161,0.0,0.0,0.0,0.0,-0.012525039877921612,-3.7474632423208263,-1.5241254301944687,-2.1840255320965376,-0.004131408833813306,0.015335919219037384,0.16423058556079684
8208,0.0,300.31743,24553.69,-0.08207999322381365,0.0,0.0,0.0,0.0,-0.012526567495807356,-3.718853619122276,-1.5320877521302885,-2.2127671817831183,-0.02270973840402668,-0.012003030598856887,0.17012170270220484
8209,0.0,300.08396,24790.305,-0.08209000289851098,0.0,0.0,0.0,0.0,-0.012528095113693044,-3.7590833971176463,-1.5526829723378786,-2.223867437953628,-0.01974018100470418,-0.01130366815458519,0.15465564569332385
8210,0.0,299.74886000000004,24763.732999999997,-0.08210001257320854,0.0,0.0,0.0,0.0,-0.012529622731578788,-3.7307643740477765,-1.5651777646210183,-2.231614241593178,0.017032036051681083,0.010374418514375391,0.15326879001645186
8211,0.0,300.14287,24579.522,-0.08210998921267598,0.0,0.0,0.0,0.0,-0.012531145307821318,-3.7333639685043365,-1.5486206500369586,-2.189576318794358,0.007576354606402982,0.009331136593336481,0.14600246957432186
8212,0.0,300.03837000000004,24487.142999999996,-0.08211999888737354,0.0,0.0,0.0,0.0,-0.012532672925707061,-3.7081381953397465,-1.5407556001107383,-2.194586333913808,-0.011928012601203188,-0.01952291991826218,0.15457164726003386
8213,0.0,300.29264,24699.267000000003,-0.08213000856207087,0.0,0.0,0.0,0.0,-0.012534200543592777,-3.7664231781920265,-1.5427426848818484,-2.198794564229128,0.008126755911073362,-0.011421333848947888,0.17002789600794682
8214,0.0,300.78028,24964.28,-0.08213998520153831,0.0,0.0,0.0,0.0,-0.012535723119835307,-3.774354595999797,-1.5781360174998984,-2.2360270471036876,0.02186775087567898,0.018484349711513283,0.16542040462322286
8215,0.0,300.59076,24804.392999999996,-0.08214999487623587,0.0,0.0,0.0,0.0,-0.01253725073772105,-3.756596476072206,-1.5599474689298285,-2.223372363954768,0.02162671488889058,0.013235211621463686,0.17864881024376483
8216,0.0,300.59174,24601.95,-0.0821600045509332,0.0,0.0,0.0,0.0,-0.012538778355606739,-3.726805200607036,-1.5361459201057985,-2.215427267270648,-0.016184386481774584,-0.02858698516481577,0.16727536158129286
8217,0.0,300.82518999999996,24749.315,-0.08217001422563075,0.0,0.0,0.0,0.0,-0.012540305973492483,-3.753722189513536,-1.5458764647911287,-2.2235751152997776,-0.014697922240571985,-0.01039269551967919,0.18052163080109782
8218,0.0,300.65599,24852.762000000002,-0.0821799908650982,0.0,0.0,0.0,0.0,-0.012541828549735012,-3.765367067612796,-1.5738230171242384,-2.215428989795818,-0.005172246795611016,0.008388578824988273,0.14028416223746887
8219,0.0,300.84535,24724.575,-0.08219000053979564,0.0,0.0,0.0,0.0,-0.012543356167620756,-3.7817171752014263,-1.5352891158212385,-2.198647035014568,0.004366585701898456,0.024404459991282677,0.15690810066562386
8220,0.0,299.99754,24464.389,-0.08220001021449308,0.0,0.0,0.0,0.0,-0.012544883785506472,-3.7092759738770362,-1.5381272293513384,-2.189160278303298,-0.02378099707225168,-0.012039159044422489,0.14695948429377184
8221,0.0,299.3996,24501.558999999997,-0.08220998685396042,0.0,0.0,0.0,0.0,-0.012546406361749002,-3.7313005860006965,-1.5306925067425883,-2.185869140653488,-0.0024874114584883976,0.0017719294210258184,0.15695472030272486
8222,0.0,300.01928,24895.667,-0.08221999652865797,0.0,0.0,0.0,0.0,-0.012547933979634746,-3.7699827257933265,-1.5594448968802286,-2.238233500521448,0.016487216539161586,0.013206862910165887,0.14388567865791085
8223,0.0,300.22164,24886.366,-0.08223000620335552,0.0,0.0,0.0,0.0,-0.012549461597520462,-3.775645375302186,-1.5559011559804885,-2.2332872188332877,0.018645289291146783,0.0008908120989913092,0.16895612058217085
8224,0.0,300.14187999999996,24550.835,-0.08224001587805285,0.0,0.0,0.0,0.0,-0.012550989215406178,-3.7322078501402363,-1.5286068327367486,-2.202026021448048,-0.015635185675822685,-0.02142538412052078,0.17047019994159884
8225,0.0,299.99467999999996,24559.14,-0.0822499925175203,0.0,0.0,0.0,0.0,-0.012552511791648707,-3.7405529779638362,-1.5404958027850986,-2.184316537525258,-0.0009915797505088023,0.003184810122741287,0.1868882256844318
8226,0.0,299.15755,24871.123,-0.08226000219221785,0.0,0.0,0.0,0.0,-0.012554039409534451,-3.751400326909386,-1.5678359249333587,-2.240964209540948,0.016464794327698682,0.02159722627123028,0.16459461592422384
8227,0.0,299.59309,25051.2,-0.08227001186691518,0.0,0.0,0.0,0.0,-0.012555567027420167,-3.7882049142667165,-1.5671744752680785,-2.259559983326208,-0.0014750705478031288,0.008195939006701201,0.18448254703200984
8228,0.0,300.03289,24705.967999999997,-0.08227998850638263,0.0,0.0,0.0,0.0,-0.012557089603662697,-3.7584492038800565,-1.5334103474858185,-2.218137812613158,-0.01987205550521918,-0.020180914400701182,0.16708184094469383
8229,0.0,299.34397,24446.826,-0.08228999818108018,0.0,0.0,0.0,0.0,-0.01255861722154844,-3.7210665573406763,-1.5260841439627786,-2.184073864126308,-0.01052640298962509,0.007554887383159333,0.15851899607210687
8230,0.0,299.65785,24684.083,-0.08230000785577773,0.0,0.0,0.0,0.0,-0.012560144839434156,-3.7493057363026665,-1.5503538143330087,-2.203685421136818,0.005769091938490045,0.03178771861420357,0.13891662924000386
8231,0.0,300.22502000000003,25101.689,-0.08230998449524496,0.0,0.0,0.0,0.0,-0.012561667415676658,-3.804303026555476,-1.5872767493020183,-2.238706789643158,0.0019167802102714783,0.0046975550317875855,0.15071845977975387
8232,0.0,300.08044,24879.601000000002,-0.08231999416994251,0.0,0.0,0.0,0.0,-0.012563195033562402,-3.7681616113885963,-1.5534521304887885,-2.2411638198106476,-0.013311545830997288,-0.03294770252743507,0.14218997421805787
8233,0.0,300.53519,24585.776,-0.08233000384464007,0.0,0.0,0.0,0.0,-0.012564722651448146,-3.759407434499626,-1.5262854767576486,-2.1877691872410083,-0.0044273663197470356,-0.01940375461375148,0.16049199666682684
8234,0.0,300.36681,24635.139,-0.08234001351933762,0.0,0.0,0.0,0.0,-0.01256625026933389,-3.720605123245136,-1.5573275081462585,-2.210534485187768,0.03876622739192876,-0.003970762995383796,0.14703782879150387
8235,0.0,299.98017999999996,24922.067000000003,-0.08234999015880484,0.0,0.0,0.0,0.0,-0.012567772845576392,-3.786904205113346,-1.5556919198348385,-2.2330900403638276,0.007683684541795623,0.002778309381372787,0.18406522984582382
8236,0.0,299.65738999999996,25118.692000000003,-0.0823599998335025,0.0,0.0,0.0,0.0,-0.012569300463462163,-3.7858019916545667,-1.5907292976927587,-2.258923662263408,-0.000962497679186125,-0.014284795856799587,0.19160772173520982
8237,0.0,299.50237999999996,24818.55,-0.08237000950819984,0.0,0.0,0.0,0.0,-0.012570828081347851,-3.7636269118910564,-1.5560958013246984,-2.224496767590738,-0.015062768270329485,0.005596523794083895,0.17690621258928382
8238,0.0,299.22167,24623.822999999997,-0.08237998614766728,0.0,0.0,0.0,0.0,-0.012572350657590381,-3.7233319819142565,-1.5469192004690384,-2.2147761527563876,0.005538190276551825,0.028961205784498473,0.14803068216699086
8239,0.0,299.92699,24806.618,-0.08238999582236461,0.0,0.0,0.0,0.0,-0.012573878275476097,-3.7800997240667966,-1.5493460357835485,-2.211146792223198,-0.014566536126605184,0.003683926178900207,0.16501147714786485
8240,0.0,299.9485,24972.967,-0.08240000549706217,0.0,0.0,0.0,0.0,-0.01257540589336184,-3.7827953746328364,-1.5623077337127684,-2.246055284668398,-0.013061662144335687,-0.008084453428673432,0.16423115298085283
8241,0.0,300.36506,24866.232000000004,-0.08241001517175972,0.0,0.0,0.0,0.0,-0.012576933511247584,-3.7826259592161167,-1.5521317642834784,-2.223955894687358,-0.002900469954504097,-0.0012814550709947688,0.15930931088510486
8242,0.0,300.63873,24715.759,-0.08241999181122694,0.0,0.0,0.0,0.0,-0.012578456087490086,-3.7535631092478363,-1.5581575626281787,-2.201253012946758,0.02852321221677187,0.011679625484939291,0.15486685767666886
8243,0.0,300.27698,24680.635,-0.08243000148592472,0.0,0.0,0.0,0.0,-0.012579983705375858,-3.736384365727426,-1.5468400656362284,-2.219072333180388,0.00978769188964498,-0.010265941985169589,0.15410687957166486
8244,0.0,300.39097999999996,24961.406000000003,-0.08244001116062205,0.0,0.0,0.0,0.0,-0.012581511323261546,-3.789525179147017,-1.5553056688967184,-2.242813390973448,0.0037715908550270366,-0.040359189284891864,0.17468202729477383
8245,0.0,300.52409,25164.35,-0.0824499878000895,0.0,0.0,0.0,0.0,-0.012583033899504076,-3.8013008678341866,-1.5899044107863485,-2.258128767559958,0.007374825544988613,-0.007787546122095962,0.17551049097403684
8246,0.0,299.96018,24866.822999999997,-0.08245999747478683,0.0,0.0,0.0,0.0,-0.012584561517389792,-3.7642429679518568,-1.5694061586133286,-2.225244140864498,0.006490579610620334,0.014235055409390589,0.16338369086221485
8247,0.0,299.79377,24653.767000000003,-0.0824700071494846,0.0,0.0,0.0,0.0,-0.012586089135275563,-3.7540818932990367,-1.5426513910478385,-2.1973962790911274,0.0027617447687379873,0.00046625423772321046,0.16880213696447385
8248,0.0,299.87615,24802.715,-0.08247998378895183,0.0,0.0,0.0,0.0,-0.012587611711518065,-3.7609657118284168,-1.5463526923381286,-2.232087632039898,-0.02347127691418468,-0.01054391701760359,0.1831123897167858
8249,0.0,300.16756000000004,24901.389,-0.08248999346364938,0.0,0.0,0.0,0.0,-0.012589139329403809,-3.7719183374593563,-1.5530549364495885,-2.244427194407718,-0.0013021521228374086,0.012943563792180288,0.16988969882680785
8250,0.0,300.33656,24836.307999999997,-0.08250000313834693,0.0,0.0,0.0,0.0,-0.012590666947289553,-3.7697978076500767,-1.5613015763634686,-2.218517882725668,-0.001986900866216848,0.012167360513324989,0.14511723349195585
8251,0.0,299.70088,24663.296000000002,-0.08251001281304426,0.0,0.0,0.0,0.0,-0.012592194565175241,-3.7692259292936368,-1.5253888517441587,-2.2024112591360683,0.0029007878110604668,0.003418676453147096,0.15207910267653885
8252,0.0,299.71164,24752.26,-0.0825199894525116,0.0,0.0,0.0,0.0,-0.01259371714141777,-3.762485384328396,-1.5520479685002087,-2.2095356232391876,-0.01150387016234359,-0.001112798578599669,0.15274281188954184
8253,0.0,299.98087000000004,24944.346,-0.08252999912720915,0.0,0.0,0.0,0.0,-0.012595244759303514,-3.800598178889836,-1.5483280234080785,-2.233531918732438,0.004157950413557756,0.017140833781168586,0.16054983298253486
8254,0.0,299.97,25126.171000000002,-0.0825400088019067,0.0,0.0,0.0,0.0,-0.012596772377189258,-3.790008195469686,-1.5804800702812385,-2.2672403177591978,0.006140806182725384,0.010788723308014092,0.15862837642040184
8255,0.0,299.82526,24916.167999999998,-0.08254998544137393,0.0,0.0,0.0,0.0,-0.01259829495343176,-3.780915998347357,-1.5518411641547984,-2.241135651457868,0.0019024838593105385,-0.02168473358961658,0.18981409680569283
8256,0.0,300.09561,24700.325,-0.08255999511607148,0.0,0.0,0.0,0.0,-0.012599822571317504,-3.769428477988626,-1.5364753277133085,-2.2023783285078182,-0.006607068516316894,-0.035773302418800064,0.18064809454607883
8257,0.0,300.35688999999996,24938.721,-0.08257000479076904,0.0,0.0,0.0,0.0,-0.012601350189203248,-3.7832258032753163,-1.5606998071290787,-2.236822752407218,0.009405575113257991,-0.0026468778738015074,0.17890857717190184
8258,0.0,300.68766,25197.587000000003,-0.08258001446546659,0.0,0.0,0.0,0.0,-0.012602877807088964,-3.8215274676553963,-1.5956964523329786,-2.242213445589238,0.000857144199571046,0.021465850289764478,0.15303913688128684
8259,0.0,300.45254,24944.773999999998,-0.08258999110493381,0.0,0.0,0.0,0.0,-0.012604400383331466,-3.782491095627807,-1.5762821751169385,-2.223815052923458,-0.001845641643275648,0.012229470717954789,0.16650600078036285
8260,0.0,300.35624,24581.472999999998,-0.08260000077963137,0.0,0.0,0.0,0.0,-0.01260592800121721,-3.7318735789322464,-1.5222479790841785,-2.218032333277748,-0.020712882862202377,0.010999920092607592,0.14854827058307285
8261,0.0,300.20746,24824.658,-0.08261001045432892,0.0,0.0,0.0,0.0,-0.012607455619102953,-3.7512209816416866,-1.5783906472500286,-2.216464632723028,0.0016097340192183787,0.02075782962338828,0.14972839284204184
8262,0.0,300.45408,25024.162,-0.08261998709379637,0.0,0.0,0.0,0.0,-0.012608978195345483,-3.7849584609463167,-1.5588294487694885,-2.262932687609068,-0.006660414006256683,0.006957823175608683,0.14694442739728586
8263,0.0,300.06276,24951.915,-0.0826299967684937,0.0,0.0,0.0,0.0,-0.012610505813231199,-3.7810330287339067,-1.5701060104573985,-2.233619868841118,-0.011403895814726887,0.0036617490726364964,0.14488768168180086
8264,0.0,299.99298999999996,24799.056,-0.08264000644319125,0.0,0.0,0.0,0.0,-0.012612033431116942,-3.7719483296623166,-1.5445466753598884,-2.221798685224458,-0.009148415986903361,-0.008354707900645473,0.16865819465526785
8265,0.0,299.95922,24832.292999999998,-0.0826500161178888,0.0,0.0,0.0,0.0,-0.012613561049002658,-3.7822670660306965,-1.5424115547491686,-2.2237182875389077,-0.0009491571979720221,0.009583968533814052,0.15879193525154384
8266,0.0,299.54828,24983.11,-0.08265999275735603,0.0,0.0,0.0,0.0,-0.01261508362524516,-3.7762018522571066,-1.5660151145036587,-2.2520246449825274,0.00999086241622135,-0.004784458554439296,0.17384805153496682
8267,0.0,299.80753,25138.82,-0.08267000243205358,0.0,0.0,0.0,0.0,-0.012616611243130904,-3.8255819879305464,-1.5548731124290285,-2.261118463305018,0.0038443069511035566,-0.02083854613960438,0.18193365561045383
8268,0.0,300.12395,25064.247000000003,-0.08268001210675113,0.0,0.0,0.0,0.0,-0.012618138861016648,-3.8021421693922166,-1.5650128075047383,-2.251750358180458,0.009302227656058391,-0.013585897481073687,0.1950591150208358
8269,0.0,300.68977,24800.267000000003,-0.08268998874621847,0.0,0.0,0.0,0.0,-0.012619661437259178,-3.7689416113155763,-1.5532068226395785,-2.216513471377848,0.02288135257346368,0.005675936966696365,0.15639582168006586
8270,0.0,300.75822999999997,24995.713,-0.0826999984209158,0.0,0.0,0.0,0.0,-0.012621189055144894,-3.7962595432866464,-1.5748130637969484,-2.226999900637778,0.008768656942174062,0.03402913220016387,0.15803723617956086
8271,0.0,300.57821,25202.0,-0.08271000809561335,0.0,0.0,0.0,0.0,-0.012622716673030637,-3.8095523713485466,-1.5822660249074985,-2.268960512453968,-0.01640691444223638,0.0012669930536424788,0.15874268116418286
8272,0.0,300.18282999999997,24990.275,-0.0827199847350808,0.0,0.0,0.0,0.0,-0.012624239249273167,-3.7851738779175768,-1.5665152547530186,-2.2447306628126684,-0.015203586729477185,-0.0023865888178879776,0.17328336725423685
8273,0.0,300.60098999999997,24715.751,-0.08272999440977835,0.0,0.0,0.0,0.0,-0.012625766867158883,-3.7565175438894167,-1.5387695285897285,-2.217683977893368,-0.0017501403895504083,0.015882428832723682,0.15792510992349484
8274,0.0,300.00009,24855.853,-0.08274000408447568,0.0,0.0,0.0,0.0,-0.012627294485044599,-3.771165391310046,-1.5589545851568385,-2.225438684883698,0.015221992417543684,0.017810304334240183,0.16894191481576884
8275,0.0,300.00569,25023.247000000003,-0.08275001375917324,0.0,0.0,0.0,0.0,-0.012628822102930343,-3.806012886099226,-1.5590477028410286,-2.241381668582148,0.003573307841633027,-0.017521450035482482,0.16269183356143382
8276,0.0,300.21997000000005,25104.465,-0.08275999039864068,0.0,0.0,0.0,0.0,-0.012630344679172872,-3.804646518339376,-1.5756762515571385,-2.2508077316124275,-0.0018251651759797784,-0.023922803450246874,0.17603358133816183
8277,0.0,300.42494,25123.505,-0.08277000007333801,0.0,0.0,0.0,0.0,-0.012631872297058588,-3.785573098456976,-1.6095385632740884,-2.2418067269990978,0.02269932219299868,-0.003066037249994317,0.14659258643256187
8278,0.0,300.08451,24955.846,-0.08278000974803557,0.0,0.0,0.0,0.0,-0.012633399914944332,-3.769385313534367,-1.5680402974785286,-2.2485285268374877,-0.0007183800442060903,0.014151091426603988,0.17939117806203084
8279,0.0,300.14475,24971.903,-0.08278998638750301,0.0,0.0,0.0,0.0,-0.012634922491186862,-3.7844421086953566,-1.5814744739293785,-2.224918482282358,-0.007661888822869553,-0.0073438534278569036,0.16417313428012684
8280,0.0,299.91751,25117.846,-0.08279999606220056,0.0,0.0,0.0,0.0,-0.012636450109072578,-3.799055505612586,-1.5656132595139984,-2.270529428908808,-0.007319261138654833,-0.002083705260895698,0.18894878122029282
8281,0.0,299.05332999999996,25077.53,-0.0828100057368979,0.0,0.0,0.0,0.0,-0.012637977726958294,-3.8088047954247664,-1.5698155116537285,-2.244322626997398,-0.005737119338209595,0.02239539579900348,0.14751954815404586
8282,0.0,299.54979,24912.803,-0.08282001541159545,0.0,0.0,0.0,0.0,-0.012639505344844038,-3.7862387024476662,-1.5682376785980086,-2.218393759588418,-0.006170056787937194,0.014228585807502088,0.15196830377810386
8283,0.0,299.8508,24840.722,-0.0828299920510629,0.0,0.0,0.0,0.0,-0.012641027921086567,-3.7925572287462566,-1.5229736688057987,-2.2354284189446076,-0.012166669476756788,-0.0003679402827803787,0.16764147923992584
8284,0.0,300.15161,25116.623,-0.08284000172576034,0.0,0.0,0.0,0.0,-0.012642555538972311,-3.8111268606789364,-1.5670195493277883,-2.2566800225669774,-0.005085396063289515,-0.006108898329126324,0.18669659982551984
8285,0.0,300.46106000000003,25155.927000000003,-0.08285001140045778,0.0,0.0,0.0,0.0,-0.012644083156858027,-3.8089945771684963,-1.5641660343961685,-2.273612951613128,0.01227523922497179,8.644442916390092e-06,0.17651921184608982
8286,0.0,300.57117999999997,25013.251,-0.08285998803992534,0.0,0.0,0.0,0.0,-0.012645605733100584,-3.793900393078817,-1.5583077262929985,-2.2511956037507077,0.003563573243947297,0.02343818619241888,0.16678211143261282
8287,0.0,300.20115,24954.456000000002,-0.08286999771462267,0.0,0.0,0.0,0.0,-0.012647133350986273,-3.799364445568076,-1.5633439845900383,-2.222823182400568,0.008845239904607212,-0.018319642868007982,0.16596802577226882
8288,0.0,300.17892,25086.688,-0.08288000738932011,0.0,0.0,0.0,0.0,-0.012648660968871989,-3.8166979123787566,-1.5670351533793285,-2.241993671642548,-0.006974080064188113,-0.006182965391561175,0.16650626422538883
8289,0.0,299.87762999999995,25108.286,-0.08288998402878767,0.0,0.0,0.0,0.0,-0.012650183545114546,-3.8085751929521066,-1.5925221424196985,-2.2311946547267683,0.017398860958883884,0.0021329757629083177,0.14417360380632688
8290,0.0,299.30129,25026.311,-0.082899993703485,0.0,0.0,0.0,0.0,-0.012651711163000262,-3.7961129259971766,-1.5756100863256086,-2.2356506246915377,0.0056555727675115745,-0.010889966244755989,0.16656373577106084
8291,0.0,299.8532,24910.737999999998,-0.08291000337818255,0.0,0.0,0.0,0.0,-0.012653238780886006,-3.7728361393999363,-1.5497612656745288,-2.2496448244726577,0.003729429923666077,-0.014565215861724885,0.17277381391144783
8292,0.0,300.099,24835.321,-0.08292001305287988,0.0,0.0,0.0,0.0,-0.012654766398771694,-3.766422266266936,-1.5545142192436086,-2.2283808591990684,-0.014076244668217186,-0.008231772292512672,0.17050123579216184
8293,0.0,300.68086,25163.418999999998,-0.08292998969234755,0.0,0.0,0.0,0.0,-0.01265628897501428,-3.8137679983895962,-1.5901651200370785,-2.2451179270008876,0.003925379827379827,0.02366107183016598,0.15673084269312984
8294,0.0,300.23257,25288.267999999996,-0.08293999936704488,0.0,0.0,0.0,0.0,-0.012657816592899968,-3.8269857446190865,-1.5890684794538485,-2.2709476985500876,-0.02079196399275708,0.016509110847322383,0.15490396289533087
8295,0.0,300.17152000000004,25118.022,-0.08295000904174243,0.0,0.0,0.0,0.0,-0.012659344210785711,-3.811860859051376,-1.5792591039107384,-2.244131426703528,-0.017537957906111682,-0.014954122528356987,0.17115913908209185
8296,0.0,300.42124,25007.112,-0.08295998568120988,0.0,0.0,0.0,0.0,-0.012660866787028241,-3.8052083655198263,-1.5425724588650485,-2.2537567960284774,-0.007749401004856332,-0.014701091686884786,0.1818125215609988
8297,0.0,299.89072999999996,25062.296000000002,-0.08296999535590732,0.0,0.0,0.0,0.0,-0.012662394404913985,-3.782274462756426,-1.5728866727068287,-2.263150941680608,0.029275465303013472,-0.0015916466943332983,0.17359356363985085
8298,0.0,299.7698,25107.641,-0.08298000503060476,0.0,0.0,0.0,0.0,-0.0126639220227997,-3.810365707203817,-1.5697090190682186,-2.252021301257198,0.024233121425872875,0.0030370437063328773,0.16957336214558785
8299,0.0,299.92129,25080.016,-0.0829900147053021,0.0,0.0,0.0,0.0,-0.012665449640685389,-3.805275240026426,-1.5664263927192483,-2.251997084579808,0.007618616964098952,-0.013236485276839387,0.17227385604710585
8300,0.0,300.0284,25144.459,-0.08299999134476965,0.0,0.0,0.0,0.0,-0.012666972216927974,-3.808461607615896,-1.5891870297155486,-2.2456391428523275,0.02245552104668738,0.005556220048831224,0.16450415295529586
8301,0.0,299.96682000000004,25031.327,-0.0830100010194671,0.0,0.0,0.0,0.0,-0.012668499834813662,-3.792540510119607,-1.5679273200923787,-2.2484304442278082,0.0026059552353877575,0.01057053003148009,0.17010495367805184
8302,0.0,300.64416,25082.042,-0.08302001069416454,0.0,0.0,0.0,0.0,-0.012670027452699406,-3.790880198505746,-1.5817552455320885,-2.251678924048408,0.0012806751723927988,0.001022213715684639,0.17386954256958784
8303,0.0,299.64808,25138.62,-0.08302998733363198,0.0,0.0,0.0,0.0,-0.012671550028941936,-3.8014687633757567,-1.5588635952978585,-2.2811805113099877,-0.027537133431453475,-0.02082243444976428,0.1937327199774308
8304,0.0,299.10604,25107.03,-0.08303999700832954,0.0,0.0,0.0,0.0,-0.01267307764682768,-3.8268368981793968,-1.5623543432173683,-2.242719057389138,-0.004722682519692475,0.0032719029205116766,0.17756793583209082
8305,0.0,299.08783,25013.804,-0.08305000668302687,0.0,0.0,0.0,0.0,-0.012674605264713396,-3.794820525494626,-1.5801931178529185,-2.228558279291578,0.025052870141025776,0.016848084549026483,0.14850695024399485
8306,0.0,299.31381,25069.111,-0.08306001635772442,0.0,0.0,0.0,0.0,-0.012676132882599112,-3.809444561537906,-1.5800798364917383,-2.230859268943668,0.01843237403438368,0.004012783084980856,0.15303032160541685
8307,0.0,299.24712999999997,25238.435,-0.08306999299719187,0.0,0.0,0.0,0.0,-0.012677655458841669,-3.8228947473403365,-1.5855691189084884,-2.2633902713542278,-0.0031617782386932167,-0.011747012696089888,0.16818094372566686
8308,0.0,299.34456,25174.722,-0.08308000267188942,0.0,0.0,0.0,0.0,-0.012679183076727385,-3.8034871575749563,-1.5662305314749185,-2.2827689834917577,0.009351581953854281,-0.009772016910597982,0.17519854166574983
8309,0.0,299.52972,25139.892000000003,-0.08309001234658675,0.0,0.0,0.0,0.0,-0.012680710694613101,-3.7859904561731668,-1.5858007478813485,-2.270108018192218,0.019280171538804784,0.007719564133136662,0.17206691997918283
8310,0.0,299.84537,25156.011000000002,-0.08309998898605442,0.0,0.0,0.0,0.0,-0.012682233270855658,-3.810976494364097,-1.5749712321375586,-2.260851471903668,0.012272482171449687,-0.002347466724901928,0.17286586768303283
8311,0.0,300.533,25134.15,-0.08310999866075175,0.0,0.0,0.0,0.0,-0.012683760888741374,-3.823488410573926,-1.5512101119925186,-2.2654552750580277,-0.018165888244833586,-0.003196167136487137,0.17105995202980284
8312,0.0,300.43647999999996,25098.656000000003,-0.08312000833544908,0.0,0.0,0.0,0.0,-0.01268528850662709,-3.8196372495938467,-1.5652803055311384,-2.244447256759698,-0.0027122614842043672,0.012338394090454688,0.17662750801677782
8313,0.0,299.61568,25114.374,-0.08312998497491664,0.0,0.0,0.0,0.0,-0.012686811082869648,-3.8253479271574466,-1.5525949209041885,-2.2561998433445876,0.005483941778122915,0.024775128156114774,0.18174012484135382
8314,0.0,299.90639,25201.513,-0.08313999464961408,0.0,0.0,0.0,0.0,-0.012688338700755364,-3.7971400576235466,-1.5772762747900484,-2.2862143378067876,0.014297736073826684,0.013171361666412187,0.17816228807574883
8315,0.0,300.10406,25164.668999999998,-0.08315000432431163,0.0,0.0,0.0,0.0,-0.01268986631864108,-3.8233305462083464,-1.5559081474061787,-2.270192421925548,-0.01853206467197238,-0.016618707017888684,0.1912950327543498
8316,0.0,299.4989,25255.456000000002,-0.08316001399900896,0.0,0.0,0.0,0.0,-0.012691393936526796,-3.836216959655136,-1.5797039207046384,-2.261107114903898,0.001005227560610736,0.01170561231025399,0.16530806558463584
8317,0.0,299.65707000000003,25290.632999999998,-0.08316999063847652,0.0,0.0,0.0,0.0,-0.012692916512769353,-3.8319543178094464,-1.6023963659692084,-2.253370038465308,-0.0029674576411402673,-0.003922740614844356,0.15152424692177885
8318,0.0,299.65351,25144.603,-0.08318000031317385,0.0,0.0,0.0,0.0,-0.01269444413065507,-3.8137092298837962,-1.5904610903912884,-2.239161130987998,-0.009021517152329421,0.003921735369420146,0.13521100137178688
8319,0.0,299.1097,25050.049,-0.0831900099878714,0.0,0.0,0.0,0.0,-0.012695971748540813,-3.8037281084487358,-1.5541734632349784,-2.256687925917758,-0.015279574407476586,-0.013442937011214587,0.16358124423421183
8320,0.0,299.89094,25085.487,-0.08319998662733885,0.0,0.0,0.0,0.0,-0.012697494324783343,-3.789619006106276,-1.5727862596219184,-2.2629564989864184,-0.008494073663124803,0.009994121839143031,0.16487339142423685
8321,0.0,300.03834,25070.167999999998,-0.0832099963020364,0.0,0.0,0.0,0.0,-0.012699021942669086,-3.797973557155806,-1.5730183952198284,-2.2497132188544082,0.014525951407099787,0.023348533823570876,0.17995880076805082
8322,0.0,300.01297999999997,25090.949,-0.08322000597673374,0.0,0.0,0.0,0.0,-0.012700549560554775,-3.8260798990296863,-1.5696272497851484,-2.2313148261886275,0.004799310470430066,-0.006958098475660854,0.18492730303090382
8323,0.0,300.09632999999997,25220.568,-0.08323001565143107,0.0,0.0,0.0,0.0,-0.01270207717844049,-3.8436987983935365,-1.5803565550940486,-2.242367560929448,0.0014614574313846186,-0.006861668172918924,0.17793189526801081
8324,0.0,300.02036,25246.135,-0.08323999229089873,0.0,0.0,0.0,0.0,-0.012703599754683048,-3.8455206220733364,-1.5730577093237086,-2.255616312611998,-0.02271831353962298,-0.0038137317240360164,0.1839714738140708
8325,0.0,299.75457,25302.73,-0.08325000196559607,0.0,0.0,0.0,0.0,-0.012705127372568764,-3.8175614041139765,-1.5971433734757785,-2.2766933332421377,-0.00020915336311682983,0.0023734959040708076,0.16080298338751883
8326,0.0,300.35724,25345.01,-0.08326001164029362,0.0,0.0,0.0,0.0,-0.012706654990454508,-3.820876049166107,-1.5887920648265683,-2.294582162432628,-0.02043809551458298,-0.01126778390229369,0.17888780554485184
8327,0.0,299.46847,25150.781000000003,-0.08326998827976106,0.0,0.0,0.0,0.0,-0.012708177566697038,-3.8182801024099065,-1.5499777972208986,-2.2769516106926275,-0.001033633652261699,-0.011436218492916888,0.1855107831009888
8328,0.0,299.38982000000004,25118.295,-0.08327999795445862,0.0,0.0,0.0,0.0,-0.012709705184582781,-3.8389185883967665,-1.5628797133942183,-2.233536174382858,0.0036988146732195868,0.0012081942516644888,0.16735395939154984
8329,0.0,299.43072,25248.506,-0.08329000762915595,0.0,0.0,0.0,0.0,-0.01271123280246847,-3.8471985642389366,-1.5761284650767684,-2.251588339489468,0.00043617199735932453,0.022327177722770878,0.16326095587760184
8330,0.0,299.46702,25223.213,-0.0832999842686234,0.0,0.0,0.0,0.0,-0.012712755378711,-3.8394702017512063,-1.5868055880055185,-2.240951138614658,0.001066521318707459,0.011812220406275387,0.15743767583038884
8331,0.0,299.70887,25190.293999999998,-0.08330999394332084,0.0,0.0,0.0,0.0,-0.012714282996596743,-3.809708411863946,-1.5772958305169786,-2.2702161319778877,-0.0036856542769457563,0.002235955207671598,0.18138655121895883
8332,0.0,300.46353,25375.188,-0.08332000361801839,0.0,0.0,0.0,0.0,-0.012715810614482487,-3.820454841099536,-1.5979736306077184,-2.294995163173388,0.01152360320804109,0.008022767775835533,0.18064467989324182
8333,0.0,299.58147,25288.838,-0.08333001329271583,0.0,0.0,0.0,0.0,-0.012717338232368203,-3.8249533675685066,-1.5911760396618484,-2.2710458824847777,0.0014448495529705485,-0.006899365433614354,0.19328195540544382
8334,0.0,300.1137,25274.946,-0.08333998993218339,0.0,0.0,0.0,0.0,-0.01271886080861076,-3.828789025822056,-1.6038247446351785,-2.2503386981411375,-0.0076146916332115525,-0.013786965817667588,0.16992824286061184
8335,0.0,299.94952,25280.441000000003,-0.08334999960688072,0.0,0.0,0.0,0.0,-0.012720388426496476,-3.8383066866613764,-1.5949019629295684,-2.251414060472268,-0.009487637022956871,-0.00943036427695449,0.18149288168445282
8336,0.0,299.57883,25263.773999999998,-0.08336000928157805,0.0,0.0,0.0,0.0,-0.012721916044382164,-3.8278165083760762,-1.5877477079484985,-2.263992344563648,0.00861882815651211,0.00843859872677485,0.15411695127765887
8337,0.0,299.95259,25209.203999999998,-0.0833699859210455,0.0,0.0,0.0,0.0,-0.012723438620624694,-3.7983309304660766,-1.5838531798641384,-2.2807843305208877,0.0031104434422518667,0.01158093087219889,0.15282510806266386
8338,0.0,299.59046,25119.894,-0.08337999559574305,0.0,0.0,0.0,0.0,-0.012724966238510438,-3.8007009224499764,-1.5663169617084485,-2.268802648088388,-0.009405857506060862,0.003213769823849387,0.15680456677040586
8339,0.0,299.05342,25209.865,-0.0833900052704406,0.0,0.0,0.0,0.0,-0.012726493856396182,-3.8371627272984763,-1.5627474842561686,-2.263259258116298,-0.012972057398242387,0.0050600137429844755,0.18002295976438284
8340,0.0,299.6487,25284.755,-0.08340001494513793,0.0,0.0,0.0,0.0,-0.012728021474281898,-3.871097587722586,-1.5633406408647086,-2.251496032405358,0.017689200682288183,0.014452800829380386,0.18358186901811985
8341,0.0,299.78299,25372.132,-0.0834099915846056,0.0,0.0,0.0,0.0,-0.012729544050524455,-3.8597950868321163,-1.6001077379683384,-2.2525916597384876,0.014197437486177985,0.0028357617766178976,0.16313195900737085
8342,0.0,300.39987,25339.502,-0.08342000125930293,0.0,0.0,0.0,0.0,-0.012731071668410171,-3.8385368970840967,-1.5873404827333084,-2.2766986021426576,0.010304872067261689,-0.012987497303266185,0.18030489660470783
8343,0.0,300.61497,25375.647999999997,-0.08343001093400049,0.0,0.0,0.0,0.0,-0.012732599286295887,-3.8199659479262866,-1.5933444962008585,-2.3002530192672976,-0.0037799556399025764,-0.007446762553063243,0.18366887680420682
8344,0.0,300.00298,25435.891,-0.08343998757346782,0.0,0.0,0.0,0.0,-0.012734121862538417,-3.845051892577076,-1.5871621507157088,-2.2996616865089377,0.014478001372617486,0.023713120461302774,0.1965956480024798
8345,0.0,300.14867999999996,25437.57,-0.08344999724816538,0.0,0.0,0.0,0.0,-0.01273564948042416,-3.8612268092234165,-1.5918909889324087,-2.2792684070462776,0.004606573988083455,0.023421567877528776,0.1940478306260298
8346,0.0,300.71396,25309.135,-0.08346000692286282,0.0,0.0,0.0,0.0,-0.012737177098309876,-3.8471751581616265,-1.5819321589995485,-2.2642378550628774,-0.013281395561021687,0.005059696697028185,0.18025301819958783
8347,0.0,300.0376,25193.072999999997,-0.08346998356233015,0.0,0.0,0.0,0.0,-0.012738699674552406,-3.8285390570223865,-1.5752363996887284,-2.2542895629310578,-0.03188768890881987,-0.004433284206956086,0.15828100388861885
8348,0.0,299.9317,25276.196,-0.0834799932370277,0.0,0.0,0.0,0.0,-0.01274022729243815,-3.8130294403917064,-1.5843130940845287,-2.285989801584628,0.0002706862583696537,0.002134458958404698,0.14427261860609886
8349,0.0,299.42707,25260.977000000003,-0.08349000291172504,0.0,0.0,0.0,0.0,-0.012741754910323866,-3.7976318892220866,-1.5948162419711085,-2.286258110211108,0.002934693185906667,-0.01757136476190868,0.14386503875337386
8350,0.0,300.01055,25155.604,-0.08350001258642259,0.0,0.0,0.0,0.0,-0.012743282528209582,-3.797611624220086,-1.5848747386149586,-2.2641891177330677,0.012951215856935488,-0.029459412752667676,0.15927254003897584
8351,0.0,300.41367,25091.474,-0.08350998922589004,0.0,0.0,0.0,0.0,-0.012744805104452112,-3.824451403468967,-1.5690466574778485,-2.233683602272408,-0.002063900173116088,-0.015640762604373085,0.18316746999222183
8352,0.0,300.29256000000004,25286.868,-0.08351999890058759,0.0,0.0,0.0,0.0,-0.012746332722337855,-3.849145220331056,-1.5897936625504185,-2.247637474699548,0.02120487556750828,0.00892281230576301,0.17542927897852184
8353,0.0,299.47785,25462.793999999998,-0.08353000857528492,0.0,0.0,0.0,0.0,-0.012747860340223571,-3.868106980052436,-1.5912152524407186,-2.2807312362156478,0.006959425630641834,0.016668897348342083,0.17488516367482182
8354,0.0,299.56719,25549.722,-0.08353998521475237,0.0,0.0,0.0,0.0,-0.012749382916466101,-3.8457915651500767,-1.6156469415019383,-2.3050389034646277,-0.002244546656594508,-0.0005518402616673934,0.17042664031979984
8355,0.0,299.32902,25407.873,-0.08354999488944992,0.0,0.0,0.0,0.0,-0.012750910534351845,-3.819053313561217,-1.5910612384255185,-2.3132445067494576,-0.008091711744439773,0.0015063267802628787,0.17551338886932283
8356,0.0,299.49318,25344.906000000003,-0.08356000456414747,0.0,0.0,0.0,0.0,-0.012752438152237588,-3.8525062722377665,-1.5663692454136087,-2.285343145370808,-0.02075104287421848,0.00789166871562206,0.19312797178774682
8357,0.0,299.18681000000004,25358.892000000003,-0.0835700142388448,0.0,0.0,0.0,0.0,-0.012753965770123277,-3.858492148528526,-1.5896258683338584,-2.260352040929378,-0.010936145118063489,-0.003902747569171196,0.17646319938056182
8358,0.0,298.99297,25226.447999999997,-0.08357999087831225,0.0,0.0,0.0,0.0,-0.012755488346365806,-3.8667785078463264,-1.5539427461872086,-2.247489134884908,-0.018303472409662083,-0.007349730278436903,0.18659542680303481
8359,0.0,299.42805,25136.71,-0.0835900005530098,0.0,0.0,0.0,0.0,-0.01275701596425155,-3.8175433682621964,-1.5704951998208085,-2.2528936082682876,0.005795878015483624,-0.004147982059073956,0.15215438715896884
8360,0.0,299.79742999999996,25229.093999999997,-0.08360001022770713,0.0,0.0,0.0,0.0,-0.012758543582137266,-3.812069791221996,-1.5828778253178786,-2.274067191632958,0.014837444752841785,-0.001152037296672229,0.15530067057448285
8361,0.0,299.79819,25340.941000000003,-0.08360998686717458,0.0,0.0,0.0,0.0,-0.012760066158379796,-3.817924350299797,-1.5815151052583885,-2.303573845145038,0.013996539375600886,0.004219088404716606,0.14404825463645587
8362,0.0,300.22612999999996,25455.751,-0.08361999654187213,0.0,0.0,0.0,0.0,-0.01276159377626554,-3.857816513361846,-1.5984718456818883,-2.281624416178798,0.01823379930628588,-0.014251855096048588,0.1895888310434608
8363,0.0,299.79539,25386.112,-0.08363000621656957,0.0,0.0,0.0,0.0,-0.012763121394151283,-3.8563712134192065,-1.5874307633172184,-2.272942078721918,0.014176254479587386,-0.012830105112232789,0.18428909732291782
8364,0.0,299.75155,25424.397999999997,-0.08364001589126702,0.0,0.0,0.0,0.0,-0.012764649012036972,-3.8658297004526863,-1.6024866465531185,-2.260065696451118,0.001971148677512228,0.004033739123549056,0.17515077705603582
8365,0.0,300.20596,25574.804,-0.08364999253073435,0.0,0.0,0.0,0.0,-0.012766171588279501,-3.8580140971313464,-1.6189360526515486,-2.2971515620362077,-0.011366876722323388,0.004267409896685566,0.15724128769600684
8366,0.0,300.5238,25618.964,-0.0836600022054319,0.0,0.0,0.0,0.0,-0.012767699206165245,-3.8406402016416763,-1.6206024437660085,-2.3262825024112077,-0.03064187359286747,0.012842809241986589,0.16069843624220084
8367,0.0,300.2061,25404.69,-0.08367001188012946,0.0,0.0,0.0,0.0,-0.012769226824050989,-3.827699174014496,-1.6128178458977285,-2.281874384978468,-0.009967213868162421,0.0018886431669195682,0.16959176276740384
8368,0.0,300.89712000000003,25235.885,-0.08367998851959668,0.0,0.0,0.0,0.0,-0.01277074940029349,-3.841055836832696,-1.5619737664798086,-2.268049397964048,0.003050521047237987,-0.0017341026669676083,0.17363879512431482
8369,0.0,301.04167,25282.517000000003,-0.08368999819429424,0.0,0.0,0.0,0.0,-0.012772277018179234,-3.8543658901462963,-1.5707991748508086,-2.2600887985533977,0.003907110320126766,-0.01037551687748379,0.18252663996647683
8370,0.0,300.29125,25388.857000000004,-0.08370000786899179,0.0,0.0,0.0,0.0,-0.012773804636064978,-3.869532014993076,-1.5785513487158884,-2.269495001881718,0.005071187966412285,-0.031181395833864173,0.16720922674726585
8371,0.0,299.93433999999996,25571.341,-0.08370998450845923,0.0,0.0,0.0,0.0,-0.012775327212307508,-3.8660067152451565,-1.5993541838689684,-2.307688349826108,0.017335029242334182,-0.02119959146823678,0.15926733193346185
8372,0.0,300.16561,25596.05,-0.08371999418315657,0.0,0.0,0.0,0.0,-0.012776854830193196,-3.851230387711846,-1.6216723345465984,-2.307657445698058,0.02251156492296848,-0.003422075805907587,0.15328586328063684
8373,0.0,299.9888,25482.179,-0.08373000385785412,0.0,0.0,0.0,0.0,-0.01277838244807894,-3.8509486028590367,-1.6004548774525984,-2.2945426456787277,0.015226692884757587,-0.0033811012890887166,0.16694461648365083
8374,0.0,300.22289,25542.15,-0.08374001353255167,0.0,0.0,0.0,0.0,-0.012779910065964684,-3.8867212963145263,-1.5894750967189786,-2.287979520805998,-0.0005190834666045495,0.007064022121239703,0.19928055811745982
8375,0.0,300.16777,25625.734,-0.0837499901720189,0.0,0.0,0.0,0.0,-0.012781432642207186,-3.901505425873607,-1.6126287734290683,-2.2754489607943276,-0.0001001412157226685,0.011569268363547889,0.1958466433960588
8376,0.0,299.81955,25405.917,-0.08375999984671645,0.0,0.0,0.0,0.0,-0.01278296026009293,-3.8836062615320963,-1.5767410760872285,-2.262417145958188,0.0015986457193990482,0.01889844172263098,0.1842831596773318
8377,0.0,300.29073999999997,25326.208,-0.083770009521414,0.0,0.0,0.0,0.0,-0.012784487877978673,-3.828761161444307,-1.6101002078045183,-2.259673467337408,-0.006282467564631275,0.011457121842479889,0.14755595423013884
8378,0.0,300.17692999999997,25305.41,-0.08377998616088134,0.0,0.0,0.0,0.0,-0.012786010454221203,-3.8253424556069064,-1.5846540527431785,-2.282216356887218,-0.010919339351904887,0.007234877974301863,0.15399499649562287
8379,0.0,299.778,25462.262000000002,-0.08378999583557878,0.0,0.0,0.0,0.0,-0.012787538072106891,-3.845758837171846,-1.5954215575808484,-2.298711460565158,-0.019716043360821982,-0.01873850526059648,0.15667365485748583
8380,0.0,299.52213,25527.04,-0.08380000551027633,0.0,0.0,0.0,0.0,-0.012789065689992635,-3.880431850293806,-1.6022535990301183,-2.276897199162258,0.013702216566053485,0.002290947532998918,0.17000130832532284
8381,0.0,299.85902999999996,25424.701,-0.08381001518497377,0.0,0.0,0.0,0.0,-0.012790593307878378,-3.8779795824017858,-1.5746851916343285,-2.275809373854898,0.008460246409861311,-0.018075127380376182,0.17686725312293883
8382,0.0,300.07095,25407.787,-0.08381999182444122,0.0,0.0,0.0,0.0,-0.012792115884120908,-3.8719969485113466,-1.5899600382168384,-2.2613759301554275,0.009069629813452771,-0.01653846976896988,0.17092375095136084
8383,0.0,300.03435,25583.845,-0.08383000149913855,0.0,0.0,0.0,0.0,-0.012793643502006624,-3.861142912115136,-1.6042842535555284,-2.3114228857196775,-0.004185441611295926,-0.017970227624023383,0.17208879604884184
8384,0.0,299.93456000000003,25722.909,-0.0838400111738361,0.0,0.0,0.0,0.0,-0.01279517111989234,-3.882824944379986,-1.6181634494502986,-2.318133438481958,0.0034433857727357163,0.01832134411492588,0.17742129827761882
8385,0.0,300.40951,25615.076,-0.08384998781330355,0.0,0.0,0.0,0.0,-0.012796693696134898,-3.873082038043436,-1.6157606281631585,-2.297500829345678,-0.0003099910099512307,0.0074613365345515825,0.18897376796775883
8386,0.0,300.43327,25514.19,-0.08385999748800088,0.0,0.0,0.0,0.0,-0.012798221314020586,-3.8891204699013064,-1.5843741930655586,-2.282181906383818,-0.014663525439427288,0.015523810238080785,0.20649318643679082
8387,0.0,300.00302,25466.132,-0.08387000716269843,0.0,0.0,0.0,0.0,-0.01279974893190633,-3.8838136738275666,-1.5836365469927587,-2.2736180178636274,-0.010421613677533189,0.0005945601220485154,0.1962222045456238
8388,0.0,300.57825,25531.379,-0.08387998380216588,0.0,0.0,0.0,0.0,-0.01280127150814886,-3.8694582503857964,-1.6123435435259184,-2.2791000048796577,-0.001199811937562219,-0.0016747767722875987,0.17757118836491181
8389,0.0,300.00774,25433.811,-0.08388999347686343,0.0,0.0,0.0,0.0,-0.012802799126034603,-3.8257977088768365,-1.5919500614132382,-2.313495488799228,0.012097648906444988,-0.005070692183138355,0.14775495654977888
8390,0.0,299.48831,25430.644,-0.08390000315156076,0.0,0.0,0.0,0.0,-0.012804326743920319,-3.840941846196446,-1.6027781586068883,-2.2865607680159776,0.008154551286491552,-0.005465082052686605,0.15148694918559785
8391,0.0,299.53348,25444.764,-0.08391001282625854,0.0,0.0,0.0,0.0,-0.01280585436180609,-3.859938360396257,-1.5869339667931885,-2.2877006743784776,0.01114262623669159,-8.803470797059922e-05,0.15608315296420786
8392,0.0,299.594,25520.625,-0.08391998946572576,0.0,0.0,0.0,0.0,-0.012807376938048592,-3.890372948349916,-1.5946473331794384,-2.272612468464388,-0.006221701537584134,-0.002950777821969097,0.18566560771626883
8393,0.0,299.95821,25645.313,-0.08392999914042332,0.0,0.0,0.0,0.0,-0.012808904555934308,-3.9017365482214164,-1.6133949931546885,-2.280403145833268,0.010815650429421592,-0.001138794016540219,0.17524214181755285
8394,0.0,300.56587,25695.909,-0.08394000881512065,0.0,0.0,0.0,0.0,-0.012810432173820024,-3.8955301887088964,-1.6025638562107383,-2.3128208668826478,-0.002959056987211187,0.006105814401121964,0.1975768692668188
8395,0.0,299.84471,25520.202,-0.0839499854545882,0.0,0.0,0.0,0.0,-0.012811954750062582,-3.837578767789536,-1.6157655930886485,-2.3041596050278477,0.006800097422642364,0.0009390980056167571,0.16868973713088084
8396,0.0,300.43246,25549.882999999998,-0.08395999512928554,0.0,0.0,0.0,0.0,-0.012813482367948298,-3.857982078428186,-1.5976484786506284,-2.3108957930176577,-0.011196883753046389,0.016294194421611785,0.16914185945800184
8397,0.0,300.57423,25560.727000000003,-0.08397000480398298,0.0,0.0,0.0,0.0,-0.012815009985834014,-3.8669329271615664,-1.6019758671777085,-2.3009138609825177,0.00038054940007230167,-0.0005670900100449265,0.17879367461056184
8398,0.0,300.34376000000003,25354.967999999997,-0.08398001447868064,0.0,0.0,0.0,0.0,-0.012816537603719758,-3.8705162861402167,-1.5778603121476884,-2.2589006614861376,-0.004542347711944815,0.0016674059857601587,0.18097848500618582
8399,0.0,300.16346,25465.661,-0.08398999111814787,0.0,0.0,0.0,0.0,-0.012818060179962287,-3.879195178546756,-1.5707193307429286,-2.291010455830128,0.01127806231130809,0.0017480440764185182,0.19007806872174482
8400,0.0,299.86041,25661.95,-0.08400000079284542,0.0,0.0,0.0,0.0,-0.012819587797848003,-3.8652560995710763,-1.6194113682734586,-2.315924654588968,-0.008357539124074892,-0.0011974158037257388,0.16281509543609884
8401,0.0,299.75587,25695.866,-0.08401001046754275,0.0,0.0,0.0,0.0,-0.01282111541573372,-3.8608536292115865,-1.6185130207347984,-2.3315349882795875,-0.013241939602127687,-0.003145123548124527,0.16843215882295984
8402,0.0,300.48926,25745.382999999998,-0.08401998710701042,0.0,0.0,0.0,0.0,-0.012822637991976277,-3.889002324939646,-1.6140241201417784,-2.322927023380048,-0.01922635377299338,-0.0005697449583544495,0.16307847966709285
8403,0.0,299.64271,25623.283,-0.08402999678170775,0.0,0.0,0.0,0.0,-0.012824165609861993,-3.8901034238233163,-1.6110124368695484,-2.287722256605608,0.0073648953900335825,0.003796137446649596,0.1808808786240528
8404,0.0,299.83661,25488.165,-0.0840400064564053,0.0,0.0,0.0,0.0,-0.012825693227747736,-3.893254935609346,-1.5880129768246785,-2.2664980107359374,-0.004622737657653686,0.009382368342242662,0.18845395040145682
8405,0.0,300.04467,25498.622000000003,-0.08405001613110286,0.0,0.0,0.0,0.0,-0.012827220845633452,-3.870669489555336,-1.5958122668194086,-2.284462631033908,0.022194872590963376,-0.009262545539742071,0.19969744973860382
8406,0.0,299.76776,25563.604,-0.0840599927705703,0.0,0.0,0.0,0.0,-0.01282874342187601,-3.8510222661413063,-1.6113090151738185,-2.308366011492988,0.023996565017776576,2.7757382592440373e-05,0.18852878905384282
8407,0.0,299.85717999999997,25580.407000000003,-0.08407000244526763,0.0,0.0,0.0,0.0,-0.012830271039761698,-3.8548548846445563,-1.5952448467634086,-2.325705355154248,0.019351167946811583,0.012519502413328687,0.18276409512741182
8408,0.0,300.00857,25466.213,-0.08408001211996496,0.0,0.0,0.0,0.0,-0.012831798657647414,-3.8498608788766866,-1.6016616583216985,-2.289570222137988,-0.012513783629764288,0.0054620164645090554,0.16743337793438784
8409,0.0,300.41121,25505.321,-0.08408998875943263,0.0,0.0,0.0,0.0,-0.012833321233889972,-3.869291570744346,-1.6097385788438285,-2.273950465221438,-0.02907370491660127,0.002074961013857708,0.16513472889002884
8410,0.0,300.45142999999996,25745.879,-0.08409999843412996,0.0,0.0,0.0,0.0,-0.012834848851775688,-3.916374668441086,-1.6015595227116186,-2.308170150248658,-0.02064419463792338,0.01069612136812499,0.18981997365627282
8411,0.0,300.52612,25770.762000000002,-0.08411000810882752,0.0,0.0,0.0,0.0,-0.012836376469661431,-3.888830680372706,-1.6206024437660085,-2.3242351292591477,-0.02033582311573948,0.01076100281177829,0.18000440715505184
8412,0.0,300.54151,25547.791,-0.08411998474829485,0.0,0.0,0.0,0.0,-0.012837899045903961,-3.862429131792076,-1.5898991418858286,-2.313562261980818,-0.005984097124909405,0.0028419910355826773,0.1842415657607268
8413,0.0,300.14508,25518.351000000002,-0.0841299944229924,0.0,0.0,0.0,0.0,-0.012839426663789705,-3.855342865892717,-1.5985793515174984,-2.303019192040298,0.005852027776400175,-0.015919747847156784,0.17403268596818883
8414,0.0,299.51446,25660.002999999997,-0.08414000409768985,0.0,0.0,0.0,0.0,-0.012840954281675393,-3.908500195288936,-1.5911208175313984,-2.300379270229758,0.015903403109793685,0.0008946941944969422,0.17913759195950382
8415,0.0,299.96214,25831.065,-0.08415001377238729,0.0,0.0,0.0,0.0,-0.012842481899561137,-3.9352329753272564,-1.6104608235151086,-2.3063049594645775,0.013834261292585288,0.002016485438661618,0.17464402028352283
8416,0.0,299.66676,25732.766,-0.08415999041185473,0.0,0.0,0.0,0.0,-0.012844004475803666,-3.9275762496215965,-1.6063036610048285,-2.2882384062065477,0.017736470825953383,0.0014547337063710389,0.1901909346503838
8417,0.0,299.84848999999997,25567.021,-0.08417000008655229,0.0,0.0,0.0,0.0,-0.01284553209368941,-3.8569477527261067,-1.6061521801148786,-2.308636042644638,-0.0008639256697078252,-0.014811192456000884,0.1817690227342058
8418,0.0,299.48422999999997,25659.888,-0.08418000976124962,0.0,0.0,0.0,0.0,-0.012847059711575126,-3.8559825306808464,-1.6175072686855383,-2.326475526555258,0.009728774334755271,0.02023947215048038,0.18689634181773282
8419,0.0,299.96596,25904.502999999997,-0.08418998640071729,0.0,0.0,0.0,0.0,-0.012848582287817684,-3.900126088512476,-1.6274272911395684,-2.346768696908038,-0.013262247160631886,0.01792061383287688,0.17550048006304883
8420,0.0,300.40671000000003,25829.206000000002,-0.08419999607541462,0.0,0.0,0.0,0.0,-0.0128501099057034,-3.914497926605866,-1.6186848679517587,-2.3182508741685477,-0.012276803683126187,0.0014909774597980186,0.17107176652596884
8421,0.0,300.92045,25479.891,-0.08421000575011195,0.0,0.0,0.0,0.0,-0.012851637523589088,-3.8840540167512865,-1.5933732725036986,-2.267823341866738,-0.01867445468202518,-0.014290231943586088,0.17065008223185182
8422,0.0,300.00107,25457.75,-0.0842200154248095,0.0,0.0,0.0,0.0,-0.012853165141474832,-3.884751639445136,-1.5920076140189185,-2.261761066518438,0.00975066935219114,0.0004826735198961675,0.18167427371735484
8423,0.0,299.99786,25772.522999999997,-0.08422999206427695,0.0,0.0,0.0,0.0,-0.012854687717717361,-3.9045625027503164,-1.5925641922988485,-2.337076757051518,0.013223712246078788,0.016269474158922086,0.17734790857287583
8424,0.0,299.80854,26001.634,-0.0842400017389745,0.0,0.0,0.0,0.0,-0.012856215335603105,-3.9168745047154165,-1.6360185374124585,-2.350954534396148,0.0051282246251413656,-0.016738026336414583,0.17576884948453483
8425,0.0,299.85472000000004,25652.994,-0.08425001141367183,0.0,0.0,0.0,0.0,-0.012857742953488821,-3.8870673212236757,-1.6010063894820286,-2.3097960113591176,0.004485341248068716,-0.027749146895627578,0.17167031362504084
8426,0.0,299.83393,25534.701,-0.08425998805313939,0.0,0.0,0.0,0.0,-0.012859265529731378,-3.8732704012370265,-1.6073834816363983,-2.2812576196425978,-0.003061116806183707,-0.017995899328556983,0.18207175146658283
8427,0.0,300.14252999999997,25775.752,-0.08426999772783683,0.0,0.0,0.0,0.0,-0.012860793147617094,-3.929885649249517,-1.6109988593182087,-2.2943004789048276,0.017503281447939383,0.011969670352564488,0.17711028115942382
8428,0.0,299.46432999999996,25947.83,-0.08428000740253427,0.0,0.0,0.0,0.0,-0.01286232076550281,-3.925711768112586,-1.6269437681918484,-2.3348367650554476,0.003272336794204497,-0.004620493916632246,0.2054566619819938
8429,0.0,299.87101,25756.109,-0.08428998404200172,0.0,0.0,0.0,0.0,-0.01286384334174534,-3.8795364411804365,-1.6116339644808884,-2.338043600296938,-0.003369989076567027,0.007828440592156932,0.18384704670179083
8430,0.0,299.6351,25465.339,-0.08429999371669927,0.0,0.0,0.0,0.0,-0.012865370959631084,-3.8507867868180665,-1.5767389482620184,-2.313301350080068,-0.007134902512110054,0.007507898315071873,0.1906245854281818
8431,0.0,299.97988,25566.425,-0.0843100033913966,0.0,0.0,0.0,0.0,-0.0128668985775168,-3.8757483043565757,-1.6053611357618085,-2.290445366249358,0.007277282896286903,0.014154462509686687,0.17468641466770685
8432,0.0,300.40585,25892.466,-0.08432001306609405,0.0,0.0,0.0,0.0,-0.012868426195402516,-3.9370808395346257,-1.6179038547746785,-2.315678333489658,-0.007350076505996073,-0.023880696829091275,0.16775088998572385
8433,0.0,300.19299,26006.612999999998,-0.0843299897055616,0.0,0.0,0.0,0.0,-0.012869948771645073,-3.9538307756127167,-1.6358372669695684,-2.315693025616108,-0.007741645588590933,-0.029212753227824267,0.1916809695849388
8434,0.0,299.71699,25659.432,-0.08433999938025893,0.0,0.0,0.0,0.0,-0.01287147638953079,-3.887047562846726,-1.6156540342526384,-2.297125014883588,0.004694933551128865,-0.007870816028564062,0.17087377745642884
8435,0.0,301.18262000000004,25554.315,-0.08435000905495649,0.0,0.0,0.0,0.0,-0.012873004007416505,-3.856926879774046,-1.6084083841125485,-2.3025383035428377,0.008333403202717861,0.017333220590905685,0.17924829966542982
8436,0.0,301.19408,25856.536,-0.08435998569442393,0.0,0.0,0.0,0.0,-0.012874526583659035,-3.9020550127278466,-1.6288711725320686,-2.328815222361168,-0.008316242900349272,0.013875924110197089,0.17191272357896484
8437,0.0,300.48253,25994.068,-0.08436999536912149,0.0,0.0,0.0,0.0,-0.012876054201544779,-3.9271405520785962,-1.6459816229957382,-2.328425627697718,-0.0009711043167280341,0.011630681452108889,0.1818523524224298
8438,0.0,300.18686,25748.077,-0.08438000504381882,0.0,0.0,0.0,0.0,-0.012877581819430495,-3.9123297740418863,-1.6180993107189683,-2.296343292431438,0.008197966013526252,0.008931611673606442,0.17785070353749782
8439,0.0,299.89332,25579.713,-0.08439001471851637,0.0,0.0,0.0,0.0,-0.012879109437316238,-3.899882705838456,-1.5948791648023184,-2.280832257250618,0.02418188440806618,-0.001209959941288749,0.18510613154105282
8440,0.0,299.92471,25667.091,-0.08439999135798382,0.0,0.0,0.0,0.0,-0.012880632013558768,-3.875971320703586,-1.6210861693637484,-2.305097367995398,-0.004724466143843506,-0.04234237000336656,0.18158617162115984
8441,0.0,300.2868,25816.534,-0.08441000103268137,0.0,0.0,0.0,0.0,-0.012882159631444512,-3.8808624815863064,-1.6116430837317883,-2.3550760305029077,-0.007388585987971663,-0.014420927020984685,0.1906090928341528
8442,0.0,299.59118,25834.26,-0.0844200107073787,0.0,0.0,0.0,0.0,-0.0128836872493302,-3.892355068195536,-1.6250302453779983,-2.3355845436292477,-0.007779842178935643,0.005160800311881335,0.16570224013853785
8443,0.0,299.41258,25631.785,-0.08442998734684626,0.0,0.0,0.0,0.0,-0.012885209825572758,-3.892351015195136,-1.6049202706432986,-2.2941515311401277,-0.014048621443990987,0.01898354459852998,0.16832939499781785
8444,0.0,299.8607,25629.062,-0.08443999702154359,0.0,0.0,0.0,0.0,-0.012886737443458474,-3.908722198385846,-1.6164132625525685,-2.2654594293834376,-0.018025537907232082,-0.004618542092964616,0.15419483981284585
8445,0.0,300.02455,25821.856,-0.08445000669624103,0.0,0.0,0.0,0.0,-0.01288826506134419,-3.9253978632316064,-1.6179347589027286,-2.3058668301213374,-0.004697369303044255,-0.0005587779851020934,0.17719892027817183
8446,0.0,300.60703,25905.654,-0.08446001637093858,0.0,0.0,0.0,0.0,-0.012889792679229933,-3.8994139763421964,-1.6278560985818884,-2.347401876895528,0.02323926695928708,0.0009190970160628131,0.18532233884739083
8447,0.0,300.40145,25776.834,-0.08446999301040592,0.0,0.0,0.0,0.0,-0.012891315255472463,-3.8772047500503164,-1.6271606037132484,-2.331148636016458,0.0025211926088723378,0.0009224381778700601,0.18815642977459382
8448,0.0,300.2769,25627.345,-0.08448000268510347,0.0,0.0,0.0,0.0,-0.012892842873358207,-3.8809536740953066,-1.5903991808101785,-2.3187199076398377,0.00031082136840818067,-0.0006651489502025904,0.17203726214875584
8449,0.0,300.27742,25749.597,-0.0844900123598008,0.0,0.0,0.0,0.0,-0.012894370491243895,-3.8931683027257966,-1.6283193565276084,-2.3057469626345077,-0.01953632420383508,-0.00016945875342677682,0.18014500573892783
8450,0.0,300.20112,25874.251,-0.08449998899926847,0.0,0.0,0.0,0.0,-0.012895893067486452,-3.9343776909178465,-1.6151915869069986,-2.3155569461276775,0.008289106542796121,0.01893127507887138,0.17362427525038182
8451,0.0,300.36249,25818.167999999998,-0.0845099986739658,0.0,0.0,0.0,0.0,-0.012897420685372168,-3.9252129450883566,-1.5924985336923685,-2.330366913564308,-0.009593550941334761,0.0003235102791454787,0.18480778004910783
8452,0.0,300.1997,25628.48,-0.08452000834866336,0.0,0.0,0.0,0.0,-0.012898948303257912,-3.8684196690332966,-1.6011886731750185,-2.3208094319960577,0.014062351996096088,-0.010996080887978689,0.1821401154508298
8453,0.0,299.75581,25708.962000000003,-0.0845299849881308,0.0,0.0,0.0,0.0,-0.012900470879500442,-3.885740166242696,-1.5896028675565885,-2.339539461419568,-0.013012785999261986,-0.004604469568950766,0.18556568099140683
8454,0.0,299.74149,26087.584,-0.08453999466282835,0.0,0.0,0.0,0.0,-0.012901998497386186,-3.924730334065726,-1.6393512183163683,-2.3658925766454177,0.016022297876527685,0.02071388800630158,0.17607991726523484
8455,0.0,299.66699,26125.827,-0.08455000433752569,0.0,0.0,0.0,0.0,-0.012903526115271902,-3.9522957017112166,-1.6469681232930984,-2.3423353224204977,-0.013937927923566386,0.02043273035530348,0.17161408837699182
8456,0.0,300.3135,25840.62,-0.08456001401222302,0.0,0.0,0.0,0.0,-0.01290505373315759,-3.925418330883626,-1.6277197151184286,-2.301765092391528,-0.0074222722981462435,-0.002858931766654597,0.16199036051720384
8457,0.0,300.27135,25647.517999999996,-0.08456999065169057,0.0,0.0,0.0,0.0,-0.012906576309400147,-3.9126942401028564,-1.5997297956810383,-2.2837809163666276,-0.026669569444081578,-0.0058632647200091755,0.18443730541504483
8458,0.0,299.88155,25823.908,-0.08458000032638802,0.0,0.0,0.0,0.0,-0.012908103927285863,-3.8876220756534265,-1.6286847345136686,-2.3335162975251276,0.015578710154998985,-0.016090807768789087,0.1877580401002758
8459,0.0,300.19858999999997,25917.015,-0.08459001000108557,0.0,0.0,0.0,0.0,-0.012909631545171607,-3.923188066088516,-1.6111214625803085,-2.3438159847916276,0.015234218293250286,-0.0033267370774983872,0.1968730150848538
8460,0.0,300.06268,25729.08,-0.0845999866405529,0.0,0.0,0.0,0.0,-0.012911154121414137,-3.888161428681656,-1.6079979164970384,-2.324838418368688,0.008583630583813383,-0.008087725111921322,0.16962959752613785
8461,0.0,299.95147000000003,25690.732000000004,-0.08460999631525046,0.0,0.0,0.0,0.0,-0.01291268173929988,-3.9144542555265565,-1.6090624370520983,-2.285824337843298,-0.005456465373836205,0.014729738293711984,0.16892189299379284
8462,0.0,299.6905,25927.423,-0.08462000598994779,0.0,0.0,0.0,0.0,-0.012914209357185596,-3.938294307854386,-1.6333416319732683,-2.309653143095018,0.0032577062733605768,0.015557873679942586,0.16408880147430385
8463,0.0,299.52862999999996,26164.662999999997,-0.08463001566464534,0.0,0.0,0.0,0.0,-0.012915736975071312,-3.9606384990595864,-1.6520831111229086,-2.340682711507398,0.0007213070299024614,0.02472470781788868,0.18177827370761881
8464,0.0,299.47427000000005,26114.307,-0.08463999230411279,0.0,0.0,0.0,0.0,-0.012917259551313842,-3.9273388451231663,-1.6495207029450185,-2.361237807011028,-0.0067636549708707736,-0.01987207880997148,0.17837855617709283
8465,0.0,299.56587,25803.305,-0.08465000197881034,0.0,0.0,0.0,0.0,-0.012918787169199586,-3.9049699306155263,-1.6190735506901184,-2.3195168288434878,-0.01017827558651759,-0.024775678350919077,0.17896560288752983
8466,0.0,298.90025,25671.072999999997,-0.08466001165350767,0.0,0.0,0.0,0.0,-0.012920314787085302,-3.884992894293946,-1.6191381960464983,-2.2992341962917475,-0.007823928994761673,-0.012392540149298489,0.17421265945095082
8467,0.0,299.54353,25928.935,-0.08466998829297512,0.0,0.0,0.0,0.0,-0.012921837363327832,-3.9447663415431258,-1.6371416238232985,-2.2998408291266177,0.007625538576857062,0.0026160498408340175,0.17617223448184582
8468,0.0,300.05582999999996,26025.007999999998,-0.08467999796767267,0.0,0.0,0.0,0.0,-0.012923364981213575,-3.9533405652143365,-1.6406794878724584,-2.3169324331384273,-0.002315974101193848,0.00013280043885388287,0.18653637458720684
8469,0.0,300.20101,25700.842,-0.08469000764237,0.0,0.0,0.0,0.0,-0.012924892599099264,-3.9001408819639365,-1.6160257957143285,-2.296247641621998,0.00882793764589961,0.012553043018138888,0.18501760387981583
8470,0.0,299.81427,25642.088,-0.08469998428183745,0.0,0.0,0.0,0.0,-0.012926415175341821,-3.877020642507146,-1.6053561708363184,-2.3121774530691477,0.016894325230590083,0.014296345894689488,0.19282757353059982
8471,0.0,300.20909,26107.381,-0.084709993956535,0.0,0.0,0.0,0.0,-0.012927942793227537,-3.937034736655076,-1.6479353718385585,-2.351021915527798,0.016514049428309786,0.0001029718757850329,0.1905102097568938
8472,0.0,300.07659,26290.851000000002,-0.08472000363123255,0.0,0.0,0.0,0.0,-0.01292947041111328,-3.969632714897246,-1.6614309512454684,-2.360698555307808,-0.012450776698795988,-0.01939555539394228,0.17881522644018882
8473,0.0,300.28646000000003,25998.255,-0.08473001330592989,0.0,0.0,0.0,0.0,-0.012930998028998997,-3.948741726985466,-1.6195301211851785,-2.3345485967270077,-0.014904530015462585,-0.015082135532740884,0.17153321075400985
8474,0.0,300.12764,25798.186,-0.08473998994539733,0.0,0.0,0.0,0.0,-0.012932520605241526,-3.9272376214381763,-1.6194198795742984,-2.295346862283098,-0.013345026654051588,0.004139448770706786,0.16556501567749482
8475,0.0,299.40386,25847.432,-0.08474999962009477,0.0,0.0,0.0,0.0,-0.01293404822312727,-3.926115548277436,-1.6070050327240486,-2.3238533366214678,-0.016413282719114883,0.015311583991385684,0.18994878814148583
8476,0.0,299.36953,26049.502,-0.08476000929479233,0.0,0.0,0.0,0.0,-0.012935575841013014,-3.9434467859378963,-1.6252456623492586,-2.349705703647898,-0.016259242359412285,-0.0076953471517716325,0.17631280266821883
8477,0.0,299.84238999999997,26049.101000000002,-0.08476998593425955,0.0,0.0,0.0,0.0,-0.012937098417255516,-3.932738353581056,-1.6438352553089086,-2.341702750383068,-0.007053317741883263,-0.007705602863983793,0.19041668677266382
8478,0.0,299.63988,25684.049,-0.0847799956089571,0.0,0.0,0.0,0.0,-0.012938626035141232,-3.8968690973910363,-1.6143274872217184,-2.296112980683708,0.021460189261455778,0.0031282229417565668,0.17631949011887882
8479,0.0,299.94424,25729.27,-0.08479000528365466,0.0,0.0,0.0,0.0,-0.012940153653026976,-3.911167170877146,-1.6248852492886883,-2.285003199962258,0.0011135574015995588,0.002495199704057038,0.1805084180197938
8480,0.0,300.16455,26082.512000000002,-0.08480001495835199,0.0,0.0,0.0,0.0,-0.012941681270912692,-3.9426470276339667,-1.6444105787156884,-2.3413747613256977,0.006878117579017354,-0.005309259791358145,0.17683164751442484
8481,0.0,300.28757,26194.672000000002,-0.08480999159781943,0.0,0.0,0.0,0.0,-0.012943203847155221,-3.959738935620806,-1.6342954042923985,-2.3684918671269477,-0.016874747212157884,-0.0012682434042658789,0.1936113832779558
8482,0.0,300.63594,26071.205,-0.08482000127251699,0.0,0.0,0.0,0.0,-0.012944731465040965,-3.926974683037226,-1.6369132372507584,-2.361107503048168,0.009843294799482559,0.013847608836152589,0.18876211015436983
8483,0.0,300.40826,25856.001,-0.08483001094721454,0.0,0.0,0.0,0.0,-0.012946259082926681,-3.926339071249496,-1.6044764670994986,-2.328763242631038,-0.012780419380329188,-0.0013533635054165786,0.17747702703311882
8484,0.0,299.55242000000004,25931.298,-0.08483998758668176,0.0,0.0,0.0,0.0,-0.01294778165916921,-3.9256813706095866,-1.6260260675762785,-2.3307597506280775,0.004696026949311776,-0.006281076169593954,0.16972297865535382
8485,0.0,299.98495,26146.963,-0.08484999726137932,0.0,0.0,0.0,0.0,-0.012949309277054927,-3.973984928051776,-1.6412836889070883,-2.3327553467000275,-0.013753884215152688,-0.01988086672808878,0.16963775418944285
8486,0.0,299.46324,26024.582000000002,-0.08486000693607687,0.0,0.0,0.0,0.0,-0.01295083689494067,-3.9464268558070064,-1.6277586239222683,-2.3366376144581777,0.01987999128000238,0.007628068966331793,0.17743484543145582
8487,0.0,299.48614,25719.857999999997,-0.08486998357554432,0.0,0.0,0.0,0.0,-0.0129523594711832,-3.909065386194716,-1.6117960844968884,-2.297333237779138,-0.014587771822200985,0.0021658832890560377,0.17409887146472083
8488,0.0,300.12521,25781.158,-0.08487999325024165,0.0,0.0,0.0,0.0,-0.012953887089068916,-3.8991170940628965,-1.6135533641453184,-2.324157818276518,-0.009985263500143782,0.0073453629678558825,0.18309756586782283
8489,0.0,299.66863,26111.099,-0.08489000292493931,0.0,0.0,0.0,0.0,-0.012955414706954688,-3.9342955163347364,-1.6541035318223085,-2.348722952375908,-0.013112628624365685,-0.009143375675605922,0.18236581691060483
8490,0.0,299.88472,26190.395,-0.08490001259963675,0.0,0.0,0.0,0.0,-0.012956942324840376,-3.9404791790450164,-1.6519079201806184,-2.3688390066112075,0.005883310353362525,-0.0002026537588928688,0.17926873691994683
8491,0.0,300.11331,25976.252999999997,-0.08490998923910409,0.0,0.0,0.0,0.0,-0.012958464901082933,-3.9289098894032164,-1.6316081637021884,-2.335614130532168,0.009471796377518521,-0.022655449476918776,0.18204337033128185
8492,0.0,300.17466,25817.255,-0.08491999891380153,0.0,0.0,0.0,0.0,-0.012959992518968622,-3.897787304631656,-1.6173179935668587,-2.332695666269138,0.009162540997272392,-0.023787505177643976,0.16841421416368885
8493,0.0,300.43372,26070.497000000003,-0.08493000858849908,0.0,0.0,0.0,0.0,-0.012961520136854365,-3.931772523585736,-1.6387646478334785,-2.3542428349456777,0.005500120747769655,-0.004158692720581016,0.18177522382481784
8494,0.0,300.57191,26159.822999999997,-0.08493998522796642,0.0,0.0,0.0,0.0,-0.012963042713096895,-3.937820512107626,-1.6286774391129484,-2.3854351313241176,-0.001372878297042539,0.016120482824467784,0.18722683360284983
8495,0.0,299.36794,25939.699,-0.08494999490266375,0.0,0.0,0.0,0.0,-0.012964570330982611,-3.928805423317906,-1.6279094968621586,-2.3283058615358976,0.008219844413660481,0.013703733401453186,0.16621937259207484
8496,0.0,299.79387,25891.793999999998,-0.08496000457736153,0.0,0.0,0.0,0.0,-0.012966097948868383,-3.928871487224426,-1.6145504022437185,-2.327036867110658,-0.017194128709928383,0.001835043047229648,0.18291416759972282
8497,0.0,299.29458,25930.496,-0.08497001425205886,0.0,0.0,0.0,0.0,-0.01296762556675407,-3.9411904806152167,-1.6299145161600384,-2.311118404064628,-0.0003293235989442087,-0.010800247001401388,0.16566515518487784
8498,0.0,299.48345,26125.03,-0.0849799908915263,0.0,0.0,0.0,0.0,-0.012969148142996628,-3.940313107353626,-1.6520739918720084,-2.348969678775258,-0.0016992298409259283,-0.008007638634617403,0.1965865895465858
8499,0.0,300.25415,26257.432999999997,-0.08499000056622363,0.0,0.0,0.0,0.0,-0.012970675760882316,-3.972335559538996,-1.6462510461973285,-2.3630173781616577,0.0004731972503234325,-0.003276780199868027,0.1821178543461328
8500,0.0,299.8264,26091.341,-0.08500001024092141,0.0,0.0,0.0,0.0,-0.012972203378768088,-3.9337715647080262,-1.6464853096204484,-2.350859491536768,-0.0033411272554185866,-0.004965088319291065,0.2033321500998208
8501,0.0,300.11379,25927.751,-0.08500998688038863,0.0,0.0,0.0,0.0,-0.01297372595501059,-3.9184256892935063,-1.6367619590108284,-2.3262011384281776,0.013005832063825686,0.006163608362975785,0.17641109806041985
8502,0.0,300.5678,26154.961,-0.08501999655508619,0.0,0.0,0.0,0.0,-0.012975253572896334,-3.953060300236676,-1.6480013344200684,-2.3493936226170975,-0.005583582563806694,0.0012732262642826486,0.1958943877407708
8503,0.0,300.05009,26184.877,-0.08503000622978374,0.0,0.0,0.0,0.0,-0.012976781190782077,-3.964021639818476,-1.6408624808405183,-2.3546646509623077,0.013266539288055488,-0.009892800274193371,0.16989696383002484
8504,0.0,300.60468,26027.507999999998,-0.08504001590448107,0.0,0.0,0.0,0.0,-0.012978308808667766,-3.935265703305486,-1.6237279150244686,-2.352718805470268,-0.016913881970770185,-0.017590396638536985,0.17538123065877984
8505,0.0,299.97593,25868.752999999997,-0.08504999254394852,0.0,0.0,0.0,0.0,-0.012979831384910323,-3.918514450002266,-1.6260962858082086,-2.3188441321020976,0.017919540801020983,-0.006073659010523474,0.16535814040457783
8506,0.0,299.52716000000004,25958.347999999998,-0.08506000221864607,0.0,0.0,0.0,0.0,-0.012981359002796039,-3.9346902785736964,-1.6201013915915585,-2.3358978405601682,-0.015724768130413787,0.012864024672580387,0.17849142210573182
8507,0.0,300.02051,26191.951,-0.08507001189334351,0.0,0.0,0.0,0.0,-0.012982886620681783,-3.9814636257148663,-1.6471497990360284,-2.333085564907618,0.005240756383897385,0.004615138889853746,0.17428709280329682
8508,0.0,300.23339,26152.821,-0.08507998853281085,0.0,0.0,0.0,0.0,-0.012984409196924285,-3.9764612099711663,-1.6432305476492286,-2.3301127904392276,-0.007136460282813794,0.004584409446120986,0.16910774332713485
8509,0.0,300.15141,26040.86,-0.08508999820750829,0.0,0.0,0.0,0.0,-0.012985936814810028,-3.9451515792311462,-1.6429522078467587,-2.327667513972898,0.006128619317147634,0.0014734068924639387,0.1833697349771838
8510,0.0,300.63338,26083.937,-0.08510000788220584,0.0,0.0,0.0,0.0,-0.012987464432695772,-3.9351076362898865,-1.6418481705377985,-2.351909725265418,0.005061952901025855,-0.0011225135192334589,0.2020211361929338
8511,0.0,299.8356,26290.486,-0.08510998452167329,0.0,0.0,0.0,0.0,-0.012988987008938302,-3.967537111040426,-1.6569155034998284,-2.367198554699308,-0.00851458447959906,-0.014548937998868385,0.2009647621686778
8512,0.0,300.42062999999996,26336.56,-0.08511999419637062,0.0,0.0,0.0,0.0,-0.012990514626824018,-3.975780913854026,-1.6451385989125384,-2.3847371033302274,-0.006201241180964854,0.003573736547750337,0.2061624616041508
8513,0.0,300.34823,26137.917999999998,-0.08513000387106817,0.0,0.0,0.0,0.0,-0.012992042244709734,-3.9585460362780758,-1.6467027530919085,-2.3400256188175477,-0.005465048514108295,-0.009239687833386192,0.1861652616055808
8514,0.0,299.08897,25910.272,-0.08514001354576572,0.0,0.0,0.0,0.0,-0.012993569862595478,-3.9196872869930166,-1.6260273848014086,-2.3303609353887182,0.005445221540126524,0.008981576961212632,0.18787067298139182
8515,0.0,299.04546,25976.912999999997,-0.08514999018523317,0.0,0.0,0.0,0.0,-0.012995092438838007,-3.937067869933346,-1.6214606666007085,-2.3378043719483275,-0.001135559114270959,-0.0027929005881128276,0.16971571365213683
8516,0.0,299.35847,26221.387000000002,-0.0851599998599305,0.0,0.0,0.0,0.0,-0.012996620056723723,-3.953896231569176,-1.6528490268734986,-2.3639017428489377,0.02162975970544108,0.005320296010122335,0.1805669028155658
8517,0.0,299.59476,26081.567000000003,-0.08517000953462806,0.0,0.0,0.0,0.0,-0.012998147674609467,-3.958960455568976,-1.6372607820350586,-2.331923873667968,0.002350101681786978,-0.007621901819598144,0.17260057854185082
8518,0.0,300.33864,25961.496,-0.0851799861740955,0.0,0.0,0.0,0.0,-0.012999670250851997,-3.9260197961429864,-1.6458788794355983,-2.3197477485412774,0.008428549413608061,-0.0012785606207591088,0.1833669181419058
8519,0.0,300.18225,26087.106,-0.08518999584879283,0.0,0.0,0.0,0.0,-0.013001197868737713,-3.959943713466016,-1.6418671183146683,-2.3280178958574775,-0.017266730106093586,0.0011945347283913988,0.18240740069470882
8520,0.0,299.69087,26400.136000000002,-0.08520000552349039,0.0,0.0,0.0,0.0,-0.013002725486623429,-3.979862893206886,-1.6766043714929684,-2.3685149692292278,-0.012465375606236787,0.010401030515001792,0.18351813558682983
8521,0.0,300.62801,26480.584,-0.08521001519818794,0.0,0.0,0.0,0.0,-0.013004253104509172,-3.9955888387339162,-1.6691401633063085,-2.3847074151022976,-0.022674463115045278,0.003978432285390697,0.1892257835326308
8522,0.0,300.39596,26215.865,-0.08521999183765527,0.0,0.0,0.0,0.0,-0.013005775680751702,-3.9427588904450066,-1.6435071649265285,-2.382702294479408,-0.01900147304579938,0.013430504432487589,0.19553606197540682
8523,0.0,300.21736,26059.064,-0.08523000151235272,0.0,0.0,0.0,0.0,-0.013007303298637418,-3.943895554407186,-1.6371178124459485,-2.340291495643788,-0.0028003106887441475,-0.01008924960888141,0.1896910578460498
8524,0.0,300.06313,26117.798,-0.08524001118705027,0.0,0.0,0.0,0.0,-0.013008830916523162,-3.954313994585406,-1.6227950156573985,-2.3620494203411275,0.013231094786307386,0.011214065434992091,0.17734921566550485
8525,0.0,299.64006,26229.075,-0.0852499878265176,0.0,0.0,0.0,0.0,-0.013010353492765692,-3.984165153131486,-1.6402358869786784,-2.3485828198870777,0.027107996682850972,-0.013532386730042588,0.18327982929581083
8526,0.0,299.57616,26107.102000000003,-0.08525999750121516,0.0,0.0,0.0,0.0,-0.013011881110651435,-3.951987775005826,-1.6378643751196285,-2.346055064862608,0.015926907472363385,-8.044564710661723e-05,0.16686200620299785
8527,0.0,299.76642999999996,26076.556,-0.08527000717591249,0.0,0.0,0.0,0.0,-0.013013408728537124,-3.959761936398076,-1.6340963006477485,-2.3327635540258376,0.004318135527166796,-0.014479351021750686,0.17434048095106583
8528,0.0,299.57459,26221.076,-0.08527998381538016,0.0,0.0,0.0,0.0,-0.013014931304779681,-3.953195366475007,-1.6641686516906586,-2.3531884468916178,0.009192036910333412,0.006280673807979244,0.17027062006940183
8529,0.0,299.75746000000004,26459.277000000002,-0.08528999349007749,0.0,0.0,0.0,0.0,-0.013016458922665397,-4.003676601032116,-1.6675489553492684,-2.371734064796928,-0.001993586290376648,0.001756563584584328,0.1941284042739818
8530,0.0,299.91062999999997,26379.382999999998,-0.08530000316477482,0.0,0.0,0.0,0.0,-0.013017986540551113,-3.977342028283096,-1.6559853399080284,-2.385346471940368,-0.013271593379554289,0.0015900567022763786,0.1995832767173358
8531,0.0,299.83725,26170.293999999998,-0.08531001283947237,0.0,0.0,0.0,0.0,-0.013019514158436857,-3.9472651176147364,-1.6512341088641185,-2.356616778604968,0.004719130875441955,0.005671248962458695,0.19448923276709282
8532,0.0,299.98241,26146.103,-0.08531998947893982,0.0,0.0,0.0,0.0,-0.013021036734679386,-3.948515670888156,-1.6368009691396785,-2.3624456011302275,-0.004014615041161656,0.012847778220476988,0.18296358380709982
8533,0.0,300.14288999999997,26161.985,-0.08532999915363737,0.0,0.0,0.0,0.0,-0.01302256435256513,-3.9633260436248263,-1.6328914449538383,-2.356372686655878,0.01048893806717759,0.01711829707244438,0.17443644586803683
8534,0.0,300.31777,26215.659,-0.0853400088283347,0.0,0.0,0.0,0.0,-0.013024091970450818,-3.9535493960599464,-1.6531868444568383,-2.362169389152968,-0.018874428708511085,-0.0049222778946160055,0.17918459663164282
8535,0.0,300.87386000000004,26130.79,-0.08534998546780237,0.0,0.0,0.0,0.0,-0.013025614546693376,-3.9566303856390164,-1.6334970645386084,-2.3529803253210773,-0.00037539190640079663,-0.008550598123928332,0.16638120889804683
8536,0.0,300.63603,26062.749,-0.0853599951424997,0.0,0.0,0.0,0.0,-0.013027142164579092,-3.9405312601001565,-1.6487672501706585,-2.3331263988866477,-0.017064486399383683,-0.010785661266211888,0.16213816330929084
8537,0.0,300.37523999999996,26199.432,-0.08537000481719725,0.0,0.0,0.0,0.0,-0.013028669782464836,-3.975529323854196,-1.6341690520049286,-2.3542749549738478,0.007389769970713513,-0.0005138891210269075,0.17591326802128782
8538,0.0,300.60663999999997,26428.936,-0.08538001449189458,0.0,0.0,0.0,0.0,-0.013030197400350552,-4.004338354672425,-1.6566564154492585,-2.372741843346388,-0.01060263790064889,-0.007235796485517513,0.19257750340591984
8539,0.0,299.942,26380.78,-0.08538999113136214,0.0,0.0,0.0,0.0,-0.013031719976593109,-3.989534365411386,-1.6666276070333383,-2.362936419478668,0.00011442297993516888,0.007450739965005783,0.19495858034591382
8540,0.0,299.65451,26198.292999999998,-0.08540000080605958,0.0,0.0,0.0,0.0,-0.013033247594478825,-3.9619551162395266,-1.6369595427803285,-2.364712140278918,-0.0010856550269708089,0.022926930589461877,0.1873789731053648
8541,0.0,300.57897,26224.757,-0.08541001048075691,0.0,0.0,0.0,0.0,-0.013034775212364513,-3.9740872663118756,-1.6397106181268384,-2.357873512703998,0.01727240734640388,0.010066177397479361,0.2068976961417128
8542,0.0,300.09277000000003,26336.655,-0.08541998712022447,0.0,0.0,0.0,0.0,-0.01303629778860707,-3.965318701271486,-1.6538214429944684,-2.386545450783698,0.0009887044507000322,-0.007139191093158304,0.1897262378895218
8543,0.0,299.87687999999997,26431.636000000002,-0.0854299967949218,0.0,0.0,0.0,0.0,-0.013037825406492787,-3.9911806941738663,-1.6555042487605485,-2.387872403114658,-0.005334261940225665,-0.022434247860837878,0.19283700688903083
8544,0.0,299.4256,26281.174,-0.08544000646961936,0.0,0.0,0.0,0.0,-0.01303935302437853,-3.9657079919599063,-1.6704216207077787,-2.3526909410925176,-0.0013995050911203987,0.006224782121863164,0.16177236989068985
8545,0.0,299.20816,25994.522999999997,-0.0854500161443168,0.0,0.0,0.0,0.0,-0.013040880642264246,-3.9597603151979164,-1.6145935666979785,-2.3273319255397777,-0.014765338835975488,0.006489023967741805,0.17635125550951383
8546,0.0,300.06841000000003,26025.445,-0.08545999278378436,0.0,0.0,0.0,0.0,-0.013042403218506804,-3.9424771055921966,-1.6409215533213484,-2.327686867049808,0.007854932522646482,0.00020305690071015584,0.16243964574404485
8547,0.0,301.20545,26339.68,-0.08547000245848169,0.0,0.0,0.0,0.0,-0.01304393083639252,-3.978762908898326,-1.6679978251435683,-2.359844385473508,0.005303909425530105,0.0038412519007270463,0.18501962024751484
8548,0.0,300.68535,26435.05,-0.08548001213317924,0.0,0.0,0.0,0.0,-0.013045458454278236,-3.9828772109293755,-1.6651929462167483,-2.3875250609803773,0.03254879204256567,-0.0018660642056661984,0.17394449267948484
8549,0.0,300.53398,26233.452999999998,-0.08548998877264669,0.0,0.0,0.0,0.0,-0.013046981030520766,-3.9813070785744165,-1.6427920130059483,-2.350215773748238,0.01073693001590249,-0.007171635462685313,0.19268502950653182
8550,0.0,300.28747000000004,26184.702999999998,-0.08549999844734424,0.0,0.0,0.0,0.0,-0.01304850864840651,-3.9729629640009168,-1.6334088104548985,-2.3531242068352776,0.013954923167493687,-0.010132504039750292,0.18239618401610183
8551,0.0,300.41578,26472.991,-0.08551000812204157,0.0,0.0,0.0,0.0,-0.013050036266292225,-3.996560241604786,-1.6683953231577984,-2.3821725673271277,-0.013771820768422885,-0.001969416323816258,0.18707026619739783
8552,0.0,300.68412,26518.252,-0.08551998476150913,0.0,0.0,0.0,0.0,-0.013051558842534783,-3.997372969509996,-1.6712235068369183,-2.3922899709006376,-0.019149703429428584,0.01089249835675589,0.18623055544202483
8553,0.0,300.06471,26297.79,-0.08552999443620657,0.0,0.0,0.0,0.0,-0.013053086460420499,-3.9825216614692858,-1.6320840872741587,-2.3792659580902678,-0.027393287381006975,0.009068322214198721,0.20177197799334382
8554,0.0,299.53219,26004.712000000003,-0.0855400041109039,0.0,0.0,0.0,0.0,-0.013054614078306187,-3.927856109299216,-1.6168421713198984,-2.360085032372258,-0.014588281487001286,-0.01006198061689017,0.1915614770006458
8555,0.0,299.86368,26064.191000000003,-0.08555001378560145,0.0,0.0,0.0,0.0,-0.01305614169619193,-3.9552977591074963,-1.6155627404186286,-2.352002741624598,-0.0053505202473552345,-0.004064322963242446,0.2020242975332458
8556,0.0,299.70554,26360.394,-0.08555999042506879,0.0,0.0,0.0,0.0,-0.01305766427243446,-3.995841543308856,-1.6385070796580585,-2.378553035319908,0.025356152107957376,0.00971458386842978,0.17439211617616182
8557,0.0,299.91617,26460.195,-0.08557000009976634,0.0,0.0,0.0,0.0,-0.013059191890320204,-4.013898673340956,-1.6618312863599785,-2.367508710554918,0.003926402399380746,0.0059691514832843845,0.18121654811718083
8558,0.0,300.21438,26265.385,-0.08558000977446378,0.0,0.0,0.0,0.0,-0.01306071950820592,-3.9872836329642563,-1.6451479208134585,-2.3515896395588274,0.005803237757584974,-0.010930902562046091,0.17190833620603183
8559,0.0,300.1962,26282.092,-0.08558998641393134,0.0,0.0,0.0,0.0,-0.013062242084448478,-3.962307321974286,-1.6548637733723384,-2.3719287101411375,0.01120565951216249,-4.052703720370716e-05,0.18670390535874082
8560,0.0,300.28455,26589.759,-0.08559999608862867,0.0,0.0,0.0,0.0,-0.013063769702334194,-4.000134582657546,-1.6848840433601087,-2.3976040623750974,0.025078297652285274,-0.002136771195132898,0.18670953902929682
8561,0.0,300.23819,26585.372000000003,-0.08561000576332622,0.0,0.0,0.0,0.0,-0.013065297320219937,-4.027709170878945,-1.6543657609481883,-2.3992144207590274,0.01102540637237289,-0.0064235290011529535,0.2075772323212778
8562,0.0,299.95477999999997,26248.451,-0.08562001543802356,0.0,0.0,0.0,0.0,-0.013066824938105626,-3.9745543746079757,-1.6448023012043484,-2.3595170043661975,-0.0017757240426503182,-0.01942742616258768,0.1850597854814788
8563,0.0,300.55881,26126.005,-0.08562999207749122,0.0,0.0,0.0,0.0,-0.013068347514348183,-3.9676584984024066,-1.6406061285652183,-2.333388526687518,-0.0054774708590092855,0.0015146049322548685,0.18439730230109683
8564,0.0,300.71628,26398.646,-0.08564000175218855,0.0,0.0,0.0,0.0,-0.013069875132233899,-3.9788411318060466,-1.6631016993353585,-2.382586378667968,0.0001249970857262519,0.005918107590946744,0.18020422007477183
8565,0.0,299.89158,26566.325,-0.08565001142688589,0.0,0.0,0.0,0.0,-0.013071402750119615,-4.001944652636186,-1.6754006303741686,-2.3981540545293774,-0.004650079097027075,0.018114800174791584,0.18107437899564982
8566,0.0,299.24911000000003,26387.792999999998,-0.08565998806635355,0.0,0.0,0.0,0.0,-0.013072925326362173,-3.977298458528796,-1.6595992990396984,-2.3843325125652974,-0.025402230669504977,-0.008989157794485801,0.18066996048323683
8567,0.0,299.55073,26279.392000000003,-0.08566999774105089,0.0,0.0,0.0,0.0,-0.013074452944247889,-3.983529440018746,-1.6598087378353685,-2.3449407937276376,-0.010928429218551989,0.008319164303037592,0.17666488681296685
8568,0.0,299.83504,26438.577999999998,-0.08568000741574844,0.0,0.0,0.0,0.0,-0.013075980562133604,-3.996865939159956,-1.6698607867774287,-2.3699408147699477,-0.0013210724406296987,-0.006028358827702694,0.17790808389066082
8569,0.0,299.92323,26529.158,-0.08568998405521577,0.0,0.0,0.0,0.0,-0.013077503138376162,-4.035235997921786,-1.6611854407462383,-2.367780160256708,0.004491910857742086,0.006912278698188793,0.18396480662841283
8570,0.0,300.18195,26519.839,-0.08569999372991333,0.0,0.0,0.0,0.0,-0.013079030756261878,-4.007160256200926,-1.6696855958351384,-2.3845230035840976,0.0035120653843888666,-0.009339408868477892,0.19638419283911082
8571,0.0,299.99973,26348.01,-0.08571000340461077,0.0,0.0,0.0,0.0,-0.013080558374147594,-3.9829370940102864,-1.6494273826108083,-2.3767726535691978,0.024822426670782775,0.013293645754730687,0.1954456091389798
8572,0.0,299.79581,26264.62,-0.08572001307930832,0.0,0.0,0.0,0.0,-0.013082085992033338,-3.9711216859191962,-1.6447858865527285,-2.3678811812916774,0.01894886003435688,-0.004365558266297056,0.2039867603269258
8573,0.0,300.20552000000004,26418.362999999998,-0.08572998971877566,0.0,0.0,0.0,0.0,-0.013083608568275867,-4.009599453166656,-1.6549285200537285,-2.3659946109304877,0.009980620078910511,-0.004384926035333506,0.19042416455840183
8574,0.0,299.94854,26584.89,-0.08573999939347321,0.0,0.0,0.0,0.0,-0.013085136186161611,-4.012340497337176,-1.6662450037955785,-2.4025571328389272,-0.005581653031641265,-0.02789337798111207,0.18290762200407681
8575,0.0,299.72123999999997,26477.724,-0.08575000906817054,0.0,0.0,0.0,0.0,-0.0130866638040473,-4.010335680689316,-1.6735999836214586,-2.3646312829209375,-0.01937888844304738,0.005293238787401995,0.16292783977472586
8576,0.0,300.07712000000004,26354.915,-0.08575998570763799,0.0,0.0,0.0,0.0,-0.013088186380289857,-3.9737355672021666,-1.6644173032651985,-2.3730831059800677,-0.01717615365315438,0.0053123652002646255,0.17255381704973585
8577,0.0,299.99926,26387.909,-0.08576999538233554,0.0,0.0,0.0,0.0,-0.013089713998175573,-3.9872867740395663,-1.6605200394055686,-2.373458616467128,-0.02272253980579008,0.014189629380907386,0.18077404153350882
8578,0.0,299.80138999999997,26502.138,-0.08578000505703287,0.0,0.0,0.0,0.0,-0.013091241616061289,-4.010353412566067,-1.6604051368442283,-2.3852295428788275,0.007317061777987774,0.015051145278432385,0.19707876565015983
8579,0.0,299.97999,26508.027000000002,-0.08579001473173042,0.0,0.0,0.0,0.0,-0.013092769233947033,-4.010010934032266,-1.6750540988399683,-2.3727133710185773,0.01015585540155489,0.020533814211779678,0.1935659086134678
8580,0.0,299.29449,26451.154,-0.08579999137119787,0.0,0.0,0.0,0.0,-0.013094291810189562,-4.000460545214716,-1.6749684792065183,-2.365061204938368,0.019295284164046283,0.004560118092198616,0.1893661085389798
8581,0.0,299.61862,26491.533,-0.08581000104589542,0.0,0.0,0.0,0.0,-0.013095819428075306,-4.013748611001146,-1.6717242550363383,-2.3672916723834976,-0.006495224045103703,-0.013094452944071888,0.1915669890811898
8582,0.0,300.51268,26495.127,-0.08582001072059275,0.0,0.0,0.0,0.0,-0.013097347045960994,-3.999448916314876,-1.6621054718370383,-2.3923025352018774,0.01024256326561229,-0.012000723428379188,0.18021337985567584
8583,0.0,300.1623,26455.831000000002,-0.0858299873600602,0.0,0.0,0.0,0.0,-0.013098869622203552,-3.9905984806664065,-1.6704897111144985,-2.3808239314440276,0.001124392591543909,-0.0019440924680419883,0.16947477291085786
8584,0.0,299.892,26387.227000000003,-0.08583999703475775,0.0,0.0,0.0,0.0,-0.013100397240089268,-3.9945257367289964,-1.6504024331820384,-2.3761300503557776,-0.00097197475935894,-0.009896964124154311,0.1839553023424748
8585,0.0,299.67715,26338.648999999998,-0.0858500067094553,0.0,0.0,0.0,0.0,-0.013101924857975011,-3.9849295490069263,-1.6599553551248383,-2.361406817127708,-0.025512571578894774,-0.004367148764979026,0.17141897693773583
8586,0.0,299.91547,26410.214,-0.08586001638415264,0.0,0.0,0.0,0.0,-0.013103452475860727,-3.9958304988827664,-1.6562662128357486,-2.375948881237898,0.008360095351427173,0.0046776905675521155,0.1856776653924588
8587,0.0,300.15474,26540.31,-0.0858699930236202,0.0,0.0,0.0,0.0,-0.013104975052103285,-4.014278844778476,-1.6735522595417482,-2.3797605254640777,-0.002077488464907148,0.026162481338785872,0.18185982007566684
8588,0.0,300.27441,26602.194,-0.08588000269831753,0.0,0.0,0.0,0.0,-0.013106502669989,-3.999052735525776,-1.6871970906883884,-2.400152893001648,-0.0007266848345432094,0.0011733856656791488,0.19988577240218983
8589,0.0,300.32277999999997,26500.49,-0.08589001237301497,0.0,0.0,0.0,0.0,-0.013108030287874689,-4.008682461826156,-1.6596434767440584,-2.3871613041944775,-0.0059876944667394336,-0.0012179665422539388,0.1971233081245558
8590,0.0,300.68688,26541.226000000002,-0.0858999890124823,0.0,0.0,0.0,0.0,-0.013109552864117247,-4.011217005626296,-1.6599247549718184,-2.3967281076636477,0.014868287072635685,-0.004543850767143156,0.2061720773475998
8591,0.0,300.63677,26570.221,-0.08590999868717986,0.0,0.0,0.0,0.0,-0.013111080482002962,-4.0137333109246365,-1.6706040057257785,-2.3923463076061977,0.005652911668773944,-0.006679942375433984,0.17347802273094784
8592,0.0,299.79509,26483.728,-0.08592000836187741,0.0,0.0,0.0,0.0,-0.013112608099888706,-3.998247201696276,-1.6531332435265484,-2.3990116694140178,0.005518137449122765,-0.01139930781827409,0.1902134997301108
8593,0.0,299.56411,26417.906000000003,-0.08592998500134463,0.0,0.0,0.0,0.0,-0.013114130676131208,-3.990518535233516,-1.6699064843569384,-2.369958647971708,-0.003126964485132367,-0.015530308210972085,0.17352056910264682
8594,0.0,300.36371,26385.127,-0.08593999467604241,0.0,0.0,0.0,0.0,-0.01311565829401698,-3.992546757958686,-1.6395172900077586,-2.388355824737368,0.007234169408506933,0.0008649200632234641,0.19445886566159581
8595,0.0,299.81214,26351.138,-0.08595000435073974,0.0,0.0,0.0,0.0,-0.013117185911902696,-3.9945214810785763,-1.6436996824455283,-2.371866901885038,0.0022909010248193277,0.008208723588512943,0.19203167570955082
8596,0.0,299.77483,26469.051,-0.08596001402543729,0.0,0.0,0.0,0.0,-0.013118713529788412,-4.005440365481186,-1.6532535163134183,-2.3872367913269277,-0.004688725570416185,-0.006205036410539415,0.1984827857837258
8597,0.0,299.80539,26622.59,-0.08596999066490452,0.0,0.0,0.0,0.0,-0.013120236106030941,-4.025301789966356,-1.6595582624106484,-2.4077424402256775,-0.02208064181443968,0.0026993080949259673,0.19021729941798582
8598,0.0,299.72919,26585.021,-0.08598000033960229,0.0,0.0,0.0,0.0,-0.013121763723916685,-4.021118080303456,-1.6661654636627286,-2.3938990120594377,-0.017954438147715086,0.016977248605523985,0.19245084714341984
8599,0.0,300.07232,26599.757999999998,-0.08599001001429962,0.0,0.0,0.0,0.0,-0.013123291341802401,-4.014460419196396,-1.6718161568204086,-2.3993856600259273,-0.003135174952017677,0.016688011298228483,0.19027159949084482
8600,0.0,300.25864,26690.392000000003,-0.08599998665376707,0.0,0.0,0.0,0.0,-0.01312481391804493,-4.014760949176056,-1.6803774108903384,-2.4180742475203476,-0.014623896214766185,-0.002263999032014308,0.2144244725220478
8601,0.0,299.74786,26634.374,-0.08600999632846451,0.0,0.0,0.0,0.0,-0.013126341535930675,-4.023069194696016,-1.6705290252183784,-2.4025864157668178,0.009111049349715562,-0.0010599982172136788,0.19546674553606583
8602,0.0,300.51291000000003,26559.187,-0.08602000600316195,0.0,0.0,0.0,0.0,-0.01312786915381639,-4.014161510416897,-1.6686739669352983,-2.3904940864233977,0.005561991724050844,-0.000946913021253039,0.2046111757010508
8603,0.0,300.52374,26447.536,-0.0860300156778595,0.0,0.0,0.0,0.0,-0.013129396771702107,-4.007222469757067,-1.6674391190384286,-2.364728858905568,0.014766049124295588,0.01831074349237968,0.16094846583687683
8604,0.0,299.81197000000003,26428.29,-0.08603999231732684,0.0,0.0,0.0,0.0,-0.013130919347944664,-4.002009500642586,-1.6566930951028784,-2.3748374472032077,0.0013237115518401588,-0.018377616985729584,0.18267687455880383
8605,0.0,300.24638999999996,26567.584,-0.0860500019920244,0.0,0.0,0.0,0.0,-0.01313244696583038,-4.016541026951736,-1.6717944732682686,-2.387546541882498,-0.0016521686294313487,0.005911912174535305,0.17794572613187581
8606,0.0,299.71226,26588.656000000003,-0.08606001166672173,0.0,0.0,0.0,0.0,-0.013133974583716096,-4.021630480879026,-1.6743571854211883,-2.3862996363094378,-0.01249883616428909,0.0017727209720039385,0.1971424180214418
8607,0.0,299.18055,26555.09,-0.08606998830618917,0.0,0.0,0.0,0.0,-0.013135497159958626,-4.024719779108916,-1.6646900701921183,-2.382674328776648,-0.0057036493569313645,-0.007691081368850632,0.18986654263086883
8608,0.0,299.84539,26715.987,-0.08607999798088672,0.0,0.0,0.0,0.0,-0.01313702477784437,-4.038932840911636,-1.6787279410525484,-2.403332167840418,-0.023606071601487876,-0.025112343868895375,0.19270400768090482
8609,0.0,299.59877,26847.557,-0.08609000765558428,0.0,0.0,0.0,0.0,-0.013138552395730113,-4.058794670696846,-1.7050074943211382,-2.3971849821337377,-0.006215375513234805,-0.015130600298273986,0.17240162688471583
8610,0.0,299.86871,26768.057,-0.0860999842950515,0.0,0.0,0.0,0.0,-0.013140074971972615,-4.041202419810626,-1.6800461794326484,-2.4155724316984375,0.006300926853628063,0.015446115233662884,0.18914330497449083
8611,0.0,300.54048,26583.487,-0.08610999396974905,0.0,0.0,0.0,0.0,-0.013141602589858359,-4.008610622394066,-1.6883179479490085,-2.383787586661518,0.004242687708820676,0.02102379358913688,0.18391919010891083
8612,0.0,299.84456,26363.162999999997,-0.08612000364444661,0.0,0.0,0.0,0.0,-0.013143130207744075,-3.991325284963136,-1.6510600324969384,-2.3713579463598076,-0.00040992954930939665,0.0014998609273997486,0.19561643297333883
8613,0.0,299.71209,26427.985,-0.08613001331914394,0.0,0.0,0.0,0.0,-0.01314465782562979,-4.009891775820506,-1.6407612571555283,-2.382794601563518,0.00028292888310040676,0.005911841854978364,0.2027834751706708
8614,0.0,300.34021,26607.922000000002,-0.08613998995861138,0.0,0.0,0.0,0.0,-0.01314618040187232,-4.033585514833896,-1.6754377153278284,-2.3791207593509376,-0.0004640481288104845,0.020966667561748982,0.1999628199397938
8615,0.0,300.01117999999997,26563.028,-0.08614999963330894,0.0,0.0,0.0,0.0,-0.013147708019758064,-4.0285857335404565,-1.6585994238410182,-2.387311974484348,-0.005697557190705115,0.009971824966717502,0.18829899406366382
8616,0.0,299.35364,26618.468999999997,-0.08616000930800649,0.0,0.0,0.0,0.0,-0.013149235637643808,-4.030247362379446,-1.6753912071482384,-2.3857113433013777,-0.018869770797801378,-0.006363109708290035,0.1858326318627528
8617,0.0,298.71031,26782.558999999997,-0.08616998594747372,0.0,0.0,0.0,0.0,-0.01315075821388631,-4.047708802677756,-1.6882234117146784,-2.4052969611093276,-0.0025540908131191377,-0.014685031672799786,0.19542890064483082
8618,0.0,299.02207000000004,26877.022999999997,-0.08617999562217127,0.0,0.0,0.0,0.0,-0.013152285831772054,-4.060345449974896,-1.6814451738457183,-2.428153147590058,0.01079761660414179,-0.0003272474089593047,0.18889334630732182
8619,0.0,299.79224,26728.039,-0.08619000529686882,0.0,0.0,0.0,0.0,-0.01315381344965777,-4.027940799851806,-1.6866032248047782,-2.410112330884568,0.006171352633490084,-0.017407329703219683,0.1939822632120588
8620,0.0,300.53278,26532.815,-0.08620001497156626,0.0,0.0,0.0,0.0,-0.013155341067543513,-4.009086039340986,-1.6618445599362885,-2.394382535007158,0.014730995737086087,-0.02110243598239828,0.18643165518937183
8621,0.0,300.84535,26531.831000000002,-0.08620999161103349,0.0,0.0,0.0,0.0,-0.013156863643786015,-4.019079522427266,-1.6475891442793882,-2.3983454574732677,0.015097322125239685,-0.003151453118849207,0.18935924883580282
8622,0.0,300.11009,26551.894,-0.08622000128573104,0.0,0.0,0.0,0.0,-0.013158391261671759,-4.016283154801286,-1.6661477317859785,-2.3886818886195478,0.03050290735490257,0.017899972915089785,0.18162028775202682
8623,0.0,299.74517000000003,26580.472999999998,-0.0862300109604286,0.0,0.0,0.0,0.0,-0.013159918879557503,-4.015094105808936,-1.6631837725934586,-2.4015223005117976,-0.003961989465417916,0.004719489869952386,0.19014934073377882
8624,0.0,299.85361,26607.458,-0.08623998759989604,0.0,0.0,0.0,0.0,-0.013161441455800033,-4.029352155916096,-1.6623879659649183,-2.396262620567708,-0.005136323229215635,-0.0002234568068284698,0.18842387713848882
8625,0.0,299.49435,26625.285,-0.08624999727459337,0.0,0.0,0.0,0.0,-0.013162969073685749,-4.029895865919756,-1.6741219087479682,-2.389404031965818,0.0027016787961849373,-0.013609527486655788,0.1918377193754088
8626,0.0,299.6633,26687.315,-0.08626000694929092,0.0,0.0,0.0,0.0,-0.013164496691571465,-4.046031265812196,-1.6713518856245884,-2.3948941249826476,0.00969176598280283,0.01175968541509059,0.19530827322042582
8627,0.0,300.15457000000004,26908.363999999998,-0.08626998358875837,0.0,0.0,0.0,0.0,-0.013166019267813994,-4.060501490490296,-1.702831033106338,-2.416138129229268,-1.939496568238408e-05,-0.008414223982369252,0.1914897692910688
8628,0.0,300.43815,26860.432999999997,-0.0862799932634557,0.0,0.0,0.0,0.0,-0.01316754688569971,-4.057097172804316,-1.6820427887546985,-2.425760965428968,-0.020052128286490983,-0.000980666408584239,0.18660217504870083
8629,0.0,300.46328,26676.347999999998,-0.08629000293815325,0.0,0.0,0.0,0.0,-0.013169074503585454,-4.036488476370396,-1.6570053787836985,-2.4154498284363375,-0.009065094303355153,0.007267229428794703,0.19766503215801984
8630,0.0,300.68475,26655.711,-0.08630001261285081,0.0,0.0,0.0,0.0,-0.013170602121471198,-4.0322984845568755,-1.6678585032548183,-2.402513360434608,2.9412578306545472e-05,0.016251380551886383,0.18217900398966783
8631,0.0,300.13617,26703.124,-0.08630998925231825,0.0,0.0,0.0,0.0,-0.013172124697713727,-4.033966395546486,-1.6702733822181484,-2.412843039904068,0.0026174096224682174,0.0036098213222366263,0.2074921193128778
8632,0.0,299.78078,26732.895,-0.08631999892701558,0.0,0.0,0.0,0.0,-0.013173652315599443,-4.024215991159196,-1.6853576364568486,-2.416559033320808,-0.007898716376692613,-0.006818657124724063,0.17735633881370783
8633,0.0,299.66594,26721.697999999997,-0.08633000860171314,0.0,0.0,0.0,0.0,-0.01317517993348516,-4.040319878973525,-1.6722673570899382,-2.4101416138124576,0.016551654179271087,0.0008244046804224072,0.18880014756312383
8634,0.0,299.83976,26682.819,-0.08633998524118047,0.0,0.0,0.0,0.0,-0.013176702509727689,-4.026701797629526,-1.6701240291534085,-2.4140847779016177,0.01144458489899259,0.011325717490011291,0.17657058362615982
8635,0.0,300.01234,26697.132,-0.08634999491587803,0.0,0.0,0.0,0.0,-0.013178230127613433,-4.039791773021406,-1.6863706839068284,-2.3890990436857176,0.018519116348944483,0.0027089585928533975,0.1911352533460808
8636,0.0,300.31113,26837.876,-0.08636000459057547,0.0,0.0,0.0,0.0,-0.013179757745499149,-4.042457228734466,-1.6853407151801785,-2.4302462183216273,-0.012293275076751788,-0.0055106327109321045,0.19857504220533082
8637,0.0,300.41222999999997,26903.917,-0.08637001426527302,0.0,0.0,0.0,0.0,-0.013181285363384893,-4.058938957511086,-1.6903127334208783,-2.428867286260538,-0.003188428844148427,0.003978998489546576,0.2038504477909728
8638,0.0,299.91245,26814.695,-0.08637999090474036,0.0,0.0,0.0,0.0,-0.013182807939627422,-4.034471906021376,-1.6875592262741284,-2.4289665847703374,-0.02081811091158758,0.000974233354626846,0.2069835285576838
8639,0.0,300.17657,26745.994,-0.08639000057943769,0.0,0.0,0.0,0.0,-0.01318433555751311,-4.045072325917556,-1.6759276217511787,-2.4091144821860877,-0.011819282759472388,-0.014275778944159684,0.18524995226024682
8640,0.0,300.10011000000003,26840.735,-0.08640001025413524,0.0,0.0,0.0,0.0,-0.013185863175398854,-4.049317945161566,-1.6957443619069383,-2.4138510211035475,-0.02368163270119518,-0.014774737743903086,0.19146039517066982
8641,0.0,300.19674,26819.839,-0.08640998689360269,0.0,0.0,0.0,0.0,-0.013187385751641384,-4.071221473898277,-1.6750769982922287,-2.406262993754668,0.017076664652335587,-0.0030398751324123173,0.17836895056614482
8642,0.0,300.11806,26666.585,-0.08641999656830024,0.0,0.0,0.0,0.0,-0.013188913369527128,-4.046318927515586,-1.6698804438293682,-2.3897766040275874,0.000988571735201934,0.014872799075330985,0.1904423118676928
8643,0.0,300.05076,26582.57,-0.08643000624299757,0.0,0.0,0.0,0.0,-0.013190440987412844,-4.027726902755696,-1.6828283615572286,-2.3698824515641874,0.023893200335325274,0.004244194310394365,0.16851524533115983
8644,0.0,299.48319,26696.537999999997,-0.08644001591769512,0.0,0.0,0.0,0.0,-0.013191968605298587,-4.041409426806056,-1.6661165236828985,-2.4075550902821874,-0.0003958994196797306,-0.006217930929987004,0.20005805531669282
8645,0.0,299.49695,26816.645,-0.08644999255716257,0.0,0.0,0.0,0.0,-0.013193491181541117,-4.058860633278356,-1.6897260616129783,-2.403003773483008,0.03013728112256807,-0.006467260064868874,0.17413007956780083
8646,0.0,299.39256,26835.377999999997,-0.08646000223186012,0.0,0.0,0.0,0.0,-0.01319501879942686,-4.058045068272866,-1.6901776671825486,-2.4090620971559176,0.004818741162297725,-0.008578879758069511,0.1952817767303108
8647,0.0,299.69178,26794.507999999998,-0.08647001190655745,0.0,0.0,0.0,0.0,-0.013196546417312549,-4.066962682402966,-1.6779368966994785,-2.3999616927077776,-0.00033174997829617367,-0.025859217610356075,0.1971412223863238
8648,0.0,300.01179,26803.854,-0.08647998854602501,0.0,0.0,0.0,0.0,-0.013198068993555107,-4.057678677036706,-1.6956414156967783,-2.394382129707118,-0.01924771916460198,-0.009831172275286161,0.2024082889236428
8649,0.0,300.41085,26869.14,-0.08648999822072245,0.0,0.0,0.0,0.0,-0.013199596611440823,-4.066594771291656,-1.6904415175085885,-2.4105114500989577,-0.01011701934907207,0.0067021708534777645,0.2088901308733508
8650,0.0,300.60848,27032.183999999997,-0.08650000789541978,0.0,0.0,0.0,0.0,-0.013201124229326539,-4.084592119567856,-1.7099842748373084,-2.4225325479603477,-0.0007674610887150122,0.02494514037714368,0.1845646202901098
8651,0.0,300.53288,26871.838,-0.08650998453488734,0.0,0.0,0.0,0.0,-0.013202646805569096,-4.059190142210876,-1.6988310256865684,-2.4103465943076876,-0.017946207517152785,-0.0036531415130369965,0.19086967036236982
8652,0.0,300.10332,26603.611,-0.08651999420958478,0.0,0.0,0.0,0.0,-0.013204174423454812,-4.026759248910196,-1.6770404743360086,-2.383033728587118,-0.007854136918667962,0.0035492929023379365,0.16020185250069183
8653,0.0,300.56885,26769.484,-0.08653000388428223,0.0,0.0,0.0,0.0,-0.013205702041340528,-4.057064242176066,-1.6863592341806983,-2.3938311243027375,0.0058892822468019045,-0.009403932837495911,0.17995758486793084
8654,0.0,300.11188,26960.422000000002,-0.08654001355897967,0.0,0.0,0.0,0.0,-0.013207229659226244,-4.080221870561546,-1.6927934736407084,-2.422279843385408,0.025013299684870476,0.014594034721069087,0.1708569575047688
8655,0.0,299.83336,26792.011000000002,-0.08654999019844722,0.0,0.0,0.0,0.0,-0.013208752235468801,-4.065039331063146,-1.6765448937120984,-2.4025181227100774,0.005687843161996415,-0.013573162953816885,0.2028751945697228
8656,0.0,300.01711,26641.238999999998,-0.08655999987314456,0.0,0.0,0.0,0.0,-0.013210279853354517,-4.032576824359346,-1.6616509278421785,-2.4040435707356274,0.01069656314516859,-0.011638432815373889,0.1981408544049798
8657,0.0,300.06063,26885.478,-0.08657000954784211,0.0,0.0,0.0,0.0,-0.013211807471240261,-4.054357648508946,-1.6860087509711086,-2.4321473794842574,0.01142282737959529,-0.009005563225529891,0.21849400916367978
8658,0.0,299.40002999999996,27037.657000000003,-0.08657998618730955,0.0,0.0,0.0,0.0,-0.01321333004748279,-4.081403725478186,-1.6963719690188783,-2.4409969032076377,0.013552040742232287,-0.0026706309892707576,0.2004059243410248
8659,0.0,299.36901,26998.534,-0.08658999586200711,0.0,0.0,0.0,0.0,-0.013214857665368535,-4.065692370752596,-1.7079725680887685,-2.4332152437646477,-0.008163637809413322,-0.015509728088190984,0.2072697717109338
8660,0.0,299.55249,26838.005,-0.08660000553670444,0.0,0.0,0.0,0.0,-0.013216385283254223,-4.0596088171521965,-1.6876940898624382,-2.4107803666754974,-0.028085327066805978,0.0032049810951320073,0.19584472835336983
8661,0.0,299.65173,26747.129,-0.08661001521140177,0.0,0.0,0.0,0.0,-0.013217912901139939,-4.049315108061286,-1.6728408566465383,-2.4083033754810375,-0.005446263363879344,0.013800315387735088,0.2014647909605268
8662,0.0,299.99652000000003,26813.779,-0.08661999185086944,0.0,0.0,0.0,0.0,-0.013219435477382496,-4.059506782867126,-1.6835998501833684,-2.4076127442128774,-0.007271064985723243,0.019172347542663382,0.18485428822869782
8663,0.0,300.34668999999997,26891.331000000002,-0.08663000152556677,0.0,0.0,0.0,0.0,-0.013220963095268212,-4.061388286977816,-1.6728033663928383,-2.4401013927692574,-0.0006143740858990015,0.0025888930156288477,0.19819191207751882
8664,0.0,300.35868999999997,26817.87,-0.08664001120026432,0.0,0.0,0.0,0.0,-0.013222490713153956,-4.060690562958956,-1.6780739894380083,-2.4131983867141376,-0.0072721715561574534,-0.01042228242259919,0.18322285424268783
8665,0.0,300.07884,26776.33,-0.08664998783973177,0.0,0.0,0.0,0.0,-0.013224013289396486,-4.049266877356526,-1.6872786573214384,-2.402790079036918,0.012867946963717488,-0.005811286408429314,0.19848353558879983
8666,0.0,300.30149,26937.792,-0.08665999751442921,0.0,0.0,0.0,0.0,-0.01322554090728223,-4.076459774265256,-1.6906293740771283,-2.421326881666358,0.02173054566638788,-0.004551045045503176,0.18501588135464583
8667,0.0,299.54208,27102.87,-0.08667000718912665,0.0,0.0,0.0,0.0,-0.013227068525167918,-4.090156889117056,-1.7049484218403086,-2.443490309053718,0.025850779263523273,-0.01956135958730588,0.2112584104645818
8668,0.0,299.43992000000003,26946.076,-0.08667998382859421,0.0,0.0,0.0,0.0,-0.013228591101410503,-4.056601997480446,-1.7018098796555585,-2.4325222820212575,-0.0017428000005259682,-0.007942192506683371,0.19301878395697084
8669,0.0,299.58721,26822.875,-0.08668999350329154,0.0,0.0,0.0,0.0,-0.013230118719296191,-4.050038467307676,-1.6771015733170382,-2.4263441921865274,0.015457746331560785,0.0029675316083975674,0.20454222403174582
8670,0.0,300.26707999999996,26913.23,-0.0867000031779891,0.0,0.0,0.0,0.0,-0.013231646337181935,-4.058976346439776,-1.6899412759342183,-2.4320321729478875,-0.011141079003788888,0.002178615283187588,0.18040140867673282
8671,0.0,300.06526,26900.449,-0.08671001285268642,0.0,0.0,0.0,0.0,-0.01323317395506765,-4.061069518496356,-1.6825184083516385,-2.433476864940468,-0.006745824403561034,-0.006420084964063055,0.1987701435120858
8672,0.0,300.25404,26877.517999999996,-0.08671998949215409,0.0,0.0,0.0,0.0,-0.013234696531310208,-4.049391507118826,-1.6889701770383783,-2.4317326562183275,-0.02308901210195808,0.005535771141938074,0.1956858000751848
8673,0.0,300.0408,26866.978,-0.08672999916685142,0.0,0.0,0.0,0.0,-0.013236224149195924,-4.067525036208466,-1.6725022284631181,-2.4268631788877477,-0.0037731704106079263,0.023975803523227576,0.2014904059230548
8674,0.0,300.36614,26886.772,-0.08674000884154875,0.0,0.0,0.0,0.0,-0.013237751767081612,-4.049460813425666,-1.6849914478707084,-2.4384550640067775,-0.006703473791781354,0.02053828467122088,0.2057597453519058
8675,0.0,300.33937000000003,26941.522999999997,-0.08674998548101642,0.0,0.0,0.0,0.0,-0.013239274343324198,-4.075948082964756,-1.6899186804569883,-2.423683397423927,0.007987832229612662,0.005158375503067025,0.18322592439049082
8676,0.0,300.64169,27151.033,-0.08675999515571375,0.0,0.0,0.0,0.0,-0.013240801961209886,-4.084649976148566,-1.7120668077678383,-2.4565190841395577,-0.010938149326761291,-0.019424036841003182,0.2080699657124068
8677,0.0,300.55547,27005.325,-0.08677000483041131,0.0,0.0,0.0,0.0,-0.01324232957909563,-4.078938994609936,-1.7087165976371985,-2.4212888847876077,0.009127025973317332,-0.008446891874868322,0.17102451867380583
8678,0.0,300.82817,26798.839,-0.08678001450510864,0.0,0.0,0.0,0.0,-0.013243857196981346,-4.0462396913577665,-1.6856156099323083,-2.4143225877000876,0.003979741607169916,-0.014383734662814087,0.2076287155588588
8679,0.0,300.57515,26829.69,-0.0867899911445763,0.0,0.0,0.0,0.0,-0.013245379773223903,-4.060194678360016,-1.6774864057050185,-2.4178746372506477,0.01215316589267409,-0.011804287671242489,0.18760695437786482
8680,0.0,300.34117000000003,26960.101000000002,-0.08680000081927364,0.0,0.0,0.0,0.0,-0.013246907391109619,-4.065120897696197,-1.6977602229808884,-2.4323161869509176,0.009722127414099271,-0.006547583946671224,0.21594994081259983
8681,0.0,300.06609,26905.799,-0.08681001049397119,0.0,0.0,0.0,0.0,-0.013248435008995335,-4.061766634565156,-1.7000618205830385,-2.4168626030507676,-0.0032059235190500172,0.003652457771869517,0.18101385756717683
8682,0.0,300.16118,26990.022999999997,-0.08681998713343853,0.0,0.0,0.0,0.0,-0.013249957585237893,-4.074785175824986,-1.6946247205464384,-2.4348829521042377,0.0012622648233758388,0.013722499806555287,0.19522768943997282
8683,0.0,299.81177,27053.886000000002,-0.08682999680813608,0.0,0.0,0.0,0.0,-0.013251485203123609,-4.069938192646626,-1.7135266985119182,-2.440241119958048,-0.01187838766430559,0.0073744969479811835,0.1881135895603658
8684,0.0,299.49462,26963.472,-0.08684000648283352,0.0,0.0,0.0,0.0,-0.013253012821009325,-4.0738966568122965,-1.6849152514631884,-2.4374105044786876,0.006678016288318894,0.0026971360920116073,0.2022164806797128
8685,0.0,299.64612999999997,27039.808999999997,-0.08685001615753085,0.0,0.0,0.0,0.0,-0.01325454043889504,-4.089051129282926,-1.6912363108870285,-2.4391392104742975,-0.012012914853582387,-0.0029561153195208673,0.2008137575062748
8686,0.0,299.89609,27096.921000000002,-0.08685999279699841,0.0,0.0,0.0,0.0,-0.013256063015137598,-4.094784807623796,-1.6955078693335985,-2.4464946969252273,0.016796068341892883,0.00968402353613871,0.2013612671978098
8687,0.0,300.34013,26946.401,-0.08687000247169574,0.0,0.0,0.0,0.0,-0.013257590633023314,-4.073148168963426,-1.6978092642857283,-2.420075619117868,-0.010054409510817961,-0.005822742416709934,0.20049227351454682
8688,0.0,300.61636,26877.382,-0.08688001214639329,0.0,0.0,0.0,0.0,-0.01325911825090903,-4.064589954643796,-1.6894146898572482,-2.4160485579204276,0.015108115265304886,0.004655100156572616,0.19366967555620881
8689,0.0,300.71898999999996,27016.777000000002,-0.08688998878586074,0.0,0.0,0.0,0.0,-0.013260640827151587,-4.078255760067506,-1.7054105652109184,-2.4287591724748676,0.005231028878962355,0.004890788614633256,0.19810174295111982
8690,0.0,300.4066,27056.841,-0.08689999846055829,0.0,0.0,0.0,0.0,-0.013262168445037303,-4.091652243614636,-1.7009163957173785,-2.4320355166732175,0.005542890439790694,0.009782441227626781,0.19140954014815081
8691,0.0,300.69886,27030.572999999997,-0.08691000813525562,0.0,0.0,0.0,0.0,-0.01326369606292302,-4.089092267236986,-1.6974844163036682,-2.430042453726518,-0.015027868897135184,-0.012652973796001287,0.19021336800759783
8692,0.0,300.19944,27043.517999999996,-0.08691998477472329,0.0,0.0,0.0,0.0,-0.013265218639165577,-4.084036655863036,-1.7088434565497181,-2.4276741842677874,-0.015273677291894586,-0.022672705126121774,0.18847363785089982
8693,0.0,300.32272,27079.953999999998,-0.08692999444942062,0.0,0.0,0.0,0.0,-0.013266746257051293,-4.091210770546066,-1.7019906434733985,-2.4384284155291476,-0.012614469278951188,-0.002379064523970388,0.2005595533211868
8694,0.0,299.90764,27036.857000000004,-0.08694000412411818,0.0,0.0,0.0,0.0,-0.013268273874937037,-4.083669758001826,-1.7001364971154085,-2.434723162563468,0.004404126010153396,-0.006801956027300794,0.19441486020975282
8695,0.0,299.97451,27015.18,-0.0869500137988155,0.0,0.0,0.0,0.0,-0.013269801492822725,-4.0702805698554165,-1.6864211437618084,-2.4552385386631776,0.0005411948635992745,-0.00016962336603802285,0.2167849703525108
8696,0.0,299.64758,26894.987,-0.08695999043828306,0.0,0.0,0.0,0.0,-0.01327132406906531,-4.080940872832507,-1.6745325790134982,-2.4199310283285977,0.0016698327197496585,-0.01023415632953259,0.2100675173570498
8697,0.0,299.96581000000003,26864.189,-0.0869700001129805,0.0,0.0,0.0,0.0,-0.013272851686950998,-4.068082627738496,-1.6879133571840783,-2.4100466722780873,0.02918150966099077,0.010459981405819791,0.20251296779147382
8698,0.0,299.4413,27041.127999999997,-0.08698000978767784,0.0,0.0,0.0,0.0,-0.013274379304836714,-4.108226380800376,-1.6875577063989784,-2.4240437091594877,0.019042054725554484,0.015412673927362487,0.18395472478991784
8699,0.0,299.46218,27239.763,-0.0869899864271454,0.0,0.0,0.0,0.0,-0.013275901881079272,-4.109476022148706,-1.7326064005449382,-2.4381254537492474,0.00010181883770123689,0.004718301631560115,0.1863867378124388
8700,0.0,300.13784,27072.141,-0.08699999610184272,0.0,0.0,0.0,0.0,-0.013277429498964988,-4.097097956277087,-1.6973040577858682,-2.4348529599012774,-0.024204766635074478,-0.01094325408076509,0.18216566961835182
8701,0.0,300.76316,27093.452999999998,-0.08701000577654028,0.0,0.0,0.0,0.0,-0.013278957116850731,-4.0899320489198665,-1.7107460362624884,-2.4350552046212375,-0.015158326874010385,0.0005868414462317415,0.18175779592309782
8702,0.0,300.76394,27198.136000000002,-0.08702001545123772,0.0,0.0,0.0,0.0,-0.01328048473473642,-4.108302577207896,-1.7042713681234882,-2.4549801598876773,0.0002580610405336418,-0.007395226119851993,0.2066819346654188
8703,0.0,300.41534,27100.606,-0.08702999209070528,0.0,0.0,0.0,0.0,-0.013282007310979005,-4.101627184224086,-1.6953532473683384,-2.4409270902757476,-0.0016936654766767684,-0.004651973976039086,0.2031634844881748
8704,0.0,300.36922000000004,27021.715,-0.08704000176540261,0.0,0.0,0.0,0.0,-0.013283534928864693,-4.091563077605836,-1.6941162716462583,-2.428247379849358,0.00037735095454163967,-0.02480485590079868,0.20884032963093582
8705,0.0,300.27769,27048.014,-0.08705001144010016,0.0,0.0,0.0,0.0,-0.013285062546750437,-4.082178152529616,-1.7101128562749983,-2.4296296556357775,0.008287086426071752,0.013786260595597986,0.19760327456442484
8706,0.0,300.16562999999996,27054.075,-0.08705998807956761,0.0,0.0,0.0,0.0,-0.013286585122992967,-4.074625588934236,-1.7027336597717282,-2.4464041123662876,0.006589662500799055,0.017640692347000782,0.2017830933469408
8707,0.0,299.85134,27022.903,-0.08706999775426516,0.0,0.0,0.0,0.0,-0.01328811274087871,-4.079854972700336,-1.7056652962860583,-2.4287673798006777,0.005161506445876025,0.006843438993019844,0.18289329464766282
8708,0.0,299.6925,27124.023999999998,-0.08708000742896249,0.0,0.0,0.0,0.0,-0.013289640358764426,-4.089289344381436,-1.7053091388759085,-2.450427525863368,-0.017530864142161585,-0.0058950130880424945,0.20828794620641983
8709,0.0,299.49121,27043.167999999998,-0.08708998406842994,0.0,0.0,0.0,0.0,-0.013291162935006956,-4.082427513379225,-1.699485281276138,-2.4385348067896477,0.00979592059503209,0.0013986635869123489,0.17624807625183084
8710,0.0,299.89686,27054.279,-0.08709999374312749,0.0,0.0,0.0,0.0,-0.0132926905528927,-4.102069569217746,-1.7057256859920185,-2.416029914118588,0.004504162976626276,-0.003004765915122307,0.1978598801522498
8711,0.0,300.05217000000005,27105.053,-0.08711000341782482,0.0,0.0,0.0,0.0,-0.013294218170778388,-4.1102355544236655,-1.6972664662071584,-2.4317571768707475,-0.007063538294316952,0.01068255698903629,0.17523500853684884
8712,0.0,299.80392,27136.847999999998,-0.08712001309252237,0.0,0.0,0.0,0.0,-0.013295745788664132,-4.100009125139397,-1.7025178375004286,-2.446397222265608,-0.006941238905921943,-0.007377932676420263,0.2148499565040398
8713,0.0,300.10609,27073.278,-0.08712998973198971,0.0,0.0,0.0,0.0,-0.013297268364906661,-4.094943583914466,-1.6997782118800484,-2.4348787977788273,-0.013623105037995787,0.009157992821548522,0.19224201629780982
8714,0.0,300.19066000000004,27192.542999999998,-0.08713999940668726,0.0,0.0,0.0,0.0,-0.013298795982792405,-4.093064308953997,-1.7066433866075883,-2.466146378639698,0.013054859183164288,0.006634211358670683,0.21939123199472882
8715,0.0,299.75631,27236.607000000004,-0.0871500090813847,0.0,0.0,0.0,0.0,-0.013300323600678121,-4.123027228986107,-1.6989886874021283,-2.4572326148599775,0.002925580825107347,-0.006221501420689384,0.2022174027373038
8716,0.0,299.88186,27193.103,-0.08715998572085204,0.0,0.0,0.0,0.0,-0.01330184617692065,-4.098666467431886,-1.7193950377910783,-2.447962693670108,0.016147497085383884,-0.01107514378003159,0.20060612229578278
8717,0.0,299.58907,27094.166,-0.0871699953955496,0.0,0.0,0.0,0.0,-0.013303373794806395,-4.096803303148006,-1.7164392859243682,-2.422707434927608,0.004171468892416926,-0.003883577485229256,0.18141576321934183
8718,0.0,299.79621000000003,27134.242000000002,-0.08718000507024715,0.0,0.0,0.0,0.0,-0.01330490141269211,-4.097205766087726,-1.7008154760074181,-2.4501107838821077,0.01310346783021159,0.02153099011219328,0.18931074455351582
8719,0.0,300.29365,27030.485,-0.08719001474494448,0.0,0.0,0.0,0.0,-0.013306429030577827,-4.101427979254426,-1.6861947836894684,-2.428969827170658,0.0035353202847839466,0.004906472003656086,0.18889272822476083
8720,0.0,300.34545,26922.002999999997,-0.08719999138441192,0.0,0.0,0.0,0.0,-0.013307951606820356,-4.0705302346800565,-1.6782919395345186,-2.434794596695518,0.018667346732573684,-0.0036040450873915564,0.2016497395012798
8721,0.0,300.06536,27096.347999999998,-0.08721000105910948,0.0,0.0,0.0,0.0,-0.0133094792247061,-4.088451994498796,-1.7043856627347682,-2.4437756402818773,0.0029558198557917076,0.003575403344164837,0.19201244422265282
8722,0.0,299.77603999999997,27251.617000000002,-0.08722001073380681,0.0,0.0,0.0,0.0,-0.013311006842591816,-4.1083907299665965,-1.7226965105919085,-2.4527236519149778,-0.008173917636977862,0.0019290540127078083,0.18388910671344183
8723,0.0,299.65221,27213.124,-0.08722998737327425,0.0,0.0,0.0,0.0,-0.013312529418834346,-4.102618649446936,-1.7236353881345683,-2.4458563493622276,-0.03664102852618797,0.002720392714931857,0.19281302325916383
8724,0.0,299.79236000000003,27107.5,-0.0872399970479718,0.0,0.0,0.0,0.0,-0.01331405703672009,-4.100774128964896,-1.7095697542213983,-2.4296591412136874,-0.02424885314692548,-0.004454243791899635,0.17885479385659384
8725,0.0,299.45746,27145.831000000002,-0.08725000672266936,0.0,0.0,0.0,0.0,-0.013315584654605805,-4.0914527346699465,-1.7075527785723383,-2.4526491780326274,0.0015252596623564086,0.009713655832663192,0.2026849568634478
8726,0.0,299.6291,27192.562,-0.08726001639736669,0.0,0.0,0.0,0.0,-0.013317112272491521,-4.110802569179626,-1.7196218031634585,-2.4354355787087774,0.012999986623998788,-0.00029103860252827367,0.19105523698568383
8727,0.0,300.56428999999997,27199.316000000003,-0.08726999303683414,0.0,0.0,0.0,0.0,-0.013318634848734051,-4.112322444329625,-1.7011862242190086,-2.4544043298558478,0.02470397672084268,-0.004026140355749116,0.22577375516963477
8728,0.0,300.1667,27099.286,-0.08728000271153169,0.0,0.0,0.0,0.0,-0.013320162466619795,-4.110063909856725,-1.693758391710938,-2.4336838719358975,0.02263584207423368,-0.020339186092821378,0.18745953662081583
8729,0.0,300.11863999999997,27167.714,-0.08729001238622924,0.0,0.0,0.0,0.0,-0.013321690084505539,-4.104324354665276,-1.7175633855853087,-2.4364188366058177,0.018084098696761586,-0.0007165225034602654,0.2015479483962338
8730,0.0,300.25484,27256.974,-0.08729998902569647,0.0,0.0,0.0,0.0,-0.01332321266074804,-4.130670579790446,-1.7121581016018486,-2.442610706641908,0.0075878564135881225,0.004442785757118816,0.16750672710912684
8731,0.0,299.9712,27340.661,-0.08730999870039402,0.0,0.0,0.0,0.0,-0.013324740278633757,-4.139266385688786,-1.7073117263735482,-2.4643001356324876,-0.015535424110726986,-0.005755122765986395,0.21007876443315981
8732,0.0,300.26099,27229.818,-0.08732000837509146,0.0,0.0,0.0,0.0,-0.0133262678965195,-4.119835693821126,-1.7137679533607284,-2.4435811975876875,-0.01197808336814479,-0.017597249248963283,0.17877607445632482
8733,0.0,300.03146,27113.037999999997,-0.08732998501455891,0.0,0.0,0.0,0.0,-0.01332779047276203,-4.0870832962637165,-1.7139149759502381,-2.4406881659021677,-0.006931676966053253,-3.022739654671177e-05,0.2131163666429478
8734,0.0,299.44569,27108.882999999998,-0.08733999468925624,0.0,0.0,0.0,0.0,-0.013329318090647746,-4.097234339740546,-1.7105034641885484,-2.4326857192623876,0.008664541340073651,0.003900238255298546,0.17962529963013682
8735,0.0,299.83684,27225.244,-0.08735000436395379,0.0,0.0,0.0,0.0,-0.01333084570853349,-4.115888578056576,-1.7042912278254483,-2.4556145557752873,-0.007440107931706483,-0.0032296119891628873,0.22443362045487378
8736,0.0,300.42938,27210.607999999997,-0.08736001403865135,0.0,0.0,0.0,0.0,-0.013332373326419233,-4.103452452954226,-1.7158014449864183,-2.4520913838525775,-0.013831076647520988,-0.0059927563602640045,0.17999331206645683
8737,0.0,300.29008999999996,27288.34,-0.08736999067811857,0.0,0.0,0.0,0.0,-0.013333895902661735,-4.107948750272976,-1.7259489420878984,-2.4610762777893176,0.012328717551999688,0.010807241466841689,0.21605450822291977
8738,0.0,300.55797,27300.796000000002,-0.08738000035281612,0.0,0.0,0.0,0.0,-0.013335423520547451,-4.121091313345046,-1.7264107814834786,-2.4512580869703378,0.007639678887302603,0.011636335387666888,0.17773149466323282
8739,0.0,300.34366,27305.56,-0.08739001002751368,0.0,0.0,0.0,0.0,-0.013336951138433195,-4.123365350544476,-1.7233340475548284,-2.4535091233924975,-0.006140028918573674,0.00888796075797343,0.2113128523924548
8740,0.0,300.65055,27360.54,-0.08739998666698112,0.0,0.0,0.0,0.0,-0.013338473714675725,-4.126360517840077,-1.7283396043738382,-2.4622209464272875,-0.017437901485236884,-0.012162265891822188,0.18395594069003782
8741,0.0,300.43829,27290.971,-0.08740999634167845,0.0,0.0,0.0,0.0,-0.01334000133256144,-4.104007916659046,-1.7287564554649784,-2.4630093563300974,0.0036584929934401467,0.017950920143367882,0.19084007332694883
8742,0.0,300.1875,27175.376,-0.08742000601637623,0.0,0.0,0.0,0.0,-0.013341528950447212,-4.100200730733306,-1.7171324503177785,-2.4433026551351977,0.01129449418817979,-0.0005801511483389604,0.18321240763415683
8743,0.0,299.93249,27282.398999999998,-0.08743001569107356,0.0,0.0,0.0,0.0,-0.013343056568332928,-4.144132620619046,-1.6892986727207986,-2.4597366598321075,0.01004075181139505,0.0016712079027853784,0.2026779249077538
8744,0.0,299.46278,27385.754,-0.087439992330541,0.0,0.0,0.0,0.0,-0.013344579144575458,-4.136654024280967,-1.7156575634722182,-2.4722738059694276,-0.0006197747089320014,-0.013672359125356786,0.2120822739883908
8745,0.0,299.66657000000004,27250.706000000002,-0.08745000200523834,0.0,0.0,0.0,0.0,-0.013346106762461146,-4.117857221675866,-1.7090161143667584,-2.4566609391535574,0.01051759278000559,0.008018081088822992,0.2131655194052988
8746,0.0,299.85777,27314.51,-0.08746001167993589,0.0,0.0,0.0,0.0,-0.01334763438034689,-4.1074951182032065,-1.7237820054240383,-2.4716518730580477,0.002315366961733928,0.017425374674250586,0.21211415083653679
8747,0.0,299.54907000000003,27390.827,-0.08746998831940322,0.0,0.0,0.0,0.0,-0.01334915695658942,-4.1402511634609755,-1.7150248901097782,-2.4708514054790474,-0.011829454777226288,-0.006035204244053284,0.2153349891944088
8748,0.0,300.07504,27377.046000000002,-0.08747999799410067,0.0,0.0,0.0,0.0,-0.013350684574475136,-4.127197563747686,-1.7281012879503184,-2.4666394261383577,-0.012911373849753386,-0.002944398905964547,0.1987464030622428
8749,0.0,300.76302000000004,27297.142999999996,-0.08749000766879833,0.0,0.0,0.0,0.0,-0.013352212192360907,-4.137661498855397,-1.7227851699756587,-2.4372030921832177,0.0003567887662873096,0.008716005629877783,0.1891166260993578
8750,0.0,300.88952,27220.817000000003,-0.08749998430826555,0.0,0.0,0.0,0.0,-0.01335373476860341,-4.115092163477976,-1.7144467296027184,-2.4449098724438176,0.03400091622462917,0.014758563232556787,0.17963162231076082
8751,0.0,300.54613,27222.342999999997,-0.08750999398296311,0.0,0.0,0.0,0.0,-0.013355262386489153,-4.128452575321546,-1.7120619441673584,-2.4343981119313876,0.02067152604612078,-0.014688925592934086,0.19542745169718784
8752,0.0,300.1428,27309.189,-0.08752000365766044,0.0,0.0,0.0,0.0,-0.013356790004374841,-4.114349147179646,-1.7191592544928087,-2.4678032452032177,0.012782821796316289,-0.018418223996737183,0.18372483860722982
8753,0.0,299.96528,27373.951,-0.08753001333235821,0.0,0.0,0.0,0.0,-0.013358317622260613,-4.130148046713876,-1.7226405791863884,-2.4682089505432576,0.004112602304007246,-0.007992898176137632,0.19515367152016783
8754,0.0,299.91524,27329.534,-0.08753998997182544,0.0,0.0,0.0,0.0,-0.013359840198503115,-4.106048197060406,-1.734250398832188,-2.4671972203184076,-0.007754292773689113,-0.0001803576970674188,0.1909483087026308
8755,0.0,299.6997,27236.086,-0.08754999964652299,0.0,0.0,0.0,0.0,-0.013361367816388858,-4.129422660967286,-1.6896013305256683,-2.4600659661146076,-0.014802277881621086,-0.011163814309532689,0.2129442357159598
8756,0.0,299.8578,27387.537999999997,-0.08756000932122054,0.0,0.0,0.0,0.0,-0.013362895434274602,-4.132436066764686,-1.7325424644636285,-2.460149153947818,-0.02502635541240898,-0.0023712255145717375,0.1980260734336518
8757,0.0,299.69264,27445.892999999996,-0.08756998596068799,0.0,0.0,0.0,0.0,-0.013364418010517132,-4.135097976102396,-1.7285562372452183,-2.4792119347041677,-0.0015111735607912186,0.012606215343636588,0.2054545746867878
8758,0.0,300.01077999999995,27285.097999999998,-0.08757999563538532,0.0,0.0,0.0,0.0,-0.013365945628402848,-4.103768586985426,-1.7207539075001883,-2.4694658872923076,-0.013511265531708087,0.014725985215341585,0.19392549080895582
8759,0.0,300.55539,27230.475,-0.08759000531008265,0.0,0.0,0.0,0.0,-0.013367473246288536,-4.115712171214166,-1.7117836043648882,-2.449888780785198,0.0006085192228461714,0.0032881418745643377,0.20882536392695883
8760,0.0,300.53535,27312.17,-0.08760001498478043,0.0,0.0,0.0,0.0,-0.013369000864174307,-4.119812693043856,-1.7085709935978284,-2.473834008473408,0.004910789664982205,0.0027145052252258075,0.2055356042972848
8761,0.0,300.88992,27400.926,-0.08760999162424765,0.0,0.0,0.0,0.0,-0.01337052344041681,-4.123144867322717,-1.7297170165597782,-2.4763354189952773,0.013920857699131687,0.00952297736259469,0.19787426830366983
8762,0.0,300.51616,27427.409,-0.0876200012989452,0.0,0.0,0.0,0.0,-0.013372051058302553,-4.144519986132275,-1.7237912259999482,-2.468936261465038,0.015249255937984384,0.002084765829775368,0.18204182005862884
8763,0.0,299.63969,27344.61,-0.08763001097364276,0.0,0.0,0.0,0.0,-0.013373578676188297,-4.125244422854926,-1.7100446645432685,-2.4767894563650876,0.006200196722761774,-0.022820738939231578,0.1990156134813118
8764,0.0,299.57027999999997,27246.337000000003,-0.08763998761311009,0.0,0.0,0.0,0.0,-0.013375101252430827,-4.114841485403236,-1.7120216168133784,-2.4553431060734976,-0.002204967385163338,-0.004329302151218856,0.19154000623102682
8765,0.0,299.67212,27400.205,-0.08764999728780742,0.0,0.0,0.0,0.0,-0.013376628870316543,-4.130398116838556,-1.7235010311713084,-2.4750788875462675,-0.006700444984582433,-0.005816290749348204,0.2069963867014528
8766,0.0,299.60343,27478.776,-0.08766000696250498,0.0,0.0,0.0,0.0,-0.013378156488202259,-4.133302294275175,-1.7330540544391184,-2.486505410248977,-0.0031227098479624667,0.013662229664107088,0.20991870131486282
8767,0.0,300.07855,27318.645,-0.08766998360197242,0.0,0.0,0.0,0.0,-0.013379679064444816,-4.123026013085986,-1.7187595273283582,-2.4624003930199976,-0.015049997266069086,-0.00988713772600952,0.21723248239167678
8768,0.0,299.60873,27167.8,-0.08767999327666998,0.0,0.0,0.0,0.0,-0.013381206682330532,-4.108932514795066,-1.6942211430316083,-2.4551792635323273,-0.005274139934942085,-0.0018663124519406984,0.1999795081689408
8769,0.0,300.01862,27499.534,-0.08769000295136731,0.0,0.0,0.0,0.0,-0.013382734300216248,-4.130680509641426,-1.7556914802232584,-2.4727997840963374,-0.00016761315889963086,0.014451755155277184,0.1949393589915168
8770,0.0,300.33412999999996,27518.547000000002,-0.08770001262606486,0.0,0.0,0.0,0.0,-0.013384261918101992,-4.139110243848376,-1.7375326198811185,-2.488308387476918,0.0032435707251905073,0.00987925879455693,0.1927510326180458
8771,0.0,300.57885,27339.541,-0.0877099892655323,0.0,0.0,0.0,0.0,-0.013385784494344521,-4.131339426181456,-1.7105920222472883,-2.4686064485574875,-0.004342518377573196,-0.00928943831197118,0.2083357513461378
8772,0.0,300.72829,27294.131,-0.08771999894022964,0.0,0.0,0.0,0.0,-0.013387312112230237,-4.115449638113256,-1.7141979767031683,-2.4670866747324975,-7.913797895156042e-05,0.0028616675419245972,0.2000535463537478
8773,0.0,300.18156,27349.328999999998,-0.08773000861492719,0.0,0.0,0.0,0.0,-0.013388839730115953,-4.1341294103318065,-1.6973444864648584,-2.4820392064581975,0.030017074196954575,0.016208343767138984,0.20897872946209478
8774,0.0,300.15885,27443.494,-0.08773998525439464,0.0,0.0,0.0,0.0,-0.013390362306358511,-4.132004118247056,-1.7252134238403087,-2.4849193698674474,-0.00037178748195256764,0.01010301106511456,0.1956865194827558
8775,0.0,300.50911,27472.132,-0.08774999492909219,0.0,0.0,0.0,0.0,-0.013391889924244227,-4.155720858037716,-1.7125217570627382,-2.4825995337634974,-0.0033000692467914767,-0.010626246627978888,0.2111164135955678
8776,0.0,300.33686,27445.472,-0.08776000460378952,0.0,0.0,0.0,0.0,-0.013393417542129943,-4.153702362513506,-1.7147990366624883,-2.4742368767131677,-0.01191473193214249,-0.007578673935881883,0.2054854686823368
8777,0.0,299.62692000000004,27358.165,-0.08777001427848707,0.0,0.0,0.0,0.0,-0.013394945160015687,-4.139890345100366,-1.7273047720467085,-2.449004010797877,0.004298120899266506,0.0017887647740873383,0.2038217930781448
8778,0.0,299.25232,27525.228,-0.08777999091795452,0.0,0.0,0.0,0.0,-0.013396467736258216,-4.137374647752086,-1.7305914513960783,-2.499015705258648,-0.00967823078531701,0.0014923494004334186,0.2071580406224068
8779,0.0,299.02689,27596.987999999998,-0.08779000059265196,0.0,0.0,0.0,0.0,-0.01339799535414396,-4.156280374742936,-1.7451520579830986,-2.4873628224835977,0.006259947169233684,-0.011854419233190088,0.1998760350687288
8780,0.0,299.72907000000004,27389.582000000002,-0.0878000102673494,0.0,0.0,0.0,0.0,-0.013399522972029648,-4.116810736972586,-1.7273873519298584,-2.4815508199099976,-0.0028675155148767473,0.000978124690973391,0.2026812382355808
8781,0.0,300.103,27199.761000000002,-0.08780998690681696,0.0,0.0,0.0,0.0,-0.013401045548272233,-4.107650449443536,-1.7124872052343285,-2.447910612614968,0.015582100489833587,0.011216136518196489,0.17255821455516984
8782,0.0,300.44743,27424.957000000002,-0.08781999658151429,0.0,0.0,0.0,0.0,-0.013402573166157922,-4.133171787662296,-1.7290455357185086,-2.4742847021178878,-0.0012733021567151387,-0.005231502269409076,0.2123977798045288
8783,0.0,299.90125,27562.826,-0.08783000625621173,0.0,0.0,0.0,0.0,-0.013404100784043638,-4.160286461663306,-1.7209671966462383,-2.4971573032502374,0.0011076521800167589,-0.017522902022875785,0.1989382011736718
8784,0.0,299.94354,27514.754,-0.08784001593090918,0.0,0.0,0.0,0.0,-0.013405628401929381,-4.1468110459333865,-1.7165708057873483,-2.5004163208718775,-0.0004129407360890776,0.0026809522587643874,0.23822266748824678
8785,0.0,299.83439,27379.918999999998,-0.08784999257037662,0.0,0.0,0.0,0.0,-0.013407150978171911,-4.130591951582686,-1.722692254941488,-2.4695274928983877,0.012382440072301687,0.014762493629694685,0.1896116291707108
8786,0.0,299.68556,27495.938,-0.08786000224507418,0.0,0.0,0.0,0.0,-0.013408678596057655,-4.143297398561616,-1.7215572121794684,-2.493223967687048,-0.013710376269108787,0.012902947661921788,0.2257015509675088
8787,0.0,300.06557000000004,27661.066000000003,-0.0878700119197715,0.0,0.0,0.0,0.0,-0.013410206213943343,-4.177238237161316,-1.7459183790337283,-2.4851169536369477,-0.02044676690893878,-0.015815174357336186,0.19091510449685384
8788,0.0,299.6697,27665.54,-0.08787998855923917,0.0,0.0,0.0,0.0,-0.013411728790185928,-4.191315928750676,-1.7289353954326383,-2.489382128607888,-0.014252626179374684,-0.008107873691484833,0.21212941038304278
8789,0.0,299.24085,27491.494,-0.0878899982339365,0.0,0.0,0.0,0.0,-0.013413256408071617,-4.1681454320889255,-1.7344372421506284,-2.4541450391552577,0.006730513282624943,-0.0024216713867003577,0.1876492474370388
8790,0.0,299.6318,27317.362,-0.08790000790863406,0.0,0.0,0.0,0.0,-0.01341478402595736,-4.127371741439876,-1.7273078117970084,-2.4491165828839874,-0.0031102804103107775,-0.008166484332919251,0.2091086686549188
8791,0.0,299.89128999999997,27433.783,-0.0879099845481015,0.0,0.0,0.0,0.0,-0.01341630660219989,-4.134038217822806,-1.7319859875087082,-2.4731607037819576,-0.001851426592071578,-0.016075514785029787,0.19947293378144582
8792,0.0,299.78499,27685.291,-0.08791999422279895,0.0,0.0,0.0,0.0,-0.013417834220085634,-4.150978442269676,-1.7468233126980384,-2.5178353059909973,0.013542875895077787,-0.00022484934683840278,0.21541073977188482
8793,0.0,300.04835,27598.494,-0.08793000389749639,0.0,0.0,0.0,0.0,-0.01341936183797135,-4.158533133690266,-1.7464337180345881,-2.4842860885549474,0.01991429992838838,0.011404843203570388,0.1942682530527838
8794,0.0,299.70262,27374.862,-0.08794001357219372,0.0,0.0,0.0,0.0,-0.013420889455857038,-4.138615676474566,-1.7156330428197983,-2.467025879726498,0.007907550600339482,0.0065628499779778636,0.19996220185723282
8795,0.0,300.25493,27447.287999999997,-0.08794999021166128,0.0,0.0,0.0,0.0,-0.013422412032099623,-4.157534778366736,-1.7292699706156587,-2.456485444236238,-0.002408398418340418,-0.0023183295023763077,0.1990411068538278
8796,0.0,300.57335,27651.918999999998,-0.08795999988635872,0.0,0.0,0.0,0.0,-0.013423939649985311,-4.1808834043960665,-1.7401625105156682,-2.4844468913458178,0.005613592194668415,0.009008539749023653,0.2040562996812888
8797,0.0,300.32887999999997,27605.408,-0.08797000956105616,0.0,0.0,0.0,0.0,-0.013425467267871055,-4.1632032034011655,-1.7452621982689684,-2.4828893232920977,0.01009833673975324,0.01368522537512659,0.19284532567235182
8798,0.0,299.87253,27392.741,-0.08797998620052361,0.0,0.0,0.0,0.0,-0.013426989844113585,-4.135078420375466,-1.7240489968253885,-2.467581850056368,-0.003963479449689966,-0.00028399427505055273,0.1934297581975308
8799,0.0,299.51218,27389.115,-0.08798999587522116,0.0,0.0,0.0,0.0,-0.013428517461999329,-4.1538100709991355,-1.7114286628548585,-2.4603683199444477,-0.01995231504564018,-0.01866056302315418,0.20860436394764778
8800,0.0,299.63229,27517.424,-0.08800000554991849,0.0,0.0,0.0,0.0,-0.013430045079885045,-4.1739123450330755,-1.7298468138975882,-2.460850626992048,-0.005034114462478415,0.0006047714336412935,0.1998720428633348
8801,0.0,300.08817,27693.852000000003,-0.08801001522461604,0.0,0.0,0.0,0.0,-0.01343157269777076,-4.180417208025056,-1.7569712150995584,-2.4808510693909374,-0.002405442767798718,0.007714482481235143,0.20204340743013183
8802,0.0,299.49815,27616.982000000004,-0.08801999186408349,0.0,0.0,0.0,0.0,-0.013433095274013318,-4.170940279839757,-1.7277109840117983,-2.4962216681078977,0.006322501684032334,-0.005597881751867915,0.2188234370361918
8803,0.0,299.69156,27444.389,-0.08803000153878104,0.0,0.0,0.0,0.0,-0.013434622891899034,-4.119909357103396,-1.7314613266069283,-2.4910383872213475,-0.007509367831691904,-0.018329233280204485,0.21162806436606382
8804,0.0,299.8787,27482.641,-0.08804001121347838,0.0,0.0,0.0,0.0,-0.01343615050978475,-4.145701131773846,-1.7241921690645186,-2.4841433216158575,0.012621700844914886,0.012873493494764887,0.2181130676560838
8805,0.0,300.0981,27745.131,-0.08804998785294604,0.0,0.0,0.0,0.0,-0.013437673086027307,-4.181747200106317,-1.7491057598732984,-2.5029741694243177,0.01006423925268808,0.017013651641866682,0.2032001945392978
8806,0.0,299.8397,27690.15,-0.08805999752764337,0.0,0.0,0.0,0.0,-0.013439200703913023,-4.194329131898057,-1.729736369636688,-2.4930486754197476,-0.013715053431570385,0.008394800889877341,0.2093890653550918
8807,0.0,300.26864,27465.95,-0.0880700072023407,0.0,0.0,0.0,0.0,-0.01344072832179874,-4.169666219164016,-1.7166766904227984,-2.4626200656416772,-0.01929178034520048,-0.0018387618777466683,0.19971870772570183
8808,0.0,299.79917,27465.529,-0.08807998384180826,0.0,0.0,0.0,0.0,-0.013442250898041297,-4.149989003547026,-1.7250418805983783,-2.4738041175954577,-0.0094792101258502,-0.001230758824766439,0.2005740427976168
8809,0.0,299.66668,27667.085,-0.0880899935165057,0.0,0.0,0.0,0.0,-0.013443778515927013,-4.159151317576276,-1.7612277774446483,-2.4897237965416075,-0.0012233668613119088,0.01032596692109359,0.17806111505326383
8810,0.0,299.84261000000004,27646.767000000003,-0.08810000319120326,0.0,0.0,0.0,0.0,-0.013445306133812729,-4.169875252659645,-1.7471754171077882,-2.486876259785577,-0.016019838718534983,-0.015951114017252386,0.19722841255742882
8811,0.0,300.19476000000003,27561.142999999996,-0.08811001286590059,0.0,0.0,0.0,0.0,-0.013446833751698445,-4.172861706004386,-1.7441052693047883,-2.460932294950108,-0.004052237017374657,-0.010507274854237289,0.18666854293025084
8812,0.0,299.62325,27488.605,-0.08811998950536815,0.0,0.0,0.0,0.0,-0.013448356327941002,-4.149192183668386,-1.7344460574264986,-2.472211288438258,0.007929759522656333,0.004355656482344826,0.2058362457344558
8813,0.0,300.38377,27446.207000000002,-0.08812999918006548,0.0,0.0,0.0,0.0,-0.013449883945826718,-4.141130968522806,-1.7399626975959486,-2.4618680314174575,0.01852245906102438,0.013482464910865686,0.18701931998236984
8814,0.0,300.19452,27647.099,-0.08814000885476303,0.0,0.0,0.0,0.0,-0.013451411563712462,-4.145279417082226,-1.7436191119068083,-2.5151293202739375,0.0023971568137809577,-0.008219664561767733,0.21375129955311079
8815,0.0,299.99455,27727.409,-0.08814998549423048,0.0,0.0,0.0,0.0,-0.013452934139954992,-4.176660177979266,-1.7323253249671984,-2.5194546823008177,0.007937233964669003,-0.02069909759459188,0.2079602509915788
8816,0.0,300.61371,27679.31,-0.08815999516892803,0.0,0.0,0.0,0.0,-0.013454461757840736,-4.173706756587786,-1.7479767966118784,-2.4921355344296274,0.021342115227302776,0.0007211621047406583,0.20085784401812581
8817,0.0,300.63142999999997,27525.757999999998,-0.08817000484362536,0.0,0.0,0.0,0.0,-0.013455989375726424,-4.178480279133896,-1.7304099783031683,-2.458252856385668,0.01833063359184268,-0.005593637956474084,0.18433163356211582
8818,0.0,299.92272,27691.112,-0.08818001451832269,0.0,0.0,0.0,0.0,-0.01345751699361214,-4.186920855116917,-1.7333861978218983,-2.497099649319548,-0.003851303139069027,-0.009709834562561059,0.2057879238371868
8819,0.0,300.02428,27821.682999999997,-0.08818999115779036,0.0,0.0,0.0,0.0,-0.013459039569854697,-4.2128493172258565,-1.7485289165913682,-2.4957187920832675,-0.037739995531647565,-0.003909657326903137,0.2037433675204048
8820,0.0,299.93223,27593.42,-0.08820000083248769,0.0,0.0,0.0,0.0,-0.013460567187740413,-4.155707787111425,-1.7243093007760784,-2.5076934830900774,0.0036115166923039468,0.011693715740829887,0.21575710918606883
8821,0.0,299.70176000000004,27443.472999999998,-0.08821001050718524,0.0,0.0,0.0,0.0,-0.013462094805626157,-4.148799042629586,-1.7274092381320185,-2.4659222477175775,-0.006659065269048574,0.016774760705539984,0.18683673231434983
8822,0.0,300.23548,27510.481,-0.08821998714665269,0.0,0.0,0.0,0.0,-0.013463617381868687,-4.170902181635996,-1.7153727388691085,-2.476224569434337,-0.002107285414572878,-0.0092773777986809,0.2201711407291998
8823,0.0,299.49551,27594.536,-0.08822999682135024,0.0,0.0,0.0,0.0,-0.01346514499975443,-4.173949733961766,-1.7287746939667783,-2.4853255818325377,-0.005215905715919815,-0.00964832815366585,0.2055200813057528
8824,0.0,299.3777,27730.5,-0.08824000649604757,0.0,0.0,0.0,0.0,-0.013466672617640119,-4.169036281576846,-1.7549604202761084,-2.5053828675620373,0.01938982343812658,0.005313806751181895,0.2152015441562388
8825,0.0,300.06344,27658.756,-0.08825001617074513,0.0,0.0,0.0,0.0,-0.013468200235525862,-4.155520133192906,-1.7333009834884883,-2.5187499668562676,0.021997996070033183,0.008213414328525882,0.20438589980631783
8826,0.0,300.08539,27447.247000000003,-0.08825999281021246,0.0,0.0,0.0,0.0,-0.013469722811768392,-4.120555506692167,-1.7319270163528884,-2.4907953085223578,0.008417193311787302,-0.018011884362134585,0.20550811482207182
8827,0.0,300.08867999999995,27667.8,-0.08827000248491002,0.0,0.0,0.0,0.0,-0.013471250429654136,-4.174298291996166,-1.7451387844067883,-2.4908833599560474,-0.000890889663286464,0.002165191340562748,0.2026426435392718
8828,0.0,300.65304,27997.208,-0.08828001215960746,0.0,0.0,0.0,0.0,-0.013472778047539852,-4.2312019109871155,-1.7683901384265182,-2.5108600923025977,0.01239658301719749,0.007231800429773134,0.1924269547060618
8829,0.0,299.69177,27772.779,-0.08828998879907479,0.0,0.0,0.0,0.0,-0.013474300623782381,-4.202502919129746,-1.7772382435997585,-2.4624900656538475,-0.004885045614391465,0.025235676671067374,0.17445350899972084
8830,0.0,300.04002,27477.327,-0.08829999847377235,0.0,0.0,0.0,0.0,-0.013475828241668097,-4.168955626868885,-1.7164085844463381,-2.4670570878295774,-0.008686587635749452,-0.0006347383154812943,0.18356697424164983
8831,0.0,300.45022,27584.429,-0.08831000814846968,0.0,0.0,0.0,0.0,-0.013477355859553813,-4.161346219942896,-1.7284626129359786,-2.4951685972789677,-0.03315048629644827,0.0005303846401373886,0.2162666219988538
8832,0.0,300.27903,27777.941000000003,-0.08831998478793712,0.0,0.0,0.0,0.0,-0.013478878435796343,-4.172432898562066,-1.753213171803668,-2.5181544797724977,0.004457184648989876,0.01152453539813309,0.20513390129513978
8833,0.0,299.77718,27823.118,-0.08832999446263468,0.0,0.0,0.0,0.0,-0.013480406053682087,-4.199113293570217,-1.7385979510362584,-2.519821782812048,-0.005410068246457166,0.008260032648401753,0.23184114743093978
8834,0.0,299.66949,27764.311,-0.08834000413733223,0.0,0.0,0.0,0.0,-0.01348193367156783,-4.207940120491356,-1.7565077545038181,-2.475209292834138,0.011447886067818389,-0.002383758709033668,0.21122860064663979
8835,0.0,298.79699,27607.898999999998,-0.08835001381202956,0.0,0.0,0.0,0.0,-0.013483461289453547,-4.189891805735126,-1.7234592852671882,-2.478760734434638,-0.0015787558225860685,-0.015936335764543882,0.2261290715822018
8836,0.0,299.49548,27719.05,-0.088359990451497,0.0,0.0,0.0,0.0,-0.013484983865696076,-4.188761322598556,-1.753305377562768,-2.4838322538351574,0.018995214199931682,0.002214743323453148,0.1971715692268188
8837,0.0,300.13608999999997,28012.287999999997,-0.08837000012619456,0.0,0.0,0.0,0.0,-0.013486511483581792,-4.197052748166856,-1.7843785157294483,-2.5336048212723274,0.004040384726979926,0.006046711725438984,0.20246522344676182
8838,0.0,300.32029,27727.087000000003,-0.08838000980089211,0.0,0.0,0.0,0.0,-0.013488039101467536,-4.178475212883396,-1.7200968148103384,-2.5297701762688773,0.00986142447822182,-0.016676571704599484,0.21147187186314878
8839,0.0,299.96328,27423.937,-0.08838998644035934,0.0,0.0,0.0,0.0,-0.013489561677710038,-4.155792089519746,-1.7378487539123184,-2.4425512288610376,-0.014631323337999188,-0.008250211113857441,0.2003798838134548
8840,0.0,300.33007000000003,27637.097,-0.088399996115057,0.0,0.0,0.0,0.0,-0.01349108929559581,-4.190753574945176,-1.7404780365968084,-2.4697557781459176,0.007798423361919462,0.003386417609713397,0.18797832067201584
8841,0.0,300.14968999999996,27981.057,-0.08841000578975444,0.0,0.0,0.0,0.0,-0.013492616913481525,-4.231550165046485,-1.7755843154615285,-2.4984079578486678,0.001133670416084559,0.018472815885624983,0.18500316506589082
8842,0.0,300.34283,27857.827,-0.08842001546445177,0.0,0.0,0.0,0.0,-0.013494144531367241,-4.181989873505266,-1.7715999120932986,-2.5144941137862475,-0.006968771342939183,-0.00923556552667935,0.1940017885414858
8843,0.0,300.10856,27631.909,-0.08842999210391922,0.0,0.0,0.0,0.0,-0.013495667107609771,-4.158819883468566,-1.7266814205851884,-2.513909164503518,0.0016136398957038581,0.0014188538110549687,0.20963906455226483
8844,0.0,299.02326,27729.897,-0.08844000177861666,0.0,0.0,0.0,0.0,-0.013497194725495487,-4.151727436743596,-1.763439905062968,-2.5140290319903476,0.011374130579789291,0.0054868919571140744,0.21524026044255978
8845,0.0,298.84156,27833.802000000003,-0.08845001145331421,0.0,0.0,0.0,0.0,-0.013498722343381231,-4.195474003186046,-1.7491754714801784,-2.5161314246228375,0.02289788678859548,0.004225600056484256,0.2243391855455538
8846,0.0,299.27924,27874.554,-0.08845998809278144,0.0,0.0,0.0,0.0,-0.013500244919623733,-4.2063534721597655,-1.752632072871318,-2.5141828433555276,0.009792875069206522,-0.016872837235719383,0.22251863856087975
8847,0.0,299.55331,27799.272999999997,-0.08846999776747921,0.0,0.0,0.0,0.0,-0.013501772537509504,-4.216601382346156,-1.7372121288744884,-2.4964713329325376,-0.007903632868827832,-0.008099935484901392,0.22194001195877378
8848,0.0,299.69296,27622.088,-0.08848000744217654,0.0,0.0,0.0,0.0,-0.01350330015539522,-4.169836647830836,-1.7239540552910182,-2.5026344266657876,0.01153115597428649,-6.199949692387394e-05,0.19497942290047082
8849,0.0,299.79737,27649.229,-0.08848998408164399,0.0,0.0,0.0,0.0,-0.01350482273163775,-4.172020100471326,-1.7421545602122683,-2.4905005540682676,0.0005443028765585115,0.009895097920120131,0.19640944303160282
8850,0.0,299.99848,27936.476000000002,-0.08849999375634132,0.0,0.0,0.0,0.0,-0.013506350349523466,-4.205431414568766,-1.7536916285008883,-2.532868087124618,-0.0007509050279110562,-0.008367398047547893,0.2132043876791348
8851,0.0,300.21195,27942.211,-0.0885100034310391,0.0,0.0,0.0,0.0,-0.01350787796740921,-4.235345293296036,-1.7365787462369784,-2.521810387458308,-0.015693746465352185,-0.01310784000439309,0.22274683261590078
8852,0.0,299.85549,27720.202999999998,-0.08852001310573643,0.0,0.0,0.0,0.0,-0.013509405585294926,-4.194672826331976,-1.7631308637824683,-2.4684459497416475,0.0044036322533796655,0.019436279941961482,0.1970198755543478
8853,0.0,300.04996,27750.175,-0.08852998974520387,0.0,0.0,0.0,0.0,-0.013510928161537455,-4.196631540100286,-1.7390341552043085,-2.4996944815006374,-0.003031273854963437,0.020224955316297682,0.2110760355790828
8854,0.0,300.28567000000004,27951.095,-0.08853999941990143,0.0,0.0,0.0,0.0,-0.0135124557794232,-4.183435680072956,-1.7648672704788382,-2.5481318892810374,-0.012246482173883686,0.004298781842306736,0.2211362715819508
8855,0.0,299.91415,27806.444,-0.08855000909459876,0.0,0.0,0.0,0.0,-0.013513983397308915,-4.171142828534746,-1.7564857669766485,-2.524836053581918,-0.024235427583100475,0.008976359128497672,0.21828731627578082
8856,0.0,300.12196,27713.315,-0.0885599857340662,0.0,0.0,0.0,0.0,-0.013515505973551445,-4.1634363522491755,-1.7400570311802586,-2.5206621724449874,-0.0021004802242512582,0.015540842972261786,0.20787104445277482
8857,0.0,300.30077,27735.537999999997,-0.08856999540876376,0.0,0.0,0.0,0.0,-0.013517033591437189,-4.180561393514286,-1.7669693591362985,-2.4833802429655476,0.0068828042660298945,0.0024262308095003376,0.1976626104902808
8858,0.0,300.23873,27717.092,-0.0885800050834612,0.0,0.0,0.0,0.0,-0.013518561209322905,-4.187709670319766,-1.7503643178225083,-2.4872299853954876,0.01075784856421699,-0.015501703147398986,0.19124296183171083
8859,0.0,300.42895,27826.869,-0.08859001475815864,0.0,0.0,0.0,0.0,-0.01352008882720862,-4.198650238274516,-1.7586898899191785,-2.5013333122123775,0.007058101295605363,-0.014480638862627786,0.19207304671113382
8860,0.0,300.24658999999997,27909.879,-0.08859999139762598,0.0,0.0,0.0,0.0,-0.01352161140345115,-4.186352624460836,-1.7784695451212784,-2.5190841367392474,0.012411249812394989,0.0016066213149111784,0.17952434952267382
8861,0.0,299.88403,27686.542999999998,-0.08861000107232353,0.0,0.0,0.0,0.0,-0.013523139021336894,-4.173303584372996,-1.7337621136089985,-2.508952041039288,0.007747680202211503,0.005127539262773725,0.2125407088636348
8862,0.0,300.42578,27657.262000000002,-0.08862001074702108,0.0,0.0,0.0,0.0,-0.013524666639222638,-4.173241776116896,-1.752429929476368,-2.4814453405745875,-0.0015427605180836084,-0.013213130875284487,0.2020261011184238
8863,0.0,299.80771,27928.356,-0.08862998738648831,0.0,0.0,0.0,0.0,-0.01352618921546514,-4.231038271095966,-1.7244130575863181,-2.5340715242683878,0.001991707826016258,-0.004799445435343385,0.24085181845022374
8864,0.0,299.46602,28088.125,-0.08863999706118586,0.0,0.0,0.0,0.0,-0.013527716833350883,-4.240149517320176,-1.7656853686095781,-2.5322538549139977,0.006576317186381974,0.02246055385993408,0.2071766844242468
8865,0.0,299.74347,27834.136000000002,-0.08865000673588341,0.0,0.0,0.0,0.0,-0.0135292444512366,-4.199524673110816,-1.7389883562997883,-2.5223691948884577,0.002498776476910038,0.01164782260405059,0.2386311592660618
8866,0.0,299.53281,27754.179,-0.08866001641058074,0.0,0.0,0.0,0.0,-0.013530772069122315,-4.185997075000746,-1.7241092852063382,-2.5264710339432774,-0.023950313190461876,-0.004889005497107276,0.2169587630096628
8867,0.0,299.72762,28061.485,-0.08866999305004819,0.0,0.0,0.0,0.0,-0.013532294645364845,-4.2141660357308055,-1.7682177845845084,-2.5476068230792177,-0.008360236902466144,-0.0008039779637064472,0.2400903913975768
8868,0.0,300.11137,28056.475,-0.08868000272474574,0.0,0.0,0.0,0.0,-0.013533822263250589,-4.228884000058356,-1.7705025622349984,-2.5290813688508975,0.0031643561495976373,0.007570051988130962,0.18612397166400582
8869,0.0,299.88083,27948.499,-0.0886900123994433,0.0,0.0,0.0,0.0,-0.013535349881136333,-4.225690945018226,-1.7686456801017383,-2.5013091968599976,0.012647625861973488,0.00024796207811195176,0.21372040555756178
8870,0.0,300.07059,27750.07,-0.08869998903891052,0.0,0.0,0.0,0.0,-0.013536872457378835,-4.192942803111236,-1.7650822821500585,-2.4773032754907978,0.0061872215486062235,-0.01962970026680058,0.17685052436378781
8871,0.0,300.0784,27702.697,-0.08870999871360807,0.0,0.0,0.0,0.0,-0.013538400075264578,-4.166176281844586,-1.7525600307892086,-2.5021917376970975,0.006048758085340944,-0.023064676874306377,0.19497992952552082
8872,0.0,299.79122,27844.971,-0.08872000838830563,0.0,0.0,0.0,0.0,-0.013539927693150294,-4.171796374849246,-1.7727113461279882,-2.5196681740968874,0.011013890784986389,-0.005892704802989684,0.17459008498069983
8873,0.0,300.36125,28017.877,-0.08872998502777296,0.0,0.0,0.0,0.0,-0.013541450269392852,-4.2136236429522755,-1.7699820556586285,-2.533129303000398,0.0015205229207889285,-0.01013481728972859,0.21603777946376881
8874,0.0,300.24484,27770.818,-0.0887399947024704,0.0,0.0,0.0,0.0,-0.01354297788727854,-4.1996884143269755,-1.7410802111312382,-2.500866507891308,-0.005908353538859094,-0.0033852755755256867,0.2027810129729278
8875,0.0,299.83837,27787.107999999997,-0.08875000437716796,0.0,0.0,0.0,0.0,-0.013544505505164284,-4.205944524419406,-1.7538613478926381,-2.4867811156011874,0.012332639843136789,-0.007222577219412873,0.2139304523032918
8876,0.0,299.74487999999997,28152.382,-0.0887600140518654,0.0,0.0,0.0,0.0,-0.013546033123050027,-4.241448706598396,-1.7794340578914685,-2.5367382972065777,0.007458259597972913,0.016933425538698983,0.19226281832236283
8877,0.0,299.36685,28158.638,-0.08876999069133285,0.0,0.0,0.0,0.0,-0.013547555699292557,-4.2353587695223665,-1.7592866942280785,-2.5648773670586875,0.006603996240688683,0.011007894370894592,0.22276813113300278
8878,0.0,299.67582999999996,27913.625,-0.08878000036603018,0.0,0.0,0.0,0.0,-0.013549083317178273,-4.195479981361636,-1.7615460393010582,-2.5280188747960377,-0.003567953828104627,0.008281558133526153,0.2000192579703638
8879,0.0,299.59603,27881.772999999997,-0.08879001004072773,0.0,0.0,0.0,0.0,-0.01355061093506399,-4.210862232454746,-1.7435056278956085,-2.520994822452818,0.0004211453058588056,0.008541111468542072,0.23266617619236377
8880,0.0,299.91387000000003,27854.314,-0.08879998668019518,0.0,0.0,0.0,0.0,-0.013552133511306547,-4.2152551782632965,-1.7561865542221182,-2.4955743026190076,0.0009215785466177212,0.007897019993375191,0.19242672165853883
8881,0.0,300.44762000000003,27837.756,-0.0888099963548925,0.0,0.0,0.0,0.0,-0.013553661129192235,-4.245554396003596,-1.7288480532740182,-2.487580265955058,-0.0004969504873826946,-0.012766767861731887,0.2163536095199388
8882,0.0,300.68757999999997,27936.735,-0.08882000602959006,0.0,0.0,0.0,0.0,-0.013555188747077979,-4.219816222263436,-1.7471566719809382,-2.5250970668076773,-0.013541244562416788,-0.01215640727974399,0.21867324297386878
8883,0.0,299.84732,27850.306,-0.08883001570428761,0.0,0.0,0.0,0.0,-0.013556716364963722,-4.194481626038106,-1.7460744195491285,-2.5252416575969474,0.008658485752176011,-0.007878991031695872,0.2151603352746718
8884,0.0,299.46698,27882.407000000003,-0.08883999234375506,0.0,0.0,0.0,0.0,-0.013558238941206252,-4.190066287402346,-1.7519236084013983,-2.5335656084934577,0.006309059401580683,0.012688826637539686,0.21813913858115677
8885,0.0,300.08015,28127.894,-0.08885000201845239,0.0,0.0,0.0,0.0,-0.013559766559091968,-4.234881224750236,-1.7758678228395084,-2.539428273572058,0.004545226659453946,-0.01036766824220919,0.21434744524944577
8886,0.0,299.79524,28230.781000000003,-0.08886001169314994,0.0,0.0,0.0,0.0,-0.013561294176977684,-4.251042361195217,-1.7972771895024482,-2.5331330520257676,-0.005415164083860085,0.011505509601005387,0.23021743441069178
8887,0.0,299.28118,27977.21,-0.08886998833261739,0.0,0.0,0.0,0.0,-0.013562816753220241,-4.2194006883974255,-1.7774078616664986,-2.507564699002368,0.01030711844273339,0.004493701878618845,0.18965923166040882
8888,0.0,299.20115,27774.281000000003,-0.08887999800731494,0.0,0.0,0.0,0.0,-0.013564344371105957,-4.168602205234006,-1.7728533024669983,-2.501232291177408,0.013436473488826685,0.013399254786153487,0.1979226003334398
8889,0.0,300.18261,27874.532000000003,-0.08889000768201227,0.0,0.0,0.0,0.0,-0.013565871988991673,-4.185671821718646,-1.7567493133276584,-2.530740565889648,-0.0060917271849816644,-0.01091398939137689,0.18401520568838683
8890,0.0,300.56164,27943.95,-0.08889998432147983,0.0,0.0,0.0,0.0,-0.013567394565234231,-4.207621554659916,-1.7486515198534682,-2.537989965055108,-0.013562186415483589,0.005354392787912425,0.2183169538412058
8891,0.0,300.92986,27874.603,-0.08890999399617716,0.0,0.0,0.0,0.0,-0.013568922183119947,-4.212741912715256,-1.7600099521494583,-2.500431418298368,-8.500973693655782e-05,0.016931024135961984,0.19237498510843282
8892,0.0,300.03189,27939.088,-0.0889200036708746,0.0,0.0,0.0,0.0,-0.013570449801005663,-4.238485456680946,-1.7493187450443184,-2.5049809112473675,-0.005561494623551785,0.030489409850320472,0.20940967486212578
8893,0.0,299.53022000000004,28030.187,-0.08893001334557216,0.0,0.0,0.0,0.0,-0.013571977418891379,-4.258705571701516,-1.7522915195127085,-2.5094799443413875,-0.009330054138254652,-0.0078065106175926125,0.2087970131891608
8894,0.0,299.68445,28232.467999999997,-0.08893998998503949,0.0,0.0,0.0,0.0,-0.013573499995133936,-4.2464566952176455,-1.7827588354445982,-2.5527497766117877,-0.012554674350799886,0.001159902245273439,0.2052666674557428
8895,0.0,299.68108,28335.979,-0.08894999965973704,0.0,0.0,0.0,0.0,-0.013575027613019652,-4.268824089850137,-1.7702517828352484,-2.5743540925939676,0.014184624938663487,0.002104167238715138,0.22252477885648578
8896,0.0,299.94455,28189.747000000003,-0.08896000933443438,0.0,0.0,0.0,0.0,-0.013576555230905368,-4.245782377276096,-1.7817972610996984,-2.5413996529666174,0.01087390015117039,-0.007392023236285894,0.21288184990730283
8897,0.0,300.32137,27886.194,-0.08896998597390204,0.0,0.0,0.0,0.0,-0.013578077807147926,-4.237994840982526,-1.7351686060728087,-2.5035432106804776,0.012180830660154388,-0.03988918106700566,0.2345810770263498
8898,0.0,299.8416,27930.586,-0.08897999564859937,0.0,0.0,0.0,0.0,-0.013579605425033642,-4.249987263866086,-1.7365724640863587,-2.5036409893151275,0.006843580037433765,-0.019182350347650583,0.2257728837745488
8899,0.0,299.83271,28125.009,-0.08899000532329693,0.0,0.0,0.0,0.0,-0.013581133042919386,-4.244910779540076,-1.7871448911524683,-2.5172449864827375,0.02010335922479708,0.008366636691422753,0.2086066032303688
8900,0.0,300.46058,28003.591,-0.08900001499799426,0.0,0.0,0.0,0.0,-0.013582660660805074,-4.226010118799726,-1.7580358369796283,-2.5283465598783774,-0.0007820501878948443,0.02154009112459148,0.1926411861747048
8901,0.0,300.6355,27944.142000000003,-0.08900999163746193,0.0,0.0,0.0,0.0,-0.013584183237047659,-4.208379972359766,-1.786154641829738,-2.4997867885847476,-0.0024944351055315775,-0.008409288643782173,0.17915563794378483
8902,0.0,300.27202,28028.307999999997,-0.08902000131215926,0.0,0.0,0.0,0.0,-0.013585710854933347,-4.224015839952906,-1.7678474416729586,-2.528042483523368,-0.013861168148990787,0.006755722235837874,0.20899851823654778
8903,0.0,300.13088,28189.884,-0.08903001098685659,0.0,0.0,0.0,0.0,-0.013587238472819063,-4.245097622858516,-1.804071234072968,-2.519851977665027,-0.006481795542853414,0.014720243127024886,0.18496593825721683
8904,0.0,299.94157,28207.237999999998,-0.08903998762632426,0.0,0.0,0.0,0.0,-0.01358876104906162,-4.254556515192037,-1.7965158333773084,-2.5232234660477677,-0.01035970612292339,0.01753517349483688,0.2001502002807868
8905,0.0,300.09355,28131.155,-0.08904999730102159,0.0,0.0,0.0,0.0,-0.013590288666947337,-4.229616377230636,-1.7747214316763682,-2.5468310788026574,0.0018959824413688983,-0.01857832967153838,0.1942791657563608
8906,0.0,300.20836,27947.458,-0.08906000697571914,0.0,0.0,0.0,0.0,-0.01359181628483308,-4.220378880043967,-1.757937146419888,-2.5170132561848675,0.013661465673531686,0.0004688849592228425,0.2066598052832348
8907,0.0,300.29405,28055.145,-0.08906998361518648,0.0,0.0,0.0,0.0,-0.01359333886107561,-4.218525544286056,-1.7741052742905583,-2.535432521802708,0.03757637286574926,0.006404769688801554,0.2012273763295958
8908,0.0,299.6118,28250.992000000002,-0.08907999328988403,0.0,0.0,0.0,0.0,-0.013594866478961354,-4.258654402571467,-1.765759437191888,-2.5631824022914076,0.02265565010043858,-0.008379109293528702,0.2278149170985818
8909,0.0,299.9164,28164.322,-0.08909000296458147,0.0,0.0,0.0,0.0,-0.013596394096847042,-4.251468128887236,-1.768486093210988,-2.5412964027814273,0.004358474128222906,-0.025839499763410077,0.22952103774946278
8910,0.0,300.31172999999995,27912.225,-0.08910001263927891,0.0,0.0,0.0,0.0,-0.013597921714732786,-4.2266458319124665,-1.7318084660911883,-2.5261651337380875,-0.002113650246401038,-0.00984561493956154,0.23767229029892875
8911,0.0,300.32341,28049.914,-0.08910998927874636,0.0,0.0,0.0,0.0,-0.013599444290975315,-4.218560400089496,-1.7671170910008782,-2.5407959585570374,0.007103785702864062,0.025416474939410773,0.2053575559897128
8912,0.0,300.64409,28415.533,-0.08911999895344391,0.0,0.0,0.0,0.0,-0.01360097190886106,-4.279438492597696,-1.7964026533411381,-2.5617712488771374,-0.02083097310835698,0.03599560138473926,0.21407959258551082
8913,0.0,300.96946,28336.256,-0.08913000862814124,0.0,0.0,0.0,0.0,-0.013602499526746775,-4.277563675937666,-1.787017424289888,-2.5489332687851274,-0.020092187129194482,0.005020834502692785,0.2055676230004448
8914,0.0,300.4208,28115.818,-0.08913998526760891,0.0,0.0,0.0,0.0,-0.013604022102989333,-4.254900412275976,-1.7791827718666684,-2.5124233345568774,-0.016123403011255984,0.01368218562482659,0.19496454838900282
8915,0.0,300.02824,28042.054,-0.08914999494230624,0.0,0.0,0.0,0.0,-0.013605549720875021,-4.231934288159396,-1.7610828826803484,-2.5310669337468577,0.006343152430345404,0.0061816931547356135,0.1982882518970268
8916,0.0,300.44326,28124.21,-0.08916000461700357,0.0,0.0,0.0,0.0,-0.013607077338760737,-4.232178076133455,-1.7826255930564483,-2.5342539092863876,-0.003677188876335286,-0.012344549584812188,0.21765727736360077
8917,0.0,300.36891,28140.568,-0.08917001429170113,0.0,0.0,0.0,0.0,-0.01360860495664648,-4.215454991183016,-1.7792230992206481,-2.5593517089633475,-0.008550613525329851,-0.02899722378580317,0.19082140926010682
8918,0.0,300.60534,28146.626,-0.08917999093116857,0.0,0.0,0.0,0.0,-0.01361012753288901,-4.2295123164453665,-1.7602518149483282,-2.5661074526800873,-0.0034885529158183663,-0.006756883116477443,0.23275264695589779
8919,0.0,299.80077,27942.88,-0.08919000060586613,0.0,0.0,0.0,0.0,-0.013611655150774754,-4.205028647654016,-1.7786222419113482,-2.5102867953960177,0.009000753124655172,0.01775142437092918,0.16146851645070187
8920,0.0,299.99838,28058.671000000002,-0.08920001028056346,0.0,0.0,0.0,0.0,-0.01361318276866047,-4.2357804842139855,-1.7541807243241585,-2.5391740491219674,0.013000351394034788,0.006471254499413093,0.2307414772299108
8921,0.0,300.25701000000004,28308.558999999997,-0.08920998692003101,0.0,0.0,0.0,0.0,-0.013614705344903028,-4.266275664523626,-1.7920269327842884,-2.5467923726488375,0.0026106542840515176,-0.016825118222259884,0.18895213507812383
8922,0.0,299.78044,28257.077999999998,-0.08921999659472846,0.0,0.0,0.0,0.0,-0.013616232962788716,-4.250028199170126,-1.7773726005630184,-2.5620452317041775,0.013480611676432788,-0.004585773483405605,0.2378951141284198
8923,0.0,299.85854,27984.453999999998,-0.0892300062694259,0.0,0.0,0.0,0.0,-0.01361776058067446,-4.224423267818117,-1.7479131645055985,-2.534238913184908,0.02905118543312877,-0.0007898706345516623,0.1861082865524578
8924,0.0,299.48251,28122.892000000003,-0.08924001594412334,0.0,0.0,0.0,0.0,-0.013619288198560175,-4.244345689959307,-1.7652247451141183,-2.5390865043133273,-0.008478191879732392,0.004248788994297825,0.2379622014175408
8925,0.0,300.09262,28215.33,-0.0892499925835909,0.0,0.0,0.0,0.0,-0.013620810774802733,-4.269790223820487,-1.7610019239973584,-2.5459634327420275,-0.02149554865019548,-0.017058293414772482,0.2098508743531688
8926,0.0,300.62571,28242.175,-0.08926000225828823,0.0,0.0,0.0,0.0,-0.013622338392688449,-4.264753053598356,-1.7624675902670084,-2.5576954503498874,-0.02032353137877638,0.004701697096871376,0.2328381348668348
8927,0.0,300.41302,28202.091,-0.08927001193298567,0.0,0.0,0.0,0.0,-0.013623866010574165,-4.2477898283742155,-1.7807975885510383,-2.5441441421874775,-0.006276016201244574,0.027473303741403974,0.2083519937452408
8928,0.0,299.86073,28162.24,-0.08927998857245323,0.0,0.0,0.0,0.0,-0.013625388586816722,-4.238143383447186,-1.7534477392018184,-2.5690267275431977,-0.0068384442779769045,0.003735431302683366,0.23189734228148579
8929,0.0,300.17573,28179.756,-0.08928999824715056,0.0,0.0,0.0,0.0,-0.01362691620470241,-4.241217989550625,-1.7844909864905483,-2.540233300776508,-0.0014149481372195086,-0.015309590928438985,0.20848528679589579
8930,0.0,299.85789,28350.822999999997,-0.08930000792184811,0.0,0.0,0.0,0.0,-0.013628443822588154,-4.266466864817496,-1.7893272292178484,-2.5621482792393477,0.02071037000195438,-0.012683131158727589,0.2086456437567218
8931,0.0,300.10294,28292.33,-0.08930998456131556,0.0,0.0,0.0,0.0,-0.013629966398830684,-4.247276211898526,-1.8020604392495183,-2.5508252093718475,0.018569891324705583,0.00012556954163524888,0.2034886364452648
8932,0.0,299.83848,27985.552000000003,-0.08931999423601311,0.0,0.0,0.0,0.0,-0.013631494016716428,-4.219220532529645,-1.7794173392648183,-2.5082710356470774,0.0006758011978413854,-0.009321377069698291,0.18907335018758684
8933,0.0,299.85392,28005.968999999997,-0.08933000391071044,0.0,0.0,0.0,0.0,-0.013633021634602144,-4.2246746551679255,-1.7585930232096183,-2.5298476899015276,-0.010178060777496391,-0.016472365332445883,0.2092355782299438
8934,0.0,299.73076000000003,28225.623,-0.089340013585408,0.0,0.0,0.0,0.0,-0.013634549252487888,-4.241918145369726,-1.7860095444154185,-2.5519570097335476,-0.003857950262375046,-0.01001750349712562,0.2111425250506448
8935,0.0,299.85958999999997,28152.557999999997,-0.08934999022487544,0.0,0.0,0.0,0.0,-0.013636071828730417,-4.241357210114367,-1.7785570899299181,-2.5377603625824476,-0.013906743125238685,0.008880879659649581,0.1998689119205258
8936,0.0,300.25374,28048.247000000003,-0.089359999899573,0.0,0.0,0.0,0.0,-0.013637599446616133,-4.249258939694206,-1.7469135932819484,-2.5297940889712374,-0.008524765211303822,-0.0036343318421556267,0.2150862970898648
8937,0.0,300.23102,28249.273999999998,-0.08937000957427033,0.0,0.0,0.0,0.0,-0.01363912706450185,-4.254265509763316,-1.7870421475923284,-2.5457660516225475,-0.015802573579092587,0.005270815258713964,0.2110579490647978
8938,0.0,300.15587,28349.856,-0.08937998621373788,0.0,0.0,0.0,0.0,-0.013640649640744407,-4.291981008960546,-1.7630580111002785,-2.5626094093598577,0.0033528048614960768,0.022187850767770377,0.2215494344427268
8939,0.0,300.32225,28397.872000000003,-0.08938999588843521,0.0,0.0,0.0,0.0,-0.013642177258630123,-4.259157278596096,-1.7980997459336283,-2.574986867281418,0.003393485231810917,0.033954487078546966,0.21922412678823677
8940,0.0,300.31072,28362.886000000002,-0.08940000556313266,0.0,0.0,0.0,0.0,-0.013643704876515839,-4.279634759142066,-1.776083442460788,-2.5658910224587275,-0.006854006887587813,-0.003951647424297236,0.23101231898164076
8941,0.0,300.01592,28213.662,-0.08941001523783021,0.0,0.0,0.0,0.0,-0.013645232494401582,-4.259059499961445,-1.7643579096535684,-2.552831241919827,-0.005094311549594405,-0.01996475471711788,0.23624459051052576
8942,0.0,299.42887,28075.629,-0.08941999187729754,0.0,0.0,0.0,0.0,-0.013646755070644112,-4.241485791552056,-1.7664631393863381,-2.5263412366054676,0.014792055201362186,-0.014957533128193586,0.20946256651734577
8943,0.0,299.54225,28280.64,-0.0894300015519951,0.0,0.0,0.0,0.0,-0.013648282688529828,-4.246108441158276,-1.7937743839067481,-2.556725567354168,0.017794211896151983,0.012738940974235589,0.21052657031485478
8944,0.0,300.14353,28336.251,-0.08944001122669243,0.0,0.0,0.0,0.0,-0.013649810306415544,-4.2884011963572455,-1.7763291556100385,-2.548782395845237,-0.0033845938608584067,0.009241433663308492,0.2052975107887868
8945,0.0,299.98182,28197.322999999997,-0.0894499878661601,0.0,0.0,0.0,0.0,-0.013651332882658102,-4.242957638647316,-1.7771471524157685,-2.551177415106608,-0.017486451363778382,-0.0023745914300789274,0.2072210242486228
8946,0.0,299.56345,28273.138,-0.08945999754085743,0.0,0.0,0.0,0.0,-0.013652860500543818,-4.256645127623166,-1.7896080008205584,-2.5480749446254176,0.012661749555117388,-0.004619633869947366,0.2073367880725478
8947,0.0,299.92024,28410.761000000002,-0.08947000721555498,0.0,0.0,0.0,0.0,-0.013654388118429561,-4.272572709920096,-1.7928565819661682,-2.5707327367365678,0.001195781127339409,0.012475399689476089,0.2205535514494408
8948,0.0,300.49349,28357.203999999998,-0.0894799838550222,0.0,0.0,0.0,0.0,-0.013655910694672063,-4.265834900730126,-1.8044443127597882,-2.5496028244512075,0.007290071125799003,-0.018222011154622485,0.1932570699829878
8949,0.0,300.65202999999997,28276.066000000003,-0.08948999352971998,0.0,0.0,0.0,0.0,-0.013657438312557835,-4.259895735268976,-1.7796695372147084,-2.555652738148287,-0.02104031868501778,-0.012596685726446089,0.2152070967667868
8950,0.0,300.24802,28320.804,-0.08950000320441731,0.0,0.0,0.0,0.0,-0.013658965930443523,-4.260446335373316,-1.8060933772975383,-2.5422774315282477,0.0015352827323456084,0.0037986177815693867,0.20038192044615583
8951,0.0,299.9663,28208.957000000002,-0.08951001287911464,0.0,0.0,0.0,0.0,-0.013660493548329239,-4.239765698182296,-1.7888725838979782,-2.5461801669384174,-0.002164990919692968,0.028707306587690575,0.2134981998106318
8952,0.0,300.56153,28288.103,-0.0895199895185822,0.0,0.0,0.0,0.0,-0.013662016124571796,-4.257832758065376,-1.7874091467785482,-2.553635053224158,-0.0026112500751103176,0.008809799962484561,0.2214154422495028
8953,0.0,300.09202999999997,28400.582000000002,-0.08952999919327964,0.0,0.0,0.0,0.0,-0.013663543742457512,-4.291484009786496,-1.7800168793489881,-2.5615667750069577,-0.009824909275093052,-0.01071457467894619,0.22542050578727177
8954,0.0,299.62127999999996,28435.124,-0.0895400088679772,0.0,0.0,0.0,0.0,-0.013665071360343256,-4.281121298363775,-1.7815117272215182,-2.5809346453684174,0.009821031566960351,-0.012687566154415289,0.2221268147472098
8955,0.0,299.85093,28384.592,-0.08954998550744453,0.0,0.0,0.0,0.0,-0.013666593936585786,-4.275421462576246,-1.7907365587819382,-2.5620493860295874,0.017919318899249085,0.008312734724528042,0.20799055730206983
8956,0.0,300.37496,28503.631,-0.08955999518214208,0.0,0.0,0.0,0.0,-0.01366812155447153,-4.291691219431946,-1.7906282423462483,-2.582072626555727,-0.0015352699653943486,-0.013595918524562685,0.22610711445253476
8957,0.0,299.93912,28504.7,-0.08957000485683941,0.0,0.0,0.0,0.0,-0.013669649172357218,-4.303267095199396,-1.7761550792428582,-2.5852947618737274,-0.025602073986727977,-0.00856315462314256,0.21242466132968177
8958,0.0,299.55424,28335.873,-0.08958001453153697,0.0,0.0,0.0,0.0,-0.013671176790242962,-4.282457775245676,-1.7887832152391585,-2.542156753441337,-0.009747819383634872,-0.0001086254871030009,0.21841616115849682
8959,0.0,299.75261,28298.053,-0.08958999117100441,0.0,0.0,0.0,0.0,-0.013672699366485491,-4.269880403079386,-1.7884538076316483,-2.5435671975805376,0.007933293941655152,0.027097225834287978,0.20747932196411478
8960,0.0,299.90776,28299.667999999998,-0.08960000084570197,0.0,0.0,0.0,0.0,-0.013674226984371235,-4.257314784614256,-1.7949112505189484,-2.550166596806848,-0.003560726416466337,0.005401118917598934,0.2113992927584858
8961,0.0,299.69933,28228.617000000002,-0.0896100105203993,0.0,0.0,0.0,0.0,-0.013675754602256951,-4.259634722043216,-1.7751001845637484,-2.5460597928265374,-0.02214914765370068,-0.012592724931805188,0.2071498738266008
8962,0.0,299.09279,28269.904,-0.08961998715986674,0.0,0.0,0.0,0.0,-0.01367727717849948,-4.243854871610866,-1.7898957638489583,-2.5595941797122777,-0.005305260087913405,0.009599895812135951,0.19441950089521082
8963,0.0,298.61075,28353.826,-0.0896299968345643,0.0,0.0,0.0,0.0,-0.013678804796385224,-4.251262743091966,-1.7965891926845485,-2.5710031731882577,0.0034502494275881067,0.02475019105790368,0.21126455076018777
8964,0.0,298.97627,28322.316000000003,-0.08964000650926163,0.0,0.0,0.0,0.0,-0.013680332414270913,-4.262050614256646,-1.7898261535670883,-2.5574000879457377,0.01033476801146219,0.0019258782842443885,0.20103502093061182
8965,0.0,299.82467,28378.415,-0.08965001618395918,0.0,0.0,0.0,0.0,-0.013681860032156656,-4.2794487264237056,-1.7794177445648585,-2.5674629786638676,-0.019629427702523683,-0.01087203374448619,0.23284877399288478
8966,0.0,299.86033,28454.357999999997,-0.08965999282342663,0.0,0.0,0.0,0.0,-0.013683382608399186,-4.288686324935386,-1.7858853199531586,-2.5748427831171976,0.019317661792504784,-0.005556569620115724,0.2026398368364948
8967,0.0,300.05175,28371.436,-0.08967000249812418,0.0,0.0,0.0,0.0,-0.01368491022628493,-4.2761497867481255,-1.7793810649112383,-2.5686774602337277,0.01732554116839778,0.006951415584626304,0.24333447371274278
8968,0.0,300.47438999999997,28353.237999999998,-0.08968001217282151,0.0,0.0,0.0,0.0,-0.013686437844170646,-4.278853239339936,-1.7915218276094382,-2.5483013046977576,0.01282507432548629,-0.013747742906296588,0.2045877088287348
8969,0.0,300.24219,28451.898999999998,-0.08968998881228896,0.0,0.0,0.0,0.0,-0.013687960420413176,-4.295715646179126,-1.771364534095068,-2.581586671807768,0.00028562706679169673,-0.01144406003544079,0.23254524479292876
8970,0.0,300.20743999999996,28410.906000000003,-0.0896999984869864,0.0,0.0,0.0,0.0,-0.01368948803829892,-4.310637983051846,-1.7801334031104883,-2.5454346175148377,0.008416653756109053,0.012407437965518789,0.1921313389893868
8971,0.0,299.90344,28306.39,-0.08971000816168395,0.0,0.0,0.0,0.0,-0.013691015656184635,-4.269626583929336,-1.7798146346290284,-2.5549945308833273,-0.0004433450886597536,0.029330140278409474,0.2137865403915888
8972,0.0,299.67323,28373.252999999997,-0.08971998480115118,0.0,0.0,0.0,0.0,-0.013692538232427165,-4.288690884560836,-1.7854417190593785,-2.5506279295773773,-0.01190754900218359,-0.01048509987579879,0.2052141405705588
8973,0.0,299.61012,28512.102000000003,-0.08972999447584873,0.0,0.0,0.0,0.0,-0.013694065850312881,-4.278104650166056,-1.7875314460656182,-2.6013310659063875,-0.015365185934925786,-0.006846342765156424,0.2298696160488648
8974,0.0,299.52722,28442.572999999997,-0.08974000415054628,0.0,0.0,0.0,0.0,-0.013695593468198625,-4.276563395438946,-1.8037166978629782,-2.565551887650258,-0.00028229901644074375,-0.005286728351534465,0.2032766341268418
8975,0.0,299.75506,28439.155,-0.08975001382524361,0.0,0.0,0.0,0.0,-0.01369712108608434,-4.256267084010855,-1.8014786310420983,-2.5870473805716974,0.01191431447310129,0.005179723568098915,0.2321323251121768
8976,0.0,300.44822,28430.339,-0.08975999046471106,0.0,0.0,0.0,0.0,-0.01369864366232687,-4.2864419759638865,-1.8033694570537082,-2.552301616092558,0.0013586699975152888,-0.02012620396155168,0.2053675466356988
8977,0.0,300.13771,28454.311,-0.08977000013940861,0.0,0.0,0.0,0.0,-0.013700171280212614,-4.289275327218516,-1.795373596539578,-2.5647511160962275,0.015590686771180985,-0.005055727897711495,0.21833479717546678
8978,0.0,300.35281000000003,28455.816000000003,-0.08978000981410617,0.0,0.0,0.0,0.0,-0.01370169889809833,-4.307841412775846,-1.8026101274287682,-2.539405982069858,0.02919426647974977,0.02111455344034418,0.18086091759708284
8979,0.0,300.33007000000003,28427.515,-0.08978998645357339,0.0,0.0,0.0,0.0,-0.01370322147434086,-4.282111142386467,-1.7933131524612282,-2.5658302274527274,0.01151900001283679,0.013738644933648686,0.2086024995674638
8980,0.0,300.03424,28324.565,-0.08979999612827094,0.0,0.0,0.0,0.0,-0.013704749092226576,-4.268475937115776,-1.790601796518638,-2.5508827619775274,-0.004651673750034456,-0.03070516930011427,0.1926069889838298
8981,0.0,299.84764,28438.861,-0.0898100058029685,0.0,0.0,0.0,0.0,-0.01370627671011232,-4.285153527136726,-1.7862541429895584,-2.5732958541895274,-0.005593694597154675,-0.02956538351437617,0.2194352374465718
8982,0.0,300.03095,28640.679,-0.08982001547766605,0.0,0.0,0.0,0.0,-0.013707804327998063,-4.308346619275706,-1.8092671805857683,-2.5884375597088973,0.017594085882151084,0.0064758621529178335,0.20704011857576882
8983,0.0,299.54772,28478.337000000003,-0.08982999211713327,0.0,0.0,0.0,0.0,-0.013709326904240565,-4.301202699445656,-1.781934961788288,-2.573565784016168,0.0012635449635521787,0.01832937310871828,0.2257316242304768
8984,0.0,299.34764,28312.68,-0.08984000179183083,0.0,0.0,0.0,0.0,-0.013710854522126309,-4.270622102152586,-1.7800319767754782,-2.5556934708023076,-0.03072670086473927,0.004766965196762836,0.2272056903434558
8985,0.0,299.30212,28544.955,-0.08985001146652838,0.0,0.0,0.0,0.0,-0.013712382140012025,-4.298692270997896,-1.7864465591835483,-2.5918147222921974,-0.013194442490440087,0.006986383048227323,0.23527954071778276
8986,0.0,299.78083,28660.18,-0.08985998810599571,0.0,0.0,0.0,0.0,-0.013713904716254582,-4.2986911564227865,-1.8062556999635582,-2.6070322189190476,0.0016180585780649487,0.036054382049540465,0.23599509793840276
8987,0.0,299.77297999999996,28415.247000000003,-0.08986999778069316,0.0,0.0,0.0,0.0,-0.01371543233414027,-4.270054378121555,-1.7905564029141583,-2.576914879571697,0.020348821088022283,0.007551675886967383,0.21464800562660877
8988,0.0,299.68249,28421.737999999998,-0.0898800074553906,0.0,0.0,0.0,0.0,-0.013716959952026014,-4.268095968328276,-1.7944133394198083,-2.5769893534540476,-0.00884489671679834,-0.034350182520849065,0.2232734490903738
8989,0.0,299.7273,28562.301,-0.08988998409485804,0.0,0.0,0.0,0.0,-0.013718482528268544,-4.304188848815366,-1.8136017631885581,-2.5644355900150875,0.001184826880508309,-0.017161168697425483,0.1969512379925738
8990,0.0,300.40808,28586.418999999998,-0.08989999376955538,0.0,0.0,0.0,0.0,-0.01372001014615426,-4.307066681749387,-1.8084943747344984,-2.573996313983658,0.014689060355197386,0.014823996897514588,0.1981646556498288
8991,0.0,300.3467,28563.136000000002,-0.08991000344425293,0.0,0.0,0.0,0.0,-0.013721537764040004,-4.301730298772726,-1.8140579283835783,-2.5666919966627773,0.013419470138898588,0.016102686099711383,0.18200131031963082
8992,0.0,300.41643,28455.697,-0.08992001311895048,0.0,0.0,0.0,0.0,-0.01372306538192572,-4.273030192340246,-1.7917249842544885,-2.5850662739761776,-0.00891430830032373,-0.015741203047035784,0.22223970094085077
8993,0.0,299.80061,28362.887000000002,-0.08992998975841793,0.0,0.0,0.0,0.0,-0.01372458795816825,-4.2587933191601755,-1.7858113526958583,-2.5770045522055476,-0.0013056185527545187,-0.02081714933724268,0.2011503591894948
8994,0.0,299.59108,28508.505,-0.08993999943311526,0.0,0.0,0.0,0.0,-0.013726115576053965,-4.287285101372095,-1.7987603849988285,-2.5798280749342077,0.017946050463387285,0.02397942082608458,0.23104808671017077
8995,0.0,300.01204,28607.832000000002,-0.08995000910781281,0.0,0.0,0.0,0.0,-0.01372764319393971,-4.317186111823096,-1.8039024266063084,-2.5749780520055476,0.007603967900778203,0.015602009841048484,0.2165537973421958
8996,0.0,299.49739,28548.666,-0.08995998574728026,0.0,0.0,0.0,0.0,-0.013729165770182239,-4.315449806451737,-1.8047575083656981,-2.5578741876675273,-0.02114152919775648,-0.007102278695990332,0.23214113025554578
8997,0.0,299.18112,28503.33,-0.08996999542197781,0.0,0.0,0.0,0.0,-0.013730693388067983,-4.303931381964956,-1.7999011019614082,-2.5604681079235276,-0.017567072634485086,-0.003870110580800176,0.20834315820436883
8998,0.0,299.31504,28715.275,-0.08998000509667514,0.0,0.0,0.0,0.0,-0.013732221005953699,-4.332182415953117,-1.8056629486550584,-2.590881113650058,0.008220205535996122,0.024951169215238676,0.2238776602575048
8999,0.0,300.13885,28639.871,-0.0899900147713727,0.0,0.0,0.0,0.0,-0.013733748623839415,-4.313113555696166,-1.788494033660618,-2.604198057064337,0.021124973704372583,0.005309910297922344,0.2169013421264958
9000,0.0,299.6958,28452.89,-0.08999999141084014,0.0,0.0,0.0,0.0,-0.013735271200081944,-4.296218319553736,-1.7850118983669583,-2.5677377720909873,-0.002101291026981278,-0.026458892456789375,0.2171351495870708
9001,0.0,300.06332000000003,28468.082000000002,-0.09001000108553747,0.0,0.0,0.0,0.0,-0.01373679881796766,-4.306563805724755,-1.7790515559787183,-2.567970819613987,0.0024951447859016176,-0.021768521266885776,0.21172522491815282
9002,0.0,300.17186,28622.086,-0.09002001076023514,0.0,0.0,0.0,0.0,-0.013738326435853432,-4.347731751987716,-1.7956048202123984,-2.5570628783124576,0.002474401225879388,0.00972270435870621,0.2083872649812218
9003,0.0,300.1904,28558.549,-0.09002998739970236,0.0,0.0,0.0,0.0,-0.013739849012095934,-4.3047343826692055,-1.7996228634839484,-2.5767285428783078,0.013118513580946487,0.015861774742685287,0.2092411207079908
9004,0.0,299.79281000000003,28453.591,-0.09003999707439991,0.0,0.0,0.0,0.0,-0.013741376629981678,-4.287477213591056,-1.7916514222972284,-2.5700526432694475,-0.02136106705717318,-0.012232695893023088,0.2171995213659238
9005,0.0,300.16175,28577.236,-0.09005000674909736,0.0,0.0,0.0,0.0,-0.013742904247867394,-4.274757682435736,-1.8140623866840182,-2.597946101297318,0.0005067535909076855,-0.012966636510207387,0.21802038566943677
9006,0.0,300.08919,28678.807999999997,-0.09006001642379502,0.0,0.0,0.0,0.0,-0.013744431865753137,-4.3137738907863366,-1.8188860651100784,-2.584981566267818,0.005303714678860885,0.017257410231673785,0.2234695332497258
9007,0.0,300.53532,28717.216,-0.09006999306326224,0.0,0.0,0.0,0.0,-0.01374595444199564,-4.321133328912656,-1.8293872878214683,-2.5787960797073577,0.018294686518044983,0.016702219091130684,0.2168958199134508
9008,0.0,300.99627999999996,28701.881,-0.0900800027379598,0.0,0.0,0.0,0.0,-0.013747482059881383,-4.327056282372205,-1.8143110382585583,-2.5832877160756476,-0.007277344299242964,-0.007729181396460812,0.23060574224651478
9009,0.0,300.17839,28538.992000000002,-0.09009001241265735,0.0,0.0,0.0,0.0,-0.013749009677767127,-4.2948568153943665,-1.8144983882020485,-2.5657856444483276,0.002124717065318248,-0.004437562959478366,0.2045024033028158
9010,0.0,300.2789,28506.103,-0.0900999890521248,0.0,0.0,0.0,0.0,-0.013750532254009656,-4.292064298118766,-1.7973881403883982,-2.5756911774259272,0.006578301535377813,0.024935006862893575,0.2078498269956808
9011,0.0,300.17233999999996,28665.374,-0.09010999872682213,0.0,0.0,0.0,0.0,-0.013752059871895372,-4.307837258450436,-1.8060474770680082,-2.599673084767758,0.002132157056827518,0.003062298255800307,0.2201675943538498
9012,0.0,299.4148,28576.94,-0.09012000840151946,0.0,0.0,0.0,0.0,-0.013753587489781088,-4.322289447276756,-1.7754136841446881,-2.5889729610617374,-0.012728948301749388,-0.012923760832225887,0.22397773896988177
9013,0.0,299.53995,28541.944,-0.09012998504098713,0.0,0.0,0.0,0.0,-0.013755110066023646,-4.313164116876155,-1.8027850143960282,-2.5600890510611176,0.0037341236021043063,-0.016876206292301882,0.2204009053218758
9014,0.0,300.02173999999997,28680.816000000003,-0.09013999471568446,0.0,0.0,0.0,0.0,-0.013756637683909334,-4.337811729533686,-1.7963515855360983,-2.5840884876296775,0.018791706970347082,0.01219113744017159,0.2220942184914928
9015,0.0,299.64566,28727.037999999997,-0.09015000439038201,0.0,0.0,0.0,0.0,-0.013758165301795078,-4.332776889786786,-1.8059157545550082,-2.5936094921943273,0.01011709321500436,-0.007681295804684872,0.2243761995717068
9016,0.0,299.93145,28704.945,-0.09016001406507956,0.0,0.0,0.0,0.0,-0.013759692919680822,-4.318012011979605,-1.8014194572362583,-2.6061552509574977,-0.029213872869184768,-0.006430379585079055,0.22770847517557677
9017,0.0,300.09098,28769.446,-0.0901699907045469,0.0,0.0,0.0,0.0,-0.013761215495923351,-4.303982855070036,-1.8305911302652784,-2.6106193269230675,-0.006350948477939814,0.005006217964700245,0.22738944324909077
9018,0.0,300.1007,28719.81,-0.09018000037924434,0.0,0.0,0.0,0.0,-0.013762743113809067,-4.303073260455266,-1.8237649656665882,-2.6032668802224372,0.007465083432096373,0.04147932105844026,0.22378802815365875
9019,0.0,300.00057999999996,28563.057,-0.0901900100539419,0.0,0.0,0.0,0.0,-0.013764270731694811,-4.292923635528576,-1.8113390743902484,-2.5781934998728877,0.0021249938852455678,0.003970698654002446,0.2105974268943478
9020,0.0,299.91656,28543.874,-0.09019998669340923,0.0,0.0,0.0,0.0,-0.01376579330793734,-4.307843337951036,-1.8009014837851383,-2.5678801337300374,-0.02184020567171048,-0.02479463220728968,0.2077449049478258
9021,0.0,300.19577000000004,28709.859,-0.09020999636810678,0.0,0.0,0.0,0.0,-0.013767320925823057,-4.3176247477913865,-1.8211403439325584,-2.5883151590968176,0.008181279304254403,-0.006973375146093543,0.1952256224097688
9022,0.0,300.46359,28644.331000000002,-0.09022000604280411,0.0,0.0,0.0,0.0,-0.013768848543708773,-4.305860812805376,-1.8099363309518084,-2.5913642312977374,0.01991841676354468,0.030585012023755673,0.2041326480763238
9023,0.0,300.17637,28511.291,-0.09023001571750167,0.0,0.0,0.0,0.0,-0.013770376161594516,-4.288552474597176,-1.7963435808603085,-2.5818244816062377,0.0032865855224107365,0.004768256178715245,0.20425066131547082
9024,0.0,299.89066,28700.658,-0.09023999235696911,0.0,0.0,0.0,0.0,-0.013771898737837046,-4.328799781819276,-1.7937298009023483,-2.6017539964981276,-0.02144413127387098,-0.01048654375719129,0.23713304872820976
9025,0.0,300.15241000000003,28910.519,-0.09025000203166644,0.0,0.0,0.0,0.0,-0.013773426355722762,-4.348128236751846,-1.8229774676888681,-2.6169702772248575,-0.0032442635856088867,-1.4658386234920087e-05,0.2167219867262948
9026,0.0,299.57432,28892.717999999997,-0.090260011706364,0.0,0.0,0.0,0.0,-0.013774953973608506,-4.350552032316056,-1.8277799691878382,-2.6043328193276376,0.02179220700122338,0.011624952536043488,0.2363333714842878
9027,0.0,299.74237,28746.299,-0.09026998834583144,0.0,0.0,0.0,0.0,-0.013776476549851036,-4.325659719759376,-1.8010716084769283,-2.6114258740026677,-0.003715210681037746,-0.004125725514002406,0.2238530078825718
9028,0.0,299.8929,28577.932999999997,-0.090279998020529,0.0,0.0,0.0,0.0,-0.013778004167736752,-4.303075388280475,-1.7987329259211184,-2.5851698281363973,-0.02307520758259568,-0.021500653404199276,0.23330256818267078
9029,0.0,300.31494,28468.752999999997,-0.09029000769522633,0.0,0.0,0.0,0.0,-0.013779531785622467,-4.2880637840739455,-1.7794827952212784,-2.586243467942358,-0.004359190293393586,0.006322171567149754,0.21408588486863178
9030,0.0,300.08287,28683.86,-0.09029998433469388,0.0,0.0,0.0,0.0,-0.013781054361865025,-4.317348130514087,-1.8062319899112182,-2.5955972862405075,0.010665343896337491,0.03493042019061407,0.22791411428337177
9031,0.0,300.09116,28658.627,-0.09030999400939133,0.0,0.0,0.0,0.0,-0.013782581979750741,-4.320782136427996,-1.8007103848162784,-2.5900143795145176,-0.00017521490565486483,-0.004248050942924986,0.21811047373582781
9032,0.0,299.93879,28521.161,-0.09032000368408888,0.0,0.0,0.0,0.0,-0.013784109597636485,-4.315757327857086,-1.7867391858124286,-2.5672241556152975,-0.015855993137614686,-0.022995907590019377,0.2220480244194338
9033,0.0,299.75057000000004,28793.326,-0.09033001335878621,0.0,0.0,0.0,0.0,-0.0137856372155222,-4.320890554188696,-1.8356411687636784,-2.5959204116973975,0.013628960610323688,-0.014170894386558386,0.2045114820237118
9034,0.0,299.82842,29045.45,-0.09033998999825377,0.0,0.0,0.0,0.0,-0.013787159791764758,-4.364794579696686,-1.839320887826838,-2.6249760675899676,0.01062489191259519,0.00891725888461493,0.22569772088213078
9035,0.0,299.28798,28873.29,-0.0903499996729511,0.0,0.0,0.0,0.0,-0.013788687409650446,-4.341544036277036,-1.8285186285107382,-2.6066966304859274,-0.00914207223067728,-0.008992045253295772,0.22591018929559978
9036,0.0,299.97812000000005,28683.154,-0.09036000934764854,0.0,0.0,0.0,0.0,-0.013790215027536162,-4.3253571632795165,-1.8088730262968682,-2.5847323067432177,-0.02900348871117147,-0.0038317060715349466,0.2373930487038698
9037,0.0,299.98496,28757.647999999997,-0.0903699859871161,0.0,0.0,0.0,0.0,-0.01379173760377872,-4.323454988866787,-1.8185123784731982,-2.5996395461894477,-0.0066221971509099736,0.02354266544998018,0.22318188167883676
9038,0.0,299.93301,28777.696,-0.09037999566181343,0.0,0.0,0.0,0.0,-0.013793265221664436,-4.334111441493496,-1.8018303301518084,-2.611759334610577,-0.003113653013268627,0.019875470158056182,0.2223672792609418
9039,0.0,299.55207,28685.227000000003,-0.09039000533651098,0.0,0.0,0.0,0.0,-0.01379479283955018,-4.308810890471526,-1.8162335789982984,-2.5945483697369878,0.016580634145381183,-0.02264720770060538,0.21160925844420778
9040,0.0,300.14926,28643.058999999997,-0.09040001501120831,0.0,0.0,0.0,0.0,-0.013796320457435896,-4.308048622421295,-1.7901182735709185,-2.6086078228245477,0.002232703890750718,-0.025292851334460076,0.22164311954697277
9041,0.0,300.90236,28695.623,-0.09040999165067598,0.0,0.0,0.0,0.0,-0.013797843033678453,-4.3197524716763755,-1.8165685594813585,-2.5864319324609575,0.02093576444694908,0.0013161039687643488,0.22253709997770177
9042,0.0,300.59686,28814.487999999998,-0.09042000132537331,0.0,0.0,0.0,0.0,-0.013799370651564141,-4.338460513572716,-1.8148871722654183,-2.605537269721508,0.008535661601554211,0.004148177008393196,0.2277115554558808
9043,0.0,300.14967,28976.528,-0.09043001100007086,0.0,0.0,0.0,0.0,-0.013800898269449885,-4.368020058740016,-1.8281914500534484,-2.6119294593023676,-0.01205030783527279,-0.018348678562873585,0.24032847477357375
9044,0.0,299.86963,28945.092,-0.09043998763953831,0.0,0.0,0.0,0.0,-0.013802420845692415,-4.352748657207846,-1.8261740691043484,-2.6196625840655674,-0.01922164114677828,-0.02098525664808358,0.23352958686757577
9045,0.0,300.30573,28729.761000000002,-0.09044999731423586,0.0,0.0,0.0,0.0,-0.013803948463578158,-4.317632752467176,-1.814261490328668,-2.601235921721998,0.005106255032498136,0.011465008981258289,0.22950226222510978
9046,0.0,300.28319,28785.398999999998,-0.0904600069889332,0.0,0.0,0.0,0.0,-0.013805476081463874,-4.336887138817437,-1.815086478560088,-2.5980688058844272,-0.002667604613872078,0.022122721077842578,0.21643380826535383
9047,0.0,300.32835,28899.877999999997,-0.09046998362840075,0.0,0.0,0.0,0.0,-0.013806998657706432,-4.339861939786025,-1.8189015678366083,-2.6260777744236976,-0.016768416746663885,-0.0024479698877458178,0.23722996610027478
9048,0.0,299.46034,28697.71,-0.0904799933030982,0.0,0.0,0.0,0.0,-0.013808526275592148,-4.331170179103216,-1.7951416635916881,-2.5970756181364076,-0.010021928360312321,0.012678521884022688,0.22173407900844977
9049,0.0,299.63678,28672.474,-0.09049000297779553,0.0,0.0,0.0,0.0,-0.013810053893477836,-4.314190640552466,-1.807115746648438,-2.594409858448318,0.01093246702020049,0.025244756405213477,0.2104717129544408
9050,0.0,299.60282,28793.165,-0.09050001265249308,0.0,0.0,0.0,0.0,-0.01381158151136358,-4.340618128335656,-1.8040371888696083,-2.607747877464677,0.00935086153303318,0.022509870768801277,0.2038967735855448
9051,0.0,300.23267000000004,28874.019,-0.09050998929196041,0.0,0.0,0.0,0.0,-0.01381310408760611,-4.336855120114276,-1.8237036640355382,-2.6164219062707375,-0.018857784049118382,-0.014631135886730685,0.20859435303665982
9052,0.0,299.86458999999996,28818.664,-0.09051999896665797,0.0,0.0,0.0,0.0,-0.013814631705491853,-4.336926351596305,-1.8203178888263882,-2.6029100135372176,-0.010321964583198591,-0.01943844728392538,0.2062887834941178
9053,0.0,300.11092,28850.911,-0.09053000864135541,0.0,0.0,0.0,0.0,-0.01381615932337757,-4.336800809908916,-1.8298804366451382,-2.6032752901982676,0.001185303918655389,0.009010188408261361,0.22357431344256679
9054,0.0,299.91921,28732.843999999997,-0.09053998528082297,0.0,0.0,0.0,0.0,-0.013817681899620127,-4.340278486902137,-1.8014968695438982,-2.5922919630892975,0.009150360413845262,0.007915616172460492,0.24057636641053876
9055,0.0,300.23842,28812.583,-0.0905499949555203,0.0,0.0,0.0,0.0,-0.013819209517505843,-4.337291628257356,-1.8117818646839483,-2.609232187536168,-0.0015358574478023285,-0.008733206766225403,0.24428058586111676
9056,0.0,299.14401000000004,28953.601000000002,-0.09056000463021785,0.0,0.0,0.0,0.0,-0.013820737135391559,-4.347157847131076,-1.8121671023719683,-2.6418465804299576,-0.013260670543476289,-0.005062110056116365,0.24227962969613778
9057,0.0,299.37557000000004,28927.362999999998,-0.09057001430491518,0.0,0.0,0.0,0.0,-0.013822264753277275,-4.341989157045966,-1.8163089648057382,-2.6348977112441574,0.014331789383187486,0.012752337153807688,0.22334603832753777
9058,0.0,299.17117,28816.269,-0.09057999094438285,0.0,0.0,0.0,0.0,-0.013823787329519832,-4.334501137481955,-1.8083029717906085,-2.6166221244904975,0.0060614333374668945,-0.0018055822939470982,0.21789313158937781
9059,0.0,300.56481,28890.664,-0.09059000061908018,0.0,0.0,0.0,0.0,-0.013825314947405548,-4.365491999740517,-1.807244733386168,-2.6093038243182374,-0.01111464026892959,-0.019576670809566984,0.2210615646520778
9060,0.0,300.4367,29018.708,-0.09060001029377751,0.0,0.0,0.0,0.0,-0.013826842565291264,-4.371359528419596,-1.8308071551865983,-2.6187959512550374,-0.013230873897785588,-0.016696278405794383,0.2251457326251538
9061,0.0,300.21137000000004,28806.304,-0.09060998693324518,0.0,0.0,0.0,0.0,-0.013828365141533822,-4.350991174909396,-1.8069539306074682,-2.5984521183972578,0.0025848183316767074,0.023516934976940778,0.21436635249631178
9062,0.0,299.87707,28690.069,-0.09061999660794251,0.0,0.0,0.0,0.0,-0.013829892759419538,-4.317551996434205,-1.8073828393747982,-2.5961297491680577,0.016672892593486383,0.008187065772925483,0.20828967886409078
9063,0.0,300.77036,28880.072,-0.09063000628264006,0.0,0.0,0.0,0.0,-0.013831420377305254,-4.348144550078455,-1.8196612014365783,-2.611015001087118,-0.004904116602473626,-0.01164242198101759,0.2234663617769128
9064,0.0,300.14034,29015.086,-0.0906400159573374,0.0,0.0,0.0,0.0,-0.01383294799519097,-4.347138088754126,-1.8550296081021682,-2.6176940417712875,0.01253139594300249,-0.01083559727089019,0.2214618795015858
9065,0.0,299.78406,28896.882999999998,-0.09064999259680495,0.0,0.0,0.0,0.0,-0.013834470571433527,-4.351997940208755,-1.827968940331488,-2.603963793641218,0.016894638324870984,-0.005503517770054915,0.23417008252078775
9066,0.0,299.25984,28845.374,-0.0906600022715024,0.0,0.0,0.0,0.0,-0.013835998189319243,-4.340783896052017,-1.8143571411381085,-2.6131323898210876,0.007631714842841614,-0.006924563241076183,0.23125541794563276
9067,0.0,300.04154,28839.32,-0.09067001194619984,0.0,0.0,0.0,0.0,-0.013837525807204987,-4.331327739493766,-1.8243497122992982,-2.6107558117115373,-0.012628650727350789,-0.02007118448112168,0.2281145655506548
9068,0.0,300.06973999999997,28824.185,-0.09067998858566728,0.0,0.0,0.0,0.0,-0.013839048383447516,-4.318872970589576,-1.8214237499855284,-2.6215359821754576,-0.003835822602716216,-0.0008771308415035741,0.2055403969702578
9069,0.0,299.90927999999997,28950.577,-0.09068999826036483,0.0,0.0,0.0,0.0,-0.01384057600133326,-4.342170022188816,-1.8417248236890882,-2.6163576662143972,-0.01046184781250399,0.020862014025170482,0.2091548728594788
9070,0.0,300.06703,28854.972999999998,-0.09070000793506217,0.0,0.0,0.0,0.0,-0.013842103619218948,-4.347363232926346,-1.8091416388983783,-2.6146862088494376,-0.0076773631783967535,0.001062010937212319,0.2112815632293668
9071,0.0,300.54365,28788.964,-0.09070998457452961,0.0,0.0,0.0,0.0,-0.013843626195461506,-4.360302234053326,-1.8088629951208783,-2.5819610677197176,-0.006992656079596424,-0.014053545839476987,0.2271805820059778
9072,0.0,300.67638999999997,28923.036,-0.09071999424922716,0.0,0.0,0.0,0.0,-0.013845153813347222,-4.357629888239586,-1.8167684737260883,-2.6174823738253976,0.004038080393602506,0.002106416147312088,0.21801956493685576
9073,0.0,300.31853,29077.064,-0.0907300039239245,0.0,0.0,0.0,0.0,-0.013846681431232938,-4.378639933038117,-1.8285753705163381,-2.6314860981574575,0.013705779153405087,0.01893539698027818,0.23056550608504375
9074,0.0,300.34969,29064.004,-0.09074001359862205,0.0,0.0,0.0,0.0,-0.013848209049118682,-4.353519841858955,-1.8390758839526582,-2.642135660683487,-0.008208650026555681,-0.004553328505928535,0.2102679280943288
9075,0.0,300.18878,29013.331000000002,-0.0907499902380895,0.0,0.0,0.0,0.0,-0.013849731625361211,-4.367215031535566,-1.816218785546838,-2.6358943440425175,-0.008754205867922851,-0.009798894484075591,0.2347671198772108
9076,0.0,300.05028,28995.888,-0.09075999991278705,0.0,0.0,0.0,0.0,-0.013851259243246955,-4.3625320935483956,-1.8347243800731983,-2.6167693497300273,0.02024435702921248,-0.006031826169544894,0.22793253517018977
9077,0.0,299.97071,28909.037999999997,-0.09077000958748438,0.0,0.0,0.0,0.0,-0.013852786861132643,-4.354835445788796,-1.8166047325099286,-2.6161856163474178,0.02443559716685568,0.014236894458322089,0.24661325984383378
9078,0.0,299.76511,28888.725,-0.09077998622695183,0.0,0.0,0.0,0.0,-0.013854309437375173,-4.3422343635701655,-1.8239308347079586,-2.6152860529086372,0.014653491223686985,-0.009280583316697262,0.21894619228580678
9079,0.0,299.64886,28951.226000000002,-0.09078999590164938,0.0,0.0,0.0,0.0,-0.013855837055260917,-4.3380087053531255,-1.8316216056169783,-2.6308193795916575,-0.02364461360879168,-0.01905980990705678,0.22727992104578176
9080,0.0,299.86314,28910.392000000003,-0.09080000557634693,0.0,0.0,0.0,0.0,-0.01385736467314666,-4.342358689357437,-1.840861027978838,-2.6048176595004873,-0.0062240756838934435,0.016932683839625786,0.19020909209217582
9081,0.0,300.00352999999996,28899.705,-0.09081001525104426,0.0,0.0,0.0,0.0,-0.013858892291032376,-4.335881893393226,-1.8355766247323082,-2.6133302775656175,-0.025901595782538474,0.03361173192746967,0.19804264007278682
9082,0.0,300.43953999999997,29057.725,-0.0908199918905116,0.0,0.0,0.0,0.0,-0.013860414867274906,-4.384628747754166,-1.8495788291892181,-2.598615352988368,-0.022114879535318682,0.002960662988619687,0.2115298297688688
9083,0.0,300.78416,29095.368,-0.09083000156520915,0.0,0.0,0.0,0.0,-0.01386194248516065,-4.388082106744986,-1.8219953243669382,-2.6341879295491073,-0.034393858666409566,-0.016091283996336088,0.2284716855483998
9084,0.0,300.49838,28966.564,-0.09084001123990659,0.0,0.0,0.0,0.0,-0.013863470103046338,-4.366588944298775,-1.8224035628322284,-2.6161194511158876,0.015018303816191186,-0.0037250528858840965,0.22213990593850177
9085,0.0,300.268,29026.492000000002,-0.09084998787937393,0.0,0.0,0.0,0.0,-0.013864992679288868,-4.355933910222205,-1.831314692161688,-2.6360802754358676,0.027150014137997773,-0.004573162775311026,0.23753267456764976
9086,0.0,300.6875,29119.136000000002,-0.09085999755407148,0.0,0.0,0.0,0.0,-0.013866520297174612,-4.370683386627866,-1.835013764301758,-2.6457931895694573,0.02229675488851838,-0.013689618827560188,0.23336165079600177
9087,0.0,299.67873,29019.645,-0.09087000722876903,0.0,0.0,0.0,0.0,-0.013868047915060355,-4.371378172221436,-1.8357576925251782,-2.6141114933927176,0.005947853878107474,-0.011548375146485887,0.2257303475353508
9088,0.0,299.89982000000003,29036.772999999997,-0.09087998386823626,0.0,0.0,0.0,0.0,-0.013869570491302857,-4.391813400238236,-1.8231551917564082,-2.6114852504585273,0.019460162246818482,-0.0037085500815053967,0.23890503063559076
9089,0.0,299.5372,29080.259,-0.09088999354293381,0.0,0.0,0.0,0.0,-0.013871098109188601,-4.382210829040536,-1.8444151040295982,-2.6130467701876374,0.01036972108691179,0.02096897675872688,0.21771292505909276
9090,0.0,299.9834,28970.591,-0.09090000321763136,0.0,0.0,0.0,0.0,-0.013872625727074345,-4.347107387276096,-1.8277773347375785,-2.6314514450040374,-0.02221485692268568,-0.02022304331335898,0.22728344715612978
9091,0.0,300.42762,29013.396,-0.09091001289232892,0.0,0.0,0.0,0.0,-0.01387415334496006,-4.360059459329366,-1.8297002807773584,-2.6295880780701375,-0.021332923022395582,-0.019620702605912584,0.20981524847965277
9092,0.0,300.44395,29052.124,-0.09091998953179614,0.0,0.0,0.0,0.0,-0.013875675921202563,-4.347953451109595,-1.8395554552249882,-2.6436114594541373,-0.013154930802790588,0.0038453552596570163,0.2129201710260848
9093,0.0,299.82661,28855.941000000003,-0.09092999920649392,0.0,0.0,0.0,0.0,-0.013877203539088334,-4.357459358247755,-1.8140048340783381,-2.6000213388271276,0.01163765159954679,0.013982705471985586,0.2057796050538658
9094,0.0,300.22997000000004,28926.212000000003,-0.09094000888119125,0.0,0.0,0.0,0.0,-0.01387873115697405,-4.3667827790429055,-1.8213244514757283,-2.6047389299677177,-0.0021726813866269575,-0.013011752484159988,0.22020084922213182
9095,0.0,299.22035,29062.481,-0.0909499855206587,0.0,0.0,0.0,0.0,-0.01388025373321658,-4.392519027607876,-1.8179697830446482,-2.6237795205468775,-0.005139385068367815,-0.013726438309693988,0.2262047005696658
9096,0.0,299.4416,29090.112,-0.09095999519535602,0.0,0.0,0.0,0.0,-0.013881781351102296,-4.360905117862825,-1.846667457676888,-2.6350950923636374,0.024214946758829178,0.006473213618481443,0.22723031232088578
9097,0.0,299.74649,29045.752999999997,-0.09097000487005358,0.0,0.0,0.0,0.0,-0.01388330896898804,-4.3637327949168965,-1.8362771858514484,-2.6291736587792376,0.005806206783027994,0.00933582692804938,0.21151682977008582
9098,0.0,299.70437000000004,29146.987,-0.09098001454475113,0.0,0.0,0.0,0.0,-0.013884836586873756,-4.364171126910155,-1.858399171309718,-2.6373857468647075,0.0054978019249158055,-0.007097698400238294,0.22758228500812278
9099,0.0,299.72914,29141.609,-0.09098999118421836,0.0,0.0,0.0,0.0,-0.013886359163116258,-4.4040030015912555,-1.8388908644843982,-2.615427603947608,-0.019228011450156984,-0.014600742436731089,0.21649426889882079
9100,0.0,300.78966,29095.287999999997,-0.09100000085891602,0.0,0.0,0.0,0.0,-0.013887886781002029,-4.392610828066936,-1.8312009041754584,-2.6204293104162373,0.0012791581343430788,0.011761689623788388,0.24471962712944678
9101,0.0,300.00976,28946.702999999998,-0.09101001053361335,0.0,0.0,0.0,0.0,-0.013889414398887745,-4.369305366491866,-1.8201737033371583,-2.6095959443220678,-0.005406861005915635,0.001197608422569749,0.22613413783270178
9102,0.0,300.45455,28911.363999999998,-0.0910199871730808,0.0,0.0,0.0,0.0,-0.013890936975130275,-4.353105321243046,-1.8069794645099884,-2.6282481561378974,-0.01236234630956859,-0.00951909661471169,0.2453708227037148
9103,0.0,300.25908,29025.412999999997,-0.09102999684777813,0.0,0.0,0.0,0.0,-0.01389246459301599,-4.371424072450966,-1.8228865791548985,-2.6286900345065076,-0.015276970354719586,-0.015071701083211087,0.20872144499670284
9104,0.0,300.03171000000003,29254.807999999997,-0.0910400065224759,0.0,0.0,0.0,0.0,-0.013893992210901762,-4.400146065085605,-1.8441470993781481,-2.648437974980477,0.011332444457425189,0.01087881948040589,0.2243502097066418
9105,0.0,299.72083,29300.819,-0.09105001619717323,0.0,0.0,0.0,0.0,-0.01389551982878745,-4.418580326804925,-1.8537580805516785,-2.634378927192958,0.003856405055972546,0.018128149744859084,0.2107728711491628
9106,0.0,300.25853,29060.566000000003,-0.09105999283664068,0.0,0.0,0.0,0.0,-0.01389704240502998,-4.388213626607966,-1.837978838069388,-2.6074941596396375,0.001217992380131489,-0.008470245364498133,0.21843732795308576
9107,0.0,299.35762,29022.096,-0.09107000251133823,0.0,0.0,0.0,0.0,-0.013898570022915724,-4.374844804788566,-1.8339448867712682,-2.6132029120280476,3.108706832905477e-05,0.0025425031836505273,0.2257242477697488
9108,0.0,300.15756,29271.531000000003,-0.09108001218603556,0.0,0.0,0.0,0.0,-0.01390009764080144,-4.403518060093395,-1.8541624686665883,-2.640133883785927,0.000907134362467191,0.013657579859398186,0.2183840107328238
9109,0.0,299.69297,29106.017999999996,-0.09108998882550301,0.0,0.0,0.0,0.0,-0.01390162021704397,-4.351362733721066,-1.8470264521873183,-2.6491134074971376,-0.013075634863214688,0.011204891468586688,0.2264137644627988
9110,0.0,299.63626,28888.847999999998,-0.09109999850020034,0.0,0.0,0.0,0.0,-0.013903147834929686,-4.3528189767647865,-1.8343783551640482,-2.5942910042115876,-0.017163130349619082,-0.004680317722411396,0.2093008315363838
9111,0.0,299.55807000000004,29022.843999999997,-0.09111000817489812,0.0,0.0,0.0,0.0,-0.013904675452815457,-4.363236505017916,-1.8254749265353483,-2.6335084440320475,-0.003567606485970346,-0.0045205201769656055,0.24479129430901977
9112,0.0,300.03454,29148.567000000003,-0.09111998481436534,0.0,0.0,0.0,0.0,-0.013906198029057959,-4.386080329847426,-1.8453092972428482,-2.6290470025167374,0.011448765568905188,0.01338752742949609,0.2183848719954088
9113,0.0,299.8351,29204.93,-0.0911299944890629,0.0,0.0,0.0,0.0,-0.013907725646943675,-4.369900752250626,-1.8475371302377184,-2.660131489084537,-0.005849243263800364,-0.006470106284399774,0.23658386717400975
9114,0.0,300.54541,29262.607999999997,-0.09114000416376034,0.0,0.0,0.0,0.0,-0.013909253264829419,-4.392953711900776,-1.8449379410811981,-2.6572104916962576,0.001152201544513439,-0.022226519431336682,0.2167636617029078
9115,0.0,299.762,29130.074,-0.09115001383845789,0.0,0.0,0.0,0.0,-0.013910780882715162,-4.372043168262066,-1.8371017687828282,-2.6456702823323273,-0.0032605767095688666,-0.007310883586828033,0.2280098866828238
9116,0.0,300.14385,29070.679,-0.09115999047792511,0.0,0.0,0.0,0.0,-0.013912303458957664,-4.3980570473544365,-1.8205908584033281,-2.618112716712608,0.011279207283921091,0.020359718592847784,0.2194334338613938
9117,0.0,300.2407,29228.472999999998,-0.09117000015262267,0.0,0.0,0.0,0.0,-0.013913831076843408,-4.419064457702705,-1.8333075524583682,-2.6323538455430975,-0.0028534351888371274,-0.0023611723510545677,0.22610907002522782
9118,0.0,300.17222000000004,29187.889,-0.09118000982732022,0.0,0.0,0.0,0.0,-0.013915358694729152,-4.403581793524686,-1.8287558303591482,-2.6400519118528374,-0.018803017881213382,-0.012590422827577987,0.24286294764620675
9119,0.0,300.12757,29064.237,-0.09118998646678766,0.0,0.0,0.0,0.0,-0.013916881270971682,-4.373624547693137,-1.8343106700573684,-2.6268671975766074,0.013228778496578789,-0.004520286318842525,0.21876140586506979
9120,0.0,299.91476,29132.732000000004,-0.091199996141485,0.0,0.0,0.0,0.0,-0.01391840888885737,-4.364531742620746,-1.8390059696957584,-2.652085270040437,0.01845518938688538,0.014799496510096587,0.23305703741843875
9121,0.0,299.34246,29303.307999999997,-0.09121000581618255,0.0,0.0,0.0,0.0,-0.013919936506743114,-4.395634163715315,-1.8516258983662481,-2.660213866317668,0.012611249170133386,0.006677844441101933,0.2184827620875698
9122,0.0,299.25411,29282.619,-0.0912200154908801,0.0,0.0,0.0,0.0,-0.013921464124628857,-4.386788186367286,-1.8512936536584583,-2.663103047652808,-0.014692655366552187,-0.006108640254325854,0.2341378915651108
9123,0.0,299.39234,29120.692000000003,-0.09122999213034733,0.0,0.0,0.0,0.0,-0.01392298670087136,-4.387343548747095,-1.8426076685012183,-2.6220121083974472,0.008289391164749213,0.004356844315437055,0.21474348418353179
9124,0.0,299.90852,29124.485,-0.09124000180504488,0.0,0.0,0.0,0.0,-0.013924514318757103,-4.369998632210286,-1.8406167333797285,-2.6425008360195275,0.016284308140386086,0.005805741802557105,0.2258019741849198
9125,0.0,300.04581,29126.392999999996,-0.09125001147974243,0.0,0.0,0.0,0.0,-0.013926041936642847,-4.382555435399546,-1.8465953142697682,-2.6245455376224776,0.003570559907361827,-0.015135045426462684,0.21392765573301578
9126,0.0,300.22783,29169.722999999998,-0.09125998811920988,0.0,0.0,0.0,0.0,-0.013927564512885376,-4.366311212446366,-1.8469093204757583,-2.653646688444537,-0.01210924859358979,-0.019048469611937582,0.21501186373751882
9127,0.0,299.94928,29214.551,-0.09126999779390721,0.0,0.0,0.0,0.0,-0.013929092130771065,-4.404554412295676,-1.8448689387493882,-2.6310707669414675,0.000952346362131768,0.0013096102515234688,0.22193544220082279
9128,0.0,299.94911,29075.535,-0.09128000746860476,0.0,0.0,0.0,0.0,-0.013930619748656808,-4.383940142986206,-1.8198373043039584,-2.6344591766008776,0.01826091387896188,0.02089813639123548,0.22521093526908878
9129,0.0,300.21855,29041.822999999997,-0.0912899841080721,0.0,0.0,0.0,0.0,-0.013932142324899338,-4.392449214675986,-1.8232964388203483,-2.6122434655083575,-0.0003435455064203017,0.0061406327143082645,0.2189869958673338
9130,0.0,300.26601,29347.581000000002,-0.09129999378276965,0.0,0.0,0.0,0.0,-0.013933669942785082,-4.397777390326836,-1.8484950568822585,-2.6746592663683177,0.006925731619766494,-0.007845605454150972,0.2581416445790968
9131,0.0,299.46223,29396.885,-0.09131000345746709,0.0,0.0,0.0,0.0,-0.013935197560670798,-4.420456663340105,-1.849133201795238,-2.6663290333211873,0.0025217400679013674,0.0010619441640307289,0.22834948758633977
9132,0.0,299.61806,29189.045,-0.09132001313216465,0.0,0.0,0.0,0.0,-0.013936725178556542,-4.366244135289746,-1.8345716832831285,-2.6719249096484576,0.024625059736804178,0.008976279183064782,0.25195307773833275
9133,0.0,299.39766000000003,29043.972,-0.09132998977163198,0.0,0.0,0.0,0.0,-0.013938247754799071,-4.388991701359755,-1.8286682855505083,-2.6109821717838773,-2.7053817186753873e-05,-0.007479416057410893,0.2020408945698838
9134,0.0,299.45068,29266.499,-0.09133999944632931,0.0,0.0,0.0,0.0,-0.01393977537268476,-4.416626071337055,-1.8337712157041284,-2.6458876244787772,-0.009319985978636001,-0.0042027481256539465,0.25705816611466575
9135,0.0,299.77824,29394.411,-0.09135000912102686,0.0,0.0,0.0,0.0,-0.013941302990570503,-4.436616482559955,-1.864717494958288,-2.6338330893640873,-0.0003565651014602357,0.00878536918534843,0.2019042476613978
9136,0.0,299.79882000000003,29316.99,-0.09135998576049431,0.0,0.0,0.0,0.0,-0.013942825566813033,-4.407097163421626,-1.8424673333623685,-2.6620684179756973,0.003325966500797337,0.02219036666776868,0.24992496647067375
9137,0.0,299.76134,29109.707000000002,-0.09136999543519186,0.0,0.0,0.0,0.0,-0.013944353184698777,-4.374189738598916,-1.8382647772476084,-2.6361693401196575,-0.0034405633645821668,-0.008378908872658922,0.21371928084995082
9138,0.0,300.19796,29107.87,-0.0913800051098892,0.0,0.0,0.0,0.0,-0.013945880802584493,-4.365892233530016,-1.8279212162517782,-2.6542522067042973,0.002079604536415988,-0.007254123342726233,0.24346561867318578
9139,0.0,299.71181,29312.627999999997,-0.09139001478458675,0.0,0.0,0.0,0.0,-0.013947408420470236,-4.411065253463246,-1.8545320009780584,-2.6447097212375272,0.01972498934595488,-0.004240670834496626,0.21021370908147782
9140,0.0,300.38628,29483.742000000002,-0.0913999914240542,0.0,0.0,0.0,0.0,-0.013948930996712766,-4.440791275621976,-1.8630179705655583,-2.6585120114497074,-0.0003619194493611687,0.004378140704713845,0.22910269718067577
9141,0.0,300.29651,29230.42,-0.09141000109875175,0.0,0.0,0.0,0.0,-0.013950458614598482,-4.406155347453676,-1.8529950019013681,-2.6261674470575476,-0.012184195663736488,-0.019341247215082482,0.2113211103807698
9142,0.0,300.11654,29027.656000000003,-0.09142001077344908,0.0,0.0,0.0,0.0,-0.013951986232484198,-4.366401493030276,-1.840360583754448,-2.6169204253199374,-0.007871995046380423,-0.015648400483626885,0.2306755450459038
9143,0.0,299.72912,29299.15,-0.09142998741291664,0.0,0.0,0.0,0.0,-0.013953508808726756,-4.385403681430646,-1.859378680181388,-2.661427537287447,-0.006337994480711354,0.011806201700681387,0.24015708351915876
9144,0.0,299.44109,29555.195,-0.09143999708761408,0.0,0.0,0.0,0.0,-0.013955036426612472,-4.428996233857896,-1.864362857423288,-2.6906821954996576,-0.006716562551273114,0.02279249965894458,0.23421015656224276
9145,0.0,299.48039,29316.301,-0.09145000676231141,0.0,0.0,0.0,0.0,-0.013956564044498188,-4.425876436799996,-1.8437011680091384,-2.6418459724798975,-0.029096238585575175,-0.004637211124732105,0.24487871752764775
9146,0.0,299.63603,29206.572,-0.09146001643700896,0.0,0.0,0.0,0.0,-0.013958091662383904,-4.412063507461766,-1.841963038787598,-2.6240420536477873,-0.01984847008264148,0.0035056552602812366,0.2223587780926028
9147,0.0,299.41012,29426.992000000002,-0.09146999307647641,0.0,0.0,0.0,0.0,-0.013959614238626461,-4.442498500715466,-1.852780902155238,-2.649791474464058,-0.004258681355024126,0.01053620010484199,0.2389349316460418
9148,0.0,299.76331,29496.645,-0.09148000275117385,0.0,0.0,0.0,0.0,-0.013961141856512177,-4.424547964593886,-1.8676317035708982,-2.6740638806095576,0.01110198680168079,0.005682318618476184,0.2102734097773698
9149,0.0,300.24911000000003,29437.523999999998,-0.09149001242587129,0.0,0.0,0.0,0.0,-0.013962669474397893,-4.413261574380005,-1.8519997876531482,-2.6830107776675476,-0.004828546282190415,-0.005379301211145694,0.23103334392121577
9150,0.0,299.91062999999997,29208.873,-0.09149998906533885,0.0,0.0,0.0,0.0,-0.01396419205064045,-4.389123525197766,-1.8257982546422584,-2.663846165276148,0.01254739313558129,-0.010604803216112589,0.2299929995135418
9151,0.0,300.66375,29091.243,-0.09150999874003618,0.0,0.0,0.0,0.0,-0.013965719668526166,-4.384423361958896,-1.8366571546389483,-2.6219309470644374,0.026756029061864472,0.008229650344153253,0.2276368485260078
9152,0.0,299.98109,29239.306,-0.09152000841473373,0.0,0.0,0.0,0.0,-0.01396724728641191,-4.414307755108255,-1.8432881672683783,-2.630422894827527,0.01078236516363659,0.007907447147504272,0.21518614275471878
9153,0.0,300.01957999999996,29574.596,-0.09152998505420118,0.0,0.0,0.0,0.0,-0.01396876986265444,-4.447007463660466,-1.8788103852991482,-2.6641207560532476,0.0033605962481400276,-0.00897046302616577,0.22361768054684678
9154,0.0,299.25745,29296.67,-0.09153999472889873,0.0,0.0,0.0,0.0,-0.013970297480540184,-4.396954631245636,-1.848167777099958,-2.6603339364545175,-0.02277581244304768,-0.003237929556583767,0.23015644688717277
9155,0.0,299.9905,29184.089,-0.09155000440359606,0.0,0.0,0.0,0.0,-0.013971825098425872,-4.376167096169066,-1.8464574109311584,-2.6486099235224474,0.003301488810181577,0.013417586506962686,0.22415270699714981
9156,0.0,299.79892,29488.355,-0.0915600140782934,0.0,0.0,0.0,0.0,-0.013973352716311588,-4.421440934487245,-1.8592545570441383,-2.6830281042442574,-0.01982591513541548,0.013916918182742887,0.2400526478313518
9157,0.0,299.9417,29689.416,-0.09156999071776106,0.0,0.0,0.0,0.0,-0.013974875292554145,-4.4639759577851255,-1.8720505885820082,-2.688814572915337,-0.015564118340308884,-0.005343097075797625,0.23488638954648178
9158,0.0,299.71902,29405.093999999997,-0.0915800003924584,0.0,0.0,0.0,0.0,-0.013976402910439861,-4.430521073933386,-1.8526517127674882,-2.6552414427769273,-0.011427776093083689,-0.004658467794604975,0.23229100007783676
9159,0.0,299.72862000000003,29174.964,-0.09159001006715595,0.0,0.0,0.0,0.0,-0.013977930528325605,-4.406348878222776,-1.8433578788752585,-2.6187536987258677,0.016470729946784484,0.014479028808218884,0.21509998609871578
9160,0.0,299.88667000000004,29198.22,-0.09159998670662339,0.0,0.0,0.0,0.0,-0.013979453104568135,-4.386848474748236,-1.8321664301957483,-2.656514996827618,0.029554163796018874,0.009437546902938361,0.22299412643530678
9161,0.0,300.34897,29363.721,-0.09160999638132084,0.0,0.0,0.0,0.0,-0.013980980722453878,-4.411068597188576,-1.8602641594437783,-2.6545051139292575,0.007418846600883153,0.009227240663857751,0.22393414895057978
9162,0.0,300.09381,29473.912999999997,-0.09162000605601828,0.0,0.0,0.0,0.0,-0.013982508340339567,-4.427359125671326,-1.856948197166518,-2.6750262655545374,-0.0017662371846140384,-0.003663642533098366,0.23501564986173876
9163,0.0,299.64072000000004,29374.12,-0.09163001573071583,0.0,0.0,0.0,0.0,-0.01398403595822531,-4.445331547995067,-1.8377435613961681,-2.6459237975073475,0.008598562951862091,-0.0005719841600154414,0.22698932091710178
9164,0.0,300.12585,29342.542,-0.09163999237018317,0.0,0.0,0.0,0.0,-0.01398555853446784,-4.4159496255702955,-1.8685922646656983,-2.6348582958152678,-0.008896485940339802,-0.005989478293540484,0.2257793989726918
9165,0.0,300.02241000000004,29488.342,-0.09165000204488072,0.0,0.0,0.0,0.0,-0.013987086152353584,-4.434845524035175,-1.8688076816369583,-2.660066539753127,-0.00953649006592829,-0.017385298606295382,0.21301620687056283
9166,0.0,299.8927,29820.551,-0.09166001171957805,0.0,0.0,0.0,0.0,-0.0139886137702393,-4.449341383940806,-1.900798419094198,-2.7145630818065176,-0.022074776109610776,-0.005728087733443244,0.2303863128048588
9167,0.0,299.18324,29470.412,-0.09166998835904572,0.0,0.0,0.0,0.0,-0.013990136346481857,-4.421298268873166,-1.8631090617495485,-2.6738621425146474,-0.01042494828361229,0.024480599656797077,0.2209411398776928
9168,0.0,299.60616,29111.815,-0.09167999803374305,0.0,0.0,0.0,0.0,-0.013991663964367573,-4.390587772917275,-1.823956064635448,-2.6347210004267176,0.005483346696339184,0.012443261422804289,0.23885081162273977
9169,0.0,299.77224,29244.534,-0.09169000770844038,0.0,0.0,0.0,0.0,-0.013993191582253262,-4.409793725912755,-1.8481521730484183,-2.6316623023498478,-0.012708696472000687,0.011834395384713887,0.2235160718268188
9170,0.0,299.88667999999996,29466.929,-0.09169998434790805,0.0,0.0,0.0,0.0,-0.013994714158495847,-4.436875469285516,-1.8648854918248683,-2.6554497669974872,0.010677732905310188,0.005556198973229145,0.2383719192279768
9171,0.0,300.35451,29426.843999999997,-0.09170999402260538,0.0,0.0,0.0,0.0,-0.013996241776381535,-4.424210552310586,-1.8696358109436881,-2.6511795257760475,0.005758796304223944,0.004019449460038776,0.2050396893008418
9172,0.0,300.64742,29387.361,-0.09172000369730293,0.0,0.0,0.0,0.0,-0.013997769394267279,-4.3960411862804865,-1.8752165898444682,-2.6617661654708678,0.012333055275677789,-0.009037025451734971,0.2181749164421878
9173,0.0,300.14293,29400.697999999997,-0.09173001337200026,0.0,0.0,0.0,0.0,-0.013999297012152995,-4.426664948027816,-1.8496789382990981,-2.6607340689190075,-0.01136108903775219,-0.03630259286028697,0.22757011587442177
9174,0.0,300.52289,29532.3,-0.09173999001146793,0.0,0.0,0.0,0.0,-0.014000819588395552,-4.447700222753836,-1.8643024677173283,-2.6650790879978272,-0.0009516498540130282,-0.015105643948310985,0.24428537853408977
9175,0.0,300.11491,29730.417,-0.09174999968616526,0.0,0.0,0.0,0.0,-0.014002347206281268,-4.484139330800096,-1.874744009997828,-2.6784208560395575,-0.008016090559001543,-0.008625182349214222,0.2410699509317518
9176,0.0,300.25562,29649.667999999998,-0.09176000936086282,0.0,0.0,0.0,0.0,-0.014003874824166984,-4.457638990334716,-1.8682004408520283,-2.686919288603287,0.003297132848001677,0.003934103100140746,0.23604257883808877
9177,0.0,300.03853,29377.111,-0.09176998600033015,0.0,0.0,0.0,0.0,-0.014005397400409514,-4.416748471949136,-1.8596756637856982,-2.6534840618034874,-0.014920387379527588,0.005190642959126575,0.22833748057265477
9178,0.0,299.29184,29359.865,-0.0917799956750277,0.0,0.0,0.0,0.0,-0.014006925018295258,-4.402946992337037,-1.8504143552216783,-2.6713044966122275,0.01082136414673549,0.011625456121343188,0.2261208237263878
9179,0.0,298.86135,29563.428,-0.09179000534972515,0.0,0.0,0.0,0.0,-0.014008452636180974,-4.458189185139016,-1.8623659441262082,-2.6659887839376077,-0.004975073392401516,0.018372343018959084,0.24369908162872675
9180,0.0,299.9905,29541.657000000003,-0.09180001502442248,0.0,0.0,0.0,0.0,-0.01400998025406669,-4.447996091783036,-1.873195358544988,-2.6587347238216874,-0.017497745049392985,0.0039962179657210065,0.2276162086214708
9181,0.0,300.22777,29287.333,-0.09180999166389003,0.0,0.0,0.0,0.0,-0.014011502830309247,-4.427189710254606,-1.8408695392796783,-2.6345586777606975,-0.015749022298057483,-0.009955260759382741,0.23101929014232878
9182,0.0,300.35524,29402.81,-0.09182000133858736,0.0,0.0,0.0,0.0,-0.014013030448194963,-4.419945276014636,-1.8649325066295084,-2.652842269190147,0.0016957597633084583,-0.0014781554890575886,0.2062132963616678
9183,0.0,299.99947000000003,29746.471,-0.09183001101328492,0.0,0.0,0.0,0.0,-0.014014558066080679,-4.447007970285516,-1.8882185138026581,-2.706957727880927,0.01891009713853128,0.013956812878930186,0.2317305815800278
9184,0.0,300.65967,29773.354,-0.09183998765275236,0.0,0.0,0.0,0.0,-0.014016080642323209,-4.435293785879416,-1.9035835396440681,-2.7114788498271274,0.005615731469604545,0.0009366602373336683,0.2057447593829268
9185,0.0,300.24134,29591.897999999997,-0.09184999732744992,0.0,0.0,0.0,0.0,-0.014017608260208952,-4.454575124682336,-1.8595895375271982,-2.6810335214224077,-0.0013727451559793985,-0.011600773348907188,0.24991761027494774
9186,0.0,300.31219,29396.347999999998,-0.09186000700214725,0.0,0.0,0.0,0.0,-0.014019135878094668,-4.434098961361496,-1.8510040667798784,-2.650652838374068,0.0008530356021380592,-0.009583633148030951,0.22208876720595477
9187,0.0,299.37984,29453.668999999998,-0.0918699836416147,0.0,0.0,0.0,0.0,-0.014020658454337198,-4.4414608312880555,-1.8609782981142582,-2.6507409911327677,0.0041244145710230265,-0.009453599925597671,0.24549345636331776
9188,0.0,299.66668,29618.921000000002,-0.09187999331631225,0.0,0.0,0.0,0.0,-0.014022186072222942,-4.446057237716686,-1.8698353198883781,-2.6875197406125477,-0.007448879131197132,-0.016584079195721184,0.22948770182117276
9189,0.0,299.58583,29629.318,-0.0918900029910098,0.0,0.0,0.0,0.0,-0.014023713690108686,-4.435316077381616,-1.8728621005870982,-2.6983945486358074,-0.016442767283774785,-0.005082152447069396,0.24486594044388676
9190,0.0,299.87577999999996,29332.037999999997,-0.09190001266570713,0.0,0.0,0.0,0.0,-0.014025241307994374,-4.412587864388516,-1.838587092104418,-2.6650322758432075,-0.003907685744858556,0.015541123642539486,0.22785680485771578
9191,0.0,299.75117,29458.047000000002,-0.09190998930517469,0.0,0.0,0.0,0.0,-0.014026763884236931,-4.445174392904556,-1.8539336767940084,-2.6554025495428273,0.004825674326106975,0.027978304551493673,0.23032718966152377
9192,0.0,300.65618,29745.397,-0.09191999897987213,0.0,0.0,0.0,0.0,-0.014028291502122647,-4.474665746340126,-1.8879562846767781,-2.6792357117699774,-0.006372134524280713,0.01992778730046948,0.23273374984153278
9193,0.0,300.40423,29807.925,-0.09193000865456946,0.0,0.0,0.0,0.0,-0.014029819120008363,-4.4794628776135665,-1.8847589739862283,-2.6966430445129475,-0.001954967681365288,0.008434541065424392,0.22974743835180678
9194,0.0,300.5925,29547.695,-0.09193998529403691,0.0,0.0,0.0,0.0,-0.014031341696250893,-4.4296098581184555,-1.8732717576025282,-2.6788796556848373,0.004553607048381026,0.0028416904042780074,0.22231627225090778
9195,0.0,300.68043,29336.474,-0.09194999496873435,0.0,0.0,0.0,0.0,-0.014032869314136637,-4.399576010579346,-1.8365882536321483,-2.681391401357727,0.002889119121583857,-0.0041176267072781155,0.2222606448204178
9196,0.0,300.52274,29484.401,-0.0919600046434319,0.0,0.0,0.0,0.0,-0.01403439693202238,-4.424151277179736,-1.8599148921343083,-2.678455509192977,-0.016944498335791786,-0.012441258227356589,0.24043370079645876
9197,0.0,300.29452000000003,29610.196,-0.09197001431812935,0.0,0.0,0.0,0.0,-0.014035924549908069,-4.460878958854475,-1.8580403794493083,-2.6818408791020873,-0.007652762783193883,-0.017053113680261283,0.24116078880321676
9198,0.0,300.01274,29593.549,-0.0919799909575969,0.0,0.0,0.0,0.0,-0.014037447126150626,-4.452017478779916,-1.874381367787038,-2.6693010985145076,-0.0016927582125372284,-0.01024950706854759,0.24337648306188878
9199,0.0,299.70474,29487.071,-0.09199000063229423,0.0,0.0,0.0,0.0,-0.014038974744036342,-4.450468320702026,-1.8560632245291784,-2.6568017466059177,0.013221553010115688,0.012936974626779988,0.24057911231830978
9200,0.0,300.4358,29539.04,-0.09200001030699179,0.0,0.0,0.0,0.0,-0.014040502361922086,-4.426265018213345,-1.881226480162598,-2.6716389704702372,0.011582423389596188,0.005991432042383305,0.22796116961801577
9201,0.0,300.21592000000004,29713.513,-0.09200998694645901,0.0,0.0,0.0,0.0,-0.014042024938164588,-4.452404337668096,-1.8744185540657081,-2.7053431138465776,0.0007436884276513333,0.014085954643925487,0.23883646400132377
9202,0.0,300.27083999999996,29769.002,-0.09201999662115679,0.0,0.0,0.0,0.0,-0.01404355255605036,-4.461281725769226,-1.8874859339803582,-2.7002656162704675,-0.005352271852803105,0.007357622280815783,0.2258747559396028
9203,0.0,300.01433,29481.949,-0.09203000629585412,0.0,0.0,0.0,0.0,-0.014045080173936075,-4.432627924866316,-1.8494046514970284,-2.6797435527200975,-0.0007139577749396463,0.004714580369242855,0.23134907265237578
9204,0.0,299.80545,29418.037,-0.09204001597055145,0.0,0.0,0.0,0.0,-0.014046607791821764,-4.427453357930625,-1.8588207846763285,-2.6560747396591675,-0.004299542691806826,0.003969355590994897,0.2230721568255078
9205,0.0,300.1443,29588.793999999998,-0.09204999261001912,0.0,0.0,0.0,0.0,-0.014048130368064321,-4.451885046991846,-1.859792592847238,-2.682576903974727,-0.013267689326918988,-0.012737197170813487,0.22639347919579675
9206,0.0,300.17125,29576.636000000002,-0.09206000228471645,0.0,0.0,0.0,0.0,-0.014049657985950037,-4.436572608830625,-1.8677446809570484,-2.6862415256113974,0.0060959409881725345,-0.003449324532896827,0.2264508595489598
9207,0.0,299.63405,29410.232000000004,-0.092070011959414,0.0,0.0,0.0,0.0,-0.01405118560383578,-4.429342360092056,-1.844693139857038,-2.6659405532328475,0.0032214704232843773,-0.0038156333918236965,0.2257035977327108
9208,0.0,300.23179,29555.936,-0.09207998859888133,0.0,0.0,0.0,0.0,-0.01405270818007831,-4.447833566466995,-1.8593661158801482,-2.677066951255937,0.017997340170199185,0.007272480901412983,0.2533828952194448
9209,0.0,300.32763,29683.272,-0.09208999827357889,0.0,0.0,0.0,0.0,-0.014054235797964054,-4.471665512794026,-1.8602252506399382,-2.691082834589197,-0.005128782621971435,-0.004925518977710875,0.24136145285302077
9210,0.0,301.08448,29762.789,-0.09210000794827633,0.0,0.0,0.0,0.0,-0.01405576341584977,-4.4822039217840866,-1.8797122792131584,-2.6852283768364074,0.0041282475948263165,0.005582785439953025,0.24266566785173674
9211,0.0,300.68475,29760.676,-0.09210998458774367,0.0,0.0,0.0,0.0,-0.0140572859920923,-4.475079962981005,-1.8745016405739081,-2.6969206750403476,-0.013382951592044489,-0.00828639052590307,0.22892535814817377
9212,0.0,300.57825,29631.27,-0.09211999426244122,0.0,0.0,0.0,0.0,-0.014058813609978016,-4.446476723258086,-1.8706172449905483,-2.6900722189394575,0.008658745954801692,0.008284360580652732,0.22544607008729478
9213,0.0,300.22529,29576.681,-0.09213000393713877,0.0,0.0,0.0,0.0,-0.01406034122786376,-4.444740924511776,-1.873817291456368,-2.6720142783072776,-0.0011918732243537287,-0.012377936175607188,0.2280992553416438
9214,0.0,300.04686,29786.141,-0.0921400136118361,0.0,0.0,0.0,0.0,-0.014061868845749476,-4.474398552288755,-1.8772092474911284,-2.7026355069293575,0.0006022850800159094,0.008401212736510143,0.2332037560329188
9215,0.0,300.1706,29827.728,-0.09214999025130355,0.0,0.0,0.0,0.0,-0.014063391421992005,-4.466400462624406,-1.896631630707968,-2.7038524202994574,-0.0037862474163985267,0.014154644894704686,0.24015621212407276
9216,0.0,300.15561,29557.426,-0.0921599999260011,0.0,0.0,0.0,0.0,-0.014064919039877749,-4.4418286410743555,-1.8815006656396582,-2.6613901483587576,0.0005934631572252535,0.016485270085719483,0.2296505412447438
9217,0.0,299.56694,29483.261000000002,-0.09217000960069843,0.0,0.0,0.0,0.0,-0.014066446657763465,-4.421265844869966,-1.8580581113260581,-2.6828511907767973,-0.003311542176348767,0.003149210999027927,0.2502278877205698
9218,0.0,300.07157,29780.022999999997,-0.09217998624016588,0.0,0.0,0.0,0.0,-0.014067969234005995,-4.477619167731605,-1.8867653105092381,-2.6879989065848373,-0.012213023642331589,-0.019854282085215082,0.22362785357785078
9219,0.0,300.06933,29883.225,-0.09218999591486343,0.0,0.0,0.0,0.0,-0.01406949685189171,-4.489258270305296,-1.886026955161368,-2.7084687877550575,0.006749214839720644,-0.014584353116363587,0.24838839295902576
9220,0.0,300.28546,29691.932999999997,-0.09220000558956098,0.0,0.0,0.0,0.0,-0.014071024469777454,-4.475978411844676,-1.8763910480353783,-2.6732366632279176,-0.008319419540737782,-0.015114325475167787,0.21120513377432382
9221,0.0,300.02907000000005,29683.775,-0.09221001526425832,0.0,0.0,0.0,0.0,-0.01407255208766317,-4.449251103356896,-1.8867398779317281,-2.687135313524607,0.006861591469886354,-0.0030681510923529372,0.23454975746575876
9222,0.0,299.6833,29710.732999999997,-0.09221999190372576,0.0,0.0,0.0,0.0,-0.0140740746639057,-4.4697181474268355,-1.8706899963477284,-2.6909127098974075,0.0008729855441519652,0.015370785154978384,0.22668728119479278
9223,0.0,300.14644,29822.882,-0.09223000157842332,0.0,0.0,0.0,0.0,-0.014075602281791444,-4.456279006050496,-1.900058442546168,-2.709074002039787,0.017280872037739283,0.026402392617963275,0.21559073351964878
9224,0.0,300.37129,29744.737,-0.09224001125312087,0.0,0.0,0.0,0.0,-0.014077129899677188,-4.474085559332866,-1.8731193647874882,-2.6944522964717375,-0.008106545928553793,0.007957040268348732,0.2333309594504728
9225,0.0,300.55593,29569.121,-0.09224998789258809,0.0,0.0,0.0,0.0,-0.01407865247591969,-4.453911648516855,-1.8635592487689783,-2.6708035457627872,-0.006433321354094384,-0.01046206059502499,0.23847934400357876
9226,0.0,300.61343,29584.9,-0.09225999756728565,0.0,0.0,0.0,0.0,-0.014080180093805406,-4.465445170430126,-1.8702036362997283,-2.6574219569921276,-0.014494952033540384,-0.011531956441865488,0.24609672520785578
9227,0.0,300.28407999999996,29858.606,-0.09227000724198309,0.0,0.0,0.0,0.0,-0.01408170771169115,-4.487692292275746,-1.8822616164647585,-2.706316644542657,-0.011682203193193689,-0.010338119842792991,0.25180916582662977
9228,0.0,299.73554,30017.42,-0.09227998388145053,0.0,0.0,0.0,0.0,-0.014083230287933679,-4.499771652017886,-1.899944654559938,-2.7248299397697773,-0.007391276268312173,0.0013273393924981987,0.25297106984880074
9229,0.0,299.77633,29920.243,-0.09228999355614786,0.0,0.0,0.0,0.0,-0.014084757905819395,-4.471957632797855,-1.8982806952457183,-2.7247685368137176,-0.008574661091278163,-0.0016846972000416685,0.23855954274899374
9230,0.0,299.93474,29804.27,-0.09230000323084542,0.0,0.0,0.0,0.0,-0.014086285523705139,-4.478239986067876,-1.885187477453518,-2.6963263025316873,0.0018917682328779882,-0.0036720395393270867,0.23388078948473678
9231,0.0,300.15648999999996,29777.79,-0.09231001290554297,0.0,0.0,0.0,0.0,-0.014087813141590882,-4.475660048663255,-1.8925848111335781,-2.683459546136837,0.018001692079378684,-0.015953056417694084,0.2215529504205738
9232,0.0,300.1197,29761.967,-0.0923199895450102,0.0,0.0,0.0,0.0,-0.014089335717833384,-4.484792370489546,-1.8762248750189783,-2.6858775661754772,0.003332889228130557,-0.01064497351632709,0.2189413388178278
9233,0.0,300.59348,29610.863999999998,-0.09232999921970775,0.0,0.0,0.0,0.0,-0.0140908633357191,-4.467990150706296,-1.8581489998600282,-2.6748242234845976,-0.0007171996382370932,-0.01285068726151409,0.2300366908578538
9234,0.0,300.56318999999996,29410.131,-0.0923400088944053,0.0,0.0,0.0,0.0,-0.014092390953604844,-4.424048837594626,-1.8531737392190084,-2.662723078865308,-0.0008804142581876222,0.0030316097473715876,0.23131105550862377
9235,0.0,301.10517000000004,29481.491,-0.09234998553387275,0.0,0.0,0.0,0.0,-0.014093913529847374,-4.432987831301836,-1.8465561014908982,-2.6820931783769875,-0.007904265846165303,0.012366464157974988,0.23294425254980777
9236,0.0,300.48828,29926.346,-0.09235999520857008,0.0,0.0,0.0,0.0,-0.01409544114773309,-4.481364038776196,-1.9060024716077981,-2.7094955140813872,-0.009011398735505811,0.004510597925361355,0.23335343333769076
9237,0.0,299.58529,30090.175,-0.09237000488326763,0.0,0.0,0.0,0.0,-0.014096968765618834,-4.507373763543155,-1.912297591829078,-2.7269902903079872,-0.00879569308929232,-0.006352982577515563,0.2381248483235928
9238,0.0,299.8685,29917.298,-0.09238001455796518,0.0,0.0,0.0,0.0,-0.01409849638350455,-4.479182207335866,-1.9018043737934784,-2.7131248746145773,0.01083167396650299,0.0024078382936851377,0.25318989134039677
9239,0.0,299.90747999999996,29742.174,-0.09238999119743263,0.0,0.0,0.0,0.0,-0.014100018959747107,-4.475189191341786,-1.8874645544032482,-2.6782243868451676,0.011315148278218189,-0.0029670048196705776,0.23422865850906877
9240,0.0,299.92831,29853.151,-0.09240000087212996,0.0,0.0,0.0,0.0,-0.014101546577632795,-4.483452347232296,-1.8686876115001085,-2.7224723094370975,0.0023035987710974975,-0.011820444957337091,0.24853858702134876
9241,0.0,300.27702999999997,29920.986,-0.09241001054682751,0.0,0.0,0.0,0.0,-0.014103074195518539,-4.498233538366086,-1.8859093168247585,-2.7110897617887275,-0.02425365088614898,-0.015409762859825184,0.2324289642114528
9242,0.0,299.78938,29718.197,-0.09241998718629485,0.0,0.0,0.0,0.0,-0.014104596771761069,-4.476828224703546,-1.860251899117568,-2.6965099034498072,-0.007211243814394353,0.00788719521643056,0.2293822224857628
9243,0.0,300.35509,29541.085,-0.09242999686099229,0.0,0.0,0.0,0.0,-0.014106124389646785,-4.454164555741816,-1.860391930281388,-2.6651956117593274,-0.003021169927616257,-0.007424355743001864,0.20927139662097882
9244,0.0,299.95262,29631.593999999997,-0.09244000653568984,0.0,0.0,0.0,0.0,-0.014107652007532528,-4.457832115803775,-1.8809859345888584,-2.6684464220551574,0.011823307388869591,0.0038815646639056064,0.2195897986168258
9245,0.0,299.66776,29897.576,-0.09245001621038729,0.0,0.0,0.0,0.0,-0.014109179625418244,-4.489913437819956,-1.8971631817104284,-2.7010400433218975,-0.00011081065213615988,-0.016134778770128682,0.2269785298035368
9246,0.0,299.7893,30012.356,-0.09245999284985473,0.0,0.0,0.0,0.0,-0.014110702201660802,-4.490689790046575,-1.9135381139265084,-2.7187788101725774,0.011420325665098388,0.013048466588283385,0.22915574082341078
9247,0.0,299.37877000000003,29827.215,-0.09247000252455206,0.0,0.0,0.0,0.0,-0.01411222981954649,-4.4694479136251655,-1.8977138831397782,-2.6995668790015075,-0.0017105517962183183,0.01325686882910109,0.24095776388067974
9248,0.0,299.55265,29669.506,-0.09248001219924962,0.0,0.0,0.0,0.0,-0.014113757437432234,-4.455864080134546,-1.8820759890464382,-2.680849008579197,-0.0034823397675301767,0.003985360889574496,0.21363923409205082
9249,0.0,299.6452,29902.607999999997,-0.09248998883871706,0.0,0.0,0.0,0.0,-0.014115280013674764,-4.478988169941716,-1.891969261697828,-2.7186887322386872,-0.008835769765197581,-0.006515489756378775,0.2436785025191958
9250,0.0,299.99133,30025.923,-0.09249999851341462,0.0,0.0,0.0,0.0,-0.014116807631560507,-4.511828922907846,-1.8965635403012482,-2.7187383814935875,-0.0051240834719826645,0.006737250585189865,0.2233900843093848
9251,0.0,300.43849,29836.088,-0.09251000818811195,0.0,0.0,0.0,0.0,-0.014118335249446223,-4.471740594626436,-1.883372442549388,-2.7143127077068074,0.009447996652544673,-0.0016679173730856282,0.24813736024675076
9252,0.0,300.09876,29552.784,-0.09251998482757962,0.0,0.0,0.0,0.0,-0.01411985782568878,-4.448932537525455,-1.866978258581408,-2.6673978095266677,-0.014303881435683187,-0.008126268943075303,0.20973373250910782
9253,0.0,299.95217,29783.042,-0.09252999450227695,0.0,0.0,0.0,0.0,-0.014121385443574497,-4.477735894143125,-1.8734019602403782,-2.7021634337077676,0.0071506815519423225,0.0068239351444949635,0.24740975548244176
9254,0.0,300.02767,30084.515,-0.09254000417697428,0.0,0.0,0.0,0.0,-0.014122913061460185,-4.513847621082076,-1.9130061576240083,-2.7180875709543577,-0.012212527149782588,0.032375349969948265,0.2094358572447098
9255,0.0,299.29719,29927.702999999998,-0.09255001385167205,0.0,0.0,0.0,0.0,-0.014124440679345956,-4.4884667193271754,-1.8982662057692883,-2.7105414921596176,0.009567394396628312,0.018025954353023184,0.22271447954020776
9256,0.0,299.50916,29697.835,-0.09255999049113928,0.0,0.0,0.0,0.0,-0.014125963255588458,-4.470835255662086,-1.8722061224723583,-2.6843590082506075,-0.01114299505972799,-0.01281072670407029,0.2176193311473558
9257,0.0,299.22901,29747.209,-0.09257000016583683,0.0,0.0,0.0,0.0,-0.014127490873474202,-4.471176822270796,-1.8665882586179183,-2.7046436673025473,0.008824871551097012,-0.012901803702558888,0.25037149565724276
9258,0.0,299.27936,30043.902000000002,-0.09258000984053416,0.0,0.0,0.0,0.0,-0.014129018491359918,-4.523642608473765,-1.887466479578438,-2.7214870250398575,-9.069215191511851e-05,-0.004314796158812226,0.25282039955893076
9259,0.0,300.10414,30238.755,-0.09258998648000172,0.0,0.0,0.0,0.0,-0.014130541067602476,-4.529592109085936,-1.918367871853168,-2.743866376023527,0.002272324806760998,0.006315441559985554,0.2624954789337868
9260,0.0,299.88032000000004,29972.991,-0.09259999615469905,0.0,0.0,0.0,0.0,-0.014132068685488192,-4.489427381746986,-1.9034573900066183,-2.7181561679861272,-0.019804840546585583,0.002120543184181318,0.23309959392263876
9261,0.0,300.47334,29728.107000000004,-0.0926100058293966,0.0,0.0,0.0,0.0,-0.014133596303373908,-4.451944220797686,-1.887043447661688,-2.697614650033837,-0.0032156616631110967,0.004626092731384805,0.23341014494578777
9262,0.0,300.07466,29833.757,-0.09262001550409416,0.0,0.0,0.0,0.0,-0.014135123921259651,-4.489528706756985,-1.8805491224707482,-2.6986391472099474,-0.002973102254797347,0.032195434242441964,0.22479317225285878
9263,0.0,299.63271000000003,29988.846,-0.0926299921435616,0.0,0.0,0.0,0.0,-0.014136646497502181,-4.498397482232265,-1.897921700735288,-2.7195411795478175,0.0014710596986072888,0.005694145678943425,0.2267599616244658
9264,0.0,300.53251,29748.938,-0.09264000181825893,0.0,0.0,0.0,0.0,-0.014138174115387897,-4.497326983501616,-1.8770116637216283,-2.668595572469877,-0.012016661852452188,-0.012236002128099386,0.22579391884662478
9265,0.0,300.47348999999997,29583.533,-0.09265001149295626,0.0,0.0,0.0,0.0,-0.014139701733273613,-4.471287773156746,-1.861287542044778,-2.6600799146544474,-0.004787893269628276,-0.01060814491494239,0.21828554308810577
9266,0.0,299.97206,29813.264,-0.09265998813242393,0.0,0.0,0.0,0.0,-0.01414122430951617,-4.484564389217046,-1.8831795197303483,-2.694743707200497,0.015003124316443087,0.016321031363760383,0.2180355844209368
9267,0.0,299.94145,30133.388,-0.09266999780712126,0.0,0.0,0.0,0.0,-0.014142751927401886,-4.517292671422076,-1.9116556978907282,-2.7308489493388075,0.011897832946974688,0.01230026954219209,0.22638601154255977
9268,0.0,299.29107,30174.886000000002,-0.09268000748181882,0.0,0.0,0.0,0.0,-0.014144279545287602,-4.519083793623846,-1.9084535235996982,-2.7448745598730273,0.009147905714153002,-0.005522239186852574,0.24790188092351076
9269,0.0,299.7564,30024.691000000003,-0.09268998412128626,0.0,0.0,0.0,0.0,-0.014145802121530132,-4.508422578721666,-1.884372824373118,-2.7339611470209575,0.014965984647277684,-0.004499143842255925,0.2546786394473248
9270,0.0,300.32216,29926.218999999997,-0.09269999379598381,0.0,0.0,0.0,0.0,-0.014147329739415876,-4.504170474677016,-1.8797023493621783,-2.7129502916223474,0.00963555431230517,0.015025691422670287,0.27192038685895276
9271,0.0,300.39645,30064.843999999997,-0.09271000347068115,0.0,0.0,0.0,0.0,-0.014148857357301592,-4.513061136354455,-1.9083071089602484,-2.7175935102055977,0.005250792828787904,0.0014548722176597087,0.2285476995709018
9272,0.0,300.1898,30156.443,-0.0927200131453787,0.0,0.0,0.0,0.0,-0.014150384975187336,-4.503410638427026,-1.9187758063434281,-2.7446192208478273,-0.02268595134467908,-0.006748036024554304,0.2426817076008198
9273,0.0,300.03272000000004,29817.042,-0.09272998978484603,0.0,0.0,0.0,0.0,-0.014151907551429865,-4.489725783901436,-1.879491289366348,-2.6944191631934675,-0.015796388700482184,-0.005635024562108624,0.2183178353687928
9274,0.0,300.39586,29699.77,-0.09273999945954359,0.0,0.0,0.0,0.0,-0.014153435169315609,-4.461872754552555,-1.8718770188398783,-2.6942389060006775,0.0054260164990561355,0.014163580747336587,0.23174221369117579
9275,0.0,300.44777999999997,29903.491,-0.09275000913424103,0.0,0.0,0.0,0.0,-0.014154962787201297,-4.4921385350395555,-1.8833827777004084,-2.7143932610897576,0.0062705180022269436,0.004196446419307017,0.22907130669257778
9276,0.0,300.14131000000003,30226.417999999998,-0.09275998577370859,0.0,0.0,0.0,0.0,-0.014156485363443855,-4.538743074714065,-1.9178020729973282,-2.7315312719561478,0.014811257304007288,0.003274857861778307,0.23574527099374676
9277,0.0,300.15722,30196.269,-0.09276999544840592,0.0,0.0,0.0,0.0,-0.01415801298132957,-4.536086028976836,-1.9097819958058084,-2.7330437503804177,0.0014074048955250486,-0.01317279136230329,0.23325871471834278
9278,0.0,299.1824,29996.295,-0.09278000512310325,0.0,0.0,0.0,0.0,-0.014159540599215287,-4.510793989255705,-1.898127390505588,-2.7092032927525476,0.02069030866322448,0.00023893759649380478,0.23712560133997476
9279,0.0,299.97427000000005,30064.517999999996,-0.0927900147978008,0.0,0.0,0.0,0.0,-0.01416106821710103,-4.515775329397326,-1.8958005629759482,-2.7272869699372677,0.0022521852451233776,0.0024242640910562374,0.24967323461582977
9280,0.0,300.15757,30130.385,-0.09279999143726825,0.0,0.0,0.0,0.0,-0.01416259079334356,-4.517818142923936,-1.9078870154687884,-2.7331796272188273,0.010849455492507888,0.0007565326696289613,0.25951049480169175
9281,0.0,300.45392999999996,30125.502999999997,-0.0928100011119658,0.0,0.0,0.0,0.0,-0.014164118411229304,-4.514664604637705,-1.908678667771918,-2.734057507105468,0.0021190807603119876,-0.0013923147644357686,0.25906339819506674
9282,0.0,300.457,29943.555,-0.09282001078666313,0.0,0.0,0.0,0.0,-0.014165646029114992,-4.5135628978039755,-1.875888881285818,-2.7126412503418473,0.007503569507994653,-0.002249462946079708,0.2487221778069678
9283,0.0,300.60657000000003,29709.67,-0.0928299874261308,0.0,0.0,0.0,0.0,-0.01416716860535755,-4.461607890976416,-1.882197579058438,-2.687192258180227,0.003825986173395436,-0.001074584965653279,0.2142593026232468
9284,0.0,300.51701,29826.737,-0.09283999710082813,0.0,0.0,0.0,0.0,-0.014168696223243266,-4.479852978902066,-1.8892030889248281,-2.6975271052251975,0.005007118136089086,-0.015549798076645586,0.22052517031413976
9285,0.0,300.84206,30208.014,-0.09285000677552568,0.0,0.0,0.0,0.0,-0.01417022384112901,-4.522027082514326,-1.9065395954858084,-2.7539153852152873,0.003112764190280907,0.01077400281056129,0.22856424594503477
9286,0.0,299.56992,30177.563,-0.09286001645022302,0.0,0.0,0.0,0.0,-0.014171751459014725,-4.523246326359655,-1.909758488403488,-2.7402207021637275,-0.0023087843824592777,0.0013800894966792287,0.24496693108135378
9287,0.0,300.17578,30039.465,-0.09286999308969057,0.0,0.0,0.0,0.0,-0.014173274035257283,-4.497426889961476,-1.911167716642568,-2.722652566629887,-0.007072557030807034,0.018082796670383084,0.24473408620837375
9288,0.0,299.56194,30218.507,-0.09288000276438801,0.0,0.0,0.0,0.0,-0.014174801653142999,-4.535615070330355,-1.9222688847381681,-2.727787718136687,-0.014051346073509885,-0.00022092411727601277,0.25322470661383273
9289,0.0,299.68121,30287.197999999997,-0.09289001243908535,0.0,0.0,0.0,0.0,-0.014176329271028687,-4.542748047059326,-1.923124371797598,-2.740679299158987,0.004591155766611795,0.005108997292568775,0.25223672697132676
9290,0.0,300.18823,30104.592999999997,-0.0928999890785529,0.0,0.0,0.0,0.0,-0.014177851847271244,-4.533570027653525,-1.8961359487590481,-2.7213386852252177,0.009029253316842923,-0.01212663089905529,0.23919851852705576
9291,0.0,299.80663,29873.06,-0.09290999875325034,0.0,0.0,0.0,0.0,-0.01417937946515696,-4.477876229281976,-1.8904985291776781,-2.7122895512321374,0.017490064613634983,-0.005665620763453234,0.2312997679025098
9292,0.0,299.93532999999996,29770.968999999997,-0.09292000842794779,0.0,0.0,0.0,0.0,-0.014180907083042704,-4.468663151422716,-1.8666544238494482,-2.7143137209569077,0.021552768909842684,-0.004283926481265626,0.22424721283397678
9293,0.0,300.40803,29899.667999999998,-0.09292998506741523,0.0,0.0,0.0,0.0,-0.014182429659285234,-4.491324185934186,-1.8804130429823183,-2.7170154510235474,0.008021917962976664,0.007801967102819203,0.2383035552437298
9294,0.0,300.12832000000003,30113.979,-0.09293999474211279,0.0,0.0,0.0,0.0,-0.014183957277170978,-4.530285881429405,-1.906389735796018,-2.7172221540439474,-0.0028310305066009574,-0.003364529279728187,0.22195110704736878
9295,0.0,300.7928,30235.05,-0.09295000441681012,0.0,0.0,0.0,0.0,-0.014185484895056694,-4.521152647678026,-1.917958822787798,-2.7515886590106575,-0.014887708037302386,0.009734310935951689,0.22370257064022478
9296,0.0,301.04195,30101.832000000002,-0.09296001409150767,0.0,0.0,0.0,0.0,-0.01418701251294241,-4.515567815776845,-1.9237624153855681,-2.710874952767527,-0.01042042614841599,-0.017532314103054683,0.22713852199432677
9297,0.0,300.60713,30171.28,-0.09296999073097512,0.0,0.0,0.0,0.0,-0.01418853508918494,-4.509265400154845,-1.9188646683771984,-2.743185573281337,-0.005393795855151204,0.008050353003182983,0.2458452567980378
9298,0.0,300.31585,30356.116,-0.09298000040567267,0.0,0.0,0.0,0.0,-0.014190062707070683,-4.547330673286596,-1.9083923232936584,-2.7717782752032174,-0.01040330323497609,-0.0017447551679189283,0.27538539822592273
9299,0.0,300.231,30196.192000000003,-0.09299001008037,0.0,0.0,0.0,0.0,-0.014191590324956399,-4.5278684693408255,-1.916721543090688,-2.7342984579792473,-0.0014108012085352385,0.014581876733119187,0.25382705340077977
9300,0.0,299.47331,29796.4,-0.09299998671983767,0.0,0.0,0.0,0.0,-0.014193112901198957,-4.489369018541225,-1.8709726931256283,-2.697019973550147,0.006407568893527813,0.0004955124220457685,0.26762129840716575
9301,0.0,299.86262,29856.085,-0.093009996394535,0.0,0.0,0.0,0.0,-0.014194640519084673,-4.498662548458426,-1.8751994659177784,-2.7016423191813375,0.014972487686419487,0.013750391542057988,0.2253556476483708
9302,0.0,299.10022000000004,30135.613999999998,-0.09302000606923233,0.0,0.0,0.0,0.0,-0.014196168136970388,-4.524854759568395,-1.898857538527648,-2.7367617702973575,0.014848319966165088,-0.018884661521270982,0.2373191523740768
9303,0.0,299.4951,30168.209,-0.09303001574392988,0.0,0.0,0.0,0.0,-0.014197695754856104,-4.523805437764836,-1.8999475929852283,-2.746629002421177,0.013488301231441686,-0.005840944441506334,0.20018174275639983
9304,0.0,299.87157,30160.191000000003,-0.09303999238339733,0.0,0.0,0.0,0.0,-0.014199218331098634,-4.514020380224125,-1.9169406077623081,-2.7369839760442876,0.0012332996507171989,-0.015951680424058288,0.22914240645209477
9305,0.0,300.42127,30167.908,-0.09305000205809488,0.0,0.0,0.0,0.0,-0.014200745948984378,-4.536556886298306,-1.8936056606093283,-2.7401281924295975,-0.025857747384460974,0.0020026522443213884,0.24702480150444978
9306,0.0,300.37562,30286.417,-0.09306001173279221,0.0,0.0,0.0,0.0,-0.014202273566870094,-4.535723893391096,-1.9241870685024782,-2.7464036555989373,-0.020490275868232783,0.004772551548539165,0.25360596222895976
9307,0.0,300.65821,30393.272999999997,-0.09306998837225977,0.0,0.0,0.0,0.0,-0.014203796143112651,-4.547476581300995,-1.934825586602418,-2.756494005394777,-0.026445687781486177,0.013958176713564788,0.24647056383225077
9308,0.0,299.87126,30270.876,-0.0930799980469571,0.0,0.0,0.0,0.0,-0.014205323760998367,-4.541902489850875,-1.9122045754698984,-2.747483374905497,-0.001182716584525039,-0.006137227687347214,0.2531281540118038
9309,0.0,299.56942999999995,30082.189,-0.09309000772165466,0.0,0.0,0.0,0.0,-0.014206851378884111,-4.508075439237405,-1.9192284251630982,-2.716930439340157,0.006099216116470765,0.008822628215375612,0.2511165080582698
9310,0.0,299.53168,30049.138,-0.0930999843611221,0.0,0.0,0.0,0.0,-0.01420837395512664,-4.511170310342846,-1.8898518729638585,-2.733165441717427,0.024220562190883376,-0.00904593364263914,0.25460609074016477
9311,0.0,299.65744,30232.072999999997,-0.09310999403581965,0.0,0.0,0.0,0.0,-0.014209901573012357,-4.546474983577145,-1.9070979976159181,-2.736222417269127,-0.0018846793325283681,-0.00028013330580950474,0.2507255353746838
9312,0.0,300.38613,30130.269,-0.09312000371051699,0.0,0.0,0.0,0.0,-0.014211429190898073,-4.509398034592936,-1.9135239284251084,-2.7359272575149975,0.004146767273529066,0.00025121656650564476,0.23711482035891077
9313,0.0,300.45549,30020.028,-0.09313001338521432,0.0,0.0,0.0,0.0,-0.014212956808783789,-4.508540622358316,-1.8826357084016783,-2.7341626824658474,-0.0038206901177727562,0.014645125830861385,0.2221809932300568
9314,0.0,299.96488,30300.747000000003,-0.09313999002468198,0.0,0.0,0.0,0.0,-0.014214479385026346,-4.543705771053846,-1.923582360842798,-2.7433821438007375,0.017276477572055585,-0.002860121119621977,0.2169655720503348
9315,0.0,299.39598,30426.982999999997,-0.09314999969937932,0.0,0.0,0.0,0.0,-0.014216007002912062,-4.562204171504495,-1.924353241518878,-2.7624857585361173,-0.004154749353841836,0.0014205512076224886,0.21182568866556778
9316,0.0,299.36939,30304.737999999998,-0.09316000937407687,0.0,0.0,0.0,0.0,-0.014217534620797806,-4.556256697392525,-1.916862486179598,-2.7387645604450173,-0.0072609748385774235,-0.013882811171126788,0.24406576670741575
9317,0.0,298.95829,30158.01,-0.09316998601354431,0.0,0.0,0.0,0.0,-0.014219057197040336,-4.538551266470136,-1.910370086163848,-2.7183606418563073,-0.020635730959838082,0.006023457230343944,0.24676223800603678
9318,0.0,299.21182999999996,30097.119,-0.09317999568824187,0.0,0.0,0.0,0.0,-0.014220584814926052,-4.524688181251955,-1.8853654041710781,-2.7387189641905176,-0.01292513074636109,0.01044207727655279,0.25837104440173675
9319,0.0,298.98325,30117.199,-0.0931900053629392,0.0,0.0,0.0,0.0,-0.014222112432811768,-4.509535026006455,-1.9192219403624582,-2.7261195031720478,-0.00995560546706676,0.022618852909806978,0.23633145644159878
9320,0.0,299.95114,30222.987999999998,-0.09320001503763675,0.0,0.0,0.0,0.0,-0.014223640050697511,-4.519303668895546,-1.9132193454450483,-2.7545106696490373,-0.0012490832501749188,-0.007041827992374313,0.23357688538224378
9321,0.0,300.12066,30185.136000000002,-0.09320999167710409,0.0,0.0,0.0,0.0,-0.014225162626940041,-4.520075664146736,-1.9145782151541584,-2.7408736405281675,0.0033362145123087368,0.0070377362858204924,0.24150862743004578
9322,0.0,300.18321000000003,30060.877999999997,-0.09322000135180164,0.0,0.0,0.0,0.0,-0.014226690244825785,-4.523405001325315,-1.902772432939018,-2.7115788576119977,0.02260470489866068,-0.011922239102133388,0.22554675674973176
9323,0.0,300.54933,30276.738999999998,-0.09323001102649908,0.0,0.0,0.0,0.0,-0.014228217862711473,-4.552265505248625,-1.9052940071378783,-2.7458131334406577,0.016692732030444385,-0.005637572480810085,0.23964346704346878
9324,0.0,299.78251,30457.716,-0.09323998766596642,0.0,0.0,0.0,0.0,-0.01422974043895403,-4.549649800115475,-1.9385674178967083,-2.7701679168192874,0.0026849266309566275,-0.014819956056115786,0.22461148637742778
9325,0.0,299.91376,30305.359,-0.09324999734066397,0.0,0.0,0.0,0.0,-0.014231268056839746,-4.530273317128166,-1.916820740275478,-2.7649783537821175,-6.224776346337595e-05,0.009391864116879822,0.2326894302821588
9326,0.0,300.22463999999997,30116.047000000002,-0.0932600070153613,0.0,0.0,0.0,0.0,-0.014232795674725462,-4.516432726062205,-1.8980580841987482,-2.740035480045447,-0.005514566350470324,0.012343333684692188,0.21720283469375082
9327,0.0,299.87805,30158.407000000003,-0.09326998365482875,0.0,0.0,0.0,0.0,-0.014234318250967992,-4.551787352526436,-1.897818855850138,-2.717796464200627,-0.004370207767030926,0.012460890961294187,0.23555818449528276
9328,0.0,299.48125,30152.036,-0.0932799933295263,0.0,0.0,0.0,0.0,-0.014235845868853736,-4.568127428939075,-1.8827489897628582,-2.7145897302841475,-0.007564506571658673,-0.004882134242879136,0.25138444178221275
9329,0.0,299.52313,30116.025,-0.09329000300422385,0.0,0.0,0.0,0.0,-0.01423737348673948,-4.543782170111386,-1.8924388017941682,-2.7182988336002074,-0.014109480284747287,0.00786242398726083,0.2638155816940707
9330,0.0,299.54482,30092.269,-0.09330001267892118,0.0,0.0,0.0,0.0,-0.014238901104625168,-4.516619772030666,-1.895470648743388,-2.7352078499439973,-0.007239152775148754,-0.01849999530630738,0.25231053210861076
9331,0.0,299.78831,30232.577,-0.09330998931838863,0.0,0.0,0.0,0.0,-0.014240423680867725,-4.518268329943366,-1.9153813171834182,-2.756298650775497,0.016310167296188186,0.006889730539738463,0.24447924367572274
9332,0.0,300.06282999999996,30318.659,-0.09331999899308618,0.0,0.0,0.0,0.0,-0.014241951298753441,-4.521431899405586,-1.9366823674106681,-2.7580010122685077,0.022149276336463377,-0.008624906846512032,0.22423444588271677
9333,0.0,300.20001,30496.425,-0.09333000866778374,0.0,0.0,0.0,0.0,-0.014243478916639185,-4.576868636226766,-1.9307866703788084,-2.7624963976621673,0.03121148632208387,0.004864793581992746,0.2371576200431348
9334,0.0,300.06526,30474.998,-0.09333998530725096,0.0,0.0,0.0,0.0,-0.014245001492881687,-4.573988371492505,-1.9381686026573481,-2.7514816598000973,0.014187069911154785,-0.005962151647618555,0.23626844241787978
9335,0.0,300.07372000000004,30136.123,-0.09334999498194851,0.0,0.0,0.0,0.0,-0.01424652911076743,-4.534962739915976,-1.9064124325982583,-2.7192537204944474,0.0005925339562210485,-0.005944945850320474,0.2289191874550648
9336,0.0,300.41267999999997,30198.307999999997,-0.09336000465664607,0.0,0.0,0.0,0.0,-0.014248056728653175,-4.524260184409716,-1.9047448255836783,-2.7505265702558375,-0.013578030607297287,-0.01874486847122448,0.23317239594232375
9337,0.0,299.30192,30414.548,-0.0933700143313434,0.0,0.0,0.0,0.0,-0.014249584346538863,-4.5500737439573165,-1.920401262153848,-2.7747880333002577,-0.015924756342401085,-0.006867445724989124,0.2423925969497868
9338,0.0,299.95527999999996,30307.787,-0.09337999097081084,0.0,0.0,0.0,0.0,-0.01425110692278142,-4.535623480306186,-1.9133868356865782,-2.7638000452408273,-0.00948883215144982,0.012261777184143188,0.2355198532439998
9339,0.0,300.21661,30139.713,-0.09339000064550829,0.0,0.0,0.0,0.0,-0.014252634540667136,-4.541222801683795,-1.8999926826146782,-2.7205044764178874,-0.008220218606922413,0.011369178826550589,0.24323385797781277
9340,0.0,299.61706000000004,30257.737999999998,-0.09340001032020584,0.0,0.0,0.0,0.0,-0.01425416215855288,-4.551205442994005,-1.914704263466598,-2.731687211146537,-0.0038473963506584566,0.012442598757238887,0.24335230691450277
9341,0.0,300.05658999999997,30390.574,-0.09340998695967306,0.0,0.0,0.0,0.0,-0.014255684734795382,-4.576498394640225,-1.912100109384588,-2.7493772406674077,0.0006984765597092693,0.00015801878489523984,0.2432648431658708
9342,0.0,300.19237000000004,30528.217999999997,-0.09341999663437062,0.0,0.0,0.0,0.0,-0.014257212352681126,-4.558336697197805,-1.9421017355705181,-2.7793776509532173,0.006207149644947974,0.003143315099346047,0.24102447626726378
9343,0.0,299.92087000000004,30578.362999999998,-0.09343000630906817,0.0,0.0,0.0,0.0,-0.01425873997056687,-4.560018996338836,-1.955788920571338,-2.7792507920406972,0.011352996209203488,-0.01912152899714798,0.22963835184604078
9344,0.0,299.79886,30355.852000000003,-0.09344001598376572,0.0,0.0,0.0,0.0,-0.014260267588452585,-4.534354080580905,-1.9193059387957483,-2.7737609016738873,0.014121406238424289,-0.015039399683273186,0.24648854902152575
9345,0.0,299.91886,30182.33,-0.09344999262323295,0.0,0.0,0.0,0.0,-0.014261790164695115,-4.551352769558546,-1.9085602188352282,-2.7147615775011076,0.013685121010366287,-0.005185299787374246,0.23408450341734177
9346,0.0,299.82417000000004,30352.217999999997,-0.0934600022979305,0.0,0.0,0.0,0.0,-0.014263317782580831,-4.573130047332795,-1.905283469336838,-2.7479029617719077,-0.008733024989157461,0.007474989674349043,0.2654643219917887
9347,0.0,299.97624,30432.199,-0.09347001197262805,0.0,0.0,0.0,0.0,-0.014264845400466575,-4.582166617024637,-1.9064239836493981,-2.762038003316927,-0.018317816991327784,0.0094275698345037,0.25324539718087474
9348,0.0,299.96775,30255.197,-0.0934799886120955,0.0,0.0,0.0,0.0,-0.014266367976709105,-4.5451562385719955,-1.908897833768548,-2.742770343390357,-0.011213110953397889,0.003517777176527577,0.2519669086021977
9349,0.0,300.81142,30248.849,-0.09348999828679283,0.0,0.0,0.0,0.0,-0.01426789559459482,-4.544253230082876,-1.9099311462205282,-2.7407103046120476,-0.0072869199179880035,-0.0009498254060154691,0.23718557561339376
9350,0.0,300.10348999999997,30497.993,-0.09350000796149038,0.0,0.0,0.0,0.0,-0.014269423212480564,-4.561232160683566,-1.9383201848723082,-2.771075991558907,0.006981987670618534,-0.0072116074698552425,0.23669255851223678
9351,0.0,300.34817000000004,30598.53,-0.09350998460095783,0.0,0.0,0.0,0.0,-0.014270945788723094,-4.5781628605794955,-1.964780197983708,-2.7582459148176772,0.0011399086929752289,-0.01051805380880109,0.2304393868450968
9352,0.0,300.10458,30464.877,-0.09351999427565516,0.0,0.0,0.0,0.0,-0.01427247340660881,-4.544005085133386,-1.946032335358438,-2.7705243782044673,0.0021117632707398078,0.004905172206427805,0.24040482316860878
9353,0.0,300.18234,30328.019,-0.09353000395035282,0.0,0.0,0.0,0.0,-0.014274001024494554,-4.5338349925546755,-1.9423744011724284,-2.7427509903134477,0.005398461770536695,0.0015873247773567586,0.2343871510897108
9354,0.0,299.80518,30261.799,-0.09354001362505027,0.0,0.0,0.0,0.0,-0.01427552864238027,-4.527649303344195,-1.9119257290423783,-2.759256226492387,0.02008377917986468,0.014112395405284988,0.2319232916165468
9355,0.0,299.31382,30358.481,-0.0935499902645176,0.0,0.0,0.0,0.0,-0.0142770512186228,-4.556259230517775,-1.9278076137597981,-2.7441533284518473,0.0064670729175754045,-0.005641381085285964,0.22470410756906878
9356,0.0,299.1745,30408.677000000003,-0.09355999993921504,0.0,0.0,0.0,0.0,-0.014278578836508515,-4.568673469417965,-1.9271959146744282,-2.7476089165928874,0.007746701706589932,-0.010041551468373969,0.24587068937554776
9357,0.0,299.46679,30273.746,-0.09357000961391271,0.0,0.0,0.0,0.0,-0.014280106454394287,-4.5714128923883255,-1.901035722267618,-2.7300140312564074,0.0030853151437468976,-0.011216834647515389,0.2593154441574418
9358,0.0,299.94748,30305.513,-0.09357998625337993,0.0,0.0,0.0,0.0,-0.014281629030636789,-4.561628544122685,-1.9061824248255583,-2.7443082543921373,-0.014221323844035384,0.008709816799591992,0.26606858382142473
9359,0.0,300.75737000000004,30658.97,-0.09358999592807749,0.0,0.0,0.0,0.0,-0.014283156648522533,-4.597793061391846,-1.932490653071978,-2.7892776110552675,-0.007948685413324172,0.0077756094279679035,0.2646307819295247
9360,0.0,300.30202,30679.185,-0.09360000560277504,0.0,0.0,0.0,0.0,-0.014284684266408249,-4.598391385575895,-1.940462195583708,-2.786852498265927,-0.027472860951110276,0.01114714938513799,0.24905204137702275
9361,0.0,300.48162,30549.097,-0.09361001527747237,0.0,0.0,0.0,0.0,-0.014286211884293964,-4.5913070448517255,-1.9462188747018483,-2.7486366561693174,0.005089725579641806,0.0025495281479188375,0.22787451646946377
9362,0.0,300.77464,30492.839,-0.09361999191693982,0.0,0.0,0.0,0.0,-0.014287734460536494,-4.590550856302095,-1.9342171299173683,-2.744293562265687,0.003560306930924937,-0.003149759876607097,0.23499326716702978
9363,0.0,299.79578,30375.052000000003,-0.09363000159163715,0.0,0.0,0.0,0.0,-0.01428926207842221,-4.569800406179186,-1.9192246761377283,-2.7442323619596474,0.032675001461771574,-0.006958225739873414,0.23422031946074576
9364,0.0,299.73201,30255.662999999997,-0.09364001126633492,0.0,0.0,0.0,0.0,-0.014290789696307982,-4.548549207856855,-1.8988078892727482,-2.749609072290287,0.008323411036856711,-0.006451129731226934,0.25271985475150777
9365,0.0,300.3992,30223.517000000003,-0.09364998790580215,0.0,0.0,0.0,0.0,-0.014292312272550484,-4.5358894584574365,-1.8964783259678382,-2.7548266010302176,0.02076198192229808,-0.014907433990249186,0.25617387235489275
9366,0.0,299.93926,30388.493,-0.0936599975804997,0.0,0.0,0.0,0.0,-0.014293839890436227,-4.547335030262026,-1.927012617731338,-2.762995524661427,-0.005315873072110824,-0.0014995945439484585,0.25394706274262374
9367,0.0,299.8102,30431.542,-0.09367000725519725,0.0,0.0,0.0,0.0,-0.014295367508321943,-4.580294738789895,-1.9140281216748682,-2.756105930606477,0.004573348098754316,-0.004261856171562457,0.23872010235983976
9368,0.0,300.02758,30569.013,-0.09367998389466459,0.0,0.0,0.0,0.0,-0.014296890084564473,-4.589452087893655,-1.949563005331888,-2.7532015505198375,-0.008617200978176521,0.017634954311684485,0.2356029093546968
9369,0.0,299.74632,30593.255,-0.09368999356936203,0.0,0.0,0.0,0.0,-0.014298417702450189,-4.577155791305105,-1.9453510259911981,-2.777078789126337,-0.006205793713664154,0.0018866612497239685,0.24676067760088274
9370,0.0,299.80992000000003,30540.42,-0.09370000324405958,0.0,0.0,0.0,0.0,-0.014299945320335933,-4.557814366771256,-1.935937324612138,-2.789773394329197,-0.019465181887813883,0.017602574891488882,0.26073338634738175
9371,0.0,299.71107,30507.833,-0.09371001291875702,0.0,0.0,0.0,0.0,-0.014301472938221677,-4.551641951137086,-1.946932405422268,-2.775045196175637,-0.008194097525969462,0.001042799816641329,0.2365099201817118
9372,0.0,300.28289,30491.821,-0.09371998955822447,0.0,0.0,0.0,0.0,-0.014302995514464206,-4.570367116960116,-1.9152945829748582,-2.783090401969637,-0.006500101121810034,0.017080408611455086,0.24535422566707676
9373,0.0,300.01599,30374.654,-0.0937299992329218,0.0,0.0,0.0,0.0,-0.014304523132349922,-4.577183858332876,-1.928449406373138,-2.7275031975086077,0.004348082133872296,-0.004774439030825446,0.2138088926887948
9374,0.0,300.71047000000004,30279.621,-0.09374000890761935,0.0,0.0,0.0,0.0,-0.014306050750235638,-4.556079682600055,-1.9069369921750283,-2.7412321284135475,0.003984903001854306,-0.005994412618877464,0.24014749817321276
9375,0.0,300.71267,30422.327,-0.0937499855470868,0.0,0.0,0.0,0.0,-0.014307573326478168,-4.578996360111756,-1.911220709622798,-2.7574107940852577,0.017105867533467684,-0.02167953561660358,0.2397874194851758
9376,0.0,299.92832999999996,30568.35,-0.09375999522178413,0.0,0.0,0.0,0.0,-0.014309100944363884,-4.577348004849076,-1.9137839284007683,-2.800883175050647,0.014955796417522184,-0.002091784511893058,0.2883160096420747
9377,0.0,299.99582999999996,30607.218999999997,-0.09377000489648168,0.0,0.0,0.0,0.0,-0.014310628562249628,-4.5762518708908955,-1.9280640673601084,-2.7995144768155673,0.005135782660287285,0.001184682188394029,0.25837941384756274
9378,0.0,300.31487000000004,30680.697,-0.09378001457117924,0.0,0.0,0.0,0.0,-0.014312156180135371,-4.579387069350315,-1.9502931533539483,-2.7964856696166476,-0.007223176252871993,0.023070871885417777,0.2697596107557007
9379,0.0,299.90459,30600.527000000002,-0.09378999121064668,0.0,0.0,0.0,0.0,-0.014313678756377901,-4.600138330073306,-1.944779451609788,-2.7568784324827176,-0.022267714127402277,0.013490956959953788,0.2233679549272008
9380,0.0,300.13268,30644.516,-0.09380000088534401,0.0,0.0,0.0,0.0,-0.014315206374263617,-4.595324074873176,-1.9428821407975383,-2.7769613534397473,-0.02180653233113718,0.03151039408833377,0.24701872200384978
9381,0.0,300.35896,30583.63,-0.09381001056004157,0.0,0.0,0.0,0.0,-0.014316733992149333,-4.590266234349006,-1.942152296750508,-2.764241416984387,-0.01951815966929238,-0.0020240884621119783,0.2260728665991548
9382,0.0,300.30785,30460.479,-0.09381998719950901,0.0,0.0,0.0,0.0,-0.014318256568391863,-4.5501957392693555,-1.9244107941245583,-2.784618383120437,0.008102245897779413,-0.00031346690362427473,0.25532231670585076
9383,0.0,299.74285,30303.612999999998,-0.09382999687420657,0.0,0.0,0.0,0.0,-0.014319784186277607,-4.537806527646636,-1.915849438729618,-2.757885704407127,0.009424574667208101,-0.03306059682707687,0.2327995503030268
9384,0.0,300.12032,30440.695,-0.0938400065489039,0.0,0.0,0.0,0.0,-0.014321311804163323,-4.551897594137316,-1.934742702744238,-2.766570777639277,0.040017889160958164,-0.007193320636025473,0.23695938779357079
9385,0.0,299.72222999999997,30618.924,-0.09385001622360145,0.0,0.0,0.0,0.0,-0.014322839422049066,-4.605644432441715,-1.928806475708378,-2.7729373319926074,0.02053339269973808,-0.018606922576110282,0.2341542656867268
9386,0.0,300.29253,30672.502,-0.09385999286306879,0.0,0.0,0.0,0.0,-0.014324361998291596,-4.597668938254595,-1.955991570591338,-2.770014308104127,0.017081191853782384,0.003378434921450567,0.2346698174701078
9387,0.0,300.40549,30612.298,-0.09387000253776623,0.0,0.0,0.0,0.0,-0.014325889616177312,-4.601489093781616,-1.9317277770716879,-2.7721572307406177,-0.0028290736166828273,-0.008531377782781431,0.2531174844882508
9388,0.0,300.62257,30646.282000000003,-0.09388001221246378,0.0,0.0,0.0,0.0,-0.014327417234063028,-4.597864799498925,-1.921025322890438,-2.796814367949087,-0.01921594769446638,0.00968364984950183,0.2738313360175487
9389,0.0,299.84592999999995,30689.092999999997,-0.09388998885193112,0.0,0.0,0.0,0.0,-0.014328939810305558,-4.588318463681776,-1.938864097525988,-2.801535302815007,-0.012868993651070788,0.01013567145956289,0.27082176030552674
9390,0.0,300.38825,30626.545,-0.09389999852662867,0.0,0.0,0.0,0.0,-0.014330467428191301,-4.592424051761966,-1.9259243871239382,-2.7913562936354173,-0.02272757464553698,0.014025326824191985,0.25145379875155777
9391,0.0,299.49844,30502.127,-0.093910008201326,0.0,0.0,0.0,0.0,-0.014331995046077017,-4.582083530516436,-1.9322991488030783,-2.7575022905692874,-0.00951051661551491,0.0038906402437262964,0.22529423455980982
9392,0.0,299.74526000000003,30451.936,-0.09391998484079367,0.0,0.0,0.0,0.0,-0.014333517622319575,-4.591346460280616,-1.9224339431794581,-2.742847654372987,-0.007492130117015673,0.01155933749931779,0.2321541910493348
9393,0.0,299.52535,30471.892999999996,-0.093929994515491,0.0,0.0,0.0,0.0,-0.01433504524020529,-4.577295721143916,-1.9247562110836482,-2.7606425552792078,0.008171112960701062,0.004114754548544656,0.22999220917846377
9394,0.0,299.9498,30574.263,-0.09394000419018855,0.0,0.0,0.0,0.0,-0.014336572858091035,-4.589126530636525,-1.9269034906955682,-2.7777825926457975,0.002229689167728188,-0.01136906128953899,0.25718765947744576
9395,0.0,300.04196,30590.572,-0.09395001386488588,0.0,0.0,0.0,0.0,-0.014338100475976723,-4.571982642919555,-1.930345501285268,-2.7964416945623074,0.017195726605336085,-0.018897643281552183,0.24839695492237074
9396,0.0,300.28901,30475.476000000002,-0.09395999050435355,0.0,0.0,0.0,0.0,-0.01433962305221928,-4.570568348429975,-1.9390936999986483,-2.754121682935647,0.016612628530538784,0.002652525831183918,0.25355717423664476
9397,0.0,300.13343,30638.987,-0.09397000017905088,0.0,0.0,0.0,0.0,-0.014341150670104996,-4.585851706313325,-1.9551997156381882,-2.772435469218077,0.028418597183697172,-0.004186216139672366,0.24222687989593175
9398,0.0,300.53965,30959.991,-0.09398000985374821,0.0,0.0,0.0,0.0,-0.014342678287990712,-4.627897228487896,-1.9762972039203481,-2.8068696592914675,0.0006849052297248834,0.004071409735766856,0.23759756310405378
9399,0.0,300.39878999999996,30843.254,-0.09398998649321577,0.0,0.0,0.0,0.0,-0.01434420086423327,-4.626245833474916,-1.9674386622710782,-2.7818945642016173,0.0005588460248463085,0.00930472450695481,0.24588598945205778
9400,0.0,300.69884,30571.255,-0.09399999616791321,0.0,0.0,0.0,0.0,-0.014345728482118986,-4.582771324684316,-1.9367370829160682,-2.773389748162258,-0.017118399410704484,0.014501283833415287,0.24287523836991978
9401,0.0,300.29208,30519.884,-0.09401000584261077,0.0,0.0,0.0,0.0,-0.01434725610000473,-4.579933008504195,-1.9236386975483581,-2.7737108471189473,-0.018469777148575083,0.014742622781983588,0.25694177407567875
9402,0.0,300.33651000000003,30620.634,-0.0940200155173081,0.0,0.0,0.0,0.0,-0.014348783717890418,-4.582421145449755,-1.948239092751228,-2.7772479005680273,-0.018415372710955783,-0.008164758058723881,0.2342957356656888
9403,0.0,300.04902999999996,30664.682,-0.09402999215677565,0.0,0.0,0.0,0.0,-0.014350306294132975,-4.604889155817176,-1.927561393985498,-2.788847081087777,0.0096324510312239,-0.011817824692578489,0.25200164281562576
9404,0.0,300.38154,30590.952,-0.09404000183147299,0.0,0.0,0.0,0.0,-0.014351833912018691,-4.583231644204745,-1.9431449778734784,-2.7725087272003077,0.003709764259100226,-0.0030814669211921067,0.23166671642622477
9405,0.0,299.78221,30560.366,-0.09405001150617054,0.0,0.0,0.0,0.0,-0.014353361529904435,-4.593556460073725,-1.9290548233078881,-2.7669767869543476,0.022155739858851276,0.0030012774976780274,0.25393642361657376
9406,0.0,299.48245,30729.168999999998,-0.09405998814563798,0.0,0.0,0.0,0.0,-0.014354884106146965,-4.609386466386026,-1.940725944584738,-2.7907877590043073,0.011030839419409091,-0.011261279849901789,0.24864544437689476
9407,0.0,299.47586,30894.287999999997,-0.09406999782033554,0.0,0.0,0.0,0.0,-0.014356411724032708,-4.627018132701136,-1.953082529554238,-2.8109915606982674,0.02026292382404488,-0.001893713673069988,0.25815172641759176
9408,0.0,299.77194,30721.119,-0.09408000749503287,0.0,0.0,0.0,0.0,-0.014357939341918396,-4.597814238318936,-1.948289349956188,-2.7923496840334576,0.024458689136634678,0.0027111376885184577,0.26241558416340177
9409,0.0,299.49942999999996,30547.542,-0.09408998413450054,0.0,0.0,0.0,0.0,-0.014359461918160982,-4.5667316769263255,-1.9535137687967983,-2.7654444488281174,-0.0033545434973426664,0.0010199310658593592,0.24361558982048676
9410,0.0,300.4266,30703.528,-0.09409999380919787,0.0,0.0,0.0,0.0,-0.01436098953604667,-4.5934977928929355,-1.948626255614438,-2.7909818977234675,-0.015107443480488586,-0.009411038051172141,0.24194614882322577
9411,0.0,299.98177999999996,30868.229,-0.0941100034838952,0.0,0.0,0.0,0.0,-0.014362517153932386,-4.632961655137716,-1.9546647195853881,-2.7955443602737473,-0.025473260514765075,0.0033292862120999664,0.2417592953722848
9412,0.0,300.27582,30674.084,-0.09412001315859275,0.0,0.0,0.0,0.0,-0.01436404477181813,-4.6194943454085955,-1.9453176900629083,-2.7593436699760177,-0.0022871483517489678,0.01865654649975778,0.23665462242849275
9413,0.0,300.34067999999996,30364.014,-0.0941299897980602,0.0,0.0,0.0,0.0,-0.01436556734806066,-4.580034941464255,-1.903829556768348,-2.7460375683378078,-0.02210188561603628,0.010613906255010989,0.2253879703265608
9414,0.0,300.13707999999997,30553.666,-0.09413999947275775,0.0,0.0,0.0,0.0,-0.014367094965946403,-4.581337778442836,-1.9433096310147284,-2.7629042308274174,-0.003852517924613916,-0.016175379701635684,0.2199060441055368
9415,0.0,300.23056,30890.05,-0.09415000914745508,0.0,0.0,0.0,0.0,-0.014368622583832091,-4.621604742716875,-1.9579940567639682,-2.8102050759706474,0.01851911533569438,-0.024412640972590077,0.2335121690983568
9416,0.0,299.93116000000003,30940.834,-0.09415998578692264,0.0,0.0,0.0,0.0,-0.014370145160074677,-4.615404462704955,-1.964067477863368,-2.8257691041316972,0.03475136977869317,-0.01005118849007507,0.24697070408161073
9417,0.0,299.13293,30782.028,-0.09416999546162008,0.0,0.0,0.0,0.0,-0.014371672777960365,-4.617426099304475,-1.960658499226928,-2.7788831849044175,0.009527137564855272,-0.004517149195207916,0.25773022450849276
9418,0.0,299.34071,30659.13,-0.09418000513631752,0.0,0.0,0.0,0.0,-0.014373200395846109,-4.603999015604325,-1.9384869658387682,-2.7771240814058076,0.002219649480437348,-0.002007114800411808,0.26134828730306775
9419,0.0,299.51016,30759.634,-0.09419001481101497,0.0,0.0,0.0,0.0,-0.014374728013731825,-4.617109863948266,-1.939233528512448,-2.7938173768033074,-0.009188120394721881,0.0044967619952458555,0.26537913805588176
9420,0.0,300.13239,30967.732999999997,-0.09419999145048252,0.0,0.0,0.0,0.0,-0.014376250589974382,-4.629281632099525,-1.9660784753368379,-2.818057561595627,0.0003624749738609947,0.010313946735157292,0.25099380347115974
9421,0.0,300.27224,30766.863999999998,-0.09421000112517985,0.0,0.0,0.0,0.0,-0.014377778207860098,-4.598858189896966,-1.9367917984214682,-2.8167083177624677,-0.017468444896251285,-0.0005345892632823524,0.2504843413208797
9422,0.0,300.02967,30452.134,-0.0942200107998773,0.0,0.0,0.0,0.0,-0.014379305825745786,-4.565655706645136,-1.9350218531467882,-2.7560108877470975,-0.006081019867199933,-0.010397260211379688,0.22167421619254177
9423,0.0,300.34832,30606.004,-0.09422998743934485,0.0,0.0,0.0,0.0,-0.014380828401988371,-4.607164307591716,-1.928589234886938,-2.767707644251477,-0.0016400645463867686,0.01193501314614409,0.25100610432737375
9424,0.0,300.10225,30808.332000000002,-0.09423999711404218,0.0,0.0,0.0,0.0,-0.01438235601987406,-4.633177376084006,-1.954754493544248,-2.7770316729966873,0.010347470114715792,0.02158565900808868,0.2396065239448228
9425,0.0,299.55277,30830.179,-0.09425000678873974,0.0,0.0,0.0,0.0,-0.014383883637759803,-4.619205366480076,-1.961004220161048,-2.791394999789237,0.014709992075763187,0.016617682622037583,0.24926239209778275
9426,0.0,299.39791,30769.975,-0.09426001646343707,0.0,0.0,0.0,0.0,-0.01438541125564552,-4.606620901563086,-1.9513753044607483,-2.7953078677004073,0.0019403822501508183,-0.0008699664540215043,0.25261068718573376
9427,0.0,299.23495,30750.498,-0.09426999310290474,0.0,0.0,0.0,0.0,-0.014386933831888077,-4.603932749047786,-1.953585912203918,-2.7898649921382375,0.006006492687894675,-0.004207348078457926,0.26142600358573775
9428,0.0,299.82882,30835.905,-0.09428000277760207,0.0,0.0,0.0,0.0,-0.014388461449773793,-4.622003051331186,-1.944100574042788,-2.8072414207531575,0.007460181936062633,-0.01856166170739338,0.26549103126442475
9429,0.0,300.53128,30893.125,-0.09429001245229962,0.0,0.0,0.0,0.0,-0.014389989067659509,-4.634824718096587,-1.9536268475079583,-2.802286931739187,0.0016091908158397683,-0.008128898023109772,0.2646584740547578
9430,0.0,300.25559,30688.1,-0.09429998909176707,0.0,0.0,0.0,0.0,-0.014391511643902066,-4.601882032170396,-1.9503941743889182,-2.7761400129086873,-0.01875297953827498,-0.018230768675236785,0.2400571567942968
9431,0.0,300.39497,30521.324,-0.09430999876646451,0.0,0.0,0.0,0.0,-0.014393039261787782,-4.594353077302346,-1.926211136902238,-2.7571561643351274,-0.0018569507302917683,0.015932392195154684,0.24278142154316076
9432,0.0,300.47056000000003,30666.917999999998,-0.09432000844116195,0.0,0.0,0.0,0.0,-0.014394566879673498,-4.609773629249236,-1.949861914111388,-2.7623418770219175,-0.012706320400516188,0.016452145926700384,0.22187723098257778
9433,0.0,299.69415,30915.922000000002,-0.09432998508062929,0.0,0.0,0.0,0.0,-0.014396089455916028,-4.630956737164846,-1.9637152721286082,-2.802996308134197,0.0005402079580018745,0.02092342306073108,0.23563030763740078
9434,0.0,300.10861,30898.904,-0.09433999475532684,0.0,0.0,0.0,0.0,-0.014397617073801772,-4.630159410661155,-1.956427774759388,-2.8059079836215575,0.0015959439893324084,-0.013186572576913386,0.2284928726079908
9435,0.0,299.87389,30803.376,-0.09435000443002428,0.0,0.0,0.0,0.0,-0.014399144691687488,-4.616666668354526,-1.956822840973378,-2.7899678370233874,0.008537564181266982,-0.002917322938117357,0.26404477886669075
9436,0.0,299.85555,30827.513,-0.09436001410472172,0.0,0.0,0.0,0.0,-0.014400672309573204,-4.618941617479045,-1.9442301687305783,-2.8076225041157676,0.006329645603862384,-0.022272466270371275,0.24903974052080877
9437,0.0,299.97427000000005,31069.067000000003,-0.09436999074418917,0.0,0.0,0.0,0.0,-0.014402194885815761,-4.647749027097116,-1.971305022002658,-2.8251665242972273,0.0015484070569158786,-0.01011157373773463,0.2851938010489367
9438,0.0,300.13192000000004,31069.933999999997,-0.09438000041888672,0.0,0.0,0.0,0.0,-0.014403722503701477,-4.649087125179175,-1.979882893374228,-2.815514101194607,0.0029272316121702674,-0.0054337059527400245,0.24922000784609977
9439,0.0,300.11225,30895.256,-0.09439001009358405,0.0,0.0,0.0,0.0,-0.014405250121587193,-4.637861833946325,-1.9508507448839782,-2.8026736893023574,0.012948285537646287,0.0067692869189016035,0.26479636726086675
9440,0.0,300.3617,30719.63,-0.0943999867330515,0.0,0.0,0.0,0.0,-0.014406772697829723,-4.615103628750266,-1.9488801760894983,-2.7740165446741174,0.013803086626758589,0.0054638835804683246,0.23685573230834078
9441,0.0,300.00897000000003,30704.315,-0.09440999640774905,0.0,0.0,0.0,0.0,-0.014408300315715467,-4.6102583680970755,-1.9390997794992482,-2.783987026983127,-0.010802610913884689,0.008105573816407852,0.24315180498471478
9442,0.0,300.22309,30886.501,-0.0944200060824466,0.0,0.0,0.0,0.0,-0.01440982793360121,-4.606499210226076,-1.969117820336798,-2.813107936182137,-0.011032559918078888,-0.0030905175750603375,0.22320889492650275
9443,0.0,300.52713,30827.817000000003,-0.09443001575714394,0.0,0.0,0.0,0.0,-0.014411355551486899,-4.634279082917736,-1.9422834113134482,-2.7943241031783175,-0.015645738675614185,0.005519395399121915,0.24451740267448877
9444,0.0,300.70156000000003,30725.997000000003,-0.0944399923966116,0.0,0.0,0.0,0.0,-0.014412878127729484,-4.614933098758436,-1.944880269994738,-2.7801225924267374,-0.007963740688610011,-0.0033280232971753267,0.23983359329223278
9445,0.0,300.16134,30839.222999999998,-0.09445000207130894,0.0,0.0,0.0,0.0,-0.014414405745615172,-4.631979106515745,-1.9530438234004184,-2.7893308066855176,-0.003111083816315067,-0.006350238392269733,0.25354880479081876
9446,0.0,299.61804,31056.982999999997,-0.09446001174600627,0.0,0.0,0.0,0.0,-0.014415933363500888,-4.6461143507107865,-1.9766213426273382,-2.8178114431463372,0.015973017444664086,-0.016869402317880384,0.26641667576077877
9447,0.0,300.30165,31115.286,-0.09446998838547371,0.0,0.0,0.0,0.0,-0.014417455939743418,-4.647395200162196,-1.974105949254088,-2.836768845892287,0.012218309768103288,0.001072384693061129,0.28650076195542373
9448,0.0,300.33793,31012.676,-0.09447999806017127,0.0,0.0,0.0,0.0,-0.014418983557629161,-4.6243089045837555,-1.9756514596316181,-2.8271188545899073,0.02699755444845118,-0.003378979442054307,0.2685166467255297
9449,0.0,300.37809,30930.536,-0.09449000773486882,0.0,0.0,0.0,0.0,-0.014420511175514905,-4.641882714318156,-1.952457658217568,-2.8077703373053575,0.0009304457414228451,0.00818264790116447,0.27177895740999475
9450,0.0,300.12645,30929.517999999996,-0.09449998437433604,0.0,0.0,0.0,0.0,-0.014422033751757407,-4.629769410697666,-1.971813470902838,-2.800218280335027,0.0033960778348417864,0.005258512781299805,0.22589236622634082
9451,0.0,299.93512000000004,30977.881,-0.09450999404903371,0.0,0.0,0.0,0.0,-0.014423561369643179,-4.648098801031636,-1.9699884048227183,-2.7984149991320577,-0.015363881882047088,0.013474544334833987,0.24889112712864175
9452,0.0,299.87663,30963.77,-0.09452000372373104,0.0,0.0,0.0,0.0,-0.014425088987528867,-4.639981046530475,-1.9575719367723081,-2.814659931360308,-0.002234241903077508,0.0054327854150241755,0.22880450780874675
9453,0.0,299.72876,30734.99,-0.09453001339842859,0.0,0.0,0.0,0.0,-0.01442661660541461,-4.594752905791806,-1.949459957796718,-2.7984565423861576,-0.01790129014021978,-0.0071055182592100535,0.2510416491408818
9454,0.0,299.92402999999996,30594.168999999998,-0.09453999003789582,0.0,0.0,0.0,0.0,-0.014428139181657113,-4.569830195732125,-1.934024308423338,-2.7960091380946177,0.006505008596019364,-0.011571083094476988,0.24697543595957777
9455,0.0,300.28612999999996,30923.597,-0.09454999971259359,0.0,0.0,0.0,0.0,-0.014429666799542884,-4.628312965003925,-1.9579816951127482,-2.813706868316247,-0.008730083220142132,0.012326770085307488,0.27330267277787373
9456,0.0,299.91098,31125.177000000003,-0.09456000938729092,0.0,0.0,0.0,0.0,-0.0144311944174286,-4.661997653978346,-1.973054600950328,-2.8262242560766175,0.02003556671360648,0.007036332326481933,0.25944188763742076
9457,0.0,300.16986,31031.811,-0.09456998602675837,0.0,0.0,0.0,0.0,-0.01443271699367113,-4.672788666218336,-1.9677537830521783,-2.7923533317338176,0.0035502076645282164,0.015037729847108383,0.2520194658848848
9458,0.0,300.36921,30966.749,-0.09457999570145592,0.0,0.0,0.0,0.0,-0.014434244611556873,-4.6373710155978864,-1.973702777039298,-2.8020446636402774,0.01036241048744029,0.012829324909655788,0.24367515879386575
9459,0.0,300.33969,31072.392000000003,-0.09459000537615325,0.0,0.0,0.0,0.0,-0.014435772229442562,-4.649038793149406,-1.962066004940838,-2.8341263909564973,0.0003236081287076357,0.019222542939367284,0.25021151359895377
9460,0.0,300.29722999999996,31189.486,-0.0946000150508508,0.0,0.0,0.0,0.0,-0.014437299847328305,-4.6502022069142255,-1.987605480336388,-2.8430171539589475,-0.005939558095563745,-0.004389506533735566,0.24944319644562676
9461,0.0,300.57478,31047.807999999997,-0.09460999169031803,0.0,0.0,0.0,0.0,-0.014438822423570807,-4.654270811365766,-1.963879013344768,-2.8196086448487074,-0.0024145378020213274,-0.006138692036391734,0.24994409663256173
9462,0.0,299.74633,30780.607000000004,-0.0946200013650158,0.0,0.0,0.0,0.0,-0.014440350041456579,-4.618387774974386,-1.9442137540789581,-2.7939345085148672,-0.012779537852742186,-0.01911412619191738,0.22819860451394877
9463,0.0,300.23422,30707.299,-0.09463001103971314,0.0,0.0,0.0,0.0,-0.014441877659342295,-4.633924850682775,-1.932012297699768,-2.768315087686427,0.0032323263848557772,0.007171584800180313,0.24539475567107677
9464,0.0,299.5867,30895.217,-0.09463998767918058,0.0,0.0,0.0,0.0,-0.014443400235584825,-4.639026868911305,-1.9522005966671983,-2.8001469475279874,-0.017025019294738587,-0.007036952435543134,0.23654796772296677
9465,0.0,299.155,31108.045,-0.09464999735387802,0.0,0.0,0.0,0.0,-0.014444927853470568,-4.652597226175596,-1.9644883819549084,-2.838983303985837,-0.0058602793812395455,0.00905828749183337,0.27328895337151976
9466,0.0,299.44,31097.727000000003,-0.09466000702857558,0.0,0.0,0.0,0.0,-0.014446455471356284,-4.644049752307025,-1.975280508770008,-2.833602439329787,-0.004775240106354506,-0.006725463548101574,0.2579903764716677
9467,0.0,300.42361,31024.212000000003,-0.0946699836680428,0.0,0.0,0.0,0.0,-0.014447978047598786,-4.633194094710656,-1.9656517957197284,-2.831739984320977,0.013299541857062587,0.015000972173230685,0.27236596359042775
9468,0.0,299.58526,31021.082000000002,-0.09467999334274035,0.0,0.0,0.0,0.0,-0.01444950566548453,-4.654105347624436,-1.970536269151788,-2.8049926134812178,0.007819779735602172,-0.003924956187513017,0.24370779557958677
9469,0.0,299.99868,31226.145,-0.09469000301743791,0.0,0.0,0.0,0.0,-0.014451033283370274,-4.678302671937526,-1.993679205410818,-2.819986384485987,0.02099748759004068,-0.0026236847816625275,0.25537969705901375
9470,0.0,299.87646,31038.904,-0.09470001269213524,0.0,0.0,0.0,0.0,-0.01445256090125599,-4.646614693610165,-1.9771559333800979,-2.811281046251837,0.009010760489267822,-0.008024739965830172,0.23982025892091677
9471,0.0,300.02255,30773.75,-0.09470998933160268,0.0,0.0,0.0,0.0,-0.01445408347749852,-4.612582865151486,-1.9435933410427282,-2.7982752719432673,0.012038329192590588,0.00997622429600168,0.2557688661574218
9472,0.0,299.84859,30805.977000000003,-0.09471999900630024,0.0,0.0,0.0,0.0,-0.014455611095384263,-4.614129287454105,-1.9456887422495284,-2.8044296517256577,-0.01115294314920979,0.0026525820665644676,0.2585333974652597
9473,0.0,299.84547000000003,30927.101000000002,-0.09473000868099779,0.0,0.0,0.0,0.0,-0.014457138713269979,-4.625207758747466,-1.952798110251168,-2.823060585289387,-0.008378627594431162,-0.00894274617763033,0.25033482613612373
9474,0.0,299.65344,31125.424,-0.09473998532046501,0.0,0.0,0.0,0.0,-0.014458661289512481,-4.661324754586936,-1.9724267911883682,-2.8275999457373873,-0.025124208014316276,-0.010644091988740091,0.24445200751303475
9475,0.0,299.64181,31218.978,-0.09474999499516257,0.0,0.0,0.0,0.0,-0.014460188907398225,-4.672456725485575,-1.983719159577838,-2.8336137877309073,-0.013323274200904787,0.006133240142903675,0.24921933910103375
9476,0.0,299.37231,31077.491,-0.09476000466986012,0.0,0.0,0.0,0.0,-0.014461716525283969,-4.648823781478186,-1.9764008594055782,-2.8215567194909674,-0.0036032521178632963,-0.0022886450234716775,0.25048853617629374
9477,0.0,299.44446,31026.025,-0.09477001434455767,0.0,0.0,0.0,0.0,-0.014463244143169712,-4.632594858601516,-1.9706720446651882,-2.827870078214047,0.0019831795025745777,-0.0033030349285091665,0.26242314300914776
9478,0.0,299.8691,31218.759,-0.0947799909840249,0.0,0.0,0.0,0.0,-0.014464766719412214,-4.6628762431400546,-1.978337382996698,-2.8485095774510074,0.017016152343113485,-0.006877151647697023,0.26990950084299375
9479,0.0,300.3825,31219.32,-0.09479000065872245,0.0,0.0,0.0,0.0,-0.014466294337297958,-4.659480436754915,-1.9919066256858782,-2.838506468488777,0.03331786913346767,0.0037797609945583663,0.2543292606803438
9480,0.0,300.03238,30986.955,-0.09480001033342,0.0,0.0,0.0,0.0,-0.014467821955183674,-4.662677848770475,-1.954699474063818,-2.801883151574337,0.027594113550826974,0.00982510138731201,0.25008083473355674
9481,0.0,300.11273,30888.981,-0.09480998697288734,0.0,0.0,0.0,0.0,-0.014469344531426204,-4.630774352146846,-1.9613882419489481,-2.797316433373637,-0.005956752139160665,0.0008578199867252411,0.2322815261894018
9482,0.0,300.30686000000003,31040.221,-0.09481999664758478,0.0,0.0,0.0,0.0,-0.01447087214931192,-4.646750469123566,-1.9593399568717982,-2.8293615823612472,-0.013385613400057186,0.0022113029340636078,0.24821280684919675
9483,0.0,300.47482,31180.43,-0.09483000632228222,0.0,0.0,0.0,0.0,-0.014472399767197663,-4.668885626833136,-1.970741857597078,-2.838444660232677,-0.02761965555934777,0.007992630678111233,0.26259624665623177
9484,0.0,300.18281,31170.426,-0.09484001599697978,0.0,0.0,0.0,0.0,-0.014473927385083407,-4.662236173051886,-1.9688272202081178,-2.8439677852027674,-0.017582176140475685,0.009489696757760152,0.27985316242185676
9485,0.0,299.66931,31075.342,-0.094849992636447,0.0,0.0,0.0,0.0,-0.014475449961325909,-4.661880319616766,-1.9652244068275482,-2.819023290265937,-0.014855401571113987,-0.018855904470182882,0.25671521135331876
9486,0.0,299.41747000000004,31127.452,-0.09486000231114455,0.0,0.0,0.0,0.0,-0.014476977579211653,-4.6723976530047455,-1.9754166895834482,-2.8141538129353574,0.011994513218516288,-0.006719841124621683,0.26582033754692475
9487,0.0,299.91663,31383.642000000003,-0.0948700119858421,0.0,0.0,0.0,0.0,-0.014478505197097369,-4.688015586071115,-2.018706786855848,-2.833121044207277,0.031873656408184965,-0.016852120324174786,0.23873932371423676
9488,0.0,299.57378,31409.327999999998,-0.09487998862530955,0.0,0.0,0.0,0.0,-0.014480027773339899,-4.686917830912775,-1.9894767506210682,-2.871256738220977,0.03733303274823346,-0.0003225956689427137,0.26882256719572173
9489,0.0,299.72974,31058.155,-0.09488999830000688,0.0,0.0,0.0,0.0,-0.014481555391225615,-4.646659073964546,-1.9793784974744482,-2.8148661277556575,0.007906335409494553,-0.0073177284965535725,0.2507349586006138
9490,0.0,300.24779,30788.94,-0.09490000797470444,0.0,0.0,0.0,0.0,-0.014483083009111358,-4.6043871917176356,-1.9440131305591584,-2.810668536566387,0.004945390028071995,0.004641519565482316,0.26114900127339974
9491,0.0,300.03664,30984.193,-0.09490998461417188,0.0,0.0,0.0,0.0,-0.014484605585353888,-4.638137843273566,-1.9798062916666683,-2.8004768617605476,-0.006163576242947615,0.012530531640667189,0.23160031814717177
9492,0.0,299.50083,31204.635,-0.09491999428886944,0.0,0.0,0.0,0.0,-0.014486133203239632,-4.684354814784825,-1.996225300262098,-2.8048497452171177,-0.012426257059626088,0.0039053256827256363,0.2296065053953978
9493,0.0,300.13056,31060.987999999998,-0.09493000396356677,0.0,0.0,0.0,0.0,-0.01448766082112532,-4.665435814217665,-1.9711533384626883,-2.8051757077742874,-0.02495359088297768,0.0030526872746267776,0.2189364042898408
9494,0.0,299.91792000000004,30951.837000000003,-0.09494001363826432,0.0,0.0,0.0,0.0,-0.014489188439011064,-4.652540484169996,-1.9659839391025082,-2.790061056032587,-0.015766278960510586,-0.0006550970532480453,0.23951546315833577
9495,0.0,299.34449,31124.747000000003,-0.09494999027773177,0.0,0.0,0.0,0.0,-0.014490711015253593,-4.663502431701855,-1.963375732020098,-2.8342679419954675,0.0095715425412127,-0.002080021083532098,0.26504437035534273
9496,0.0,299.94397999999995,31449.796000000002,-0.0949599999524291,0.0,0.0,0.0,0.0,-0.01449223863313931,-4.696708866629075,-1.9900405229767084,-2.8732033943130975,-0.0008782956636860332,-0.008911363998183153,0.2812801732001918
9497,0.0,299.40747999999996,31431.621,-0.09497000962712665,0.0,0.0,0.0,0.0,-0.014493766251025053,-4.691446754884745,-1.9891148176853481,-2.8738662625285176,0.005475991311213265,-0.020954211678269677,0.26967698021004577
9498,0.0,298.96162000000004,31189.005,-0.09497998626659399,0.0,0.0,0.0,0.0,-0.014495288827267583,-4.664267739502385,-1.9852384267777783,-2.8311724629399677,0.013617840190476186,-0.01031638765464819,0.2564335784880238
9499,0.0,299.29479,31018.903,-0.09498999594129154,0.0,0.0,0.0,0.0,-0.014496816445153327,-4.638261459785766,-1.9712543594976581,-2.8194562520336675,0.031591691196857175,0.018152034076216284,0.23676591781947678
9500,0.0,299.66832999999997,31135.067000000003,-0.09500000561598898,0.0,0.0,0.0,0.0,-0.014498344063039015,-4.6630694699341255,-1.9698838374123984,-2.8313295167054675,0.006481993633247964,0.016219297000719984,0.25529425981058174
9501,0.0,299.6775,31209.514,-0.09501001529068653,0.0,0.0,0.0,0.0,-0.014499871680924759,-4.6628112938086455,-1.9846531735200181,-2.839448588431757,-0.011403419587179888,0.007896317000455812,0.2537128499820087
9502,0.0,300.17016,31034.672000000002,-0.09501999193015387,0.0,0.0,0.0,0.0,-0.014501394257167288,-4.650947452362775,-1.9606826145793081,-2.8221351839730575,-0.013533605669912884,0.009482004973601032,0.2712744399202028
9503,0.0,300.35983999999996,30979.216,-0.09503000160485142,0.0,0.0,0.0,0.0,-0.014502921875053032,-4.649908161735205,-1.9680486388312781,-2.7989513124099874,0.003090625080895947,0.005477333360970714,0.23649420467266075
9504,0.0,300.32041,31248.041,-0.09504001127954875,0.0,0.0,0.0,0.0,-0.014504449492938748,-4.687286653949175,-1.983701326376078,-2.8276361187659576,-0.01038704665037169,-0.002032938391135398,0.25890984014241175
9505,0.0,300.21164,31484.732999999997,-0.09504998791901642,0.0,0.0,0.0,0.0,-0.014505972069181305,-4.698654712121115,-2.013222469364588,-2.858695476731277,-0.01070698847544749,-0.029489845719421173,0.23591362249786177
9506,0.0,300.38532000000004,31349.162,-0.09505999759371375,0.0,0.0,0.0,0.0,-0.014507499687067021,-4.698297845435895,-1.9899042408382581,-2.841160170500677,-0.008066186353220612,0.0037254181625451465,0.27010126855691974
9507,0.0,300.11447999999996,31089.127999999997,-0.09507000726841108,0.0,0.0,0.0,0.0,-0.01450902730495271,-4.655357724748036,-1.9716193321836784,-2.8233413568920973,0.02201868562382508,0.007879841249854783,0.23920782016297376
9508,0.0,299.87838,31134.494,-0.09507998390787875,0.0,0.0,0.0,0.0,-0.014510549881195295,-4.668545782749596,-1.965937937547968,-2.829625027387247,0.005477403883177675,-0.001108048664780889,0.2750316118210067
9509,0.0,299.86643,31313.355,-0.09508999358257608,0.0,0.0,0.0,0.0,-0.014512077499080983,-4.692850815548316,-1.995199992485908,-2.8304272174914176,0.00028201847788555674,-0.007830253093935813,0.24186472404518974
9510,0.0,300.0484,31301.097,-0.09510000325727364,0.0,0.0,0.0,0.0,-0.014513605116966727,-4.670808572872915,-1.999084084094238,-2.8448592426407475,0.012532178172079687,0.001051342021609379,0.24971133281958974
9511,0.0,299.50056,31079.685,-0.09511001293197097,0.0,0.0,0.0,0.0,-0.014515132734852443,-4.649239315344196,-1.964111250267688,-2.8340974120036373,0.02109576069073948,0.02142027632676668,0.23344811142703478
9512,0.0,299.58826,31104.515,-0.09511998957143852,0.0,0.0,0.0,0.0,-0.014516655311095,-4.654370109875566,-1.967914484518038,-2.8327114885168574,-0.0012478789011060587,0.006303042722486885,0.2586854761727687
9513,0.0,299.52251,31209.604,-0.09512999924613597,0.0,0.0,0.0,0.0,-0.014518182928980716,-4.680961136224895,-1.975669292833378,-2.830309781804827,-0.02098479764578828,-0.014347585952246486,0.26029672621678673
9514,0.0,299.67646,31486.262000000002,-0.09514000892083352,0.0,0.0,0.0,0.0,-0.014519710546866432,-4.711707602559335,-1.994544318346198,-2.8647854138073074,-0.02016787792491458,0.008567651325761351,0.27996388026028374
9515,0.0,300.25442999999996,31407.741,-0.09514998556030085,0.0,0.0,0.0,0.0,-0.01452123312310899,-4.716406651223095,-1.996369384426318,-2.834392774407787,0.006713855147005914,0.00896919555161568,0.24464885160996178
9516,0.0,300.61487999999997,31202.852000000003,-0.0951599952349984,0.0,0.0,0.0,0.0,-0.014522760740994706,-4.668859383655546,-1.9715910625058881,-2.8444373252991073,0.0057228071805470945,0.0023654288120746477,0.25414184994184774
9517,0.0,299.92458,31276.852000000003,-0.09517000490969574,0.0,0.0,0.0,0.0,-0.014524288358880422,-4.6743327580457255,-1.9921188002568182,-2.8409303653779974,-0.016474968371952784,-0.02767913334021777,0.2261139133607058
9518,0.0,299.45027999999996,31484.312,-0.09518001458439318,0.0,0.0,0.0,0.0,-0.014525815976766138,-4.703095989959436,-1.975576580449228,-2.8917722156456973,0.004527780215257116,-0.0006742824777964994,0.27981849913593576
9519,0.0,300.07216,31392.762000000002,-0.09518999122386074,0.0,0.0,0.0,0.0,-0.014527338553008695,-4.688817472200255,-1.996113538776068,-2.8576846584315176,-0.001137872161599239,0.002085322408055298,0.23405110669404577
9520,0.0,300.56757000000005,31137.769,-0.09520000089855807,0.0,0.0,0.0,0.0,-0.014528866170894411,-4.670894496481395,-1.9600792241447584,-2.834130443956897,0.021070416265988177,0.0033133036103226063,0.2708636277996588
9521,0.0,300.30442999999997,31115.583,-0.09521001057325562,0.0,0.0,0.0,0.0,-0.014530393788780127,-4.671419765333235,-1.9651637131465585,-2.8217768987376974,-0.009166471394410292,-0.018237531106404182,0.23106270790911376
9522,0.0,300.17885,31286.238999999998,-0.09521998721272307,0.0,0.0,0.0,0.0,-0.014531916365022685,-4.662166056144966,-2.002854691691368,-2.8452147921008373,0.014736515923630884,0.0067474514805716135,0.25448484523319875
9523,0.0,300.46122,31406.619,-0.09522999688742062,0.0,0.0,0.0,0.0,-0.0145334439829084,-4.6902236606890355,-2.000552182164128,-2.8560522111954074,0.005420817614118045,0.0005199927876417924,0.24386879088797575
9524,0.0,300.46834,31405.496,-0.09524000656211795,0.0,0.0,0.0,0.0,-0.014534971600794117,-4.708044906097855,-1.9965484257189878,-2.8418933582730372,0.01047921187946769,0.0016841405204367286,0.2685360605974457
9525,0.0,299.93298,31187.609,-0.0952500162368155,0.0,0.0,0.0,0.0,-0.01453649921867986,-4.678383326645486,-1.9816385518224982,-2.8202325029352773,-0.0013916944527245486,-0.013135734779646089,0.2665644481553628
9526,0.0,300.15824,31298.549,-0.09525999287628295,0.0,0.0,0.0,0.0,-0.01453802179492239,-4.698402919471266,-1.996056999420488,-2.8195175536647175,-0.004809189861555085,0.01107961930572329,0.26798169120273374
9527,0.0,299.27459,31555.587000000003,-0.0952700025509805,0.0,0.0,0.0,0.0,-0.014539549412808134,-4.7161270955205055,-2.008354005284108,-2.867629404187987,-0.006514547839085814,0.014232197030858486,0.26202093338195276
9528,0.0,299.54785,31663.2,-0.09528001222567783,0.0,0.0,0.0,0.0,-0.014541077030693822,-4.724180609965325,-2.014528650068498,-2.886113112512187,-0.006368159848113444,-0.005138236954679505,0.25098721734550977
9529,0.0,299.64936,31289.123,-0.09528998886514539,0.0,0.0,0.0,0.0,-0.014542599606936407,-4.675382079849286,-1.974665567284318,-2.8610643541400673,-0.01215530891663559,-0.01077767077592329,0.24303375121556375
9530,0.0,300.1395,31116.644,-0.09529999853984272,0.0,0.0,0.0,0.0,-0.014544127224822095,-4.653603383524896,-1.9674405874462682,-2.8376387211031373,0.005465067664535184,-0.001999753842410338,0.23947483182932577
9531,0.0,300.33078,31286.467999999997,-0.09531000821454017,0.0,0.0,0.0,0.0,-0.014545654842707811,-4.689740036416305,-1.9769128546811081,-2.8436520564716075,0.012651429602848888,0.006219441179261054,0.25206993587236576
9532,0.0,300.54016,31365.017000000003,-0.09531998485400772,0.0,0.0,0.0,0.0,-0.014547177418950369,-4.717882146018716,-1.983294911760968,-2.8330049257458176,-0.0046716339664043755,0.00835235817366357,0.25753302577403075
9533,0.0,300.00405,31257.137000000002,-0.09532999452870505,0.0,0.0,0.0,0.0,-0.014548705036836085,-4.690220215638695,-1.9833682710682081,-2.8278006705821976,0.014192309427421885,-0.008924797566683941,0.25209521646236077
9534,0.0,299.66868,31264.933999999997,-0.0953400042034026,0.0,0.0,0.0,0.0,-0.014550232654721829,-4.6844241210916655,-1.987741154524778,-2.8315939749815677,-0.0037900326147970956,0.01741282658501218,0.2607215211887107
9535,0.0,299.72393999999997,31429.425,-0.09535001387809994,0.0,0.0,0.0,0.0,-0.014551760272607517,-4.6963257567662655,-2.013168868434298,-2.8442655794071574,0.001293648421373159,0.006963122270981664,0.2538514321981858
9536,0.0,299.8112,31639.041,-0.0953599905175676,0.0,0.0,0.0,0.0,-0.014553282848850102,-4.727535683696445,-2.009923428363998,-2.880019325085777,-0.017605426177270282,-0.008481269626911142,0.2680028782623248
9537,0.0,299.66911,31767.047000000002,-0.09537000019226494,0.0,0.0,0.0,0.0,-0.01455481046673579,-4.758580856160366,-2.0290930056808882,-2.8687152029951473,-0.008909928526766482,-0.006610798796560044,0.26231479617595477
9538,0.0,299.76873,31413.461,-0.09538000986696249,0.0,0.0,0.0,0.0,-0.014556338084621534,-4.7100731288230255,-1.986713617598368,-2.852121003457427,-0.01040366091226139,0.0027740078307232573,0.2607426170557927
9539,0.0,300.60143999999997,31168.064,-0.09538998650642994,0.0,0.0,0.0,0.0,-0.014557860660864064,-4.675586553719466,-1.973552005424418,-2.8251747316230373,0.014777210074147085,-0.002222290111522958,0.24300875433559674
9540,0.0,300.30621,31333.12,-0.09539999618112749,0.0,0.0,0.0,0.0,-0.014559388278749807,-4.688079927452466,-1.9708041724782281,-2.8656019920628975,-0.0062533196016545944,-0.012197870487086088,0.24996235539936376
9541,0.0,299.95752999999996,31497.054,-0.09541000585582482,0.0,0.0,0.0,0.0,-0.014560915896635523,-4.710892341528876,-1.9845228695571582,-2.878902824800587,0.015504107589886285,-0.01920417372830438,0.2644432394685157
9542,0.0,300.05753,31344.859,-0.09542001553052215,0.0,0.0,0.0,0.0,-0.014562443514521212,-4.674271152439645,-1.991043032625648,-2.8627402698054674,-0.00016549798918337984,0.0014778746161298684,0.25642202743688375
9543,0.0,299.58498,31290.716,-0.09542999216998982,0.0,0.0,0.0,0.0,-0.014563966090763797,-4.704219380345305,-1.984004794781028,-2.823372159695137,0.020836382850640878,0.012864076348335488,0.2732827826784108
9544,0.0,299.09017,31515.398999999998,-0.09544000184468715,0.0,0.0,0.0,0.0,-0.014565493708649485,-4.709422014308766,-2.013795462296138,-2.8566768798820577,-0.005568412689934545,0.008180235859301423,0.2624019660820578
9545,0.0,299.44194,31679.984,-0.0954500115193847,0.0,0.0,0.0,0.0,-0.014567021326535229,-4.741173726067415,-2.019340574793398,-2.8694097859386973,-0.004845536459867215,0.001095997980016579,0.27411235080028273
9546,0.0,299.99735,31668.353,-0.09545998815885204,0.0,0.0,0.0,0.0,-0.014568543902777759,-4.719579441261225,-2.030786653223038,-2.876022560066327,-0.012552197967555488,0.007650024880098674,0.26163557410392074
9547,0.0,300.2702,31402.732999999997,-0.09546999783354959,0.0,0.0,0.0,0.0,-0.014570071520663502,-4.694601914371136,-1.995126633178668,-2.855918158207177,-0.01108877706012709,0.008912936663663362,0.25908808096750274
9548,0.0,300.19432,31250.897,-0.09548000750824703,0.0,0.0,0.0,0.0,-0.014571599138549218,-4.677061643215045,-1.9783553175234678,-2.844075291038377,-0.01864102350822578,-0.005849365259112405,0.25165084549850475
9549,0.0,300.27596,31421.8,-0.09548998414771459,0.0,0.0,0.0,0.0,-0.014573121714791776,-4.7340985045941455,-1.9752498072919782,-2.8420941844428573,-0.01955536215996398,-0.016553002815154184,0.2506717520593758
9550,0.0,300.27637999999996,31521.022,-0.09549999382241192,0.0,0.0,0.0,0.0,-0.014574649332677492,-4.712513643013886,-1.990600242331948,-2.8784896214098072,0.003208833168037177,-0.01027153613897169,0.25341440729755477
9551,0.0,299.9338,31315.568,-0.09551000349710947,0.0,0.0,0.0,0.0,-0.014576176950563208,-4.698819871887415,-1.982003017883468,-2.838327731171137,0.01023386451350379,-0.00953405502328797,0.23357849644990278
9552,0.0,299.77307,31200.568,-0.0955200131718068,0.0,0.0,0.0,0.0,-0.014577704568448924,-4.667966608992436,-1.9713522394573182,-2.8448748466922873,0.015245849391148186,-0.0007172977917742803,0.24323918767333877
9553,0.0,300.23900000000003,31535.212000000003,-0.09552998981127447,0.0,0.0,0.0,0.0,-0.014579227144691481,-4.705795186900826,-2.0077535532748483,-2.8723681722556678,0.02025141026315858,-0.002219539948101538,0.24864719729956775
9554,0.0,300.1978,31738.193,-0.0955399994859718,0.0,0.0,0.0,0.0,-0.014580754762577197,-4.734399338548836,-2.0256290075640178,-2.887589823207927,0.01608103091857418,0.02073607210399098,0.2811935301841407
9555,0.0,300.69628,31586.541,-0.09555000916066914,0.0,0.0,0.0,0.0,-0.014582282380462913,-4.7283116306230255,-2.015559328070218,-2.857648789377977,-0.004141103813420126,0.006230892222616184,0.27938082575524076
9556,0.0,300.30112,31455.305,-0.0955599858001368,0.0,0.0,0.0,0.0,-0.01458380495670547,-4.701841890310666,-2.007414823766418,-2.8523706682820675,-0.006379418171299555,-0.01197870955670659,0.27135250070790673
9557,0.0,300.81872999999996,31481.269,-0.09556999547483414,0.0,0.0,0.0,0.0,-0.014585332574591187,-4.717504811681476,-1.9735136032456284,-2.8785012737859574,-0.024127225644671776,-0.01138153845127039,0.2809043891356047
9558,0.0,300.5425,31589.089,-0.09558000514953169,0.0,0.0,0.0,0.0,-0.014586860192476903,-4.719008880129915,-2.012572469425438,-2.8707130282173177,-0.013504289304769587,-0.0031191183829830174,0.24216291341711874
9559,0.0,300.55009,31594.091,-0.09559001482422902,0.0,0.0,0.0,0.0,-0.014588387810362619,-4.712562481668705,-2.002333779814958,-2.8889184980640574,-0.006637480711443343,-0.0011720632729736388,0.25882489938652875
9560,0.0,299.94883,31322.674,-0.09559999146369658,0.0,0.0,0.0,0.0,-0.014589910386605176,-4.7011149846889255,-1.9770181313664983,-2.8431778554248073,-0.007300513782654613,-0.0014223471934247387,0.23880707974842377
9561,0.0,300.1045,31264.827999999998,-0.09561000113839402,0.0,0.0,0.0,0.0,-0.014591438004490892,-4.690008750342825,-1.967953494646888,-2.845764986905137,0.009179886825734292,0.0005418242135013866,0.2717263494648028
9562,0.0,300.11965,31549.825,-0.09562001081309146,0.0,0.0,0.0,0.0,-0.014592965622376636,-4.710748561339686,-1.9841021681156379,-2.8955081700894074,0.009115972731951461,0.003984714841310736,0.23873028552334477
9563,0.0,300.06381,31762.099,-0.0956299874525589,0.0,0.0,0.0,0.0,-0.014594488198619165,-4.744958721815966,-2.0159876288874883,-2.8939385443594974,0.008360805639747273,0.0053955133140707046,0.2871308616626097
9564,0.0,299.73922000000005,31567.371,-0.09563999712725646,0.0,0.0,0.0,0.0,-0.01459601581650491,-4.705196558741746,-2.014286888594638,-2.876209099409737,0.01068931334070309,-0.012587716436560887,0.24442823666568878
9565,0.0,300.10885,31481.333,-0.09565000680195379,0.0,0.0,0.0,0.0,-0.014597543434390597,-4.721253431751435,-2.005750560477168,-2.8425350495613677,0.005414562010650665,0.004852841790438195,0.28565589375704176
9566,0.0,299.84269,31638.675,-0.09566001647665123,0.0,0.0,0.0,0.0,-0.014599071052276313,-4.731780998965426,-2.032406738807928,-2.853179343186877,-0.003153231676749737,0.0029399250014730074,0.26219518200164976
9567,0.0,299.63003,31615.157000000003,-0.09566999311611879,0.0,0.0,0.0,0.0,-0.014600593628518871,-4.7390778182355655,-1.9923365477033084,-2.8788038302658174,-0.009512189694080032,0.006193666832492324,0.29212469517796275
9568,0.0,300.05755,31357.373,-0.09568000279081612,0.0,0.0,0.0,0.0,-0.014602121246404587,-4.679309031936845,-1.9836095259170183,-2.8689398405423177,-0.012147498784864789,-0.002896920235428767,0.2538542895634677
9569,0.0,300.50552000000005,31270.048,-0.09569001246551367,0.0,0.0,0.0,0.0,-0.01460364886429033,-4.692873917650595,-1.965884437942688,-2.8465555246331578,0.004975104600504595,0.0014839149039509985,0.2641561350526807
9570,0.0,300.11457,31362.093999999997,-0.09569998910498112,0.0,0.0,0.0,0.0,-0.01460517144053286,-4.6970385782116155,-1.970757968273668,-2.8654968167025174,0.00973155175460438,-0.013899234941997686,0.2345391588697128
9571,0.0,299.20806,31658.311,-0.09570999877967867,0.0,0.0,0.0,0.0,-0.014606699058418604,-4.747456687287495,-2.0166020637481283,-2.859277183613687,0.014280613160386786,0.0014855192841593385,0.24564675097094676
9572,0.0,298.80887,31744.09,-0.095720008454376,0.0,0.0,0.0,0.0,-0.014608226676304292,-4.758134418166305,-2.001692797801698,-2.8895832914546675,-0.015027121118561386,-0.013301823696287789,0.2542031313078958
9573,0.0,299.75865,31671.822,-0.09572998509384345,0.0,0.0,0.0,0.0,-0.014609749252546822,-4.736658582296805,-2.0017701087843283,-2.889014452848527,0.002061311724410628,0.0025654803521931975,0.2761475446861407
9574,0.0,300.37819,31476.7,-0.095739994768541,0.0,0.0,0.0,0.0,-0.014611276870432566,-4.689046466722854,-1.9974549805834583,-2.8816295821446976,-0.005002404699273905,0.004550432535817725,0.26024059216124673
9575,0.0,299.88478,31687.388,-0.09575000444323856,0.0,0.0,0.0,0.0,-0.01461280448831831,-4.741624926336946,-2.0108874345091383,-2.8796624584005572,-0.009335576655274682,0.025817955026533772,0.2868494213148337
9576,0.0,300.05991,31894.766,-0.09576001411793589,0.0,0.0,0.0,0.0,-0.014614332106204025,-4.743896126436096,-2.040481024879798,-2.9108350977270576,-0.0061811045577525245,-0.014254752991334586,0.26929313067466276
9577,0.0,300.40218,31590.696,-0.09576999075740322,0.0,0.0,0.0,0.0,-0.014615854682446555,-4.759156179567145,-2.005509508278378,-2.8381169751503372,0.0011992020623270289,0.007392163470099732,0.27713561552115573
9578,0.0,300.26634,31348.724,-0.09578000043210078,0.0,0.0,0.0,0.0,-0.014617382300332299,-4.698028523559316,-1.9953149963722583,-2.835886001080157,0.003167564707364297,-0.001073635043684529,0.26125602074896176
9579,0.0,300.32957000000005,31513.942000000003,-0.09579001010679822,0.0,0.0,0.0,0.0,-0.014618909918217987,-4.725831397028245,-1.997537661791618,-2.856082406048387,0.007644947179872544,0.004034671718941096,0.26454295341085676
9580,0.0,299.60767000000004,31745.831000000002,-0.09579998674626555,0.0,0.0,0.0,0.0,-0.014620432494460517,-4.713711304632086,-2.019066591966358,-2.9171619326764673,-0.016321693016075684,-0.008353463325547643,0.26124815792818573
9581,0.0,299.64477999999997,31725.17,-0.0958099964209631,0.0,0.0,0.0,0.0,-0.01462196011234626,-4.749486835187855,-2.012133326832098,-2.882039239160127,0.001127400221815739,0.0010835281136858989,0.24218849798214376
9582,0.0,299.98675,31654.689,-0.09582000609566066,0.0,0.0,0.0,0.0,-0.014623487730232004,-4.725083415804425,-2.013348213701998,-2.883803408909237,0.008561216073051242,0.0016542949347661986,0.24848916068147078
9583,0.0,299.82743999999997,31466.456000000002,-0.09583001577035799,0.0,0.0,0.0,0.0,-0.01462501534811772,-4.743746570721336,-1.9816585128494681,-2.839612025672887,0.01062673704102729,0.0042048536593617455,0.24784978973586977
9584,0.0,299.7848,31644.416,-0.09583999240982544,0.0,0.0,0.0,0.0,-0.01462653792436025,-4.728993750590345,-2.003204364300878,-2.8869141880412474,0.0037160948430750066,-0.022924023574924977,0.2784952046378367
9585,0.0,299.62084,31868.062,-0.09585000208452299,0.0,0.0,0.0,0.0,-0.014628065542245966,-4.768458727410236,-2.019327199892078,-2.899309073864527,-0.004008776288785416,0.0014776428858319986,0.26749262577696675
9586,0.0,299.65828,31698.452999999998,-0.09586001175922054,0.0,0.0,0.0,0.0,-0.01462959316013171,-4.734280382987095,-2.007952454269478,-2.8933053643720075,0.005039647719949505,0.006280580183670005,0.2927395454711437
9587,0.0,299.63714,31473.058999999997,-0.09586998839868777,0.0,0.0,0.0,0.0,-0.014631115736374212,-4.717003151556965,-2.013265025868788,-2.8367557749659973,0.001124475475402089,-0.007466585372719602,0.25768855966438076
9588,0.0,299.68581,31693.792999999998,-0.09587999807338532,0.0,0.0,0.0,0.0,-0.014632643354259955,-4.739820226583836,-2.026795562404148,-2.8675057876757872,-0.003320019330660397,-0.02056162286077418,0.26906162329181477
9589,0.0,300.41277,32017.486,-0.09589000774808287,0.0,0.0,0.0,0.0,-0.0146341709721457,-4.793522076583796,-2.046732777996798,-2.892261514118987,0.001232622698325389,-0.012318542494495488,0.2635447399423408
9590,0.0,300.5393,31834.572999999997,-0.09589998438755032,0.0,0.0,0.0,0.0,-0.014635693548388229,-4.741321964557046,-2.025076178309458,-2.9105170385206676,0.010354375414147292,-0.0006039597392511854,0.26192584999256874
9591,0.0,300.2829,31536.463,-0.09590999406224765,0.0,0.0,0.0,0.0,-0.014637221166273945,-4.712306737343465,-1.9967786361417084,-2.8772119130337073,-0.009448553129499592,0.008724972183987711,0.2593296499238437
9592,0.0,300.53114,31595.387000000002,-0.0959200037369452,0.0,0.0,0.0,0.0,-0.01463874878415966,-4.702838421784016,-1.993866758004328,-2.907503531398257,-0.004496211496466526,0.006142633680605744,0.25274883370436774
9593,0.0,300.50554,31817.264,-0.09593001341164276,0.0,0.0,0.0,0.0,-0.014640276402045405,-4.762175360890116,-2.0148034434956177,-2.894674974532177,-0.014302756728072186,0.016756774503014882,0.2516442289753517
9594,0.0,300.09937,31805.979,-0.09593999005110998,0.0,0.0,0.0,0.0,-0.014641798978287907,-4.761814441204495,-2.0223307771635084,-2.884078404986377,0.0016106590152346685,0.004172482547816965,0.24709606338398274
9595,0.0,299.59328,31602.042,-0.09594999972580753,0.0,0.0,0.0,0.0,-0.01464332659617365,-4.768213419561025,-1.9880932589345282,-2.8499250878407074,-0.007139725886561082,-0.004413019204956086,0.2756744075519457
9596,0.0,299.75296000000003,31505.457000000002,-0.09596000940050498,0.0,0.0,0.0,0.0,-0.014644854214059394,-4.697926894574286,-2.0102724930234483,-2.8686728491409674,0.0038806397692143263,-0.019300304818291782,0.25259938944711874
9597,0.0,299.92408,31730.165,-0.09596998603997242,0.0,0.0,0.0,0.0,-0.014646376790301924,-4.751828962794005,-2.025570036408198,-2.867778757252727,0.004366050199220605,0.0032376296345541667,0.2742377607651597
9598,0.0,299.6378,32049.139,-0.09597999571466975,0.0,0.0,0.0,0.0,-0.01464790440818764,-4.7715861238438855,-2.059242059756368,-2.9113099067239174,0.008460225942209292,0.013869891219101685,0.2566738099542327
9599,0.0,299.96557,31837.463,-0.0959900053893673,0.0,0.0,0.0,0.0,-0.014649432026073356,-4.775155398646145,-2.029867128757288,-2.872771243145447,0.004867673644076986,0.016461346237608383,0.26861785014551776
9600,0.0,299.87692000000004,31487.295,-0.09600001506406486,0.0,0.0,0.0,0.0,-0.0146509596439591,-4.717312395487486,-2.0053974428173182,-2.848641603939037,-0.0027051941660818776,0.0016665022679959683,0.24289215964658978
9601,0.0,300.22436,31692.002999999997,-0.0960099917035323,0.0,0.0,0.0,0.0,-0.01465248222020163,-4.7417358772228955,-2.004602142813828,-2.8872394413233473,-0.002690388352970657,0.011922572461416288,0.26677234681088074
9602,0.0,300.46887999999996,31910.971,-0.09602000137822964,0.0,0.0,0.0,0.0,-0.014654009838087345,-4.736589174664956,-2.024782031805428,-2.9387671605837373,0.003149251326381907,-0.006791578319776594,0.26472841870916075
9603,0.0,300.41936,31803.097999999998,-0.09603001105292719,0.0,0.0,0.0,0.0,-0.014655537455973089,-4.737780351482516,-2.019571291841168,-2.9099961266442573,-0.012077670654223289,-0.011870313074258688,0.27447460797603473
9604,0.0,300.04513,31588.668999999998,-0.09603998769239463,0.0,0.0,0.0,0.0,-0.014657060032215619,-4.725946198264575,-2.001472821204988,-2.874747486140487,-0.009051666713029951,-0.028177960417448175,0.2442085235140048
9605,0.0,300.05821000000003,31641.007999999998,-0.09604999736709197,0.0,0.0,0.0,0.0,-0.014658587650101335,-4.757988814126936,-2.012533560621598,-2.847553879956687,-0.004208424656689176,0.0017996291456345685,0.26456164787520176
9606,0.0,299.87507,31706.554,-0.09606000704178974,0.0,0.0,0.0,0.0,-0.014660115267987078,-4.781827245254605,-2.000314676340688,-2.855858883076327,-0.002118411913920978,0.008408645432618692,0.25544610547056773
9607,0.0,299.90954,31888.165,-0.09606998368125697,0.0,0.0,0.0,0.0,-0.014661637844229608,-4.781808094827716,-2.0305377989984783,-2.8808598160437273,-0.0012359650051052488,0.00977985936504697,0.28090657775582073
9608,0.0,300.16944,31775.131,-0.09607999335595452,0.0,0.0,0.0,0.0,-0.014663165462115324,-4.727727390615366,-2.0188147993165084,-2.9123042090470475,-0.01977533875667398,-0.003731549237575236,0.27027155536872577
9609,0.0,299.85368,31576.622000000003,-0.09609000303065185,0.0,0.0,0.0,0.0,-0.01466469308000104,-4.720331374160436,-2.009350840732488,-2.868822404855727,7.728945207862502e-05,0.014515159280284686,0.2799864352075097
9610,0.0,299.26189,31726.792999999998,-0.09610001270534951,0.0,0.0,0.0,0.0,-0.014666220697886811,-4.735031099986186,-2.037970596432038,-2.8711511575605573,0.016665670146773583,-0.002269632195945258,0.25149466312809077
9611,0.0,299.86597,32117.026,-0.09610998934481674,0.0,0.0,0.0,0.0,-0.014667743274129313,-4.8190589175290865,-2.036167112579048,-2.907548013077647,0.018278876776734683,-0.0024351892576094675,0.2626873783702257
9612,0.0,300.42997,32004.077999999998,-0.09611999901951429,0.0,0.0,0.0,0.0,-0.014669270892015057,-4.775317012037095,-2.062941435871468,-2.8901821222637674,0.010314580016469791,-0.023151735322898378,0.24650292704044477
9613,0.0,300.23602999999997,31591.52,-0.09613000869421184,0.0,0.0,0.0,0.0,-0.014670798509900773,-4.728391272080886,-1.999447131605068,-2.8751950387096574,0.019269775592778784,0.0013367877470306785,0.25274258195125077
9614,0.0,299.94347,31728.286,-0.09613998533367929,0.0,0.0,0.0,0.0,-0.01467232108614333,-4.708576355775305,-2.0169923676866484,-2.919038066561627,0.017501818314794984,0.005105437339667435,0.25507595507653674
9615,0.0,300.3031,31906.357000000004,-0.09614999500837662,0.0,0.0,0.0,0.0,-0.014673848704029019,-4.767417410282466,-2.017446202406438,-2.913872213576797,0.015007126654338086,-3.3914949046394864e-05,0.26151433872945573
9616,0.0,299.76937999999996,31830.459,-0.09616000468307395,0.0,0.0,0.0,0.0,-0.014675376321914735,-4.764305009950295,-2.030742880818718,-2.8806170413197676,-0.013426096794552589,-0.010604910620623189,0.26062373242155973
9617,0.0,300.20246000000003,31656.897999999997,-0.09617001435777173,0.0,0.0,0.0,0.0,-0.014676903939800506,-4.765751627118066,-2.017620177448608,-2.8395348160152674,-0.017051829892384584,0.008260625805010293,0.24652513748263677
9618,0.0,299.9392,31788.095,-0.09617999099723895,0.0,0.0,0.0,0.0,-0.014678426516043008,-4.773608267068456,-2.013429476360018,-2.8757492865143575,0.0014785683884733385,0.012409045993427488,0.2777479529540887
9619,0.0,299.94076,31902.647,-0.0961900006719365,0.0,0.0,0.0,0.0,-0.014679954133928752,-4.762393918936685,-2.020802593362688,-2.9144115666050268,-0.034181484485199864,0.00909063762910108,0.26312665268607877
9620,0.0,300.00832,32001.904,-0.09620001034663406,0.0,0.0,0.0,0.0,-0.014681481751814468,-4.744653429560835,-2.032495499516688,-2.950630698054577,0.0035797609275448968,-0.003918588113284536,0.27690659060105277
9621,0.0,299.52636,32008.528,-0.0962099869861015,0.0,0.0,0.0,0.0,-0.014683004328057025,-4.767237153089676,-2.034713503985588,-2.927842500655557,-0.0007080360373802164,0.007668107138733253,0.25149232252035975
9622,0.0,299.7939,31771.467999999997,-0.09621999666079883,0.0,0.0,0.0,0.0,-0.014684531945942714,-4.755804956186405,-2.009202298267828,-2.8927256839897972,0.019109376075448582,0.0035298541044694767,0.26063790779045876
9623,0.0,300.20156000000003,31707.377999999997,-0.09623000633549639,0.0,0.0,0.0,0.0,-0.014686059563828457,-4.777529848930486,-2.005967801298608,-2.854753528542237,0.0006416522579361474,-0.015527794337473986,0.24009200246523577
9624,0.0,299.89218,31837.334,-0.09624001601019394,0.0,0.0,0.0,0.0,-0.014687587181714201,-4.776953005648555,-2.004781082781488,-2.896020368014957,0.018581482905849583,-0.021086039569280082,0.2631768389635318
9625,0.0,299.62616,31802.87,-0.09624999264966128,0.0,0.0,0.0,0.0,-0.014689109757956731,-4.739124123765135,-2.0205693431896683,-2.9075849967062974,0.0019197076924603981,0.006610001976681404,0.25610021920512377
9626,0.0,299.93885,31720.999,-0.09626000232435872,0.0,0.0,0.0,0.0,-0.014690637375842447,-4.727086813902146,-2.0134641295134377,-2.9018405779143674,0.003012929367202977,0.0017477349338130084,0.2594302352612708
9627,0.0,299.64576,31833.666,-0.09627001199905627,0.0,0.0,0.0,0.0,-0.014692164993728163,-4.759565127307505,-2.0158730303011785,-2.9012014197512874,-0.02005145143542418,0.006422986912349453,0.2667491129860877
9628,0.0,300.38473999999997,32043.892999999996,-0.0962799886385236,0.0,0.0,0.0,0.0,-0.01469368756997072,-4.781111282733945,-2.0595890979156177,-2.899843056667227,-0.0002637718194222518,-0.0025421598945166474,0.25982178549741375
9629,0.0,300.01703,32024.884,-0.09628999831322094,0.0,0.0,0.0,0.0,-0.014695215187856409,-4.801458357992046,-2.040202887727348,-2.8931038289271176,-0.0021332763942129877,0.013436086427288487,0.26250150777188175
9630,0.0,299.95301,31984.313,-0.09630000798791849,0.0,0.0,0.0,0.0,-0.014696742805742152,-4.771962546256036,-2.045670993217008,-2.904799065556347,0.006578692953891443,0.01078603008924829,0.25695404453438975
9631,0.0,300.76794,31813.2,-0.09630998462738594,0.0,0.0,0.0,0.0,-0.014698265381984682,-4.733160640301586,-2.022617121641768,-2.914640561127627,-0.014585952025021385,0.010346168088337292,0.27375127912714775
9632,0.0,300.84193,31732.132999999998,-0.09631999430208349,0.0,0.0,0.0,0.0,-0.014699792999870426,-4.713470556408326,-2.0181131236222583,-2.9141924006083975,0.0010302727016799989,0.002311045956682478,0.25303153048226773
9633,0.0,299.84657000000004,31859.1,-0.09633000397678082,0.0,0.0,0.0,0.0,-0.014701320617756142,-4.751593078170725,-2.030625749107158,-2.9021520509951073,0.007371567540617073,0.009417487590708661,0.2659444505516737
9634,0.0,299.86436000000003,31953.069,-0.09634001365147837,0.0,0.0,0.0,0.0,-0.014702848235641858,-4.784836699376616,-2.017907129876928,-2.910191379938527,0.004156783757392616,0.0020101387440102482,0.2564180960264958
9635,0.0,299.62127000000004,31817.394,-0.09634999029094582,0.0,0.0,0.0,0.0,-0.014704370811884415,-4.795519496505926,-2.004123787441618,-2.8720501130492773,0.0016956683681494382,-0.010970609806964888,0.26895468487626073
9636,0.0,300.27361,31848.549,-0.09635999996564337,0.0,0.0,0.0,0.0,-0.014705898429770131,-4.7727314004319155,-2.022295009434978,-2.8861371265395572,0.004082114520423336,-0.010748745525318591,0.24965227047126076
9637,0.0,300.36534,32180.566000000003,-0.0963700096403407,0.0,0.0,0.0,0.0,-0.014707426047655847,-4.798507469725815,-2.0496752562871983,-2.9339056879289473,0.0034493686092761764,0.007869010923510913,0.27661696319246876
9638,0.0,300.14234,32196.814,-0.09637998627980826,0.0,0.0,0.0,0.0,-0.014708948623898405,-4.798885209363095,-2.055068685244488,-2.933073708271837,0.0005987856282780404,0.0026433565257289776,0.2733367382462357
9639,0.0,299.6292,32007.287999999997,-0.0963899959545057,0.0,0.0,0.0,0.0,-0.01471047624178412,-4.772431275752296,-2.050356565654438,-2.906628387286887,-0.002174610817467378,0.0054540677201245745,0.27033463018745074
9640,0.0,300.55048999999997,31914.661,-0.09640000562920303,0.0,0.0,0.0,0.0,-0.014712003859669837,-4.783620191306555,-2.025793154080218,-2.8918466895280472,-0.01167849571107779,-0.002306061880765588,0.27959192628107477
9641,0.0,300.24679,31965.106,-0.09641001530390059,0.0,0.0,0.0,0.0,-0.014713531477555553,-4.795183604097775,-2.038025109287418,-2.8833852405929674,0.02783646068324477,0.0036025802317219864,0.2628315537269547
9642,0.0,300.28245,31927.847999999998,-0.09641999194336792,0.0,0.0,0.0,0.0,-0.01471505405379811,-4.767647012755125,-2.028169428214738,-2.9094520113405573,0.005969815263424895,0.0018420982063509382,0.26636281138546275
9643,0.0,300.14383,31894.354,-0.09643000161806548,0.0,0.0,0.0,0.0,-0.014716581671683826,-4.748354122901066,-2.034213566386248,-2.9125196260183075,0.011412922859867789,0.01023790738140279,0.24884118403121275
9644,0.0,300.67749,31875.491,-0.09644001129276292,0.0,0.0,0.0,0.0,-0.014718109289569542,-4.746787131621415,-2.0361497860023383,-2.906416618015987,0.006135267251053734,0.004022502281265067,0.25147993047163675
9645,0.0,300.78767,31896.307999999997,-0.09644998793223047,0.0,0.0,0.0,0.0,-0.0147196318658121,-4.764031736398326,-2.0266598882157583,-2.904989657900157,0.00979612425830219,0.017865636908951082,0.25082461096946174
9646,0.0,300.88888,32129.792,-0.0964599976069278,0.0,0.0,0.0,0.0,-0.014721159483697815,-4.818463329120305,-2.047232208971088,-2.900958847677347,0.00082984079760641,-0.0025545921692686174,0.27356269301853575
9647,0.0,299.87774,32151.982000000004,-0.09647000728162536,0.0,0.0,0.0,0.0,-0.01472268710158356,-4.831788479860395,-2.033167689633028,-2.9084433208660077,0.0007661304988161933,-0.020268898959884582,0.2757460949965207
9648,0.0,300.21913,32045.397,-0.0964799839210928,0.0,0.0,0.0,0.0,-0.014724209677826089,-4.784521578595516,-2.038012848961208,-2.918466086880177,-0.0017275184664927983,-0.026377550765261576,0.27509527432478975
9649,0.0,299.99236,32081.435,-0.09648999359579036,0.0,0.0,0.0,0.0,-0.014725737295711833,-4.780522179125805,-2.045186254369168,-2.9262468343980768,0.006330846305230884,-0.012631995465930888,0.2680346436529597
9650,0.0,299.75793999999996,32149.461,-0.09650000327048769,0.0,0.0,0.0,0.0,-0.014727264913597521,-4.788002903289096,-2.030338087403768,-2.954292381265957,-0.0034588774548396264,-0.00047013121631583866,0.2933666763555367
9651,0.0,300.16288,31995.037,-0.09651001294518502,0.0,0.0,0.0,0.0,-0.014728792531483237,-4.774391813370786,-2.041521328757468,-2.9097792911228573,-0.004627668639265336,-0.0012597636155039888,0.26075910263491975
9652,0.0,300.02554,31830.017000000003,-0.09651998958465269,0.0,0.0,0.0,0.0,-0.014730315107725794,-4.779997011598976,-2.001644871071968,-2.8938885911295675,0.003997444302317036,0.009424253872226441,0.2798704079385587
9653,0.0,299.67311,31831.873,-0.09652999925935002,0.0,0.0,0.0,0.0,-0.01473184272561151,-4.773140044197246,-2.014727449738118,-2.8882270561958174,0.01275882600744809,0.004202671219971356,0.2561405364266028
9654,0.0,300.22655,31921.147999999997,-0.09654000893404757,0.0,0.0,0.0,0.0,-0.014733370343497254,-4.766893965280805,-2.019229826557468,-2.9171080277711474,0.008225964748239513,0.01084484925755329,0.27076139086456874
9655,0.0,299.87833,32029.132999999998,-0.09654998557351502,0.0,0.0,0.0,0.0,-0.014734892919739784,-4.776889069567245,-2.034689084658178,-2.9244786116485675,-0.014133938115661089,-0.008633407710876001,0.24510465203494577
9656,0.0,300.03565,32129.697,-0.09655999524821246,0.0,0.0,0.0,0.0,-0.014736420537625528,-4.783048920900175,-2.0450859426092682,-2.938490644631447,0.001022112694649669,0.005608370714253095,0.2822079353892547
9657,0.0,300.96459,32080.797000000002,-0.0965700049229099,0.0,0.0,0.0,0.0,-0.014737948155511216,-4.784891414882016,-2.044616807812968,-2.9222531091289268,-0.009344976779102402,-0.0018064183266046081,0.2527671735311778
9658,0.0,300.88977,32183.988999999998,-0.09658001459760746,0.0,0.0,0.0,0.0,-0.01473947577339696,-4.8126853717500655,-2.041806659985628,-2.9286369900589673,-0.0017118616246225885,0.004958154446206745,0.3021720223745567
9659,0.0,300.59041,32301.831000000002,-0.09658999123707479,0.0,0.0,0.0,0.0,-0.01474099834963949,-4.816641201465475,-2.063989947074948,-2.938318797414487,-0.012868856862307288,-0.024138829384816977,0.2590367193199337
9660,0.0,300.2879,32231.043999999998,-0.09660000091177234,0.0,0.0,0.0,0.0,-0.014742525967525233,-4.802277165397855,-2.048908428611518,-2.946246972821937,0.0076240902371641234,-0.006823096882687233,0.28804288807761974
9661,0.0,299.89267,31900.042,-0.09661001058646967,0.0,0.0,0.0,0.0,-0.014744053585410949,-4.761621518385455,-2.033014283567888,-2.902180320672897,0.005604729802668765,-0.0016594878415286986,0.2491020554019588
9662,0.0,299.88793,31895.187,-0.09661998722593734,0.0,0.0,0.0,0.0,-0.014745576161653506,-4.760533895728116,-2.023791883807708,-2.911014746969787,0.0008297236557623494,0.015033513713442288,0.2719091803128468
9663,0.0,299.92163999999997,31976.051,-0.09662999690063467,0.0,0.0,0.0,0.0,-0.014747103779539222,-4.792609644868746,-2.016072235270838,-2.911239080541927,-0.02016458283558938,0.006923984472619063,0.26216932385909775
9664,0.0,299.76877,31886.131,-0.096640006575332,0.0,0.0,0.0,0.0,-0.01474863139742491,-4.784891516207026,-2.010570996502908,-2.8971253172490075,-0.01905140398422718,0.01727846658200188,0.2612974626780517
9665,0.0,300.22751,31976.178,-0.09665001625002956,0.0,0.0,0.0,0.0,-0.014750159015310654,-4.783907042409866,-2.021307495887518,-2.914745027212937,-0.012798116806575789,0.017149944926067782,0.26390511247290677
9666,0.0,299.80075,32189.472999999998,-0.096659992889497,0.0,0.0,0.0,0.0,-0.014751681591553184,-4.813667616397005,-2.031596240052938,-2.939532164409237,-0.00977719968485948,0.007421746927969394,0.2721768607242647
9667,0.0,300.29812999999996,32336.863999999998,-0.09667000256419456,0.0,0.0,0.0,0.0,-0.014753209209438928,-4.813018427057935,-2.066631996710698,-2.9499488820622872,-0.003080148074861947,-0.010001723545368262,0.27298979127949474
9668,0.0,300.31595,32251.157000000003,-0.09668001223889189,0.0,0.0,0.0,0.0,-0.014754736827324644,-4.812910211947255,-2.036272693239468,-2.954363714072997,-0.00044388322578786356,0.006988685760404584,0.27466117771694776
9669,0.0,300.53272999999996,32235.702,-0.09668998887835945,0.0,0.0,0.0,0.0,-0.014756259403567201,-4.809332527169166,-2.059103751117718,-2.930412305559177,0.01250724614011909,-0.003926052422796206,0.2819935519330967
9670,0.0,299.80947000000003,32011.885,-0.09669999855305689,0.0,0.0,0.0,0.0,-0.01475778702145289,-4.795008615805505,-2.018774573287538,-2.917030514138497,-0.0023125988637857377,0.011938993192536888,0.2744489626160037
9671,0.0,300.0843,31912.475,-0.09671000822775444,0.0,0.0,0.0,0.0,-0.014759314639338633,-4.7609390944431045,-2.028356980808248,-2.9112996728979073,-0.004353768088133456,-0.02111313489020418,0.26378039151809773
9672,0.0,299.88153,32030.552000000003,-0.09671998486722178,0.0,0.0,0.0,0.0,-0.014760837215581163,-4.790536332514126,-2.036196294181928,-2.9097553784204973,0.004618321103117806,-0.01603254386153888,0.24489112984137276
9673,0.0,300.1298,32015.187,-0.09672999454191933,0.0,0.0,0.0,0.0,-0.014762364833466907,-4.780568282005355,-2.029022888773968,-2.922226359326287,0.01871143121792448,-0.014605903932740485,0.25650893389796076
9674,0.0,299.41974,31844.955,-0.09674000421661666,0.0,0.0,0.0,0.0,-0.014763892451352623,-4.760870193436305,-2.030917058510908,-2.888283798201418,0.02007268915752018,-0.0014470953204921888,0.23905873054325977
9675,0.0,299.83152,32115.499,-0.0967500138913141,0.0,0.0,0.0,0.0,-0.014765420069238339,-4.794293565209936,-2.035392381552588,-2.932623926552447,0.013304052846507788,0.0013785436823266688,0.27512548944277176
9676,0.0,299.86392,32410.552000000003,-0.09675999053078166,0.0,0.0,0.0,0.0,-0.014766942645480896,-4.820688527664915,-2.064690001569038,-2.9666200886076073,-0.012247712259505088,0.02338631488004958,0.26413704542079675
9677,0.0,299.433,32298.285,-0.09677000020547899,0.0,0.0,0.0,0.0,-0.014768470263366584,-4.804480680390325,-2.069180827337248,-2.944210745420977,0.0013467760625414488,0.02875606316925247,0.27515905841858473
9678,0.0,299.47129,32184.872000000003,-0.09678000988017654,0.0,0.0,0.0,0.0,-0.014769997881252328,-4.8190624639044355,-2.033605008376188,-2.930730060790537,-0.02307466042754168,0.009452799458018671,0.2729425738248347
9679,0.0,299.92097,32224.006,-0.09678998651964399,0.0,0.0,0.0,0.0,-0.014771520457494858,-4.814427351321985,-2.058088879817558,-2.9227768581056175,0.003232050578178557,-0.018067115611835483,0.27351392529122276
9680,0.0,300.21002000000004,32099.154,-0.09679999619434154,0.0,0.0,0.0,0.0,-0.014773048075380601,-4.8034319665368255,-2.0377151560818283,-2.9161940761809473,-0.01954833932352088,-0.014908288160083487,0.26049552588640673
9681,0.0,300.7868,32103.851000000002,-0.09681000586903887,0.0,0.0,0.0,0.0,-0.014774575693266317,-4.808204577157846,-2.035103909249118,-2.9154606857585676,0.014189071080102287,-0.007920533981820842,0.28230648409398074
9682,0.0,299.76103,32074.037999999997,-0.09682001554373643,0.0,0.0,0.0,0.0,-0.014776103311152061,-4.791236690983245,-2.0432897541569983,-2.915180218130887,0.002282558328795968,0.004111955242493386,0.2577305082185208
9683,0.0,299.87186,32050.742000000002,-0.09682999218320387,0.0,0.0,0.0,0.0,-0.014777625887394591,-4.7912081173304255,-2.029343481105608,-2.9220737638612273,0.01805748770938528,0.001935183871837778,0.2680524565897177
9684,0.0,300.31883999999997,32200.222,-0.09684000185790143,0.0,0.0,0.0,0.0,-0.014779153505280307,-4.809014771937805,-2.0615015061543582,-2.917547373014507,0.019229871777340583,0.01701578149357688,0.2503430638594367
9685,0.0,299.8198,32382.237999999998,-0.09685001153259876,0.0,0.0,0.0,0.0,-0.014780681123166023,-4.833664005795495,-2.075119992798398,-2.9346076675982267,0.02196319194234828,0.015199970439870286,0.25092224774909777
9686,0.0,299.48584,32298.757,-0.0968599881720662,0.0,0.0,0.0,0.0,-0.014782203699408553,-4.840543669999465,-2.044072591184258,-2.9333992655289673,0.007616464314261502,0.005937894845524595,0.27485468822104575
9687,0.0,300.26451000000003,32216.33,-0.09686999784676376,0.0,0.0,0.0,0.0,-0.014783731317294296,-4.823137958456655,-2.061061552960938,-2.9087605694723178,-0.016504924097909185,-0.022499642009041775,0.26384712416968376
9688,0.0,299.84185,32308.222999999998,-0.09688000752146109,0.0,0.0,0.0,0.0,-0.014785258935180012,-4.826164131205315,-2.050795708247778,-2.943933317543597,-0.02005057902708808,0.004664161854866936,0.27798033173202275
9689,0.0,300.17845,32392.607000000004,-0.09688998416092842,0.0,0.0,0.0,0.0,-0.014786781511422542,-4.845925243930585,-2.064250555000668,-2.9363677843469373,-0.019614921000841983,0.004448518624859606,0.26370325278798473
9690,0.0,299.66014,32207.045,-0.09689999383562597,0.0,0.0,0.0,0.0,-0.014788309129308286,-4.806839019998075,-2.0659929398726278,-2.9173056115406473,-0.002807139487793097,0.019556393648565783,0.2648507078637298
9691,0.0,299.71053,32035.197999999997,-0.09691000351032353,0.0,0.0,0.0,0.0,-0.014789836747194002,-4.807034171967336,-2.019226584157148,-2.9116394156564374,-0.013176707573939787,0.012145788418695989,0.24634945004779774
9692,0.0,299.37941,32120.993,-0.09692001318502097,0.0,0.0,0.0,0.0,-0.014791364365079718,-4.815880250640375,-2.046538943252668,-2.9015607182367473,0.0026312050225797174,0.01793032684833548,0.26211273384101275
9693,0.0,299.92924,32151.894,-0.0969299898244883,0.0,0.0,0.0,0.0,-0.014792886941322247,-4.827611964273205,-2.034479341887478,-2.911281738371137,0.009463890696263291,-0.0044131093842149855,0.2591484504084608
9694,0.0,300.64555,32333.499,-0.09693999949918586,0.0,0.0,0.0,0.0,-0.014794414559207991,-4.829706858854955,-2.051067259274578,-2.947802311725437,0.002456237704586788,0.0022861859668039876,0.27876633009959473
9695,0.0,300.79026,32359.305,-0.09695000917388341,0.0,0.0,0.0,0.0,-0.014795942177093735,-4.854171275894405,-2.062016237205158,-2.9202333977045973,-0.0025648488947308777,-0.009974863197142352,0.26963720001111974
9696,0.0,300.52201,32293.449,-0.09695998581335064,0.0,0.0,0.0,0.0,-0.014797464753336237,-4.823942073736015,-2.0419130512461283,-2.9505470035963173,-0.005037253308638195,0.011412678666593687,0.2772981205721937
9697,0.0,300.87519,32375.224,-0.09696999548804819,0.0,0.0,0.0,0.0,-0.01479899237122198,-4.837673335116186,-2.059609768217658,-2.943976583322867,-0.0069443980170837225,0.006885355731106703,0.27303766734671975
9698,0.0,300.5046,32591.353,-0.09698000516274574,0.0,0.0,0.0,0.0,-0.014800519989107697,-4.875908834264735,-2.0745374753159083,-2.956511196334937,-0.0071571804367587125,0.0044733593629861955,0.2795460159190437
9699,0.0,300.51327000000003,32461.066000000003,-0.09699001483744307,0.0,0.0,0.0,0.0,-0.014802047606993413,-4.848416927251495,-2.059112769043608,-2.959823916211877,-0.012468844974579188,-0.004885201654906865,0.2818415441530947
9700,0.0,300.06021,32137.37,-0.09699999147691052,0.0,0.0,0.0,0.0,-0.014803570183235942,-4.801892839634925,-2.054953073408078,-2.9121119955030768,0.010700529006059991,0.0026331922086758374,0.25958188840373775
9701,0.0,299.69957,32118.601000000002,-0.09701000115160807,0.0,0.0,0.0,0.0,-0.014805097801121686,-4.808279557665245,-2.037151991676248,-2.917821355841547,0.005211436269728715,-0.0077384981298053036,0.26032062878664575
9702,0.0,299.959,32293.222999999998,-0.09702001082630562,0.0,0.0,0.0,0.0,-0.01480662541900743,-4.820775059223455,-2.050617173580158,-2.9449409947680474,0.010074764286776821,0.006708381671290723,0.25219751419245673
9703,0.0,299.94723,32300.29,-0.09702998746577285,0.0,0.0,0.0,0.0,-0.014808147995249932,-4.822640959282605,-2.065692815193008,-2.930147745958067,0.004647913882888386,-0.012750495065125886,0.23764577354381175
9704,0.0,300.06622999999996,32240.437,-0.09703999714047051,0.0,0.0,0.0,0.0,-0.014809675613135703,-4.829680109052315,-2.044925342468418,-2.925682454092377,0.0017062481177435782,0.013783009076027088,0.26208739245601176
9705,0.0,299.76137,32291.423,-0.09705000681516796,0.0,0.0,0.0,0.0,-0.014811203231021391,-4.819442128716905,-2.064430001593378,-2.9319141448573975,0.009532409099825532,-0.01026506755033329,0.25529050065271075
9706,0.0,299.92248,32403.366,-0.0970600164898654,0.0,0.0,0.0,0.0,-0.014812730848907135,-4.843504994741725,-2.065176665592068,-2.941132694267197,0.0015534693557404883,-0.009270058181283512,0.27510953075369676
9707,0.0,299.77736,32508.629,-0.09706999312933273,0.0,0.0,0.0,0.0,-0.014814253425149637,-4.856349459634375,-2.079422050072978,-2.9460399658265075,0.01879558366522968,-0.016420832445609986,0.27503118625596473
9708,0.0,299.32151,32436.222999999998,-0.0970800028040304,0.0,0.0,0.0,0.0,-0.014815781043035409,-4.8278673032984045,-2.0763762202723783,-2.9555583359408972,0.012267021766660788,-0.0024419411509758273,0.26320537208634776
9709,0.0,298.90602,32190.267000000003,-0.09709001247872773,0.0,0.0,0.0,0.0,-0.014817308660921125,-4.810303119439955,-2.043537493806448,-2.931196865111607,0.016017729131826787,0.02125733861793598,0.2801515949738097
9710,0.0,299.73281000000003,32166.327999999998,-0.09709998911819517,0.0,0.0,0.0,0.0,-0.014818831237163654,-4.815592284961955,-2.0550692931945482,-2.907099041958337,-0.025874849019648774,0.004005427193229887,0.26144057412217575
9711,0.0,299.38096,32384.842999999997,-0.09710999879289273,0.0,0.0,0.0,0.0,-0.014820358855049398,-4.830376617171056,-2.0645262603528782,-2.949280744946347,-0.008198957174774072,0.0008970939659012811,0.27965971271276474
9712,0.0,300.03008,32320.182,-0.09712000846759006,0.0,0.0,0.0,0.0,-0.014821886472935086,-4.842636943381056,-2.045569972182038,-2.9363215801423768,-0.008022131353447723,0.0027720917747841574,0.2626892630154118
9713,0.0,299.86683999999997,32188.546000000002,-0.0971299851070575,0.0,0.0,0.0,0.0,-0.014823409049177644,-4.809821319017405,-2.045806566080388,-2.9288864522335873,0.028441688140226074,0.0011894353446131288,0.2606150184706998
9714,0.0,299.84074,32348.076,-0.09713999478175483,0.0,0.0,0.0,0.0,-0.014824936667063332,-4.821535199448475,-2.0460164101760983,-2.965455864242707,0.005679823388779925,-0.009475221466831552,0.25992106374221174
9715,0.0,300.26466,32547.44,-0.09715000445645261,0.0,0.0,0.0,0.0,-0.014826464284949104,-4.848418548451655,-2.072088855124248,-2.973101646847287,0.01326401933505679,-0.014118474905884987,0.27393135393491974
9716,0.0,300.28007,32477.443,-0.09716001413114994,0.0,0.0,0.0,0.0,-0.01482799190283482,-4.847182282004645,-2.074768800313738,-2.950380425279877,-0.002447383621237958,0.009465052894127992,0.26859635911089674
9717,0.0,299.86706000000004,32445.385,-0.09716999077061739,0.0,0.0,0.0,0.0,-0.01482951447907735,-4.836156499716486,-2.062742028251788,-2.9636882494432575,0.009037160416648291,0.0035430575638725564,0.27318253171351675
9718,0.0,300.14418,32443.209,-0.09718000044531494,0.0,0.0,0.0,0.0,-0.014831042096963093,-4.854666248568255,-2.074730499459958,-2.9325287823680575,0.013178054183322687,-0.005803612254821934,0.27424083091296275
9719,0.0,299.9366,32305.779,-0.0971900101200125,0.0,0.0,0.0,0.0,-0.014832569714848809,-4.809158248151966,-2.063683438919698,-2.9473085549517073,-0.021596963839454378,-0.001853412866242608,0.25924327035281874
9720,0.0,300.6956,32286.009,-0.09719998675947972,0.0,0.0,0.0,0.0,-0.014834092291091339,-4.816492253700775,-2.054292333017868,-2.9433558663116073,0.00022416814892867377,0.002133693346629138,0.25661577098850474
9721,0.0,299.94834,32335.918999999998,-0.09720999643417716,0.0,0.0,0.0,0.0,-0.014835619908977055,-4.834839477236505,-2.058824600715168,-2.9356478701508872,-0.008324071675921913,0.016483440156038885,0.26204604171943074
9722,0.0,299.4729,32312.486,-0.09722000610887471,0.0,0.0,0.0,0.0,-0.014837147526862798,-4.828038846540336,-2.052462504662278,-2.9416876513469674,-0.008037101921025202,0.008785106044297462,0.2667479477484727
9723,0.0,299.38095,32261.427000000003,-0.09723001578357215,0.0,0.0,0.0,0.0,-0.014838675144748514,-4.816389408815625,-2.049549917249828,-2.9407290154273573,-0.0037984042897733165,-0.006675919873861994,0.25505441337941076
9724,0.0,300.01916,32462.998,-0.09723999242303949,0.0,0.0,0.0,0.0,-0.014840197720991044,-4.845216475485636,-2.0503714604309082,-2.9723526523733677,0.005940750082981385,0.017584726490977382,0.2834334715177057
9725,0.0,299.83179,32516.674,-0.09725000209773704,0.0,0.0,0.0,0.0,-0.014841725338876788,-4.830138402072545,-2.062434405521428,-2.991684147056237,0.01161807358111459,0.005351065071934005,0.27388950670578976
9726,0.0,299.95206,32481.762000000002,-0.0972600117724346,0.0,0.0,0.0,0.0,-0.014843252956762504,-4.846332469145776,-2.069089128203198,-2.958223082378887,0.007786305802648553,-0.01851198712124088,0.27326805002195675
9727,0.0,299.62501000000003,32535.381,-0.09726998841190182,0.0,0.0,0.0,0.0,-0.014844775533005033,-4.872174197046155,-2.0490949679549284,-2.968674250535337,-0.017174373372728684,-0.01349112211972009,0.2745197381354887
9728,0.0,299.9858,32530.374,-0.09727999808659937,0.0,0.0,0.0,0.0,-0.01484630315089075,-4.855541190029605,-2.081494754477538,-2.9513853667290575,0.007352173021777983,-0.000909963528998908,0.27869820929537176
9729,0.0,300.10098,32378.616,-0.09729000776129693,0.0,0.0,0.0,0.0,-0.014847830768776493,-4.842492149941766,-2.0539219901063177,-2.945876528585377,-0.0015233960927724885,0.022194487555925378,0.2731726018625368
9730,0.0,300.10802,32438.167999999998,-0.09729998440076437,0.0,0.0,0.0,0.0,-0.014849353345019023,-4.852092897289285,-2.0558053180671876,-2.952494875588557,0.02195490963603088,0.005985414957989464,0.28473712922886674
9731,0.0,299.89324,32440.563,-0.0973099940754617,0.0,0.0,0.0,0.0,-0.014850880962904739,-4.814338387963205,-2.0713935629056284,-2.9753892615980573,0.01041641874427049,0.004314202900878676,0.2675975782223248
9732,0.0,300.35595,32335.678,-0.09732000375015926,0.0,0.0,0.0,0.0,-0.014852408580790483,-4.838318775429886,-2.053608085225338,-2.937311626815087,0.029235634441582472,0.007905098940397521,0.2774060925028497
9733,0.0,300.29128,32452.162999999997,-0.09733001342485681,0.0,0.0,0.0,0.0,-0.014853936198676199,-4.8349698825243745,-2.072734498087968,-2.956942840877537,0.013503824222973687,-0.001978884335400678,0.26517365093560175
9734,0.0,300.1687,32650.542999999998,-0.09733999006432426,0.0,0.0,0.0,0.0,-0.014855458774918756,-4.861672974334765,-2.0791196962431377,-2.9841570160383677,-0.006433303216917594,-0.011453813580903388,0.2828815237907327
9735,0.0,300.07324,32499.145,-0.09734999973902159,0.0,0.0,0.0,0.0,-0.014856986392804444,-4.849865570919466,-2.067051380927088,-2.962011624502787,-0.016215864109381185,-0.02249398098073308,0.2730341918988768
9736,0.0,299.5646,32420.155,-0.09736000941371914,0.0,0.0,0.0,0.0,-0.014858514010690188,-4.842526600445165,-2.061568583310978,-2.950822404973497,0.0034059151760876564,0.009653408994967291,0.28608351569674473
9737,0.0,299.35866,32664.066000000003,-0.09736998605318647,0.0,0.0,0.0,0.0,-0.014860036586932718,-4.858934260639475,-2.081997225202128,-2.9881288551053573,0.002096273209836058,0.02734523703476477,0.28329235617627874
9738,0.0,299.99518,32587.534,-0.09737999572788392,0.0,0.0,0.0,0.0,-0.014861564204818434,-4.876059200579575,-2.0632168372486483,-2.966520486122777,0.01134252426941999,-0.01001666898434326,0.29688634243290074
9739,0.0,299.50272,32410.154,-0.09739000540258147,0.0,0.0,0.0,0.0,-0.014863091822704178,-4.833348682364375,-2.082640233715588,-2.935888517049637,0.004535654080459206,-0.004358435726044116,0.2639039776327948
9740,0.0,299.73311,32459.04,-0.09740001507727891,0.0,0.0,0.0,0.0,-0.014864619440589893,-4.844622609602026,-2.0556137124732783,-2.9665014370208973,0.014908682314372385,0.0004150010180474116,0.2875371546877077
9741,0.0,299.55641,32431.242000000002,-0.09740999171674636,0.0,0.0,0.0,0.0,-0.014866142016832451,-4.843635096054566,-2.072579470822668,-2.9420732943350267,0.012792753673796488,0.023750759662767476,0.2846730614250437
9742,0.0,299.88939,32346.618,-0.09742000139144369,0.0,0.0,0.0,0.0,-0.01486766963471814,-4.836049297855904,-2.0436842124209282,-2.952830666671697,-0.016539321912303985,0.005152605347722555,0.2812110391458687
9743,0.0,300.14187999999996,32498.075,-0.09743001106614124,0.0,0.0,0.0,0.0,-0.014869197252603883,-4.840116179782275,-2.0588757698452183,-2.979611373439747,-0.002000624933521308,-0.005816341715828234,0.27847656083599676
9744,0.0,300.13552000000004,32630.945,-0.09743998770560869,0.0,0.0,0.0,0.0,-0.014870719828846413,-4.873449574947026,-2.092083319347548,-2.953459489683757,-0.008117979645332212,-0.0004928872936866886,0.27465587841892475
9745,0.0,299.69366,32563.142999999996,-0.09744999738030624,0.0,0.0,0.0,0.0,-0.014872247446732156,-4.846423762979786,-2.071320507573418,-2.9806382010910872,0.0014167321666705786,0.01873941110618588,0.2692508173504867
9746,0.0,300.34379,32672.924,-0.09746000705500357,0.0,0.0,0.0,0.0,-0.014873775064617872,-4.879380026457316,-2.0965747530658176,-2.955798172239567,-0.003379280883959057,-0.005248965837532594,0.26994693030168776
9747,0.0,299.86814,32648.377,-0.09746998369447124,0.0,0.0,0.0,0.0,-0.01487529764086043,-4.8767293641957155,-2.069054981674828,-2.978507234805777,-0.007679955173477562,0.006223998778210854,0.29719523172588574
9748,0.0,298.71137000000004,32435.543999999998,-0.09747999336916857,0.0,0.0,0.0,0.0,-0.014876825258746146,-4.849120426795926,-2.062278466331038,-2.9481964660143367,0.004116533714395246,0.013638961388810687,0.27720284466529077
9749,0.0,299.40851000000004,32427.967999999997,-0.0974900030438659,0.0,0.0,0.0,0.0,-0.014878352876631834,-4.839590606955405,-2.068010118171708,-2.9496919218369273,0.001664456617369078,0.012799260765938687,0.2849267893825847
9750,0.0,299.05127000000005,32637.632,-0.09750001271856346,0.0,0.0,0.0,0.0,-0.014879880494517578,-4.887479542456675,-2.070093056402278,-2.963452668795007,-0.011070831387605989,-0.02253806749258408,0.27078771510216676
9751,0.0,299.97433,32592.201,-0.0975099893580309,0.0,0.0,0.0,0.0,-0.014881403070760107,-4.841235213192716,-2.077453001153648,-2.988526961069647,-0.006149439174902394,-0.026143793967191575,0.27355314820259374
9752,0.0,300.18077999999997,32435.593999999997,-0.09751999903272845,0.0,0.0,0.0,0.0,-0.014882930688645851,-4.841777099346196,-2.069844303502728,-2.947989459018907,0.00014525030362758887,0.00025568195969634475,0.25369423657767176
9753,0.0,300.19789,32567.717999999997,-0.09753000870742579,0.0,0.0,0.0,0.0,-0.014884458306531567,-4.849679234226075,-2.062238746927118,-2.987855074928337,0.00954245983154246,0.015420605649145285,0.28915925664029674
9754,0.0,300.45687999999996,32656.366,-0.09753998534689334,0.0,0.0,0.0,0.0,-0.014885980882774125,-4.868516262860146,-2.080392135718718,-2.9778115372871174,-0.008156951675978451,0.016798621732144883,0.2711292310483717
9755,0.0,300.80251,32584.525,-0.09754999502159067,0.0,0.0,0.0,0.0,-0.014887508500659813,-4.868123425796376,-2.065678427041588,-2.971080314222797,-0.0025793438427114176,0.008687508376115321,0.2809302776756597
9756,0.0,299.86295,32593.766,-0.09756000469628823,0.0,0.0,0.0,0.0,-0.014889036118545557,-4.873712310697955,-2.0613949122438378,-2.972583774721177,0.003239259346015007,0.007195666613982004,0.2757330443352327
9757,0.0,299.59324,32627.357000000004,-0.09757001437098567,0.0,0.0,0.0,0.0,-0.014890563736431273,-4.859823995552286,-2.081199290748378,-2.976878435270027,-0.009875783245388922,0.008217569667185983,0.28037009222537373
9758,0.0,299.08979,32383.429,-0.09757999101045323,0.0,0.0,0.0,0.0,-0.01489208631267383,-4.8602916104734355,-2.0261419147646382,-2.957320175214777,-0.007630847804731044,-0.028016836426296477,0.28018229645183973
9759,0.0,299.92162,32462.95,-0.09759000068515056,0.0,0.0,0.0,0.0,-0.014893613930559546,-4.8377216671459555,-2.056772465287638,-2.973431966379887,-0.011546315209032591,-0.005251266928509695,0.28506821883154276
9760,0.0,300.2204,32572.1,-0.09760001035984789,0.0,0.0,0.0,0.0,-0.014895141548445262,-4.855551829155655,-2.063793984505608,-2.981759362326737,0.01029817448410069,0.008075257778715893,0.2811896697012597
9761,0.0,299.97705,32553.404,-0.09760998699931556,0.0,0.0,0.0,0.0,-0.01489666412468782,-4.850844471841075,-2.071147951081388,-2.9734297372296674,0.019474454139478983,0.00938002256693615,0.2639900734937917
9762,0.0,300.03763,32681.914,-0.09761999667401289,0.0,0.0,0.0,0.0,-0.014898191742573508,-4.865024805665565,-2.107447129288838,-2.9620136510029873,0.008936117900776173,0.0032081827627979866,0.25074873880197374
9763,0.0,299.98331,32727.285,-0.09763000634871044,0.0,0.0,0.0,0.0,-0.014899719360459251,-4.864620012250616,-2.075966563256948,-3.007690965510987,0.015966581280028886,-0.008203372614734842,0.26895313460360776
9764,0.0,299.83065,32629.388,-0.09764001602340777,0.0,0.0,0.0,0.0,-0.014901246978344967,-4.869086621341435,-2.078983718079718,-2.9704487554354673,0.025512698235157272,0.010638596120197689,0.2618077252959108
9765,0.0,300.63672,32566.944,-0.09764999266287544,0.0,0.0,0.0,0.0,-0.014902769554587525,-4.840899219459555,-2.062516985404578,-2.9961213718941573,0.0015991668339254785,0.00908119423949409,0.27967991691975874
9766,0.0,300.43686,32643.828999999998,-0.09766000233757277,0.0,0.0,0.0,0.0,-0.014904297172473241,-4.863183324933826,-2.063140032891068,-2.9965856430899773,-0.015800284647116684,-0.008246218300513381,0.2745316336916627
9767,0.0,300.39461,32624.247000000003,-0.09767001201227032,0.0,0.0,0.0,0.0,-0.014905824790358985,-4.885510493537345,-2.0643708277875383,-2.9670751392275174,-0.03876737337779187,-0.00915963479333557,0.28534227258608974
9768,0.0,300.69428,32579.892999999996,-0.09767998865173766,0.0,0.0,0.0,0.0,-0.014907347366601514,-4.862524003093755,-2.081078106036418,-2.9598718429416073,0.0021394125354935777,0.012341838127544589,0.26220870889048475
9769,0.0,300.68151,32666.032000000003,-0.09768999832643521,0.0,0.0,0.0,0.0,-0.01490887498448723,-4.872105498689375,-2.089026445120858,-2.9685260120457073,-0.003879865646137926,0.004863863519725955,0.27099338460746475
9770,0.0,300.2219,32782.951,-0.09770000800113265,0.0,0.0,0.0,0.0,-0.014910402602372946,-4.875707501469866,-2.099014861956638,-2.9904759476369973,0.004328339158323816,-0.0010071405869320372,0.26234118120855876
9771,0.0,300.02707000000004,32784.203,-0.09770998464060021,0.0,0.0,0.0,0.0,-0.014911925178615504,-4.867177860803055,-2.099943100373248,-2.998458230599787,0.00936931160145406,-0.0077936608837994425,0.26220780709789576
9772,0.0,299.94293,32694.511000000002,-0.09771999431529754,0.0,0.0,0.0,0.0,-0.01491345279650122,-4.878005552696665,-2.087329453853378,-2.9729798541852674,0.02110134065904018,0.013708837142206885,0.26606907018147274
9773,0.0,300.12521,32667.391,-0.09773000398999487,0.0,0.0,0.0,0.0,-0.014914980414386936,-4.887289254087896,-2.083131052064028,-2.959650954419807,0.010554211638619589,-0.00950813061417943,0.27910003388752874
9774,0.0,299.89911,32543.432999999997,-0.09774001366469243,0.0,0.0,0.0,0.0,-0.01491650803227268,-4.877299824002016,-2.068548255299818,-2.9465429431761474,0.0004178326163793686,-0.02220584304979608,0.26938454609868473
9775,0.0,300.03799,32670.17,-0.09774999030415987,0.0,0.0,0.0,0.0,-0.01491803060851521,-4.886038802139486,-2.0804826189526477,-2.9643945860879675,0.004673621861775565,-0.010839507403026092,0.2773757963248597
9776,0.0,299.83813,32792.637,-0.09775999997885743,0.0,0.0,0.0,0.0,-0.014919558226400925,-4.896044748201995,-2.088167614336098,-2.9839305546410175,0.012792674640288687,0.003822338675685456,0.2840900373175037
9777,0.0,298.82601,32600.259,-0.09777000965355476,0.0,0.0,0.0,0.0,-0.014921085844286641,-4.847136483100125,-2.087488939419118,-2.9750391836885073,0.001242580008383099,0.014924144510898386,0.26122189448559374
9778,0.0,299.94628,32648.861,-0.09777998629302243,0.0,0.0,0.0,0.0,-0.014922608420529199,-4.883080922447566,-2.093271253764788,-2.9480863257284673,-0.01991560702101738,-0.009115889037493202,0.26162332391021176
9779,0.0,300.25923,32879.812999999995,-0.09778999596771976,0.0,0.0,0.0,0.0,-0.014924136038414915,-4.9149050815883655,-2.106363964931938,-2.973373096549077,-0.0003483254529720457,0.01160985308305329,0.2704333916746977
9780,0.0,300.29645,32885.415,-0.09780000564241731,0.0,0.0,0.0,0.0,-0.014925663656300658,-4.914168651415686,-2.112694447581708,-2.9694821148400674,-0.013213949581365287,0.02379285108517158,0.25776255731918374
9781,0.0,300.67068,32638.347999999998,-0.09781001531711464,0.0,0.0,0.0,0.0,-0.014927191274186374,-4.8885359570109355,-2.083419119067458,-2.9492875337220172,0.016567280522313283,-5.349927800021765e-05,0.26541381147430376
9782,0.0,300.64926,32602.57,-0.0978199919565822,0.0,0.0,0.0,0.0,-0.014928713850428932,-4.868331142066875,-2.081380561191268,-2.960655389243937,-0.008302517009194632,-0.032296389416155466,0.2604728797466717
9783,0.0,300.15037,32637.251,-0.09783000163127964,0.0,0.0,0.0,0.0,-0.01493024146831462,-4.880525201720336,-2.0606309216684378,-2.979753228453747,0.013081898775332886,-0.017328139141654184,0.28882837982014176
9784,0.0,300.13352000000003,32716.77,-0.09784001130597697,0.0,0.0,0.0,0.0,-0.014931769086200336,-4.907893796196405,-2.0843405687083982,-2.9528468786732973,0.018487713701845283,0.0037746601922299568,0.27364489799914876
9785,0.0,299.61574,32756.62,-0.09784998794544453,0.0,0.0,0.0,0.0,-0.014933291662442894,-4.905879961622655,-2.0819125174937683,-2.9694019667571574,0.013536510657949589,0.006800370290894293,0.2831366804309147
9786,0.0,299.60823999999997,32745.84,-0.09785999762014197,0.0,0.0,0.0,0.0,-0.01493481928032861,-4.902350710199345,-2.0889636236146583,-2.962603362561187,-0.008838174916959951,-0.00038480224378952465,0.26242233240906776
9787,0.0,299.73864,32762.15,-0.09787000729483941,0.0,0.0,0.0,0.0,-0.014936346898214353,-4.892042308981986,-2.097540380411118,-2.969292941046397,-0.0024263248391096174,0.009061645301339762,0.27315592376589076
9788,0.0,299.75138,32843.462999999996,-0.09787998393430686,0.0,0.0,0.0,0.0,-0.014937869474456883,-4.894510788875604,-2.0914922905642177,-2.997589469964047,0.015096621969420587,0.02649718925756897,0.2633572886738408
9789,0.0,299.945,33010.286,-0.09788999360900441,0.0,0.0,0.0,0.0,-0.014939397092342627,-4.898276228897225,-2.1210855769598482,-3.0149408713014973,8.253240427681412e-05,-0.011786522357239189,0.27521612466421674
9790,0.0,299.9194,32783.433,-0.09790000328370174,0.0,0.0,0.0,0.0,-0.014940924710228315,-4.908534879534676,-2.0832706779278083,-2.973539370890487,-0.01931616826185738,-0.02467580330181218,0.2729329276838827
9791,0.0,300.33859,32614.632999999998,-0.0979100129583993,0.0,0.0,0.0,0.0,-0.014942452328114059,-4.882517960692005,-2.065671638265918,-2.965844445656057,-0.0042740780955936655,-0.01124575888486999,0.26528543268663374
9792,0.0,300.53604,32734.078999999998,-0.09791998959786674,0.0,0.0,0.0,0.0,-0.014943974904356588,-4.911830070184886,-2.077427872551168,-2.9610846019862973,0.020075754239072683,0.030160861478895268,0.27219949673149874
9793,0.0,299.77636,32842.797999999995,-0.0979299992725643,0.0,0.0,0.0,0.0,-0.014945502522242332,-4.897517405897336,-2.088333280727448,-2.997539820709147,-0.0002099084776213538,0.015528832918826486,0.25512827931170073
9794,0.0,299.53911,32812.108,-0.09794000894726163,0.0,0.0,0.0,0.0,-0.014947030140128048,-4.883420462556075,-2.107005453570248,-2.983635496211897,-0.004199708375353947,0.0012758203871886687,0.26903235049642577
9795,0.0,299.98645,32864.138,-0.09794998558672918,0.0,0.0,0.0,0.0,-0.014948552716370606,-4.900690297260475,-2.095199266055068,-2.9939875685085675,0.007461227306190804,0.0018118123635119583,0.26362891062814775
9796,0.0,300.53162000000003,32805.921,-0.09795999526142662,0.0,0.0,0.0,0.0,-0.014950080334256322,-4.901029330743936,-2.083715798696738,-2.9874356907119473,0.017303655979487884,-0.0016207261616032185,0.2801464273982997
9797,0.0,300.69337,32724.742000000002,-0.09797000493612396,0.0,0.0,0.0,0.0,-0.01495160795214201,-4.883362808625386,-2.093770887389098,-2.9703707351777675,-0.006180212492364484,-0.017688036457923283,0.26386620366906677
9798,0.0,300.56166,32930.884,-0.09798001461082151,0.0,0.0,0.0,0.0,-0.014953135570027754,-4.915169945164505,-2.100434627996758,-2.9945618786652473,-0.014196646137849885,-0.01906162058498548,0.26904238167241573
9799,0.0,299.63536,33004.528,-0.09798999125028895,0.0,0.0,0.0,0.0,-0.014954658146270283,-4.913860116760236,-2.106701883840288,-3.011990287010297,-0.01143519916331629,0.01103142913096729,0.27115180626059976
9800,0.0,299.58139,32869.822,-0.0980000009249864,0.0,0.0,0.0,0.0,-0.014956185764156027,-4.896209198693225,-2.0917475282644085,-3.003648502912027,0.0077316850361329025,0.03179446989961987,0.2668715845256748
9801,0.0,299.88882,32786.223,-0.09801001059968384,0.0,0.0,0.0,0.0,-0.014957713382041743,-4.904718371708015,-2.073282362417038,-2.988192284561617,-0.010866736472963389,-0.008635317585989491,0.2975185902302987
9802,0.0,299.50625,32795.328,-0.0980199872391514,0.0,0.0,0.0,0.0,-0.0149592359582843,-4.898329627177495,-2.086625650333918,-2.984005332498397,0.0003002529570826597,-0.008566765137223892,0.2748512837007097
9803,0.0,299.79975,32828.577000000005,-0.09802999691384873,0.0,0.0,0.0,0.0,-0.014960763576170016,-4.905247794885265,-2.088263569120568,-2.9855562131014572,0.0073807623799745335,-0.007480410157084003,0.2825673453322257
9804,0.0,299.72412,32800.572,-0.09804000658854628,0.0,0.0,0.0,0.0,-0.014962291194055732,-4.908801161660955,-2.075028597639378,-2.986725098416817,0.03383872122812177,0.015845396568068885,0.27296475386952374
9805,0.0,300.25999,32791.701,-0.09805001626324361,0.0,0.0,0.0,0.0,-0.014963818811941448,-4.875651063439295,-2.093041347317098,-2.999165985794637,0.0001157110741247939,-0.015205284936644786,0.25859503346884277
9806,0.0,300.48703,32842.37,-0.09805999290271128,0.0,0.0,0.0,0.0,-0.014965341388184006,-4.8970562757768255,-2.0920749093717177,-2.9941292208725474,-0.007022529326994683,-0.01841205431687828,0.2843465922428237
9807,0.0,300.47545,32959.465,-0.09807000257740861,0.0,0.0,0.0,0.0,-0.014966869006069722,-4.9092861031588155,-2.109051104197138,-3.000517053477977,-0.003732743758118126,-0.008295519098703992,0.2618597860860487
9808,0.0,299.997,33015.15,-0.09808001225210594,0.0,0.0,0.0,0.0,-0.014968396623955438,-4.937861377178975,-2.1002522429787582,-2.997667591546757,0.01238246945655459,0.01008289257907902,0.29947616915849673
9809,0.0,300.04474,32840.23,-0.09808998889157361,0.0,0.0,0.0,0.0,-0.014969919200197995,-4.889396611645875,-2.087946016539228,-3.005267271271787,0.005492251138217985,-0.004157887794701576,0.25705483252183675
9810,0.0,299.51565,32778.916,-0.09809999856627094,0.0,0.0,0.0,0.0,-0.014971446818083711,-4.894886704662705,-2.087358331481228,-2.981726938323537,-0.016137974560944086,0.002349540138581558,0.29211352916186073
9811,0.0,299.53924,32861.665,-0.0981100082409685,0.0,0.0,0.0,0.0,-0.014972974435969427,-4.866667993352736,-2.1004535757736282,-3.022004035098577,-0.006422205595197343,0.025942569590082277,0.2544897493636828
9812,0.0,299.64916,32864.649,-0.09811998488043572,0.0,0.0,0.0,0.0,-0.014974497012211957,-4.919023335294805,-2.092516787740328,-2.978492644004337,-0.02112549451492398,0.016130061077663085,0.3006894550932387
9813,0.0,299.89822999999996,32662.961,-0.09812999455513349,0.0,0.0,0.0,0.0,-0.0149760246300977,-4.8859697998076745,-2.068807647325418,-2.973947204055737,-0.01011408801653277,0.005039176356002985,0.2637665809192347
9814,0.0,300.33005,32820.227999999996,-0.09814000422983082,0.0,0.0,0.0,0.0,-0.014977552247983417,-4.9220380583173355,-2.0727527365897678,-2.981738995999727,-0.013426842546626187,-0.01395458778171059,0.2961072139010067
9815,0.0,300.22267,33000.144,-0.09815001390452838,0.0,0.0,0.0,0.0,-0.01497907986586916,-4.907867451693805,-2.1079719928406377,-3.0153801152198474,0.02873525405194877,0.015792292130327883,0.27951554748853674
9816,0.0,299.74695,33025.15,-0.09815999054399571,0.0,0.0,0.0,0.0,-0.01498060244211169,-4.912868955512415,-2.089691137186458,-3.036260970630627,0.025942664835591676,0.002918607131294097,0.27293668684175376
9817,0.0,299.50402,32971.102,-0.09817000021869327,0.0,0.0,0.0,0.0,-0.014982130059997434,-4.887158848800025,-2.1130036915122283,-3.022228976620777,0.01998937770779798,-0.01066602277390449,0.27070570263907273
9818,0.0,300.02659,32801.567,-0.09818000989339071,0.0,0.0,0.0,0.0,-0.014983657677883122,-4.900600320651596,-2.087195299540138,-2.9830616926802676,-0.013270201173916887,-0.013905715689637287,0.27127803695805774
9819,0.0,299.43415,32719.514,-0.09818998653285804,0.0,0.0,0.0,0.0,-0.01498518025412568,-4.900767912218136,-2.075293663865538,-2.969853572326727,-0.016988815868665585,0.016059584466957585,0.2912856633001567
9820,0.0,299.63851,32794.168,-0.0981999962075556,0.0,0.0,0.0,0.0,-0.014986707872011396,-4.914803249953316,-2.078122252844698,-2.975682800152027,-0.012919402843545789,0.027859477672516373,0.28608238085663273
9821,0.0,299.82526,32810.365,-0.09821000588225293,0.0,0.0,0.0,0.0,-0.014988235489897112,-4.894679191042225,-2.082421574344008,-2.996430919799707,-0.02185150442357558,0.004764087363828815,0.2966112754282537
9822,0.0,300.31883,32833.855,-0.09822001555695048,0.0,0.0,0.0,0.0,-0.014989763107782855,-4.893950765545336,-2.078572135889098,-3.008149055881197,0.00876664959240095,-0.011601355967714689,0.2808441716821617
9823,0.0,300.39826,33012.835,-0.09822999219641793,0.0,0.0,0.0,0.0,-0.014991285684025385,-4.889650126820895,-2.121921710942368,-3.023505671746777,0.017364414508484284,-0.0025548244061915377,0.26068859056046073
9824,0.0,300.38329,33157.041,-0.09824000187111548,0.0,0.0,0.0,0.0,-0.014992813301911129,-4.964706627978395,-2.0974938722315284,-3.0167121338013074,0.024935204446663077,0.004959933409407316,0.29685075708938874
9825,0.0,299.93911,33063.858,-0.09825001154581281,0.0,0.0,0.0,0.0,-0.014994340919796817,-4.926846132691855,-2.109470589738538,-3.014270403710327,0.004549955295020626,-0.019350609646006482,0.27116256697666175
9826,0.0,300.33533,33017.817,-0.09825998818528026,0.0,0.0,0.0,0.0,-0.014995863496039374,-4.943413785076955,-2.088608783429638,-3.004569344602907,0.002158362440188788,-0.02155125714069348,0.3087598705497267
9827,0.0,300.31158999999997,33017.028,-0.09826999785997781,0.0,0.0,0.0,0.0,-0.01499739111392509,-4.905607802645796,-2.104400691538178,-3.0263436839518674,0.0015846072405885587,-0.0027891702065446673,0.26743859928163477
9828,0.0,300.14586,32944.781,-0.09828000753467536,0.0,0.0,0.0,0.0,-0.014998918731810834,-4.908886375994366,-2.080329314212518,-3.025175203936547,0.01191251899392409,-0.008374630728086701,0.2971296440469127
9829,0.0,299.97271,32919.337,-0.09828998417414259,0.0,0.0,0.0,0.0,-0.015000441308053336,-4.892736081325455,-2.097773225284098,-3.016147246870557,-0.011461371413399288,-0.01040357478600289,0.27273640782698777
9830,0.0,299.88096,32983.513,-0.09829999384884014,0.0,0.0,0.0,0.0,-0.01500196892593908,-4.934115492884286,-2.0893246446252878,-3.0027243174958174,-0.003713347314103846,-0.010956211523043888,0.3083871059704377
9831,0.0,299.72700000000003,32975.05,-0.09831000352353769,0.0,0.0,0.0,0.0,-0.015003496543824824,-4.913439212668695,-2.103651291764218,-3.006501409893587,-0.007686673426940602,0.024396117903209377,0.2861257479609127
9832,0.0,299.81514,33034.913,-0.09832001319823502,0.0,0.0,0.0,0.0,-0.015005024161710512,-4.949818437634045,-2.091351651450338,-3.000618479812987,0.007398829439857614,0.025186332404447474,0.2859030457214337
9833,0.0,299.94332,33195.172999999995,-0.09832998983770247,0.0,0.0,0.0,0.0,-0.015006546737953042,-4.937751439543125,-2.126814087725208,-3.0259382825868575,0.0015929522670871483,0.012313860265783386,0.27388157295750676
9834,0.0,300.43012999999996,33270.719,-0.09833999951239991,0.0,0.0,0.0,0.0,-0.015008074355838785,-4.937809904073895,-2.127029808671498,-3.048628093401167,0.011795815887156388,-0.008719410251538792,0.27196491920084775
9835,0.0,300.40437000000003,33149.177,-0.09835000918709746,0.0,0.0,0.0,0.0,-0.015009601973724529,-4.9312756568290155,-2.110151696455758,-3.035094719765527,0.0062280998066655945,-0.013336599452969885,0.2720629511480227
9836,0.0,300.72188,33020.066,-0.09835998582656469,0.0,0.0,0.0,0.0,-0.015011124549967031,-4.952125405461725,-2.093445330131968,-2.991704817358277,0.01930044262030538,-0.013506709959258487,0.28209759245336474
9837,0.0,300.49185,32903.981,-0.09836999550126224,0.0,0.0,0.0,0.0,-0.015012652167852775,-4.915944574865955,-2.081332735786548,-3.0047114022669272,-0.016999376974457883,-0.0100462370408114,0.2819881411775627
9838,0.0,300.14952999999997,32978.801,-0.0983800051759598,0.0,0.0,0.0,0.0,-0.015014179785738518,-4.938281470670436,-2.092557013769298,-2.993893437574277,-0.0029254650106209173,-0.0015730594318488786,0.2969477352564597
9839,0.0,299.8219,33064.278,-0.09839001485065735,0.0,0.0,0.0,0.0,-0.015015707403624234,-4.918629788955966,-2.103887277712508,-3.028197931634867,-0.0034118934530026667,0.017635765925014587,0.2701098305202647
9840,0.0,299.87695,33128.335,-0.09839999149012457,0.0,0.0,0.0,0.0,-0.015017229979866736,-4.936383855883155,-2.111097666749118,-3.022704900192747,0.00817991324046958,0.014302047453002186,0.29483049851000476
9841,0.0,299.64322000000004,33048.981,-0.09841000116482213,0.0,0.0,0.0,0.0,-0.01501875759775248,-4.915996959896125,-2.115204774704458,-3.0148630536938175,-0.012822388199471187,-0.012520890565965687,0.2694477526399227
9842,0.0,299.8825,33189.326,-0.09842001083951968,0.0,0.0,0.0,0.0,-0.015020285215638224,-4.9484838859273355,-2.125967415941648,-3.014274963335777,-0.013513916193969688,0.006263819000515805,0.3037039349357447
9843,0.0,300.18959,33307.422,-0.09842998747898712,0.0,0.0,0.0,0.0,-0.015021807791880754,-4.944740534757895,-2.136050571661778,-3.043833596577987,0.0034362774179841765,0.008500677318001533,0.27468651910194875
9844,0.0,300.93093999999996,33195.719,-0.09843999715368446,0.0,0.0,0.0,0.0,-0.01502333540976647,-4.963992691957936,-2.111966832684898,-3.0147102555787373,-0.008098936420302794,0.008507272562902431,0.3021980325046237
9845,0.0,300.76468,33004.141,-0.09845000682838201,0.0,0.0,0.0,0.0,-0.015024863027652213,-4.908881005768836,-2.1011616349435083,-3.022392109886877,4.4668845935221855e-05,-0.004538126106728176,0.25338752577240176
9846,0.0,300.61536,32975.883,-0.09846001650307956,0.0,0.0,0.0,0.0,-0.01502639064553793,-4.923874270148556,-2.096475657206038,-3.003494894196867,-0.0014655656539150686,-0.01751444239779088,0.27544792588959377
9847,0.0,299.84524,32952.785,-0.09846999314254679,0.0,0.0,0.0,0.0,-0.015027913221780431,-4.927911666497016,-2.0880969908041283,-3.000815151657397,0.007371398429175383,-0.001040264158266079,0.2673440022522987
9848,0.0,299.86811,32986.787000000004,-0.09848000281724434,0.0,0.0,0.0,0.0,-0.015029440839666175,-4.943431415628695,-2.090695977310628,-2.9930320736642675,0.0046382631823109356,-0.022946272520620776,0.27137341418997074
9849,0.0,299.7974,33079.001000000004,-0.09849001249194189,0.0,0.0,0.0,0.0,-0.015030968457551919,-4.919579102974654,-2.1063608238566283,-3.0292502931887273,-0.0033920357775428667,-0.016770853613154384,0.2885423190519097
9850,0.0,300.19731,33082.797,-0.09849998913140923,0.0,0.0,0.0,0.0,-0.015032491033794448,-4.928425282972705,-2.1259676185916683,-3.001951207669517,-0.006897888317618573,-0.011635644351098689,0.27390829236264375
9851,0.0,299.81101,33186.685,-0.09850999880610667,0.0,0.0,0.0,0.0,-0.015034018651680164,-4.912009111477555,-2.132940096504798,-3.0429741578431675,0.014618710400754386,0.002058633400421298,0.2792933620066087
9852,0.0,299.99523999999997,33285.452000000005,-0.09852000848080411,0.0,0.0,0.0,0.0,-0.015035546269565908,-4.962694515929815,-2.1325082493121776,-3.022743403696547,-0.003140058614849657,0.00977335044905459,0.26483791051496675
9853,0.0,300.33202,33218.34,-0.09852998512027156,0.0,0.0,0.0,0.0,-0.015037068845808438,-4.941172374530745,-2.129870252676828,-3.026503270842617,-0.006241792159241925,0.0036695617375325468,0.28830723489620874
9854,0.0,300.426,33025.685,-0.09853999479496911,0.0,0.0,0.0,0.0,-0.015038596463694154,-4.924526296587905,-2.108919381684138,-3.0055380116985075,-0.009620855701054531,0.0011001761168039287,0.2746052159139247
9855,0.0,300.40927,32972.581,-0.09855000446966644,0.0,0.0,0.0,0.0,-0.01504012408157987,-4.9177380275429545,-2.078801637036748,-3.026301634072717,0.005817586088276045,0.008414477396219262,0.28487809258277874
9856,0.0,300.309,33089.477999999996,-0.098560014144364,0.0,0.0,0.0,0.0,-0.015041651699465614,-4.945271173835265,-2.0970061949583982,-3.016097800265677,0.01082384154322999,-0.001262813903605029,0.27456080516204173
9857,0.0,299.63169,33092.858,-0.09856999078383144,0.0,0.0,0.0,0.0,-0.015043174275708143,-4.912437006994786,-2.108721797914638,-3.038243698426307,-0.0015084840910507887,-0.01069973664448179,0.26456012800005174
9858,0.0,299.56818,33055.148,-0.09858000045852877,0.0,0.0,0.0,0.0,-0.01504470189359386,-4.946714548602715,-2.1025019621757877,-2.998723195500937,0.005538404274972944,-0.015399494583311784,0.2656068761483577
9859,0.0,300.36998,33158.245,-0.09859001013322632,0.0,0.0,0.0,0.0,-0.015046229511479603,-4.944748944733726,-2.120954158421878,-3.013575314141727,0.003056125637516117,-0.0066472333449808544,0.2610982273108888
9860,0.0,300.04897,33171.385,-0.09859998677269377,0.0,0.0,0.0,0.0,-0.015047752087722133,-4.959409660430625,-2.104874081984898,-3.0189890081010176,-0.0017034112201135985,0.0009801804943662831,0.2915678230555037
9861,0.0,298.96592999999996,33210.008,-0.09860999644739132,0.0,0.0,0.0,0.0,-0.015049279705607849,-4.941448181207965,-2.119323028410898,-3.0342419684813673,0.0025543552713952374,0.0001026877604569929,0.28318932890611076
9862,0.0,299.46741000000003,33242.615,-0.09862000612208865,0.0,0.0,0.0,0.0,-0.015050807323493565,-4.937058173824705,-2.125459777641548,-3.042407041762197,-0.004173327294425336,0.01046193191226229,0.3019894144415347
9863,0.0,300.42306,33163.359,-0.09863001579678643,0.0,0.0,0.0,0.0,-0.015052334941379336,-4.926381962821045,-2.121773573777748,-3.032677510326967,0.0024389312915537777,-0.006212059044332494,0.27447682699375375
9864,0.0,300.14651000000003,33077.312000000005,-0.09863999243625365,0.0,0.0,0.0,0.0,-0.015053857517621838,-4.955557384875435,-2.103710262920038,-2.9954091583988673,0.005543244165400605,0.002697086544081717,0.27393238745002174
9865,0.0,300.29796,33150.757000000005,-0.09865000211095121,0.0,0.0,0.0,0.0,-0.015055385135507582,-4.947425546197886,-2.110327292698088,-3.019249616026737,-0.006102319498877045,0.0047445003274707255,0.2763757083436587
9866,0.0,300.06921,33163.837,-0.09866001178564865,0.0,0.0,0.0,0.0,-0.015056912753393326,-4.964206690379055,-2.1075086335699083,-3.009263023041137,0.0029960342323855573,-0.0024567188970592777,0.27936230354341274
9867,0.0,299.59127,33090.661,-0.0986699884251161,0.0,0.0,0.0,0.0,-0.015058435329635855,-4.930881502540116,-2.104363505259508,-3.0234895610701873,-0.008477994194637881,0.002290825740336898,0.27484775759036173
9868,0.0,300.29958,33165.395,-0.09867999809981343,0.0,0.0,0.0,0.0,-0.015059962947521544,-4.945615577544255,-2.121990814599188,-3.013845547943397,0.004501430342431586,-0.0007812690733927542,0.2758009016944297
9869,0.0,300.29836,33168.786,-0.09869000777451087,0.0,0.0,0.0,0.0,-0.01506149056540726,-4.945632498820926,-2.102222609123218,-3.034627611469427,0.008871277493751922,-0.01753079118815438,0.27255956528703473
9870,0.0,300.18754,33169.152,-0.09869998441397843,0.0,0.0,0.0,0.0,-0.015063013141649817,-4.9845838591651255,-2.108197137012858,-2.9898128767715573,0.0006717448233185524,-0.0023399165931067877,0.27430242638654173
9871,0.0,299.88063999999997,33261.605,-0.09870999408867576,0.0,0.0,0.0,0.0,-0.015064540759535533,-4.9517077437705055,-2.129842692274108,-3.029147043003537,0.0046527772807183655,-0.009647000492059821,0.2855375968078667
9872,0.0,299.48267999999996,33315.318,-0.09872000376337331,0.0,0.0,0.0,0.0,-0.015066068377421277,-4.979387912652325,-2.117213441702698,-3.030423535479517,-0.014094972569815487,0.006747573273233634,0.3024184245338747
9873,0.0,299.36815,33247.839,-0.09873001343807086,0.0,0.0,0.0,0.0,-0.01506759599530702,-4.947752015380106,-2.105475040619208,-3.053285902785857,-0.013659376351825486,-0.0022704892028798376,0.2965202045092657
9874,0.0,299.53468,33256.672999999995,-0.09873999007753831,0.0,0.0,0.0,0.0,-0.01506911857154955,-4.948375468166636,-2.1265060596948078,-3.0343167463387473,-0.007964407508500823,0.01147586088982929,0.2907175339690867
9875,0.0,300.21286000000003,33327.337999999996,-0.09874999975223564,0.0,0.0,0.0,0.0,-0.015070646189435238,-4.961320954094255,-2.130539707017898,-3.038817907257977,-0.014425317433667987,0.003511226210656046,0.27692918607828276
9876,0.0,300.25543,33313.144,-0.09876000942693319,0.0,0.0,0.0,0.0,-0.015072173807320982,-4.9830257844863555,-2.1326680388529478,-3.010670022129997,0.003869903269829716,0.0013332971004361787,0.26514889723565876
9877,0.0,299.98773,33219.248,-0.09876998606640064,0.0,0.0,0.0,0.0,-0.015073696383563512,-4.980848816646505,-2.1026503019904283,-3.014322788740497,-0.003931653568023996,0.006698653153105593,0.2750965915499198
9878,0.0,300.22512,33227.792,-0.09877999574109819,0.0,0.0,0.0,0.0,-0.015075224001449256,-4.983933555250945,-2.1167241432294084,-2.999761472878407,0.008761088470552111,0.014938177011533287,0.27276371491718276
9879,0.0,300.62292,33323.828,-0.09879000541579552,0.0,0.0,0.0,0.0,-0.015076751619334972,-4.977240531715395,-2.1217861380789875,-3.030584946220447,0.00983037849515782,0.003454044961137697,0.2821150608850887
9880,0.0,300.19547,33335.012,-0.09880001509049308,0.0,0.0,0.0,0.0,-0.015078279237220715,-4.968903104592554,-2.129226940188338,-3.034881227969457,0.0028189536799840677,0.007210613471507144,0.26501688088012976
9881,0.0,299.67927000000003,33300.097,-0.09880999172996041,0.0,0.0,0.0,0.0,-0.015079801813463245,-4.964366378594816,-2.123930479265618,-3.0341011267174673,0.0008649134568328123,-0.016211653041965587,0.2850641455661407
9882,0.0,299.25191,33219.307,-0.09882000140465785,0.0,0.0,0.0,0.0,-0.015081329431348933,-4.970986752098195,-2.1213435504353084,-3.005509640695707,-0.009304646790672142,0.00042926119597978157,0.27256042654961976
9883,0.0,299.37295,33244.748,-0.0988300110793554,0.0,0.0,0.0,0.0,-0.015082857049234677,-4.958322747048355,-2.1144421013541876,-3.0328085235648974,-0.011254518431984488,0.00022905502376347077,0.29481585704605967
9884,0.0,299.43476,33296.852,-0.09883998771882274,0.0,0.0,0.0,0.0,-0.015084379625477207,-4.979722487835345,-2.135352948967928,-3.0063360474772676,-0.013110751071930386,0.0030737100863765673,0.27952554826702375
9885,0.0,299.91912,33312.007000000005,-0.0988499973935203,0.0,0.0,0.0,0.0,-0.01508590724336295,-4.951563558281275,-2.118336426788528,-3.0561182407903873,-0.002133615731671478,0.012778573238646987,0.3018226436075757
9886,0.0,300.41327,33309.785,-0.09886000706821763,0.0,0.0,0.0,0.0,-0.015087434861248666,-4.955393744984286,-2.140260828477298,-3.029688219881947,0.003399397140844377,0.005373775046425305,0.27245077262379774
9887,0.0,299.73134,33439.045,-0.0988699837076853,0.0,0.0,0.0,0.0,-0.015088957437491224,-4.9601270415014245,-2.136753767231178,-3.067753796988727,0.02210156441575458,0.0031569041004121767,0.2786423386848577
9888,0.0,299.98011,33467.175,-0.09887999338238262,0.0,0.0,0.0,0.0,-0.01509048505537694,-4.981922557777475,-2.1337087480306582,-3.0575543201571174,0.008346627839048031,-0.001969896300388628,0.2696740823147597
9889,0.0,300.27975,33319.229,-0.09889000305708018,0.0,0.0,0.0,0.0,-0.015092012673262656,-4.968708965873395,-2.1235324746263378,-3.035972295677137,0.014405261161188586,-0.0024082971946554274,0.2816989089365177
9890,0.0,300.22781000000003,33258.314,-0.09890001273177751,0.0,0.0,0.0,0.0,-0.015093540291148372,-4.977624350853276,-2.114529747487838,-3.017542897558297,-0.008165459430443101,0.005585538643124745,0.28196621444539877
9891,0.0,300.32366,33327.629,-0.09890998937124518,0.0,0.0,0.0,0.0,-0.01509506286739093,-4.962747711560066,-2.117732935028968,-3.0502862771898176,0.0012756754924243686,-0.013805075636704885,0.3009767824240957
9892,0.0,299.6821,33238.709,-0.09891999904594251,0.0,0.0,0.0,0.0,-0.015096590485276645,-4.9643922164723655,-2.1164305033504283,-3.022914744288457,-0.00031390233772224873,-0.0034181320338683664,0.2693085219436817
9893,0.0,299.26706,33265.684,-0.09893000872063984,0.0,0.0,0.0,0.0,-0.015098118103162361,-4.9640957394931045,-2.105906279861768,-3.0419354751656575,-0.008248488588687443,-0.012737340039077588,0.2965088459756447
9894,0.0,299.73671,33332.288,-0.0989399853601074,0.0,0.0,0.0,0.0,-0.015099640679404919,-4.962872746622405,-2.1391077498634976,-3.030202748282727,0.002166135790980958,0.0028345098047943373,0.2620781516150998
9895,0.0,299.57962000000003,33368.814,-0.09894999503480484,0.0,0.0,0.0,0.0,-0.015101168297290635,-4.955348655354836,-2.1281767064596875,-3.059760874899887,-0.00991932574326123,0.002673250646079297,0.3037842654036727
9896,0.0,299.6394,33425.123999999996,-0.09896000470950239,0.0,0.0,0.0,0.0,-0.01510269591517635,-4.977664272907216,-2.1359913978559377,-3.0467472985655473,0.0008409330491011302,0.008075521426391914,0.2791871126011227
9897,0.0,299.64238,33420.669,-0.09897001438419972,0.0,0.0,0.0,0.0,-0.015104223533062067,-4.955194843989655,-2.129770852842018,-3.074083266388397,-0.003093336538163547,-0.00914894186370526,0.3073465893102467
9898,0.0,299.43733,33219.227999999996,-0.09897999102366728,0.0,0.0,0.0,0.0,-0.015105746109304624,-4.947874618642205,-2.121756449851058,-3.028184860708577,-0.0034255597650514266,-0.0015162651425437187,0.26496272266228477
9899,0.0,300.19503,33208.166,-0.09899000069836461,0.0,0.0,0.0,0.0,-0.01510727372719034,-4.939398274930655,-2.1162139718040582,-3.0388409080352474,0.011253342048618388,-0.0076659873181990435,0.28261317463424873
9900,0.0,300.22131,33313.711,-0.09900001037306216,0.0,0.0,0.0,0.0,-0.015108801345076084,-4.967530150707055,-2.125519559397448,-3.033486691856827,0.004662682712370956,0.011153559205270589,0.2641155341211738
9901,0.0,300.2469,33331.768,-0.09900998701252961,0.0,0.0,0.0,0.0,-0.015110323921318614,-4.975895239557625,-2.106993395894058,-3.049136339651327,0.0007220094047392803,0.024746170481506874,0.3001631223287937
9902,0.0,299.8742,33194.772000000004,-0.09901999668722716,0.0,0.0,0.0,0.0,-0.015111851539204357,-4.960133526302066,-2.1063920319597083,-3.023856357606387,-0.026355227852308472,0.02206076894022838,0.2873883183805187
9903,0.0,299.75288,33271.842000000004,-0.0990300063619245,0.0,0.0,0.0,0.0,-0.015113379157090046,-4.966877111017605,-2.1101900986345483,-3.036741960453097,-0.010666192999921291,0.013941105475879985,0.2991246929638087
9904,0.0,299.94674,33487.957,-0.09904001603662183,0.0,0.0,0.0,0.0,-0.015114906774975762,-4.998328495446616,-2.128201328437118,-3.052973011154977,0.0022342838516316477,-0.0014859873043805284,0.29085106006726474
9905,0.0,300.38259,33536.146,-0.0990499926760895,0.0,0.0,0.0,0.0,-0.015116429351218319,-4.985247132680585,-2.1437117556678777,-3.0651921994109173,0.015667057457718184,0.005040405428374285,0.2755275470824517
9906,0.0,300.12183,33453.687999999995,-0.09906000235078682,0.0,0.0,0.0,0.0,-0.015117956969104035,-4.975763821019655,-2.129754032890358,-3.0635678581756074,0.011035652357384091,-0.008530994064968562,0.2861711820953967
9907,0.0,300.52977000000004,33533.78,-0.09907001202548438,0.0,0.0,0.0,0.0,-0.015119484586989779,-4.978483688263085,-2.143742761120938,-3.071205332129367,-0.003696300698396476,-0.0032822899499367966,0.29288559534055775
9908,0.0,300.11251,33397.44,-0.09907998866495182,0.0,0.0,0.0,0.0,-0.015121007163232308,-4.970845707684275,-2.116845327941368,-3.0642968916225573,-0.0029935265397130675,0.010608394174466991,0.29902500941897076
9909,0.0,299.90299,33375.579,-0.09908999833964938,0.0,0.0,0.0,0.0,-0.015122534781118052,-4.962448194830505,-2.116399193922338,-3.0664952390395173,0.0052822360058911045,-0.00843968128318169,0.2928599499805267
9910,0.0,300.14632,33489.636,-0.09910000801434671,0.0,0.0,0.0,0.0,-0.01512406239900374,-4.991012019124536,-2.1384829798518377,-3.050518210137707,0.005074611130550125,-0.0015018708102981085,0.28035523797890777
9911,0.0,299.71877,33273.943999999996,-0.09910998465381426,0.0,0.0,0.0,0.0,-0.015125584975246326,-4.969774094378515,-2.106062421702178,-3.038611609537617,-0.00901663652924774,-0.015115280970012085,0.28764439707829176
9912,0.0,299.80869,33224.068,-0.0991199943285117,0.0,0.0,0.0,0.0,-0.015127112593132014,-4.966795139084516,-2.1275766597504684,-3.0049152681870472,0.0056077060221874945,0.002981903446490957,0.26395857154818275
9913,0.0,300.03824,33488.806000000004,-0.09913000400320915,0.0,0.0,0.0,0.0,-0.015128640211017758,-4.996790483119825,-2.128491320615738,-3.054479004778607,-0.017782837150529383,0.005351633099940065,0.3025459420589597
9914,0.0,299.22914,33537.471,-0.09914001367790659,0.0,0.0,0.0,0.0,-0.015130167828903474,-4.981954475155625,-2.143684600565198,-3.0689144749782766,-0.005829059929758425,0.009468558942124011,0.28925317479206575
9915,0.0,299.81293,33485.96,-0.09914999031737415,0.0,0.0,0.0,0.0,-0.015131690405146031,-4.9825173355861745,-2.1386110546644774,-3.0577675079781574,-0.01123096745991019,-0.007817667109143674,0.2969641195105767
9916,0.0,300.2479,33571.511,-0.09915999999207148,0.0,0.0,0.0,0.0,-0.015133218023031747,-4.986355830940005,-2.141788404328058,-3.076756726777247,0.004175156413505856,-0.011710313790717988,0.28176836723087273
9917,0.0,300.06678999999997,33608.718,-0.09917000966676892,0.0,0.0,0.0,0.0,-0.015134745640917435,-5.008061066632145,-2.136948513900398,-3.0712012791289673,0.02046359091359918,-0.008874020868397671,0.28752053738606775
9918,0.0,299.93921,33529.168,-0.09917998630623648,0.0,0.0,0.0,0.0,-0.01513626821716002,-4.995324918175185,-2.139096806762418,-3.057608225062437,0.017169440871241882,0.002242924139209378,0.2819475199810537
9919,0.0,300.62931000000003,33426.786,-0.09918999598093381,0.0,0.0,0.0,0.0,-0.015137795835045709,-4.996699695910865,-2.117768196132448,-3.0464402837852473,0.0017754151026948281,0.006742702377352914,0.2967575076826857
9920,0.0,300.14821,33453.766,-0.09920000565563136,0.0,0.0,0.0,0.0,-0.015139323452931452,-4.987354186263536,-2.128126955879778,-3.053628381319657,-0.015857460323759485,0.004691802405669846,0.2958191671625787
9921,0.0,300.44357,33532.094,-0.0992100153303287,0.0,0.0,0.0,0.0,-0.015140851070817168,-4.989277537603355,-2.1290364491695377,-3.074605191514907,-0.003968038973814956,0.004450358180416156,0.29291290243075274
9922,0.0,300.46112999999997,33436.027,-0.09921999196979636,0.0,0.0,0.0,0.0,-0.015142373647059726,-4.986276797432205,-2.139994647676028,-3.037445763972557,-0.0035683544671941663,-0.007655842962172873,0.2869258912998807
9923,0.0,300.21802,33552.381,-0.09923000164449369,0.0,0.0,0.0,0.0,-0.015143901264945442,-4.983032775912045,-2.159088129910408,-3.056965216548977,0.003472531607887187,-0.0011616389559448387,0.27569786429176074
9924,0.0,300.02342000000004,33664.344,-0.09924001131919125,0.0,0.0,0.0,0.0,-0.015145428882831158,-5.023275726158715,-2.142244772173098,-3.0675995803235074,0.005255767785453895,-0.011315504942253389,0.2903538785081967
9925,0.0,299.88003,33609.367,-0.09924998795865869,0.0,0.0,0.0,0.0,-0.015146951459073715,-4.998519087790425,-2.153558925439718,-3.0643304302008674,-0.004575695393935975,0.005421362540021824,0.29391165292182175
9926,0.0,299.64669,33504.833,-0.09925999763335613,0.0,0.0,0.0,0.0,-0.015148479076959431,-4.992319821028605,-2.1266793254619083,-3.065633469829467,-0.013299458770554386,-0.005399840601272775,0.3041647408162227
9927,0.0,299.76641,33530.198,-0.09927000730805358,0.0,0.0,0.0,0.0,-0.015150006694845147,-4.980420414504224,-2.1368653260671877,-3.075057101059507,-0.0020821673498939183,-0.005251477988505526,0.2987117935480587
9928,0.0,299.79751,33506.187000000005,-0.09927998394752091,0.0,0.0,0.0,0.0,-0.015151529271087677,-4.990010725375715,-2.1394479992470776,-3.0555855752128176,0.0033049694256000873,0.0033940810228697167,0.2765854409818578
9929,0.0,300.24849,33551.57,-0.09928999362221846,0.0,0.0,0.0,0.0,-0.01515305688897342,-5.007454940422325,-2.121452170846028,-3.069932588678757,0.01094742664467689,-0.0062357165089923046,0.28390745978198473
9930,0.0,300.11713,33533.392,-0.0993000032969159,0.0,0.0,0.0,0.0,-0.015154584506859137,-5.000673156178015,-2.145407125735198,-3.047233557288537,-0.0066693577622393635,0.004132647329410536,0.27213964404809177
9931,0.0,300.6084,33448.761,-0.09931001297161335,0.0,0.0,0.0,0.0,-0.015156112124744853,-4.988574342033955,-2.139128116190508,-3.039885568888347,-0.011175380559424188,0.003072305113787907,0.29551375331743673
9932,0.0,300.34715,33579.967000000004,-0.0993199896110808,0.0,0.0,0.0,0.0,-0.015157634700987382,-5.004725852602986,-2.144475340943238,-3.058270384002787,-0.01061137211651089,0.0076193660598978825,0.28582585632881574
9933,0.0,300.20523,33733.397000000004,-0.09932999928577835,0.0,0.0,0.0,0.0,-0.015159162318873126,-5.024721431401395,-2.155826275188488,-3.0735626584870173,0.009542014508123512,0.003950765592735207,0.2883497508704047
9934,0.0,300.12355,33723.875,-0.09934000896047568,0.0,0.0,0.0,0.0,-0.015160689936758842,-5.024076092412704,-2.155935604874278,-3.071204116229247,-0.0025484778128651775,-0.002147850882326378,0.2837688876983087
9935,0.0,300.56976000000003,33577.769,-0.09934998559994312,0.0,0.0,0.0,0.0,-0.015162212513001372,-5.005134395043305,-2.156484279803428,-3.045184765586337,0.004590662820438146,0.002928362500606877,0.2801019254539077
9936,0.0,299.94561,33588.472,-0.09935999527464068,0.0,0.0,0.0,0.0,-0.015163740130887116,-5.020274783337545,-2.129043643245248,-3.060738255946347,0.0011893944093090887,-0.0021829247371878977,0.29175302490878174
9937,0.0,300.09027000000003,33675.677,-0.09937000494933823,0.0,0.0,0.0,0.0,-0.01516526774877286,-5.018062351744195,-2.141829846257148,-3.076672829668967,0.004693307082068345,0.0023726605806883676,0.30406360832374174
9938,0.0,299.7119,33524.897000000004,-0.09938001462403556,0.0,0.0,0.0,0.0,-0.015166795366658548,-4.996234411464945,-2.128012255968458,-3.066484701238477,-0.008281704041540553,-0.0070375901751560735,0.30857797189177466
9939,0.0,299.54581,33565.133,-0.09938999126350301,0.0,0.0,0.0,0.0,-0.015168317942901077,-4.9927154951926545,-2.142488053522108,-3.0677588632392268,-0.006417851963492674,-0.01094931838261359,0.27454125956761277
9940,0.0,299.76677,33576.539,-0.09940000093820056,0.0,0.0,0.0,0.0,-0.015169845560786821,-5.009716413320516,-2.1448925973344184,-3.051820439166227,0.004386041218393566,-0.01045585038516209,0.2763365867572977
9941,0.0,299.68047,33517.253,-0.09941001061289789,0.0,0.0,0.0,0.0,-0.015171373178672537,-5.0050713708870855,-2.147374654779378,-3.035962163176137,0.02178353054061708,-0.011497001339915687,0.25280696386260476
9942,0.0,300.19291,33580.41,-0.09941998725236534,0.0,0.0,0.0,0.0,-0.015172895754915067,-5.0193570827219745,-2.139354374937838,-3.048894679502477,0.01121542217687599,-0.006125916269855864,0.2898061053716357
9943,0.0,300.63799,33648.718,-0.09942999692706289,0.0,0.0,0.0,0.0,-0.01517442337280081,-5.005977216476485,-2.172070295491648,-3.0503226528684073,-0.01745776422694718,-0.01661801294157018,0.28574562718589774
9944,0.0,300.77927,33567.58,-0.09944000660176044,0.0,0.0,0.0,0.0,-0.015175950990686554,-5.0011692434269746,-2.1393956142169084,-3.0631413812085175,-0.007327874473779903,-0.009035240814333842,0.2846733957975767
9945,0.0,301.03184,33586.443,-0.09945001627645778,0.0,0.0,0.0,0.0,-0.015177478608572242,-5.003335977440815,-2.1431524416126777,-3.062951700789797,-0.002751518542103737,0.0030109407625567167,0.2899313734814987
9946,0.0,300.73367,33750.206,-0.09945999291592511,0.0,0.0,0.0,0.0,-0.015179001184814772,-5.013189632013296,-2.175335189963868,-3.0706951607040174,0.017700027259606683,0.012744986024332187,0.28170604221722173
9947,0.0,300.44093,33695.217000000004,-0.09947000259062266,0.0,0.0,0.0,0.0,-0.015180528802700516,-5.027436739019374,-2.137529815482768,-3.077538043929357,-0.005616205670651344,7.732859798298843e-05,0.28256226894922476
9948,0.0,300.18429,33712.729,-0.09948001226532022,0.0,0.0,0.0,0.0,-0.01518205642058626,-5.027953192595345,-2.158196368497398,-3.0616783493891266,0.006161640732606594,0.011741661722311789,0.2852793092248757
9949,0.0,299.83795,33598.226,-0.09948998890478744,0.0,0.0,0.0,0.0,-0.015183578996828762,-5.024196567849595,-2.125041508000268,-3.0637837817719173,0.009164695470960021,0.0027216892697598176,0.3033532693411367
9950,0.0,299.6826,33534.977999999996,-0.099499998579485,0.0,0.0,0.0,0.0,-0.015185106614714505,-5.003101410042666,-2.137494453054278,-3.053200283152407,0.008610891571128832,-0.003338814816040367,0.2986727834192087
9951,0.0,299.71232000000003,33597.116,-0.09951000825418255,0.0,0.0,0.0,0.0,-0.015186634232600249,-4.991520974649765,-2.163369719532968,-3.057793548505727,-0.005347124643620115,-0.015369580400609484,0.27480887918402475
9952,0.0,299.30568999999997,33844.317,-0.09951998489365,0.0,0.0,0.0,0.0,-0.015188156808842779,-5.049175209314796,-2.164969540115858,-3.073682323323827,-0.010529638297194392,-0.01197949482553409,0.27453159316165876
9953,0.0,299.69347999999997,33762.553,-0.09952999456834732,0.0,0.0,0.0,0.0,-0.015189684426728467,-5.038209006132515,-2.160282042503238,-3.064482113740837,-0.00986815245888582,0.016350968851214984,0.27834744237575376
9954,0.0,299.90313,33575.562000000005,-0.09954000424304488,0.0,0.0,0.0,0.0,-0.01519121204461421,-5.0164148070815955,-2.152232581058818,-3.037485078076437,-0.007268688002313653,0.007606202826523773,0.2927414807788347
9955,0.0,299.85652999999996,33703.409,-0.09955001391774243,0.0,0.0,0.0,0.0,-0.015192739662499954,-5.004922929747436,-2.155404864471898,-3.0846670689829367,-0.009282115249523451,0.011340648743484888,0.2844744846704457
9956,0.0,299.95038999999997,33822.263999999996,-0.09955999055720965,0.0,0.0,0.0,0.0,-0.015194262238742456,-5.023090402715425,-2.164925058436468,-3.0931082529160174,-0.017844251252340484,0.0032897384527469068,0.29640620374051474
9957,0.0,300.00461,33705.93,-0.09957000023190743,0.0,0.0,0.0,0.0,-0.015195789856628228,-5.008914425866365,-2.1533932590483684,-3.0834534993381673,0.009830792914448721,0.027314009679932874,0.2777574775050287
9958,0.0,300.73596000000003,33674.645,-0.09958000990660476,0.0,0.0,0.0,0.0,-0.015197317474513944,-5.019669670377825,-2.141301942955048,-3.075279509456457,0.005047701335719336,0.0018746209001106783,0.2911887560605927
9959,0.0,301.00442000000004,33740.034,-0.0995899865460721,0.0,0.0,0.0,0.0,-0.015198840050756474,-5.021969038829755,-2.173674473049968,-3.060484335471287,0.008452615724683222,-0.004188142530762486,0.2688624892496617
9960,0.0,300.33236,33654.079,-0.09959999622076954,0.0,0.0,0.0,0.0,-0.015200367668642162,-5.025068570885655,-2.1364730969534778,-3.068458005808227,-0.014634577897320386,-0.010812456665106388,0.2877169457854517
9961,0.0,299.78927999999996,33710.638,-0.0996100058954672,0.0,0.0,0.0,0.0,-0.015201895286527933,-5.0183274179703545,-2.155840258039868,-3.073024521358907,0.007278935101899963,-0.011987161075790688,0.2807364631965317
9962,0.0,299.67262,33758.202000000005,-0.09962001557016464,0.0,0.0,0.0,0.0,-0.01520342290441365,-5.010428221515766,-2.1590883325604278,-3.092133911619857,0.004410901106947046,-0.005251777809210115,0.2920289227785107
9963,0.0,299.56971,33709.098,-0.09962999220963198,0.0,0.0,0.0,0.0,-0.015204945480656179,-5.0166847369082355,-2.1548731108194183,-3.0751661267702675,-0.0012215138295290288,-0.013863166278187988,0.2795956246439398
9964,0.0,299.98023,33753.443999999996,-0.09964000188432953,0.0,0.0,0.0,0.0,-0.015206473098541923,-5.038899941375705,-2.155529190259168,-3.0657750208684367,-0.0027051718745796775,0.0025425173691519276,0.2794580252803597
9965,0.0,299.64095,33807.227,-0.09965001155902686,0.0,0.0,0.0,0.0,-0.015208000716427639,-5.055766907840345,-2.149552230569288,-3.0712336018071573,0.002075621450272888,0.013661049227740587,0.2958261788532707
9966,0.0,299.86334,33753.419,-0.09965998819849431,0.0,0.0,0.0,0.0,-0.015209523292670168,-5.033784244270825,-2.140770695927618,-3.085641410279097,-0.01175630825250729,0.009001469999100922,0.30180871141870075
9967,0.0,299.37242000000003,33715.435,-0.09966999787319164,0.0,0.0,0.0,0.0,-0.015211050910555857,-5.017042819493575,-2.151885137599528,-3.079722509819947,-0.008598274175583592,0.013458403260740985,0.2917728440807377
9968,0.0,299.94653,33798.562999999995,-0.09968000754788942,0.0,0.0,0.0,0.0,-0.015212578528441628,-5.018014323689455,-2.143667577963518,-3.112237198903897,-0.008162681402643932,0.004462653058454566,0.2989033383469627
9969,0.0,300.78469,33779.899,-0.09968998418735664,0.0,0.0,0.0,0.0,-0.01521410110468413,-5.023328111188886,-2.156791699883768,-3.088125899524297,0.02014772539367568,-5.0299277130652154e-05,0.28196696425047274
9970,0.0,300.72937,33686.638,-0.09969999386205419,0.0,0.0,0.0,0.0,-0.015215628722569874,-5.009864145185095,-2.1543258544404082,-3.0757068983486366,0.006505268697320034,-0.014161504597881687,0.2855842873724747
9971,0.0,300.18656,33784.701,-0.09971000353675175,0.0,0.0,0.0,0.0,-0.015217156340455618,-5.0350059199163955,-2.163373873858378,-3.071325604916237,0.009535637821269179,-0.014546053275833686,0.2638126230037787
9972,0.0,300.12665,33838.071,-0.0997200132114493,0.0,0.0,0.0,0.0,-0.015218683958341361,-5.0367318901367355,-2.168393109553738,-3.0808035463516372,-0.012391041552400589,-0.017533966713967786,0.28681399809133773
9973,0.0,300.08412999999996,33627.321,-0.09972998985091652,0.0,0.0,0.0,0.0,-0.015220206534583863,-5.011580185554455,-2.147711357787608,-3.0625743664525573,-0.001176552882841729,0.008509762827673201,0.27913489982346973
9974,0.0,300.27077,33643.473,-0.09973999952561408,0.0,0.0,0.0,0.0,-0.01522173415246958,-4.996553179946405,-2.153056252065108,-3.077166383792677,-0.01092789422249919,-0.011055474569090389,0.2984049307552737
9975,0.0,299.48786,33782.009,-0.09975000920031163,0.0,0.0,0.0,0.0,-0.015223261770355323,-5.036482934587165,-2.155638925244998,-3.0767654407281073,-0.016074361706415987,-0.00035403934253846266,0.28466127732638075
9976,0.0,298.94854,33816.354,-0.09975998583977896,0.0,0.0,0.0,0.0,-0.015224784346597853,-5.050574710352915,-2.153603812419148,-3.075148800193557,0.005672009102683714,0.014943876543345785,0.2993041496890197
9977,0.0,299.81662,33963.15,-0.0997699955144764,0.0,0.0,0.0,0.0,-0.015226311964483569,-5.0660194789771955,-2.171871293172008,-3.0860586666702767,0.004364354525178256,0.015151216898058685,0.28364624390620474
9978,0.0,300.18041,33937.266,-0.09978000518917385,0.0,0.0,0.0,0.0,-0.015227839582369312,-5.047892434688195,-2.163220265143218,-3.1049688519615675,0.019140943882314083,0.015766395484272087,0.3111602803016287
9979,0.0,300.31422000000003,33828.431000000004,-0.0997900148638714,0.0,0.0,0.0,0.0,-0.015229367200255056,-5.0178680103750155,-2.157642525992738,-3.107487893035177,-0.0013264601953864286,-0.0052886128953954555,0.29255946053087073
9980,0.0,300.52569,33948.002,-0.09979999150333863,0.0,0.0,0.0,0.0,-0.015230889776497558,-5.035068437447566,-2.178372103163588,-3.105904487103907,0.02076698433804178,0.007811851864169752,0.3055175918197387
9981,0.0,300.21935,33883.409,-0.09981000117803618,0.0,0.0,0.0,0.0,-0.015232417394383274,-5.058578778192855,-2.1430531431028776,-3.0980782446565174,0.008210795178342391,-0.00034779608045730064,0.3042944976240287
9982,0.0,300.2289,33695.796,-0.09982001085273373,0.0,0.0,0.0,0.0,-0.015233945012269018,-5.024142561619265,-2.162704824817348,-3.055833112212247,0.00015823694777427084,-0.00015533558717292884,0.2930729351515467
9983,0.0,299.83148,33677.076,-0.09982998749220118,0.0,0.0,0.0,0.0,-0.015235467588511548,-5.035176956533276,-2.147086790425968,-3.0547263391280173,-0.027533129067058272,-0.013711451327464885,0.28748100036716573
9984,0.0,299.24241,33876.199,-0.09983999716689851,0.0,0.0,0.0,0.0,-0.015236995206397264,-5.041249871007625,-2.163166765537938,-3.093102072090407,-0.02144599261430468,0.0017481207794510882,0.29324923053644575
9985,0.0,299.45086000000003,33899.145,-0.09985000684159606,0.0,0.0,0.0,0.0,-0.015238522824283007,-5.0388728875980355,-2.1683292747974376,-3.097291354628857,-0.018226054022521483,0.02159147506366268,0.3025417674685477
9986,0.0,300.05328,33833.991,-0.09986001651629361,0.0,0.0,0.0,0.0,-0.015240050442168751,-5.0172724219662355,-2.1540991903930378,-3.113316816885447,-0.00985147567946495,-0.001132892037357739,0.30009290409686373
9987,0.0,299.46567999999996,33856.413,-0.09986999315576106,0.0,0.0,0.0,0.0,-0.01524157301841128,-5.043167244171855,-2.168517941966058,-3.079818768579447,0.005549038030797415,-0.005669167341453255,0.2878530050088797
9988,0.0,300.2575,33995.411,-0.09988000283045839,0.0,0.0,0.0,0.0,-0.015243100636296969,-5.052407578458805,-2.169035307467118,-3.112313091336387,0.008253958518027281,-0.009367002809776202,0.2992313780668377
9989,0.0,300.51612,33925.907999999996,-0.09989001250515595,0.0,0.0,0.0,0.0,-0.015244628254182713,-5.058558107890815,-2.1624467500168776,-3.091624044169537,0.016985345487073086,-0.006550833439741925,0.28877461676983573
9990,0.0,300.07414,33874.956,-0.09989998914462339,0.0,0.0,0.0,0.0,-0.015246150830425242,-5.023944572549725,-2.1729354084270276,-3.1002607853719173,0.006116900877091114,-0.004034819450805676,0.2785174556100327
9991,0.0,299.73627999999997,33869.754,-0.09990999881932072,0.0,0.0,0.0,0.0,-0.015247678448310958,-5.029762451973904,-2.158024419955428,-3.1077727176382868,0.0036463841481200964,-0.0015749031417308385,0.2935562655817477
9992,0.0,299.86711,33743.091,-0.09992000849401828,0.0,0.0,0.0,0.0,-0.015249206066196702,-5.011543708550855,-2.1570404527833182,-3.088472937683547,0.007070059369310534,-0.0034292571146663266,0.2864811150359847
9993,0.0,300.3747,33795.687999999995,-0.09992998513348561,0.0,0.0,0.0,0.0,-0.015250728642439232,-5.040320315365886,-2.145551615199458,-3.087173343105287,0.00992414597663695,-0.012207078903994887,0.2997724029577327
9994,0.0,300.89227999999997,33936.709,-0.09993999480818316,0.0,0.0,0.0,0.0,-0.015252256260324976,-5.060444678252004,-2.156994147253748,-3.0984732095454968,0.007720368349741034,-0.007935872561834643,0.30278307297986273
9995,0.0,300.96238999999997,33869.207,-0.0999500044828806,0.0,0.0,0.0,0.0,-0.015253783878210664,-5.050596697880086,-2.1560616531867183,-3.088734660184377,0.0034420800986568567,-0.014238934130773385,0.30576341642649973
9996,0.0,300.26871,33866.881,-0.09996001415757805,0.0,0.0,0.0,0.0,-0.015255311496096408,-5.044319106885536,-2.1445550837261083,-3.105812078694787,-0.007743468020220794,-0.005355467744943515,0.2962059652557527
9997,0.0,299.72867,34111.627,-0.0999699907970455,0.0,0.0,0.0,0.0,-0.015256834072338937,-5.0620302120084855,-2.176953046398538,-3.130099582266777,-0.014926388859869884,0.013149372112741989,0.3165041511965277
9998,0.0,299.70035,34137.452000000005,-0.09998000047174305,0.0,0.0,0.0,0.0,-0.015258361690224681,-5.0761279659498255,-2.178421448443458,-3.122383581430267,-0.016339283037811684,0.007799231023574173,0.2883759433854898
9999,0.0,300.55244,34023.523,-0.09999001014644038,0.0,0.0,0.0,0.0,-0.015259889308110397,-5.064158645168545,-2.171837450618668,-3.1063054301684767,0.0002713878226063927,0.009029278445445403,0.3026498305917127
10000,0.0,300.19372999999996,33885.236000000004,-0.09999998678590805,0.0,0.0,0.0,0.0,-0.015261411884352954,-5.046416534592535,-2.1731185027200977,-3.080730794994457,-0.0004650320655850916,-0.008470270898400653,0.2719431545886997
10001,0.0,299.5025,33833.675,-0.10000999646060538,0.0,0.0,0.0,0.0,-0.01526293950223867,-5.041527096234986,-2.1369568225512183,-3.1061083530240268,0.015669715212730487,-0.005933413746957344,0.30319766452327973
10002,0.0,300.03585,33918.336,-0.10002000613530271,0.0,0.0,0.0,0.0,-0.015264467120124359,-5.028854478559295,-2.180941806742198,-3.1005309178485767,-0.0009093416771475361,-0.01177728556932759,0.2701938694835587
10003,0.0,299.82881000000003,33894.26,-0.10003001581000026,0.0,0.0,0.0,0.0,-0.015265994738010102,-5.040074399566616,-2.1735529843629777,-3.089381316398197,0.01156464490334159,-0.0029500360215708875,0.29921664541038373
10004,0.0,300.31138,33796.875,-0.10003999244946771,0.0,0.0,0.0,0.0,-0.015267517314252632,-5.028985897097265,-2.1525317938133477,-3.091888502445637,-0.006203699325707453,0.001860247947442178,0.29329126015059376
10005,0.0,299.90347,33796.511,-0.10005000212416526,0.0,0.0,0.0,0.0,-0.015269044932138376,-5.036690245557625,-2.1667231720639277,-3.069882027498767,0.007746031846948823,0.004168229227872196,0.3048251063038957
10006,0.0,299.21696000000003,33968.006,-0.10006001179886259,0.0,0.0,0.0,0.0,-0.015270572550024092,-5.047172925792186,-2.166708175962448,-3.111544439810527,-0.0007535072264203734,-0.01159737490807179,0.28714113601862373
10007,0.0,298.87386000000004,34283.814,-0.10006998843833015,0.0,0.0,0.0,0.0,-0.01527209512626665,-5.077796586214505,-2.195185164722908,-3.148441638226997,0.0034168270690645764,-0.015575530576185184,0.2991061403544777
10008,0.0,300.03417,34239.101,-0.10007999811302759,0.0,0.0,0.0,0.0,-0.015273622744152365,-5.069360671181945,-2.198589077108848,-3.1398820053572267,0.01757396881466568,0.0008894365410530524,0.2938653676572537
10009,0.0,299.47357999999997,33878.007000000005,-0.10009000778772514,0.0,0.0,0.0,0.0,-0.015275150362038081,-5.056194904682585,-2.141241451924078,-3.100631837558537,0.008218408739593792,0.008539131172546632,0.29770805786649773
10010,0.0,300.44265,33875.94,-0.10009998442719248,0.0,0.0,0.0,0.0,-0.015276672938280639,-5.048064788530205,-2.1528520821699577,-3.096523007078027,-0.003280334681218827,0.011785416901380089,0.2984473859344637
10011,0.0,300.28826000000004,34070.454,-0.10010999410189003,0.0,0.0,0.0,0.0,-0.015278200556166355,-5.071326781675985,-2.170159407128058,-3.115080986634557,-0.01041032404491899,0.0030316066062962776,0.3001121051862587
10012,0.0,299.75241,34094.337999999996,-0.10012000377658736,0.0,0.0,0.0,0.0,-0.01527972817405207,-5.076521410963655,-2.168608222549968,-3.118697580216487,0.006862372787038464,0.017606146598091385,0.2979416525445517
10013,0.0,300.4042,34057.919,-0.1001300134512848,0.0,0.0,0.0,0.0,-0.015281255791937787,-5.064331606960616,-2.175971511026668,-3.112454034425297,0.003105084159822947,0.0016521259716021388,0.2871230393718377
10014,0.0,300.33802000000003,33914.916,-0.10013999009075236,0.0,0.0,0.0,0.0,-0.015282778368180344,-5.044888654766745,-2.1648608183801277,-3.0995380340755867,0.00898769324279126,-0.013722035738009487,0.29505464969712675
10015,0.0,300.05077,33934.704,-0.1001499997654497,0.0,0.0,0.0,0.0,-0.01528430598606606,-5.070628855007104,-2.168852821124108,-3.075820888984887,-0.007221923977073404,-0.020040416128585082,0.2967447103339227
10016,0.0,300.2754,34300.825,-0.10016000944014725,0.0,0.0,0.0,0.0,-0.015285833603951776,-5.102045079657645,-2.192367822819858,-3.132181507247247,0.003934502422005156,-0.010810409899904389,0.3132844679437697
10017,0.0,300.23132999999996,34243.112,-0.10016998607961469,0.0,0.0,0.0,0.0,-0.015287356180194306,-5.104948345169175,-2.184005165769528,-3.120097486554647,-0.012511016443741188,-0.00028478196554579177,0.3035392513969917
10018,0.0,299.45252999999997,33855.699,-0.10017999575431225,0.0,0.0,0.0,0.0,-0.01528888379808005,-5.0262920703814045,-2.168522906891548,-3.096472040597997,-0.01233079370145459,0.012370733993896387,0.29004747167795675
10019,0.0,299.7272,33863.416,-0.10019000542900958,0.0,0.0,0.0,0.0,-0.015290411415965766,-5.042750899705766,-2.165888760606578,-3.0849931328651174,-0.00973145752234508,-0.0021630139674228576,0.26838198578723976
10020,0.0,299.55102,34125.376000000004,-0.10020001510370713,0.0,0.0,0.0,0.0,-0.01529193903385151,-5.071125144906086,-2.174418603923408,-3.127718444531777,0.003066110811951577,0.018405144964446382,0.2957680790925367
10021,0.0,299.59224,34003.795,-0.10020999174317458,0.0,0.0,0.0,0.0,-0.015293461610094039,-5.077892946299015,-2.169683179581058,-3.0887286820087874,0.008613021625489051,0.0008122885194366352,0.27923803855114876
10022,0.0,300.21592000000004,33855.314,-0.10022000141787213,0.0,0.0,0.0,0.0,-0.015294989227979783,-5.042341850640395,-2.1515144907129478,-3.0973138487810767,0.008772326528736222,0.0076676942393175025,0.2984657764237787
10023,0.0,299.43944,33925.669,-0.10023001109256946,0.0,0.0,0.0,0.0,-0.015296516845865471,-5.061337858215155,-2.1602678570018377,-3.090950638153077,0.005994020592413774,0.0030285497320695874,0.28523736067073574
10024,0.0,299.74492000000004,34203.828,-0.10023998773203702,0.0,0.0,0.0,0.0,-0.015298039422108056,-5.075193040082555,-2.190584401318848,-3.131332302338437,0.011853339108583489,0.01058459090311779,0.3001798713529467
10025,0.0,300.12138999999996,34295.309,-0.10024999740673435,0.0,0.0,0.0,0.0,-0.015299567039993744,-5.088618097282505,-2.199519544675678,-3.136780041501087,0.007538206956038102,0.0014787317243894584,0.2940286427783677
10026,0.0,300.15951,34186.396,-0.10026000708143179,0.0,0.0,0.0,0.0,-0.01530109465787946,-5.090024387096295,-2.187482234812688,-3.114304127782887,-0.0023303286127105277,-0.007169691745018483,0.3020144214540027
10027,0.0,300.03456,34033.168,-0.10026998372089935,0.0,0.0,0.0,0.0,-0.015302617234122018,-5.078913593124745,-2.170431870079948,-3.095887901915347,0.0028295035387002577,-0.02039482669556268,0.3036783301057177
10028,0.0,299.76373,33981.231,-0.10027999339559668,0.0,0.0,0.0,0.0,-0.015304144852007734,-5.079865136293654,-2.164714809040718,-3.0848656660025373,-0.014303970601691985,-0.010553149752514791,0.29408577995150675
10029,0.0,299.85836,34220.878,-0.10029000307029423,0.0,0.0,0.0,0.0,-0.015305672469893478,-5.084739983849765,-2.1892902782911277,-3.128262255860447,-0.0027633186501183175,-0.016003803022452384,0.2886006721251687
10030,0.0,301.02687000000003,34189.759,-0.10030001274499156,0.0,0.0,0.0,0.0,-0.015307200087779166,-5.071907171333265,-2.188324346970798,-3.132601398088687,-0.016658135619029985,0.004423945891384466,0.27124017180182075
10031,0.0,301.32052000000004,33836.985,-0.10030998938445923,0.0,0.0,0.0,0.0,-0.015308722664021723,-5.029029568176575,-2.1718343095433577,-3.084734652764607,-0.0002589681020231618,0.019802588091613282,0.2769978641700607
10032,0.0,300.30771,33877.044,-0.10031999905915656,0.0,0.0,0.0,0.0,-0.01531025028190744,-5.0595993236935755,-2.153934030626738,-3.0842419092409767,0.006516332476486943,0.018300959549414082,0.27459755574316874
10033,0.0,300.13422,34283.591,-0.10033000873385411,0.0,0.0,0.0,0.0,-0.015311777899793183,-5.111298282220865,-2.1894500678318978,-3.1206073540049672,0.013026072747823289,0.008139708895051723,0.3042033152475297
10034,0.0,299.52961,34245.683,-0.10033998537332156,0.0,0.0,0.0,0.0,-0.015313300476035713,-5.093793981443325,-2.209317065192618,-3.106721369334527,0.00827129472061323,-0.0013227232276926187,0.2870367712583237
10035,0.0,300.17466,34128.94,-0.10034999504801911,0.0,0.0,0.0,0.0,-0.015314828093921456,-5.072569431598625,-2.187126381377568,-3.1146498487170073,0.026428607424550478,0.004766135547580956,0.30227702548241975
10036,0.0,299.73552,34200.88,-0.10036000472271644,0.0,0.0,0.0,0.0,-0.015316355711807172,-5.0706402034082245,-2.207867104299518,-3.1177060136686268,0.010155383227008291,0.0014279920097318385,0.28536124062796175
10037,0.0,299.64035,34233.342000000004,-0.10037001439741378,0.0,0.0,0.0,0.0,-0.01531788332969286,-5.099012320783335,-2.1842184549155776,-3.122850487076347,-0.002974409043451317,0.0016142861466176385,0.3089644153474137
10038,0.0,299.70547999999997,34250.602,-0.10037999103688133,0.0,0.0,0.0,0.0,-0.015319405905935418,-5.100709717350854,-2.193234050330348,-3.117384002786847,-0.020071281753131283,0.002145067484301678,0.2931069094273997
10039,0.0,300.43807000000004,34210.92,-0.10039000071157878,0.0,0.0,0.0,0.0,-0.015320933523821134,-5.090999336342515,-2.175007707531548,-3.133258389453527,-0.00898660014858338,-0.002138068864535968,0.3204098959594947
10040,0.0,299.71509,33914.726,-0.10040001038627633,0.0,0.0,0.0,0.0,-0.015322461141706878,-5.059648871623465,-2.147777117719098,-3.1018039652742173,-0.011148471676518489,0.002070660577783288,0.2920305135811677
10041,0.0,299.94187,33982.317,-0.10040998702574366,0.0,0.0,0.0,0.0,-0.015323983717949408,-5.057475348833955,-2.159163515717848,-3.113136762342677,0.001771605991593898,-0.007957353058654602,0.28760359349676473
10042,0.0,299.7106,34296.252,-0.10041999670044122,0.0,0.0,0.0,0.0,-0.015325511335835151,-5.093477442112086,-2.193494050306008,-3.138232839494467,0.005495635190901965,-0.010768486677016888,0.2770608477962767
10043,0.0,299.22255,34355.196,-0.10043000637513855,0.0,0.0,0.0,0.0,-0.015327038953720867,-5.101942842722554,-2.2107502061340583,-3.130428685899257,0.0024477997630540276,0.005124627688611375,0.2863061875387207
10044,0.0,299.10787,34078.242,-0.1004400160498361,0.0,0.0,0.0,0.0,-0.015328566571606583,-5.089259889895845,-2.1668872172551183,-3.102787324496267,0.00974970240762071,0.0022624018458816775,0.27332552156762874
10045,0.0,299.24055,34076.029,-0.10044999268930355,0.0,0.0,0.0,0.0,-0.015330089147849113,-5.083383343290874,-2.182257511997048,-3.092621183592947,-0.005108992935593345,-0.005016978984737275,0.29349162022536773
10046,0.0,300.02327,34353.93,-0.1004600023640011,0.0,0.0,0.0,0.0,-0.015331616765734857,-5.104194385769765,-2.198582997608248,-3.1399594176648673,-0.013215164468235186,0.0007280646076018824,0.2902171201421997
10047,0.0,300.32215,34454.877,-0.10047001203869843,0.0,0.0,0.0,0.0,-0.015333144383620573,-5.120955974224005,-2.2112185303302776,-3.141247663842007,-0.016527517548638983,-0.01038365631553709,0.2962699114695637
10048,0.0,300.09566,34238.623999999996,-0.10047998867816588,0.0,0.0,0.0,0.0,-0.015334666959863102,-5.082085977862836,-2.192066887540158,-3.133533689505697,-0.006271492140873083,0.008809059580636491,0.2985768083697367
10049,0.0,300.03152,34032.613,-0.10048999835286343,0.0,0.0,0.0,0.0,-0.015336194577748846,-5.094339413972154,-2.155819587737828,-3.094905454618387,-0.0035958526563580266,-0.005308493976932565,0.2832952439390637
10050,0.0,299.87129,34082.986000000004,-0.10050000802756076,0.0,0.0,0.0,0.0,-0.015337722195634562,-5.075934333855715,-2.1621296027355776,-3.122312856573287,0.016862701694969083,-0.003033845686367257,0.3050336331744757
10051,0.0,299.87905,34303.271,-0.10050998466702821,0.0,0.0,0.0,0.0,-0.015339244771877092,-5.106847074531565,-2.195604650264308,-3.1248863091772674,-3.670354909710826e-05,0.0015077069282240885,0.2790064095782887
10052,0.0,300.02242,34471.704,-0.10051999434172576,0.0,0.0,0.0,0.0,-0.015340772389762808,-5.116260066635554,-2.2025915163288583,-3.1596857759117074,0.014370210813729386,0.012315747950719689,0.29875572807239476
10053,0.0,300.17002,34208.752,-0.10053000401642331,0.0,0.0,0.0,0.0,-0.015342300007648552,-5.110265983018985,-2.177404550643098,-3.1109358818004673,0.003975116221788426,0.0052456033670757445,0.26759212693678674
10054,0.0,300.21142000000003,34115.996,-0.10054001369112064,0.0,0.0,0.0,0.0,-0.015343827625534268,-5.079891784771285,-2.191079475317708,-3.0994395461658675,0.011785725942660589,0.002849379452661857,0.2890961210265657
10055,0.0,300.83462000000003,34365.252,-0.1005499903305882,0.0,0.0,0.0,0.0,-0.015345350201776825,-5.118953285401355,-2.202095530404908,-3.125129691851287,0.0012839878922697389,-0.008640088271435323,0.29009645218779073
10056,0.0,300.40811,34490.201,-0.10056000000528564,0.0,0.0,0.0,0.0,-0.015346877819662541,-5.1226779927689545,-2.209205506356608,-3.1522762832304467,0.004206356613235076,-0.00921481001030594,0.3110951384526997
10057,0.0,300.19839,34327.265,-0.10057000967998309,0.0,0.0,0.0,0.0,-0.015348405437548285,-5.106403980262836,-2.1937989372610978,-3.134428591994017,0.005036462872235185,-0.01067065028711119,0.3030328796595167
10058,0.0,300.07142999999996,34181.31,-0.10057998631945031,0.0,0.0,0.0,0.0,-0.015349928013790787,-5.075305713493675,-2.1812541917480277,-3.1337048274475867,0.006523406786035123,-0.0007881985996341452,0.2977916509997477
10059,0.0,299.85999,34188.345,-0.10058999599414808,0.0,0.0,0.0,0.0,-0.01535145563167653,-5.074443538983585,-2.1874228583568276,-3.130536901009937,-0.01277176014497459,-0.0017651823912599384,0.29721344996268373
10060,0.0,299.56993,34317.381,-0.10060000566884542,0.0,0.0,0.0,0.0,-0.015352983249562246,-5.094523622840335,-2.201333465004698,-3.135769729826377,-0.014216561568565385,0.013975241871748988,0.28546177530288375
10061,0.0,299.95044,34413.789,-0.10061001534354286,0.0,0.0,0.0,0.0,-0.015354510867447962,-5.118184735200505,-2.2092801828889774,-3.133467524274167,-0.007234188862908854,0.0002405014466981448,0.28974671878327474
10062,0.0,300.01338,34239.366,-0.10061999198301042,0.0,0.0,0.0,0.0,-0.01535603344369052,-5.097657402749615,-2.188311377369518,-3.1219436282368473,-0.0024465956166351875,0.0007760520715428763,0.28554371683847074
10063,0.0,300.30817,34196.155,-0.10063000165770775,0.0,0.0,0.0,0.0,-0.015357561061576236,-5.0901567175593545,-2.1840118532201878,-3.1206087725551073,0.00945221359681085,-0.017673231860712183,0.3004151581586677
10064,0.0,299.78107,34390.307,-0.1006400113324053,0.0,0.0,0.0,0.0,-0.01535908867946198,-5.1172535583586045,-2.202474080642268,-3.1340668617083174,0.024904738042656277,-0.006359301711764214,0.29179894540331375
10065,0.0,300.34435,34543.447,-0.10064998797187252,0.0,0.0,0.0,0.0,-0.015360611255704482,-5.142692721994255,-2.190901244625118,-3.1667513715090267,0.03083616024654207,-0.003089365205721607,0.3085306936421087
10066,0.0,301.24515,34406.059,-0.1006599976465703,0.0,0.0,0.0,0.0,-0.015362138873590225,-5.122532084754555,-2.191884502522158,-3.144166229430047,0.013516320636456988,0.01898002558093268,0.28794101591256577
10067,0.0,300.80324,34213.64,-0.10067000732126763,0.0,0.0,0.0,0.0,-0.015363666491475941,-5.105080472982215,-2.1820950880060184,-3.112916684420957,0.007002814418473973,-0.003908721286460757,0.30332918438625966
10068,0.0,300.23735,34348.573,-0.10067998396073508,0.0,0.0,0.0,0.0,-0.015365189067718471,-5.1130706592957855,-2.1940856870393977,-3.1339519591469767,-0.020053698824145982,0.005510752679743944,0.3088295922891077
10069,0.0,300.71727000000004,34667.648,-0.10068999363543263,0.0,0.0,0.0,0.0,-0.015366716685604215,-5.1614416991946355,-2.216373440214028,-3.160284201420767,-0.014780423090214186,0.004321608239234526,0.32079079693708673
10070,0.0,300.27494,34493.503,-0.10070000331013007,0.0,0.0,0.0,0.0,-0.015368244303489959,-5.116734166357345,-2.206577338247228,-3.161852205950517,-0.017090129732914485,0.006285434056949045,0.29500426076965375
10071,0.0,300.16317999999995,34241.74,-0.10071001298482751,0.0,0.0,0.0,0.0,-0.015369771921375674,-5.0866230078356045,-2.192000823633638,-3.130010213607957,-0.003514928119896397,0.0027284028622723976,0.3013168190251547
10072,0.0,300.32481,34184.933,-0.10071998962429485,0.0,0.0,0.0,0.0,-0.015371294497618204,-5.085683724992905,-2.186470707237858,-3.1192117033172266,-0.007744155409088633,0.008022964650329962,0.2807561911759788
10073,0.0,299.49307000000005,34324.266,-0.1007299992989924,0.0,0.0,0.0,0.0,-0.01537282211550392,-5.118753269831616,-2.187409787430538,-3.127556628490807,0.008315671933917922,0.001993472502390418,0.3005284597848497
10074,0.0,299.71088,34367.845,-0.10074000897368984,0.0,0.0,0.0,0.0,-0.015374349733389636,-5.119325958788136,-2.193363341043108,-3.134277415079097,-0.006852148181604374,-0.011090880567334689,0.27588005679224176
10075,0.0,299.72416,34333.739,-0.10074998561315718,0.0,0.0,0.0,0.0,-0.015375872309632166,-5.118230736755045,-2.184924487585258,-3.1334442195218672,0.013198886605378686,-0.02341013740315068,0.32828389288409765
10076,0.0,300.05887,34124.933,-0.10075999528785473,0.0,0.0,0.0,0.0,-0.01537739992751791,-5.071237311692155,-2.173235026481598,-3.1286550929242174,0.017496655805535482,-0.019771271570772582,0.2794870244982217
10077,0.0,300.12232,34327.897000000004,-0.10077000496255228,0.0,0.0,0.0,0.0,-0.015378927545403653,-5.1013838326423855,-2.199204930519628,-3.134234858574897,0.018743323264821983,-0.0012210167290299689,0.3034609575617647
10078,0.0,300.14795,34604.184,-0.10078001463724962,0.0,0.0,0.0,0.0,-0.015380455163289342,-5.1179343611007955,-2.2227142580148183,-3.178159250409897,0.0017237879835996285,-0.004567336080610975,0.2875030182918387
10079,0.0,299.64472,34590.024,-0.10078999127671706,0.0,0.0,0.0,0.0,-0.015381977739531899,-5.145945153490246,-2.225325910147568,-3.1432323168128766,-0.003392610999624637,-0.014310258831812589,0.3108668126751657
10080,0.0,300.89279,34388.962999999996,-0.10080000095141461,0.0,0.0,0.0,0.0,-0.015383505357417615,-5.112168461406745,-2.207292692817828,-3.133925006694317,-0.004051973471023647,0.011881020088065387,0.3055915996070427
10081,0.0,300.96941,34256.375,-0.10081001062611217,0.0,0.0,0.0,0.0,-0.015385032975303359,-5.119260300181655,-2.169946928582088,-3.123875490877507,0.004780803153378536,0.011702861336232488,0.3180185041334827
10082,0.0,300.90311,34357.865,-0.10081998726557939,0.0,0.0,0.0,0.0,-0.01538655555154586,-5.072288659995915,-2.206399107554638,-3.1652451752353765,-0.0017723345184157981,0.01730618707823768,0.3081619820632197
10083,0.0,300.41216000000003,34407.91,-0.10082999694027694,0.0,0.0,0.0,0.0,-0.015388083169431604,-5.112004112240525,-2.181119632134748,-3.1660217301120173,-0.015378234569713586,0.00031148912048908266,0.29447416884733774
10084,0.0,300.57331,34378.681000000004,-0.1008400066149745,0.0,0.0,0.0,0.0,-0.015389610787317348,-5.0826096255145155,-2.2101851165532875,-3.157465846267617,-0.0077236441873143324,0.007634115941603582,0.2978864912091077
10085,0.0,300.45435,34284.331,-0.10085001628967183,0.0,0.0,0.0,0.0,-0.015391138405203036,-5.1240120378506155,-2.1878479167737774,-3.109720690955537,-0.0064495424749452844,0.008642311747454763,0.2903264194304867
10086,0.0,300.52274,34371.966,-0.10085999292913927,0.0,0.0,0.0,0.0,-0.015392660981445594,-5.113788243016605,-2.197949108345688,-3.1364819433216673,-0.009231547888707841,0.0047354905075815265,0.3122932459009437
10087,0.0,299.4882,34467.195,-0.10087000260383683,0.0,0.0,0.0,0.0,-0.01539418859933131,-5.129897298406445,-2.197939685119758,-3.149329751939647,-0.0011013624300210089,-0.01049852442637369,0.3059591560808177
10088,0.0,299.60496,34648.452000000005,-0.10088001227853438,0.0,0.0,0.0,0.0,-0.015395716217217054,-5.122746792450745,-2.210250876484778,-3.199266364568007,0.007973063906755144,-0.01249194099735859,0.3191233723075247
10089,0.0,300.24072,34533.839,-0.1008899889180016,0.0,0.0,0.0,0.0,-0.015397238793459556,-5.1254646331939755,-2.2025238312221775,-3.1694362816240074,0.014299243789975486,-0.009534970292103302,0.3062549947125147
10090,0.0,299.70628999999997,34336.884,-0.10089999859269905,0.0,0.0,0.0,0.0,-0.0153987664113453,-5.095097831672004,-2.1978451488854276,-3.144612464774087,-0.011969593345556888,-0.00924454120004018,0.2993792619189327
10091,0.0,299.73023,34508.823,-0.1009100082673966,0.0,0.0,0.0,0.0,-0.015400294029231043,-5.152865347698215,-2.2019138546619774,-3.135041304329487,-0.02225265115141568,-0.0004766023887419936,0.3213777119250107
10092,0.0,300.21134,34543.015,-0.10091998490686405,0.0,0.0,0.0,0.0,-0.015401816605473573,-5.145716766917705,-2.203367767230468,-3.1511294867672675,-0.001124531710782639,0.013081736655316886,0.3045543658771757
10093,0.0,300.22159,34345.059,-0.10092999458156138,0.0,0.0,0.0,0.0,-0.015403344223359289,-5.122346052036195,-2.1828767091331582,-3.134817376057387,0.008560090656165172,0.0059371617590772445,0.3057037461281107
10094,0.0,300.77709,34251.352999999996,-0.10094000425625893,0.0,0.0,0.0,0.0,-0.015404871841245005,-5.087953303891895,-2.1761430542685978,-3.1474597988800967,0.011268538773618188,0.0019176391423812481,0.2931802180721347
10095,0.0,300.69876,34376.585,-0.10095001393095648,0.0,0.0,0.0,0.0,-0.015406399459130748,-5.113224673310985,-2.193274681659358,-3.1431240003771865,-0.0012584764839019588,-0.01066950430124809,0.28497249709459577
10096,0.0,299.83579,34615.187999999995,-0.10095999057042393,0.0,0.0,0.0,0.0,-0.015407922035373278,-5.135386479498186,-2.212371304969048,-3.174395127613407,0.014125762200604186,0.011398844762978389,0.27902360443248575
10097,0.0,299.63493,34795.484,-0.10097000024512126,0.0,0.0,0.0,0.0,-0.015409449653258994,-5.191000535086865,-2.230858762318618,-3.1550990966840367,-0.0012282191133907887,0.007832611028243524,0.29573784370955275
10098,0.0,300.32585,34556.083,-0.10098000991981881,0.0,0.0,0.0,0.0,-0.015410977271144738,-5.147306454999595,-2.205279263544118,-3.1516007493887765,-0.014400467474965487,0.0017643483851026286,0.3010505976938807
10099,0.0,300.17136,34309.615,-0.10098998655928626,0.0,0.0,0.0,0.0,-0.015412499847387268,-5.108667277011205,-2.180695282992868,-3.139903587584357,-0.004218382068071896,-0.015127994219016786,0.3181364971076277
10100,0.0,299.92632000000003,34497.261,-0.10099999623398359,0.0,0.0,0.0,0.0,-0.015414027465272984,-5.112573052171675,-2.201739778294798,-3.171993116926347,-0.0052151630035965155,0.0008193392202574852,0.3072704638302337
10101,0.0,300.02826,34718.421,-0.10101000590868114,0.0,0.0,0.0,0.0,-0.0154155550831587,-5.1525726197443245,-2.2089983980361683,-3.191962047247127,0.015793448248691985,-0.01024235858909209,0.3220093315073467
10102,0.0,300.49877000000004,34530.162000000004,-0.1010200155833787,0.0,0.0,0.0,0.0,-0.015417082701044443,-5.129608015502895,-2.214523752156478,-3.1521753635204868,-0.01300872894586159,-0.012931142359204386,0.2946725733494187
10103,0.0,300.58637000000004,34301.251000000004,-0.10102999222284614,0.0,0.0,0.0,0.0,-0.015418605277286973,-5.129743081741225,-2.1859212217086275,-3.1110594983126676,-0.013932716778302087,0.006525130121805204,0.31691731405730367
10104,0.0,300.17916,34436.134,-0.10104000189754347,0.0,0.0,0.0,0.0,-0.015420132895172689,-5.112310721720785,-2.2099344384785478,-3.145479705534677,-0.020902649407180878,0.016631118318363582,0.2798719075487067
10105,0.0,300.04094,34744.976,-0.10105001157224103,0.0,0.0,0.0,0.0,-0.015421660513058433,-5.144277343825645,-2.231480492579978,-3.1858470828936265,-0.006200872560578474,0.014530730907821487,0.3118641344835937
10106,0.0,299.29526,34676.459,-0.10105998821170836,0.0,0.0,0.0,0.0,-0.015423183089300962,-5.134204523256535,-2.219649581762358,-3.186923559799867,-0.01835219048772018,-0.0032346815833882167,0.2786926262873208
10107,0.0,299.6718,34529.953,-0.10106999788640592,0.0,0.0,0.0,0.0,-0.015424710707186706,-5.123783347303045,-2.208391866526308,-3.164068183919217,0.007378048389581683,-0.006933214269104974,0.3183683793930127
10108,0.0,299.70167999999995,34401.414,-0.10108000756110336,0.0,0.0,0.0,0.0,-0.015426238325072394,-5.122842443260185,-2.215525957830388,-3.118802654251857,0.0026147771987084178,0.003338909757574737,0.28493287901568576
10109,0.0,299.5937,34503.468,-0.10108998420057091,0.0,0.0,0.0,0.0,-0.015427760901314952,-5.155940865726746,-2.198070090407628,-3.1341817642696572,0.016836576054390685,0.0014650035027595886,0.31794336150606667
10110,0.0,299.17557999999997,34660.706,-0.10109999387526825,0.0,0.0,0.0,0.0,-0.015429288519200668,-5.139872745640945,-2.2302975230882276,-3.165819080092017,0.0008878279761217993,0.0015668976553407585,0.3054769503582277
10111,0.0,300.12158999999997,34674.779,-0.10111000354996558,0.0,0.0,0.0,0.0,-0.015430816137086384,-5.137402036597105,-2.226541100992498,-3.176323747853747,7.631742504569343e-05,0.00012078156001021188,0.3173467801121887
10112,0.0,300.09047999999996,34482.406,-0.10112001322466313,0.0,0.0,0.0,0.0,-0.015432343754972128,-5.106912023862975,-2.213872637642218,-3.161005838141987,0.009663909103103569,0.012377280602792489,0.3011543038416157
10113,0.0,300.21296,34579.635,-0.10112998986413058,0.0,0.0,0.0,0.0,-0.015433866331214657,-5.130124570403875,-2.236510570051408,-3.144710547383767,-0.003232079658456427,-0.0069961912078703135,0.28933315062245873
10114,0.0,299.7993,34641.834,-0.10113999953882813,0.0,0.0,0.0,0.0,-0.015435393949100401,-5.160859181712144,-2.2176677658917683,-3.151725683126107,-0.01082919150375799,-0.012842976428253088,0.29788722074917967
10115,0.0,300.27017,34575.068,-0.10115000921352546,0.0,0.0,0.0,0.0,-0.01543692156698609,-5.1669966402178655,-2.202500323819858,-3.1404604698393173,-0.010323608074860791,-0.0018870062613830182,0.2890613057531297
10116,0.0,300.43494,34533.79,-0.10115998585299313,0.0,0.0,0.0,0.0,-0.015438444143228647,-5.125991725895995,-2.2122124273533683,-3.159205596689317,-0.0025901095236989078,0.018493469975663382,0.2899515675559917
10117,0.0,299.96329,34448.583,-0.10116999552769046,0.0,0.0,0.0,0.0,-0.015439971761114363,-5.133218732234245,-2.187918641630758,-3.150371879667497,-0.004527067089836736,0.010414916094372189,0.28744694503130475
10118,0.0,299.92655,34549.951,-0.10118000520238801,0.0,0.0,0.0,0.0,-0.015441499379000106,-5.132288872617475,-2.210115404946408,-3.159918114159637,-0.011894703017415789,-0.005125925358014445,0.2907221949195467
10119,0.0,299.64782,34717.321,-0.10119001487708557,0.0,0.0,0.0,0.0,-0.01544302699688585,-5.177226615877485,-2.215232216626398,-3.160739961315747,0.005463614359916755,-0.01097860840325429,0.3002113935635577
10120,0.0,299.69587,34763.352,-0.1011999915165529,0.0,0.0,0.0,0.0,-0.01544454957312838,-5.172485314684555,-2.2272845225908684,-3.1674210285001174,-0.0007768322639873751,-0.01106454822373589,0.3111280792134507
10121,0.0,300.03867,34593.68,-0.10121000119125034,0.0,0.0,0.0,0.0,-0.015446077191014096,-5.165128916308536,-2.2024955615443877,-3.1479904379574672,-0.004961516004738506,-0.013984712720433687,0.3092316093987837
10122,0.0,300.17543,34606.727,-0.10122001086594767,0.0,0.0,0.0,0.0,-0.015447604808899784,-5.1208851480420154,-2.206128367127918,-3.192567464181877,-0.014715465652803385,-0.02087621979157248,0.3076707482822387
10123,0.0,300.20178,34664.771,-0.10122998750541523,0.0,0.0,0.0,0.0,-0.015449127385142342,-5.145104763857305,-2.2184237517913776,-3.173696390344447,-0.011053204888866389,0.010850370457348189,0.3027104229476927
10124,0.0,300.8981,34743.003,-0.10123999718011256,0.0,0.0,0.0,0.0,-0.015450655003028058,-5.130815201672036,-2.232369315567698,-3.1978208619753468,0.01020885446128549,0.017291950914332683,0.2978334678313747
10125,0.0,300.46091,34520.187999999995,-0.10125000685481012,0.0,0.0,0.0,0.0,-0.015452182620913801,-5.156606875017475,-2.199966387969778,-3.136701919918377,0.01095439881861499,0.0071513462440079235,0.27886631761946273
10126,0.0,299.89988,34406.647000000004,-0.10125998349427756,0.0,0.0,0.0,0.0,-0.015453705197156331,-5.130580938248915,-2.200441906241708,-3.1277386082087673,0.005212621772345714,-0.014179166560374786,0.2902678738397087
10127,0.0,299.71252000000004,34556.847,-0.10126999316897511,0.0,0.0,0.0,0.0,-0.015455232815042075,-5.153637950899465,-2.2005536677277377,-3.150226984903197,0.02280769942369468,-0.016188422256922883,0.2839687310155317
10128,0.0,299.54259,34707.866,-0.10128000284367245,0.0,0.0,0.0,0.0,-0.01545676043292779,-5.148824303649396,-2.213976293127448,-3.187523910484117,0.027376299229830373,0.003957953284969577,0.30911551120232567
10129,0.0,299.80036,34772.746,-0.10129001251837,0.0,0.0,0.0,0.0,-0.015458288050813507,-5.160073102284565,-2.234740219476688,-3.175233085446107,0.006348786202226414,-0.0027322728697043376,0.30125120094867874
10130,0.0,299.9657,34699.973,-0.10129998915783744,0.0,0.0,0.0,0.0,-0.015459810627056036,-5.166229204592125,-2.202184088463648,-3.179512040618407,-0.015676761353925886,-0.008187672709735382,0.3308254787724327
10131,0.0,299.79732,34665.818,-0.101309998832535,0.0,0.0,0.0,0.0,-0.01546133824494178,-5.1811099982107445,-2.219930252040058,-3.1365027149487172,-0.026015953215324676,0.004762660606363006,0.30171066933902474
10132,0.0,300.30253,34837.377,-0.10132000850723233,0.0,0.0,0.0,0.0,-0.015462865862827496,-5.187103271227235,-2.224206572762098,-3.178382773381957,-0.0047793402228841556,0.014950645054013785,0.3216163728535647
10133,0.0,300.49818,34865.539,-0.10132998514669989,0.0,0.0,0.0,0.0,-0.015464388439070054,-5.169770311041605,-2.221199550440328,-3.2072834020092267,-0.01931750575198938,0.0015899826336940686,0.3122379224454837
10134,0.0,300.68921,34635.293,-0.10133999482139733,0.0,0.0,0.0,0.0,-0.01546591605695577,-5.117748835007485,-2.229396642424318,-3.181118649976967,-0.015075041768790785,0.0005827598417814184,0.30231429282109773
10135,0.0,300.67388,34571.552,-0.10135000449609466,0.0,0.0,0.0,0.0,-0.015467443674841486,-5.121343137087215,-2.218484242822348,-3.1690610751119768,-0.001065804342936699,0.002053936479582748,0.2963728272822207
10136,0.0,300.55476,34744.141,-0.10136001417079221,0.0,0.0,0.0,0.0,-0.015468971292727202,-5.153818208092255,-2.234411115844208,-3.173121877537747,0.013258832507794888,0.014744969469215188,0.2872994968767527
10137,0.0,300.38527,34766.406,-0.10136999081025955,0.0,0.0,0.0,0.0,-0.015470493868969731,-5.204189707663535,-2.2238274145746777,-3.140102083278947,0.007799139020465092,-0.00972961067138781,0.2951594602874707
10138,0.0,300.52733,34611.586,-0.1013800004849571,0.0,0.0,0.0,0.0,-0.015472021486855475,-5.1763818692691155,-2.1997542133988377,-3.144921708704607,0.013181150675628287,-0.026145025066063077,0.2859962647306337
10139,0.0,299.74621,34565.227,-0.10139001015965454,0.0,0.0,0.0,0.0,-0.015473549104741191,-5.152226493510165,-2.214269831681418,-3.1404696904152267,0.014723754038621386,-0.01701798125954398,0.30771727672683075
10140,0.0,299.76856000000004,34793.565,-0.1013999867991221,0.0,0.0,0.0,0.0,-0.015475071680983749,-5.158515736880865,-2.2275186846889774,-3.1903406444371067,0.02095282453888278,-0.006845551923453374,0.30758088313086973
10141,0.0,299.64853999999997,35020.547999999995,-0.10140999647381943,0.0,0.0,0.0,0.0,-0.015476599298869465,-5.189219545386095,-2.245456352534288,-3.210696332321057,-0.00023485426951831177,-0.0018731437841148983,0.3247045970383487
10142,0.0,299.86208999999997,34938.707,-0.10142000614851698,0.0,0.0,0.0,0.0,-0.015478126916755208,-5.199154462616596,-2.2421581221337776,-3.1791819237358268,-0.012413725182389288,-0.0032468038036095877,0.3115101656936597
10143,0.0,300.55445,34698.403,-0.10143001582321431,0.0,0.0,0.0,0.0,-0.015479654534640896,-5.188866529051254,-2.2121075559680183,-3.1464740078578073,-0.014575939087533185,0.03674824457226936,0.3057887882090037
10144,0.0,300.50374,34557.422999999995,-0.10143999246268198,0.0,0.0,0.0,0.0,-0.015481177110883454,-5.143284257402636,-2.215317734934838,-3.145991599485197,-0.015083049484331087,0.023645450553374275,0.29853393775800574
10145,0.0,300.28907999999996,34785.013,-0.10145000213737931,0.0,0.0,0.0,0.0,-0.01548270472876917,-5.173036725388975,-2.221809830975558,-3.178928712535837,-0.006250541371205404,-7.109428391345954e-05,0.2915499391912387
10146,0.0,300.34454,34932.797,-0.10146001181207664,0.0,0.0,0.0,0.0,-0.015484232346654886,-5.183142881886375,-2.226997063537498,-3.208557969310017,-0.010622225038331991,-0.025070979960063074,0.3093162968421417
10147,0.0,300.25172000000003,34650.317,-0.10146998845154431,0.0,0.0,0.0,0.0,-0.015485754922897443,-5.158213484376036,-2.218653962214098,-3.1559638043193767,0.01050282972604859,-0.007003244948441463,0.2792858639558687
10148,0.0,300.39615,34529.445,-0.10147999812624164,0.0,0.0,0.0,0.0,-0.01548728254078316,-5.1636821978157545,-2.193193216351318,-3.139213564266257,0.008427011299956261,0.002147758879217298,0.3055492558853637
10149,0.0,300.26544,34806.391,-0.1014900078009392,0.0,0.0,0.0,0.0,-0.015488810158668903,-5.205042661597716,-2.222897048332858,-3.1523339371611367,0.001219508911556159,-0.013290127750383489,0.2985394194410467
10150,0.0,299.50726000000003,35066.888999999996,-0.10149998444040664,0.0,0.0,0.0,0.0,-0.015490332734911433,-5.189454720734305,-2.2434586286371276,-3.226545185085217,9.649065394438612e-05,-0.014261989623548788,0.32051093725946667
10151,0.0,300.01016,34966.172,-0.10150999411510409,0.0,0.0,0.0,0.0,-0.015491860352797149,-5.184507932421095,-2.2403894940842277,-3.2039456548548175,0.012196096286160989,0.022527787057069478,0.3011716000208227
10152,0.0,300.44448,34740.672999999995,-0.10152000378980153,0.0,0.0,0.0,0.0,-0.015493387970682865,-5.125665054063755,-2.224368287478058,-3.210263877178377,0.008766972109907782,0.025147499594364974,0.3165344676395197
10153,0.0,299.91733,34651.06,-0.10153001346449908,0.0,0.0,0.0,0.0,-0.015494915588568609,-5.1582206784517455,-2.217212005996788,-3.157624115933237,-0.011411383732965888,0.0007288367041780822,0.30087426177897775
10154,0.0,300.20585,34903.367999999995,-0.10153999010396642,0.0,0.0,0.0,0.0,-0.015496438164811138,-5.194576092039745,-2.233418434721238,-3.181757909465057,-0.010717947788529091,-0.001155408785054969,0.30422118897929373
10155,0.0,300.26459,34979.732,-0.10154999977866397,0.0,0.0,0.0,0.0,-0.015497965782696882,-5.205013479994835,-2.246743585461328,-3.181208018635787,0.010281473082702391,0.026669848087859077,0.29275210977238375
10156,0.0,301.01355,34770.608,-0.1015600094533613,0.0,0.0,0.0,0.0,-0.015499493400582598,-5.142771958152075,-2.2374713337962278,-3.1891534192949367,0.006507254870166054,0.015261426084935486,0.2965666214963467
10157,0.0,301.07082,34582.975,-0.10156998609282897,0.0,0.0,0.0,0.0,-0.015501015976825155,-5.1264049292867755,-2.2177535881752375,-3.168202345652227,-0.009843955742522791,-0.006744009976606962,0.2939792974984977
10158,0.0,301.00431000000003,34884.031,-0.1015799957675263,0.0,0.0,0.0,0.0,-0.015502543594710844,-5.161499353125325,-2.225594320099058,-3.216780797846547,0.0015245089453573186,-0.03267962796172817,0.3104149537930707
10159,0.0,300.53297000000003,35059.687999999995,-0.10159000544222363,0.0,0.0,0.0,0.0,-0.01550407121259656,-5.209996036036575,-2.236070920833018,-3.211202856046047,0.020250361549305082,0.0016251835501181284,0.3116388484563597
10160,0.0,300.43687,34827.36,-0.10160001511692118,0.0,0.0,0.0,0.0,-0.015505598830482303,-5.193416123325266,-2.219960649543058,-3.173271027952467,0.01999545112889738,0.014776235327550884,0.3194683130390677
10161,0.0,300.10733999999997,34737.145,-0.10160999175638863,0.0,0.0,0.0,0.0,-0.015507121406724833,-5.181870543735805,-2.2024240260873276,-3.1749300223411967,-0.006138591420656804,-0.007609358897935253,0.30766053472123067
10162,0.0,300.09002000000004,34982.051,-0.10162000143108618,0.0,0.0,0.0,0.0,-0.015508649024610577,-5.180090769935155,-2.2281160969479377,-3.225463033978417,-0.0037971005408696467,-0.004397229931297806,0.3285319871710827
10163,0.0,299.64142000000004,35034.752,-0.10163001110578351,0.0,0.0,0.0,0.0,-0.015510176642496265,-5.1884061082058155,-2.239438862840408,-3.2218450218463466,0.007111127105138603,0.02836936133483797,0.3006778229820907
10164,0.0,299.85206,34978.396,-0.10163998774525107,0.0,0.0,0.0,0.0,-0.01551169921873885,-5.177769413956055,-2.2420180909699576,-3.2127715698508674,0.00880975011057964,0.006995709002147723,0.3067418613855647
10165,0.0,299.66382000000004,34828.881,-0.10164999741994851,0.0,0.0,0.0,0.0,-0.015513226836624538,-5.190158220278735,-2.228792644039708,-3.1681592825229767,-0.027744209327890273,-0.010712781226269188,0.2970469729712537
10166,0.0,299.85301,34776.579,-0.10166000709464607,0.0,0.0,0.0,0.0,-0.015514754454510282,-5.185203731264765,-2.2245508751460776,-3.161457038411517,-0.0024366296939516276,-0.017242807271232584,0.2959844586513917
10167,0.0,300.27603,34827.842000000004,-0.1016699837341134,0.0,0.0,0.0,0.0,-0.015516277030752812,-5.174610708094315,-2.223815458223498,-3.1883683531174567,0.013499051815002687,-0.0013387888146531688,0.2985299252876097
10168,0.0,300.45667000000003,34903.88,-0.10167999340881095,0.0,0.0,0.0,0.0,-0.015517804648638556,-5.174678494526004,-2.230398442798188,-3.204831032792197,0.013184811548239589,0.01023431540979829,0.3027519358042897
10169,0.0,300.40326,34870.023,-0.10169000308350828,0.0,0.0,0.0,0.0,-0.015519332266524272,-5.161747498074815,-2.2263499006986276,-3.2115188887522366,-0.01077913998856829,-0.015063605214912087,0.32598017758923864
10170,0.0,300.19133,34763.734,-0.10170001275820573,0.0,0.0,0.0,0.0,-0.01552085988440996,-5.173590365243615,-2.210475514031948,-3.183241307611457,0.017027703394253486,-0.020036589082957378,0.3072462370203427
10171,0.0,299.66700000000003,34905.609,-0.10170998939767328,0.0,0.0,0.0,0.0,-0.015522382460652545,-5.196734314752745,-2.225694125233908,-3.188005001631597,0.028126105317080475,0.012612037478711188,0.3364868819836697
10172,0.0,300.52102,35169.525,-0.10171999907237061,0.0,0.0,0.0,0.0,-0.015523910078538233,-5.2283702120249655,-2.2544984951016778,-3.207788811159107,0.013550438793824187,0.003814205418457767,0.3026460815663427
10173,0.0,299.39676000000003,35045.505,-0.10173000874706817,0.0,0.0,0.0,0.0,-0.015525437696423977,-5.185834580777025,-2.2452940298682678,-3.221829721769837,-0.005655144669344324,-0.009382008233157121,0.31448818879756774
10174,0.0,299.42679,34928.704,-0.10173998538653561,0.0,0.0,0.0,0.0,-0.015526960272666507,-5.179903825291705,-2.245961457709138,-3.191588664585277,-0.009913577474118921,0.012012046498246687,0.2875988008237917
10175,0.0,299.49424,34963.308,-0.10174999506123317,0.0,0.0,0.0,0.0,-0.01552848789055225,-5.183575134379035,-2.240478153467978,-3.203919209027207,-0.002399513734838568,0.021106236683523377,0.3119740214569387
10176,0.0,299.86206,34772.616,-0.1017600047359305,0.0,0.0,0.0,0.0,-0.015530015508437967,-5.193352896519025,-2.2163698938386776,-3.1602843027457768,-0.016228414225119784,-0.0006952836566566544,0.29865066416952574
10177,0.0,299.96779,34801.61,-0.10177001441062805,0.0,0.0,0.0,0.0,-0.015531543126323683,-5.1947511816570255,-2.215784539255908,-3.168284621560347,-0.03139817663975877,-0.014568505884799588,0.3221076066345457
10178,0.0,300.54902000000004,34926.153,-0.1017799910500955,0.0,0.0,0.0,0.0,-0.01553306570256624,-5.197681906246265,-2.224243151090708,-3.1947534499476173,-0.009587560302768531,-0.006750342992381983,0.3163799368667687
10179,0.0,299.90201,34869.574,-0.10179000072479305,0.0,0.0,0.0,0.0,-0.015534593320451956,-5.165943974688975,-2.221894943983958,-3.211640985389287,0.01030504128002839,0.024069509905725678,0.31044783375881574
10180,0.0,300.53298,34917.495,-0.10180001039949038,0.0,0.0,0.0,0.0,-0.015536120938337672,-5.158549376784185,-2.234579214035798,-3.220917999329857,-0.008134919261829023,0.00940393212822084,0.3086549282368697
10181,0.0,299.84531,35086.729,-0.10180998703895783,0.0,0.0,0.0,0.0,-0.015537643514580202,-5.180618571912245,-2.2669422195797777,-3.2179286075598266,0.00047285279595193745,-0.0033582070044042263,0.31004187510625075
10182,0.0,299.8573,34997.881,-0.10181999671365538,0.0,0.0,0.0,0.0,-0.015539171132465945,-5.201449474093095,-2.232632760593698,-3.204399692224627,0.011468858318388188,-0.006366761360325424,0.3227886626892607
10183,0.0,300.04483,34953.543,-0.10183000638835271,0.0,0.0,0.0,0.0,-0.015540698750351661,-5.197798531332775,-2.2567322049471277,-3.170473545751377,0.038439931475475864,0.004983810242713776,0.3010675898980577
10184,0.0,299.29613,34910.302,-0.10184001606305026,0.0,0.0,0.0,0.0,-0.015542226368237377,-5.1873935673808855,-2.232129783244058,-3.1923365444840868,0.00926359688804583,-0.02067718808767958,0.30451294421308767
10185,0.0,299.89417000000003,34950.51,-0.1018499927025176,0.0,0.0,0.0,0.0,-0.015543748944479935,-5.192118960547245,-2.220347508431238,-3.211615958111817,-0.0016692346995406386,-0.01727259074467198,0.3024824619401947
10186,0.0,299.77293,34957.753,-0.10186000237721515,0.0,0.0,0.0,0.0,-0.01554527656236565,-5.178937995296385,-2.248962400530308,-3.198383722405897,-0.009426955095668032,8.974888497302532e-05,0.29763746473203073
10187,0.0,299.55071,34883.187000000005,-0.1018700120519126,0.0,0.0,0.0,0.0,-0.015546804180251367,-5.1888942921039956,-2.208309894593218,-3.2064137294483968,0.004645913828515995,0.02428517512326018,0.3105412047555307
10188,0.0,300.32538999999997,35051.303,-0.10187998869137993,0.0,0.0,0.0,0.0,-0.015548326756493897,-5.227312480245574,-2.230725418605458,-3.1966831847630672,-0.019639711177788583,0.006512106007669823,0.3106373520575197
10189,0.0,300.27702,35067.24,-0.10188999836607748,0.0,0.0,0.0,0.0,-0.01554985437437964,-5.223490804843404,-2.218497111098618,-3.217577313750157,-0.01027956715926429,-0.009688764938656651,0.3179068541049637
10190,0.0,299.71782,35129.961,-0.10190000804077504,0.0,0.0,0.0,0.0,-0.015551381992265384,-5.212636160497135,-2.245174466356468,-3.2208204233452267,0.0074826331264783935,-0.0014284105833481486,0.3006059227549947
10191,0.0,300.50992,35234.992999999995,-0.10190998468024226,0.0,0.0,0.0,0.0,-0.015552904568507886,-5.210897727300565,-2.2670437472397977,-3.232616579684417,0.023672595523553275,-0.008207385085130843,0.3126907337826727
10192,0.0,300.11408,35037.355,-0.10191999435493981,0.0,0.0,0.0,0.0,-0.01555443218639363,-5.199185468069654,-2.232977468277718,-3.218318100898267,0.011545713338473188,-0.030168534821902574,0.3085619422751927
10193,0.0,299.75547,34818.763,-0.10193000402963737,0.0,0.0,0.0,0.0,-0.015555959804279346,-5.173418214051625,-2.2318504301914874,-3.178765984569777,0.001125872443314959,-0.02125259154121748,0.3100288041799607
10194,0.0,300.00967,34941.7,-0.1019400137043347,0.0,0.0,0.0,0.0,-0.015557487422165062,-5.216337360462415,-2.230665636849558,-3.1744012071140073,0.0015068036157599386,0.007159449813007682,0.31889419539990665
10195,0.0,299.7266,35011.445,-0.10194999034380214,0.0,0.0,0.0,0.0,-0.015559009998407591,-5.214000501756785,-2.225433821283218,-3.203170923828357,0.005519741018731024,0.00995505334708727,0.3050005100287067
10196,0.0,299.74942000000004,34981.662000000004,-0.1019600000184997,0.0,0.0,0.0,0.0,-0.015560537616293335,-5.196519303081525,-2.252168019871678,-3.184864331621637,-0.007381207298093443,-0.00041558795330033757,0.3002318612155777
10197,0.0,299.79536,35077.012,-0.10197000969319725,0.0,0.0,0.0,0.0,-0.015562065234179079,-5.191372600523586,-2.2331914666988375,-3.237971606462917,-0.014261153692216288,-0.005261749811394275,0.2884755661353217
10198,0.0,299.73185,35253.696,-0.10197998633266447,0.0,0.0,0.0,0.0,-0.01556358781042158,-5.2280290507162945,-2.258379546959708,-3.229834600209857,-0.0036974269258826264,0.02168699415058968,0.3042375529684087
10199,0.0,299.83439,35205.117999999995,-0.10198999600736203,0.0,0.0,0.0,0.0,-0.015565115428307325,-5.213531873585535,-2.2600642779009776,-3.2278807500420266,-0.0012419697278478689,0.016787226721520283,0.3057459277297737
10200,0.0,299.78802,35143.984,-0.10200000568205958,0.0,0.0,0.0,0.0,-0.01556664304619304,-5.247290428492245,-2.233576197761808,-3.2020268631404467,-0.002046266075000738,0.002774574946804227,0.3255718580639407
10201,0.0,300.06748,35157.657999999996,-0.10201001535675702,0.0,0.0,0.0,0.0,-0.015568170664078784,-5.218289082805035,-2.2609025397087077,-3.207858320115967,-0.0022151799329212375,-0.02051905014457258,0.31054729438863166
10202,0.0,300.04798,35095.409,-0.10201999199622436,0.0,0.0,0.0,0.0,-0.015569693240321286,-5.225177460959865,-2.249299812813608,-3.1936506285387765,0.006196286894600904,0.0008659425946943802,0.3040548335778757
10203,0.0,300.46741000000003,35036.318,-0.1020300016709218,0.0,0.0,0.0,0.0,-0.01557122085820703,-5.188218048987254,-2.2537238654002274,-3.208224002077057,0.0004975256284044566,0.0068842102518686535,0.3066807218745307
10204,0.0,300.2944,35038.164,-0.10204001134561935,0.0,0.0,0.0,0.0,-0.015572748476092774,-5.208742746987886,-2.248427404477508,-3.193556598929497,0.0038609770430737666,-0.0038899545773836267,0.31198235037276073
10205,0.0,300.13187999999997,35005.06,-0.1020499879850868,0.0,0.0,0.0,0.0,-0.015574271052335303,-5.195738897854504,-2.2324516928008276,-3.2124733703464368,-0.0025782775996311875,0.005339964410463454,0.32127069244944867
10206,0.0,299.77182,35008.54,-0.10205999765978413,0.0,0.0,0.0,0.0,-0.01557579867022102,-5.220067742030575,-2.2437889481697275,-3.177865205230877,-0.00038453804895845065,0.02380290860566418,0.3054921085797237
10207,0.0,300.48564,35222.804,-0.10207000733448168,0.0,0.0,0.0,0.0,-0.015577326288106735,-5.223362324730725,-2.254589687610678,-3.228900890242707,0.0027898241581592073,0.003749698168066397,0.3100412367586877
10208,0.0,300.46272,35201.718,-0.10207998397394913,0.0,0.0,0.0,0.0,-0.015578848864349265,-5.2451526734312655,-2.2503162039889184,-3.204974509006357,-0.015726231263558182,-0.005914882213228425,0.2909661247486207
10209,0.0,299.95738,35081.953,-0.10208999364864646,0.0,0.0,0.0,0.0,-0.015580376482234981,-5.201179442941445,-2.2605617837000778,-3.2022965903170673,-0.0043951863071711155,-0.013929309218215788,0.28794348824280974
10210,0.0,299.89993,35071.733,-0.10210000332334401,0.0,0.0,0.0,0.0,-0.015581904100120725,-5.235272573031175,-2.239208956392718,-3.1864495614030868,0.0047734003481479355,0.011852010737702388,0.29467020234418473
10211,0.0,300.23573,35122.209,-0.10211001299804157,0.0,0.0,0.0,0.0,-0.015583431718006469,-5.217748412551675,-2.245549166243448,-3.2129768543211266,-0.006716734094515044,0.005488461785494005,0.3096865282961807
10212,0.0,299.7772,35153.2,-0.10211998963750901,0.0,0.0,0.0,0.0,-0.015584954294248998,-5.242537880223205,-2.2526945046236375,-3.190462538424137,-0.0011084884153242888,-0.012960520532603789,0.3123363900902017
10213,0.0,299.47142,35198.647000000004,-0.10212999931220634,0.0,0.0,0.0,0.0,-0.015586481912134714,-5.215826682412016,-2.266272866563718,-3.2174102288086672,0.007203783760533103,0.004197481656934186,0.3081414232186907
10214,0.0,300.06822999999997,35095.931000000004,-0.10214000898690412,0.0,0.0,0.0,0.0,-0.015588009530020458,-5.227938263507335,-2.2493448011180477,-3.1910037153025472,0.01015471346869219,0.027378262908524176,0.29929757369587073
10215,0.0,300.19285,35072.5,-0.10214998562637134,0.0,0.0,0.0,0.0,-0.01558953210626296,-5.200873644061265,-2.2459057289536375,-3.214384967985097,-0.01015710879192859,0.01074798052149309,0.29963414498158775
10216,0.0,300.39822000000004,35195.183,-0.10215999530106878,0.0,0.0,0.0,0.0,-0.015591059724148704,-5.2541789079720855,-2.2484965081343278,-3.195781392174067,-0.011142120624891689,0.001127995911549529,0.3205635857346627
10217,0.0,300.05123,35212.558,-0.10217000497576634,0.0,0.0,0.0,0.0,-0.015592587342034447,-5.231143173573635,-2.2421094861289776,-3.230485613399107,0.0008972603719652041,-0.002417008105765128,0.3264505282856587
10218,0.0,300.37307999999996,35100.584,-0.10218001465046378,0.0,0.0,0.0,0.0,-0.015594114959920163,-5.229059424742986,-2.2497813092611274,-3.190860239088387,0.005563658621790354,0.003661836110820087,0.31738138260310367
10219,0.0,299.87399,35123.04,-0.10218999128993111,0.0,0.0,0.0,0.0,-0.015595637536162693,-5.2106655917026545,-2.256047855829588,-3.2098135888339367,-0.0037555557668944965,-0.011244312976977288,0.3015214550153507
10220,0.0,299.72379,35390.856,-0.10220000096462856,0.0,0.0,0.0,0.0,-0.015597165154048409,-5.2707440272319355,-2.267266256961758,-3.2199262301319767,-0.024427589451315377,-0.018151998612462784,0.30185423674569367
10221,0.0,299.52006,35365.135,-0.10221001063932622,0.0,0.0,0.0,0.0,-0.015598692771934153,-5.245057225271845,-2.278470877892568,-3.226589869414627,0.002123987221271218,0.00100893650180678,0.2857733699736357
10222,0.0,299.47361,35102.402,-0.10221998727879344,0.0,0.0,0.0,0.0,-0.015600215348176655,-5.230902020049835,-2.245413086755018,-3.193938695542207,0.01134452847811779,0.008656627451492612,0.3053900945596557
10223,0.0,299.79134,35092.123999999996,-0.102229996953491,0.0,0.0,0.0,0.0,-0.015601742966062399,-5.202820604128416,-2.244781629292698,-3.2195274148926174,0.007764149569336903,0.0007903718387136272,0.3109645507798117
10224,0.0,300.40972,35150.664,-0.10224000662818855,0.0,0.0,0.0,0.0,-0.015603270583948142,-5.219624850411866,-2.2469983165364678,-3.2183009769715767,-0.008664777427346951,-0.018133031583840883,0.33288395714558866
10225,0.0,299.98774,35213.084,-0.1022500163028861,0.0,0.0,0.0,0.0,-0.015604798201833886,-5.204168834711475,-2.272164611920188,-3.227564919985857,0.006352839101301405,0.008230257888913212,0.3000941909244907
10226,0.0,300.20036,35314.167,-0.10225999294235333,0.0,0.0,0.0,0.0,-0.015606320778076388,-5.243697240987625,-2.267987083082898,-3.222940446529457,0.004393569767961576,0.025044811762980474,0.3122179918160167
10227,0.0,300.13122000000004,35235.619,-0.10227000261705088,0.0,0.0,0.0,0.0,-0.015607848395962132,-5.218283611254495,-2.2789123509611375,-3.2135524817029366,0.0024686195194837776,0.007213552403422192,0.2821558543341148
10228,0.0,299.80587,35227.172999999995,-0.10228001229174843,0.0,0.0,0.0,0.0,-0.015609376013847848,-5.250016273911265,-2.2667463583354475,-3.191418337243467,-0.027658855165966476,0.005670632501097854,0.3220525972866167
10229,0.0,300.27702999999997,35396.71,-0.10228998893121588,0.0,0.0,0.0,0.0,-0.015610898590090377,-5.241092276305535,-2.2706431155700275,-3.2479805922757268,-0.014073284964675088,-0.0034694372434067966,0.30055238261971073
10230,0.0,300.06721,35410.142,-0.10229999860591321,0.0,0.0,0.0,0.0,-0.015612426207976093,-5.256636951389675,-2.255022649378408,-3.252139375986167,0.008398187374361562,0.006113145164270454,0.3315507023990067
10231,0.0,299.8373,35111.144,-0.10231000828061076,0.0,0.0,0.0,0.0,-0.015613953825861837,-5.216786128931704,-2.234194280322808,-3.221930742804807,-0.01094396031608479,-0.018099626754544084,0.3020352133460547
10232,0.0,300.12599,35144.545,-0.1023199849200781,0.0,0.0,0.0,0.0,-0.015615476402104367,-5.228864779398775,-2.2441951601348182,-3.2100040798527365,0.004010378439843536,-0.017803628029331286,0.3148542963236997
10233,0.0,299.7087,35234.823,-0.10232999459477554,0.0,0.0,0.0,0.0,-0.015617004019990083,-5.2376746850432445,-2.2439728530628775,-3.228858739038547,0.013240143109700387,0.00874799454348484,0.2972048373368337
10234,0.0,299.55526000000003,35343.505,-0.1023400042694731,0.0,0.0,0.0,0.0,-0.015618531637875827,-5.253935626623075,-2.264710434909518,-3.224896931147547,0.022347877409063778,0.014890541084581986,0.3082167077011207
10235,0.0,299.66649,35340.863,-0.10235001394417054,0.0,0.0,0.0,0.0,-0.015620059255761543,-5.230282316288674,-2.274134167464568,-3.2383234068976368,0.009178110902284022,0.003023341423905567,0.3080239166045937
10236,0.0,299.5307,35234.693999999996,-0.10235999058363798,0.0,0.0,0.0,0.0,-0.015621581832004072,-5.230086961669396,-2.2526766714218778,-3.227703633924547,-0.007107946918374743,-0.0008772175250496291,0.3238169798182477
10237,0.0,299.55452,35226.655,-0.10237000025833531,0.0,0.0,0.0,0.0,-0.015623109449889788,-5.207682887383285,-2.2816936211606276,-3.218646799230707,0.003948758040312077,0.02001048269413088,0.3031804088740767
10238,0.0,299.90066,35325.546,-0.10238000993303287,0.0,0.0,0.0,0.0,-0.015624637067775532,-5.2455027513408155,-2.2684933028328578,-3.224087749617687,-0.009771940815515471,0.009211388670018281,0.3024659256985627
10239,0.0,300.3101,35385.837999999996,-0.10238998657250031,0.0,0.0,0.0,0.0,-0.01562615964401806,-5.244864099802785,-2.265510294538458,-3.2460366719588767,-0.02927415618388427,-0.007088281355133904,0.30786008419592475
10240,0.0,300.52796,35191.009,-0.10239999624719787,0.0,0.0,0.0,0.0,-0.015627687261903805,-5.256030217229795,-2.237179213792398,-3.203978585483067,-0.014674724892782586,-0.034140385034643665,0.31282471584339566
10241,0.0,300.01228,35125.071,-0.1024100059218952,0.0,0.0,0.0,0.0,-0.01562921487978952,-5.209309356443804,-2.246869431123748,-3.2209656220845573,0.007788518436891924,-0.007475575332906843,0.30507828710638274
10242,0.0,300.30306,35374.975,-0.10242001559659275,0.0,0.0,0.0,0.0,-0.015630742497675237,-5.266675422780395,-2.254597590961458,-3.2318359718073766,0.02256440895543378,-0.016599159396959485,0.3215138218109437
10243,0.0,300.21269,35569.36,-0.1024299922360602,0.0,0.0,0.0,0.0,-0.015632265073917767,-5.247555089418365,-2.277936793764858,-3.286705389897567,-0.01055744795943899,-0.01665579399804888,0.30717637342594767
10244,0.0,299.71527000000003,35346.727,-0.10244000191075753,0.0,0.0,0.0,0.0,-0.015633792691803483,-5.258919905189986,-2.2527186199760183,-3.232883976385807,0.0017410803124562485,-0.00996437980763272,0.31529179745187774
10245,0.0,299.97876,35257.376000000004,-0.10245001158545508,0.0,0.0,0.0,0.0,-0.015635320309689227,-5.225482347914955,-2.273287698331028,-3.2185919824002966,0.011738558137255488,0.0028523838405333673,0.2973928458928887
10246,0.0,299.95646,35385.664,-0.10245998822492253,0.0,0.0,0.0,0.0,-0.015636842885931757,-5.277130137312195,-2.263831947072818,-3.215396090259887,0.018792079846383883,0.015772299692604786,0.3281360900920107
10247,0.0,300.06867,35398.084,-0.10246999789962008,0.0,0.0,0.0,0.0,-0.0156383705038175,-5.247016141690175,-2.266869772197628,-3.246247833279717,-0.0023558578542800675,-0.016684612857393085,0.3260197855356477
10248,0.0,299.92876,35369.49,-0.10248000757431741,0.0,0.0,0.0,0.0,-0.01563989812170319,-5.258240217022904,-2.2674309101030077,-3.2257706567087765,-0.015411897777785885,-0.01116607284400559,0.3257363693501767
10249,0.0,299.15631,35208.986000000004,-0.10248998421378497,0.0,0.0,0.0,0.0,-0.015641420697945774,-5.210929442028696,-2.2432465553911975,-3.248476476874667,-0.007514487581797182,0.019031294009492484,0.32239923014582667
10250,0.0,299.40398999999996,35148.379,-0.1024999938884823,0.0,0.0,0.0,0.0,-0.015642948315831462,-5.213038927411886,-2.2568607863848182,-3.214329847179657,-0.004873247836852115,0.0037466421044397864,0.29129389089096874
10251,0.0,300.19459,35313.29,-0.10251000356317985,0.0,0.0,0.0,0.0,-0.015644475933717206,-5.234090515464516,-2.2491010131439877,-3.251166959865197,-0.021455837352276276,0.006666926063324374,0.3107761774537207
10252,0.0,299.677,35529.888,-0.1025200132378773,0.0,0.0,0.0,0.0,-0.01564600355160292,-5.282914883458105,-2.2686538016486977,-3.248630186914837,-0.006271512507200094,-0.01750553491616178,0.3040540736403007
10253,0.0,299.75122000000005,35394.98,-0.10252998987734485,0.0,0.0,0.0,0.0,-0.01564752612784548,-5.235012674380525,-2.2862914461393977,-3.2378860881544766,0.033194654881557366,0.00036935200361470466,0.31186713370388974
10254,0.0,300.0544,35160.521,-0.10253999955204218,0.0,0.0,0.0,0.0,-0.015649053745731195,-5.236488777126205,-2.240570156577058,-3.210861593412367,0.001152738972366479,-0.01079942829532059,0.3081085533854467
10255,0.0,300.04533,35422.16,-0.10255000922673951,0.0,0.0,0.0,0.0,-0.015650581363616883,-5.236773905704345,-2.279548064073878,-3.251130178886567,0.007700779590857772,-0.013273027128445788,0.3225023688735057
10256,0.0,300.57935,35583.349,-0.10255998586620718,0.0,0.0,0.0,0.0,-0.01565210393985947,-5.286861999222655,-2.278317573152438,-3.251270007400367,-0.01015828517529469,-0.01972013486472578,0.3178759398444127
10257,0.0,299.95211,35446.288,-0.10256999554090451,0.0,0.0,0.0,0.0,-0.015653631557745157,-5.243013195845116,-2.278241680719948,-3.2535315816235673,0.017678388290471084,0.02460079644990958,0.3218959690861587
10258,0.0,299.62446,35313.547999999995,-0.10258000521560207,0.0,0.0,0.0,0.0,-0.0156551591756309,-5.261369133331704,-2.268631510146498,-3.204436067903217,0.013064470873612887,0.001160911239723019,0.3276331026098697
10259,0.0,300.15147,35308.705,-0.1025900148902994,0.0,0.0,0.0,0.0,-0.015656686793516617,-5.245388963354586,-2.231698847976528,-3.2558768503050266,-0.0008003645719948332,-0.0007197345366747683,0.3248917949943237
10260,0.0,299.46226,35365.042,-0.10259999152976707,0.0,0.0,0.0,0.0,-0.015658209369759174,-5.260419717988005,-2.248742626583618,-3.2409274596546367,-0.0014244158448288985,-0.00036913984930876664,0.33201872262019666
10261,0.0,299.41324,35539.536,-0.1026100012044644,0.0,0.0,0.0,0.0,-0.01565973698764489,-5.241084271629745,-2.2812310724899776,-3.2808161776663467,0.0046872845261239655,0.02012557574648968,0.3097359951660627
10262,0.0,299.88953,35551.015,-0.10262001087916195,0.0,0.0,0.0,0.0,-0.015661264605530606,-5.274728937225215,-2.2579050419378777,-3.2739869733173568,0.002848918423866357,0.004810173220777135,0.3307336377833687
10263,0.0,299.87716,35286.627,-0.10262998751862928,0.0,0.0,0.0,0.0,-0.015662787181773163,-5.236371037464585,-2.2551537639413475,-3.2347288008428765,-0.02060044351185548,-0.014048217157201089,0.3082708760514667
10264,0.0,299.70392000000004,35470.697,-0.10263999719332684,0.0,0.0,0.0,0.0,-0.01566431479965888,-5.273060114310515,-2.2630751505731275,-3.246070919812257,-0.015420458727880787,-0.012594058368936789,0.3139595356903937
10265,0.0,300.25169,35631.326,-0.10265000686802428,0.0,0.0,0.0,0.0,-0.015665842417544595,-5.2837909394945655,-2.273036513631238,-3.274206037988977,0.005169386086603685,0.009030999349415241,0.3287266122502907
10266,0.0,299.73067000000003,35449.785,-0.10265998350749184,0.0,0.0,0.0,0.0,-0.015667364993787153,-5.248657809502195,-2.2948660751106478,-3.232325472930687,0.012735368254382987,0.01835743405698768,0.31539057920412666
10267,0.0,299.90977999999996,35294.234,-0.10266999318218917,0.0,0.0,0.0,0.0,-0.01566889261167287,-5.230525901612715,-2.2443109746212477,-3.253729064068057,-0.0006664657396350473,0.001794754906028518,0.3262293661863317
10268,0.0,300.15432999999996,35501.769,-0.1026800028568865,0.0,0.0,0.0,0.0,-0.015670420229558585,-5.263021946894825,-2.284802981742498,-3.2438262668657267,0.005890095987957214,-0.004687482920493545,0.3081553148775617
10269,0.0,300.33042,35563.351,-0.10269001253158405,0.0,0.0,0.0,0.0,-0.0156719478474443,-5.260270972873325,-2.294729792972198,-3.2553699212799967,0.003151632869416947,0.01977654351104288,0.3234399697210397
10270,0.0,300.05037999999996,35413.295,-0.1026999891710515,0.0,0.0,0.0,0.0,-0.01567347042368686,-5.250663031450095,-2.2713231077121376,-3.242771169536597,0.010001416935888,0.0025361129192448574,0.3116424556267157
10271,0.0,300.3129,35482.111000000004,-0.10270999884574905,0.0,0.0,0.0,0.0,-0.015674998041572574,-5.260218283868125,-2.2732816188304277,-3.252175852989767,-0.013778972287628685,-0.00953723784450209,0.3250941207742917
10272,0.0,299.66818,35456.513,-0.10272000852044638,0.0,0.0,0.0,0.0,-0.01567652565945829,-5.259113131984055,-2.2574759305205276,-3.261305540365797,-0.020673923395857382,-0.017492397115365182,0.3105889693652447
10273,0.0,299.41562999999996,35429.689,-0.10272998515991405,0.0,0.0,0.0,0.0,-0.015678048235700848,-5.236627491064895,-2.2730918370866977,-3.260021549839077,-0.0030515761445671172,0.007813730733830182,0.3113053878484497
10274,0.0,299.66442,35560.457,-0.10273999483461138,0.0,0.0,0.0,0.0,-0.015679575853586564,-5.287591944594695,-2.266097067671368,-3.2558018697976268,-0.006941774307274783,0.00904121493692344,0.3186176085201097
10275,0.0,299.41201,35623.309,-0.10275000450930893,0.0,0.0,0.0,0.0,-0.015681103471472307,-5.280649458884525,-2.2720243781063476,-3.275922584983387,-0.006846624246034203,-0.004432723980975796,0.3280954992930047
10276,0.0,299.48785,35389.775,-0.10276001418400627,0.0,0.0,0.0,0.0,-0.015682631089357996,-5.274159288018995,-2.260638284082628,-3.222810547866637,0.007592633077209544,0.0026382283656478673,0.3178251861469037
10277,0.0,300.08096,35457.167,-0.10276999082347382,0.0,0.0,0.0,0.0,-0.01568415366560058,-5.242131972233145,-2.279576131101648,-3.256385197880197,0.003177335782053627,0.025921874970039876,0.32450860407150567
10278,0.0,300.31037000000003,35624.111000000004,-0.10278000049817126,0.0,0.0,0.0,0.0,-0.01568568128348627,-5.280654322485004,-2.293246496150808,-3.254939391312507,0.019443252115899583,0.007421824441602044,0.3264408314822017
10279,0.0,299.83766,35546.166,-0.1027900101728686,0.0,0.0,0.0,0.0,-0.015687208901371985,-5.251689352476386,-2.289721905677958,-3.2637358207306466,-0.011410548814883488,-0.007129151608517484,0.3177421097712047
10280,0.0,300.37495,35459.914,-0.10279998681233615,0.0,0.0,0.0,0.0,-0.015688731477614543,-5.272689163448905,-2.2763011041284273,-3.2299382556950866,-0.0070370309624258835,0.001106155710944069,0.3056140329642567
10281,0.0,299.92416000000003,35395.711,-0.1028099964870336,0.0,0.0,0.0,0.0,-0.01569025909550026,-5.233852604341036,-2.268203006679208,-3.2573567020760765,-0.006126026410141734,0.012026421477415387,0.31482091986540567
10282,0.0,300.2496,35401.759,-0.10282000616173104,0.0,0.0,0.0,0.0,-0.015691786713386002,-5.255678518120085,-2.265179772355838,-3.240392564926847,-0.014382442768936589,0.008452743495520831,0.3099733388694867
10283,0.0,299.93256,35495.128,-0.10283001583642848,0.0,0.0,0.0,0.0,-0.01569331433127169,-5.239453344268785,-2.2728707459148776,-3.2773085084701674,-0.0033002178905811473,-0.0003041447493917497,0.33036057936155067
10284,0.0,298.80107000000004,35530.929,-0.10283999247589604,0.0,0.0,0.0,0.0,-0.015694836907514276,-5.264945095584625,-2.2756635671655077,-3.2599065459527266,-0.009892485862687341,0.006416203304254963,0.3018787067356087
10285,0.0,299.4677,35532.544,-0.10285000215059337,0.0,0.0,0.0,0.0,-0.015696364525399964,-5.265480699587485,-2.2693595303433476,-3.266165797120467,-0.002371763246399808,0.027689436067234573,0.33870139073972466
10286,0.0,299.96227999999996,35540.786,-0.10286001182529092,0.0,0.0,0.0,0.0,-0.015697892143285708,-5.288707938254835,-2.282128102803508,-3.232675348190217,-0.014768361361023788,0.005347485158005694,0.3047798646869307
10287,0.0,299.65414,35734.375,-0.10286998846475837,0.0,0.0,0.0,0.0,-0.015699414719528237,-5.292706020499415,-2.296622138858958,-3.273029451972857,-0.008460749893836002,-0.0017500279187893082,0.3318567748567137
10288,0.0,300.00538,35762.484,-0.10287999813945592,0.0,0.0,0.0,0.0,-0.01570094233741398,-5.3180971560803245,-2.288419372674408,-3.264385820669797,-0.00025236420396640777,-0.00938995251924116,0.3123078164373817
10289,0.0,300.17094,35474.659,-0.10289000781415325,0.0,0.0,0.0,0.0,-0.015702469955299697,-5.2474036085284155,-2.2766346660613475,-3.259372157849987,0.023842712109342478,0.0077275521916250235,0.3102877807730197
10290,0.0,299.78076,35447.308,-0.1028999844536207,0.0,0.0,0.0,0.0,-0.015703992531542227,-5.268035711039644,-2.263171308007618,-3.243889291021947,0.00017141135729698383,-0.015154324536115383,0.31216014536780773
10291,0.0,299.99863,35551.016,-0.10290999412831825,0.0,0.0,0.0,0.0,-0.01570552014942797,-5.271530917259595,-2.271844728863618,-3.2632456103322673,0.015836849803475384,0.002852110161681357,0.31310127232568974
10292,0.0,299.31269,35464.25,-0.10292000380301558,0.0,0.0,0.0,0.0,-0.01570704776731366,-5.291132037794075,-2.263305766295888,-3.225808552262517,-0.0005898530585764644,0.008031601999482402,0.3092189235075317
10293,0.0,299.74086,35519.834,-0.10293001347771313,0.0,0.0,0.0,0.0,-0.015708575385199403,-5.269604931469515,-2.277137643410988,-3.250399828214487,0.01121660869274309,0.019431680799757583,0.2973160314028077
10294,0.0,300.65207000000004,35700.485,-0.10293999011718058,0.0,0.0,0.0,0.0,-0.015710097961441932,-5.286223347684625,-2.294649948864318,-3.2711826010155867,-0.01876770408872818,0.002749535712983047,0.32737824994471765
10295,0.0,300.81445,35695.622,-0.10294999979187802,0.0,0.0,0.0,0.0,-0.015711625579327676,-5.263288735646155,-2.305193120129848,-3.2820958112176366,-0.016378479604680085,-0.0007965036331512883,0.3111516372782757
10296,0.0,300.84502000000003,35718.304,-0.10296000946657546,0.0,0.0,0.0,0.0,-0.015713153197213392,-5.292731655726945,-2.2896815783239775,-3.275059194573177,-0.005047225918772415,-0.0048196215753096155,0.3210208756372937
10297,0.0,299.79342,35826.021,-0.1029699861060428,0.0,0.0,0.0,0.0,-0.01571467577345592,-5.311332597087715,-2.310395652768298,-3.2684874570745968,-0.0032923500035546473,0.008711731133005923,0.3133044492357417
10298,0.0,299.8771,35626.484,-0.10297999578074035,0.0,0.0,0.0,0.0,-0.015716203391341665,-5.3066460114001845,-2.273280909555358,-3.249634621738967,0.0025708118715693775,-0.011293679535099388,0.3089331160518247
10299,0.0,300.04523,35518.933,-0.1029900054554379,0.0,0.0,0.0,0.0,-0.01571773100922738,-5.288876137771435,-2.284916668403718,-3.223076120717847,0.014693956379680588,-0.020886336080570878,0.31105601686633866
10300,0.0,299.92273,35648.977,-0.10300001513013524,0.0,0.0,0.0,0.0,-0.015719258627113097,-5.292032918457986,-2.288796808336658,-3.255569126249657,0.026842569739655372,0.0075989376206567535,0.3053853930791917
10301,0.0,299.12673,35649.215,-0.10300999176960268,0.0,0.0,0.0,0.0,-0.015720781203355627,-5.286432685155285,-2.283677058231378,-3.266361455714777,0.016485210303963584,-0.007718713813652743,0.32087811883070466
10302,0.0,299.97165,35573.782,-0.10302000144430024,0.0,0.0,0.0,0.0,-0.01572230882124137,-5.2734473784987355,-2.2905732384119775,-3.2495208337527366,-0.005690268984060824,0.0009317531988218811,0.3086915876254877
10303,0.0,299.9478,35608.203,-0.10303001111899757,0.0,0.0,0.0,0.0,-0.015723836439127087,-5.278208944693665,-2.289460284502138,-3.2563354473002866,-0.015518638609570385,-0.004077842556676726,0.3172289289930577
10304,0.0,300.2254,35763.305,-0.10303998775846501,0.0,0.0,0.0,0.0,-0.015725359015369617,-5.322724871937045,-2.296617680558518,-3.2518092591035868,0.0007748302844397953,0.012258694877338988,0.3159087249077637
10305,0.0,300.76429,35753.731,-0.10304999743316257,0.0,0.0,0.0,0.0,-0.01572688663325536,-5.300336300377465,-2.305231319658618,-3.2626738333008367,-0.01044202864054799,0.005121429364670725,0.30730427598607074
10306,0.0,300.87973999999997,35744.616,-0.10306000710786012,0.0,0.0,0.0,0.0,-0.015728414251141076,-5.316382939561144,-2.2894334333744877,-3.2596544493278468,-0.0014424046818042587,-0.01747477365637588,0.3328079127255837
10307,0.0,299.87326,35753.584,-0.10306998374732734,0.0,0.0,0.0,0.0,-0.015729936827383578,-5.288033620313286,-2.303279192015958,-3.2768840580032768,-0.0035938805676883965,-0.003088381137224487,0.3149301279611837
10308,0.0,299.52083,35755.352,-0.10307999342202512,0.0,0.0,0.0,0.0,-0.01573146444526935,-5.315064194555995,-2.289102708541848,-3.264567192437697,0.008190406863805223,0.015985471301643184,0.3268699631645537
10309,0.0,299.99649,35685.462999999996,-0.10309000309672245,0.0,0.0,0.0,0.0,-0.015732992063155066,-5.283909591081275,-2.298751281294088,-3.264828914938527,0.00909137608577396,0.0025664621915400974,0.2997313156661777
10310,0.0,299.87185,35687.392,-0.10310001277142,0.0,0.0,0.0,0.0,-0.01573451968104081,-5.323673780655695,-2.298238982043528,-3.226163189797517,0.004271188914258526,-0.013810652565255288,0.3180776070118157
10311,0.0,300.44595,35649.736000000004,-0.10310998941088723,0.0,0.0,0.0,0.0,-0.01573604225728331,-5.288659707550075,-2.294046558429768,-3.2539235067622467,0.0026318812656964574,-0.03074807334909857,0.3030632265000117
10312,0.0,300.18287999999995,35628.361000000004,-0.10311999908558489,0.0,0.0,0.0,0.0,-0.015737569875169083,-5.304792979617305,-2.2995788026507578,-3.225760422882767,0.01021356607425049,-0.006157740834296704,0.3090436008427287
10313,0.0,299.83711,35759.076,-0.10313000876028233,0.0,0.0,0.0,0.0,-0.01573909749305477,-5.2971511486881155,-2.2950730821060774,-3.2776419690780765,0.002346727254978948,-0.004754898806621975,0.30772972957055966
10314,0.0,300.07378,35780.953,-0.10313998539974967,0.0,0.0,0.0,0.0,-0.0157406200692973,-5.325380803099165,-2.285104930272298,-3.2660305282321174,0.01135645848479519,-0.01087427404045729,0.3264083973465007
10315,0.0,299.58699,35677.669,-0.10314999507444722,0.0,0.0,0.0,0.0,-0.015742147687183045,-5.2765163104016155,-2.298965685015248,-3.269638407863187,-0.0018993903054302284,-0.003858985500002216,0.3153986446749227
10316,0.0,299.38768999999996,35800.372,-0.10316000474914455,0.0,0.0,0.0,0.0,-0.01574367530506876,-5.326260202860955,-2.2966195044086977,-3.259539445441497,0.016877400914169786,0.0024980079267091877,0.31896100911150066
10317,0.0,299.56959,35892.721,-0.1031700144238421,0.0,0.0,0.0,0.0,-0.015745202922954504,-5.304855497148475,-2.313769066326228,-3.291866379281917,0.0007733602206647113,-0.006752214566641693,0.3132539387182567
10318,0.0,299.71257,35664.029,-0.10317999106330933,0.0,0.0,0.0,0.0,-0.015746725499197006,-5.301371234029604,-2.289843495689958,-3.2497593528262767,-0.02034512779140778,-0.011795478474873089,0.30839436084115374
10319,0.0,299.84047000000004,35738.06,-0.1031900007380071,0.0,0.0,0.0,0.0,-0.015748253117082778,-5.297246090222485,-2.2884265667501182,-3.2778052036691867,-0.0008369185218074272,0.0012205257080315087,0.3071233196507117
10320,0.0,300.23079,35860.03,-0.10320001041270443,0.0,0.0,0.0,0.0,-0.015749780734968466,-5.337842158129004,-2.2962295044452077,-3.266482032476677,-0.012290583884486188,0.010417743062151189,0.3119013815572697
10321,0.0,300.26687999999996,35623.271,-0.10320998705217188,0.0,0.0,0.0,0.0,-0.015751303311210996,-5.284422295631875,-2.2756376279629476,-3.2685248460032867,0.0036754831711169464,0.014538810564118885,0.3089037520639267
10322,0.0,300.39324,35547.873999999996,-0.10321999672686943,0.0,0.0,0.0,0.0,-0.01575283092909674,-5.286543636041236,-2.2801782043110683,-3.238944123908897,-0.012533264376186888,-0.008514609405551522,0.3084401800106757
10323,0.0,300.13444,35730.702000000005,-0.10323000640156699,0.0,0.0,0.0,0.0,-0.015754358546982483,-5.2848506977741545,-2.307222457430128,-3.2691681584917767,0.013086906257327089,0.010943894454828289,0.30275988981757473
10324,0.0,300.19383,35856.559,-0.10324001607626432,0.0,0.0,0.0,0.0,-0.0157558861648682,-5.313924997468566,-2.309575528137358,-3.275998072115837,0.005149361731502436,-0.004085725034504666,0.3130642481670357
10325,0.0,300.28906,35826.097,-0.10324999271573176,0.0,0.0,0.0,0.0,-0.01575740874111073,-5.291809598135945,-2.3260060877839273,-3.2724231231130174,0.0022879183204999576,0.0017315050990112484,0.3075770023829867
10326,0.0,299.80619,35858.741,-0.10326000239042932,0.0,0.0,0.0,0.0,-0.015758936358996473,-5.302878443553355,-2.307227219705598,-3.2900563093032766,-0.013811589821597789,-0.013663674558749686,0.3277015577866257
10327,0.0,299.74061,35923.256,-0.10327001206512665,0.0,0.0,0.0,0.0,-0.01576046397688216,-5.3065104385368045,-2.307143119947298,-3.3061193631385764,0.0020598917557204883,0.0037389268128783463,0.3118543667526297
10328,0.0,299.56792,35846.242,-0.10327998870459398,0.0,0.0,0.0,0.0,-0.01576198655312469,-5.307791693288254,-2.2967956072760773,-3.291774984122897,-0.005558878614443604,0.008924325594787362,0.3235566049400507
10329,0.0,299.51977,35777.557,-0.10328999837929154,0.0,0.0,0.0,0.0,-0.015763514171010434,-5.293591702411825,-2.2901740178725776,-3.291718343442307,-0.014293018381361088,-0.005282319295049325,0.3051911834325247
10330,0.0,299.2146,35748.098,-0.10330000805398909,0.0,0.0,0.0,0.0,-0.015765041788896178,-5.316802729077575,-2.281000862067258,-3.268725672173107,-0.005051295536474055,-0.0026114337773534475,0.3288106816110877
10331,0.0,299.95356,35705.919,-0.10330998469345631,0.0,0.0,0.0,0.0,-0.01576656436513868,-5.301940275285766,-2.290231570478258,-3.261535750788517,-0.017254973365183283,0.007707822894952893,0.31520514430332575
10332,0.0,300.03697,35832.629,-0.10331999436815387,0.0,0.0,0.0,0.0,-0.015768091983024424,-5.326436204403325,-2.2938091539313374,-3.271979015594187,0.01894432776665958,0.016721493134532885,0.32665041213288565
10333,0.0,300.18861,35896.017,-0.10333000404285142,0.0,0.0,0.0,0.0,-0.015769619600910167,-5.306347305270704,-2.315681778539998,-3.289463760644797,-0.006487055932072573,-0.008373308842006242,0.3101879756381697
10334,0.0,300.34054,35727.54,-0.10334001371754897,0.0,0.0,0.0,0.0,-0.015771147218795883,-5.296836737182085,-2.2954536588436376,-3.2679897486254768,0.006370452225139683,-0.009306966525451082,0.3222771841712817
10335,0.0,300.09553999999997,35769.133,-0.1033499903570162,0.0,0.0,0.0,0.0,-0.015772669795038385,-5.279562038877205,-2.304814367242468,-3.288546769304297,-0.004106261384881447,0.011475714981814888,0.2910537202197657
10336,0.0,300.25436,35983.814,-0.10336000003171375,0.0,0.0,0.0,0.0,-0.01577419741292413,-5.334988947172414,-2.3112582325784277,-3.291933963063587,0.011519059794592688,0.022516112389417278,0.32517824079759367
10337,0.0,299.99116000000004,35875.101,-0.1033700097064113,0.0,0.0,0.0,0.0,-0.015775725030809873,-5.306168263978035,-2.3134114903659375,-3.285555249709057,-0.017161479765206183,0.007068045838711813,0.3047776051392077
10338,0.0,299.2774,35713.593,-0.10337998634587875,0.0,0.0,0.0,0.0,-0.015777247607052403,-5.301838544975725,-2.2876233633958476,-3.266578595211207,-0.018956235481834782,-0.006512102866594514,0.33386984949288867
10339,0.0,299.59738,35828.809,-0.10338999602057608,0.0,0.0,0.0,0.0,-0.01577877522493812,-5.306120641223335,-2.307861108968158,-3.2770816417727766,-0.02312190017370388,-0.0020908823140040177,0.3158079774503207
10340,0.0,300.82164,35963.91,-0.10340000569527363,0.0,0.0,0.0,0.0,-0.015780302842823835,-5.330311379410775,-2.2954925676474778,-3.306326674109037,-0.0023883249206093178,0.0009561095527381659,0.33162477098131665
10341,0.0,300.72917,35831.633,-0.10341001536997119,0.0,0.0,0.0,0.0,-0.01578183046070958,-5.302625941628436,-2.292125436240168,-3.297170439580387,-0.01976762792341298,0.00042776729042984463,0.3127566457016777
10342,0.0,300.5617,35939.072,-0.10341999200943841,0.0,0.0,0.0,0.0,-0.01578335303695208,-5.334188074293374,-2.312981061723458,-3.2774113533553173,-0.0008618856932814952,0.012406139992140689,0.32612980423150567
10343,0.0,300.00234,35973.45,-0.10343000168413596,0.0,0.0,0.0,0.0,-0.015784880654837824,-5.344590606445025,-2.2937619364766775,-3.2966781013567967,-0.0006714439184363554,0.021422869233772582,0.3181110341326147
10344,0.0,299.75522,35956.258,-0.10344001135883352,0.0,0.0,0.0,0.0,-0.015786408272723568,-5.348556771311454,-2.313772004751518,-3.2674758281747573,0.01893840126682468,0.03243856563043717,0.3170517824780747
10345,0.0,299.93075,36016.674,-0.10344998799830085,0.0,0.0,0.0,0.0,-0.015787930848966097,-5.346458735654395,-2.317479284217398,-3.2842315397784168,0.0005588313124548566,-0.002197372062413738,0.32130670335800265
10346,0.0,299.96056,36023.75,-0.1034599976729983,0.0,0.0,0.0,0.0,-0.015789458466851813,-5.344486748309775,-2.3024755833616477,-3.3033582566160766,-0.0008882045201239612,0.0029415925071625774,0.3324246610077597
10347,0.0,299.48964,35821.857,-0.10347000734769574,0.0,0.0,0.0,0.0,-0.01579098608473753,-5.295280283703475,-2.302338287973098,-3.291331383229117,-0.004204936644544936,0.0075546994252657824,0.31666684876508466
10348,0.0,299.98407000000003,35848.795,-0.10347998398716318,0.0,0.0,0.0,0.0,-0.015792508660980087,-5.323383180527015,-2.2819899968148776,-3.2917654595719568,-0.001117996247637639,0.016965470586361584,0.3326990086048357
10349,0.0,300.18991,36052.462,-0.10348999366186074,0.0,0.0,0.0,0.0,-0.015794036278865803,-5.330195058299295,-2.307959698202888,-3.320893461521667,-0.019462063104006083,-0.005916863725123985,0.3364171399792867
10350,0.0,300.16908,35958.718,-0.10350000333655807,0.0,0.0,0.0,0.0,-0.01579556389675152,-5.335423428815295,-2.313546759254288,-3.2815820934169366,-0.013799512893655885,-0.011019488991788888,0.3333020342693497
10351,0.0,300.56859,35856.47,-0.10351001301125562,0.0,0.0,0.0,0.0,-0.015797091514637263,-5.317011255948155,-2.3007156692629582,-3.281744720057987,-0.006573185331647883,0.008277811742606413,0.3129718397579157
10352,0.0,300.49171,35974.517,-0.10351998965072307,0.0,0.0,0.0,0.0,-0.015798614090879792,-5.3232409202129745,-2.327954466401218,-3.284159396371297,-0.005356469140017345,0.004146537468406386,0.3073150164371307
10353,0.0,300.55168,36026.268,-0.1035299993254204,0.0,0.0,0.0,0.0,-0.01580014170876551,-5.3377961565744645,-2.313233664973388,-3.300056175865187,0.013252315283151687,-0.0039381244871376266,0.3045311624498857
10354,0.0,300.32627,35979.717000000004,-0.10354000900011795,0.0,0.0,0.0,0.0,-0.015801669326651224,-5.337709118390874,-2.311363205288788,-3.287863129461827,-0.006435077417842694,-0.003224048435513807,0.32718771839591365
10355,0.0,299.7665,35912.811,-0.1035499856395854,0.0,0.0,0.0,0.0,-0.01580319190289378,-5.319159650135185,-2.3229202346043776,-3.2745179163697573,0.031156700902426972,0.01188720496667579,0.3088950989080727
10356,0.0,299.63431,35879.55,-0.10355999531428295,0.0,0.0,0.0,0.0,-0.015804719520779498,-5.337069250952725,-2.272337168412218,-3.297080868271547,0.0015085281674301388,-0.006664293335589544,0.3364873784762187
10357,0.0,299.91481,35940.207,-0.10357000498898028,0.0,0.0,0.0,0.0,-0.015806247138665214,-5.322804209419875,-2.3165931970049476,-3.285528195931387,-0.0041936201608030865,-0.011223370110660389,0.3134384312964647
10358,0.0,299.97386,36115.877,-0.10358001466367783,0.0,0.0,0.0,0.0,-0.015807774756550957,-5.338435821362595,-2.310562940359808,-3.3293259315038863,-0.008766665601752533,-0.017609243090396985,0.3389095224427657
10359,0.0,299.82585,36156.127,-0.10358999130314528,0.0,0.0,0.0,0.0,-0.015809297332793487,-5.3656742132008155,-2.3051190515475377,-3.3197666260854573,-0.005747355494694824,0.0068741795825037035,0.32748574564782673
10360,0.0,299.55587,35907.61,-0.10360000097784272,0.0,0.0,0.0,0.0,-0.01581082495067923,-5.316050086903295,-2.304955715631418,-3.2940110244435763,-0.017110365350661585,0.004819095394532686,0.33309292984621264
10361,0.0,299.61498,35894.343,-0.10361001065254016,0.0,0.0,0.0,0.0,-0.01581235256856492,-5.315340710508285,-2.295919855214648,-3.2997232218823265,-0.023140817553070875,-0.01081466656357449,0.3290482380970327
10362,0.0,300.13941,36142.597,-0.10361998729200772,0.0,0.0,0.0,0.0,-0.015813875144807504,-5.3495336457328655,-2.317311186025808,-3.3196022769192366,-0.013135461202119088,0.0006266302273860885,0.3408832627100587
10363,0.0,300.42399,36049.881,-0.10362999696670505,0.0,0.0,0.0,0.0,-0.015815402762693193,-5.332956570121835,-2.3284505536501774,-3.296856534699407,0.013242343888917589,0.00920411637140056,0.3053775910534217
10364,0.0,299.81442999999996,35892.352,-0.1036400066414025,0.0,0.0,0.0,0.0,-0.01581693038057891,-5.328457638352824,-2.293355825836598,-3.2885654131061366,0.0082405260641016,0.006845025945326462,0.3167536640336527
10365,0.0,299.74605,35918.625,-0.10365001631609994,0.0,0.0,0.0,0.0,-0.015818457998464652,-5.335435486491486,-2.300455263987258,-3.282474158804977,0.005997220334904564,-0.01872101960362078,0.3038118055413907
10366,0.0,299.48835,36051.248,-0.10365999295556738,0.0,0.0,0.0,0.0,-0.015819980574707182,-5.347478470555035,-2.303382543526158,-3.3078182795812467,-0.0025715336096156075,-0.027460437491634175,0.3272004448171697
10367,0.0,299.07142999999996,36141.341,-0.10367000263026493,0.0,0.0,0.0,0.0,-0.015821508192592926,-5.349907332369745,-2.317931396412018,-3.318226384608447,1.1900644716002188e-05,-0.01035169334113259,0.3208137875818557
10368,0.0,299.67257,36202.146,-0.10368001230496227,0.0,0.0,0.0,0.0,-0.015823035810478614,-5.361744120037945,-2.3275764227889075,-3.3152278735875167,-0.004189932538389146,-0.006853062943794654,0.3266584269411767
10369,0.0,300.10392,36021.645,-0.10368998894442993,0.0,0.0,0.0,0.0,-0.0158245583867212,-5.3466244020457445,-2.2910398400830276,-3.312016377395567,-0.018851383348236682,0.0008621568288757543,0.3330063678901697
10370,0.0,299.43883999999997,35964.174,-0.10369999861912726,0.0,0.0,0.0,0.0,-0.015826086004606887,-5.333456102421135,-2.307051015513208,-3.291703752640867,-0.011601342795463388,0.015216422581743985,0.3190543091807087
10371,0.0,299.96435,36183.888,-0.10371000829382482,0.0,0.0,0.0,0.0,-0.01582761362249263,-5.361054907319924,-2.3214945917136776,-3.316448839958017,0.0032173562225783375,0.010649487545522592,0.3271674736589157
10372,0.0,300.31408999999996,36146.866,-0.10371998493329226,0.0,0.0,0.0,0.0,-0.01582913619873516,-5.355754089421775,-2.311482464825558,-3.3205082238336465,0.0012384547632509689,-0.0015159468806873085,0.32866108536632366
10373,0.0,299.95797999999996,35835.99,-0.10372999460798982,0.0,0.0,0.0,0.0,-0.015830663816620905,-5.323961847659125,-2.300503393367008,-3.268780894303557,-0.006123084134501354,-0.03234677226412787,0.31585396887235967
10374,0.0,299.88996000000003,35908.453,-0.10374000428268715,0.0,0.0,0.0,0.0,-0.01583219143450662,-5.330003959330435,-2.297562840251798,-3.2877061770213367,0.01095226086090399,-0.0031129987576790567,0.3279067915943807
10375,0.0,299.99334,36263.076,-0.10375001395738448,0.0,0.0,0.0,0.0,-0.01583371905239231,-5.359500176366486,-2.3516793121926773,-3.311890025108097,0.01002878016013854,-0.0012685288368190488,0.3057303844732397
10376,0.0,300.36341,36224.561,-0.10375999059685204,0.0,0.0,0.0,0.0,-0.015835241628634894,-5.367017174883355,-2.3339769210205876,-3.3103679208078765,0.013418150887268387,-0.0012243980459386787,0.30123306377188874
10377,0.0,299.92251,35976.858,-0.10377000027154948,0.0,0.0,0.0,0.0,-0.015836769246520582,-5.338032345172775,-2.3049097140768775,-3.293124329281067,-0.009954964687703521,-0.007105182468126913,0.3122442856561117
10378,0.0,299.65134,35978.517,-0.10378000994624703,0.0,0.0,0.0,0.0,-0.015838296864406326,-5.321427101208966,-2.3147853561765275,-3.300358428370017,0.01107276973504729,0.0015092449405508786,0.32789269728548975
10379,0.0,299.54483999999997,36079.803,-0.10378998658571437,0.0,0.0,0.0,0.0,-0.015839819440648856,-5.341649850679795,-2.312490243375018,-3.313219105264267,0.013660462555932685,-0.008129978654341423,0.34059046382866165
10380,0.0,299.29806,36122.717000000004,-0.10379999626041192,0.0,0.0,0.0,0.0,-0.0158413470585346,-5.345936709202875,-2.3181288788565078,-3.3163383956971173,-0.008564734685348501,0.0014250336234148686,0.3271959966492307
10381,0.0,299.61997,36133.51,-0.10381000593510925,0.0,0.0,0.0,0.0,-0.015842874676420315,-5.346514160434865,-2.322356259598718,-3.3148142648966967,-0.017373088942590383,-0.013950304773537887,0.33053298386606567
10382,0.0,300.07319,35947.328,-0.1038200156098068,0.0,0.0,0.0,0.0,-0.01584440229430603,-5.320840125426035,-2.3072914597619376,-3.298958522031857,-0.023060231746117682,0.012399682549253388,0.3167048557763357
10383,0.0,299.82049,35942.382000000005,-0.10382999224927425,0.0,0.0,0.0,0.0,-0.01584592487054859,-5.323807833643925,-2.328388036119008,-3.273390574308497,-0.012746941597025187,0.01906977623504038,0.3059038022278547
10384,0.0,300.29456,36266.725,-0.1038400019239718,0.0,0.0,0.0,0.0,-0.015847452488434305,-5.3677015240008945,-2.3358943955098272,-3.3205829003660168,-0.010052046712909771,-0.005084297902831135,0.3071451653228677
10385,0.0,300.25479,36220.452000000005,-0.10385001159866936,0.0,0.0,0.0,0.0,-0.01584898010632005,-5.392868832634715,-2.317417678611318,-3.299826674717537,-0.003048813822144497,-0.006847323489928213,0.3349276420672847
10386,0.0,299.88135,35958.317,-0.1038599882381368,0.0,0.0,0.0,0.0,-0.01585050268256258,-5.328850678066615,-2.3168556287808477,-3.2847241819770367,0.004156647171279136,-0.004445738671885246,0.3100476708968227
10387,0.0,299.70288999999997,36076.214,-0.10386999791283413,0.0,0.0,0.0,0.0,-0.015852030300448294,-5.351369654914065,-2.3071952010024375,-3.307703275694897,0.02630338592419208,-0.0029942926581136772,0.32927447657936065
10388,0.0,299.40281,36293.684,-0.10388000758753146,0.0,0.0,0.0,0.0,-0.01585355791833401,-5.364433387128354,-2.344327372117098,-3.323612720815037,0.004204727003099246,-0.009068515238342772,0.3072059907263707
10389,0.0,299.50135,36297.526,-0.10388998422699902,0.0,0.0,0.0,0.0,-0.015855080494576568,-5.374148631737175,-2.328157927021298,-3.3312349960172973,-0.0006074407701022364,-0.007102636575925653,0.3286633449140467
10390,0.0,299.38201000000004,36221.172,-0.10389999390169646,0.0,0.0,0.0,0.0,-0.015856608112462284,-5.358411540459045,-2.3238192914181077,-3.328101114783007,0.0017660631082468583,-0.008424651035173321,0.32771667547811767
10391,0.0,299.08909,36160.582,-0.10391000357639402,0.0,0.0,0.0,0.0,-0.015858135730348,-5.354651774637985,-2.331788908754648,-3.305473213549807,0.005676418361818874,0.0005040795428337775,0.32817782586362965
10392,0.0,299.85501,36143.485,-0.10392001325109135,0.0,0.0,0.0,0.0,-0.015859663348233716,-5.349602749389685,-2.323284903315368,-3.313829487124507,-0.017221067990337083,-0.003377518031435077,0.3293123214705957
10393,0.0,299.90828999999997,36236.72,-0.1039299898905589,0.0,0.0,0.0,0.0,-0.015861185924476273,-5.3777412112917355,-2.331403063116568,-3.3059136733682766,-0.009767931486194781,-0.005121010487079385,0.3075839330136707
10394,0.0,299.90719,36307.404,-0.10393999956525624,0.0,0.0,0.0,0.0,-0.01586271354236199,-5.383890930123664,-2.3342297269205377,-3.318423563077907,-0.009100579132457232,0.012415553085569688,0.3121677042135537
10395,0.0,300.48758,36141.561,-0.10395000923995379,0.0,0.0,0.0,0.0,-0.015864241160247733,-5.359873356378315,-2.3358569052561275,-3.290401726262367,0.013493534668208186,0.01955304890998568,0.29739660505075965
10396,0.0,300.17607000000004,36035.962,-0.10395998587942124,0.0,0.0,0.0,0.0,-0.015865763736490263,-5.354355095008705,-2.3260700238652374,-3.273607612479917,-0.003223058490166107,0.0003808863665255576,0.3055006300130647
10397,0.0,300.02112999999997,36255.1,-0.10396999555411879,0.0,0.0,0.0,0.0,-0.015867291354376006,-5.393460672018124,-2.3051311092237277,-3.322053328911137,0.004431636864943506,-0.001072943095191239,0.33822305563251664
10398,0.0,300.31113999999997,36306.321,-0.10398000522881612,0.0,0.0,0.0,0.0,-0.015868818972261695,-5.375128748558905,-2.3306035074626577,-3.3304827591430572,0.003423110942209747,-0.004870458258001805,0.3350609756479437
10399,0.0,300.01489,36251.531,-0.10399001490351345,0.0,0.0,0.0,0.0,-0.01587034659014741,-5.368429848172775,-2.3320106078765277,-3.3191195645715967,0.022198844531355375,-0.0028558929282796876,0.3318579096968257
10400,0.0,299.83897,36366.006,-0.10399999154298112,0.0,0.0,0.0,0.0,-0.015871869166389968,-5.368262864556295,-2.3390757981738077,-3.3470191021000675,-0.00968772189900371,-0.009548409129504611,0.3028280004892967
10401,0.0,299.78193999999996,36407.85,-0.10401000121767845,0.0,0.0,0.0,0.0,-0.015873396784275684,-5.3904663153226045,-2.3366216051065978,-3.339989375556287,-0.007711751569565623,-0.004776623800691065,0.33541447834283167
10402,0.0,299.50644,36264.712999999996,-0.104020010892376,0.0,0.0,0.0,0.0,-0.015874924402161428,-5.373038109627575,-2.338578292374708,-3.311950820114097,-0.01003112583412004,0.01993336524226998,0.30641034621784674
10403,0.0,298.96088,36229.888,-0.10402998753184345,0.0,0.0,0.0,0.0,-0.015876446978403957,-5.378886082579725,-2.315606392732558,-3.318489019034367,0.0017799330835657184,0.018288235154658283,0.33691717890363665
10404,0.0,299.73438,36196.25,-0.104039997206541,0.0,0.0,0.0,0.0,-0.0158779745962897,-5.362309614918755,-2.3334069678393377,-3.3070395968793966,-0.008711813712889071,0.0016521013496247083,0.29673044377251473
10405,0.0,300.15547999999995,36005.71,-0.10405000688123833,0.0,0.0,0.0,0.0,-0.01587950221417539,-5.351613442888125,-2.2958533860080874,-3.297370151175097,-0.018184362833906884,-0.0053590025692423745,0.3265359959315937
10406,0.0,300.16691000000003,36084.536,-0.10405998352070589,0.0,0.0,0.0,0.0,-0.015881024790417947,-5.345678837052424,-2.3357373417443275,-3.287381633014307,0.008544723299848532,0.005429797441804285,0.3039018733427797
10407,0.0,299.85771,36413.943999999996,-0.10406999319540322,0.0,0.0,0.0,0.0,-0.015882552408303663,-5.394746891695065,-2.3506277612388975,-3.323554965559337,-0.005158004552205415,0.0060260964428794144,0.3198708469062947
10408,0.0,300.23879,36428.339,-0.10408000287010077,0.0,0.0,0.0,0.0,-0.015884080026189407,-5.400813625343805,-2.346420341523658,-3.326071574832707,-0.0004477353898855425,-0.005056267352064736,0.3295170891833047
10409,0.0,300.03751,36340.308,-0.10409001254479822,0.0,0.0,0.0,0.0,-0.015885607644075123,-5.380865061350035,-2.356301657823868,-3.309379596660337,-0.006570546727062474,-0.00896771934754499,0.3281479957806857
10410,0.0,300.32485,36478.136,-0.10409998918426577,0.0,0.0,0.0,0.0,-0.01588713022031768,-5.386198505901405,-2.3465580422122474,-3.355685936830417,0.01936038446972118,0.006499696835020134,0.3473775372384937
10411,0.0,300.21341,36530.05,-0.1041099988589631,0.0,0.0,0.0,0.0,-0.015888657838203396,-5.382754671461525,-2.3657918595854777,-3.355676310954467,0.008668038978093841,-0.0069434708932422234,0.3189656700619607
10412,0.0,299.60329,36323.242,-0.10412000853366044,0.0,0.0,0.0,0.0,-0.015890185456089084,-5.365544010562965,-2.345758081258298,-3.3300563835009767,0.003599476342690656,-0.01012500983936067,0.3095196966672157
10413,0.0,299.83266000000003,36254.847,-0.1041299851731281,0.0,0.0,0.0,0.0,-0.015891708032331642,-5.371328756708875,-2.3243039289409375,-3.3249354174955768,-0.024089083871157477,-0.001238829868437989,0.32727266928429766
10414,0.0,300.43147,36147.915,-0.10413999484782543,0.0,0.0,0.0,0.0,-0.015893235650217358,-5.379503253215636,-2.3185451219975874,-3.290015171349217,-0.0008593820840069083,0.02910217420466097,0.3192493091624537
10415,0.0,300.38237999999996,36080.126000000004,-0.10415000452252299,0.0,0.0,0.0,0.0,-0.0158947632681031,-5.363902140100925,-2.310172737746298,-3.2933826067315572,-0.026150585782611875,0.030117517679367573,0.32360892917521467
10416,0.0,300.7298,36294.839,-0.10416001419722032,0.0,0.0,0.0,0.0,-0.015896290885988817,-5.380327532171985,-2.337041293298018,-3.315355948400157,-0.024959454561306375,0.005475142714254515,0.30909613786041373
10417,0.0,300.2494,36478.468,-0.10416999083668799,0.0,0.0,0.0,0.0,-0.015897813462231375,-5.401575690744015,-2.354410426512218,-3.3325572873977967,-0.016719824311618184,-0.0014172305843947687,0.3401206602872957
10418,0.0,300.22082,36363.528,-0.10418000051138532,0.0,0.0,0.0,0.0,-0.01589934108011709,-5.379745926614585,-2.331892361589858,-3.3419662265013863,0.017450599535490087,-0.0010693271095593689,0.3075165620145217
10419,0.0,299.72356,36373.617,-0.10419001018608287,0.0,0.0,0.0,0.0,-0.015900868698002807,-5.384028833462274,-2.3518065764052376,-3.320836010240997,0.014236295627512986,-0.009497552080485411,0.3234369502357417
10420,0.0,299.83317999999997,36458.686,-0.10419998682555032,0.0,0.0,0.0,0.0,-0.015902391274245337,-5.405007670157725,-2.3345271158248875,-3.3429952833029466,-0.003456847104289247,-0.028599059053007372,0.3264359476167197
10421,0.0,299.97177999999997,36308.823,-0.10420999650024776,0.0,0.0,0.0,0.0,-0.01590391889213108,-5.388048193958954,-2.312668068767568,-3.336259196638147,-0.007015015368228113,-0.01114334159126219,0.3273245172919147
10422,0.0,299.70205,36257.759,-0.1042200061749452,0.0,0.0,0.0,0.0,-0.015905446510016796,-5.364793496213895,-2.337013327595258,-3.319646657273617,0.0003376501437609747,0.01018293755022769,0.3242900054949317
10423,0.0,299.4555,36372.882000000005,-0.10423001584964253,0.0,0.0,0.0,0.0,-0.015906974127902512,-5.372169855616885,-2.3239736094083376,-3.3603042294612067,0.005353104845710314,0.020424154206457084,0.3021087550383127
10424,0.0,300.54697999999996,36384.265,-0.10423999248911009,0.0,0.0,0.0,0.0,-0.01590849670414507,-5.367862326791765,-2.355947222938888,-3.336098697822307,-0.007449537135812073,-0.015006338345760286,0.32747490387175665
10425,0.0,300.40175,36230.696,-0.10425000216380753,0.0,0.0,0.0,0.0,-0.015910024322030758,-5.3595259129190245,-2.3420617448934977,-3.3116393470333567,0.002253961979173728,0.003495049166184497,0.31408512804028865
10426,0.0,300.24169,36375.775,-0.10426001183850497,0.0,0.0,0.0,0.0,-0.015911551939916502,-5.392300399328615,-2.328970654926508,-3.3360562426431173,-0.007833720435778013,0.008163608830460462,0.3451178071304757
10427,0.0,300.00399,36448.968,-0.10426998847797242,0.0,0.0,0.0,0.0,-0.01591307451615903,-5.384946534077845,-2.3630699658418477,-3.331559641349337,0.004241584178136766,0.011174719920358988,0.3256998923465767
10428,0.0,299.50943,36290.672,-0.10427999815266997,0.0,0.0,0.0,0.0,-0.015914602134044775,-5.380201078559504,-2.321238644738418,-3.3300183866222266,-0.018225750047491482,-0.010224741209603391,0.3348739499444857
10429,0.0,299.9258,36402.859,-0.1042900078273673,0.0,0.0,0.0,0.0,-0.01591612975193049,-5.370766909528425,-2.3358954087599275,-3.3588979396474166,0.002916086266370307,0.008511869779931142,0.3319885682972207
10430,0.0,299.85532,36435.326,-0.10429998446683475,0.0,0.0,0.0,0.0,-0.01591765232817302,-5.392890718836874,-2.3286698209718177,-3.353868774101077,0.003896762706130536,0.002381788545539228,0.3151375706541567
10431,0.0,299.27194,36263.135,-0.1043099941415323,0.0,0.0,0.0,0.0,-0.015919179946058765,-5.366849785966835,-2.319865589527908,-3.3363720726992865,0.005181109694235715,0.008101940909499311,0.3319290297213447
10432,0.0,299.90426,36375.719,-0.10432000381622986,0.0,0.0,0.0,0.0,-0.01592070756394451,-5.395075792677525,-2.3359778873180677,-3.326256594300967,0.013434038648836388,-0.02122084945533478,0.3098042071627947
10433,0.0,300.02159,36588.958,-0.10433001349092719,0.0,0.0,0.0,0.0,-0.015922235181830197,-5.4152028913389145,-2.335196671490968,-3.371730042888847,0.006996726406573133,0.0002640065996029227,0.3533973168775997
10434,0.0,299.84949,36450.382000000005,-0.10433999013039463,0.0,0.0,0.0,0.0,-0.015923757758072726,-5.385075926115616,-2.3438279411428082,-3.351101993378017,0.008527820059030312,0.007686118672510853,0.3255552306297997
10435,0.0,300.56021,36336.477999999996,-0.10434999980509219,0.0,0.0,0.0,0.0,-0.01592528537595847,-5.366664766498575,-2.337677614360818,-3.341039710609947,-0.0036551621363864165,-0.01164632502040279,0.3251665174939367
10436,0.0,300.18815,36478.234,-0.10436000947978952,0.0,0.0,0.0,0.0,-0.015926812993844186,-5.397192370811415,-2.3460357117856976,-3.3452441918998965,-0.0038361049955190863,-0.02790613783962137,0.3294683214559917
10437,0.0,299.73174,36495.632000000005,-0.10436998611925696,0.0,0.0,0.0,0.0,-0.015928335570086716,-5.398661279481385,-2.357514011568518,-3.3375857436690666,-0.013622601452696089,-0.008250768908037491,0.3360026396283787
10438,0.0,300.37996,36471.578,-0.10437999579395452,0.0,0.0,0.0,0.0,-0.01592986318797246,-5.406425207047625,-2.3379425792619677,-3.3420814330377566,0.01086626936466729,-0.0023931247876580277,0.3410676235657537
10439,0.0,299.57603,36594.716,-0.10439000546865196,0.0,0.0,0.0,0.0,-0.015931390805858175,-5.409734380549215,-2.3615124991131378,-3.3526330142791174,-0.018345818157841285,0.007958203276813514,0.32808570116453767
10440,0.0,299.82262000000003,36604.64,-0.1044000151433494,0.0,0.0,0.0,0.0,-0.01593291842374389,-5.408713024448415,-2.3632068559303576,-3.3549767630854266,-0.009204439699507471,-0.002767062203937778,0.3383358708986507
10441,0.0,299.76392999999996,36429.878,-0.10440999178281674,0.0,0.0,0.0,0.0,-0.01593444099998642,-5.389753493877254,-2.338092945576808,-3.345926717167257,-0.009907746321118429,0.009893015589839621,0.3072424170674657
10442,0.0,299.7018,36534.549,-0.10442000145751429,0.0,0.0,0.0,0.0,-0.015935968617872165,-5.417232127314185,-2.332874302261768,-3.355484198735507,0.006987405012278183,0.014003731424810685,0.3316752612337997
10443,0.0,299.63987000000003,36589.453,-0.10443001113221184,0.0,0.0,0.0,0.0,-0.01593749623575791,-5.419660178528815,-2.3488925704426475,-3.3537274257121266,-0.013791691616133988,-0.0013782500424476887,0.3145027998640097
10444,0.0,300.0988,36350.476,-0.10443998777167907,0.0,0.0,0.0,0.0,-0.01593901881200041,-5.3940617319774455,-2.319441139061018,-3.3361341615758064,-0.003956545171305606,-0.021296097460761183,0.3441878259236937
10445,0.0,300.15589,36421.091,-0.10444999744637662,0.0,0.0,0.0,0.0,-0.015940546429886154,-5.394988045218865,-2.340769952341008,-3.335344333122857,0.00036066559289242263,-0.017204582411210083,0.33641605580167966
10446,0.0,300.21278,36591.269,-0.10446000712107417,0.0,0.0,0.0,0.0,-0.01594207404777187,-5.418033608143285,-2.344007691710548,-3.3607906908342167,0.012080964730298387,-0.006206930782926374,0.35402998010753867
10447,0.0,299.93099,36505.878,-0.10446998376054162,0.0,0.0,0.0,0.0,-0.015943596624014428,-5.3985196271174045,-2.3593951103791677,-3.3389606227297572,-0.016544140929779586,-0.013241062127541088,0.31984545485878874
10448,0.0,300.57325,36576.111000000004,-0.10447999343523895,0.0,0.0,0.0,0.0,-0.015945124241900116,-5.413012953897785,-2.3609438631570177,-3.3442677227785262,-0.0017501391736502885,0.006027605172278314,0.33125403290222766
10449,0.0,300.42557999999997,36626.37,-0.1044900031099365,0.0,0.0,0.0,0.0,-0.01594665185978586,-5.422885758897154,-2.3580119226676577,-3.352604339301287,-0.005388398879818564,0.011083047130811591,0.34573938540432064
10450,0.0,300.19255,36461.503,-0.10450001278463406,0.0,0.0,0.0,0.0,-0.015948179477671603,-5.395788310147846,-2.3498631627134374,-3.3377351980588172,0.015500432531773585,0.03417420428323137,0.33326058220775867
10451,0.0,300.35745,36503.006,-0.10450998942410128,0.0,0.0,0.0,0.0,-0.015949702053914105,-5.4053545056669545,-2.3372810282716774,-3.3533668100015372,-0.013507881276374088,0.0024624843914532878,0.3283483862529627
10452,0.0,299.80416,36656.131,-0.10451999909879883,0.0,0.0,0.0,0.0,-0.01595122967179985,-5.406217794752155,-2.3578449390511778,-3.3784858879305966,0.001062804109390599,-0.017972043368202583,0.3295636885554037
10453,0.0,299.51519,36425.35,-0.10453000877349639,0.0,0.0,0.0,0.0,-0.015952757289685565,-5.4101120188614855,-2.3251854565279375,-3.3370995862710866,-0.002243496321540848,-0.019977645284890082,0.31201528100101067
10454,0.0,299.29309,36409.238,-0.10453998541296372,0.0,0.0,0.0,0.0,-0.015954279865928123,-5.415086063602385,-2.3258329233418373,-3.3265800237328866,0.01038695647111279,-0.008736000600726131,0.3332732275690067
10455,0.0,299.38069,36596.766,-0.10454999508766116,0.0,0.0,0.0,0.0,-0.01595580748381381,-5.417190989360125,-2.353495562996928,-3.3538164903959173,-0.00895861093842106,-0.006288237213350693,0.3140260048969537
10456,0.0,300.02127,36645.823,-0.10456000476235872,0.0,0.0,0.0,0.0,-0.015957335101699555,-5.418504364139745,-2.354532016524218,-3.366378663810707,-0.022850346107153578,-0.005595094604817844,0.36651044503426466
10457,0.0,300.10882000000004,36503.89,-0.10457001443705627,0.0,0.0,0.0,0.0,-0.0159588627195853,-5.402300265890525,-2.3466178239681477,-3.347352968008017,-0.0016262309467464985,0.018169011081641782,0.3260746428960617
10458,0.0,300.11135,36668.672999999995,-0.1045799910765236,0.0,0.0,0.0,0.0,-0.015960385295827828,-5.419345564372765,-2.3609882435113976,-3.366027268676026,0.004187214798970926,0.0056198073694568055,0.36679867415771067
10459,0.0,300.28611,36772.66,-0.10459000075122094,0.0,0.0,0.0,0.0,-0.015961912913713544,-5.434727612815855,-2.378764095315738,-3.364478921198217,0.013117491211595588,0.004352138275347606,0.3199557673971757
10460,0.0,300.44146,36590.518,-0.10460001042591849,0.0,0.0,0.0,0.0,-0.01596344053159926,-5.424495306681004,-2.3507468181256477,-3.3473617832838864,-0.01255404816223809,-0.002686123583299758,0.34141497583253466
10461,0.0,300.13018999999997,36637.425,-0.10460998706538593,0.0,0.0,0.0,0.0,-0.015964963107841817,-5.423780053435415,-2.363911672699918,-3.3491705360373967,0.012244864013473987,0.012942013519527288,0.3198836949175627
10462,0.0,299.99342,36713.043,-0.10461999674008327,0.0,0.0,0.0,0.0,-0.015966490725727506,-5.4160535147978655,-2.3657544706567877,-3.3780404631866365,-0.0049552065976908154,0.013158826749425088,0.32718717124085966
10463,0.0,299.28422,36470.846,-0.10463000641478082,0.0,0.0,0.0,0.0,-0.01596801834361325,-5.382418576403355,-2.346250723456918,-3.3575573084401067,-0.002117215468202898,-0.00925373472217251,0.30463947888557574
10464,0.0,299.85478,36498.144,-0.10464001608947837,0.0,0.0,0.0,0.0,-0.015969545961498993,-5.392698201317875,-2.3505876365349376,-3.3512386808165067,-0.0018698688584666882,-0.014342603801504785,0.3098957543093297
10465,0.0,300.36322,36668.794,-0.10464999272894582,0.0,0.0,0.0,0.0,-0.015971068537741523,-5.434629834181205,-2.3509192732926683,-3.360848750064947,0.015468848512906485,4.083816273966286e-05,0.34057017856165966
10466,0.0,300.50327999999996,36575.632000000005,-0.10466000240364315,0.0,0.0,0.0,0.0,-0.01597259615562724,-5.418008074240765,-2.3539439261661776,-3.346126834062007,0.005643427749162954,0.008261327582029552,0.3158306033250537
10467,0.0,301.31109,36622.849,-0.10467001207834092,0.0,0.0,0.0,0.0,-0.015974123773512983,-5.414046165024755,-2.361373886499458,-3.3570116732612574,-0.012648038254764188,-0.014070635315663589,0.34252133348422364
10468,0.0,301.06547,36769.29,-0.10467998871780815,0.0,0.0,0.0,0.0,-0.015975646349755512,-5.424979437578785,-2.378339847498868,-3.373626644426026,-0.005968795832499285,-0.0004391621186694266,0.3296927968831457
10469,0.0,300.55959,36689.398,-0.1046899983925057,0.0,0.0,0.0,0.0,-0.01597717396764123,-5.420085338270775,-2.3631344085482078,-3.369441212237957,-0.001910406360517428,0.006981759891996053,0.3462928428739427
10470,0.0,299.8119,36616.54,-0.10470000806720325,0.0,0.0,0.0,0.0,-0.015978701585526972,-5.413885463558895,-2.3697422177503475,-3.3468860623619365,0.008767404159750422,0.0016785900377139383,0.31672576925839974
10471,0.0,300.01384,36728.823,-0.10470998470667059,0.0,0.0,0.0,0.0,-0.015980224161769502,-5.438775648290365,-2.3729265588396182,-3.3529427648346863,0.004813578957013256,-0.030891787677032073,0.3235800515473647
10472,0.0,300.21415,36634.309,-0.10471999438136803,0.0,0.0,0.0,0.0,-0.015981751779655218,-5.433446256739395,-2.351814986381068,-3.3506539341837964,0.013329500622769287,-0.012591764370710386,0.32341609754868367
10473,0.0,300.08962,36539.474,-0.10473000405606536,0.0,0.0,0.0,0.0,-0.015983279397540934,-5.413113772282736,-2.3406372165779077,-3.353336513823547,0.014750449125755986,0.007363048640401323,0.3221075661045417
10474,0.0,299.46216,36693.583,-0.10474001373076303,0.0,0.0,0.0,0.0,-0.015984807015426677,-5.421221191632875,-2.352847994858018,-3.3798638067415867,-0.018297951209867182,0.02731280087256357,0.33511576208085064
10475,0.0,300.04422999999997,36783.396,-0.10474999037023025,0.0,0.0,0.0,0.0,-0.015986329591669207,-5.429531463653035,-2.3585548220712376,-3.393147616877597,-0.03338239391308577,-0.0077717693114139124,0.3349400239835067
10476,0.0,300.1227,36610.543,-0.1047600000449278,0.0,0.0,0.0,0.0,-0.015987857209554923,-5.435130379730604,-2.3425729295689477,-3.3509875974417263,-0.031782890477477066,-0.00036469101262470065,0.3418587793763347
10477,0.0,300.33676,36751.678,-0.10477000971962536,0.0,0.0,0.0,0.0,-0.015989384827440667,-5.4553134097975144,-2.3654213140239078,-3.350857698778907,0.004455563448829876,0.015091220333137485,0.33888826445566766
10478,0.0,300.38707999999997,36906.909,-0.1047799863590928,0.0,0.0,0.0,0.0,-0.015990907403683197,-5.472422644361065,-2.3771409699805477,-3.3692150548156365,0.004858144026886485,0.006096812687233564,0.3306568435582897
10479,0.0,300.69728,36822.192,-0.10478999603379013,0.0,0.0,0.0,0.0,-0.015992435021568913,-5.438934019280994,-2.3885362845801774,-3.365556715329587,0.0026417894331243175,-0.027290339144346774,0.3241016625663437
10480,0.0,300.87818,36661.661,-0.10480000570848769,0.0,0.0,0.0,0.0,-0.015993962639454656,-5.423548627112575,-2.3591480800047875,-3.361532693882447,0.0002707015381811617,-0.004531918328665516,0.32162606965702173
10481,0.0,300.62023999999997,36765.216,-0.10481001538318524,0.0,0.0,0.0,0.0,-0.015995490257340372,-5.435732148964995,-2.364440893227148,-3.375534695689337,0.012888241349970386,-0.0018347047230212583,0.33995757768370066
10482,0.0,300.57088999999996,36724.737,-0.10481999202265269,0.0,0.0,0.0,0.0,-0.01599701283358293,-5.443241142806075,-2.358226123738798,-3.3619357647722268,0.00989314072622697,0.015052134210529986,0.32109562309717066
10483,0.0,300.83895,36654.361000000004,-0.10483000169735002,0.0,0.0,0.0,0.0,-0.015998540451468618,-5.439434767480415,-2.360079864796748,-3.342495751003647,-0.002084919843790568,-0.018716295831654583,0.3164951028731347
10484,0.0,300.70923999999997,36817.518,-0.10484001137204757,0.0,0.0,0.0,0.0,-0.016000068069354362,-5.461619473119875,-2.3712134568955476,-3.3587732085601067,0.0002751694847621137,0.002803815115540007,0.3294032404020687
10485,0.0,299.94874,36786.294,-0.10484998801151502,0.0,0.0,0.0,0.0,-0.01600159064559689,-5.455916698907054,-2.345703568402918,-3.380494453603827,-0.002819920725879507,-0.0070613610225020735,0.3426748915368787
10486,0.0,299.39248,36802.936,-0.10485999768621235,0.0,0.0,0.0,0.0,-0.016003118263482607,-5.432423684738475,-2.384620984868768,-3.370129006405837,-0.005572920234329405,0.004639199324078326,0.3317562604467937
10487,0.0,300.32534,37002.606,-0.1048700073609099,0.0,0.0,0.0,0.0,-0.01600464588136835,-5.459319395392875,-2.379031188042098,-3.4095176854931966,-0.004704083199531865,-0.018825315462913984,0.3487454552709967
10488,0.0,300.18404,36880.208,-0.10487998400037724,0.0,0.0,0.0,0.0,-0.01600616845761088,-5.467161343216815,-2.3648122493887977,-3.378688740600617,-0.007682461447599913,0.008581539944882052,0.3450071804845577
10489,0.0,299.83024,36634.162000000004,-0.10488999367507479,0.0,0.0,0.0,0.0,-0.016007696075496625,-5.443684541049835,-2.3655357099601977,-3.326650140639807,0.005540841850738515,-0.0013203837345367286,0.3254309352400327
10490,0.0,299.78846,36774.762,-0.10490000334977223,0.0,0.0,0.0,0.0,-0.016009223693382313,-5.458577696319675,-2.372731001570318,-3.3473006843028568,-0.01010018298276045,0.00900090399759506,0.3174586226582267
10491,0.0,300.06435,36791.789,-0.10491001302446967,0.0,0.0,0.0,0.0,-0.016010751311268057,-5.4338161943509045,-2.378622341626748,-3.3713466290510072,-0.006318773126314354,-0.009555380796817663,0.30606302434856875
10492,0.0,300.30564,36615.58,-0.10491998966393712,0.0,0.0,0.0,0.0,-0.016012273887510586,-5.418612883225454,-2.359425811857198,-3.3521832325597267,-0.007839416218565144,-0.001952438001165628,0.3168260100907927
10493,0.0,300.45662000000004,36587.017,-0.10492999933863467,0.0,0.0,0.0,0.0,-0.01601380150539633,-5.423902758022525,-2.3403659695261374,-3.3572709639618465,0.024478388745078877,0.003883676175788996,0.32719749625937866
10494,0.0,300.17551000000003,36840.275,-0.104940009013332,0.0,0.0,0.0,0.0,-0.016015329123282046,-5.468091506808615,-2.3774966207656476,-3.352935570758977,0.008832072922207732,-0.005175373280119576,0.3267052492282977
10495,0.0,300.11891,36873.863,-0.10494998565279967,0.0,0.0,0.0,0.0,-0.016016851699524604,-5.460219870756745,-2.373769481597808,-3.374744157961317,0.02432896272633168,-0.02282473114462558,0.3324943624821387
10496,0.0,300.12546000000003,36906.965,-0.104959995327497,0.0,0.0,0.0,0.0,-0.01601837931741032,-5.464715864100465,-2.3799160593544277,-3.374163970954057,0.0013076001659750888,-0.007697973496030833,0.3419456047774037
10497,0.0,299.9144,37031.128,-0.10497000500219433,0.0,0.0,0.0,0.0,-0.016019906935296008,-5.470035731100495,-2.379122076576068,-3.4073804370572667,0.013249461970870088,-0.003591471768225667,0.34456899034631167
10498,0.0,299.88165,36899.135,-0.10498001467689189,0.0,0.0,0.0,0.0,-0.01602143455318175,-5.444911384270915,-2.373388296910188,-3.3981158860929264,-0.01774547456634198,-0.009152763032482383,0.3331361348304767
10499,0.0,299.84002000000004,36818.927,-0.10498999131635933,0.0,0.0,0.0,0.0,-0.01602295712942428,-5.438861875873875,-2.377272287193508,-3.3759003776504266,-0.02352713131269708,-0.01252407318452979,0.3304258124029887
10500,0.0,300.54489,36921.687999999995,-0.10500000099105689,0.0,0.0,0.0,0.0,-0.016024484747310025,-5.470975723218265,-2.3748734175817576,-3.3774221779756175,-0.020494420061141782,0.0016774163901231082,0.3205887548671467
10501,0.0,300.01569,36788.371,-0.10501001066575422,0.0,0.0,0.0,0.0,-0.01602601236519574,-5.458216675309044,-2.3604505116833274,-3.3640790927087574,-0.001109655375464459,0.01900942604583428,0.3307151662340457
10502,0.0,300.24555,36643.913,-0.10501998730522177,0.0,0.0,0.0,0.0,-0.0160275349414383,-5.422961752654654,-2.3851728008732276,-3.330699898639487,0.0008303105910152753,0.011863965062382189,0.28617828497859776
10503,0.0,300.29446,36789.524,-0.10502999697991922,0.0,0.0,0.0,0.0,-0.016029062559324014,-5.4432222963542145,-2.348422118421218,-3.391452348135287,0.008610217759812331,-0.0060007779573306745,0.3371893176154947
10504,0.0,300.33586,36952.55,-0.10504000665461677,0.0,0.0,0.0,0.0,-0.01603059017720973,-5.455397712205835,-2.3856103222664076,-3.3916442577042263,0.004302925224615656,0.007620607392595393,0.32964089821302367
10505,0.0,300.14917,36927.805,-0.1050500163293141,0.0,0.0,0.0,0.0,-0.016032117795095446,-5.464383214092635,-2.3637962635135277,-3.3969510537779666,0.022937483589253377,-0.00956632035152231,0.3564744459737887
10506,0.0,300.10407000000004,36959.453,-0.10505999296878166,0.0,0.0,0.0,0.0,-0.016033640371338004,-5.481426283424654,-2.378725591811938,-3.374598959221987,0.0033971066889933272,-0.0099132074351824,0.32748721486047166
10507,0.0,299.4409,36926.855,-0.10507000264347899,0.0,0.0,0.0,0.0,-0.01603516798922372,-5.463652255470495,-2.3785007516147476,-3.3826889506704063,0.0015953935918780883,-0.02137557173235468,0.3400606150863697
10508,0.0,299.82277999999997,36868.758,-0.10508001231817643,0.0,0.0,0.0,0.0,-0.016036695607109436,-5.456188655233895,-2.3778672676522277,-3.3731259975516172,0.0024927716528424077,-0.009546988350214392,0.32307253483727666
10509,0.0,299.73834,36993.119,-0.10508998895764399,0.0,0.0,0.0,0.0,-0.016038218183351993,-5.451107915257465,-2.3775877119496376,-3.4162888306114567,-0.0011614388390500888,0.003106847113671937,0.34485761463729664
10510,0.0,299.58879,36995.776,-0.10509999863234132,0.0,0.0,0.0,0.0,-0.01603974580123768,-5.459866347796854,-2.3928192927528773,-3.393106377598526,-0.012510731720463089,0.0033771700813507366,0.32768726082771465
10511,0.0,299.80048,36766.822,-0.10511000830703887,0.0,0.0,0.0,0.0,-0.016041273419123425,-5.436812678871635,-2.3637169260306976,-3.3756661142273066,-0.012462501015703089,0.015739304216348383,0.3368863862330977
10512,0.0,300.13204,36709.036,-0.10511998494650632,0.0,0.0,0.0,0.0,-0.016042795995365955,-5.454954820587124,-2.363006029760538,-3.340669570348417,-0.0035128874341949965,0.029592071508760073,0.3156186618016367
10513,0.0,300.45972,37036.855,-0.10512999462120387,0.0,0.0,0.0,0.0,-0.0160443236132517,-5.477568333668905,-2.3866193167159877,-3.3940914593457463,0.00916484462137474,0.021647625331204276,0.3380613003865527
10514,0.0,301.10669,36934.26,-0.1051400042959012,0.0,0.0,0.0,0.0,-0.016045851231137415,-5.468748903473495,-2.3800882105464183,-3.378255474857857,0.008170338330999612,0.003124993308387827,0.3127117992522517
10515,0.0,299.9186,36731.442,-0.10515001397059875,0.0,0.0,0.0,0.0,-0.01604737884902316,-5.419344247147635,-2.371026106952058,-3.3750707284685473,0.016390336657350284,-0.013315993998936288,0.3307964288920657
10516,0.0,299.8502,36933.946,-0.1051599906100662,0.0,0.0,0.0,0.0,-0.016048901425265688,-5.463219192377754,-2.3713908769880576,-3.392387274002557,0.023146161434098277,-0.00861527367516131,0.33446649168177267
10517,0.0,299.85835,37137.549,-0.10517000028476375,0.0,0.0,0.0,0.0,-0.016050429043151432,-5.491895082132845,-2.3866294492169877,-3.4103630400516267,0.0007453218780050423,-0.003146692768554397,0.35965329524751666
10518,0.0,299.73688,37073.246,-0.10518000995946108,0.0,0.0,0.0,0.0,-0.01605195666103712,-5.482928730672935,-2.399553555567498,-3.3868587788069364,0.006174395626190404,-0.009617473370895722,0.3145852480246467
10519,0.0,300.04961000000003,37058.397000000004,-0.10518998659892864,0.0,0.0,0.0,0.0,-0.016053479237279678,-5.489798667675945,-2.3687030284477877,-3.406325643703167,-0.012459764227182988,-0.014730944061330986,0.35426092007033066
10520,0.0,300.23496,36915.99,-0.10519999627362597,0.0,0.0,0.0,0.0,-0.016055006855165393,-5.457934789131225,-2.382124336622368,-3.3814799406510865,-0.005249997022159365,0.0060282647980934145,0.3259465478184197
10521,0.0,299.96351,36839.877,-0.10521000594832342,0.0,0.0,0.0,0.0,-0.01605653447305111,-5.448141524264704,-2.3450227656607274,-3.405238426345867,-0.012055607133295789,-0.008749499422533362,0.35140385876336067
10522,0.0,300.37582000000003,37052.425,-0.10522001562302097,0.0,0.0,0.0,0.0,-0.016058062090936853,-5.470820898602986,-2.388540236255568,-3.4036509674141966,-0.010676264705915291,0.007180200769755644,0.3211599239485167
10523,0.0,300.24233,37030.507000000005,-0.1052299922624883,0.0,0.0,0.0,0.0,-0.016059584667179383,-5.484970733599464,-2.377905872481038,-3.3934727688346866,-0.010477778130576189,-0.0012076577357365388,0.35580734237295064
10524,0.0,299.75853,36766.198,-0.10524000193718586,0.0,0.0,0.0,0.0,-0.0160611122850651,-5.4588372909952945,-2.371565966605338,-3.345602882435297,0.010351741977137391,0.006350901159160144,0.3315621723901387
10525,0.0,299.67607000000004,36896.087,-0.10525001161188319,0.0,0.0,0.0,0.0,-0.016062639902950815,-5.469149035937986,-2.379286527067298,-3.367053589702317,0.014756618805614885,0.0032752662015686066,0.3369976208290757
10526,0.0,299.12917000000004,37176.615,-0.10525998825135086,0.0,0.0,0.0,0.0,-0.016064162479193372,-5.479233711533265,-2.401978972331868,-3.419549874733297,0.014712934554053588,-0.0048257694702913655,0.33028859807444666
10527,0.0,299.65511000000004,37076.757000000005,-0.10526999792604819,0.0,0.0,0.0,0.0,-0.01606569009707909,-5.455715974062245,-2.3905598463548876,-3.4241323996355573,0.008477227974912262,2.6182996613560576e-05,0.3354173762381177
10528,0.0,300.03297000000003,36836.64,-0.10528000760074574,0.0,0.0,0.0,0.0,-0.016067217714964832,-5.449942778967475,-2.3635021170094976,-3.383973853122217,0.0019257555796572783,-0.001967273502504778,0.3288869793436177
10529,0.0,299.93951,36992.571,-0.10528998424021319,0.0,0.0,0.0,0.0,-0.016068740291207362,-5.468003658024945,-2.376775895969518,-3.4000382241826466,-0.011267253972491387,0.003432406498627147,0.33483647995578764
10530,0.0,300.24089,37117.931000000004,-0.10529999391491074,0.0,0.0,0.0,0.0,-0.016070267909093106,-5.492696258986915,-2.388652504366648,-3.4015755272343675,-0.012442698055748687,-0.009682380044476512,0.3239492292212997
10531,0.0,300.17732,37019.482,-0.10531000358960807,0.0,0.0,0.0,0.0,-0.016071795526978794,-5.485175815419704,-2.381184851129648,-3.3866375863101066,-0.003209736480501327,0.006683443357179505,0.3386648124111147
10532,0.0,300.39421,36944.897000000004,-0.1053200132643054,0.0,0.0,0.0,0.0,-0.01607332314486451,-5.457206363634335,-2.3704686167470377,-3.4026513961905467,0.006152011512931265,0.0005216658864719145,0.3417258510957157
10533,0.0,300.75219,36961.053,-0.10532998990377296,0.0,0.0,0.0,0.0,-0.016074845721107067,-5.457350954423604,-2.374303869700548,-3.4035821677324067,-0.0014471196384945888,-0.0015267159054001285,0.3430481526087167
10534,0.0,299.9525,37062.702000000005,-0.1053399995784704,0.0,0.0,0.0,0.0,-0.016076373338992783,-5.478278014038945,-2.3839305562506277,-3.403927382041477,-0.007203188273449333,0.01081444263530239,0.33158566965995767
10535,0.0,299.32746000000003,37283.682,-0.10535000925316795,0.0,0.0,0.0,0.0,-0.016077900956878527,-5.506119492336685,-2.4134219096861975,-3.4137669524375673,0.002082607404412348,0.02023603115314078,0.3556017235301577
10536,0.0,299.12487000000004,37190.862,-0.10535998589263529,0.0,0.0,0.0,0.0,-0.016079423533121057,-5.504757177577235,-2.3974582556857076,-3.4028779589129066,0.0013790136277230486,0.018858445701433683,0.33988455274899365
10537,0.0,299.4878,36898.918,-0.10536999556733284,0.0,0.0,0.0,0.0,-0.0160809511510068,-5.466535863930085,-2.3659353357996378,-3.3838786076128167,-0.0009638315013527632,-0.01068922822769469,0.3495625300191357
10538,0.0,299.89827,36943.452000000005,-0.10538000524203017,0.0,0.0,0.0,0.0,-0.01608247876889249,-5.459643838074895,-2.3708116019058876,-3.3994313886977565,0.0035393130981280067,-0.01741430593015818,0.3119973059442367
10539,0.0,300.38517,37219.974,-0.10539001491672773,0.0,0.0,0.0,0.0,-0.016084006386778232,-5.493434209034745,-2.388805910431788,-3.4317025937826764,0.0016958860142709184,0.005276801236329735,0.34690424811678366
10540,0.0,300.15677999999997,37103.842000000004,-0.10539999155619517,0.0,0.0,0.0,0.0,-0.016085528963020762,-5.4852320508002546,-2.3911904932171275,-3.4022191436978866,-0.0004244471332971706,0.0014408894676047187,0.3243217303555627
10541,0.0,300.04791,36979.393,-0.10541000123089272,0.0,0.0,0.0,0.0,-0.016087056580906506,-5.4675904546341645,-2.390295185428768,-3.3829262538438267,-0.007433927207421492,-0.004373536901559486,0.3232281295226327
10542,0.0,299.87005,37043.077000000005,-0.10542001090559006,0.0,0.0,0.0,0.0,-0.016088584198792222,-5.485103672012586,-2.3928338835543177,-3.3822329881254065,-0.01230474304138359,-0.004098104620251436,0.3292812349575277
10543,0.0,299.85986,37130.44,-0.1054299875450575,0.0,0.0,0.0,0.0,-0.01609010677503475,-5.474474374488555,-2.405183375773118,-3.407068963976527,0.011131636526106988,0.006580523491522104,0.34083956123324566
10544,0.0,299.81228,37239.627,-0.10543999721975506,0.0,0.0,0.0,0.0,-0.016091634392920495,-5.489154037962325,-2.407962011522348,-3.422800685029127,-0.0046072437463995555,0.011206762941521389,0.3391576977897587
10545,0.0,300.03252000000003,37290.786,-0.10545000689445239,0.0,0.0,0.0,0.0,-0.016093162010806183,-5.502427208972286,-2.4054868441780677,-3.4275536385982073,-0.01017912165035109,-0.004686144417111446,0.3528331594869217
10546,0.0,300.26509,36976.3,-0.10545998353391983,0.0,0.0,0.0,0.0,-0.01609468458704874,-5.478043547965805,-2.380538701540878,-3.381289550957297,-0.015563394879737485,-0.01049061094309269,0.33828242195587566
10547,0.0,300.37251000000003,36932.025,-0.10546999320861739,0.0,0.0,0.0,0.0,-0.016096212204934457,-5.467691576994145,-2.374007595371308,-3.384714032320267,-0.0006592380442867294,0.02067107312332608,0.33767387407831667
10548,0.0,300.25301,37277.332,-0.10548000288331494,0.0,0.0,0.0,0.0,-0.0160977398228202,-5.5177181662313854,-2.395995933141388,-3.417664013647177,0.007545531031735933,0.004099679616206876,0.34338380183684264
10549,0.0,300.19374,37264.799,-0.10549001255801227,0.0,0.0,0.0,0.0,-0.016099267440705917,-5.497830903868665,-2.391844951456718,-3.4378925386435766,-0.0028262093613001475,-0.004270408306381486,0.33797860904589166
10550,0.0,300.09052,37058.583,-0.10549998919747972,0.0,0.0,0.0,0.0,-0.016100790016948446,-5.476277250391485,-2.3803143679687375,-3.4082923621472667,0.00043494130378786454,-0.006897878489092604,0.32149071970866366
10551,0.0,299.74974,37053.062000000005,-0.10550999887217727,0.0,0.0,0.0,0.0,-0.01610231763483419,-5.482568925562425,-2.382599044294218,-3.3980376631852067,0.002352101938809388,0.0018011937051139783,0.34382045183493665
10552,0.0,299.76113,37205.028,-0.10552000854687471,0.0,0.0,0.0,0.0,-0.016103845252719906,-5.497205120606905,-2.4033251764147274,-3.408869408079217,0.005560618162215285,0.005575364902845675,0.33058137669084164
10553,0.0,299.64137,37247.856,-0.10552998518634193,0.0,0.0,0.0,0.0,-0.016105367828962436,-5.519169140374585,-2.397065317296928,-3.406183788689167,-0.023856669629469977,-0.027871757250478267,0.34094046067820366
10554,0.0,299.50482,37160.962999999996,-0.10553999486103949,0.0,0.0,0.0,0.0,-0.016106895446848152,-5.489629150934214,-2.388588264310308,-3.4177873261843463,-0.003516665843817897,-0.005865421321522015,0.3401612510863017
10555,0.0,299.7084,37066.657999999996,-0.10555000453573704,0.0,0.0,0.0,0.0,-0.016108423064733896,-5.475408895055785,-2.3808497693215775,-3.4110799144973765,0.00039336443004954664,0.0019345449163247182,0.34820300169746066
10556,0.0,300.02109,37061.862,-0.10556001421043448,0.0,0.0,0.0,0.0,-0.01610995068261961,-5.479641747348535,-2.3766188422040178,-3.4096201250783067,0.015051029767920986,0.018148605237877882,0.3493784224759657
10557,0.0,300.2373,37267.89,-0.10556999084990182,0.0,0.0,0.0,0.0,-0.01611147325886214,-5.5153592186735745,-2.411096703356718,-3.4020519574313863,-0.01075173056011319,-0.010166193592325191,0.32324467589676564
10558,0.0,300.06401,37311.244,-0.10558000052459937,0.0,0.0,0.0,0.0,-0.016113000876747885,-5.509518541122144,-2.398986844786568,-3.4331809256785766,0.011596465009481988,-0.008147760382996342,0.3367709466492047
10559,0.0,300.33807,37060.661,-0.10559001019929692,0.0,0.0,0.0,0.0,-0.0161145284946336,-5.4889552382927045,-2.3975052704903477,-3.379054929186757,0.0036166111111567267,-0.005542057446883485,0.3100434253789037
10560,0.0,300.02715,36998.05,-0.10559998683876415,0.0,0.0,0.0,0.0,-0.01611605107087613,-5.455968374662154,-2.3877450375770874,-3.402770149102267,0.014071756983524288,-0.004790645763524925,0.3358595281842547
10561,0.0,300.58455,37301.598,-0.1056099965134617,0.0,0.0,0.0,0.0,-0.016117578688761847,-5.4957577941640645,-2.395724078139558,-3.447272498794307,-0.005276939139668345,-0.017217875239271985,0.32099037680928366
10562,0.0,300.27419,37388.287000000004,-0.10562000618815925,0.0,0.0,0.0,0.0,-0.01611910630664759,-5.524135079114685,-2.400854264720868,-3.440116217313036,-0.0017989030506129083,0.0004671752212691046,0.3444410371236837
10563,0.0,299.98117,37042.377,-0.10563001586285681,0.0,0.0,0.0,0.0,-0.016120633924533334,-5.481038613936395,-2.3771881874352077,-3.4017307571496866,-0.0025111666004578475,0.016403227225122483,0.3311190071939017
10564,0.0,299.74624,37092.535,-0.10563999250232403,0.0,0.0,0.0,0.0,-0.016122156500775836,-5.490135269359165,-2.3899924262988876,-3.395076642417976,-0.008524038710982122,0.01061003766612919,0.35148278081364964
10565,0.0,300.27564,37331.215,-0.1056500021770217,0.0,0.0,0.0,0.0,-0.016123684118661608,-5.529055218950265,-2.3914925430719376,-3.427209437539237,-0.016481857459382684,-0.009053105426846942,0.33928617790243865
10566,0.0,299.75719,37464.219,-0.10566001185171914,0.0,0.0,0.0,0.0,-0.016125211736547296,-5.523918851543344,-2.413413702360388,-3.4508544392228164,-0.0025062964138521976,-0.0061446681854815345,0.3526907775828697
10567,0.0,300.37397999999996,37374.361000000004,-0.10566998849118647,0.0,0.0,0.0,0.0,-0.016126734312789853,-5.519623583044435,-2.403597031416558,-3.437652094394847,0.02187335110898168,0.003906546243796096,0.3529876598621697
10568,0.0,300.30228999999997,37103.16,-0.10567999816588403,0.0,0.0,0.0,0.0,-0.01612826193067557,-5.495423725606095,-2.3794844148118273,-3.4035260336768673,0.014437506832370986,0.0004652037912120396,0.3380244484804157
10569,0.0,300.32285,37028.301,-0.10569000784058147,0.0,0.0,0.0,0.0,-0.016129789548561285,-5.487345690508855,-2.390965247719898,-3.3773680704202764,-0.00895771583328272,-0.007651886625832413,0.3174593420657977
10570,0.0,300.06833,37243.827000000005,-0.1056999844800488,0.0,0.0,0.0,0.0,-0.016131312124803815,-5.517890824048425,-2.396146198131218,-3.4071564074601572,-0.004796752520552615,-0.014875110298809087,0.3097669296916157
10571,0.0,299.82433,37324.356,-0.10570999415474625,0.0,0.0,0.0,0.0,-0.01613283974268953,-5.515523871814825,-2.406289844882318,-3.4238584168085167,-0.0012699231702816588,0.013313936087983185,0.3311263228596237
10572,0.0,299.00845,37022.667,-0.10572000382944391,0.0,0.0,0.0,0.0,-0.016134367360575302,-5.455731375463765,-2.396131404679758,-3.4021036331864867,-0.013045139074954987,0.0017074190295591387,0.3305387796566377
10573,0.0,299.67451,37080.917,-0.10573001350414124,0.0,0.0,0.0,0.0,-0.01613589497846099,-5.482398294245585,-2.3829948197832773,-3.406279743473637,-0.01900738434688278,-0.004669500466993815,0.33858723798345863
10574,0.0,299.41497000000004,37431.102,-0.10573999014360869,0.0,0.0,0.0,0.0,-0.016137417554703548,-5.524852460185485,-2.413009719545518,-3.4402582749770567,-0.017344319732501084,0.012870833713252388,0.35002783473005766
10575,0.0,299.53661,37532.257000000005,-0.10574999981830624,0.0,0.0,0.0,0.0,-0.016138945172589264,-5.530340932002154,-2.4377323127104473,-3.440795905480117,0.0008390303072683442,0.01138604133471479,0.34668273137992167
10576,0.0,299.4468,37315.248,-0.10576000949300379,0.0,0.0,0.0,0.0,-0.016140472790475008,-5.522557550033995,-2.4048026977105477,-3.415543281187877,-0.0077053831913621125,0.01111136240485609,0.34585089357782567
10577,0.0,300.32322,37214.881,-0.10576998613247102,0.0,0.0,0.0,0.0,-0.01614199536671751,-5.490561341026215,-2.4095974985087576,-3.412235627561437,-0.0004243046500681085,-0.012462036947157288,0.3404437249491796
10578,0.0,300.24332000000004,37201.276,-0.10577999580716857,0.0,0.0,0.0,0.0,-0.016143522984603254,-5.4991219871460855,-2.3910726522304975,-3.418064551411707,0.020366420229009183,-0.005624600853029885,0.33681717111876663
10579,0.0,300.19094,37260.659,-0.10579000548186612,0.0,0.0,0.0,0.0,-0.016145050602488997,-5.506543233528504,-2.3952619347689477,-3.4245047690473065,0.028380391575426576,0.007687390402711362,0.33504496629636366
10580,0.0,299.62124,37319.317,-0.10580001515656345,0.0,0.0,0.0,0.0,-0.016146578220374685,-5.5131307777286445,-2.4038396034904976,-3.427170224760367,0.012669256725108288,-0.005426595470163275,0.32630356649115466
10581,0.0,300.56913,37301.465,-0.1058099917960309,0.0,0.0,0.0,0.0,-0.016148100796617243,-5.5136465220295445,-2.407548098856498,-3.4175194228579064,-0.015945242232922884,-0.0029902247629372074,0.32443178958142466
10582,0.0,300.00748,37236.896,-0.10582000147072845,0.0,0.0,0.0,0.0,-0.01614962841450296,-5.501855938565904,-2.4020016691341075,-3.415228971006857,-0.007731511466390773,0.00964940746767237,0.3287058608882427
10583,0.0,299.85979,37505.836,-0.105830011145426,0.0,0.0,0.0,0.0,-0.016151156032388703,-5.531463714437964,-2.425593981812488,-3.4437800283496265,0.007137643252305544,0.012039364734192788,0.33970525814379865
10584,0.0,299.23339,37678.318,-0.10583998778489323,0.0,0.0,0.0,0.0,-0.016152678608631205,-5.544698179294104,-2.4285571304049274,-3.4800124333754865,-0.013451380424297886,-0.0013274283558569787,0.3558475987994236
10585,0.0,299.69651,37358.078,-0.10584999745959067,0.0,0.0,0.0,0.0,-0.01615420622651695,-5.5275066688224355,-2.4216636859995977,-3.406752627295307,-0.0009649780951659231,-0.02053763213815648,0.3483488185193517
10586,0.0,299.78591,37171.51,-0.10586000713428823,0.0,0.0,0.0,0.0,-0.016155733844402692,-5.494691956383875,-2.391470758194788,-3.413048051491617,0.007296843892117424,-0.006694683644513833,0.33702978138724965
10587,0.0,300.87059,37363.654,-0.10586998377375567,0.0,0.0,0.0,0.0,-0.016157256420645222,-5.534573986944924,-2.4174564689343776,-3.4055872883552967,0.003919684145917706,0.006377592699919394,0.33208494864673266
10588,0.0,300.07653999999997,37363.61,-0.105879993448453,0.0,0.0,0.0,0.0,-0.016158784038530938,-5.517990933158305,-2.413510265094918,-3.4261032724050673,-0.00018255965165473484,-0.0027440001250367274,0.3228063135060027
10589,0.0,300.42343999999997,37313.307,-0.10589000312315056,0.0,0.0,0.0,0.0,-0.016160311656416654,-5.5151621415291245,-2.400118543823258,-3.4270330306968266,-0.011796001311924688,-0.006050627633100453,0.31439394640576673
10590,0.0,300.09292999999997,37260.015,-0.10590001279784811,0.0,0.0,0.0,0.0,-0.016161839274302398,-5.503566811359755,-2.402430780551458,-3.4201164841892164,0.008213926323801413,0.008693302646812173,0.33193557531699064
10591,0.0,299.91253,37233.165,-0.10590998943731555,0.0,0.0,0.0,0.0,-0.016163361850544927,-5.522887970891604,-2.3910658634548274,-3.4039985121984966,0.012124856698130187,-0.0060486503768553135,0.3311779783497217
10592,0.0,299.38245,37433.474,-0.10591999911201289,0.0,0.0,0.0,0.0,-0.016164889468430643,-5.517227753182985,-2.412767046146568,-3.448846684149667,0.01050938950719599,-0.006895414264849404,0.3471642075624397
10593,0.0,299.86966,37639.215,-0.10593000878671044,0.0,0.0,0.0,0.0,-0.016166417086316387,-5.564762253799275,-2.4328559452791874,-3.4437632083979666,-0.003106257706088767,-0.010610979988722189,0.3438750660153267
10594,0.0,299.91702000000004,37490.451,-0.10593998542617789,0.0,0.0,0.0,0.0,-0.016167939662558917,-5.542263035328775,-2.4023226667657873,-3.4515751640189465,-0.0066871086880912435,0.014601633083568986,0.3602974993960947
10595,0.0,300.10922999999997,37363.85,-0.10594999510087522,0.0,0.0,0.0,0.0,-0.016169467280444605,-5.520281385009354,-2.4058464466385576,-3.431549593017577,-0.012801629744672489,0.014933090496031285,0.33740657870193663
10596,0.0,299.70135,37503.054,-0.10596000477557277,0.0,0.0,0.0,0.0,-0.01617099489833035,-5.527894439635705,-2.429991791221518,-3.442105835209397,-0.012055853353070089,0.00915924479337208,0.35029377235130366
10597,0.0,300.07813,37518.004,-0.10597001445027032,0.0,0.0,0.0,0.0,-0.016172522516216092,-5.534343573872185,-2.4159029538810577,-3.454289762361857,-0.013707192637294587,-0.011229070655722989,0.3367126239734487
10598,0.0,299.92659,37277.58,-0.10597999108973777,0.0,0.0,0.0,0.0,-0.016174045092458622,-5.502521137256554,-2.4204186042767177,-3.4085137572941173,0.004736062487262976,-0.002008091776158228,0.31573138587526167
10599,0.0,299.98102,37046.719,-0.1059900007644351,0.0,0.0,0.0,0.0,-0.016175572710344338,-5.494757108365304,-2.387139417992318,-3.3793808917439265,0.003752878456155266,-0.00967828610877247,0.3189435001497727
10600,0.0,299.50492,37160.325,-0.10600001043913265,0.0,0.0,0.0,0.0,-0.016177100328230082,-5.487864170585024,-2.4047844592087477,-3.403162276890967,0.009069603874250211,-0.002236533570828678,0.3340148759797017
10601,0.0,299.91715,37336.483,-0.10600998707859999,0.0,0.0,0.0,0.0,-0.01617862290447261,-5.522868415164675,-2.406928192445318,-3.4195620337344965,0.0012268029950510287,0.003966160712104587,0.3302318864663497
10602,0.0,299.52103999999997,37517.484,-0.10601999675329754,0.0,0.0,0.0,0.0,-0.016180150522358328,-5.537187057627815,-2.4138390647523678,-3.4533521007193166,0.01199157276672609,0.017929922561545585,0.3468050407994927
10603,0.0,300.21752000000004,37548.127,-0.10603000642799498,0.0,0.0,0.0,0.0,-0.016181678140244043,-5.5298419063279045,-2.4218240834904274,-3.4620270414504666,0.008201188858119322,0.008501475860405342,0.3415109914120107
10604,0.0,300.144,37546.102,-0.10604001610269242,0.0,0.0,0.0,0.0,-0.016183205758129787,-5.535147283851504,-2.4154915743404577,-3.4624387249660966,-0.019238842080475882,-0.015854978874264587,0.3441230184472977
10605,0.0,299.9163,37617.113,-0.10604999274215987,0.0,0.0,0.0,0.0,-0.016184728334372317,-5.5577561359828245,-2.4144790335155277,-3.4624277818650167,-0.00958993647557804,-0.00984906211772675,0.3454826784914857
10606,0.0,299.70738,37713.324,-0.1060600024168572,0.0,0.0,0.0,0.0,-0.016186255952258033,-5.552161779530705,-2.4458134888829974,-3.465933525886007,-0.012319541559094089,-0.0013175968914616888,0.34768819971915366
10607,0.0,300.41438,37378.168,-0.10607001209155476,0.0,0.0,0.0,0.0,-0.016187783570143777,-5.5361068316962045,-2.395342589476908,-3.430580317971917,0.0021944913923794378,0.015218709487219685,0.34051990109169766
10608,0.0,299.85434,37139.736000000004,-0.1060799887310222,0.0,0.0,0.0,0.0,-0.016189306146386306,-5.499983756356135,-2.390552449629158,-3.3990161588067767,-0.014856563768978686,0.001078132759553419,0.3299066635817527
10609,0.0,299.91354,37364.866,-0.10608999840571975,0.0,0.0,0.0,0.0,-0.016190833764272022,-5.520855087215975,-2.4165933824991974,-3.4205376922557864,0.0029424474875969575,0.0026342278516030475,0.3321021333684287
10610,0.0,300.02312,37433.106,-0.10610000808041709,0.0,0.0,0.0,0.0,-0.01619236138215774,-5.529605616404585,-2.4037566183073076,-3.4453672846312764,0.00045346812590381954,-0.0035084545663325068,0.3320977358629947
10611,0.0,299.75889,37391.931000000004,-0.10610998471988475,0.0,0.0,0.0,0.0,-0.016193883958400296,-5.516956607456224,-2.4209178326009875,-3.428338907425707,0.013831039157267288,0.003817983726755656,0.33920093317152566
10612,0.0,299.14182,37489.367,-0.10611999439458208,0.0,0.0,0.0,0.0,-0.016195411576286012,-5.524089077560145,-2.4194410205802375,-3.452301360365617,-0.001152113898379789,-0.008866961149650932,0.3377962848228977
10613,0.0,298.99564,37731.38,-0.10613000406927964,0.0,0.0,0.0,0.0,-0.016196939194171756,-5.579603631989005,-2.4230530545367177,-3.4667405795906565,0.0009786791515606122,0.0009706065170864051,0.36202437140902366
10614,0.0,299.21916,37769.038,-0.10614001374397697,0.0,0.0,0.0,0.0,-0.01619846681205747,-5.572175292855886,-2.4440599582599374,-3.464609208005307,-0.006101605461531574,0.026633256586997774,0.3344196187321467
10615,0.0,299.8251,37700.315,-0.10614999038344453,0.0,0.0,0.0,0.0,-0.01619998938830003,-5.570508597766395,-2.4261812615704477,-3.4632644224725864,0.00014586177979793687,0.00982422391272541,0.36672172794511665
10616,0.0,300.2281,37451.663,-0.10616000005814197,0.0,0.0,0.0,0.0,-0.016201517006185717,-5.548376277157105,-2.3979468448839274,-3.438047261933847,-0.005757589523354844,-0.0009514055999439221,0.3389933790210417
10617,0.0,300.54859,37408.541,-0.1061700097328393,0.0,0.0,0.0,0.0,-0.016203044624071433,-5.535531305639404,-2.4065488316078776,-3.4291821341589266,-0.012076894504646688,-0.0024646656149435574,0.3428459281537587
10618,0.0,299.82537,37552.341,-0.10617998637230686,0.0,0.0,0.0,0.0,-0.01620456720031399,-5.547530213323604,-2.4265907159358577,-3.440853052785757,-0.0034384745495010167,-0.006220610571201463,0.3241088566420537
10619,0.0,299.61185,37504.277,-0.10618999604700419,0.0,0.0,0.0,0.0,-0.016206094818199707,-5.5500499636722855,-2.4327391175426576,-3.417574644988357,0.0013186052779612088,-0.0043218297357063866,0.33100643510779165
10620,0.0,299.77893,37386.623999999996,-0.10620000572170174,0.0,0.0,0.0,0.0,-0.01620762243608545,-5.524701384595574,-2.4194596643820776,-3.420439305671077,-0.003547982668633627,-0.007045433440205144,0.3235994654192807
10621,0.0,299.57915,37434.557,-0.10621001539639918,0.0,0.0,0.0,0.0,-0.016209150053971166,-5.530481064490985,-2.420475346282318,-3.4282140750133867,0.00994568828171301,-0.004628495957971985,0.34199474740725366
10622,0.0,299.52652,37670.574,-0.10621999203586674,0.0,0.0,0.0,0.0,-0.016210672630213724,-5.550431553659945,-2.436686739932258,-3.463795770825026,0.012572318074791186,0.007501825197947502,0.35666299155239667
10623,0.0,299.9062,37723.714,-0.10623000171056407,0.0,0.0,0.0,0.0,-0.016212200248099412,-5.564664475164625,-2.4142934060972077,-3.488109112274567,0.02031365523005168,-0.006125292411769295,0.35922161017491266
10624,0.0,300.12739,37568.427,-0.10624001138526162,0.0,0.0,0.0,0.0,-0.016213727865985156,-5.557829393965054,-2.421348058593448,-3.4406862718192968,0.013176377254407188,-0.008408248238579493,0.3624137431574516
10625,0.0,300.29697000000004,37606.964,-0.10624998802472907,0.0,0.0,0.0,0.0,-0.016215250442227686,-5.568529112371035,-2.4117793299490877,-3.4512694664637764,0.012422805929785488,-0.006476222971278443,0.3555449308620527
10626,0.0,300.73855,37708.05,-0.10625999769942662,0.0,0.0,0.0,0.0,-0.01621677806011343,-5.569606095902325,-2.427645002664908,-3.465054430099247,-0.00015946663822813184,-0.009413035775069302,0.33882099478152866
10627,0.0,300.32255,37644.121,-0.10627000737412395,0.0,0.0,0.0,0.0,-0.016218305677999145,-5.562827756708354,-2.436127425877058,-3.4439175263881965,-0.01092526078548929,0.0015965965223968084,0.34138785112735764
10628,0.0,299.55925,37531.072,-0.10627998401359151,0.0,0.0,0.0,0.0,-0.016219828254241703,-5.544102894860354,-2.4165634916212477,-3.447842451975557,-0.01716827056737638,-0.0032441625645739172,0.3367312373777857
10629,0.0,299.58699,37402.316,-0.10628999368828895,0.0,0.0,0.0,0.0,-0.01622135587212742,-5.525460714220515,-2.4064360568717476,-3.437473458402217,-0.011594134534251989,-0.004098369281177556,0.3203259380562087
10630,0.0,299.57267,37389.699,-0.10630000336298628,0.0,0.0,0.0,0.0,-0.016222883490013107,-5.536737985183494,-2.413304575324618,-3.4154922133828367,0.0015555972822754987,0.004022302265695327,0.32654047449703566
10631,0.0,300.23747000000003,37624.309,-0.10631001303768384,0.0,0.0,0.0,0.0,-0.01622441110789885,-5.561874794989304,-2.434982453264058,-3.4399933100759066,0.004191475616966436,-0.01203782763379109,0.3364444166719787
10632,0.0,300.42919,37809.022000000004,-0.10631998967715117,0.0,0.0,0.0,0.0,-0.01622593368414138,-5.587211113739805,-2.4383988286262275,-3.4673884517045965,0.01173547583045129,0.0024434707533267878,0.34983162898069364
10633,0.0,300.03345,37739.196,-0.10632999935184873,0.0,0.0,0.0,0.0,-0.016227461302027124,-5.5812102413475655,-2.430152087387338,-3.4604108062159566,-0.006837062306165514,0.014786106410025087,0.3664737755131457
10634,0.0,300.16154,37733.893,-0.10634000902654617,0.0,0.0,0.0,0.0,-0.01622898891991284,-5.5678174055007945,-2.437242507612108,-3.4651015462288965,-0.004824408270107026,0.016957132551288685,0.35743047784064164
10635,0.0,299.94543999999996,37760.398,-0.10634998566601372,0.0,0.0,0.0,0.0,-0.016230511496155398,-5.571158699030554,-2.4304547451922076,-3.4766045693141563,-0.010295946347130791,-0.005288242653808914,0.35622410227158163
10636,0.0,299.53007,37699.796,-0.10635999534071106,0.0,0.0,0.0,0.0,-0.016232039114041114,-5.576580397665635,-2.4300015184224777,-3.453214602680746,-0.0075124587511219525,-0.017138490133687283,0.3484412370609727
10637,0.0,299.89756,37555.587,-0.10637000501540861,0.0,0.0,0.0,0.0,-0.01623356673192683,-5.5542651854132945,-2.4124404756393374,-3.449255023939967,0.005714569254584074,-0.040410233785179564,0.3226831732213497
10638,0.0,299.73657000000003,37485.702000000005,-0.10638001469010594,0.0,0.0,0.0,0.0,-0.016235094349812546,-5.548771849996145,-2.4109093534132273,-3.4350359839616567,-0.01052308155579729,-0.017546488458703585,0.3266427114321257
10639,0.0,299.64207000000005,37427.906,-0.10638999132957361,0.0,0.0,0.0,0.0,-0.016236616926055103,-5.549535637921524,-2.402415683124968,-3.425197528140677,-0.008424352025068811,0.009134240212704321,0.32214536033327174
10640,0.0,300.90951,37528.419,-0.10640000100427094,0.0,0.0,0.0,0.0,-0.01623814454394082,-5.533480588762015,-2.410034817251918,-3.464186986688637,-0.00898206636101093,0.010291807220472292,0.3415735900031887
10641,0.0,300.45746,37742.545,-0.10641001067896827,0.0,0.0,0.0,0.0,-0.016239672161826535,-5.564587873457065,-2.437110278474058,-3.4710929953952068,0.007436716178321744,0.03971336596265406,0.3431725898534977
10642,0.0,300.1672,37874.997,-0.10641998731843594,0.0,0.0,0.0,0.0,-0.016241194738069092,-5.571866352900395,-2.4525650782743273,-3.488621715500157,-0.003301891577096327,0.014159436554427586,0.35716695175463364
10643,0.0,300.60373,37894.983,-0.10642999699313327,0.0,0.0,0.0,0.0,-0.01624272235595481,-5.571043593819194,-2.4638575479888076,-3.484227351141467,0.008617533526859341,-0.001023939381929949,0.35584107346877963
10644,0.0,300.40244,37870.401,-0.10644000666783082,0.0,0.0,0.0,0.0,-0.016244249973840524,-5.580325775335274,-2.4441866145224376,-3.4871437889042967,0.0025678518640522476,-0.00972183549674546,0.3627155194347347
10645,0.0,300.01656,37858.953,-0.10645001634252815,0.0,0.0,0.0,0.0,-0.01624577759172624,-5.584160622988745,-2.4462734031033877,-3.4777422465264367,0.014543396534071487,0.0024655064098765378,0.35117355714813164
10646,0.0,300.12471,37654.154,-0.10645999298199571,0.0,0.0,0.0,0.0,-0.016247300167968798,-5.553537975816525,-2.422862259542888,-3.4695225590652172,-0.0019237251277818882,0.0018374343174656482,0.3476580555286787
10647,0.0,299.49307999999996,37447.152,-0.10647000265669315,0.0,0.0,0.0,0.0,-0.016248827785854514,-5.541190814072954,-2.408554256205798,-3.4332541836608064,0.0005529980518941585,0.005307611030795425,0.3356897581299997
10648,0.0,299.83662999999996,37549.949,-0.1064800123313907,0.0,0.0,0.0,0.0,-0.016250355403740258,-5.548430587362465,-2.410917864714068,-3.4548985230219365,-0.005501266024357685,-0.004334115393168886,0.33311754169114166
10649,0.0,299.80048,37631.918,-0.10648998897085804,0.0,0.0,0.0,0.0,-0.016251877979982787,-5.551605910525844,-2.420330958143068,-3.4672264330136073,0.0013377229768729787,0.00044665788959670163,0.3256235338190407
10650,0.0,299.89932999999996,37616.104,-0.1064999986455556,0.0,0.0,0.0,0.0,-0.01625340559786853,-5.571612837725374,-2.4166227667520976,-3.4461207374056366,-0.003258705135309157,-0.015511629958628686,0.3404832011730757
10651,0.0,299.91232,37749.763999999996,-0.10651000832025292,0.0,0.0,0.0,0.0,-0.01625493321575422,-5.580790451831135,-2.432388938308098,-3.461806051603657,-0.007991141099139221,-0.007475864818460413,0.3405394466861267
10652,0.0,300.39288,37964.637,-0.10651998495972037,0.0,0.0,0.0,0.0,-0.016256455791996777,-5.608041509295604,-2.454080292473868,-3.4781798692446264,-0.012137666205894387,0.009344086942864581,0.35134762338281067
10653,0.0,300.63135,37963.225,-0.10652999463441792,0.0,0.0,0.0,0.0,-0.016257983409882493,-5.603864284433344,-2.4560028332136077,-3.480005441949797,0.023047289502590378,0.023747150465911273,0.35462866906162466
10654,0.0,300.57334,37845.068999999996,-0.10654000430911525,0.0,0.0,0.0,0.0,-0.01625951102776821,-5.570066618072775,-2.4427711041327376,-3.491118363746557,-0.001110290581952149,0.02240377740383068,0.36101697789460163
10655,0.0,300.52251,37691.664,-0.10655001398381281,0.0,0.0,0.0,0.0,-0.016261038645653952,-5.535657455276854,-2.440065929015758,-3.4816012095322866,0.008292528187058812,0.0027114734796015974,0.35531656455451466
10656,0.0,300.2959,37666.991,-0.10655999062328025,0.0,0.0,0.0,0.0,-0.016262561221896482,-5.561007756878735,-2.424176242272568,-3.4646408214084268,0.006201321329047764,-0.006951007042185984,0.34721552868000466
10657,0.0,300.05836,37707.343,-0.10657000029797781,0.0,0.0,0.0,0.0,-0.016264088839782226,-5.561191256471845,-2.4357886963686273,-3.465110868129817,0.00026968726469856077,-0.003013579367142127,0.3319816477990377
10658,0.0,299.83648,37723.933,-0.10658000997267514,0.0,0.0,0.0,0.0,-0.016265616457667914,-5.583729282421174,-2.4341493590318373,-3.449254821289947,-0.0027435950276467475,-0.013111673129521387,0.3316972791584727
10659,0.0,299.27069,37670.677,-0.1065899866121427,0.0,0.0,0.0,0.0,-0.0162671390339105,-5.566062760302625,-2.425656094043618,-3.4592262155240467,-0.02327048215511778,0.0004522494089485416,0.3232619822084737
10660,0.0,299.6796,37741.21,-0.10659999628684014,0.0,0.0,0.0,0.0,-0.016268666651796188,-5.565647935711685,-2.429725205120208,-3.4770123011543967,0.0033470994528329964,0.004205235553324436,0.3352988867714237
10661,0.0,300.39238,37839.647000000004,-0.10661000596153769,0.0,0.0,0.0,0.0,-0.01627019426968193,-5.577561021112414,-2.438163146652968,-3.4865837655740264,0.004772496123758695,-0.007824111379779673,0.33710718356238867
10662,0.0,300.40565,37883.505,-0.10662001563623502,0.0,0.0,0.0,0.0,-0.016271721887567647,-5.615737650430154,-2.422558487162908,-3.4773434312870766,0.007410893904823283,-0.0034238680426844663,0.36031152277747863
10663,0.0,300.48725,37935.811,-0.10662999227570258,0.0,0.0,0.0,0.0,-0.016273244463810205,-5.595830427040465,-2.469648373635318,-3.466060587448547,0.015687498765235588,-0.01750134512699828,0.3366807775228057
10664,0.0,300.56767,37903.211,-0.10664000195039991,0.0,0.0,0.0,0.0,-0.01627477208169592,-5.610856622048435,-2.4464733173481177,-3.464299660099757,0.02778112202903327,0.019190328678937982,0.36724533506679263
10665,0.0,300.81718,37856.642,-0.10665001162509735,0.0,0.0,0.0,0.0,-0.01627629969958161,-5.5854682222427945,-2.4489504098675874,-3.4730553568638767,-0.0012139861918861088,0.022886420850463877,0.35313259515647366
10666,0.0,300.97852,37819.8,-0.10665998826456491,0.0,0.0,0.0,0.0,-0.016277822275824194,-5.559232644028545,-2.4488940731620272,-3.488148122403417,-0.01044586581867669,0.009300064569744911,0.36154362476657764
10667,0.0,300.42451,37732.842000000004,-0.10666999793926224,0.0,0.0,0.0,0.0,-0.016279349893709882,-5.556677936551415,-2.438338945545318,-3.4748248968385167,-0.04562316540940586,0.010807325566599989,0.3393861654223067
10668,0.0,300.64808999999997,37738.122,-0.10668000761395979,0.0,0.0,0.0,0.0,-0.016280877511595626,-5.559809284660454,-2.437603832597768,-3.474033548510417,-0.01035847603730199,0.005317722557518355,0.3427045898973097
10669,0.0,300.26774,37723.416,-0.10668998425342702,0.0,0.0,0.0,0.0,-0.016282400087838128,-5.580735331025695,-2.425240560177608,-3.4610007204241766,0.005218195863795835,-0.013392592666745987,0.3194863691558497
10670,0.0,299.55363,37792.255,-0.10669999392812479,0.0,0.0,0.0,0.0,-0.0162839277057239,-5.603085905706524,-2.431252679645958,-3.4535631607151465,0.01101113879771479,-0.02089762976618548,0.3313482550290267
10671,0.0,299.60556,37989.86,-0.10671000360282212,0.0,0.0,0.0,0.0,-0.016285455323609616,-5.611482709285225,-2.462821499761558,-3.4736647254740167,0.007978356416002471,-0.011273683044375888,0.3328392930811807
10672,0.0,299.92692,38070.87,-0.10672001327751968,0.0,0.0,0.0,0.0,-0.01628698294149533,-5.611099903397445,-2.4520874321771875,-3.509406616126467,0.009809812963178162,0.019676636037932783,0.3492101824293617
10673,0.0,300.76721000000003,38033.565,-0.10672998991698712,0.0,0.0,0.0,0.0,-0.01628850551773789,-5.621048398179285,-2.4519035272840375,-3.488302136418617,-0.0018131776166966985,0.029214780741274367,0.35313387185159967
10674,0.0,300.94642000000005,37984.352,-0.10673999959168468,0.0,0.0,0.0,0.0,-0.016290033135623605,-5.592338057920795,-2.4578280006187376,-3.4961282775409965,-0.012182551158824188,0.004063911279726816,0.34647104316902966
10675,0.0,299.52702,37886.604,-0.106750009266382,0.0,0.0,0.0,0.0,-0.01629156075350932,-5.580359719213624,-2.4474406672185878,-3.488781302390907,-0.013278383168474387,0.0006763564892936884,0.3512699881601487
10676,0.0,299.68905,37855.727999999996,-0.10675998590584945,0.0,0.0,0.0,0.0,-0.01629308332975185,-5.5965277457592855,-2.4475058192000176,-3.4631624895125266,0.018049316860578882,-0.018824650770848383,0.3428777036768947
10677,0.0,300.02286000000004,37740.656,-0.1067699955805469,0.0,0.0,0.0,0.0,-0.016294610947637594,-5.565293095526664,-2.416667856381548,-3.490256087911457,0.02025821423758008,-0.007651089907278783,0.34566412118689266
10678,0.0,299.55402999999995,37595.015,-0.10678000525524434,0.0,0.0,0.0,0.0,-0.01629613856552331,-5.565769424398674,-2.416082805773808,-3.446093582302957,-0.000917023683443191,-0.007678313505665542,0.34354383455763665
10679,0.0,299.28009,37665.378,-0.10679001492994189,0.0,0.0,0.0,0.0,-0.016297666183409026,-5.560520282255625,-2.4228111917378476,-3.466002832192847,0.002217352645110668,0.004828540607989855,0.3390396845506117
10680,0.0,299.60154,38006.679,-0.10679999156940923,0.0,0.0,0.0,0.0,-0.016299188759651584,-5.6091216339022045,-2.456063932194638,-3.4878958231285164,-0.0077110170645681335,-0.0016393767522188884,0.34346236924959667
10681,0.0,299.84041,38193.349,-0.10681000124410678,0.0,0.0,0.0,0.0,-0.0163007163775373,-5.640601591984034,-2.4767339302596074,-3.4924889871568263,0.005394274109198405,0.003047566916571437,0.34241977542670066
10682,0.0,300.28912,38147.662000000004,-0.10682001091880411,0.0,0.0,0.0,0.0,-0.016302243995423016,-5.654242268805265,-2.4579687410576274,-3.483725792341967,0.0005324871847573935,-0.03345774020377187,0.3395740321233477
10683,0.0,300.39017,38090.082,-0.10682998755827156,0.0,0.0,0.0,0.0,-0.016303766571665546,-5.622723503244604,-2.4563222096451276,-3.499387903112696,0.008280108983233133,-0.024322182056662475,0.34414930215489165
10684,0.0,300.02058,38074.255,-0.10683999723296911,0.0,0.0,0.0,0.0,-0.01630529418955129,-5.645553851847785,-2.4520610876745876,-3.4760077650052565,-0.008992240607915052,-0.002990155963255417,0.3470964109982487
10685,0.0,299.7157,38047.686,-0.10685000690766666,0.0,0.0,0.0,0.0,-0.016306821807437033,-5.622025171275685,-2.453911991632258,-3.489609431697636,0.01090834457506979,0.030103079878692672,0.36131219844373763
10686,0.0,299.83422,37828.469,-0.10685998354713389,0.0,0.0,0.0,0.0,-0.016308344383679535,-5.589887309903924,-2.4534185388335574,-3.455604353041597,0.005570802541620405,0.017293961202531082,0.33963614435447764
10687,0.0,300.59676,37652.887,-0.10686999322183144,0.0,0.0,0.0,0.0,-0.01630987200156525,-5.560782410056495,-2.4188177704437277,-3.4659373762363863,-0.002957120159645037,0.004166315097108285,0.35836425873529865
10688,0.0,300.83169,37694.437999999995,-0.10688000289652899,0.0,0.0,0.0,0.0,-0.016311399619450995,-5.553603938398035,-2.4489244706650273,-3.4556396141450767,0.004118869559850776,-0.039683261288932965,0.3280089272044607
10689,0.0,300.32642000000004,37934.325,-0.10689001257122632,0.0,0.0,0.0,0.0,-0.01631292723733671,-5.582754231849945,-2.4507490301200976,-3.4975844192597063,0.0036906495999387565,-0.023321456741148577,0.3518553427429187
10690,0.0,300.12767,38080.782999999996,-0.10689998921069377,0.0,0.0,0.0,0.0,-0.01631444981357924,-5.626442739061665,-2.4642411644766677,-3.4849232513101467,-0.0005745263031913315,-0.03173483101198397,0.33755674236675665
10691,0.0,300.32915,38135.356,-0.10690999888539132,0.0,0.0,0.0,0.0,-0.016315977431464984,-5.600366139788104,-2.4896106165054372,-3.502219329192137,-0.006473187679278884,-0.0037815983209646964,0.3599222624865617
10692,0.0,299.96807,38167.101,-0.10692000856008887,0.0,0.0,0.0,0.0,-0.016317505049350728,-5.630717539908555,-2.4764810230346477,-3.494647209869827,-0.020203068100887584,0.01035336925679799,0.33916647253562465
10693,0.0,299.6758,38206.358,-0.1069299851995561,0.0,0.0,0.0,0.0,-0.01631902762559323,-5.6264398006363745,-2.4729159025577974,-3.5144232173715664,-0.018311609821215182,0.01942502475985068,0.36362569160206165
10694,0.0,300.03187,38116.385,-0.10693999487425365,0.0,0.0,0.0,0.0,-0.016320555243478946,-5.620260292251505,-2.4623430430643376,-3.5038259385506967,0.003490994443259327,0.01047174118648039,0.3313257406118047
10695,0.0,299.9966,37934.587999999996,-0.1069500045489512,0.0,0.0,0.0,0.0,-0.01632208286136469,-5.598798337908375,-2.4316248464076877,-3.5007441383715467,-0.0035350501523072862,0.0037933137212709162,0.36442100173805264
10696,0.0,300.05275,37730.583,-0.10696001422364865,0.0,0.0,0.0,0.0,-0.016323610479250433,-5.585815057752025,-2.4300546127277176,-3.4532854288627366,0.015038399605424486,-0.014559628800673487,0.3298571257843637
10697,0.0,300.26825,37785.508,-0.10696999086311587,0.0,0.0,0.0,0.0,-0.016325133055492935,-5.5782430397547245,-2.429306226203858,-3.478301661906647,-0.008851592678759181,-0.00867254783971383,0.35342448211278066
10698,0.0,300.03087999999997,37970.931000000004,-0.10698000053781342,0.0,0.0,0.0,0.0,-0.01632666067337868,-5.607566092348685,-2.4535027399168676,-3.4811460575873667,0.026783239893299973,-0.007949293363384173,0.3346045267428957
10699,0.0,299.29706,37985.523,-0.10699001021251098,0.0,0.0,0.0,0.0,-0.016328188291264423,-5.593754480235585,-2.454911056230858,-3.4979848556992263,-0.0022348926122917278,-0.01052011678600469,0.34663724658293266
10700,0.0,300.15117000000004,38079.016,-0.10699998685197842,0.0,0.0,0.0,0.0,-0.016329710867506952,-5.599292297332124,-2.4705355754228773,-3.5052421582154665,0.0041752913784191764,0.001933494783921078,0.34911222140969367
10701,0.0,300.13756,38182.089,-0.10700999652667575,0.0,0.0,0.0,0.0,-0.01633123848539264,-5.631785100213914,-2.4661331050633875,-3.5084833426353472,-0.012220438606563386,-0.005159900849767565,0.35669014665507665
10702,0.0,300.27637999999996,38206.238,-0.10702000620137331,0.0,0.0,0.0,0.0,-0.016332766103278384,-5.648891092377144,-2.4723783733797475,-3.4924730791302565,0.0030520795272167968,9.270781135229861e-05,0.3543081273924897
10703,0.0,300.62257999999997,38222.672,-0.10703001587607086,0.0,0.0,0.0,0.0,-0.016334293721164128,-5.6380315844303945,-2.467743970072368,-3.5129623133773866,-0.016572461270074588,-0.006284186442100915,0.3572182526071967
10704,0.0,300.6426,38115.089,-0.10703999251553808,0.0,0.0,0.0,0.0,-0.01633581629740663,-5.635238965829785,-2.4586076965706876,-3.492188761152197,-0.000865549210475556,0.0014878666806660086,0.35162786809546864
10705,0.0,299.83153,37891.032,-0.10705000219023564,0.0,0.0,0.0,0.0,-0.016337343915292374,-5.591809951968674,-2.4265503885818775,-3.4995672483803966,-0.008000961620433431,0.022643610662750377,0.34411135593864667
10706,0.0,300.51585,37793.555,-0.10706001186493319,0.0,0.0,0.0,0.0,-0.016338871533178118,-5.576868869969104,-2.430987208119758,-3.4804409368427764,-0.0017975771115320482,0.011018259919417591,0.3326329041683117
10707,0.0,299.60399,37856.472,-0.10706998850440064,0.0,0.0,0.0,0.0,-0.016340394109420647,-5.581078924134604,-2.4394515954801275,-3.486891692279417,-0.0023215957140736575,0.0047126590444032355,0.3387763307171207
10708,0.0,299.57909,38056.407,-0.10707999817909797,0.0,0.0,0.0,0.0,-0.016341921727306336,-5.618970526199215,-2.4558054520941273,-3.493421582548867,0.003928336389846616,-0.020645301107032582,0.34049690031442764
10709,0.0,299.95141,38083.157999999996,-0.10709000785379552,0.0,0.0,0.0,0.0,-0.01634344934519208,-5.601905469340024,-2.471064289325058,-3.503359235554637,0.017370070470542485,-0.019800438988151182,0.33764019364499265
10710,0.0,300.35627999999997,38092.846,-0.10709998449326297,0.0,0.0,0.0,0.0,-0.01634497192143461,-5.620707844820674,-2.4644049056928274,-3.4941611537968567,0.010558189658512188,-0.010848156505879688,0.35987116428401866
10711,0.0,300.25782000000004,38252.666,-0.10710999416796041,0.0,0.0,0.0,0.0,-0.016346499539320353,-5.620269006202364,-2.475395021577468,-3.5321911658251266,-0.0052531345510940155,5.124584524157115e-05,0.3504073272900107
10712,0.0,300.47919,38384.424,-0.10712000384265785,0.0,0.0,0.0,0.0,-0.01634802715720607,-5.639685816543654,-2.496001995486218,-3.5322188275528568,-0.014820365409156185,-0.0032975613514689664,0.37560263202409366
10713,0.0,300.46106000000003,38211.509,-0.1071300135173554,0.0,0.0,0.0,0.0,-0.016349554775091812,-5.642299596501615,-2.4670153419254577,-3.5060295548681766,-0.021921527098236276,0.028075698151105676,0.34930917696413166
10714,0.0,300.69771000000003,38103.685,-0.10713999015682274,0.0,0.0,0.0,0.0,-0.016351077351334342,-5.6390143357023845,-2.4570877200956778,-3.486466633862467,-0.021306513671789182,0.01785308780646258,0.36530153633995466
10715,0.0,300.42363,37969.327000000005,-0.10714999983152018,0.0,0.0,0.0,0.0,-0.01635260496922003,-5.611924587653835,-2.443403980145198,-3.4863986447807567,-0.01767807012993968,0.015793117929159384,0.3361655195819537
10716,0.0,300.01031,38027.887,-0.10716000950621762,0.0,0.0,0.0,0.0,-0.016354132587105774,-5.625261998720135,-2.443349365964808,-3.4909168283016667,-0.01206452880042629,0.0031876198652685873,0.3471370119297557
10717,0.0,300.4483,38063.123999999996,-0.10716998614568507,0.0,0.0,0.0,0.0,-0.016355655163348304,-5.600129444564745,-2.4604345865009876,-3.509675431377997,0.017471639673816586,0.003820796914333296,0.3293908078233417
10718,0.0,300.51043,37992.371,-0.10717999582038262,0.0,0.0,0.0,0.0,-0.016357182781234048,-5.611337510545894,-2.4527766448952075,-3.484617959055017,-0.0017013013294303685,-0.0037616475278207068,0.34876653087307663
10719,0.0,299.66062999999997,38077.109,-0.10719000549507995,0.0,0.0,0.0,0.0,-0.016358710399119764,-5.616271633232854,-2.4597977588131377,-3.4984209585422668,0.005596628766794254,-0.008394201248468163,0.3457035467482837
10720,0.0,299.70915,38366.821,-0.10720001516977773,0.0,0.0,0.0,0.0,-0.016360238017005535,-5.657558535057554,-2.4922621906921276,-3.512734940054947,0.004103167628351116,-0.02201271960723628,0.35134245580730067
10721,0.0,300.31181000000004,38473.898,-0.10720999180924495,0.0,0.0,0.0,0.0,-0.016361760593248037,-5.660687654016375,-2.4933758538770374,-3.541040689548507,0.022356301570395178,0.0004008275945886036,0.36580849576248764
10722,0.0,299.91989,38260.008,-0.1072200014839425,0.0,0.0,0.0,0.0,-0.016363288211133753,-5.655831652912124,-2.4711497063084873,-3.503105619054607,0.007948594220815173,-0.007444185351433893,0.36179181024607165
10723,0.0,299.893,38100.871,-0.10723001115863984,0.0,0.0,0.0,0.0,-0.01636481582901947,-5.598716771275324,-2.4724612572379274,-3.510535478062877,0.005472103571904575,-0.0012423720894625789,0.3614351158133686
10724,0.0,300.10835,38124.832,-0.1072399877981074,0.0,0.0,0.0,0.0,-0.016366338405262026,-5.640144616188935,-2.4546475098798477,-3.4942048248761663,-0.01855586085057088,0.007221020765934264,0.35112802168863766
10725,0.0,300.23896,38227.143,-0.10724999747280484,0.0,0.0,0.0,0.0,-0.016367866023147742,-5.628006994566045,-2.481305208085758,-3.5107847375874766,-0.004363316957075855,0.016257794425019383,0.34569692009262964
10726,0.0,300.61424,38067.547999999995,-0.10726000714750217,0.0,0.0,0.0,0.0,-0.01636939364103346,-5.621135537687885,-2.4589743917818776,-3.4914742171816764,-0.026491806873037774,0.029390014240068575,0.3327633803836887
10727,0.0,300.47893,37970.983,-0.10726998378696972,0.0,0.0,0.0,0.0,-0.016370916217276016,-5.6081034188767145,-2.459970821930218,-3.4741565570725568,-0.029573190606396675,0.012657562805704188,0.33781099721434965
10728,0.0,299.84591,38080.055,-0.10727999346166717,0.0,0.0,0.0,0.0,-0.016372443835161732,-5.6170264032323445,-2.4593562857445677,-3.499003070724717,-0.008513956872487122,0.002063722145073518,0.33685626230762467
10729,0.0,300.30751000000004,38419.112,-0.10729000313636461,0.0,0.0,0.0,0.0,-0.016373971453047448,-5.649579595820095,-2.4883474989307772,-3.540523526697467,-0.0026477020514328476,-0.0016239256001189788,0.3453759325934507
10730,0.0,300.81757999999996,38467.086,-0.10730001281106216,0.0,0.0,0.0,0.0,-0.01637549907093319,-5.677951105245144,-2.479691202001468,-3.5353912122909468,0.027688979091439476,-0.004278466481776766,0.3771436131736766
10731,0.0,299.88829,38227.007000000005,-0.10730998945052961,0.0,0.0,0.0,0.0,-0.01637702164717572,-5.616932069648035,-2.486324849081158,-3.5167987822310165,0.005766791455463004,-0.00983916995965047,0.35850250657894267
10732,0.0,300.16078,38245.695,-0.10731999912522694,0.0,0.0,0.0,0.0,-0.016378549265061437,-5.645842222826245,-2.4655667995824975,-3.5143272625870967,0.013837674932172186,0.014987195011620987,0.3773013458167436
10733,0.0,299.87675,38412.216,-0.10733000879992449,0.0,0.0,0.0,0.0,-0.01638007688294718,-5.653159205773374,-2.4942233362606774,-3.528972070257426,0.007914563405606591,0.00081894501530608,0.35501062381932064
10734,0.0,299.69867999999997,38307.48,-0.10733998543939194,0.0,0.0,0.0,0.0,-0.01638159945918971,-5.6429953953452845,-2.4847526902259975,-3.516769296653107,0.004579840093470026,0.00915485367141371,0.35426678678840967
10735,0.0,299.72485,38130.395,-0.10734999511408949,0.0,0.0,0.0,0.0,-0.016383127077075454,-5.607195242812085,-2.4774506020553377,-3.5060422204944266,-0.021466518021580377,-0.00830316477998356,0.3453038803788397
10736,0.0,300.22074,38059.405,-0.10736000478878682,0.0,0.0,0.0,0.0,-0.016384654694961143,-5.626044531772365,-2.468054024602968,-3.475010321606817,-0.015788486362952287,-0.0006142324335350214,0.3512745275205966
10737,0.0,299.67597,38121.32,-0.10737001446348438,0.0,0.0,0.0,0.0,-0.016386182312846886,-5.600757355651715,-2.4617120922270677,-3.5254598414357967,-0.009242169992156163,0.017890064342361883,0.34511110954731467
10738,0.0,300.2882,38299.998999999996,-0.10737999110295182,0.0,0.0,0.0,0.0,-0.016387704889089416,-5.656767085404445,-2.4635508371835377,-3.5219254224369765,0.0014984324474087685,0.010726943422916888,0.3535547455456367
10739,0.0,300.48344,38335.212999999996,-0.10739000077764915,0.0,0.0,0.0,0.0,-0.016389232506975132,-5.655301317809785,-2.4679999170476274,-3.5296463881989766,0.0004514298416051566,-0.00012062960289271489,0.35329078376208567
10740,0.0,301.15132,38239.901,-0.1074000104523467,0.0,0.0,0.0,0.0,-0.016390760124860876,-5.642916767137525,-2.457522505713588,-3.5235357808209065,0.007851909186998103,-0.013926258322164684,0.3501099687831637
10741,0.0,300.79249,38323.362,-0.10740998709181415,0.0,0.0,0.0,0.0,-0.016392282701103406,-5.656411535944354,-2.4717636345440774,-3.5211701458124365,0.01915012696797038,-0.025969624381002372,0.3506838432423007
10742,0.0,299.99235,38591.558,-0.1074199967665117,0.0,0.0,0.0,0.0,-0.01639381031898915,-5.692676466298424,-2.4872251217950074,-3.5509683113782864,0.00988289666639096,-0.013691959435291187,0.38023969004673563
10743,0.0,300.11372,38521.557,-0.10743000644120904,0.0,0.0,0.0,0.0,-0.016395337936874838,-5.657569579483645,-2.4928488625000274,-3.5591731040630363,-0.002011258790670788,-0.012691053761259488,0.35413638150053967
10744,0.0,300.03583,38237.102,-0.10744001611590659,0.0,0.0,0.0,0.0,-0.01639686555476058,-5.622038850152035,-2.4909390887115475,-3.510146187374457,-0.006104430504135385,0.0010326991316944691,0.36027705200907667
10745,0.0,299.32473,38053.768,-0.10744999275537392,0.0,0.0,0.0,0.0,-0.01639838813100311,-5.626779442069894,-2.4531522567072774,-3.4874636719608665,-0.0057618290630982545,-1.4698924344920888e-05,0.3213175856640767
10746,0.0,299.65596,38227.997,-0.10746000243007148,0.0,0.0,0.0,0.0,-0.016399915748888855,-5.640200040969405,-2.470137266808568,-3.5100192271369264,0.002360796536592478,-0.003532751290480407,0.35387347349709264
10747,0.0,300.30568,38223.871,-0.10747001210476892,0.0,0.0,0.0,0.0,-0.01640144336677457,-5.644764226044854,-2.484085769010177,-3.490252338886086,-0.0024265465382314975,0.0038004547026756763,0.3213486316471407
10748,0.0,300.78153,38227.86,-0.10747998874423648,0.0,0.0,0.0,0.0,-0.016402965943017128,-5.636637960242854,-2.455146434229088,-3.5285303945388367,-0.0016786805209478685,-0.00940252401455687,0.38080813348533665
10749,0.0,300.43833,38277.812000000005,-0.10748999841893381,0.0,0.0,0.0,0.0,-0.016404493560902844,-5.634660602672704,-2.4841379513903274,-3.5167006996213366,0.012369713651045687,0.003992092315288837,0.3431691853331617
10750,0.0,299.96763,38364.352,-0.10750000809363114,0.0,0.0,0.0,0.0,-0.016406021178788532,-5.660664957214135,-2.4603398476166376,-3.5408003466247866,-0.01222090166185909,-0.004803294063198215,0.37576142857976563
10751,0.0,299.87325,38570.38,-0.1075099847330988,0.0,0.0,0.0,0.0,-0.016407543755031118,-5.675306218509115,-2.5040485185053476,-3.5450778832469467,4.961210307183335e-05,-0.0028156688244848774,0.33525538794463067
10752,0.0,300.58822999999995,38726.079,-0.10751999440779614,0.0,0.0,0.0,0.0,-0.016409071372916806,-5.681963575641144,-2.5316400280034177,-3.558157320837787,-0.02631839418467327,-0.016583372960401487,0.35927505911768765
10753,0.0,300.17892,38373.364,-0.10753000408249369,0.0,0.0,0.0,0.0,-0.01641059899080255,-5.668990731960824,-2.476264694138298,-3.519289047001786,0.012393776314420488,0.004184398875618016,0.34298836072031563
10754,0.0,299.6607,38142.404,-0.10754001375719102,0.0,0.0,0.0,0.0,-0.016412126608688266,-5.624465178841495,-2.466803167354518,-3.5030699526510864,-0.006852727558011554,-0.0025534931982101575,0.36208829735783266
10755,0.0,299.79041,38238.102,-0.10754999039665869,0.0,0.0,0.0,0.0,-0.016413649184930823,-5.631641320024724,-2.4688464875061773,-3.5229403950621463,0.01093152976385799,0.007233462463912163,0.3589941355274626
10756,0.0,300.42871,38314.208,-0.10756000007135602,0.0,0.0,0.0,0.0,-0.01641517680281654,-5.6512109284810945,-2.4769679910327076,-3.518383809362447,-0.014548882270112886,0.0016780779411133982,0.34920138741849366
10757,0.0,300.03992,38224.141,-0.10757000974605357,0.0,0.0,0.0,0.0,-0.016416704420702255,-5.623609894432085,-2.4891552619104975,-3.5064192508566365,-0.0025851958686639673,0.006693911142637594,0.33852985763029564
10758,0.0,299.36598,38319.775,-0.10757998638552091,0.0,0.0,0.0,0.0,-0.016418226996944812,-5.659824567581195,-2.478857803794218,-3.5095724851678365,-0.014637900344398286,0.008671542492964613,0.34441333486594966
10759,0.0,299.57013,38498.023,-0.10758999606021846,0.0,0.0,0.0,0.0,-0.01641975461483053,-5.666914886480955,-2.4970121045109077,-3.538510806698827,0.01028081649663759,-0.006555071763585214,0.3646848723290947
10760,0.0,299.49637,38465.316,-0.1076000057349159,0.0,0.0,0.0,0.0,-0.016421282232716244,-5.656663024619174,-2.4861960649934476,-3.5496364954468462,0.017145539314632984,-0.006643827203444693,0.35849963908115967
10761,0.0,299.75121,38408.372,-0.10761001540961324,0.0,0.0,0.0,0.0,-0.01642280985060196,-5.652185472427274,-2.4833379904363775,-3.539662669412507,0.015445263090328787,-0.013712894195607289,0.36404695033113665
10762,0.0,299.95506,38329.323,-0.10761999204908079,0.0,0.0,0.0,0.0,-0.016424332426844518,-5.666350202200225,-2.4830613731590776,-3.501745533445377,0.01916456679514548,0.005757742524119944,0.3491957233504347
10763,0.0,299.98577,38236.018,-0.10763000172377812,0.0,0.0,0.0,0.0,-0.016425860044730234,-5.648153952929395,-2.4879668208682078,-3.4866741474829466,-0.008163570833581713,-0.02254834184859808,0.3403600811534247
10764,0.0,299.98827,38301.006,-0.10764001139847568,0.0,0.0,0.0,0.0,-0.01642738766261595,-5.673115470467905,-2.484320133758308,-3.485113944978967,-0.013570112057765787,0.004538321765322486,0.3442505461048837
10765,0.0,300.31207,38494.872,-0.10764998803794312,0.0,0.0,0.0,0.0,-0.016428910238858507,-5.674913786745385,-2.5029563362225575,-3.5236098494032166,-0.0011707489862689288,-0.006871445833733904,0.3626246309007647
10766,0.0,300.41057,38347.98,-0.10765999771264068,0.0,0.0,0.0,0.0,-0.016430437856744223,-5.657053733857735,-2.4684730035193176,-3.5313015322373267,0.012739085868999887,0.015041722052502383,0.35117221965799966
10767,0.0,300.43807999999996,38322.684,-0.10767000738733801,0.0,0.0,0.0,0.0,-0.01643196547462994,-5.642683212989474,-2.4830551923334676,-3.523400511932557,0.012506180201013887,-0.004698244244505605,0.3679053155194276
10768,0.0,299.89983,38517.558,-0.10767998402680568,0.0,0.0,0.0,0.0,-0.016433488050872497,-5.6865651496452845,-2.4900173350955774,-3.5317933638358667,0.015865314025284585,-0.014915615984806686,0.34765560346343666
10769,0.0,299.44112,38662.279,-0.107689993701503,0.0,0.0,0.0,0.0,-0.016435015668758213,-5.701676558986665,-2.4997238657535377,-3.5509671968031764,-0.003803696393720606,-0.0005231151178249425,0.3553573884010437
10770,0.0,299.5469,38644.234,-0.10770000337620056,0.0,0.0,0.0,0.0,-0.016436543286643956,-5.713648311568185,-2.5004225016974875,-3.5328113762113365,0.0027233637668750777,0.011353110706464789,0.35645313732418565
10771,0.0,299.85911,38519.784,-0.10771001305089789,0.0,0.0,0.0,0.0,-0.016438070904529645,-5.675310879459574,-2.4811570709211375,-3.552584647937807,0.0021670793294740775,0.01202448515647429,0.38697694194915067
10772,0.0,300.10447999999997,38345.403,-0.10771998969036545,0.0,0.0,0.0,0.0,-0.01643959348077223,-5.641762877923645,-2.4780420361387074,-3.536240214549737,-0.02002363468042888,0.012838870738847886,0.34443261701535266
10773,0.0,299.75901,38407.919,-0.10772999936506289,0.0,0.0,0.0,0.0,-0.016441121098657918,-5.672145080847136,-2.484768091627518,-3.5181350564628966,-0.02581824177631208,-0.00862092821866937,0.3596055813003077
10774,0.0,299.59594,38614.583,-0.10774000903976022,0.0,0.0,0.0,0.0,-0.016442648716543634,-5.6932324366282945,-2.5099135140591775,-3.534723176500017,-0.014726662066408384,0.008849012336054523,0.3353488197363517
10775,0.0,300.30106,38504.367,-0.10774998567922778,0.0,0.0,0.0,0.0,-0.01644417129278619,-5.690400807898835,-2.4966386205240476,-3.517326786858126,-0.009248282220734393,-0.0016248399570092183,0.3309251319197677
10776,0.0,300.39463,38338.316,-0.10775999535392511,0.0,0.0,0.0,0.0,-0.016445698910671908,-5.652411224549555,-2.4964257366780376,-3.5050536936968673,0.007018515843348583,0.01091950552492129,0.34356474803970066
10777,0.0,300.16694,38445.229,-0.10777000502862266,0.0,0.0,0.0,0.0,-0.01644722652855765,-5.643697881639614,-2.4926546224558574,-3.5500370332113764,0.0030077108252129473,0.004009555782087346,0.35480932142195365
10778,0.0,299.75312,38657.161,-0.1077800147033201,0.0,0.0,0.0,0.0,-0.01644875414644334,-5.672253802582865,-2.4984374434265777,-3.5801202260303566,0.027750845102795175,0.01040661048330249,0.37044014302959566
10779,0.0,300.18872000000005,38571.736000000004,-0.10778999134278766,0.0,0.0,0.0,0.0,-0.016450276722685925,-5.686974705335704,-2.4944889091118876,-3.543380790654457,0.012967906112582687,-0.018335529616325882,0.36194700976388866
10780,0.0,299.50915,38475.579,-0.10780000101748499,0.0,0.0,0.0,0.0,-0.016451804340571613,-5.659187131943285,-2.5004028446455475,-3.5360253042035263,-0.002128269114868808,-0.011112771835745189,0.35484022555000366
10781,0.0,299.22022999999996,38528.001000000004,-0.10781001069218255,0.0,0.0,0.0,0.0,-0.016453331958457357,-5.692738477204545,-2.5010123145806977,-3.5177995693547865,-0.0037506737252626762,-0.0026458128466213975,0.3431307324918667
10782,0.0,299.44391,38595.14,-0.10781998733164999,0.0,0.0,0.0,0.0,-0.016454854534699886,-5.691039662086885,-2.4862484500236177,-3.554670625918676,0.002054783455341338,0.012271765803628988,0.37419391041006367
10783,0.0,299.98751,38537.19,-0.10782999700634754,0.0,0.0,0.0,0.0,-0.01645638215258563,-5.668903491127215,-2.4898644356554875,-3.555575660907997,-0.0018039585606618484,0.01839958222139738,0.3502096016654967
10784,0.0,299.71139,38489.424,-0.10784000668104488,0.0,0.0,0.0,0.0,-0.016457909770471346,-5.669601012496055,-2.4715036345684176,-3.5587191680182366,-0.03141314133048567,0.0007752229999135533,0.36547860179492964
10785,0.0,300.05974,38421.488,-0.1078500163557422,0.0,0.0,0.0,0.0,-0.016459437388357034,-5.676440957296104,-2.487844825556168,-3.5148870832673467,-0.01080787069515379,0.014015994790770987,0.3388025536297087
10786,0.0,299.57608,38482.981,-0.10785999299520987,0.0,0.0,0.0,0.0,-0.016460959964599592,-5.678213435696035,-2.493150101754758,-3.5265017665136265,-0.014510180169293285,-0.002558286884433258,0.34931814422751667
10787,0.0,300.09645,38689.633,-0.1078700026699072,0.0,0.0,0.0,0.0,-0.016462487582485308,-5.715143362090735,-2.5008307401627774,-3.5447082496104665,0.006744314762237044,0.0010792926269428888,0.3573603102712167
10788,0.0,299.90931,38573.35,-0.10788001234460476,0.0,0.0,0.0,0.0,-0.01646401520037105,-5.6651306543798645,-2.5059886897968275,-3.5542159805988067,-0.008102845640513603,-0.019402600521887584,0.35553980381654665
10789,0.0,299.77544,38392.712,-0.1078899889840722,0.0,0.0,0.0,0.0,-0.01646553777661358,-5.6295578751691036,-2.4880937811057375,-3.552774227031517,0.007981588886471491,-0.006514506903781773,0.36163565827316063
10790,0.0,299.62877000000003,38478.237,-0.10789999865876965,0.0,0.0,0.0,0.0,-0.016467065394499325,-5.6666706932068545,-2.4887257451931077,-3.5410268080221368,0.005853062912702335,0.008298048272278601,0.35632388714142965
10791,0.0,299.5743,38600.55,-0.10791000833346709,0.0,0.0,0.0,0.0,-0.01646859301238504,-5.691324182714965,-2.4988071783880677,-3.5434719831634562,0.000987099685456654,-0.002321669377355928,0.35743855344393866
10792,0.0,299.33423999999997,38607.242,-0.10791998497293442,0.0,0.0,0.0,0.0,-0.01647011558862757,-5.679304300753695,-2.5165731003414273,-3.539759941422107,0.015512817487745884,-0.004981211661507315,0.33789008138465465
10793,0.0,299.45256,38582.466,-0.10792999464763198,0.0,0.0,0.0,0.0,-0.016471643206513287,-5.693811103760404,-2.5127590243150077,-3.521536030423547,-0.00012406748955450788,-0.0068610055073535245,0.3497128963339756
10794,0.0,299.31671,38531.217000000004,-0.10794000432232953,0.0,0.0,0.0,0.0,-0.01647317082439903,-5.675997356402324,-2.486551918428568,-3.549978771330626,0.02179835438958008,0.008055917570082163,0.3447674860409017
10795,0.0,300.20176000000004,38517.021,-0.10795001399702686,0.0,0.0,0.0,0.0,-0.016474698442284746,-5.667768954990245,-2.4888607101064273,-3.5515829488889463,-0.006641084740724034,0.01049392832392009,0.35208401302548664
10796,0.0,300.12381,38632.149,-0.10795999063649431,0.0,0.0,0.0,0.0,-0.016476221018527276,-5.690721602880495,-2.5078021035007976,-3.5446850461831767,-0.014489526079254885,0.007929119452568162,0.34605902528086663
10797,0.0,299.99658999999997,38659.116,-0.10797000031119186,0.0,0.0,0.0,0.0,-0.01647774863641302,-5.6978613683851345,-2.4915930403260877,-3.561951638487257,-0.02059509963082808,0.005696547081680425,0.3561863891028596
10798,0.0,299.95621,38456.68,-0.10798000998588919,0.0,0.0,0.0,0.0,-0.016479276254298736,-5.683615173304145,-2.4863660883602274,-3.519889093711007,-0.001844766195189248,0.019424326630531782,0.35625779283740666
10799,0.0,299.46761000000004,38376.71,-0.10798998662535664,0.0,0.0,0.0,0.0,-0.016480798830541266,-5.672771168083925,-2.4649918814757577,-3.527798625316617,0.008833556320354131,0.0054639211720470355,0.37058796608668465
10800,0.0,299.68068,38640.05,-0.10799999630005419,0.0,0.0,0.0,0.0,-0.01648232644842698,-5.672696998176604,-2.4914112632581475,-3.5815020965167363,0.02344703389229208,-0.02697390417786707,0.35891256889441264
10801,0.0,300.48581,38823.565,-0.10801000597475174,0.0,0.0,0.0,0.0,-0.016483854066312725,-5.684069311998965,-2.5253416653818177,-3.5919833582011567,0.012835660762531087,-0.015970681903183584,0.37223682797441465
10802,0.0,300.56524,38584.937000000005,-0.10802001564944907,0.0,0.0,0.0,0.0,-0.01648538168419844,-5.686092873773674,-2.4871426432368677,-3.5556217637875465,0.014757115298163885,-0.01007327653165499,0.3520846919030537
10803,0.0,300.80994,38690.998,-0.10802999228891652,0.0,0.0,0.0,0.0,-0.01648690426044097,-5.685696996959604,-2.519824619912327,-3.555575660907997,-0.001275846326391229,0.007913027622430024,0.3624807595190656
10804,0.0,300.33645,38806.767,-0.10804000196361407,0.0,0.0,0.0,0.0,-0.016488431878326715,-5.720076268877575,-2.5171116427695774,-3.559100352705857,-0.025765816216138077,0.004397542113653616,0.3421806180055977
10805,0.0,299.9654,38822.002,-0.10805001163831163,0.0,0.0,0.0,0.0,-0.01648995949621246,-5.713585490061985,-2.521876654014848,-3.5654570785332167,-0.013380978794099788,-0.006772387869507644,0.3515149920343286
10806,0.0,299.9829,38708.35,-0.10805998827777885,0.0,0.0,0.0,0.0,-0.01649148207245496,-5.680265064498514,-2.5079419320145977,-3.578164855987376,0.010284751960025991,0.0015853895709907683,0.3422859757509957
10807,0.0,300.16388,38550.385,-0.1080699979524764,0.0,0.0,0.0,0.0,-0.016493009690340676,-5.680167083213845,-2.4862841164271376,-3.5519032372455572,-0.0007056527414225033,-0.004347330707598136,0.3615371500984386
10808,0.0,299.29354,38510.547,-0.10808000762717385,0.0,0.0,0.0,0.0,-0.01649453730822642,-5.6800904815062845,-2.4979158222750977,-3.528238375860017,0.0005717304117928985,-0.012373671405936289,0.3574410967016897
10809,0.0,299.87632,38745.068999999996,-0.10808998426664129,0.0,0.0,0.0,0.0,-0.01649605988446895,-5.722325380124545,-2.5137731863400976,-3.5414349451624165,-0.013725137296565586,-0.0018647719064886583,0.3598915204785277
10810,0.0,299.87355,38811.822,-0.10809999394133862,0.0,0.0,0.0,0.0,-0.016497587502354666,-5.736554957903895,-2.5017974820831874,-3.559472418142577,0.008431455110919832,0.010457877898612189,0.3692134923260347
10811,0.0,300.82177,38572.692,-0.10811000361603618,0.0,0.0,0.0,0.0,-0.01649911512024041,-5.691092959042145,-2.4906557839835877,-3.5433866675050365,-0.0007251170123984774,0.006737278449567613,0.35604733065913563
10812,0.0,300.13337,38628.071,-0.10812001329073373,0.0,0.0,0.0,0.0,-0.016500642738126153,-5.6652906465706545,-2.5074509110161376,-3.569227686130347,-0.0009157727350022322,-0.013059998387671487,0.35833175367209064
10813,0.0,299.61567,38978.857,-0.10812998993020095,0.0,0.0,0.0,0.0,-0.016502165314368655,-5.7474460792537645,-2.5221713071439273,-3.5789817382179967,0.01183890029465849,-0.022691448226471577,0.36585041391912465
10814,0.0,298.85708999999997,39067.626000000004,-0.1081399996048985,0.0,0.0,0.0,0.0,-0.01650369293225437,-5.7424316058338745,-2.538219364877748,-3.594931713342137,-0.0005373511702724315,-0.0005116554922414654,0.37154722008885566
10815,0.0,299.91252000000003,38750.655,-0.10815000927959606,0.0,0.0,0.0,0.0,-0.016505220550140115,-5.735474225347235,-2.5040724312077076,-3.5396849609147063,0.0012093778291062988,0.005994804645341154,0.36048175892677964
10816,0.0,299.94762000000003,38533.697,-0.1081599859190635,0.0,0.0,0.0,0.0,-0.016506743126382645,-5.698717159419594,-2.498240264957118,-3.5163242772091867,-0.007757493225454972,-0.00011315429961745989,0.3730531123874757
10817,0.0,300.41864,38709.609,-0.10816999559376084,0.0,0.0,0.0,0.0,-0.01650827074426836,-5.7133892235176145,-2.505427247916418,-3.5479381869542364,-0.0030266695451840273,0.01126465397273479,0.35075358524668365
10818,0.0,299.76884,38891.07,-0.10818000526845861,0.0,0.0,0.0,0.0,-0.016509798362154132,-5.717269667425585,-2.5123677071263875,-3.5922765927800966,0.005046484523674245,-0.005717697562942814,0.3724486479078197
10819,0.0,300.44385,38772.672,-0.10819001494315594,0.0,0.0,0.0,0.0,-0.016511325980039848,-5.724941287907715,-2.512082781198268,-3.548899862624147,0.0028897246398436175,-0.012599793364502787,0.3482203890691767
10820,0.0,300.58213,38524.663,-0.10819999158262339,0.0,0.0,0.0,0.0,-0.016512848556282378,-5.681712390941354,-2.4898533912293974,-3.538969707669117,-0.005072073141699645,-0.023041417718260876,0.36154962320716966
10821,0.0,300.42285,38611.59,-0.10821000125732094,0.0,0.0,0.0,0.0,-0.016514376174168094,-5.710619099069224,-2.4997224472033976,-3.526617581000057,-0.004060246658090147,-0.004776153146019615,0.3492950927877416
10822,0.0,299.83017,39053.632000000005,-0.10822001093201827,0.0,0.0,0.0,0.0,-0.01651590379205381,-5.758574098477015,-2.5302621091924276,-3.582492751139507,0.0015368636051516285,0.017776108156615282,0.37508480042798764
10823,0.0,300.12305,39118.986000000004,-0.10822998757148561,0.0,0.0,0.0,0.0,-0.01651742636829634,-5.728910796499474,-2.542224945173068,-3.6200593025720362,0.008488063570156653,0.009631904078819921,0.3535557385307347
10824,0.0,300.00266,38774.896,-0.10823999724618305,0.0,0.0,0.0,0.0,-0.016518953986182056,-5.690999334732904,-2.5282100750899077,-3.5673908663490663,0.0023662056709263177,0.011989204801242388,0.3578587077304047
10825,0.0,300.00167999999996,38651.235,-0.10825000692088071,0.0,0.0,0.0,0.0,-0.016520481604067827,-5.685632959553285,-2.5050677467809375,-3.558309713652826,0.006418582415489764,-0.005533399123453974,0.3566792136864977
10826,0.0,300.18562000000003,38892.391,-0.10825998356034794,0.0,0.0,0.0,0.0,-0.01652200418031033,-5.720833774652335,-2.5229170592175274,-3.578564887126857,0.012323990740283189,0.010939093675854489,0.37249860113774963
10827,0.0,300.08151000000004,38885.9,-0.10826999323504549,0.0,0.0,0.0,0.0,-0.016523531798196073,-5.735737569048224,-2.5127162651607873,-3.571888784867976,-0.00952507205452642,-0.009749300046006002,0.38076371260095265
10828,0.0,299.66076,38606.331,-0.10828000290974304,0.0,0.0,0.0,0.0,-0.01652505941608179,-5.699260970748265,-2.4961375683495977,-3.5399620848170565,0.00020424756077016483,-0.001913467997019588,0.36162595133720266
10829,0.0,300.04535,38545.165,-0.1082900125844406,0.0,0.0,0.0,0.0,-0.016526587033967532,-5.672300310762455,-2.480578809089068,-3.5638884660534065,-0.01173095673500529,-0.0009088553778945421,0.35941709651670567
10830,0.0,300.06685,38683.079,-0.10829998922390782,0.0,0.0,0.0,0.0,-0.016528109610210034,-5.707415708878075,-2.500356944416018,-3.550917446223267,0.003395231061733217,0.00917834901605752,0.35060588377960666
10831,0.0,300.62829,38990.38,-0.10830999889860538,0.0,0.0,0.0,0.0,-0.016529637228095778,-5.748833421290684,-2.5237107380208577,-3.5795575682498266,-0.0017332166810801687,-0.0030122737943882776,0.35782981997005364
10832,0.0,300.73312000000004,39059.943,-0.10832000857330293,0.0,0.0,0.0,0.0,-0.016531164845981522,-5.751929406971235,-2.5364125372994275,-3.584905400952617,-0.009313417787512771,0.008832911791965522,0.3434370278645957
10833,0.0,300.79021,38812.177,-0.10832998521277037,0.0,0.0,0.0,0.0,-0.01653268742222405,-5.738874490032814,-2.510395719781768,-3.5486625594507264,-0.0025248877293370174,0.01217666316249309,0.36099397711733167
10834,0.0,300.28929,38809.479,-0.1083399948874677,0.0,0.0,0.0,0.0,-0.016534215040109768,-5.704750759790065,-2.5097351820415774,-3.582626601477717,-0.0065392443917231735,0.015771071633483586,0.35594341172887967
10835,0.0,300.47725,39118.311,-0.10835000456216526,0.0,0.0,0.0,0.0,-0.016535742657995484,-5.716121756387295,-2.5475712580007075,-3.6272968467113267,-0.01218298584311709,-0.011755712461448489,0.3623826465118826
10836,0.0,300.05958,38958.772000000004,-0.10836001423686281,0.0,0.0,0.0,0.0,-0.016537270275881227,-5.713813876634525,-2.5298773781294575,-3.5988024300491466,-0.005802049823167735,-0.0006222817733894293,0.36524994164486263
10837,0.0,300.13892000000004,38627.212999999996,-0.10836999087633004,0.0,0.0,0.0,0.0,-0.01653879285212373,-5.684700161511224,-2.5107894687706276,-3.5462183975595067,0.002039202100603578,0.005077472346182505,0.3539012466823337
10838,0.0,299.81145,38543.193999999996,-0.10838000055102759,0.0,0.0,0.0,0.0,-0.016540320470009473,-5.695342327311525,-2.4936485194789477,-3.5271777056553364,0.014963253938258184,0.006072687405002584,0.36356930423399664
10839,0.0,299.88248,38788.962999999996,-0.10839001022572514,0.0,0.0,0.0,0.0,-0.016541848087895217,-5.722948832911075,-2.5103751508047374,-3.5575520052280467,0.005148398231982345,0.004170015283823466,0.35644730100360966
10840,0.0,300.11564,38967.805,-0.10839998686519248,0.0,0.0,0.0,0.0,-0.016543370664137746,-5.7193186617778045,-2.534381680123998,-3.591539453332347,0.011855636146560189,0.0007614862467178414,0.3485722908289067
10841,0.0,300.03459,38966.07,-0.10840999653988992,0.0,0.0,0.0,0.0,-0.016544898282023462,-5.718775559724204,-2.542403885140727,-3.5835326497171365,0.018661867076032884,-0.007147545441557813,0.3369186177187787
10842,0.0,300.68313,38921.947,-0.10842000621458736,0.0,0.0,0.0,0.0,-0.01654642589990918,-5.729447819052474,-2.5166164674457074,-3.585235720485217,0.00041500071407238163,0.006215825801579244,0.3688150823867146
10843,0.0,300.71921000000003,38966.848,-0.10843001588928491,0.0,0.0,0.0,0.0,-0.016547953517794922,-5.726800703166225,-2.5377524592316676,-3.580395526082526,-0.002197510573702408,-0.007252272236118545,0.3457609878964527
10844,0.0,300.55942999999996,39124.831,-0.10843999252875236,0.0,0.0,0.0,0.0,-0.016549476094037452,-5.751109586315324,-2.5350769723426176,-3.6067850169869664,-0.028323427668054676,0.018116311943940783,0.37028666603694865
10845,0.0,300.18195,39105.212,-0.10845000220344969,0.0,0.0,0.0,0.0,-0.016551003711923168,-5.773816825031354,-2.5099114875589774,-3.6032795769410066,-0.0014799851147631585,0.012870376737457287,0.37843888117400964
10846,0.0,300.21162999999996,38780.131,-0.10846001187814724,0.0,0.0,0.0,0.0,-0.01655253132980891,-5.6894614237311245,-2.5114034983312274,-3.5873265620665666,-0.005275307705682335,0.01176508502487349,0.37380736562941463
10847,0.0,299.61161,38617.551,-0.10846998851761469,0.0,0.0,0.0,0.0,-0.01655405390605144,-5.6929625068016545,-2.4915204916189273,-3.5542882253309362,-0.0028572670980653073,-0.0028337090332403074,0.36318858564142265
10848,0.0,299.7858,38945.687999999995,-0.10847999819231202,0.0,0.0,0.0,0.0,-0.016555581523937157,-5.721258326444235,-2.5326319998513176,-3.5846263518750767,-0.0013030954586805087,-0.010913584091336888,0.3565594171271747
10849,0.0,300.20351,39062.875,-0.10849000786700957,0.0,0.0,0.0,0.0,-0.016557109141822873,-5.749546344061045,-2.5315982820992975,-3.5929938725258865,0.01898947211161498,0.0026589586520937873,0.36081029513920365
10850,0.0,300.39968,38877.361000000004,-0.10849998450647702,0.0,0.0,0.0,0.0,-0.01655863171806543,-5.735288091303865,-2.509100786153968,-3.573357997512976,0.013236250202816187,0.005971966596037214,0.35029228287365666
10851,0.0,299.99913,38805.574,-0.10850999418117457,0.0,0.0,0.0,0.0,-0.016560159335951147,-5.711800244710795,-2.5223444715860177,-3.5617808045203967,0.02290947532998918,-0.002305548973564968,0.3389210228314007
10852,0.0,299.80896,39019.141,-0.1085200038558719,0.0,0.0,0.0,0.0,-0.016561686953836863,-5.719929246288064,-2.5363523502434875,-3.6045631621676866,-0.007196364540650883,0.0005467870111661766,0.34958785113913465
10853,0.0,299.78227000000004,39172.795,-0.10853001353056946,0.0,0.0,0.0,0.0,-0.016563214571722606,-5.763771058239914,-2.5417563170018176,-3.602024160067107,0.015733583406283783,-0.00958822732530936,0.3428127340804827
10854,0.0,299.86723,39101.098,-0.1085399901700369,0.0,0.0,0.0,0.0,-0.016564737147965136,-5.763365454224885,-2.5329218907049276,-3.589469991328107,0.005604752195495975,0.015194890003868883,0.37699633727164167
10855,0.0,300.29463,38785.672999999995,-0.10854999984473435,0.0,0.0,0.0,0.0,-0.01656626476585088,-5.725239082112104,-2.4975768901166475,-3.5670602428414364,0.0019102559942025881,-0.004805599207175716,0.34607103229455166
10856,0.0,300.48184,38741.991,-0.10856000951943179,0.0,0.0,0.0,0.0,-0.016567792383736568,-5.709680120201554,-2.5140201153894677,-3.552897843543717,-0.021389404622719876,0.002507504815921458,0.38014046246444266
10857,0.0,300.42397,39023.114,-0.10856998615889935,0.0,0.0,0.0,0.0,-0.016569314959979153,-5.719715045216924,-2.524733512671798,-3.6176036909546863,-0.030680941476973173,-0.003696658983631837,0.3598048571974746
10858,0.0,300.1462,39235.812999999995,-0.10857999583359668,0.0,0.0,0.0,0.0,-0.01657084257786484,-5.755552282703785,-2.5415652180329578,-3.6295900343376464,-0.007099794713370183,0.0065273719376514544,0.37841280011643563
10859,0.0,300.49926,38919.165,-0.10859000550829412,0.0,0.0,0.0,0.0,-0.016572370195750558,-5.724118022201465,-2.532075725546418,-3.574260702027067,-0.006062166119939214,-0.01111571634053579,0.3532792428434467
10860,0.0,299.87686,38658.323,-0.10860001518299156,0.0,0.0,0.0,0.0,-0.0165738978136363,-5.7141349755912145,-2.5085543403750377,-3.5284755777084267,-0.0016407090747753783,-0.0016582522843567584,0.36010828507242065
10861,0.0,299.59541,39139.51,-0.108609991822459,0.0,0.0,0.0,0.0,-0.01657542038987883,-5.788503885230854,-2.5378299728643174,-3.5710997670151063,0.009488551582497132,-0.006545161873632183,0.37147679920690563
10862,0.0,299.86758,39391.509,-0.10862000149715656,0.0,0.0,0.0,0.0,-0.016576948007764575,-5.822988940459265,-2.5458477195806077,-3.605198672630406,0.015973495698711284,0.006047393338781255,0.35568027067790964
10863,0.0,299.27898999999996,39017.312999999995,-0.10863001117185389,0.0,0.0,0.0,0.0,-0.016578475625650263,-5.737740967145944,-2.5269878928192875,-3.5955600297291466,0.015414271822770184,-0.012495296881689788,0.35101243011722966
10864,0.0,299.87706000000003,38872.561,-0.10863998781132156,0.0,0.0,0.0,0.0,-0.016579998201892848,-5.712885536892904,-2.5257606442981677,-3.577641512310726,0.0011894574334653087,-0.018510094370054086,0.3368112132081787
10865,0.0,300.2774,39093.684,-0.10864999748601889,0.0,0.0,0.0,0.0,-0.016581525819778536,-5.760102079627814,-2.5282688435957077,-3.595133046137007,0.0012462080516911587,-0.003819416462397056,0.3814933236004596
10866,0.0,300.07703,39175.437999999995,-0.10866000716071644,0.0,0.0,0.0,0.0,-0.01658305343766428,-5.784759014186265,-2.535091968444098,-3.5885040600077764,-0.014704223642943885,0.0007547981273127752,0.35534860352267666
10867,0.0,300.25895,39124.028,-0.10866998380018389,0.0,0.0,0.0,0.0,-0.01658457601390681,-5.786411321124334,-2.5278697243813175,-3.5784466408401867,0.005932754729092305,0.0015762874440174584,0.38981594713933865
10868,0.0,300.4753,38840.257000000005,-0.10867999347488144,0.0,0.0,0.0,0.0,-0.016586103631792554,-5.734132986189865,-2.5112960938206275,-3.561039105447197,-0.008451054002304092,0.01108156170616499,0.3602304627694787
10869,0.0,300.00422000000003,38823.172,-0.10869000314957877,0.0,0.0,0.0,0.0,-0.01658763124967827,-5.685948080334385,-2.5283779706314773,-3.5869487211042768,0.003159050873399047,0.00984328638950673,0.36562383093176265
10870,0.0,300.29019,39233.647000000004,-0.1087000128242761,0.0,0.0,0.0,0.0,-0.016589158867563958,-5.757351105606315,-2.5540755130426276,-3.6146225065104662,-0.012954514999261087,0.005896199198609555,0.35662678812632365
10871,0.0,299.69526,39468.153,-0.10870998946374366,0.0,0.0,0.0,0.0,-0.016590681443806515,-5.794662216688635,-2.5782641234048578,-3.624406854776107,-0.006522131509459263,-0.002546689629088698,0.3704957096650796
10872,0.0,300.28724,39098.852,-0.1087199991384411,0.0,0.0,0.0,0.0,-0.01659220906169223,-5.766279358862465,-2.5514616317596577,-3.5673338203684364,0.005605907503259995,-0.008223443883315721,0.3485284474970797
10873,0.0,300.13635,38909.967000000004,-0.10873000881313866,0.0,0.0,0.0,0.0,-0.016593736679577975,-5.764856350422025,-2.5146469119013273,-3.5481552251256563,0.00837423667512281,-0.0018994850443145779,0.36419917089365966
10874,0.0,299.96885,39148.561,-0.10873998545260599,0.0,0.0,0.0,0.0,-0.016595259255820505,-5.760521869144245,-2.534534376914068,-3.6051287583735068,0.0014556991310663188,0.0027280069854583276,0.3469104694723977
10875,0.0,300.01756,39251.625,-0.10874999512730354,0.0,0.0,0.0,0.0,-0.01659678687370625,-5.7616705907826145,-2.534056629491918,-3.6357865653241963,-0.01096606132726599,-0.02072872300101568,0.3630818600083897
10876,0.0,300.10425,38955.433,-0.10876000480200088,0.0,0.0,0.0,0.0,-0.016598314491591964,-5.732353313714224,-2.5189271842987577,-3.5901984168249967,-0.004607327947482866,0.0024534520774118678,0.35839712856854267
10877,0.0,299.62368,38835.914,-0.10877001447669843,0.0,0.0,0.0,0.0,-0.01659984210947768,-5.737542370126345,-2.5014538889742775,-3.5661517628017765,-0.0005368947922948905,0.013157918877335488,0.3729504904173477
10878,0.0,300.32841,39040.971,-0.10877999111616588,0.0,0.0,0.0,0.0,-0.01660136468572021,-5.767800753887615,-2.523146763015198,-3.5765329153763172,-0.01074376134807669,0.023589399584342478,0.36120803633345766
10879,0.0,300.41587999999996,39219.763,-0.10879000079086343,0.0,0.0,0.0,0.0,-0.016602892303605954,-5.784165857577724,-2.544975817869558,-3.5926868577455866,-0.00994341758823891,0.013729272370223686,0.36906678384405567
10880,0.0,300.67172999999997,39337.706,-0.10880001046556076,0.0,0.0,0.0,0.0,-0.01660441992149167,-5.750793046984085,-2.5752362281310273,-3.631650985041047,-0.013318028605137089,0.0035177814321779963,0.34674832919139564
10881,0.0,300.58859,39244.901,-0.10880998710502843,0.0,0.0,0.0,0.0,-0.016605942497734227,-5.753209547147574,-2.5606218179636975,-3.6156385937107465,0.01052009246800229,0.002338134184855878,0.3633294983328296
10882,0.0,300.69473,39059.653,-0.10881999677972576,0.0,0.0,0.0,0.0,-0.016607470115619943,-5.745762969512654,-2.5385138153568074,-3.5888824075951167,0.00026362326682509077,-0.011702673884963988,0.35368490765348265
10883,0.0,300.11866000000003,39187.866,-0.10883000645442309,0.0,0.0,0.0,0.0,-0.01660899773350566,-5.770088165988365,-2.5355564422899373,-3.6064880333826568,0.0002088861386679568,0.004913825362281805,0.35990556412491365
10884,0.0,300.37387,39289.943999999996,-0.10884001612912064,0.0,0.0,0.0,0.0,-0.016610525351391375,-5.793913931489785,-2.543527680826638,-3.6057202937818866,-0.01013213724321409,-0.007619615218097473,0.37322937737487166
10885,0.0,300.06003,38985.261,-0.10884999276858809,0.0,0.0,0.0,0.0,-0.016612047927633905,-5.765975282507455,-2.502789352606077,-3.5817811455942765,0.003098438860367107,0.01249449438761059,0.36562569531194666
10886,0.0,299.91109,38936.906,-0.10886000244328564,0.0,0.0,0.0,0.0,-0.01661357554551965,-5.722473010664115,-2.510954932511958,-3.6024194289311167,-0.004418216873994056,-0.0028298087296303774,0.36098006519345865
10887,0.0,299.60393999999997,39152.537000000004,-0.10887001211798297,0.0,0.0,0.0,0.0,-0.016615103163405365,-5.7641847682557446,-2.5276458974342275,-3.6095630447861367,-0.003113071205061207,-0.011354302288582387,0.3542936581810617
10888,0.0,300.18859,39328.488,-0.10887998875745053,0.0,0.0,0.0,0.0,-0.016616625739647922,-5.761205103686675,-2.5617342652484876,-3.6319390520444763,-0.0031076827410294067,-0.004767960107036026,0.36313452874858765
10889,0.0,300.51042,39282.55,-0.10888999843214786,0.0,0.0,0.0,0.0,-0.016618153357533638,-5.776036957325465,-2.557846728589818,-3.6070308314612265,0.0055444826609978345,-0.0052924574702498854,0.3585263990163006
10890,0.0,300.51923999999997,39276.881,-0.10890000810684541,0.0,0.0,0.0,0.0,-0.016619680975419382,-5.787406636697565,-2.5495064643666976,-3.6022779792171566,0.012892552729145888,-0.0015656481153174385,0.36244914611594564
10891,0.0,300.46418,39187.196,-0.10890998474631286,0.0,0.0,0.0,0.0,-0.01662120355166191,-5.771980613200135,-2.5363009784634176,-3.6036475893773265,-0.003843209803895277,-0.01018928454885409,0.35594881235191267
10892,0.0,300.87535,39154.532,-0.10891999442101041,0.0,0.0,0.0,0.0,-0.016622731169547628,-5.732245402578575,-2.5648099859270372,-3.604944752155347,0.003523680574260197,-0.0035984492110642864,0.36207304794382766
10893,0.0,300.32704,39198.903,-0.10893000409570774,0.0,0.0,0.0,0.0,-0.016624258787433344,-5.7811477908298645,-2.5320156398154876,-3.6023241834217163,-0.013204312559664188,0.0002935012866313217,0.3900480726047476
10894,0.0,299.9935,39198.506,-0.10894001377040508,0.0,0.0,0.0,0.0,-0.01662578640531906,-5.770250995279435,-2.5322000513336875,-3.6129159906920467,-0.003933389468095317,0.009398371310347032,0.3794929956505426
10895,0.0,299.81735,39096.426,-0.10894999040987274,0.0,0.0,0.0,0.0,-0.016627308981561617,-5.765934448528425,-2.5321683366055576,-3.5862346837588066,-0.004408210117331466,0.003387454975165777,0.37812072064260965
10896,0.0,299.26349,39154.51,-0.10896000008457007,0.0,0.0,0.0,0.0,-0.016628836599447333,-5.764947441606014,-2.5274848919933377,-3.609561018285936,-0.006068786594767605,0.016756913318278582,0.36405007114144466
10897,0.0,299.48562999999996,39470.117999999995,-0.10897000975926763,0.0,0.0,0.0,0.0,-0.016630364217333077,-5.768660091297424,-2.573232830033308,-3.6560373818227965,-0.0035079672943594165,0.008154276999689482,0.36872582518540564
10898,0.0,299.86239,39428.655,-0.10897998639873507,0.0,0.0,0.0,0.0,-0.016631886793575607,-5.781291165719015,-2.5521977579573076,-3.651837460158297,-0.012009257020721387,-0.017739395065741983,0.34731584043990466
10899,0.0,300.27551,39235.279,-0.10898999607343263,0.0,0.0,0.0,0.0,-0.016633414411461322,-5.770520317156015,-2.5438103776045375,-3.6122145176478164,-0.004227658372737396,-0.013392803422766787,0.3616703114265807
10900,0.0,300.57468,39113.814,-0.10900000574812996,0.0,0.0,0.0,0.0,-0.01663494202934704,-5.753704418496414,-2.5347174712071374,-3.6012007930358463,0.015485347264284787,-0.012832431534462388,0.3611866060938427
10901,0.0,300.70263,39163.337999999996,-0.10901001542282751,0.0,0.0,0.0,0.0,-0.016636469647232782,-5.784106785096895,-2.530800448970558,-3.5897697107076865,0.01215330774768809,-0.003532494735555087,0.38304259313586064
10902,0.0,299.93495,39298.996,-0.10901999206229485,0.0,0.0,0.0,0.0,-0.016637992223475312,-5.795703128516365,-2.5451573922874777,-3.6050528659410164,0.007892976112226092,-0.012436259864613289,0.36960621793229365
10903,0.0,299.69701000000003,39416.995,-0.1090300017369924,0.0,0.0,0.0,0.0,-0.016639519841361056,-5.771910597618224,-2.5655011238202476,-3.644370516196367,-0.012360489022135289,0.0019259548859519484,0.3576208776669326
10904,0.0,299.88439,39244.692,-0.10904001141168984,0.0,0.0,0.0,0.0,-0.01664104745924677,-5.759864269829344,-2.5608029870815776,-3.608739069804817,-0.0013934817245759388,0.008635438770701451,0.36023296549722567
10905,0.0,299.91953,39187.32,-0.10904998805115718,0.0,0.0,0.0,0.0,-0.0166425700354893,-5.757492150020235,-2.5565765182644578,-3.597898003009887,-0.02318129486806568,0.018626572535299583,0.3667347684739037
10906,0.0,300.14147,39432.503,-0.10905999772585473,0.0,0.0,0.0,0.0,-0.016644097653375017,-5.799075022199145,-2.549116059103168,-3.638305099772756,-0.007544683448027283,0.008544353463562032,0.3727057499881936
10907,0.0,299.63927,39339.439,-0.10907000740055206,0.0,0.0,0.0,0.0,-0.016645625271260733,-5.802943003130885,-2.5407469172521977,-3.6145172298250765,-0.015548995582566385,-0.011020255008864489,0.3757801230441106
10908,0.0,299.53425,39047.172,-0.1090799840400195,0.0,0.0,0.0,0.0,-0.016647147847503263,-5.742160561432124,-2.5420383045046475,-3.5851665155033867,0.0007729764319243344,-0.0015037534289839088,0.35633383725741163
10909,0.0,299.94982000000005,39153.27,-0.10908999371471706,0.0,0.0,0.0,0.0,-0.016648675465389007,-5.7528527817873645,-2.528323457776098,-3.620440183284626,-0.0031395043670449574,-0.005888442870419064,0.36140839640823164
10910,0.0,300.11782,39533.217000000004,-0.10910000338941461,0.0,0.0,0.0,0.0,-0.01665020308327475,-5.813809907803364,-2.5626959409183976,-3.6406050761747464,-0.0014467997554380185,-0.020153863662781484,0.36433082247915266
10911,0.0,299.55393,39489.909,-0.10911001306411194,0.0,0.0,0.0,0.0,-0.016651730701160466,-5.811588559609135,-2.5657995259746977,-3.626558086063417,-0.01251931901506059,-0.003481936088690337,0.3576957264518197
10912,0.0,299.89322999999996,39292.712999999996,-0.10911998970357939,0.0,0.0,0.0,0.0,-0.016653253277402996,-5.778009856595174,-2.547835310976768,-3.6181583440594265,0.016373157001904785,-0.0003637245240168157,0.38004715226273367
10913,0.0,300.16057,39341.93,-0.10912999937827694,0.0,0.0,0.0,0.0,-0.016654780895288712,-5.795087072455565,-2.5629669853201476,-3.600910192907167,0.024514206122863775,0.013401317763357089,0.3779365117744296
10914,0.0,300.1763,39428.395,-0.1091400090529745,0.0,0.0,0.0,0.0,-0.016656308513174456,-5.785664353150615,-2.557338887639698,-3.6422442108615165,-0.0008255365719766161,0.004346431042834345,0.37819987574042163
10915,0.0,300.39804,39329.231,-0.10914998569244172,0.0,0.0,0.0,0.0,-0.016657831089416958,-5.781910565505145,-2.5556326757963075,-3.617560830475457,-0.0012114064571315088,-0.0037732347519892767,0.3488812409168977
10916,0.0,299.618,39312.32,-0.10915999536713938,0.0,0.0,0.0,0.0,-0.01665935870730273,-5.783381095375274,-2.5521439543769975,-3.6144387029423264,-0.025278345646028474,0.005331697201572546,0.38293183476742965
10917,0.0,299.77105,39284.696,-0.10917000504183683,0.0,0.0,0.0,0.0,-0.016660886325188445,-5.7958905797848645,-2.5506755523320774,-3.5950004116989165,-0.018906175860644282,0.02023360847215168,0.35517384827792964
10918,0.0,300.47279,39387.054,-0.10918001471653416,0.0,0.0,0.0,0.0,-0.016662413943074134,-5.785797899513795,-2.555155434999208,-3.6317276880736165,-0.025759989014812974,0.00011586246382223489,0.3915144988119726
10919,0.0,300.58371,39523.924,-0.10918999135600171,0.0,0.0,0.0,0.0,-0.01666393651931672,-5.823566999641315,-2.560601248986668,-3.6301179376397466,-0.017972051474203384,0.002251659266996468,0.3644666385225567
10920,0.0,300.52259,39573.775,-0.10920000103069916,0.0,0.0,0.0,0.0,-0.016665464137202407,-5.767295040762704,-2.584040763549968,-3.6781036385255668,0.02204484166190648,-0.01136417033130629,0.3776802405591376
10921,0.0,300.87323,39394.413,-0.1092100107053966,0.0,0.0,0.0,0.0,-0.01666699175508815,-5.7813384844986855,-2.5721838122047775,-3.621395678128926,0.020470978520078283,0.0025805118161016877,0.34535227320361567
10922,0.0,300.32786,39495.841,-0.10921998734486382,0.0,0.0,0.0,0.0,-0.016668514331330653,-5.791926238768615,-2.5625748575314478,-3.6512482552251466,0.02251235019179598,-0.009519253769802201,0.37963056461661965
10923,0.0,300.17877000000004,39490.597,-0.1092299970195616,0.0,0.0,0.0,0.0,-0.016670041949216424,-5.815853633255065,-2.5818972329634176,-3.606404541574417,0.0001139117648622159,-0.020849927977977682,0.3526217245885547
10924,0.0,300.15873999999997,39291.127,-0.10924000669425893,0.0,0.0,0.0,0.0,-0.01667156956710214,-5.7800319998197445,-2.5463353968537374,-3.6171541118853163,0.01070879814012609,0.00853521678476031,0.3979717998442586
10925,0.0,299.73206,39280.674,-0.10925001636895648,0.0,0.0,0.0,0.0,-0.016673097184987884,-5.785307182490365,-2.5567729874588476,-3.5982637862959868,0.007087209843153154,0.004261153989243156,0.3673168299938486
10926,0.0,300.08025,39529.305,-0.10925999300842393,0.0,0.0,0.0,0.0,-0.016674619761230414,-5.772725858648685,-2.577244287179208,-3.6659515274262464,0.002667824185168747,-0.003895745707005166,0.3715242699740906
10927,0.0,300.13192999999995,39454.187999999995,-0.10927000268312148,0.0,0.0,0.0,0.0,-0.01667614737911613,-5.800933424207554,-2.558685193047568,-3.633469464995517,-0.025595303449559775,-0.01883616027873428,0.34916466723486966
10928,0.0,299.92978,39380.009,-0.10928001235781881,0.0,0.0,0.0,0.0,-0.016677674997001846,-5.770586178412515,-2.5647875930998274,-3.6351656456629167,0.0015174610816367485,-0.005980466447151084,0.36707273804475865
10929,0.0,299.69705,39474.183,-0.10928998899728626,0.0,0.0,0.0,0.0,-0.016679197573244375,-5.8105339689050535,-2.5565128861581776,-3.632118903937226,-0.0026771144726856276,0.02832350568831237,0.36064813459319967
10930,0.0,299.63672,39495.552,-0.10929999867198381,0.0,0.0,0.0,0.0,-0.01668072519113012,-5.828349641438324,-2.5505952015991475,-3.6267168623540864,0.004576043445345326,0.016657091971426983,0.3854487176183266
10931,0.0,299.86776000000003,39422.276,-0.10931000834668114,0.0,0.0,0.0,0.0,-0.016682252809015835,-5.8044457543541945,-2.5571316779942475,-3.621810198744836,0.0008541150883970961,0.00012746562641487787,0.3631034827655237
10932,0.0,299.80845,39422.907999999996,-0.10931998498614859,0.0,0.0,0.0,0.0,-0.016683775385258365,-5.785449544129415,-2.5478456461277874,-3.6502843504050166,0.017957540719521284,-0.023878287320353478,0.3627235646405287
10933,0.0,300.3815,39436.886,-0.10932999466084614,0.0,0.0,0.0,0.0,-0.01668530300314411,-5.806129066745324,-2.5622223478216575,-3.6194770890645764,0.016393852635197288,-0.01965026519083018,0.3576985736846006
10934,0.0,300.39485,39370.206,-0.10934000433554358,0.0,0.0,0.0,0.0,-0.016686830621029825,-5.783217556809135,-2.553428958153818,-3.6309130349932164,0.0012189541571264088,-0.017664561479606482,0.36299723336003764
10935,0.0,300.22352,39430.259,-0.10935001401024103,0.0,0.0,0.0,0.0,-0.01668835823891554,-5.810259479452965,-2.5602101344480674,-3.615344751181747,-0.0070206557262347735,-0.012152580234116288,0.36345394571011164
10936,0.0,300.13466,39466.424,-0.10935999064970836,0.0,0.0,0.0,0.0,-0.01668988081515807,-5.8076442809448645,-2.5584457620489376,-3.6307175790489263,0.0002922805229108417,0.02005086071061588,0.37755930915970265
10937,0.0,300.01353,39481.435,-0.10937000032440591,0.0,0.0,0.0,0.0,-0.016691408433043814,-5.779937463585415,-2.5699216300315175,-3.651511294951107,0.005251098121043035,0.030701408115743074,0.37332359950167066
10938,0.0,299.65348,39493.6,-0.10938000999910347,0.0,0.0,0.0,0.0,-0.016692936050929558,-5.789842489937964,-2.5743382858924075,-3.6408873676526063,-0.0020391271200961777,0.01883545708316488,0.3539198600866707
10939,0.0,299.94272,39536.979,-0.10938998663857069,0.0,0.0,0.0,0.0,-0.01669445862717206,-5.825586609740635,-2.5583950995439375,-3.634272567024776,-0.01765673412258398,0.003029907284553567,0.37197078902815867
10940,0.0,299.38391,39498.263999999996,-0.10939999631326824,0.0,0.0,0.0,0.0,-0.016695986245057803,-5.803218404508065,-2.5632330647964077,-3.6400344137184266,-0.0052296575462770145,-0.0017134733002316482,0.3589996577405077
10941,0.0,299.79506000000003,39484.817,-0.1094100059879658,0.0,0.0,0.0,0.0,-0.01669751386294352,-5.824689478102094,-2.5595779677106774,-3.618130986306726,0.0034009269458453563,-0.004033367767387406,0.3803638030514846
10942,0.0,300.41831,39578.182,-0.10942001566266313,0.0,0.0,0.0,0.0,-0.016699041480829235,-5.833130459385154,-2.5515015538135977,-3.6461469462716867,-0.009163180459410501,-0.008321268519520262,0.37214522003287365
10943,0.0,300.75011,39517.01,-0.10942999230213057,0.0,0.0,0.0,0.0,-0.016700564057071765,-5.794943900216435,-2.562972254220668,-3.654268145823186,0.014250809421945385,-0.018123493860649584,0.36434949667849564
10944,0.0,300.24372,39451.377,-0.10944000197682813,0.0,0.0,0.0,0.0,-0.01670209167495751,-5.789152365294854,-2.5740831495172274,-3.628998093629226,0.01049245505827469,0.002941941673147037,0.34409230683676667
10945,0.0,300.22812999999996,39547.869,-0.10945001165152568,0.0,0.0,0.0,0.0,-0.016703619292843253,-5.826053515386715,-2.5694246308574678,-3.6260866207918863,0.023824071347252774,0.011842780029291388,0.36907147519201866
10946,0.0,299.90842999999995,39508.799,-0.1094599882909929,0.0,0.0,0.0,0.0,-0.016705141869085754,-5.8138174058541034,-2.5725744201183276,-3.6232966366415367,-0.008680639148387381,0.006017595071890394,0.36139576117948463
10947,0.0,299.9294,39445.146,-0.10946999796569046,0.0,0.0,0.0,0.0,-0.016706669486971498,-5.838541721544204,-2.5480194185199374,-3.603778399965236,-0.006166763015837124,0.017460054172173185,0.3831034590693676
10948,0.0,300.03139,39522.54,-0.10948000764038801,0.0,0.0,0.0,0.0,-0.016708197104857214,-5.803417305502694,-2.5608356137347976,-3.6496123629386967,-0.0038451074186825565,0.015635318411585785,0.37790812050662764
10949,0.0,299.80584,39669.968,-0.10948998427985535,0.0,0.0,0.0,0.0,-0.016709719681099744,-5.799303510096694,-2.5920372320141576,-3.6673389707881765,-0.0024780513580396277,0.004046040182413077,0.37011014773702766
10950,0.0,299.47607,39656.026,-0.10949999395455279,0.0,0.0,0.0,0.0,-0.01671124729898546,-5.820743983537704,-2.5627025270440473,-3.670995081124006,-0.008425288673461253,-0.013661931768577685,0.37044348675492567
10951,0.0,300.22123,39721.591,-0.10951000362925034,0.0,0.0,0.0,0.0,-0.016712774916871204,-5.848022702729904,-2.5958787671182875,-3.6304704473495364,0.01248625159804709,-0.01168024052774999,0.3456623986617227
10952,0.0,299.82515,39548.665,-0.1095200133039479,0.0,0.0,0.0,0.0,-0.016714302534756947,-5.825674762499334,-2.555705731128518,-3.6404260348820765,0.02136988537279348,0.008569845113552861,0.37344498686365063
10953,0.0,300.05536,39520.585,-0.10952998994341523,0.0,0.0,0.0,0.0,-0.016715825110999477,-5.845590902489904,-2.5644219111387376,-3.603258298688907,0.030752960254330868,-0.009362151570947422,0.3660382198251596
10954,0.0,299.48208,39648.148,-0.10953999961811256,0.0,0.0,0.0,0.0,-0.016717352728885193,-5.807843992539574,-2.5860950268027074,-3.6581078570771366,0.0035282641124125564,-0.0016691326652555686,0.36757299988413067
10955,0.0,299.80613999999997,39613.11,-0.10955000929281011,0.0,0.0,0.0,0.0,-0.01671888034677091,-5.823482089282934,-2.550044702819818,-3.6678696098655466,-0.003435072359640247,-0.012612496481006489,0.36428557072968665
10956,0.0,300.01698999999996,39549.101,-0.10955998593227756,0.0,0.0,0.0,0.0,-0.01672040292301344,-5.803208373332074,-2.5956643633971277,-3.6230663248938066,3.235613165530157e-05,0.012111487876310788,0.35842063597086266
10957,0.0,300.21102,39506.705,-0.10956999560697489,0.0,0.0,0.0,0.0,-0.016721930540899155,-5.820291567368054,-2.555687999251768,-3.6330722709563172,-0.004303660337563206,0.008141926494220582,0.3627610751592307
10958,0.0,299.8172,39760.914,-0.10958000528167244,0.0,0.0,0.0,0.0,-0.0167234581587849,-5.856364892128214,-2.5929211914013974,-3.6370389424477962,-0.012726947132801886,0.012511195789008887,0.36983212204208865
10959,0.0,300.57027999999997,39792.761,-0.10959001495637,0.0,0.0,0.0,0.0,-0.016724985776670642,-5.867577112434774,-2.578559384483998,-3.6498692218390465,-0.015577811402160285,0.017380253634047483,0.38723298011691965
10960,0.0,300.45009,39634.746,-0.10959999159583744,0.0,0.0,0.0,0.0,-0.016726508352913172,-5.793219956496294,-2.5797191505484576,-3.675034098672626,0.007511271424654772,0.022652019625330276,0.36481251144419163
10961,0.0,300.08033,39577.662000000004,-0.10961000127053477,0.0,0.0,0.0,0.0,-0.016728035970798888,-5.816352658929315,-2.5681734696339875,-3.6460949665415567,0.007657609259747193,-0.0024136294233066775,0.37786203789207967
10962,0.0,299.42969,39718.35,-0.10962001094523233,0.0,0.0,0.0,0.0,-0.016729563588684604,-5.844274893260024,-2.5847055569405772,-3.644406182599887,-0.0015935076294669582,-0.004362022428748096,0.34888940771270366
10963,0.0,299.17759,39764.489,-0.10962998758469977,0.0,0.0,0.0,0.0,-0.016731086164927134,-5.862192296103335,-2.5754202343491874,-3.6497991049321263,-0.00038166882865028066,-0.013367671780536487,0.36105090150794966
10964,0.0,299.35757,39627.026,-0.10963999725939733,0.0,0.0,0.0,0.0,-0.016732613782812877,-5.842672742201905,-2.5788153314592575,-3.6241385461496263,0.0037463256664335568,-0.0017882540960369381,0.35372426228736664
10965,0.0,300.39139,39621.919,-0.10965000693409466,0.0,0.0,0.0,0.0,-0.016734141400698593,-5.827724162151595,-2.5715250983147677,-3.6448248575412063,0.006365360744712193,-0.023803607748233178,0.37943499721481866
10966,0.0,300.43842,39581.196,-0.10965998357356221,0.0,0.0,0.0,0.0,-0.01673566397694115,-5.778145226808535,-2.574620577370268,-3.6789294373570667,-0.005996857388718744,-0.014976471785812684,0.35678786449472066
10967,0.0,300.11866000000003,39751.888999999996,-0.10966999324825955,0.0,0.0,0.0,0.0,-0.016737191594826867,-5.831705829744554,-2.5799859392997875,-3.6718899836123264,0.0020625746393352676,0.010132635762263292,0.38352766635623364
10968,0.0,299.84426,39702.081,-0.10968000292295699,0.0,0.0,0.0,0.0,-0.016738719212712583,-5.8329327742906445,-2.5680915990259074,-3.667416788395857,-0.0026342954353847175,0.029197689238587576,0.3780783667884296
10969,0.0,300.02942,39559.628,-0.10969001259765454,0.0,0.0,0.0,0.0,-0.0167402468305983,-5.831116928786434,-2.5804082619414674,-3.6136140186859365,0.0035940753143576167,0.01948251454402448,0.37642528978028367
10970,0.0,299.49604,39556.21,-0.10969998923712188,0.0,0.0,0.0,0.0,-0.01674176940684083,-5.846386709118445,-2.5639644287185877,-3.6137488822742467,-0.02129810369595918,0.016137189292116584,0.36175373230731367
10971,0.0,299.8426,39804.352999999996,-0.10970999891181943,0.0,0.0,0.0,0.0,-0.016743297024726572,-5.823577436117344,-2.5876514802813175,-3.688300480906917,-0.007141304530216884,-0.011020735289411889,0.3803940586994706
10972,0.0,299.37424,39714.955,-0.10972000858651676,0.0,0.0,0.0,0.0,-0.016744824642612288,-5.803589355369675,-2.600907223389558,-3.6678580588144065,-0.014647245550070586,0.0032653973482446265,0.3443635437560357
10973,0.0,299.55502,39601.187000000005,-0.10972998522598443,0.0,0.0,0.0,0.0,-0.016746347218854846,-5.825350421142325,-2.5597668375293177,-3.6526545450389367,-0.0042915654750945356,-0.008271334440017151,0.39746899474713565
10974,0.0,299.9047,39672.818,-0.10973999490068176,0.0,0.0,0.0,0.0,-0.01674787483674056,-5.830706157195894,-2.5881629689317975,-3.6406770169318463,0.005113329038071285,-0.008315523391453262,0.3418641698668667
10975,0.0,300.06476000000004,39741.736000000004,-0.10975000457537931,0.0,0.0,0.0,0.0,-0.016749402454626305,-5.864883691018954,-2.5665289647216873,-3.649082737111426,0.00846490168612075,-0.0034062767037233367,0.3980866416105926
10976,0.0,299.82589,39682.291,-0.10976001425007664,0.0,0.0,0.0,0.0,-0.016750930072511994,-5.8404579801333245,-2.5765139365071277,-3.6454537818782766,0.013308732035469588,0.005697455257745055,0.3464724718516707
10977,0.0,299.77575,39765.625,-0.10976999088954431,0.0,0.0,0.0,0.0,-0.01675245264875455,-5.8187729081181745,-2.5795005925018875,-3.689483551723676,0.012464638973414089,-0.009467399176059552,0.39444304491349763
10978,0.0,299.75104,39766.969,-0.10978000056424164,0.0,0.0,0.0,0.0,-0.016753980266640267,-5.818536618194854,-2.5881856657340374,-3.6814433108551663,-0.00843533180580243,-0.0091036601220363,0.34267416199680667
10979,0.0,300.10008,39691.22,-0.10979001023893897,0.0,0.0,0.0,0.0,-0.016755507884525983,-5.851871229259724,-2.5653083023262178,-3.6479603599756563,-9.475107982820351e-05,0.014851480293226986,0.3965387196978246
10980,0.0,300.006,39684.616,-0.10979998687840664,0.0,0.0,0.0,0.0,-0.01675703046076854,-5.827212166876065,-2.589028385842208,-3.646891887745207,-0.010740072104462591,0.015253609873664087,0.3542109465753987
10981,0.0,300.37253,39803.602,-0.10980999655310397,0.0,0.0,0.0,0.0,-0.016758558078654257,-5.876378709428424,-2.582981106595388,-3.6399412960342366,-0.018262704291888584,0.01944853013567048,0.3918340576285106
10982,0.0,300.5306,39674.906,-0.10982000622780153,0.0,0.0,0.0,0.0,-0.01676008569654,-5.823371442372015,-2.5866052995530677,-3.6502039996720868,-0.01852863482038388,-0.004578346765472646,0.3448465702112067
10983,0.0,300.36725,39712.782,-0.10983001590249886,0.0,0.0,0.0,0.0,-0.01676161331442569,-5.810934810644614,-2.5832342164703674,-3.6775250727184665,0.008169389624930981,0.0016046104187627183,0.36944894125177163
10984,0.0,300.90117000000004,39785.531,-0.10983999254196641,0.0,0.0,0.0,0.0,-0.016763135890668246,-5.831916079140304,-2.5764301407238577,-3.685461658101747,0.0023231838822803975,-0.009941821618006401,0.38379473881759163
10985,0.0,300.625,39856.981,-0.10985000221666386,0.0,0.0,0.0,0.0,-0.016764663508553962,-5.854245780869074,-2.5998514167853575,-3.661429797529986,0.015380499183687085,-0.018346118079870882,0.37572288454596164
10986,0.0,299.64785,39901.665,-0.1098600118913613,0.0,0.0,0.0,0.0,-0.016766191126439706,-5.868504844226335,-2.5833360481054175,-3.6772688217681764,0.00905298181033474,-0.013321172720197387,0.37571234674492165
10987,0.0,299.95467,39968.911,-0.10986998853082874,0.0,0.0,0.0,0.0,-0.016767713702682235,-5.887137702965254,-2.5965507545846074,-3.6658626653924764,0.007789414352630342,0.004641713906851495,0.3768696607441397
10988,0.0,299.46494,39693.489,-0.1098799982055263,0.0,0.0,0.0,0.0,-0.01676924132056798,-5.819349954050124,-2.575931824324677,-3.670547731204857,0.005062845979663996,0.01184559889106959,0.36768627111280966
10989,0.0,299.7401,39670.831,-0.10989000788022363,0.0,0.0,0.0,0.0,-0.016770768938453695,-5.800620937876714,-2.5777027828494576,-3.680618423948757,-0.003211313097656927,-0.0072278246390307535,0.37818174869613264
10990,0.0,299.5781,39943.145,-0.1098999845196913,0.0,0.0,0.0,0.0,-0.016772291514696253,-5.860640706225204,-2.6055913772768475,-3.675486717492297,-0.004030189708448756,-0.007316322004089763,0.37829297315960964
10991,0.0,299.64435,39789.419,-0.10990999419438863,0.0,0.0,0.0,0.0,-0.01677381913258194,-5.8722008766161045,-2.5620407734037376,-3.6607480828627064,-0.015162660544688086,-0.0040554793163696465,0.3921948759891206
10992,0.0,300.01469,39643.97,-0.10992000386908596,0.0,0.0,0.0,0.0,-0.016775346750467657,-5.844788509735714,-2.5944075279730874,-3.611580729710267,0.0020666547948379483,0.005672575610814625,0.3645649541797596
10993,0.0,300.22648,39844.52,-0.10993001354378351,0.0,0.0,0.0,0.0,-0.0167768743683534,-5.873873549881185,-2.579445269046427,-3.6584202420829666,-0.013479704817593289,0.0015504993170473685,0.38205248566814465
10994,0.0,300.02783,40137.877,-0.10993999018325096,0.0,0.0,0.0,0.0,-0.01677839694459593,-5.847365204740014,-2.6356094181143974,-3.7179377423568862,-0.0016585736872884785,-0.006750249672047773,0.35758955810634163
10995,0.0,300.57957999999996,39986.428,-0.10994999985794851,0.0,0.0,0.0,0.0,-0.016779924562481674,-5.849553217005954,-2.5943637555687675,-3.7109588809681258,-0.009203020946717452,0.004516270808696226,0.38278121514006463
10996,0.0,299.99077,39746.581,-0.10996000953264584,0.0,0.0,0.0,0.0,-0.01678145218036739,-5.841375680748895,-2.576998675354968,-3.663593897093567,0.005451720830242954,-0.005787676971824245,0.37865994194832664
10997,0.0,299.90659,39729.119,-0.1099699861721134,0.0,0.0,0.0,0.0,-0.016782974756609947,-5.857934821833155,-2.5861116441043475,-3.632613775286067,0.0100452562147146,0.0030215713773058773,0.3862152413189766
10998,0.0,300.20484,39838.442,-0.10997999584681084,0.0,0.0,0.0,0.0,-0.016784502374495636,-5.8785481792175345,-2.586165650334677,-3.645177873876047,0.008108764034347703,-0.010511899327693688,0.37667192498712465
10999,0.0,299.3985,39904.849,-0.1099900055215084,0.0,0.0,0.0,0.0,-0.01678602999238138,-5.8813570098197445,-2.5894136235302274,-3.659306937245476,-0.004174815252197186,-0.003549293814263027,0.3760094418067427
11000,0.0,299.70063999999996,39764.748999999996,-0.11000001519620572,0.0,0.0,0.0,0.0,-0.016787557610267095,-5.814051669277224,-2.5840384330747375,-3.6894007691905064,-0.005864772334832964,-0.0016430987238112184,0.36919993503969667
11001,0.0,299.94843,39697.492,-0.11000999183567328,0.0,0.0,0.0,0.0,-0.016789080186509653,-5.810671061643585,-2.5955541217862477,-3.6608211381949163,-0.011652375136749889,0.017201149519871284,0.36764335997107467
11002,0.0,299.58154,39906.803,-0.11002000151037061,0.0,0.0,0.0,0.0,-0.01679060780439537,-5.852550106826724,-2.5943424773166677,-3.6837788523356667,-0.0001059653813504689,0.004570661871414206,0.37614896634551265
11003,0.0,300.17402000000004,40215.641,-0.11003001118506806,0.0,0.0,0.0,0.0,-0.016792135422281057,-5.905643398816625,-2.6168220387352275,-3.7020852418923664,-0.0030946293439661375,-0.012728030297158788,0.3849358712127126
11004,0.0,300.26271,40049.633,-0.11003998782453561,0.0,0.0,0.0,0.0,-0.016793657998523642,-5.9104206703881035,-2.595886670469068,-3.667781051806807,0.011798400688161488,-0.004525749155431666,0.3858905047944276
11005,0.0,299.91725,39768.782999999996,-0.11004999749923294,0.0,0.0,0.0,0.0,-0.01679518561640933,-5.840227263085554,-2.5881489860804177,-3.660340756322507,-0.0008118136192472662,-0.007382129153034424,0.36150325688259366
11006,0.0,299.82853,39746.945,-0.1100600071739305,0.0,0.0,0.0,0.0,-0.016796713234295074,-5.829308986633005,-2.5755882312157676,-3.6771814796095565,-0.0015351294276054787,-0.00027445156666876074,0.35190107071993165
11007,0.0,299.82606,39878.985,-0.11006998381339794,0.0,0.0,0.0,0.0,-0.016798235810537604,-5.865212186701374,-2.5741926818530376,-3.6828107931901264,-0.01601780107258388,-0.00036658473653159666,0.3882161366889496
11008,0.0,299.91874,39945.88,-0.1100799934880955,0.0,0.0,0.0,0.0,-0.016799763428423348,-5.880644087049385,-2.5857573105443774,-3.676148572457617,0.005322575417547296,0.016480580764256684,0.36796834980814863
11009,0.0,300.27752999999996,39920.293,-0.11009000316279283,0.0,0.0,0.0,0.0,-0.016801291046309064,-5.876391172404654,-2.5855407789980074,-3.6728404122061264,0.012841791938886188,0.024973385736931274,0.39304075743760264
11010,0.0,300.08482000000004,39790.339,-0.11010001283749038,0.0,0.0,0.0,0.0,-0.016802818664194807,-5.874148849933354,-2.5810497505797776,-3.6400708907220265,0.006425183435916234,0.006512945282727654,0.36267601281333567
11011,0.0,299.99932,39883.693,-0.11010998947695783,0.0,0.0,0.0,0.0,-0.016804341240437337,-5.846146467519735,-2.5815037879495875,-3.6959965207164567,-0.0018925140862765982,-0.010427477355861891,0.3884906768035446
11012,0.0,299.50082000000003,40155.649,-0.11011999915165538,0.0,0.0,0.0,0.0,-0.016805868858323053,-5.851436950266865,-2.6209396844916073,-3.733937873360976,-0.003908801231893647,-0.012873622177527588,0.36221534878787165
11013,0.0,299.41074,40141.761,-0.11013000882635271,0.0,0.0,0.0,0.0,-0.01680739647620877,-5.866103137514304,-2.6197002769692874,-3.7162894884192164,0.00869974610684809,0.013940018258522686,0.38305027357161864
11014,0.0,299.29432,39858.37,-0.11013998546582027,0.0,0.0,0.0,0.0,-0.016808919052451327,-5.859501002512724,-2.5902407395868576,-3.666207373076497,-0.007487593391017933,-0.01861823247372648,0.37345881772751566
11015,0.0,299.59312,39783.674,-0.1101499951405176,0.0,0.0,0.0,0.0,-0.016810446670337043,-5.868303207456434,-2.5819361417672577,-3.643004047111506,0.00026733250186366375,-0.005433388704133715,0.3785888219238076
11016,0.0,300.06217000000004,39924.3,-0.11016000481521504,0.0,0.0,0.0,0.0,-0.01681197428822276,-5.891070126603354,-2.5781053471141875,-3.666814816511446,-0.0026045885636528775,-0.017764426396212382,0.38880990124754966
11017,0.0,300.25158999999996,40048.135,-0.1101700144899126,0.0,0.0,0.0,0.0,-0.016813501906108475,-5.845296452010844,-2.6233314613526573,-3.7050052260305466,0.006086806031895984,0.01050107275037519,0.3450360581124077
11018,0.0,299.72269,39959.361000000004,-0.11017999112937993,0.0,0.0,0.0,0.0,-0.016815024482351032,-5.851188501342344,-2.6002535757500476,-3.695205982988436,-0.006154053211882764,0.005260895033609915,0.3770948353138627
11019,0.0,299.63417000000004,39946.926,-0.11019000080407748,0.0,0.0,0.0,0.0,-0.016816552100236748,-5.875457563762515,-2.5811505689647274,-3.686259997855536,-0.008042580766965922,0.015138781279581386,0.35923934205166264
11020,0.0,300.17711,39956.098,-0.11020001047877481,0.0,0.0,0.0,0.0,-0.016818079718122464,-5.884368591766965,-2.5913280582691676,-3.669959336871786,0.004121475639107976,0.01326725970887659,0.38446016042326364
11021,0.0,300.4778,39990.631,-0.11020998711824248,0.0,0.0,0.0,0.0,-0.01681960229436502,-5.876538397644184,-2.6243449141026773,-3.6552699461970564,-0.002129188841984578,0.024266508016667875,0.36028833961519063
11022,0.0,300.53148999999996,40163.399,-0.11021999679293981,0.0,0.0,0.0,0.0,-0.016821129912250737,-5.880634663823455,-2.6186979699703676,-3.709337782133136,-0.002528309272274698,0.0014878738747417185,0.38405844728861765
11023,0.0,300.62698,40120.635,-0.11023000646763736,0.0,0.0,0.0,0.0,-0.01682265753013648,-5.841001487486964,-2.618702022970768,-3.7359676159612962,-0.015263519459642088,-0.024051549034453078,0.3633098716783927
11024,0.0,299.8973,39969.226,-0.1102400161423347,0.0,0.0,0.0,0.0,-0.01682418514802217,-5.8401050651234945,-2.6135997007672076,-3.6959418052110564,0.0012019985312780189,-0.0075005908566756815,0.38430726098317364
11025,0.0,299.83845,39984.046,-0.11024999278180236,0.0,0.0,0.0,0.0,-0.016825707724264755,-5.860077643144635,-2.6058584700032075,-3.688215469223526,0.0016302180858899986,-0.0005037443597006975,0.3877499099204367
11026,0.0,299.18769,40055.407999999996,-0.1102600024564997,0.0,0.0,0.0,0.0,-0.016827235342150443,-5.8999230953770745,-2.603965009541337,-3.6719556422188067,0.0047529772791323355,0.009132687913551122,0.38559351105761663
11027,0.0,299.29996,39924.456,-0.11027001213119703,0.0,0.0,0.0,0.0,-0.01682876296003616,-5.908585877107025,-2.5738895174231176,-3.653562315803526,-0.002951631485178347,0.0067773089212683135,0.37728650170277866
11028,0.0,299.87899,39955.137,-0.11027998877066458,0.0,0.0,0.0,0.0,-0.016830285536278716,-5.867167252769324,-2.5947217368290976,-3.683475079955686,0.013524005125215387,0.0028098208515327273,0.3539219068518727
11029,0.0,300.01182,40001.86,-0.11028999844536203,0.0,0.0,0.0,0.0,-0.016831813154164432,-5.837290155020685,-2.6144330989744575,-3.7078433395606467,-0.009699075974324272,0.016804918068266284,0.3478880126388737
11030,0.0,299.7903,40069.327000000005,-0.11030000812005958,0.0,0.0,0.0,0.0,-0.016833340772050176,-5.877351429524424,-2.6036793743381472,-3.6990440730422263,-0.015229076048992787,-0.013446736699089589,0.3712513206621526
11031,0.0,300.36568,40142.282,-0.11030998475952691,0.0,0.0,0.0,0.0,-0.016834863348292706,-5.900375410221714,-2.6048561630042877,-3.6970199033174564,-0.016400117560565586,-0.008514921993207372,0.35522860431333364
11032,0.0,300.20061,40107.472,-0.11031999443422447,0.0,0.0,0.0,0.0,-0.01683639096617845,-5.910730724918705,-2.608142639703637,-3.6727967411268168,0.001081348714045809,0.01029664650294989,0.38747332304063964
11033,0.0,299.92497000000003,39983.484,-0.1103300041089218,0.0,0.0,0.0,0.0,-0.016837918584064138,-5.8760849682244345,-2.621022973649827,-3.656872907855256,0.006324503156954864,0.020330644394478382,0.35208452978303767
11034,0.0,299.82485,40111.556000000004,-0.11034001378361935,0.0,0.0,0.0,0.0,-0.01683944620194988,-5.865419902971873,-2.6148130677619577,-3.712678569037847,-0.0037617930305350665,-0.001006927186328476,0.38501834977085264
11035,0.0,300.00759,40198.888999999996,-0.1103499904230868,0.0,0.0,0.0,0.0,-0.01684096877819241,-5.872267143172644,-2.618430978569018,-3.728760266674986,-0.008649147335279382,0.001958078359172288,0.37383389251703264
11036,0.0,300.10996,40042.845,-0.11036000009778435,0.0,0.0,0.0,0.0,-0.016842496396078155,-5.886070446634924,-2.5853330627275075,-3.7006213994728965,0.01193311938170719,0.007361073208006364,0.4065102557869386
11037,0.0,299.62124,39925.046,-0.11037000977248168,0.0,0.0,0.0,0.0,-0.01684402401396387,-5.865065265436874,-2.612184393027527,-3.658967295811957,-0.0010098830800502,0.007444486286713593,0.3729803205002916
11038,0.0,299.57024,40088.17,-0.11037998641194913,0.0,0.0,0.0,0.0,-0.0168455465902064,-5.931978376865684,-2.590182984331158,-3.663641317198246,-0.0009679029429045832,-0.0013651295682277984,0.3963728810539576
11039,0.0,299.47102,40363.309,-0.11038999608664668,0.0,0.0,0.0,0.0,-0.016847074208092144,-5.937812873591504,-2.629247626036537,-3.7023774632212065,-0.020576393007481878,-0.01049224531550399,0.3701067330841907
11040,0.0,300.16456,40254.409,-0.11040000576134401,0.0,0.0,0.0,0.0,-0.016848601825977833,-5.899663906001495,-2.6143574091919874,-3.722313868213776,0.00013088559881490287,0.02111120363551358,0.34179158062970266
11041,0.0,300.15791,40033.307,-0.11041001543604156,0.0,0.0,0.0,0.0,-0.016850129443863576,-5.860101758497015,-2.6132812362607774,-3.6957426002413962,-0.004101039195191056,0.016355541648916283,0.3567675690952177
11042,0.0,300.0725,40039.476,-0.11041999207550901,0.0,0.0,0.0,0.0,-0.016851652020106106,-5.891720937142585,-2.6107440580103773,-3.6685358218062962,-0.00903563203019745,0.01110945141516749,0.36134238316421663
11043,0.0,300.01093,40204.967000000004,-0.11043000175020656,0.0,0.0,0.0,0.0,-0.01685317963799185,-5.920539593836764,-2.6063635751780576,-3.6944028809591765,-0.0020710859401752682,-0.013485273640142886,0.38954628075772463
11044,0.0,300.31561,40247.895,-0.1104400114249039,0.0,0.0,0.0,0.0,-0.016854707255877566,-5.946458227419734,-2.6211475020871178,-3.6667494618799967,-0.000853002337137276,-0.004321306088054706,0.38165901025681165
11045,0.0,300.01448999999997,40154.946,-0.11044998806437134,0.0,0.0,0.0,0.0,-0.016856229832120095,-5.875593947225974,-2.6394832758967177,-3.691023793200686,0.02116843402766178,-0.011297448825471387,0.37829378375968964
11046,0.0,300.14666,40045.663,-0.11045999773906878,0.0,0.0,0.0,0.0,-0.01685775745000584,-5.865510588855824,-2.609313754169218,-3.6980571674448264,0.0008190456817035153,-0.01941306334242018,0.38181645918985063
11047,0.0,300.02826,40109.302,-0.11047000741376634,0.0,0.0,0.0,0.0,-0.016859285067891555,-5.877173502806865,-2.618921898242468,-3.6961308776797166,0.0017350458001606883,-0.004194201361060446,0.3768116825734177
11048,0.0,299.85332,40334.405,-0.11047998405323356,0.0,0.0,0.0,0.0,-0.016860807644134057,-5.9248032489325535,-2.620858827133627,-3.7149899951659666,-0.01007908042822779,0.0028098027143559374,0.39525858965398564
11049,0.0,299.63735,40254.101,-0.11048999372793111,0.0,0.0,0.0,0.0,-0.0168623352620198,-5.910842486404735,-2.6339913590297077,-3.6914077136635766,0.0062129087558663535,0.00985356996609664,0.3695532452170657
11050,0.0,300.11385,40064.84,-0.11050000340262867,0.0,0.0,0.0,0.0,-0.016863862879905545,-5.918612493471574,-2.6064525385368373,-3.6536459089367765,-0.002416396102704728,-0.005993280717190754,0.3862769077200626
11051,0.0,300.22541,40091.477,-0.110510013077326,0.0,0.0,0.0,0.0,-0.01686539049779126,-5.883991460079744,-2.6077553755154175,-3.6950611895491465,0.007172166811037753,-0.012177062383032488,0.3503711846589437
11052,0.0,299.90878,40301.046,-0.11051998971679344,0.0,0.0,0.0,0.0,-0.01686691307403379,-5.909165861464265,-2.635196417373637,-3.7061491853934467,-0.003364738921173877,-0.00886286690997186,0.37458733515889164
11053,0.0,300.02019,40313.482,-0.110529999391491,0.0,0.0,0.0,0.0,-0.016868440691919534,-5.905226041100435,-2.6336139233674576,-3.7154518345615464,-0.012591060161890887,0.002681432134011747,0.35687429472825066
11054,0.0,299.96924,40198.584,-0.11054000906618855,0.0,0.0,0.0,0.0,-0.01686996830980525,-5.904943952272594,-2.6127864662369475,-3.7016352575229567,-0.009307755340653931,0.008176292188587212,0.3939135305437386
11055,0.0,300.43411000000003,40074.168,-0.11054998570565577,0.0,0.0,0.0,0.0,-0.016871490886047752,-5.897343563272495,-2.6156623739957774,-3.6685403814317468,-0.009430489413341842,-0.0012567310592796989,0.3707251500177236
11056,0.0,300.30791,40084.181000000004,-0.11055999538035333,0.0,0.0,0.0,0.0,-0.016873018503933496,-5.898251739337124,-2.6105720081433974,-3.6757662731948866,0.016956779940253883,0.008674132258895201,0.39236828361123466
11057,0.0,300.12911,40155.021,-0.11057000505505088,0.0,0.0,0.0,0.0,-0.01687454612181924,-5.8741869481371145,-2.6293971817512976,-3.7025394819121966,0.01013897262838869,-0.016241942127204884,0.3562956174636397
11058,0.0,299.34327,40227.429,-0.11058001472974843,0.0,0.0,0.0,0.0,-0.016876073739704983,-5.888495458099254,-2.6356783191211974,-3.703960159877407,-0.0018032625591681583,-0.004017091323081046,0.3814904561026766
11059,0.0,299.58391,40192.605,-0.11058999136921566,0.0,0.0,0.0,0.0,-0.016877596315947485,-5.897170398830404,-2.6138045799374274,-3.706573331885307,-0.0025752408890814876,-0.006287781453455714,0.36041355706254863
11060,0.0,299.23613,40290.023,-0.11060000104391321,0.0,0.0,0.0,0.0,-0.01687912393383323,-5.903024147308124,-2.6393699945355373,-3.704766909607027,-0.004815111396464495,0.015993235837159486,0.37010201133872467
11061,0.0,299.90734,40346.607,-0.11061001071861076,0.0,0.0,0.0,0.0,-0.016880651551718945,-5.933505344766385,-2.629459192657418,-3.7013967384494166,0.00013695028569844087,0.0014597807051191388,0.36025516580691663
11062,0.0,300.04994,40366.004,-0.1106199873580781,0.0,0.0,0.0,0.0,-0.016882174127961475,-5.925568354083064,-2.6180555694069674,-3.726633454715086,-0.012937746723356187,-0.016374825824819486,0.37846024048611765
11063,0.0,300.8598,40228.394,-0.11062999703277554,0.0,0.0,0.0,0.0,-0.01688370174584719,-5.9074822450981035,-2.6152159360017175,-3.7057292945520066,0.0057200613741011045,-0.01948276177704888,0.3451875795323617
11064,0.0,300.80267000000003,40177.654,-0.1106400067074731,0.0,0.0,0.0,0.0,-0.016885229363732934,-5.9140022055165735,-2.5905735922447075,-3.7084277822183265,0.0050693256127284855,-0.0024543546806009477,0.3903518855147316
11065,0.0,300.28587000000005,40127.881,-0.11065001638217054,0.0,0.0,0.0,0.0,-0.016886756981618678,-5.895350095025754,-2.611450293330077,-3.691073341130576,0.012012823661073388,-0.0051475351455471646,0.34951020578397163
11066,0.0,299.59376000000003,40277.725,-0.11065999302163776,0.0,0.0,0.0,0.0,-0.01688827955786118,-5.910060662627575,-2.6024790782696874,-3.7308828229844666,0.0005052393899582455,0.003185385446148067,0.40714647552472866
11067,0.0,299.83507000000003,40336.227999999996,-0.11067000269633531,0.0,0.0,0.0,0.0,-0.016889807175746924,-5.931572468875624,-2.6204127944396074,-3.7092209543966064,0.01044002645835039,0.00915966427891348,0.37211977732286267
11068,0.0,299.93296000000004,40222.13,-0.11068001237103287,0.0,0.0,0.0,0.0,-0.01689133479363264,-5.8940066267181646,-2.6223295596537772,-3.710186885716936,0.027635725705933773,0.00994944652765892,0.38021415614421566
11069,0.0,299.92427000000004,40228.073,-0.11068998901050031,0.0,0.0,0.0,0.0,-0.01689285736987517,-5.892177507637644,-2.6272504087644273,-3.7089016792900966,0.0023961528855818777,-0.016559659868311184,0.36097837306579167
11070,0.0,299.88587,40431.263999999996,-0.11069999868519764,0.0,0.0,0.0,0.0,-0.016894384987760885,-5.921081885290285,-2.6540018326045876,-3.7150111720930568,-0.014148529930351187,-0.010842169211038791,0.37748082280695666
11071,0.0,299.89541,40458.54,-0.11071000835989542,0.0,0.0,0.0,0.0,-0.016895912605646657,-5.918995603334385,-2.634753019129877,-3.7446371864669166,-0.02099077683462838,-0.014851590737487886,0.37496345359601163
11072,0.0,299.72029,40188.778,-0.11071998499936264,0.0,0.0,0.0,0.0,-0.01689743518188916,-5.906142728465904,-2.6109488358555875,-3.6992934338918366,0.003656142962483216,0.018658066374907783,0.3829656367907656
11073,0.0,299.73786,40125.34,-0.1107299946740602,0.0,0.0,0.0,0.0,-0.016898962799774903,-5.889873376910245,-2.6173869256659774,-3.689841127683967,-0.004317567803135766,-0.00041713845900086065,0.37718522735528365
11074,0.0,299.20529,40321.88,-0.11074000434875753,0.0,0.0,0.0,0.0,-0.01690049041766062,-5.9226311446931845,-2.6213275566298875,-3.7128861839833367,-0.0016203007992112383,-0.005819839961798484,0.3791404960732537
11075,0.0,299.34257,40388.775,-0.11075001402345508,0.0,0.0,0.0,0.0,-0.016902018035546335,-5.9270345269777645,-2.627422053331368,-3.7227227146291266,-0.00018546618996408782,0.0023051383032994376,0.3653544178626737
11076,0.0,299.94501,40349.13,-0.11075999066292253,0.0,0.0,0.0,0.0,-0.016903540611788864,-5.929008743472604,-2.6229230202373475,-3.7131962385139365,0.01135700462659909,0.002220507500622028,0.37054621005006366
11077,0.0,300.21367000000004,40308.972,-0.11077000033761986,0.0,0.0,0.0,0.0,-0.01690506822967458,-5.906981800873715,-2.6222322876441773,-3.7237067831262465,0.017564112930942982,-0.018178145531293283,0.3845767044497656
11078,0.0,300.60704,40380.504,-0.11078001001231752,0.0,0.0,0.0,0.0,-0.01690659584756035,-5.930889943608265,-2.6358668849648073,-3.7079080862420364,-0.00932651728745559,-0.016935094361613685,0.3915188152573986
11079,0.0,300.57832,40459.311,-0.11078998665178486,0.0,0.0,0.0,0.0,-0.016908118423802854,-5.943348866837865,-2.6200168163005273,-3.7352545918659263,0.018208047554994382,-0.005653237935306144,0.3885584328377316
11080,0.0,300.03016,40474.013999999996,-0.1107999963264823,0.0,0.0,0.0,0.0,-0.016909646041688597,-5.931532445496674,-2.6427174688909076,-3.7288398068078363,-0.016809140281432985,0.01012950846715465,0.3806986720770336
11081,0.0,299.94176,40330.971,-0.11081000600117985,0.0,0.0,0.0,0.0,-0.01691117365957434,-5.920293678037495,-2.6304224895274877,-3.7088920534141465,-0.0005852233162195444,-0.001073110484107759,0.37317165251667467
11082,0.0,299.99651,40280.543,-0.1108200156758774,0.0,0.0,0.0,0.0,-0.016912701277460057,-5.9114724239919045,-2.6170252967052874,-3.715781444819076,-0.012915307286641588,-0.01083724886855319,0.38220535471073164
11083,0.0,299.39142000000004,40459.782,-0.11082999231534463,0.0,0.0,0.0,0.0,-0.01691422385370256,-5.922313490786834,-2.6432640159948475,-3.733185940461767,0.004360118329160175,0.01017052219675239,0.38213641317392766
11084,0.0,299.71582,40506.909,-0.11084000199004218,0.0,0.0,0.0,0.0,-0.016915751471588303,-5.9637019202715535,-2.6182236675985573,-3.731163290612146,0.007679430208600752,0.002243370678528448,0.4059740944965236
11085,0.0,299.71265,40363.544,-0.11085001166473973,0.0,0.0,0.0,0.0,-0.016917279089474047,-5.908579392306384,-2.644652067306837,-3.7162779373680763,0.0005621384189262424,-0.0006825818877755873,0.37802748136840764
11086,0.0,299.89215,40319.846,-0.11085998830420718,0.0,0.0,0.0,0.0,-0.016918801665716576,-5.915681464907304,-2.630294110739818,-3.7102509231232568,-0.013975339143758586,-0.003582262743366806,0.3832594793197656
11087,0.0,300.22199,40511.205,-0.11086999797890473,0.0,0.0,0.0,0.0,-0.01692032928360232,-5.9448335822093945,-2.6387692385512476,-3.7307918331254863,-9.29589555220846e-05,0.007596777371443553,0.3790503978743616
11088,0.0,300.70763,40581.242,-0.11088000765360206,0.0,0.0,0.0,0.0,-0.016921856901488036,-5.940853130516554,-2.654779603381347,-3.7400514191643364,-0.004939726871938085,0.015898433118053185,0.38328249022953664
11089,0.0,300.15511000000004,40428.737,-0.11088998429306951,0.0,0.0,0.0,0.0,-0.016923379477730566,-5.925746382125635,-2.6376178824626177,-3.7259623791738563,-0.012964656619511988,-0.0030816063444058673,0.37785707296658966
11090,0.0,300.71691,40473.217000000004,-0.11089999396776684,0.0,0.0,0.0,0.0,-0.016924907095616254,-5.953412568156074,-2.6276600657798577,-3.7217747178355665,-0.00944187165701518,-0.004512784924377196,0.3974000430778306
11091,0.0,300.10204,40475.632000000005,-0.1109100036424644,0.0,0.0,0.0,0.0,-0.016926434713501998,-5.946578094906564,-2.6318804550963772,-3.7251230027910163,0.008785685420704641,0.004987895464466955,0.37150451159714065
11092,0.0,299.89482999999996,40508.506,-0.11092001331716195,0.0,0.0,0.0,0.0,-0.01692796233138774,-5.942482234027334,-2.6352432295282577,-3.735848761724567,-0.001061923696378709,0.017188754431397984,0.38484285485353265
11093,0.0,299.99604,40532.152,-0.11092998995662928,0.0,0.0,0.0,0.0,-0.01692948490763027,-5.947034665401624,-2.6366983579968677,-3.737029198091067,-0.01129762715748899,0.005028170636066805,0.3766593505533837
11094,0.0,299.80911000000003,40511.926,-0.11093999963132672,0.0,0.0,0.0,0.0,-0.016931012525515987,-5.9311286653318245,-2.6340597534114574,-3.7494255024644865,-0.004463356861974026,-0.01192700239085349,0.39347014243247963
11095,0.0,299.76138,40345.092000000004,-0.11095000930602428,0.0,0.0,0.0,0.0,-0.01693254014340173,-5.943697222222244,-2.6094690854095477,-3.7107341420959465,-0.006263427784652193,0.006534437026623724,0.39137273499048164
11096,0.0,299.81633,40470.505,-0.11095998594549161,0.0,0.0,0.0,0.0,-0.01693406271964426,-5.944353301661994,-2.6351326839423477,-3.7225371885358167,0.0033714044856317164,-0.004565466330201446,0.38902029249831366
11097,0.0,299.86683,40545.947,-0.11096999562018917,0.0,0.0,0.0,0.0,-0.016935590337529977,-5.946544455003244,-2.633736222654527,-3.744674778045626,-0.0035849324547302863,-0.014832736179627085,0.3857652366845646
11098,0.0,300.8274,40477.629,-0.1109800052948865,0.0,0.0,0.0,0.0,-0.016937117955415693,-5.935546435767824,-2.6318586702192275,-3.7367833836168067,-0.0013984690428931487,0.005729566470639184,0.39018129472789564
11099,0.0,301.52496,40438.835,-0.11099001496958405,0.0,0.0,0.0,0.0,-0.016938645573301436,-5.925757629201745,-2.6272092708103676,-3.7394291822779264,8.234346758366753e-05,0.01888964367201268,0.3668262446929317
11100,0.0,300.77099999999996,40489.566,-0.1109999916090515,0.0,0.0,0.0,0.0,-0.016940168149543966,-5.922057239836544,-2.6367888412307976,-3.7489710597946364,0.004673461970909785,0.01586436663644109,0.38635923429068764
11101,0.0,300.6894,40461.513999999996,-0.11101000128374883,0.0,0.0,0.0,0.0,-0.016941695767429682,-5.9442709244288645,-2.6514985982325374,-3.7035203080089967,-0.017222701349498284,-0.007041210315113354,0.3761575283088576
11102,0.0,300.21421000000004,40474.462,-0.11102001095844638,0.0,0.0,0.0,0.0,-0.016943223385315398,-5.943383317341264,-2.6308926375738872,-3.728949947093706,0.008578410825923232,-0.019076483950702383,0.37196700960528567
11103,0.0,300.06386000000003,40599.615,-0.11102998759791383,0.0,0.0,0.0,0.0,-0.016944745961557955,-5.957992154633044,-2.6404810232701874,-3.7427960097102067,0.0031738215267317965,-0.013755036280516384,0.3772429015509757
11104,0.0,300.19184,40532.072,-0.11103999727261138,0.0,0.0,0.0,0.0,-0.01694627357944367,-5.9423751334917645,-2.6485699001434972,-3.7297927685268863,0.009293748576571571,-0.004140552605365726,0.3823915698141096
11105,0.0,300.09729,40430.117,-0.11105000694730871,0.0,0.0,0.0,0.0,-0.016947801197329387,-5.920333498766424,-2.6189168319919673,-3.7504956972201065,-0.011981391629721288,-0.006488135854029154,0.39107634920373063
11106,0.0,299.44202,40563.542,-0.11105998358677638,0.0,0.0,0.0,0.0,-0.016949323773571945,-5.933084744649874,-2.6533944904946476,-3.743824661211726,-0.0030611679753137573,0.012139585301583789,0.3868144065006096
11107,0.0,300.16679,40614.841,-0.11106999326147371,0.0,0.0,0.0,0.0,-0.01695085139145766,-5.965991966822565,-2.6253980862566175,-3.7545075596660467,-0.0035020083705213164,0.023315491737809876,0.40351457173378763
11108,0.0,300.4295,40423.378,-0.11108000293617126,0.0,0.0,0.0,0.0,-0.016952379009343405,-5.928724932119594,-2.6325834480157577,-3.726389261440987,0.0069668678513013236,0.0044817564705399255,0.37009506044303864
11109,0.0,300.56307000000004,40459.263,-0.1110900126108686,0.0,0.0,0.0,0.0,-0.016953906627229093,-5.933723092212874,-2.6491915290798476,-3.7156910629101567,-0.006557674093817044,-0.0015893739743589985,0.3852667986953726
11110,0.0,300.97392,40635.096,-0.11109998925033615,0.0,0.0,0.0,0.0,-0.016955429203471678,-5.951688928410965,-2.6516433916718274,-3.748722306895086,-0.009389870040683021,-0.006839483061979424,0.38243439989583666
11111,0.0,300.07537,40556.06,-0.11110999892503359,0.0,0.0,0.0,0.0,-0.016956956821357366,-5.930867145481014,-2.6471889415822076,-3.749973468118567,-0.007931640520141971,0.005359039856846055,0.3891819362867666
11112,0.0,299.6006,40561.873999999996,-0.11112000859973092,0.0,0.0,0.0,0.0,-0.016958484439243082,-5.945169069317504,-2.651601848417727,-3.7330260495959866,-0.004898940009037735,0.005556708739354454,0.37962772751633966
11113,0.0,300.0246,40637.405,-0.11112998523919848,0.0,0.0,0.0,0.0,-0.01696000701548564,-5.964282411253844,-2.6363758404900377,-3.7520981522532564,-0.006974697032174003,0.004707017774471485,0.40150322975528363
11114,0.0,299.68651,40530.163,-0.11113999491389581,0.0,0.0,0.0,0.0,-0.016961534633371356,-5.942080784337715,-2.659829540554737,-3.718247290262436,-0.003975190594345767,-0.013741820459462088,0.36815902321196664
11115,0.0,300.3196,40636.973,-0.11115000458859337,0.0,0.0,0.0,0.0,-0.0169630622512571,-5.9715927067503145,-2.633448763601158,-3.7475834137826864,0.0056254941343180445,-0.002143844390105968,0.39089854407618263
11116,0.0,299.70736,40710.077000000005,-0.11116001426329081,0.0,0.0,0.0,0.0,-0.016964589869142788,-5.942964946374974,-2.669165019026077,-3.7627169119762462,0.0007854268843830983,-0.01213164446055009,0.3657499704367117
11117,0.0,299.71686,40534.58,-0.11116999090275836,0.0,0.0,0.0,0.0,-0.016966112445385373,-5.927383490312204,-2.6430709918507977,-3.751045588049376,0.0013872456768354885,-0.0033079164635159367,0.38602029199973664
11118,0.0,300.3025,40403.731,-0.1111800005774557,0.0,0.0,0.0,0.0,-0.01696764006327106,-5.938572405866465,-2.6142606438074374,-3.7288921918380065,-0.011146062167780689,0.004135971195038576,0.38224517543966163
11119,0.0,300.14418,40582.969,-0.11119001025215325,0.0,0.0,0.0,0.0,-0.016969167681156805,-5.9521452962560035,-2.6519149426986273,-3.7321489803094265,0.0023463996712216177,0.015894946524459087,0.39174749567246764
11120,0.0,300.54724,40598.928,-0.1111999868916207,0.0,0.0,0.0,0.0,-0.016970690257399335,-5.948612397132335,-2.6372428786006075,-3.7552050810348865,0.0009008136576808861,0.0024634166828702976,0.37577915032401465
11121,0.0,300.52609,40570.221,-0.11120999656631825,0.0,0.0,0.0,0.0,-0.01697221787528508,-5.953164220556564,-2.6607396417945575,-3.7184301819054864,0.01881050782595258,-0.004184374658940626,0.3825311754128876
11122,0.0,299.96795,40678.316,-0.11122000624101558,0.0,0.0,0.0,0.0,-0.016973745493170794,-5.954229957011744,-2.654187561347918,-3.756774909414817,0.008065300164683152,-0.008603525648201873,0.3772938477660036
11123,0.0,300.93228999999997,40807.328,-0.11123001591571291,0.0,0.0,0.0,0.0,-0.016975273111056483,-5.993316991544335,-2.6433095109243374,-3.7677822505511567,-0.005673428564748805,0.013534111281712786,0.3970543424087126
11124,0.0,300.70309,40695.623,-0.11123999255518058,0.0,0.0,0.0,0.0,-0.016976795687299068,-5.979318333462774,-2.657373320987327,-3.733761669168586,-0.012559034365980187,0.001135290501669449,0.3744597669713016
11125,0.0,299.84167,40687.119,-0.11125000222987791,0.0,0.0,0.0,0.0,-0.016978323305184756,-5.978144787196954,-2.6448296900493675,-3.7448937413922367,-0.011397015846547889,-0.0046323660667289355,0.38784876260019263
11126,0.0,300.23611,40788.167,-0.11126001190457546,0.0,0.0,0.0,0.0,-0.0169798509230705,-5.975060555217564,-2.6658002180939975,-3.7577234128334265,0.0041746348936793866,-0.007340553069631182,0.38743921704227363
11127,0.0,300.16927999999996,40585.802,-0.1112699885440428,0.0,0.0,0.0,0.0,-0.01698137349931303,-5.961575918911735,-2.635786027606827,-3.7397084340054865,0.014048356985714886,-0.004623866114290056,0.38102453330919367
11128,0.0,300.19055,40613.483,-0.11127999821874035,0.0,0.0,0.0,0.0,-0.016982901117198773,-5.938757729309754,-2.6549506399982272,-3.7517764453465063,0.019126757367663984,-0.00851101074649636,0.36833821649215165
11129,0.0,299.89806,40622.027,-0.11129000789343779,0.0,0.0,0.0,0.0,-0.01698442873508449,-5.969419285285815,-2.6505254728364975,-3.728137117863487,0.001966603034913608,-0.004022662070805836,0.38312971237945864
11130,0.0,299.23023,40544.387,-0.11129998453290535,0.0,0.0,0.0,0.0,-0.016985951311327047,-5.952264859767804,-2.6436994095628177,-3.7285168840009666,0.003763242991428166,0.008515482117862653,0.37187730657393264
11131,0.0,299.77665,40658.599,-0.11130999420760268,0.0,0.0,0.0,0.0,-0.016987478929212763,-5.972035699694034,-2.646572986846418,-3.740589961592486,-0.007060354459852733,0.014537551094244589,0.38607784460541666
11132,0.0,300.42262,40809.765,-0.11132000388230023,0.0,0.0,0.0,0.0,-0.01698900654709848,-5.967739215295004,-2.6765675202816475,-3.760842703266276,0.0001924943561027138,0.013503017675894086,0.37276125582867164
11133,0.0,300.30102,40737.799,-0.11133001355699756,0.0,0.0,0.0,0.0,-0.016990534164984195,-5.955898374626404,-2.650460118205048,-3.776915180327507,-0.009797633393001132,0.005115742397159465,0.3905413328859286
11134,0.0,300.24735,40751.142,-0.11133999019646523,0.0,0.0,0.0,0.0,-0.016992056741226752,-5.948298694901374,-2.6715872947151373,-3.7674437236927467,0.012593788844410187,-0.0024018428928434376,0.3766489140773536
11135,0.0,300.29031000000003,40895.042,-0.11134999987116256,0.0,0.0,0.0,0.0,-0.016993584359112468,-6.017266880183004,-2.6576532819899574,-3.7561514566282863,-0.012994796756986587,0.005547145380935625,0.3953172669672766
11136,0.0,300.43878,40808.376000000004,-0.1113600095458599,0.0,0.0,0.0,0.0,-0.016995111976998184,-5.9949955416599945,-2.652836088364537,-3.7568958914767565,-0.0028605066612850272,0.0004888123260245205,0.38176566496233766
11137,0.0,300.2147,40638.628,-0.11136998618532756,0.0,0.0,0.0,0.0,-0.01699663455324074,-5.966927703289914,-2.6486372812751475,-3.7375631808937664,-0.013164061199441688,-0.012054000118637187,0.38873780850293466
11138,0.0,299.98902000000004,40708.165,-0.1113799958600249,0.0,0.0,0.0,0.0,-0.016998162171126457,-5.960057462311874,-2.6393385837824375,-3.7748697323506364,0.009327666515719013,0.0036922576278474563,0.38906996201821564
11139,0.0,300.20315,40858.087,-0.11139000553472245,0.0,0.0,0.0,0.0,-0.016999689789012173,-5.981563290384335,-2.6571784729930976,-3.781096559515176,0.01324140156632459,-0.013753165820831787,0.38803528167860063
11140,0.0,299.3977,40727.186,-0.11140001520941978,0.0,0.0,0.0,0.0,-0.01700121740689789,-5.964856721410524,-2.6551536953182677,-3.7600371694367762,0.007499588651001773,-0.013984383414151187,0.36458512798925063
11141,0.0,299.87434,40690.05,-0.11140999184888734,0.0,0.0,0.0,0.0,-0.017002739983140447,-6.001928502819224,-2.6475140935392973,-3.7193165730929665,-0.01056882878456219,-0.007946822147715282,0.38289785035907564
11142,0.0,299.82376,40812.949,-0.11142000152358478,0.0,0.0,0.0,0.0,-0.017004267601026163,-5.989339782251815,-2.6683034524660476,-3.7484740606205866,0.0007307025941047313,0.017485371239171783,0.37931468389794465
11143,0.0,299.96864,40915.955,-0.11143001119828233,0.0,0.0,0.0,0.0,-0.017005795218911907,-5.999747279328954,-2.6651778798825774,-3.772503388067096,-0.0035716963686739864,0.025291082199785476,0.3933853333991096
11144,0.0,300.87824,40954.316,-0.11143998783774967,0.0,0.0,0.0,0.0,-0.017007317795154436,-5.970587258676085,-2.6922340893528176,-3.7862680867005665,-0.02075824404267918,0.017722414007316084,0.38233897200141864
11145,0.0,300.99958,40890.441,-0.11144999751244722,0.0,0.0,0.0,0.0,-0.01700884541304018,-5.9661831671164345,-2.6632725643945374,-3.8002172981772464,-0.013189223239174987,-0.012054422643928888,0.4003052337645506
11146,0.0,300.09611,40671.42,-0.11146000718714455,0.0,0.0,0.0,0.0,-0.01701037303092587,-5.960882450543295,-2.6430763620763273,-3.759137302022966,0.004211897064781876,-0.005938477869632135,0.37981662773248265
11147,0.0,300.02218,40686.42,-0.111469983826612,0.0,0.0,0.0,0.0,-0.017011895607168398,-6.019324791136104,-2.6318108448145074,-3.716520104141976,0.024663484207096378,-0.0015935034751415483,0.38992335164993863
11148,0.0,299.79005,40838.758,-0.11147999350130955,0.0,0.0,0.0,0.0,-0.01701342322505414,-6.007103779029984,-2.6475452003173676,-3.759313607540367,0.0053384210279111355,-0.012133106580444388,0.37340128538683764
11149,0.0,299.34066,40786.273,-0.11149000317600688,0.0,0.0,0.0,0.0,-0.017014950842939858,-5.993183445181153,-2.648786634339887,-3.7560383779171262,0.01001546909357484,-0.004800020758750165,0.40432494889876563
11150,0.0,299.87067,40735.117,-0.11150001285070443,0.0,0.0,0.0,0.0,-0.0170164784608256,-5.957211040130954,-2.6452694405927675,-3.779977931404776,0.0040494725671268265,0.004777008835729065,0.38934212099507565
11151,0.0,299.56175,40916.593,-0.11150998949017188,0.0,0.0,0.0,0.0,-0.01701800103706813,-5.983700133520224,-2.6639794076642973,-3.7899430434882566,0.014869328693738486,0.007672914503832702,0.4023048524393976
11152,0.0,299.92345,40958.881,-0.11151999916486943,0.0,0.0,0.0,0.0,-0.017019528654953875,-5.996279836161745,-2.676248650475177,-3.777948594104496,-0.013122070088797488,0.009426961175168632,0.37864298014165265
11153,0.0,299.88914,40930.094,-0.11153000883956676,0.0,0.0,0.0,0.0,-0.017021056272839563,-6.012931892280174,-2.6832910426452075,-3.745503515302416,-0.02309432457223238,0.0009032048873868821,0.3955650268817286
11154,0.0,300.606,40869.733,-0.11153998547903421,0.0,0.0,0.0,0.0,-0.017022578849082093,-5.978761248557794,-2.6690973339193973,-3.775519630964776,-0.024091984806193775,0.003199300409771367,0.38918967751753064
11155,0.0,300.02179,40751.826,-0.11154999515373176,0.0,0.0,0.0,0.0,-0.017024106466967837,-5.977662885449394,-2.6560124247780177,-3.7538623220023664,-0.004310201981533816,0.0055920177695641836,0.3899076969358936
11156,0.0,300.21946,40613.364,-0.11156000482842932,0.0,0.0,0.0,0.0,-0.01702563408485358,-5.9338535988257535,-2.6441902279112575,-3.7674049162139163,0.0004119856060148136,0.008715982325125481,0.3807311670077406
11157,0.0,300.14949,40743.51,-0.11157001450312665,0.0,0.0,0.0,0.0,-0.017027161702739296,-5.967462091392654,-2.6577830793277677,-3.7597644025098567,0.021596542327412777,0.0055687821209210045,0.37979160045501265
11158,0.0,300.44423,40881.594,-0.11157999114259409,0.0,0.0,0.0,0.0,-0.017028684278981826,-6.001346390636774,-2.6548226665105976,-3.7708147054504364,0.01735199307550838,0.01017271284346859,0.38911237666740167
11159,0.0,300.07886,40835.365,-0.11159000081729153,0.0,0.0,0.0,0.0,-0.01703021189686757,-6.0104876290639435,-2.663186843436077,-3.739256828435917,0.02617276988030127,-0.011667007481443989,0.37741330995279365
11160,0.0,300.65334,40838.352999999996,-0.11160001049198898,0.0,0.0,0.0,0.0,-0.017031739514753258,-5.985784085000894,-2.6729769672272874,-3.7550784247723867,0.015159593436635385,-0.017985620919542585,0.3769906022760756
11161,0.0,300.31212,41051.637,-0.11160998713145631,0.0,0.0,0.0,0.0,-0.017033262090995788,-6.011320014021094,-2.667855494596837,-3.799497181331176,-0.003402383391539097,-0.015725513882487385,0.4009768057983296
11162,0.0,300.56878,41100.304,-0.11161999680615386,0.0,0.0,0.0,0.0,-0.01703478970888153,-5.974483813260645,-2.6962631770504575,-3.822719252423017,-0.0004726540672098245,-0.007013871814165253,0.38525482207919065
11163,0.0,300.68579,40842.068999999996,-0.11163000648085142,0.0,0.0,0.0,0.0,-0.017036317326767275,-5.978828528364435,-2.6522455662062576,-3.783894953641356,0.004961879964174425,-0.004283443566267965,0.3981952822863146
11164,0.0,300.7462,40784.734,-0.11164001615554875,0.0,0.0,0.0,0.0,-0.01703784494465299,-5.975263407887585,-2.6615618942507075,-3.7607154390537167,-0.0012431178415361788,0.013903476406916289,0.3835442532603706
11165,0.0,300.41016,40807.127,-0.1116499927950162,0.0,0.0,0.0,0.0,-0.01703936752089552,-5.988109696630414,-2.6678142553177677,-3.748423702090617,-0.0022676742927770282,-0.004714398186874876,0.3913126289945496
11166,0.0,299.79777,40868.316,-0.11166000246971375,0.0,0.0,0.0,0.0,-0.017040895138781265,-5.983736914498854,-2.6704606619289475,-3.7687501070466762,-0.0025036032964114076,0.01121166808525549,0.3928007083564116
11167,0.0,299.60733,40972.043,-0.1116700121444113,0.0,0.0,0.0,0.0,-0.01704242275666698,-6.005969648193054,-2.6627316914911576,-3.7857768630520865,-0.008535443550132691,-0.006489720273210524,0.3867812529573376
11168,0.0,300.28041,41023.35,-0.11167998878387853,0.0,0.0,0.0,0.0,-0.017043945332909483,-5.968802519949945,-2.6866505746767677,-3.814620952323776,0.002424424691197088,-0.0059283778939603436,0.3912486017207306
11169,0.0,299.67261,40761.323,-0.1116899984585763,0.0,0.0,0.0,0.0,-0.017045472950795254,-5.973268926390744,-2.6449727609634874,-3.7721827957354566,-0.0001210684921735299,-0.008723124319780342,0.3759936047076796
11170,0.0,300.13379,40904.242999999995,-0.11170000813327363,0.0,0.0,0.0,0.0,-0.01704700056868097,-5.9902569762423346,-2.665953016209077,-3.777658601925876,0.012535641460921489,0.017569081909433383,0.4002348128826006
11171,0.0,300.54192,41155.182,-0.11170998477274108,0.0,0.0,0.0,0.0,-0.0170485231449235,-6.0273790148559945,-2.685139920102677,-3.797628646821767,0.006435375516022114,-0.00026214080086878276,0.38053779835865664
11172,0.0,300.40695,40917.818999999996,-0.11171999444743852,0.0,0.0,0.0,0.0,-0.017050050762809243,-6.004955790142994,-2.651415613049348,-3.781623956192226,-0.005683168228685035,-0.0032451773345490674,0.39466193733260063
11173,0.0,300.84103,40722.311,-0.11173000412213596,0.0,0.0,0.0,0.0,-0.01705157838069496,-5.971106448027324,-2.6502592920352273,-3.7571998665067565,0.011859654696456789,-0.0016822205128222383,0.37198696049975466
11174,0.0,301.13946,40833.888,-0.11174001379683351,0.0,0.0,0.0,0.0,-0.017053105998580675,-5.984898099113454,-2.643647835132727,-3.7839363955704464,0.01049649083342299,0.006927339850325212,0.39927241780511963
11175,0.0,300.44872999999995,40961.816,-0.11174999043630074,0.0,0.0,0.0,0.0,-0.017054628574823177,-5.996972088630065,-2.6801156181568175,-3.7742814393425768,0.004065796634187886,0.007166012431255363,0.37551661722310464
11176,0.0,300.1595,40969.272000000004,-0.1117600001109984,0.0,0.0,0.0,0.0,-0.01705615619270895,-5.9993849410931945,-2.6642780124687677,-3.7899728330411966,-0.02340183888483168,0.010953039036980791,0.3917408690168136
11177,0.0,299.90585,41027.605,-0.11177000978569573,0.0,0.0,0.0,0.0,-0.017057683810594665,-6.016800481161974,-2.6679343254546177,-3.7866325527615365,-0.012851120932556886,-0.007185910535394153,0.40650125812605065
11178,0.0,300.28074,41005.129,-0.11177998642516318,0.0,0.0,0.0,0.0,-0.017059206386837195,-6.010465236236735,-2.6739298276213272,-3.780140152745786,-0.00916320872908829,0.01097472056262059,0.4039295280472406
11179,0.0,300.18163,41015.68,-0.11178999609986073,0.0,0.0,0.0,0.0,-0.01706073400472294,-6.018588664938454,-2.6591742717150675,-3.7899794191668463,0.016677370145678282,-0.010867035381742888,0.39396887426420063
11180,0.0,300.08112,41152.047999999995,-0.11180000577455829,0.0,0.0,0.0,0.0,-0.017062261622608682,-6.016701283977185,-2.6960630601557076,-3.796430681228536,0.007113136582736924,-0.0029240349094297774,0.37785818754169964
11181,0.0,300.28585,41028.782,-0.11181001544925562,0.0,0.0,0.0,0.0,-0.01706378924049437,-6.032453168706774,-2.670151417998427,-3.7691207539332563,0.007107083933264573,-0.014110414501339487,0.38456739268134665
11182,0.0,299.89898999999997,40884.441,-0.11181999208872306,0.0,0.0,0.0,0.0,-0.0170653118167369,-6.001446398421645,-2.648238770010818,-3.778163909750746,0.006313115745706014,0.011522958780977489,0.38561910575514263
11183,0.0,300.09193,41050.31,-0.11183000176342062,0.0,0.0,0.0,0.0,-0.017066839434622644,-6.0092327188150945,-2.697233667996237,-3.7718028269479564,-0.012657291254677388,-0.006138476518095464,0.38201793383973465
11184,0.0,300.73636,41072.968,-0.11184001143811795,0.0,0.0,0.0,0.0,-0.01706836705250836,-6.014950691779415,-2.6645003195407075,-3.8057056686689066,-0.02257617481559498,0.007328787918745054,0.3881540345903206
11185,0.0,300.70165,40860.409,-0.1118499880775854,0.0,0.0,0.0,0.0,-0.01706988962875089,-5.983457561446285,-2.6692776924371975,-3.7678090003537963,-0.0044014637968406555,-0.013069500647109288,0.37633425939129966
11186,0.0,300.48048,40906.056000000004,-0.11185999775228295,0.0,0.0,0.0,0.0,-0.017071417246636633,-5.999269430581794,-2.6748515812372973,-3.760298486637567,0.0034942654172321467,-0.005776869342282614,0.3947187198682046
11187,0.0,301.0791,41151.458,-0.1118700074269805,0.0,0.0,0.0,0.0,-0.017072944864522377,-6.029452225885604,-2.6873038170162373,-3.792259535866876,0.02335027965349318,-0.006563140071481494,0.38819750301961065
11188,0.0,300.06915,41089.269,-0.11187998406644772,0.0,0.0,0.0,0.0,-0.01707446744076488,-6.0226353831878345,-2.6952250009979974,-3.772251392767226,0.014490024598304087,0.00028715713523770267,0.39752435873259967
11189,0.0,300.08398,41033.008,-0.11188999374114528,0.0,0.0,0.0,0.0,-0.017075995058650595,-6.016059288713825,-2.6707746681349374,-3.7861759822664767,0.005458779738389615,0.0003586944769428886,0.39617295667672664
11190,0.0,300.19296,41113.488,-0.11190000341584283,0.0,0.0,0.0,0.0,-0.01707752267653634,-6.032874680748374,-2.6667967495673475,-3.7978023178889067,-0.016409578276749284,0.005361036871468145,0.3998536991224876
11191,0.0,299.87675,41087.742999999995,-0.11191001309054027,0.0,0.0,0.0,0.0,-0.017079050294422082,-6.018617643891314,-2.6908446194906874,-3.7801855463502667,0.0027694207461955475,-0.0016927618602375883,0.37993017253868866
11192,0.0,300.13799,41019.435,-0.1119199897300075,0.0,0.0,0.0,0.0,-0.017080572870664584,-6.0366102298920445,-2.6555038745528274,-3.7767699815881763,-0.005410697576094275,0.004915358308358095,0.38561704885743964
11193,0.0,299.80152999999996,41061.774,-0.11192999940470505,0.0,0.0,0.0,0.0,-0.017082100488550328,-6.027680558085754,-2.6831431081306074,-3.770930317286846,0.006546760579639964,-0.006945453114412853,0.38340589395921565
11194,0.0,299.97312,41089.372,-0.1119400090794026,0.0,0.0,0.0,0.0,-0.017083628106436044,-6.024393270786325,-2.6709728598544977,-3.7947770570653363,0.0007737177966250014,-0.003478072870034067,0.39622375090423967
11195,0.0,300.32588,41097.755,-0.11194998571887005,0.0,0.0,0.0,0.0,-0.0170851506826786,-6.017226451504015,-2.6736083233645975,-3.8018565341890262,0.005451482919119475,-0.004739936142395276,0.39306821651531265
11196,0.0,300.1959,41169.242,-0.11195999539356738,0.0,0.0,0.0,0.0,-0.01708667830056429,-6.012949320181894,-2.7000681338259773,-3.8014042193443864,0.008230135488301133,0.005541126574016614,0.39053804995560465
11197,0.0,300.11793,41056.128,-0.11197000506826493,0.0,0.0,0.0,0.0,-0.017088205918450033,-6.024068524129274,-2.669286710363087,-3.7866826073164765,-0.007369436371681744,-0.0029405945571390874,0.39286242542000266
11198,0.0,300.49894,41008.72,-0.11198001474296249,0.0,0.0,0.0,0.0,-0.017089733536335777,-6.019305944684245,-2.683502507941077,-3.762818540961276,-0.004296031374910286,0.012037445638503388,0.38725890918697864
11199,0.0,300.02143,41242.952000000005,-0.11198999138242971,0.0,0.0,0.0,0.0,-0.01709125611257828,-6.040096924811154,-2.6998032702498374,-3.7969272751025462,-0.009140337039881033,-0.005386761265006945,0.36685617610088567
11200,0.0,300.06742,41325.068,-0.11200000105712726,0.0,0.0,0.0,0.0,-0.017092783730464023,-6.069680686655844,-2.689659218198697,-3.802448880197486,-0.0017744459289741783,0.017249888876181486,0.39315978392684964
11201,0.0,300.02872,41074.189,-0.11201001073182482,0.0,0.0,0.0,0.0,-0.01709431134834974,-6.021660535266625,-2.6794581201669274,-3.7844092793921162,-0.005432758462571515,0.007392603828593192,0.3852072905169996
11202,0.0,300.17515,41054.184,-0.11201998737129226,0.0,0.0,0.0,0.0,-0.017095833924592296,-6.017011541157804,-2.6666726264300973,-3.7957626454376063,0.005198084875811034,0.011410380615366889,0.39068115126722763
11203,0.0,300.10943,41231.62,-0.1120299970459896,0.0,0.0,0.0,0.0,-0.017097361542477985,-6.036779138683714,-2.6959509946946474,-3.8006527930702263,-0.0015205369036403085,-0.008307474841933933,0.37566940520568365
11204,0.0,300.12084,41245.288,-0.11204000672068715,0.0,0.0,0.0,0.0,-0.01709888916036373,-6.054227001430685,-2.6934696465247576,-3.7898411105281964,0.013592112757187087,-0.007333092509144883,0.3845877691408576
11205,0.0,299.89322999999996,41194.3,-0.1120500163953847,0.0,0.0,0.0,0.0,-0.017100416778249472,-6.042521125675404,-2.685938462506487,-3.7935789901470964,0.015523681555318088,-0.00852067279547493,0.3833174473579866
11206,0.0,299.28038,41083.747,-0.11205999303485203,0.0,0.0,0.0,0.0,-0.017101939354492002,-6.046975069139974,-2.6624270071860874,-3.779031150511336,-0.016474965332202482,-0.00024399986492091175,0.3998326539179106
11207,0.0,299.06402,41040.251000000004,-0.11207000270954948,0.0,0.0,0.0,0.0,-0.017103466972377718,-6.018019117057244,-2.6563885432151375,-3.800803969985146,-0.023743279850529275,-0.006670368377889104,0.38900428314673363
11208,0.0,299.47042999999996,41146.101,-0.11208001238424703,0.0,0.0,0.0,0.0,-0.017104994590263434,-6.020464190873554,-2.6816733888605575,-3.805249706123907,-0.020496452640842378,0.01014514230824759,0.3937166864468116
11209,0.0,299.42787999999996,41247.152,-0.11208998902371436,0.0,0.0,0.0,0.0,-0.01710651716650599,-6.042133962812194,-2.6924403870731775,-3.803530119379196,0.003245685986099267,0.0017229359415905383,0.3908067740146256
11210,0.0,300.15497,41242.692,-0.1120999986984118,0.0,0.0,0.0,0.0,-0.01710804478439168,-6.0456878362129345,-2.6906532165467976,-3.800407485221016,0.005154404778575145,0.004604380402941965,0.3867366192904326
11211,0.0,300.1876,41148.808,-0.11211000837310925,0.0,0.0,0.0,0.0,-0.017109572402277423,-6.036493807455554,-2.7036524047297177,-3.7680639340789566,0.007002211737314493,-0.01901780765066148,0.37627385955283865
11212,0.0,299.91415,41271.362,-0.1121199850125767,0.0,0.0,0.0,0.0,-0.017111094978519953,-6.040679746268673,-2.7093760518945973,-3.7954079065775965,0.008629677430632851,-0.003476637905242447,0.38610642839073767
11213,0.0,300.13486,41410.572,-0.11212999468727425,0.0,0.0,0.0,0.0,-0.017112622596405697,-6.038461944449795,-2.710498226380347,-3.8388196951870066,0.005575684177952184,-0.0069918118396131036,0.39473333093464663
11214,0.0,299.9112,41283.748999999996,-0.11214000436197158,0.0,0.0,0.0,0.0,-0.017114150214291413,-6.022721104146294,-2.702708156961527,-3.8237995796796365,-0.007762207776845263,0.0032867186634738766,0.38640446577515164
11215,0.0,300.13747,41091.209,-0.11215001403666913,0.0,0.0,0.0,0.0,-0.01711567783217713,-6.003565003055734,-2.6853847213268374,-3.8017517641286864,-0.014202396332167386,-0.005865424969222374,0.3873677626452216
11216,0.0,300.35308,41101.619,-0.11215999067613658,0.0,0.0,0.0,0.0,-0.017117200408419686,-6.033723683007165,-2.684147036329687,-3.7759951492367065,-0.01200977073852209,0.01053377235760239,0.3890462620983766
11217,0.0,299.93276000000003,41168.472,-0.11217000035083413,0.0,0.0,0.0,0.0,-0.017118728026305402,-6.058702020497335,-2.687333809219197,-3.7681516815376166,-0.003147563150390297,-0.0007082316453120213,0.4109161002692616
11218,0.0,300.21833,41305.831,-0.11218001002553146,0.0,0.0,0.0,0.0,-0.017120255644191118,-6.091132609822985,-2.6761915031695374,-3.7886170030823867,-0.0041941489760302765,0.00025438028795537977,0.4055775894673916
11219,0.0,299.79597,41297.244,-0.11218998666499902,0.0,0.0,0.0,0.0,-0.017121778220433675,-6.036495833955754,-2.7045296766662976,-3.812305473195256,0.0028036438762731072,-0.003428093194276457,0.3963807641397356
11220,0.0,299.39751,41063.428,-0.11219999633969646,0.0,0.0,0.0,0.0,-0.01712330583831939,-6.018566170786235,-2.6754509186714475,-3.788239770070157,0.006337903490852374,0.006313433298287353,0.39282970757427366
11221,0.0,300.23475,41221.677,-0.11221000601439379,0.0,0.0,0.0,0.0,-0.017124833456205107,-6.032650549826254,-2.6843505982747775,-3.8133594559492763,0.008513465648838642,0.003084422065108757,0.38735543139150463
11222,0.0,299.41624,41525.822,-0.11222001568909135,0.0,0.0,0.0,0.0,-0.017126361074090823,-6.0806422288876645,-2.7199392855121074,-3.822231676474896,0.007023584728298843,-0.00953447410352933,0.3942963161665166
11223,0.0,299.15667,41347.06,-0.11222999232855879,0.0,0.0,0.0,0.0,-0.01712788365033338,-6.081390716736535,-2.690774603908777,-3.796308584591486,0.012704495537086089,-0.0037609090711478266,0.38542608161109265
11224,0.0,300.17601,41084.939,-0.11224000200325623,0.0,0.0,0.0,0.0,-0.017129411268219097,-6.0340592714402845,-2.6847646122656372,-3.769971580042226,0.001101433864153059,-0.003644360181045346,0.3813331591571526
11225,0.0,299.68745,41052.187000000005,-0.11225001167795368,0.0,0.0,0.0,0.0,-0.017130938886104813,-6.0231265055113035,-2.678289842801627,-3.777423527902676,-0.006634297687579204,-0.0017656462571557182,0.38956616072468664
11226,0.0,299.90805,41368.046,-0.11225998831742123,0.0,0.0,0.0,0.0,-0.01713246146234737,-6.0418439706335745,-2.6953413221094773,-3.8376679337983366,-0.011051569503204989,-0.0018560578543036484,0.4020724635289626
11227,0.0,299.80016,41410.02,-0.11226999799211856,0.0,0.0,0.0,0.0,-0.017133989080233086,-6.049682473407175,-2.726870726796187,-3.811058871597226,-0.002194473457852668,0.02003292415734568,0.38937636884845567
11228,0.0,299.87958,41281.025,-0.11228000766681612,0.0,0.0,0.0,0.0,-0.01713551669811883,-6.058190835821885,-2.6791887982903475,-3.8110210773684963,0.007562611084696602,0.020086986116431182,0.40820230239393057
11229,0.0,299.95025,41175.459,-0.11228998430628356,0.0,0.0,0.0,0.0,-0.01713703927436136,-6.064750819619304,-2.667754980186918,-3.783805483657526,-0.004680966810425456,0.006195064813655294,0.4043498951162276
11230,0.0,300.29299,41348.608,-0.11229999398098112,0.0,0.0,0.0,0.0,-0.017138566892247104,-6.065507109493944,-2.710919130471887,-3.7925180159673864,-0.003250302454879877,-0.01047532099908369,0.3873208390330906
11231,0.0,299.84885,41511.321,-0.11231000365567845,0.0,0.0,0.0,0.0,-0.01714009451013279,-6.064325659877344,-2.712812084308707,-3.841267302128567,0.005990756711191655,-0.008753348354363222,0.3721761545584267
11232,0.0,299.78489,41499.373,-0.11232001333037578,0.0,0.0,0.0,0.0,-0.017141622128018508,-6.067535737519154,-2.7133055371074075,-3.833931979354626,0.012689676754373588,0.012118400268492988,0.38374817997549665
11233,0.0,299.73415,41219.332,-0.11232998996984345,0.0,0.0,0.0,0.0,-0.017143144704261065,-6.019087487962684,-2.6848207463211775,-3.825739446996086,0.015499106187392685,-0.008472079651154162,0.3953215428826986
11234,0.0,299.56774,41083.131,-0.11233999964454078,0.0,0.0,0.0,0.0,-0.01714467232214678,-6.033873137396914,-2.6598335935551374,-3.794539247266867,-0.0037607045972776463,-0.004356159459694466,0.40142436850000063
11235,0.0,299.45936,41380.06,-0.11235000931923833,0.0,0.0,0.0,0.0,-0.017146199940032525,-6.051116830248734,-2.713418717143577,-3.813969432509476,-0.007862175437011303,-0.002034003418315508,0.40386880396874764
11236,0.0,299.70929,41323.617,-0.11235998595870578,0.0,0.0,0.0,0.0,-0.017147722516275055,-6.058936081270434,-2.6804000374598873,-3.822011699878186,-0.0017098501205240683,0.01165798043630309,0.4091317972406646
11237,0.0,299.42035,41196.256,-0.11236999563340333,0.0,0.0,0.0,0.0,-0.0171492501341608,-6.033923495926885,-2.6936513222676877,-3.7950584366181066,-0.0066896461703166744,0.0007276925320326613,0.3989201310103516
11238,0.0,299.33653,41300.55,-0.11238000530810066,0.0,0.0,0.0,0.0,-0.017150777752046487,-6.041979442171944,-2.7069105104262676,-3.805445871343267,-0.016874568880140283,-0.007248134224035154,0.4007257730860546
11239,0.0,300.171,41429.316,-0.11239001498279821,0.0,0.0,0.0,0.0,-0.01715230536993223,-6.056698115774564,-2.7178482412807377,-3.818931318249176,-0.02344748884158698,0.005731120897617594,0.3911654645500256
11240,0.0,299.87986,41382.734,-0.11239999162226555,0.0,0.0,0.0,0.0,-0.01715382794617476,-6.064726704266924,-2.7027847586690874,-3.811806346195996,0.005269937581477344,0.009445015164125423,0.38275438427741665
11241,0.0,299.99324,41408.337,-0.1124100012969631,0.0,0.0,0.0,0.0,-0.017155355564060504,-6.073158059674035,-2.6881369112484577,-3.8258055109026063,0.006521582834530113,0.0013822324193157186,0.39778749978356964
11242,0.0,300.53862000000004,41336.251000000004,-0.11242001097166054,0.0,0.0,0.0,0.0,-0.01715688318194622,-6.029596310049825,-2.7217422627400474,-3.8138495650226463,0.01087063140634779,-0.024941451133529576,0.37437175606761564
11243,0.0,300.56977,41236.841,-0.1124299876111281,0.0,0.0,0.0,0.0,-0.017158405758188777,-6.020940621070574,-2.7067321784086675,-3.8072972819259867,0.016850890238553386,-0.01971329340005058,0.37805413997853865
11244,0.0,300.23712,41418.502,-0.11243999728582543,0.0,0.0,0.0,0.0,-0.017159933376074493,-6.060065855131935,-2.7077257714567273,-3.8223986600913764,0.02108258235993888,-0.006859307300185924,0.38945448029866464
11245,0.0,300.18052,41500.539,-0.11245000696052276,0.0,0.0,0.0,0.0,-0.01716146099396018,-6.074046477361714,-2.711252793729818,-3.8298284177746362,-0.002303181210731288,-0.0026069187349078474,0.42430000938265056
11246,0.0,299.99024,41313.676,-0.11245998359999043,0.0,0.0,0.0,0.0,-0.01716298357020274,-6.078280545554584,-2.685962172558827,-3.7940831833968565,-0.01148498520697979,-0.007460425825361702,0.4063199167556536
11247,0.0,299.73606,41401.446,-0.11246999327468776,0.0,0.0,0.0,0.0,-0.017164511188088455,-6.050576159995375,-2.7145437287296073,-3.8198859011683863,-0.011356504081049688,0.0026023754227844577,0.4075718987117146
11248,0.0,299.69976,41582.883,-0.11248000294938532,0.0,0.0,0.0,0.0,-0.0171660388059742,-6.082266671447985,-2.7208817094301176,-3.837009523883357,-0.003204968936130807,0.017322377801585583,0.4073006415274436
11249,0.0,299.28742,41588.725,-0.11249001262408265,0.0,0.0,0.0,0.0,-0.017167566423859915,-6.075403725870665,-2.7143318581336975,-3.8521981428823566,0.002978758824805607,0.004751663904352716,0.41578923543270263
11250,0.0,299.72835,41531.991,-0.11249998926355032,0.0,0.0,0.0,0.0,-0.017169089000102472,-6.092462095279194,-2.7223840553533876,-3.809841958227126,-0.0018115540860614684,-0.011807144023274388,0.3945502062440736
11251,0.0,299.73621,41492.805,-0.11250999893824765,0.0,0.0,0.0,0.0,-0.017170616617988188,-6.0857466789164345,-2.7021758966839977,-3.8248542717087264,0.0018153772813387882,-0.010088342243416861,0.4000899282508016
11252,0.0,299.73854,41298.462999999996,-0.1125200086129452,0.0,0.0,0.0,0.0,-0.017172144235873904,-6.0738554797178645,-2.6735315190070175,-3.8063147333040166,0.0018095705476657083,0.011009538875806888,0.39184338966193166
11253,0.0,300.02471,41365.693,-0.11252998525241253,0.0,0.0,0.0,0.0,-0.017173666812116434,-6.049215263786064,-2.6973245565302073,-3.8275977476794862,0.0064674773056903135,0.00988900869231917,0.38674168554093263
11254,0.0,300.07276,41536.482,-0.11253999492711009,0.0,0.0,0.0,0.0,-0.017175194430002177,-6.071666048901784,-2.7028858810290677,-3.851501330788586,0.0023292174826508674,-0.0012185536193618789,0.3948105912547716
11255,0.0,300.41317999999995,41494.382000000005,-0.11255000460180753,0.0,0.0,0.0,0.0,-0.017176722047887893,-6.073363850769344,-2.7087688111096675,-3.8311233514024363,0.002934617698774217,-0.013541752200716885,0.39008591749598265
11256,0.0,300.14767,41295.564,-0.11256001427650486,0.0,0.0,0.0,0.0,-0.01717824966577361,-6.064681209337435,-2.6808089852002475,-3.8073301112292257,0.002252782556057328,0.0005618621157564735,0.4063833563444146
11257,0.0,300.44571,41495.369,-0.11256999091597242,0.0,0.0,0.0,0.0,-0.017179772242016167,-6.096522087104884,-2.7013210175746276,-3.815712931956546,-0.008002122399747992,-0.0053335804282084055,0.4102674378202436
11258,0.0,299.98171,41766.06,-0.11258000059066975,0.0,0.0,0.0,0.0,-0.017181299859901883,-6.107600051773194,-2.7316069617386174,-3.8566323279699763,0.0025376944000009374,-0.01169357287256579,0.40840307790124564
11259,0.0,300.18582000000004,41559.411,-0.1125900102653673,0.0,0.0,0.0,0.0,-0.0171828274777876,-6.048526152393054,-2.720431927710727,-3.864065024078526,0.009118357922686861,-0.0028143530179050177,0.3848606779227916
11260,0.0,299.50851,41525.315,-0.11259998690483475,0.0,0.0,0.0,0.0,-0.01718435005403013,-6.059617086662644,-2.724575613994677,-3.8384662735521258,0.0031611848794346567,0.01024339717044459,0.39744409919217866
11261,0.0,299.80033,41591.84,-0.1126099965795323,0.0,0.0,0.0,0.0,-0.017185877671915872,-6.075711551251045,-2.704537377367058,-3.8626318831370865,-0.004185645375891036,-0.00039763344523836565,0.4010575719638006
11262,0.0,299.92006000000003,41469.84,-0.11262000625422963,0.0,0.0,0.0,0.0,-0.01718740528980159,-6.079939134643275,-2.7063373148446974,-3.8195195099322263,-0.009477075207889502,-0.02061474857676728,0.4043075108645446
11263,0.0,300.14468,41384.53,-0.11263001592892719,0.0,0.0,0.0,0.0,-0.017188932907687332,-6.068156353205404,-2.7030860992488273,-3.808621295831656,0.007873585747712413,-0.00969442961466571,0.38170125265348065
11264,0.0,299.57299,41440.092000000004,-0.11263999256839463,0.0,0.0,0.0,0.0,-0.017190455483929862,-6.080421137715844,-2.686527059489577,-3.8298048090473062,0.01135821444721849,0.0003287591274459997,0.4054931857340616
11265,0.0,299.76603,41438.449,-0.11265000224309218,0.0,0.0,0.0,0.0,-0.017191983101815606,-6.046475840815704,-2.7086998087778573,-3.841078128334896,0.006647637023820693,0.0006580854520329773,0.38319261494566664
11266,0.0,299.33692,41571.102,-0.11266001191778952,0.0,0.0,0.0,0.0,-0.017193510719701294,-6.088108666224544,-2.703791017343397,-3.8446773953401165,-0.013775896060325088,-0.013366816597452086,0.4047168943024476
11267,0.0,298.78339,41632.407999999996,-0.11266998855725707,0.0,0.0,0.0,0.0,-0.01719503329594385,-6.076541707057974,-2.7199207430352774,-3.8587500206789764,0.006054779628035224,-0.007353990995107404,0.3943600192003036
11268,0.0,299.59506,41469.852999999996,-0.11267999823195451,0.0,0.0,0.0,0.0,-0.017196560913829567,-6.098813957506074,-2.6951933875948773,-3.811792464669626,0.008802447313133913,-0.002125571944427618,0.4163671527597386
11269,0.0,300.06298,41437.26,-0.11269000790665185,0.0,0.0,0.0,0.0,-0.017198088531715283,-6.082632556059094,-2.6955119534263177,-3.8177479434573867,-0.0100326169329672,-0.00977115027778745,0.3945015499742716
11270,0.0,299.31741,41660.142,-0.1126999845461194,0.0,0.0,0.0,0.0,-0.01719961110795784,-6.093633311069785,-2.7300361201085876,-3.839973483075876,-0.014744689812187588,-0.015779663994331585,0.39356621880696163
11271,0.0,299.75534,41692.737,-0.11270999422081673,0.0,0.0,0.0,0.0,-0.017201138725843557,-6.058930001769834,-2.744883679123927,-3.8697372994633366,0.001238851349340109,-0.006499310989382054,0.38498448695251064
11272,0.0,299.90945,41433.885,-0.11272000389551429,0.0,0.0,0.0,0.0,-0.0172026663437293,-6.068282097542814,-2.7006362631570475,-3.8259480751916763,-0.0023803299720202777,0.02438333777969808,0.3962056846549566
11273,0.0,299.8436,41377.364,-0.11273001357021173,0.0,0.0,0.0,0.0,-0.01720419396161499,-6.0507188256094535,-2.7063354909945176,-3.820631146616936,-0.018915143124029282,0.015973607156222286,0.4076417825711116
11274,0.0,299.98693,41528.699,-0.11273999020967929,0.0,0.0,0.0,0.0,-0.017205716537857546,-6.103203559589295,-2.7035319292928275,-3.8169522381538563,-0.006848181712762914,0.005884808038335334,0.40202504342428264
11275,0.0,299.88996000000003,41577.193999999996,-0.11274999988437662,0.0,0.0,0.0,0.0,-0.017207244155743262,-6.079602836935085,-2.715882029461687,-3.842943825744026,0.013815360125219885,0.008366657969674852,0.40561637668121964
11276,0.0,299.26833,41493.112,-0.11276000955907417,0.0,0.0,0.0,0.0,-0.017208771773629006,-6.070133305475514,-2.715957415269127,-3.8267793455737165,0.02014056374196888,0.0003075390055042367,0.3779425203475226
11277,0.0,299.74403,41537.356,-0.11276998619854162,0.0,0.0,0.0,0.0,-0.017210294349871536,-6.060343586984344,-2.7040017733641974,-3.861973675872126,-0.0017885249377886684,-0.01280354073436109,0.40505529957084563
11278,0.0,299.00395,41497.294,-0.11277999587323917,0.0,0.0,0.0,0.0,-0.01721182196775728,-6.084915611184415,-2.7151191534613974,-3.8141064239229965,-0.012712626869138589,-0.016663851362844085,0.37354961506897666
11279,0.0,299.54145,41614.299,-0.1127900055479365,0.0,0.0,0.0,0.0,-0.017213349585642967,-6.098493061199404,-2.711712910600227,-3.839501815154326,-0.003626691733751606,0.00898830727235186,0.3940907479862286
11280,0.0,299.46575,41677.532999999996,-0.11280001522263383,0.0,0.0,0.0,0.0,-0.017214877203528683,-6.135227126349774,-2.726322457167077,-3.807379861809136,0.004780907518138836,0.003012450099905677,0.3873367875896646
11281,0.0,299.68236,41495.922999999995,-0.1128099918621015,0.0,0.0,0.0,0.0,-0.01721639977977124,-6.080367131485515,-2.7166151159090375,-3.816742191408126,-0.007984797444238152,-0.003322403913445737,0.40883647536651857
11282,0.0,299.82662,41539.273,-0.11282000153679883,0.0,0.0,0.0,0.0,-0.017217927397656957,-6.076019984581484,-2.7221957934848073,-3.8286860796118964,-0.003980624958607096,-0.015014319716797985,0.38114213111579964
11283,0.0,299.98357000000004,41876.904,-0.11283001121149638,0.0,0.0,0.0,0.0,-0.0172194550155427,-6.1041483139825345,-2.7472738347848176,-3.878111102264766,0.011317136274914388,0.005031017159572735,0.3997517458974256
11284,0.0,299.36245,41671.86,-0.11283998785096383,0.0,0.0,0.0,0.0,-0.01722097759178523,-6.108564665868394,-2.7264242888021273,-3.832215837660256,0.019136784490653584,0.017140019128088182,0.3930963139405856
11285,0.0,300.20237000000003,41396.731,-0.11284999752566127,0.0,0.0,0.0,0.0,-0.017222505209670974,-6.079986352097935,-2.6875533805158676,-3.8160329163381257,-0.0090337073616325,0.01037021149996019,0.3949857923295626
11286,0.0,299.99523,41530.258,-0.11286000720035871,0.0,0.0,0.0,0.0,-0.017224032827556662,-6.1045079164430245,-2.7109454749744875,-3.8087080300402167,-0.015395665511183885,0.004411348254216176,0.3891066011418316
11287,0.0,300.0455,41766.394,-0.11286998383982605,0.0,0.0,0.0,0.0,-0.01722555540379922,-6.109707814631214,-2.7323389336108574,-3.8538941208997364,-0.0007774928219925673,0.008787258086184852,0.3870644766252897
11288,0.0,300.11342,41760.311,-0.1128799935145236,0.0,0.0,0.0,0.0,-0.017227083021684936,-6.102747901019324,-2.7356521601128474,-3.855691727902146,0.007839956483518462,0.0027692043159741873,0.3824134357512676
11289,0.0,300.52257000000003,41799.803,-0.11289000318922116,0.0,0.0,0.0,0.0,-0.01722861063957068,-6.110875686696474,-2.7539435535680674,-3.8412773333045562,-0.004786338032049786,-0.010699505623458989,0.39124491349036666
11290,0.0,300.44536,41810.768,-0.11290001286391849,0.0,0.0,0.0,0.0,-0.017230138257456395,-6.130015170485394,-2.7346626200651873,-3.8447516665724466,0.0004975593493677846,-0.00861032536697295,0.3893974748480386
11291,0.0,301.11285,41844.871,-0.11290998950338593,0.0,0.0,0.0,0.0,-0.017231660833698925,-6.126926784180594,-2.747353982867727,-3.8455152518478064,0.009004510154700962,0.02154455347803188,0.39449198489332765
11292,0.0,300.36522,41790.998999999996,-0.11291999917808349,0.0,0.0,0.0,0.0,-0.01723318845158467,-6.126049410919004,-2.7342139529209075,-3.8431567095900365,-0.0041912185554160665,0.011553948022035888,0.4112778001574586
11293,0.0,299.54091,41696.695,-0.11293000885278082,0.0,0.0,0.0,0.0,-0.017234716069470357,-6.080297115903604,-2.7149973607993774,-3.8794595354978467,-0.02049092130854648,-0.006971508536759323,0.4119367369624906
11294,0.0,299.13304,41621.323,-0.11293998549224826,0.0,0.0,0.0,0.0,-0.017236238645712915,-6.083839438253204,-2.7249829405348773,-3.8430204274515862,-0.02106819522176898,-0.012284102123596489,0.4079807147295616
11295,0.0,300.08314,41554.087999999996,-0.11294999516694582,0.0,0.0,0.0,0.0,-0.01723776626359863,-6.087624332676745,-2.6976464660869772,-3.8461344489839164,0.003551015934132987,0.00908563247758211,0.4059953018211166
11296,0.0,300.18486,41806.424,-0.11296000484164337,0.0,0.0,0.0,0.0,-0.017239293881484374,-6.139132090910164,-2.7296437896698675,-3.839333109012676,-0.0019312396944985181,0.0003489651278926767,0.4060651147530066
11297,0.0,300.07892999999996,41845.446,-0.1129700145163407,0.0,0.0,0.0,0.0,-0.01724082149937009,-6.147866914722224,-2.7305954341637877,-3.8415084556523666,-0.014987990412949485,0.001031159396842509,0.4007601931919516
11298,0.0,299.13562,41742.537000000004,-0.11297999115580815,0.0,0.0,0.0,0.0,-0.01724234407561262,-6.124487080589814,-2.7351267899359972,-3.8290750663252866,-0.023826748354016977,0.008559219362404181,0.3869126816278087
11299,0.0,300.84142,41888.665,-0.1129900008305057,0.0,0.0,0.0,0.0,-0.017243871693498364,-6.105696357485314,-2.744297412616068,-3.8831144299335563,-0.0033979341090249865,0.03159340257627607,0.3853904456050756
11300,0.0,300.76126,41899.376000000004,-0.11300001050520325,0.0,0.0,0.0,0.0,-0.01724539931138408,-6.1192757326754945,-2.7446312785240177,-3.8724570653817563,-0.004005586273495587,0.0030505683660176568,0.4012929803595336
11301,0.0,300.65614,41701.002,-0.11300998714467048,0.0,0.0,0.0,0.0,-0.01724692188762661,-6.119179271265974,-2.718371483632377,-3.8385127817317164,-0.022023027400503582,-0.025413193022336873,0.3890039285091986
11302,0.0,300.00132,41765.439,-0.11301999681936803,0.0,0.0,0.0,0.0,-0.017248449505512325,-6.142492433541804,-2.7265224727368174,-3.826635464059517,-0.003940882857884856,-0.02008357247684428,0.39138045595624366
11303,0.0,299.31956,41808.032999999996,-0.11303000649406547,0.0,0.0,0.0,0.0,-0.01724997712339807,-6.142339736751735,-2.7286912332508573,-3.8375673180634062,0.00950165726326556,0.006233103944934463,0.4057224842316916
11304,0.0,298.6365,41693.595,-0.11304001616876291,0.0,0.0,0.0,0.0,-0.017251504741283785,-6.103975960140525,-2.7193749052064073,-3.850460824260896,0.008908099610335982,-0.0007466288997065352,0.40843430626932764
11305,0.0,299.85927999999996,41808.047999999995,-0.11304999280823025,0.0,0.0,0.0,0.0,-0.017253027317526315,-6.083921714161324,-2.7409881377894676,-3.883692793090636,-0.009681792258093501,-0.01141770742683999,0.4141894351148146
11306,0.0,299.33538,41808.867,-0.1130600024829278,0.0,0.0,0.0,0.0,-0.01725455493541206,-6.118217696921074,-2.719051171799457,-3.871582731870466,0.005328312135638465,0.016020636146363683,0.4078578378899346
11307,0.0,299.50567,41757.731,-0.11307001215762535,0.0,0.0,0.0,0.0,-0.017256082553297775,-6.121897517309244,-2.7298944677446073,-3.8415155484030663,0.01963582536365508,0.02859817245916987,0.40227954145189965
11308,0.0,300.59452999999996,41763.492,-0.11307998879709258,0.0,0.0,0.0,0.0,-0.017257605129540304,-6.1532065400992035,-2.7145567996558975,-3.827295191199626,0.00923997042883908,0.00981335690672792,0.3960537376699606
11309,0.0,300.21923,41908.246,-0.11308999847179013,0.0,0.0,0.0,0.0,-0.01725913274742602,-6.143462823162574,-2.7303625892908077,-3.8652348213189764,-0.013864143051284387,-0.02375547836848318,0.39802157068917066
11310,0.0,300.31605,41822.891,-0.11310000814648768,0.0,0.0,0.0,0.0,-0.017260660365311764,-6.100839140480944,-2.743189018331677,-3.8690862862740865,-0.006089868276348204,-0.00990818181601141,0.3774929007481486
11311,0.0,300.48797,41730.953,-0.11310998478595513,0.0,0.0,0.0,0.0,-0.017262182941554294,-6.0659013651078535,-2.733653321640577,-3.8856131046801567,0.006701453067106924,0.014345171377258185,0.3968087812469776
11312,0.0,299.89639,41771.809,-0.11311999446065246,0.0,0.0,0.0,0.0,-0.01726371055944001,-6.101667877737735,-2.725416611577677,-3.8705025059388563,0.020692372653678178,0.003646289003935707,0.39625504006732765
11313,0.0,299.93708,41878.941,-0.11313000413535002,0.0,0.0,0.0,0.0,-0.017265238177325753,-6.135267048403715,-2.7269538133043874,-3.8679313838101064,0.003956154056767006,-0.026394252166659877,0.41659703894242656
11314,0.0,299.9288,41750.192,-0.11314001381004757,0.0,0.0,0.0,0.0,-0.01726676579521147,-6.134613299439194,-2.737062401602027,-3.8193400633395167,0.004074424154814356,-0.009970571373693782,0.3982240788541566
11315,0.0,299.93371,41711.717000000004,-0.11314999044951501,0.0,0.0,0.0,0.0,-0.017268288371454027,-6.103503076318854,-2.737005558271418,-3.838811893161236,0.015259881891783088,0.0019075339991339484,0.4035635522436216
11316,0.0,299.94136000000003,41823.104,-0.11316000012421235,0.0,0.0,0.0,0.0,-0.017269815989339715,-6.0903531165210545,-2.7331461899655274,-3.8896800879315365,0.015178224066224088,0.0018106643511486584,0.4029298757635826
11317,0.0,299.55312000000004,41874.789,-0.1131700097989099,0.0,0.0,0.0,0.0,-0.01727134360722546,-6.084041378998135,-2.7362120821181075,-3.908636781402416,-0.0008757800372652602,-0.011889207148873388,0.3965726737086756
11318,0.0,299.2359,41866.086,-0.11317998643837723,0.0,0.0,0.0,0.0,-0.01727286618346799,-6.117991134198714,-2.7279449745522077,-3.8803086390816466,-0.01183016911854679,0.008442883254822701,0.4031764096454136
11319,0.0,299.32125,41834.342000000004,-0.11318999611307468,0.0,0.0,0.0,0.0,-0.017274393801353705,-6.134496877002704,-2.7294348574992475,-3.8526634273282765,-0.0008900688699104582,0.00993516193039914,0.39068906475050863
11320,0.0,299.58964,41786.459,-0.11320000578777223,0.0,0.0,0.0,0.0,-0.01727592141923945,-6.1546724090188745,-2.716525949900237,-3.8308416678746364,-0.007849343435094882,0.0036768131631982064,0.39123019096641365
11321,0.0,300.17786,41892.502,-0.11321001546246978,0.0,0.0,0.0,0.0,-0.017277449037125164,-6.125820315071394,-2.7355985591825576,-3.8728557792961067,0.0033724167224816167,-0.007553983361420114,0.3876217135177846
11322,0.0,299.91064,41945.445,-0.11321999210193712,0.0,0.0,0.0,0.0,-0.017278971613367722,-6.113662935071554,-2.7557066087420674,-3.8809984597497262,0.007851174378025582,-0.01081054871516809,0.4069977405425496
11323,0.0,299.92391000000003,41799.652,-0.11323000177663445,0.0,0.0,0.0,0.0,-0.01728049923125341,-6.092570310389874,-2.7271549434492375,-3.8863253181754462,0.014131499222670386,0.0014869040930710086,0.4093081939505736
11324,0.0,299.71892,41678.65,-0.11324001145133222,0.0,0.0,0.0,0.0,-0.01728202684913918,-6.116136785190704,-2.7161336194615178,-3.8369983781322565,-0.0017752858119820685,-0.013121654656256488,0.41905857807286157
11325,0.0,300.08811000000003,41862.13,-0.11324998809079945,0.0,0.0,0.0,0.0,-0.017283549425381683,-6.136171171467944,-2.727283524886927,-3.8615875262590165,0.002110878602077498,-0.021628675527834082,0.4098335742599246
11326,0.0,300.16823999999997,42054.21599999999,-0.113259997765497,0.0,0.0,0.0,0.0,-0.017285077043267427,-6.162322852573914,-2.7558803811342174,-3.8652282351933263,8.417942812886272e-05,-0.018192553947715285,0.40415968780745565
11327,0.0,300.25955,42007.252,-0.11327000744019433,0.0,0.0,0.0,0.0,-0.017286604661153143,-6.1162774243045845,-2.777247495267987,-3.875630868669986,0.01209395662308059,-0.0019253156264638581,0.37868822175861766
11328,0.0,300.23854,41950.22900000001,-0.113279984079662,0.0,0.0,0.0,0.0,-0.0172881272373957,-6.116497907526345,-2.7445307641140975,-3.8907934471414163,0.012959536666756687,0.0013353187370356988,0.39286645815540067
11329,0.0,300.31208,41882.421,-0.11328999375435933,0.0,0.0,0.0,0.0,-0.017289654855281417,-6.1092613766371535,-2.7422149810105476,-3.879733822299916,0.011175625765948388,0.0064662676877209335,0.38412051898974364
11330,0.0,299.43408999999997,41889.891,-0.11330000342905666,0.0,0.0,0.0,0.0,-0.017291182473167105,-6.1252951475445645,-2.7426111617996476,-3.8655745640775065,0.0025143007856671677,0.016849811127196884,0.3962376628281126
11331,0.0,299.5455,42030.674000000006,-0.11331001310375444,0.0,0.0,0.0,0.0,-0.017292710091052876,-6.1576890572165945,-2.7401294083297176,-3.878456823198886,-0.017843664580532582,0.012985764645595187,0.3950170105651436
11332,0.0,299.73348,42108.715,-0.11331998974322166,0.0,0.0,0.0,0.0,-0.01729423266729538,-6.158856929281853,-2.762027870815927,-3.879113206613666,-0.01720782785128038,0.012576989157752188,0.4170744621245446
11333,0.0,299.46803,41797.902,-0.11332999941791921,0.0,0.0,0.0,0.0,-0.017295760285181122,-6.1164593026975345,-2.726126393272727,-3.862932818416786,-0.012994390443696489,-0.015130619550025884,0.40029780664131764
11334,0.0,299.7149,41852.127,-0.11334000909261654,0.0,0.0,0.0,0.0,-0.017297287903066838,-6.1015073789218945,-2.7318751690400873,-3.8886190124268163,-0.0037807964348355563,-0.016628887141643383,0.4230886790206016
11335,0.0,299.70605,42059.403,-0.1133499857320841,0.0,0.0,0.0,0.0,-0.017298810479309396,-6.148793227963644,-2.745764396110847,-3.8904505633075765,0.004405278886117176,-0.03181405197105247,0.4103446880078676
11336,0.0,300.05093,41999.013,-0.11335999540678143,0.0,0.0,0.0,0.0,-0.01730033809719511,-6.156710865570053,-2.723110960975127,-3.886829612750217,0.010716197905606389,-0.016237110950728086,0.42063881253131863
11337,0.0,300.21296,41985.434,-0.11337000508147899,0.0,0.0,0.0,0.0,-0.017301865715080827,-6.147517444762735,-2.7624074343033875,-3.8525987819718965,0.0032129933702977572,-0.018059325745066683,0.3973859994314446
11338,0.0,299.91445,42112.221,-0.11338001475617654,0.0,0.0,0.0,0.0,-0.01730339333296657,-6.160512073320204,-2.7554804513197473,-3.8850712185266763,0.006925389647857744,0.0014443198258182685,0.3892641210023776
11339,0.0,299.5729,42138.647000000004,-0.11338999139564399,0.0,0.0,0.0,0.0,-0.0173049159092091,-6.139213758868224,-2.7648491643943673,-3.9050334613967963,-0.0009048090750777032,0.03200294914744518,0.39156925484737665
11340,0.0,299.96205,42045.206,-0.11340000107034132,0.0,0.0,0.0,0.0,-0.017306443527094817,-6.142500438217595,-2.767606420566487,-3.8705858964220865,0.009271399521765892,0.023813757474484876,0.39584490682435064
11341,0.0,300.41663,42032.02099999999,-0.11341001074503887,0.0,0.0,0.0,0.0,-0.01730797114498056,-6.153910647593694,-2.7361917157910973,-3.8865825823758366,-0.005355538976425545,0.012504142555062788,0.41924746815650366
11342,0.0,299.88495,41924.217000000004,-0.11341998738450632,0.0,0.0,0.0,0.0,-0.01730949372122309,-6.1569480674184645,-2.7436114422983677,-3.8433556105846667,-0.001093459079241009,-0.008470482566346542,0.41061405041445165
11343,0.0,299.27752999999996,41865.007000000005,-0.11342999705920365,0.0,0.0,0.0,0.0,-0.017311021339108806,-6.123345857002184,-2.7357362598711474,-3.8668346419018667,0.013343784409428988,-0.005947826925654814,0.42015794429886055
11344,0.0,299.2181,42005.291,-0.1134400067339012,0.0,0.0,0.0,0.0,-0.017312548956994522,-6.148385192148374,-2.7363973042363874,-3.883776994173946,2.4728241020987376e-05,0.001229593283176409,0.38967637193806365
11345,0.0,299.44253,42012.46400000001,-0.11345001640859875,0.0,0.0,0.0,0.0,-0.017314076574880266,-6.115823690909804,-2.7560971153306077,-3.8988192998585065,0.00011618047236611991,-0.00908085733383584,0.3997046702977796
11346,0.0,299.9119,41864.373999999996,-0.1134599930480662,0.0,0.0,0.0,0.0,-0.017315599151122796,-6.125983448337494,-2.7382835706225475,-3.861457120971146,0.003929413576027926,-0.015292895606541287,0.38303499376011063
11347,0.0,299.96707000000004,42027.519,-0.11347000272276353,0.0,0.0,0.0,0.0,-0.017317126769008512,-6.161065814499854,-2.7449738583828274,-3.869276574642867,0.0015837833669322485,-0.012788192021846289,0.4126941718097436
11348,0.0,299.86044,42243.801,-0.11348001239746108,0.0,0.0,0.0,0.0,-0.017318654386894256,-6.187048586814154,-2.7863886323701474,-3.867623558429726,0.0058774458644337444,-0.02013028330645428,0.3958953565468296
11349,0.0,300.36642,42162.175,-0.11348998903692853,0.0,0.0,0.0,0.0,-0.017320176963136785,-6.171617598391235,-2.7447607718867975,-3.8998701415372166,-0.00848467992277271,-0.019049518325791083,0.41659959233267857
11350,0.0,300.43317,42023.79,-0.11349999871162597,0.0,0.0,0.0,0.0,-0.01732170458102253,-6.1304369865020245,-2.7647146047810875,-3.879031234680576,0.001095749125792019,0.008469432129967872,0.3830336866674816
11351,0.0,300.5093,42055.488,-0.11351000838632341,0.0,0.0,0.0,0.0,-0.017323232198908217,-6.141094857678874,-2.749220896176977,-3.8935025739337865,0.0024907443420423277,0.019441763651502682,0.4078667646233156
11352,0.0,300.93382,42059.53400000001,-0.11351998502579097,0.0,0.0,0.0,0.0,-0.017324754775150775,-6.161225097415574,-2.738461497340108,-3.8853617173303467,-0.005959112809243645,0.03028550643994677,0.4136224203588546
11353,0.0,300.39441,41982.739,-0.1135299947004883,0.0,0.0,0.0,0.0,-0.01732628239303649,-6.152162689846185,-2.747128940020518,-3.862412818465466,-0.022209727850679477,0.0022898840256939577,0.4179126428722666
11354,0.0,300.20465,42045.767,-0.11354000437518574,0.0,0.0,0.0,0.0,-0.017327810010922207,-6.164041122093494,-2.7360580681029076,-3.880764196326606,-0.013176461354165487,0.006054240173681984,0.40497286154270956
11355,0.0,299.69856,42107.992,-0.11355001404988319,0.0,0.0,0.0,0.0,-0.01732933762880795,-6.131945006625854,-2.7703346977857475,-3.8974984270281463,-0.0013195714119315588,-0.005112728079436975,0.4058008287294236
11356,0.0,299.78306000000003,42015.797,-0.11355999068935063,0.0,0.0,0.0,0.0,-0.01733086020505048,-6.110988562757615,-2.7662671065843076,-3.8944975855319863,0.003931489725482826,-0.005143545473278415,0.38735979849943564
11357,0.0,299.9215,42096.708,-0.11357000036404818,0.0,0.0,0.0,0.0,-0.017332387822936224,-6.133439145223314,-2.7533552605600073,-3.909553671417906,-0.005920729274255484,-0.01091432072415959,0.39668317876458165
11358,0.0,300.18354,42113.431,-0.11358001003874552,0.0,0.0,0.0,0.0,-0.017333915440821912,-6.161782587620594,-2.7681081820160074,-3.8715407833163265,0.0023540179947484875,-0.01032568017131529,0.38371972791268866
11359,0.0,299.69332,42105.09,-0.11358998667821318,0.0,0.0,0.0,0.0,-0.01733543801706447,-6.1711529218953745,-2.7598332724243373,-3.8679097002579663,0.011962601919866887,0.006376450564406675,0.3979078738954496
11360,0.0,300.37153,42137.174000000006,-0.11359999635291052,0.0,0.0,0.0,0.0,-0.017336965634950185,-6.175502804574674,-2.7601929762098374,-3.8729530513057067,0.007676933864329383,0.006220437305434364,0.4023106279649676
11361,0.0,300.40807,42080.96400000001,-0.11361000602760807,0.0,0.0,0.0,0.0,-0.01733849325283593,-6.151848075690134,-2.753675650241627,-3.8860386697221565,0.008769387090196121,0.005608385913004594,0.39627557864685464
11362,0.0,299.89712000000003,42065.93,-0.1136200157023054,0.0,0.0,0.0,0.0,-0.017340020870721645,-6.123996160916365,-2.748087575940127,-3.9149084955463858,0.0002201854275556098,-0.0026657677940907973,0.39110940142199263
11363,0.0,300.03727000000003,42129.651,-0.11362999234177296,0.0,0.0,0.0,0.0,-0.017341543446964203,-6.146478762085224,-2.7552675674737372,-3.9046155970555567,0.004609220192044615,0.007021783574921084,0.3977564234030026
11364,0.0,299.76307,42214.565,-0.1136400020164704,0.0,0.0,0.0,0.0,-0.01734307106484989,-6.164591620872824,-2.7562048238162373,-3.9113771162978668,-0.010760124323941592,0.016797292348013682,0.40987538095905063
11365,0.0,299.93346,42126.962,-0.11365001169116773,0.0,0.0,0.0,0.0,-0.017344598682735607,-6.178843996779424,-2.7424449887832476,-3.884255653521186,-0.00934803223477895,0.016017007697755586,0.41463934855671764
11366,0.0,300.44046000000003,42158.875,-0.11365998833063529,0.0,0.0,0.0,0.0,-0.017346121258978164,-6.156870553785814,-2.765849444893087,-3.8925253955373464,-0.004531537751927956,0.014808826517017384,0.39406073551826665
11367,0.0,300.27347000000003,42131.949,-0.11366999800533273,0.0,0.0,0.0,0.0,-0.01734764887686388,-6.151951427200335,-2.753624177136547,-3.901484755571566,0.002236825386857478,0.007254469874260433,0.4029209996927066
11368,0.0,300.35117,42129.225999999995,-0.11368000768003017,0.0,0.0,0.0,0.0,-0.017349176494749624,-6.141298318298953,-2.7610550493949177,-3.903879369532896,0.01202084049586459,0.0016388494568668486,0.3971057243212836
11369,0.0,300.50468,42170.074,-0.11368998431949762,0.0,0.0,0.0,0.0,-0.017350699070992154,-6.166731402434004,-2.7618663587499874,-3.890051849393226,-9.583881900930501e-05,-0.01825256368488778,0.4049558389410296
11370,0.0,300.09949,42218.377,-0.11369999399419517,0.0,0.0,0.0,0.0,-0.017352226688877898,-6.185641790375314,-2.7606214796771273,-3.8870691450738564,-0.011768293987940189,-0.0044220965073019465,0.4115457845439066
11371,0.0,299.98974,42285.015,-0.1137100036688925,0.0,0.0,0.0,0.0,-0.017353754306763586,-6.191392491317864,-2.7679661243519873,-3.894229986180576,-0.01078505736915229,-0.005383605396245485,0.4093417527938856
11372,0.0,299.89124,42212.3,-0.11372001334359005,0.0,0.0,0.0,0.0,-0.01735528192464933,-6.172080653686934,-2.7548238652549473,-3.9045807412521163,-0.00891388881478233,0.015546756299845385,0.4009148455547146
11373,0.0,299.54985,42192.343,-0.1137299899830575,0.0,0.0,0.0,0.0,-0.01735680450089186,-6.142012254319415,-2.7642138565816676,-3.9191927196192067,0.004568844303384826,0.01012785453901642,0.39313889070978764
11374,0.0,300.20682999999997,42217.918,-0.11373999965775505,0.0,0.0,0.0,0.0,-0.017358332118777603,-6.141055036949944,-2.7731887193424174,-3.9189493369451864,0.038931932286782565,-0.01112302997975759,0.39115933438692063
11375,0.0,299.98452000000003,42120.744000000006,-0.11375000933245238,0.0,0.0,0.0,0.0,-0.01735985973666332,-6.145271271941054,-2.7670597721375376,-3.8913232756187064,0.02652793329210318,-0.004460428265209996,0.4020704471612636
11376,0.0,300.21982,42117.03599999999,-0.11375998597192005,0.0,0.0,0.0,0.0,-0.017361382312905876,-6.166831511543885,-2.755016686748977,-3.8806791846432165,0.018391116516811884,-0.006298073541346464,0.4075452907640886
11377,0.0,300.06081,42199.015,-0.11376999564661738,0.0,0.0,0.0,0.0,-0.017362909930791592,-6.174956358795744,-2.7540251202011174,-3.8984655742485965,-0.0028904916701693174,0.0014887284498760586,0.4199336613892256
11378,0.0,300.56891,42161.882000000005,-0.11378000532131471,0.0,0.0,0.0,0.0,-0.01736443754867728,-6.162121114479004,-2.762513420263847,-3.8915248110635963,-0.027091869794259375,0.0012247729484756787,0.3922708697466206
11379,0.0,300.47454,42228.287000000004,-0.11379001499601227,0.0,0.0,0.0,0.0,-0.017365965166563024,-6.158395495186315,-2.769217589550497,-3.908731824261796,-0.02394425699461418,-0.0022826513451551476,0.3956534126879516
11380,0.0,300.38215,42427.975999999995,-0.11379999163547971,0.0,0.0,0.0,0.0,-0.017367487742805554,-6.187505866584284,-2.786519240308037,-3.923019967896926,-0.01248695074061609,-0.00866750215819086,0.39434072691839966
11381,0.0,300.1598,42442.144,-0.11381000131017727,0.0,0.0,0.0,0.0,-0.017369015360691298,-6.191889389166904,-2.7894148051188075,-3.920047902703607,0.013678273466190485,0.008266102421800793,0.4150456922443206
11382,0.0,300.58271,42272.322,-0.1138200109848746,0.0,0.0,0.0,0.0,-0.017370542978577014,-6.194033426378503,-2.764162383476587,-3.8915346395895667,0.015855792514094885,-0.0089145714413747,0.4055069456704196
11383,0.0,300.13826,42186.225,-0.11382998762434215,0.0,0.0,0.0,0.0,-0.01737206555481957,-6.176082282306865,-2.742814723744737,-3.904661902585126,0.018104525818777584,-0.011435271104073389,0.41940504881205565
11384,0.0,300.30888,42205.450999999994,-0.11383999729903949,0.0,0.0,0.0,0.0,-0.017373593172705287,-6.179008447270654,-2.7564755642429577,-3.893919323699916,0.012975562230338288,0.0004271339280573366,0.4021213224487846
11385,0.0,300.25659,42275.142,-0.11385000697373704,0.0,0.0,0.0,0.0,-0.017375120790591003,-6.168559305614404,-2.766269335734527,-3.9157589163553164,0.001275017082509389,0.011277754283277689,0.4061177024331966
11386,0.0,299.70515,42292.879,-0.11385998361320449,0.0,0.0,0.0,0.0,-0.01737664336683356,-6.169663748223403,-2.7822973311163675,-3.9040180834715863,0.002112060456994138,-0.002898416805826467,0.3816271638061686
11387,0.0,300.08633,42382.352,-0.11386999328790204,0.0,0.0,0.0,0.0,-0.017378170984719277,-6.189915172672064,-2.7913253895073673,-3.9019361584911163,0.0054578276885956555,-0.016376802675764586,0.4076342338578666
11388,0.0,300.48332,42302.754,-0.11388000296259937,0.0,0.0,0.0,0.0,-0.017379698602604993,-6.196936894540054,-2.7705273166297575,-3.8915167050627963,0.010177699047210689,0.0006805108957636963,0.4099577075296756
11389,0.0,300.45699,42329.52099999999,-0.1138900126372967,0.0,0.0,0.0,0.0,-0.01738122622049071,-6.199004735344134,-2.7775580564236373,-3.8905545227678364,0.008402139860351644,0.00895786518634746,0.4159724614482856
11390,0.0,300.17945,42421.225,-0.11389998927676437,0.0,0.0,0.0,0.0,-0.017382748796733266,-6.195002498774144,-2.779957331335427,-3.920033311902167,0.0014061920351553488,0.008680560824154653,0.4149132401912486
11391,0.0,300.17336,42407.107,-0.1139099989514617,0.0,0.0,0.0,0.0,-0.017384276414618982,-6.182411245081485,-2.7876081801905075,-3.9206822985912164,-0.008779187447813341,0.004109993995599826,0.40502764797561663
11392,0.0,300.32107,42376.615999999995,-0.11392000862615925,0.0,0.0,0.0,0.0,-0.017385804032504698,-6.186202421655644,-2.774207238342937,-3.921023358574876,-0.004207578694180686,0.005802683915080314,0.4123341235192096
11393,0.0,300.36813,42419.319,-0.1139299852656267,0.0,0.0,0.0,0.0,-0.017387326608747256,-6.208563432812504,-2.7776131772290773,-3.908237256887986,8.552593618675272e-05,0.006100146077412545,0.4076568090700946
11394,0.0,300.46035,42365.609000000004,-0.11393999494032425,0.0,0.0,0.0,0.0,-0.01738885422663297,-6.209022536432814,-2.7683517673400475,-3.900712861645386,-0.0024106434765869874,-0.01169127178158869,0.4146646696767166
11395,0.0,299.9828,42228.075999999994,-0.11395000461502158,0.0,0.0,0.0,0.0,-0.017390381844518688,-6.183147573929154,-2.7543968816628075,-3.898736112025296,-0.005863197946827584,-0.013995298144228386,0.4026125663622666
11396,0.0,299.57646,42296.14599999999,-0.11396001428971914,0.0,0.0,0.0,0.0,-0.01739190946240443,-6.175432282367715,-2.7748431541056973,-3.9066967114359463,0.02091920186081448,-0.005745345206496425,0.4156454045810076
11397,0.0,299.70212999999995,42378.939000000006,-0.11396999092918647,0.0,0.0,0.0,0.0,-0.01739343203864696,-6.185839374144814,-2.7717922580545973,-3.9245076216937465,0.023410822360218273,0.014445415249401485,0.4037088624404626
11398,0.0,299.83551,42328.359000000004,-0.11398000060388402,0.0,0.0,0.0,0.0,-0.017394959656532705,-6.189467012152835,-2.7729147365153772,-3.904382245557526,0.009278474135289101,0.014593507831017087,0.4105800052110916
11399,0.0,299.53249,42317.254,-0.11399001027858147,0.0,0.0,0.0,0.0,-0.017396487274418393,-6.181343583451114,-2.7736967629425573,-3.908348309098946,0.006403226306249234,-0.0011107358040460889,0.40729439990682764
11400,0.0,299.59439,42437.753,-0.1139999869180488,0.0,0.0,0.0,0.0,-0.01739800985066095,-6.2240885521697145,-2.7644696009069074,-3.9114589869059464,0.008311451240626372,-0.0029691693245341975,0.41840370440073055
11401,0.0,299.53067000000004,42447.955,-0.11400999659274635,0.0,0.0,0.0,0.0,-0.017399537468546666,-6.197665421361954,-2.7771233721307373,-3.9283298037209664,-0.011485492845279888,-0.005964123027013114,0.40802693919912364
11402,0.0,299.69203999999996,42472.754,-0.11402000626744369,0.0,0.0,0.0,0.0,-0.017401065086432382,-6.196230051270294,-2.795742349343287,-3.9186843720440363,-0.0003932172048100166,-0.025996492733904072,0.4040746558590636
11403,0.0,300.10339,42437.704000000005,-0.11403001594214124,0.0,0.0,0.0,0.0,-0.017402592704318126,-6.190388563118784,-2.782196614056427,-3.9274171693558957,0.001142530376283969,-0.017618626799573087,0.4013412515942976
11404,0.0,300.33,42360.695,-0.11403999258160868,0.0,0.0,0.0,0.0,-0.017404115280560656,-6.188319506414584,-2.7968782027053876,-3.8913957230008567,0.018226439057559485,-0.003078594559808627,0.4006451791731006
11405,0.0,300.52587,42327.791,-0.11405000225630624,0.0,0.0,0.0,0.0,-0.0174056428984464,-6.191882803041254,-2.769775687705577,-3.9049330483118863,0.01212479691637429,0.011363366823976989,0.3983813555346786
11406,0.0,299.61007,42440.187999999995,-0.11406001193100357,0.0,0.0,0.0,0.0,-0.017407170516332088,-6.2096885457235445,-2.7863531686166474,-3.904715807490446,-0.0012582209422267387,0.012074569095667188,0.4066344802491986
11407,0.0,299.39553,42347.681,-0.11406998857047101,0.0,0.0,0.0,0.0,-0.017408693092574645,-6.182643482004404,-2.7688331624625575,-3.9211608566134464,0.008940798913588151,0.015516702288629286,0.4006005556386966
11408,0.0,299.63873,42298.157999999996,-0.11407999824516857,0.0,0.0,0.0,0.0,-0.01741022071046036,-6.176403786563594,-2.775159997411967,-3.906020164344176,0.009807975636771831,0.01174415229105759,0.40316210255400164
11409,0.0,300.17131,42489.544,-0.11409000791986612,0.0,0.0,0.0,0.0,-0.017411748328346105,-6.183358228624944,-2.7856382193460876,-3.9467638627902666,0.0020280072068737283,0.0023125865021345177,0.39875647085419963
11410,0.0,299.65659,42586.306,-0.11409998455933335,0.0,0.0,0.0,0.0,-0.017413270904588607,-6.221653002904344,-2.7879404248982977,-3.9355802161365263,-0.003955436675696206,-0.008475462690588041,0.42222639305300064
11411,0.0,299.51102000000003,42570.894,-0.1141099942340309,0.0,0.0,0.0,0.0,-0.01741479852247435,-6.216538420374574,-2.7935380237507372,-3.930412437976506,-0.004758476694050086,-0.006843761105226634,0.4199466005930026
11412,0.0,299.50171,42431.015,-0.11412000390872845,0.0,0.0,0.0,0.0,-0.017416326140360094,-6.227682448949404,-2.7662226249049175,-3.9040641863511363,0.010294950322282491,0.0036873845028165164,0.4155954006885726
11413,0.0,300.52108,42352.933,-0.11413001358342578,0.0,0.0,0.0,0.0,-0.017417853758245783,-6.176823373430004,-2.7861679464983675,-3.911242961984626,0.008333611324288403,0.007865290066493693,0.4138790867416856
11414,0.0,300.81954,42399.685999999994,-0.11413999022289323,0.0,0.0,0.0,0.0,-0.01741937633448834,-6.1858377529446535,-2.787429442872867,-3.9151787293480567,0.0002814206805915587,0.00030853152450719074,0.38625381575028367
11415,0.0,299.98477,42540.426,-0.11414999989759067,0.0,0.0,0.0,0.0,-0.017420903952374056,-6.191870948015085,-2.7907289904985078,-3.9486274323741863,0.0015964049168028984,-0.004626123838162876,0.4029051625936436
11416,0.0,299.96892,42442.111,-0.11416000957228822,0.0,0.0,0.0,0.0,-0.0174224315702598,-6.203600635147715,-2.7818457255467974,-3.9158957051188166,-0.013936634003188687,0.00852387608434107,0.3934956459374966
11417,0.0,299.83889,42282.937999999995,-0.11416998621175545,0.0,0.0,0.0,0.0,-0.017423954146502302,-6.1989606589647845,-2.755699718641387,-3.898296766781936,-0.006220522722417795,0.006343468868351634,0.4081265214189516
11418,0.0,299.914,42394.755,-0.114179995886453,0.0,0.0,0.0,0.0,-0.017425481764388046,-6.209034796759024,-2.7672705281583374,-3.9106416993752866,-0.01983374350568808,0.0091787561399477,0.3985058839719686
11419,0.0,300.05852000000004,42741.824,-0.11419000556115055,0.0,0.0,0.0,0.0,-0.01742700938227379,-6.231679112643844,-2.8135215448729576,-3.9472464738128963,-0.006661904902453824,0.014543716721103087,0.4165193226597566
11420,0.0,300.13847999999996,42698.165,-0.1142000152358481,0.0,0.0,0.0,0.0,-0.017428537000159505,-6.223439970780704,-2.7990998548746475,-3.9566363638146065,0.011190397939156289,-0.003695179537160827,0.4050874702615206
11421,0.0,299.57077000000004,42427.75,-0.11420999187531533,0.0,0.0,0.0,0.0,-0.017430059576402035,-6.192657230092684,-2.7892409314016473,-3.9150784175881563,0.03372853534599727,-0.005765954814855433,0.40834900074340863
11422,0.0,300.12092,42474.649000000005,-0.1142200015500131,0.0,0.0,0.0,0.0,-0.01743158719428778,-6.209090018889474,-2.7815605969686574,-3.920581986831317,0.020018587681680782,-0.01997285666491748,0.4063201396706756
11423,0.0,300.11572,42523.587,-0.11423001122471044,0.0,0.0,0.0,0.0,-0.017433114812173495,-6.224962885681004,-2.7780706596492273,-3.9230749873773565,0.006335791573668943,-0.005171402049002645,0.41468949430416663
11424,0.0,299.59735,42501.512,-0.11423998786417788,0.0,0.0,0.0,0.0,-0.017434637388416024,-6.211173869045134,-2.7828834962992177,-3.9253409185759867,0.000999818730251926,-0.0017307463773363681,0.4071853235335626
11425,0.0,300.06261,42457.852999999996,-0.11424999753887521,0.0,0.0,0.0,0.0,-0.01743616500630174,-6.195397666313144,-2.7745255001993474,-3.936203871573076,-0.0027155073295747076,0.00018417002017116584,0.3918932314343506
11426,0.0,300.20743,42433.558,-0.11426000721357277,0.0,0.0,0.0,0.0,-0.017437692624187484,-6.187275453511544,-2.7879663641008574,-3.9235002484443258,-0.012485006313674187,0.0016937182670069785,0.4122320588366366
11427,0.0,299.98762999999997,42527.57,-0.11426998385304021,0.0,0.0,0.0,0.0,-0.017439215200430014,-6.208177688499434,-2.7901722095685573,-3.928969468509097,-0.006515823318311693,-0.006048754842940624,0.3813413462179606
11428,0.0,300.07465,42804.935,-0.11427999352773754,0.0,0.0,0.0,0.0,-0.01744074281831573,-6.2623818065739645,-2.7895993179620175,-3.959650073587036,0.02396903602580968,0.006415184177304384,0.4430522289833506
11429,0.0,300.45083,42769.350999999995,-0.11429000320243521,0.0,0.0,0.0,0.0,-0.017442270436201474,-6.245580296065785,-2.8215653321168173,-3.933669023797906,0.014758789187329088,0.016663552454064586,0.39693156689409564
11430,0.0,299.99964,42479.695,-0.11430001287713265,0.0,0.0,0.0,0.0,-0.01744379805408719,-6.218705964988494,-2.7763024368997176,-3.9177580588026166,0.005809443914447474,0.023395891106744678,0.4331662821301836
11431,0.0,300.90833,42520.823,-0.11430998951659999,0.0,0.0,0.0,0.0,-0.01744532063032972,-6.201687720283924,-2.791387299088477,-3.932193326352266,-0.016771181906186785,0.012292206097896288,0.39183793837639364
11432,0.0,300.77013,42739.975999999995,-0.11431999919129754,0.0,0.0,0.0,0.0,-0.017446848248215463,-6.227121817669073,-2.8100392069292774,-3.9547245635259265,0.0013166379515670487,0.012187067214519887,0.42822840028535253
11433,0.0,300.2549,42700.734000000004,-0.11433000886599509,0.0,0.0,0.0,0.0,-0.017448375866101207,-6.241193936382884,-2.7976761371591374,-3.941086825129986,-0.01105986802152399,-0.009756434947910161,0.39773420282830957
11434,0.0,300.14556,42532.739,-0.11433998550546232,0.0,0.0,0.0,0.0,-0.01744989844234371,-6.225984545756834,-2.8035687944406975,-3.8993373746346363,0.0003877755856779706,-0.00992621442539109,0.4068857257439946
11435,0.0,299.77842000000004,42390.1,-0.11434999518015987,0.0,0.0,0.0,0.0,-0.017451426060229452,-6.209934461522814,-2.779947198834427,-3.8956501575207363,0.0065174635675735735,-0.0071300510706312535,0.39171896254965166
11436,0.0,299.86248,42680.208,-0.11436000485485742,0.0,0.0,0.0,0.0,-0.01745295367811517,-6.217186292488514,-2.8040893010170675,-3.9524421163506664,0.014215873571747485,0.01043565428416889,0.4024912904577976
11437,0.0,300.08845,42750.698,-0.11437001452955475,0.0,0.0,0.0,0.0,-0.017454481296000884,-6.2180146244452645,-2.8197090579336175,-3.957420923367036,0.0031280894967183974,0.004038780042796556,0.3855838142541596
11438,0.0,299.5227,42582.08,-0.1143799911690222,0.0,0.0,0.0,0.0,-0.017456003872243414,-6.207078109490914,-2.7790967780254974,-3.957714157945976,-0.004418835868480146,0.004547337259412246,0.41291486781402464
11439,0.0,299.45838,42512.412000000004,-0.11439000084371975,0.0,0.0,0.0,0.0,-0.017457531490129158,-6.238333227375554,-2.7684784236025473,-3.915900163419256,-0.0038831650924385564,0.003798664593724007,0.4099683871857296
11440,0.0,300.21882,42628.77,-0.1144000105184173,0.0,0.0,0.0,0.0,-0.0174590591080149,-6.254065151078174,-2.7804235277064375,-3.9235930621534862,-0.0015572230420609486,0.0008443642888422672,0.4320238021124295
11441,0.0,299.84762,42739.952000000005,-0.11440998715788453,0.0,0.0,0.0,0.0,-0.017460581684257404,-6.259872290051294,-2.800040961567527,-3.9319649397797263,-0.006259498096789364,0.0017130983976946484,0.41313168307042264
11442,0.0,300.08808999999997,42788.78599999999,-0.11441999683258208,0.0,0.0,0.0,0.0,-0.01746210930214312,-6.240951972259004,-2.8130508902015077,-3.9527195442280463,-0.014341778002673286,-0.010135308716027091,0.4267562897450666
11443,0.0,299.96778,42645.899000000005,-0.11443000650727964,0.0,0.0,0.0,0.0,-0.017463636920028863,-6.203422708430153,-2.8158658003043175,-3.944000020492496,-0.005203609824631306,-0.0009469988941990141,0.4009703007326876
11444,0.0,300.36843,42627.709,-0.11444001618197719,0.0,0.0,0.0,0.0,-0.017465164537914607,-6.204187712255654,-2.795267033721377,-3.9583042748042163,0.007838160801691241,0.0006069984965660874,0.4106638313918646
11445,0.0,300.99432,42764.58900000001,-0.11444999282144441,0.0,0.0,0.0,0.0,-0.01746668711415711,-6.239758768941244,-2.821534326663757,-3.9380741286076564,0.017437865008233282,-0.017347201415785485,0.3926913989356236
11446,0.0,300.31057999999996,42610.755999999994,-0.11446000249614197,0.0,0.0,0.0,0.0,-0.017468214732042853,-6.242631535624764,-2.788476839501237,-3.921497559621676,0.007974863945557792,-0.012847877518986788,0.4060132971428926
11447,0.0,299.50793,42627.78599999999,-0.11447001217083941,0.0,0.0,0.0,0.0,-0.017469742349928596,-6.224772090687174,-2.8120463540523675,-3.920964083444026,0.007818285900979743,-0.02129299894195538,0.3981034514297516
11448,0.0,299.02467,42715.882000000005,-0.11447998881030685,0.0,0.0,0.0,0.0,-0.017471264926171126,-6.228862176040835,-2.803638607372587,-3.952060526363006,0.014833409990943586,-0.018023425280773584,0.4131942107340936
11449,0.0,299.51156000000003,42812.748,-0.11448999848500419,0.0,0.0,0.0,0.0,-0.017472792544056814,-6.225359370445134,-2.8283566409120677,-3.9602903463252264,-0.004693720893409185,-0.01196984564483179,0.41508092295029764
11450,0.0,299.86746,42759.528,-0.11450000815970174,0.0,0.0,0.0,0.0,-0.017474320161942558,-6.237883344331154,-2.804715996203918,-3.9552294660507563,-0.014820063460626386,0.003674456647440637,0.4032785249904916
11451,0.0,300.01923999999997,42723.959,-0.11450998479916918,0.0,0.0,0.0,0.0,-0.017475842738185088,-6.255922945136524,-2.8012401430608773,-3.929853630546356,-0.006329700724667824,0.03583956492233967,0.4308339931825046
11452,0.0,299.62239,42615.858,-0.11451999447386652,0.0,0.0,0.0,0.0,-0.017477370356070804,-6.245665814374224,-2.7938503074315575,-3.9146405922199468,-0.009632748825428292,0.037313729320578366,0.3967066152393946
11453,0.0,299.88589,42717.074,-0.11453000414856407,0.0,0.0,0.0,0.0,-0.017478897973956548,-6.234617943233884,-2.8058226679631373,-3.944483340790196,-0.01088509555152529,0.02171985587783288,0.41688522753586865
11454,0.0,300.18183,42780.810999999994,-0.11454001382326162,0.0,0.0,0.0,0.0,-0.01748042559184229,-6.2324542489703445,-2.803201795254477,-3.9686421615994862,-0.02096417294000278,-0.004250915299632676,0.3988924692826216
11455,0.0,300.00715,42640.523,-0.11454999046272907,0.0,0.0,0.0,0.0,-0.01748194816808482,-6.206723471955915,-2.7910326615534773,-3.963898225956296,7.355694673825543e-05,0.0050890360629487555,0.4203268226930276
11456,0.0,299.82117,42531.880999999994,-0.1145600001374264,0.0,0.0,0.0,0.0,-0.01748347578597051,-6.216721919967684,-2.7862753510089675,-3.9256325319547662,0.00958386883000421,-0.009629594476541981,0.4003908230004976
11457,0.0,299.94627,42750.892,-0.11457000981212395,0.0,0.0,0.0,0.0,-0.017485003403856253,-6.265601510091724,-2.793676231064377,-3.9359257344206258,0.021596035702362775,-0.016546846307546586,0.4297369067692306
11458,0.0,299.78511000000003,42957.013,-0.1145799864515914,0.0,0.0,0.0,0.0,-0.017486525980098783,-6.283032856862064,-2.8225902345929677,-3.952236223930347,0.013663878222019787,-0.03068104178873307,0.4252251776514576
11459,0.0,299.69106,42817.738,-0.11458999612628895,0.0,0.0,0.0,0.0,-0.017488053597984526,-6.246452299101843,-2.807203119899377,-3.9618677740809063,0.012402009984733089,-0.004114779271847096,0.4332212104181045
11460,0.0,299.89574,42660.312000000005,-0.11460000580098628,0.0,0.0,0.0,0.0,-0.017489581215870242,-6.202957829284274,-2.794934383713547,-3.969777407011526,0.02702123612978837,0.005301420579309475,0.4292661305077686
11461,0.0,299.11816,42752.316,-0.11461001547568384,0.0,0.0,0.0,0.0,-0.017491108833755986,-6.214367430710314,-2.804354975193287,-3.9769140314408564,-0.004128992941599876,-0.0026524343346998876,0.4129898685864266
11462,0.0,299.44189,42822.136,-0.11461999211515117,0.0,0.0,0.0,0.0,-0.017492631409998516,-6.250514317427735,-2.7957961529235975,-3.970549706237746,-0.020541374070775782,-0.005580610295963354,0.4194730885562706
11463,0.0,300.03092000000004,42754.148,-0.11463000178984861,0.0,0.0,0.0,0.0,-0.017494159027884204,-6.257945392336124,-2.8139550132657374,-3.924292812672546,-0.028150761745013873,0.0036335106029495765,0.3916690701147276
11464,0.0,300.08789,42625.76,-0.11464001146454617,0.0,0.0,0.0,0.0,-0.017495686645769948,-6.243324801343184,-2.7862604562324975,-3.9275814171971066,0.0024233974582457078,0.009958633767640631,0.4020239389816736
11465,0.0,300.44941,42696.622,-0.1146499881040135,0.0,0.0,0.0,0.0,-0.017497209222012478,-6.233349556758704,-2.803251039209337,-3.942106458705617,-0.01074197397490029,-0.008110448663963963,0.3901319393155246
11466,0.0,300.22896000000003,42867.807,-0.11465999777871105,0.0,0.0,0.0,0.0,-0.01749873683989822,-6.224036369789564,-2.8265950042882073,-3.9801116461064363,0.016973561388410087,-0.012444098367386887,0.41857314008245255
11467,0.0,300.07248,42951.805,-0.11467000745340838,0.0,0.0,0.0,0.0,-0.017500264457783937,-6.260258844964444,-2.7988829180282373,-3.997134450436456,0.011501026982562989,0.00016671305843829782,0.4184074128960966
11468,0.0,299.69492,42871.912000000004,-0.11467998409287605,0.0,0.0,0.0,0.0,-0.017501787034026495,-6.275929872336054,-2.8115817788815174,-3.944479186464786,0.02198789903278668,-0.001215599286045309,0.43548490233401355
11469,0.0,299.69738,42736.90900000001,-0.11468999376757338,0.0,0.0,0.0,0.0,-0.01750331465191221,-6.271501158798974,-2.7913378524835974,-3.928114184099686,-0.002264257816089848,-0.014453476667197087,0.4224151108841256
11470,0.0,299.34492,42936.157,-0.11470000344227094,0.0,0.0,0.0,0.0,-0.017504842269797927,-6.275455468639235,-2.8113896666625573,-3.9646745781829162,0.0024309433343904278,-0.013112231430326486,0.4318926774169886
11471,0.0,299.7471,43019.807,-0.11471001311696827,0.0,0.0,0.0,0.0,-0.017506369887683643,-6.255685034013044,-2.8223322611175075,-3.9989296256386258,-0.008871692926292921,-0.006938161260068204,0.41433885910706164
11472,0.0,299.64791,42750.757000000005,-0.11471998975643594,0.0,0.0,0.0,0.0,-0.0175078924639262,-6.208658171696854,-2.7965180936198473,-3.9899864776060063,-0.004017842952005226,-0.001149990024845179,0.4087484239328286
11473,0.0,300.04045,42597.989,-0.11472999943113327,0.0,0.0,0.0,0.0,-0.017509420081811916,-6.215440057266173,-2.7796902386090676,-3.9535945870144062,-0.017963209853830785,-0.015138317211035585,0.3943367245805046
11474,0.0,300.25577999999996,42797.742,-0.1147400091058306,0.0,0.0,0.0,0.0,-0.017510947699697632,-6.249992088326194,-2.802092286394977,-3.957360533661076,-0.000988080106253414,-0.007118900151955744,0.4114203137840236
11475,0.0,299.83206,42803.225999999995,-0.11474998574529827,0.0,0.0,0.0,0.0,-0.01751247027594019,-6.253937278915553,-2.8180363846685372,-3.9391381425376664,-0.0016432006567712782,0.024023870081471378,0.4020732133340366
11476,0.0,299.68959,42894.449,-0.1147599954199956,0.0,0.0,0.0,0.0,-0.017513997893825906,-6.250750202051014,-2.829057911306277,-3.959033510901186,0.012902300195107887,0.02914887591502007,0.4143732386829546
11477,0.0,300.3885,42953.694,-0.11477000509469315,0.0,0.0,0.0,0.0,-0.01751552551171162,-6.256739320742094,-2.8113621062598373,-3.9887490965838857,-0.00024522488429181175,0.001088349461636729,0.42661234743586063
11478,0.0,299.71488,42837.48,-0.11478001476939048,0.0,0.0,0.0,0.0,-0.017517053129597338,-6.238725253839244,-2.8206630329027673,-3.9621359813823758,0.001853565259057648,-0.012881133400518887,0.4179128151247836
11479,0.0,299.52054,42995.662000000004,-0.11478999140885804,0.0,0.0,0.0,0.0,-0.017518575705839895,-6.278758663965235,-2.8067905244586577,-3.984058457895956,0.007718371233793932,-0.01031602085811199,0.4335397154545386
11480,0.0,299.82277999999997,43113.793,-0.11480000108355548,0.0,0.0,0.0,0.0,-0.01752010332372561,-6.313182721537624,-2.8182498764646073,-3.974083922586546,0.004007049001339946,-0.0066324240868192936,0.4193287105495216
11481,0.0,299.37989,42873.413,-0.11481001075825292,0.0,0.0,0.0,0.0,-0.017521630941611355,-6.268652507467834,-2.8059799243786574,-3.957814469705876,0.0030600501578034373,-0.011669137333154188,0.43387608409023565
11482,0.0,300.44946,42738.155999999995,-0.11481998739772037,0.0,0.0,0.0,0.0,-0.017523153517853884,-6.253713147993435,-2.7861724047988075,-3.9514466994524255,-0.0027129117881185476,-0.006537797470580374,0.3972959113650536
11483,0.0,300.80917,42920.847,-0.11482999707241792,0.0,0.0,0.0,0.0,-0.017524681135739628,-6.243822611117315,-2.8058903530698176,-3.9971527902632666,0.016486746391115185,0.00982978827697457,0.43042124575426954
11484,0.0,300.53551,42969.794,-0.11484000674711525,0.0,0.0,0.0,0.0,-0.017526208753625316,-6.277951914235614,-2.8153692064303075,-3.968423299577886,0.0038452040827420962,-0.0012681421805808889,0.3923145914884356
11485,0.0,300.55815,42890.939000000006,-0.1148500164218127,0.0,0.0,0.0,0.0,-0.017527736371511032,-6.265597963716374,-2.8157912250969575,-3.956385280439826,-9.295891904508102e-05,-0.012770403403090687,0.4256680490051656
11486,0.0,300.2945,42877.237,-0.11485999306128025,0.0,0.0,0.0,0.0,-0.01752925894775359,-6.287836675586163,-2.826750436853547,-3.919022189627376,-0.018744307130669085,-0.008450395693714122,0.39824168914089464
11487,0.0,299.81666,43054.47,-0.11487000273597758,0.0,0.0,0.0,0.0,-0.017530786565639306,-6.277389256455084,-2.835452532687377,-3.9746419194166167,0.0004928533295433365,0.00997210583964522,0.43546625853217363
11488,0.0,299.92992999999996,43018.822,-0.11488001241067514,0.0,0.0,0.0,0.0,-0.01753231418352505,-6.281126426798914,-2.8334610909408373,-3.9620600889498863,-0.008760835360677132,0.008521703574801663,0.40610684039212464
11489,0.0,299.88822000000005,43029.474,-0.11488998905014258,0.0,0.0,0.0,0.0,-0.01753383675976758,-6.249258191278764,-2.830585385832027,-4.000042072923416,0.002393113439256908,-0.0012471714498862388,0.4249951800112586
11490,0.0,300.05388999999997,42961.63,-0.11489999872484014,0.0,0.0,0.0,0.0,-0.017535364377653323,-6.267815056260184,-2.8161950052618074,-3.975252807901906,-0.005614627128320555,-0.00936163015244596,0.41918760534059557
11491,0.0,299.94777999999997,42812.992,-0.11491000839953747,0.0,0.0,0.0,0.0,-0.01753689199553901,-6.250516343927934,-2.821687023453827,-3.941876957557966,0.006130521998185414,-0.011772886037393387,0.4118353207599816
11492,0.0,299.61652000000004,42823.511,-0.11491998503900502,0.0,0.0,0.0,0.0,-0.017538414571781596,-6.283429848251244,-2.7954791069673073,-3.938368984386756,0.017885208847882684,-0.008239814863856413,0.4090555704356416
11493,0.0,299.66356,43108.509000000005,-0.11492999471370247,0.0,0.0,0.0,0.0,-0.017539942189667285,-6.294495552593344,-2.8301022681843473,-3.9793125970775765,0.0006397617156345654,-0.021449260345877182,0.4125086051864296
11494,0.0,299.62694,43041.362,-0.11494000438839991,0.0,0.0,0.0,0.0,-0.01754146980755303,-6.269820379533094,-2.827158067368777,-3.9865210609389963,-0.009117418741169172,-0.017540266089839482,0.4084520077485746
11495,0.0,300.0941,42923.073,-0.11495001406309735,0.0,0.0,0.0,0.0,-0.017542997425438744,-6.257182009710784,-2.804214741379447,-3.9861456517769462,-0.023206272496280777,0.0034808673124848565,0.4229597429453766
11496,0.0,300.46494,43071.365999999995,-0.11495999070256491,0.0,0.0,0.0,0.0,-0.017544520001681302,-6.287137533017164,-2.8305575214542773,-3.974924717519526,-0.014406211589782385,0.02973149978877057,0.4192971072789026
11497,0.0,300.53287,43169.448,-0.11497000037726224,0.0,0.0,0.0,0.0,-0.017546047619567018,-6.313536548472544,-2.8202961350415574,-3.988601567369326,-0.01015700544041839,0.02238132783461508,0.43890088252864456
11498,0.0,300.45299,43195.490999999995,-0.11498001005195968,0.0,0.0,0.0,0.0,-0.017547575237452706,-6.302444398302835,-2.8383390795722576,-3.989567194714626,-0.006740876905972753,0.02129979379712598,0.4339407598441186
11499,0.0,299.62357000000003,43149.28400000001,-0.11498998669142724,0.0,0.0,0.0,0.0,-0.01754909781369529,-6.291893627661554,-2.8373653462261577,-3.987045823165786,0.0019347789770978183,-0.012822040654686886,0.4283704478168716
11500,0.0,300.47962,43048.95,-0.11499999636612457,0.0,0.0,0.0,0.0,-0.01755062543158098,-6.267802998583994,-2.8033075785649175,-4.014695290569576,0.0006927475625838615,0.00016701042707764586,0.43583708780377156
11501,0.0,300.04462,42913.34,-0.11501000604082212,0.0,0.0,0.0,0.0,-0.017552153049466723,-6.256511440794603,-2.8105789652575472,-3.9774934078480357,-0.009054129518723012,-0.008312492760404163,0.4073664419889376
11502,0.0,299.68144,43050.269,-0.11502001571551945,0.0,0.0,0.0,0.0,-0.01755368066735244,-6.269145453641484,-2.834839617701887,-3.982221638114676,-0.0028601323666980873,-0.0042303443974274855,0.4193474556763716
11503,0.0,299.79683,43007.702000000005,-0.11502999235498712,0.0,0.0,0.0,0.0,-0.017555203243594997,-6.291778319800174,-2.8169560574119177,-3.964533229793967,0.007122038187515443,0.001922461807557208,0.3877693440573546
11504,0.0,299.87026000000003,42957.251,-0.11504000202968445,0.0,0.0,0.0,0.0,-0.017556730861480713,-6.272215702769493,-2.8198795879254472,-3.965836472072586,0.02377684679984208,0.0038194536486757264,0.4078127482604846
11505,0.0,299.96556,43004.098,-0.115050011704382,0.0,0.0,0.0,0.0,-0.01755825847936643,-6.280978897584354,-2.811881700911117,-3.9793112798524466,-0.00048159392217961955,-0.01081142112350419,0.38928483183442164
11506,0.0,300.00311,43124.834,-0.11505998834384945,0.0,0.0,0.0,0.0,-0.017559781055608986,-6.264876225670144,-2.8304895323725674,-4.013507052177306,-0.0031100882980918173,-0.001000577684974329,0.4299036472056866
11507,0.0,299.88608999999997,43153.181,-0.115069998018547,0.0,0.0,0.0,0.0,-0.017561308673494702,-6.292776776448714,-2.833987778342818,-3.990725035603896,-0.012071042985319188,-0.006200750767916453,0.4023556365344096
11508,0.0,300.15887999999995,43143.502,-0.11508000769324433,0.0,0.0,0.0,0.0,-0.017562836291380418,-6.303343353791553,-2.815120149555727,-3.996083912732776,-0.009344741401104171,0.018080257465632483,0.45836987525008455
11509,0.0,300.64187999999996,43156.704000000005,-0.11508998433271167,0.0,0.0,0.0,0.0,-0.017564358867622948,-6.302773197960284,-2.844485252028837,-3.971301841786976,-0.007141145044651143,0.0002388840968885248,0.4199799061237896
11510,0.0,300.28675,43197.044,-0.11509999400740922,0.0,0.0,0.0,0.0,-0.01756588648550869,-6.291122848310485,-2.835604621527387,-4.004095275973436,-0.0008805249253635442,-0.0035044460476118967,0.43826910082629256
11511,0.0,300.04618,43068.706,-0.11511000368210667,0.0,0.0,0.0,0.0,-0.017567414103394408,-6.273690792265074,-2.8224106866752474,-3.9957096181458365,-0.0005201923979114924,-0.014294425785749985,0.4140566993517146
11512,0.0,299.77515,43117.712999999996,-0.11512001335680422,0.0,0.0,0.0,0.0,-0.017568941721280124,-6.275032639372504,-2.831927030289437,-3.9997484330444357,0.0039192117687210865,0.006977259339026884,0.4079550288395266
11513,0.0,299.99462,43072.647000000004,-0.11512998999627155,0.0,0.0,0.0,0.0,-0.01757046429752268,-6.300229534909244,-2.8104623401710374,-3.9823172889241167,-0.004395405169192716,0.01980348988420228,0.42479703895420357
11514,0.0,299.58364,42990.372,-0.1151399996709691,0.0,0.0,0.0,0.0,-0.017571991915408397,-6.278292568919235,-2.845122991641777,-3.944583956525126,-0.01051187906269169,0.02239547280601108,0.3973401194669166
11515,0.0,299.21955,43097.094000000005,-0.11515000934566644,0.0,0.0,0.0,0.0,-0.017573519533294113,-6.305446658349134,-2.8182732825419174,-3.9767205006717563,-0.0015735869298509385,0.01803184640235468,0.4198194478379536
11516,0.0,299.18998999999997,43231.928,-0.11515998598513388,0.0,0.0,0.0,0.0,-0.017575042109536643,-6.311663555662694,-2.831451005392457,-3.9983121510276862,0.0019037458623100882,0.0016215312901326784,0.41662469053765555
11517,0.0,299.53872,43079.504,-0.11516999565983144,0.0,0.0,0.0,0.0,-0.017576569727422386,-6.267057651810434,-2.824043843186427,-4.003991924463236,0.016870956643533785,-0.02127849629327408,0.4180455204903806
11518,0.0,299.79512,43110.069,-0.11518000533452899,0.0,0.0,0.0,0.0,-0.01757809734530813,-6.271579381706694,-2.826827950486197,-4.005977084059156,-0.004449549100211306,-0.03208582489962437,0.4145212035950576
11519,0.0,299.96972999999997,43342.999,-0.11519001500922632,0.0,0.0,0.0,0.0,-0.01757962496319382,-6.299342434446694,-2.868975506945837,-4.006871581247436,0.01759899811863588,-0.02066317889179698,0.4169620318934486
11520,0.0,300.48986,43192.875,-0.11519999164869399,0.0,0.0,0.0,0.0,-0.017581147539436404,-6.303822013138793,-2.8371994771847873,-3.9885339835876565,0.0019358571765292283,0.015127525084220488,0.4252210131935466
11521,0.0,300.20463,42998.914000000004,-0.11521000132339132,0.0,0.0,0.0,0.0,-0.017582675157322092,-6.275732288566553,-2.840561035716547,-3.9543028488343066,-0.008020001096437482,0.029326331471283572,0.4187172749091776
11522,0.0,299.81215,43064.441,-0.11522001099808865,0.0,0.0,0.0,0.0,-0.017584202775207808,-6.2757335044666736,-2.842784005110937,-3.971997134005596,-0.025837779264740273,0.004468515014258096,0.41165213527440264
11523,0.0,300.24251,43200.89,-0.11522998763755621,0.0,0.0,0.0,0.0,-0.017585725351450365,-6.270744868924334,-2.849649382488497,-4.0115976836888665,-0.014952158849663185,0.005545996051347194,0.4145267562056056
11524,0.0,300.12899,43099.845,-0.11523999731225365,0.0,0.0,0.0,0.0,-0.01758725296933608,-6.287203191623644,-2.8206212869986476,-3.993452096923036,-0.017189484984720085,0.005102655258867866,0.4095944877663286
11525,0.0,299.64231,43173.833,-0.1152500069869512,0.0,0.0,0.0,0.0,-0.017588780587221825,-6.293519995397064,-2.8445431086095474,-3.9857039760583564,0.00981876178541134,-0.0072138685374533934,0.4118731453862146
11526,0.0,300.15762,43253.052,-0.11525998362641843,0.0,0.0,0.0,0.0,-0.017590303163464327,-6.330230654470124,-2.8176941087847576,-3.999923016036666,-0.012984757474995789,-0.007105522616185482,0.4257433233550946
11527,0.0,299.9968,43249.532,-0.11526999330111609,0.0,0.0,0.0,0.0,-0.0175918307813501,-6.325067739910584,-2.8406718852774873,-3.9810380606728666,-0.0005929141783210735,-0.011906009875281688,0.4221650711569486
11528,0.0,299.65859,43281.115999999995,-0.11528000297581342,0.0,0.0,0.0,0.0,-0.017593358399235787,-6.321001972559324,-2.8107516230745873,-4.024624837574546,0.004549486261549336,0.003985187927782426,0.43297796959909857
11529,0.0,300.35091,43322.642,-0.11529001265051098,0.0,0.0,0.0,0.0,-0.01759488601712153,-6.314352822753103,-2.832901270260587,-4.021747308615557,0.012192347260790989,0.004914648121363005,0.41721877933628765
11530,0.0,299.55357999999995,43225.715,-0.11529998928997842,0.0,0.0,0.0,0.0,-0.01759640859336406,-6.301983977457394,-2.8488023054048974,-3.988751832359156,-0.003422346242359277,0.0012006637769212888,0.4119020432790666
11531,0.0,300.3116,43217.422999999995,-0.11530999896467597,0.0,0.0,0.0,0.0,-0.017597936211249804,-6.321040577388135,-2.839002961037777,-3.9769739145217664,0.005635399059345584,-0.0023310868277603577,0.4074327693404836
11532,0.0,300.84317000000004,43313.64599999999,-0.1153200086393733,0.0,0.0,0.0,0.0,-0.01759946382913552,-6.336422727156235,-2.8519085249114573,-3.9779356915166866,-0.003952121321369006,0.014938767736341587,0.4213550891595096
11533,0.0,300.79275,43140.66,-0.11532998527884075,0.0,0.0,0.0,0.0,-0.01760098640537805,-6.309902020363844,-2.8371110204510575,-3.9666703769048866,-0.01026363785444219,0.0030018492747094574,0.4165790233556486
11534,0.0,300.33713,43097.03,-0.1153399949535383,0.0,0.0,0.0,0.0,-0.017602514023263793,-6.275386871607465,-2.8263950900434773,-3.998639126834956,-0.005904759338104374,-0.0014108133675364387,0.41665172405032364
11535,0.0,300.35666000000003,43285.797999999995,-0.11535000462823564,0.0,0.0,0.0,0.0,-0.01760404164114948,-6.3051994253247345,-2.841384098772777,-4.011218120201407,-0.007066860437419824,-0.005094419359405045,0.4058938957511086
11536,0.0,299.79891000000003,43445.357,-0.11536001430293319,0.0,0.0,0.0,0.0,-0.017605569259035225,-6.325044029858244,-2.842748440032427,-4.038511126220016,0.006110875889346494,0.005773606372985584,0.42791764661218357
11537,0.0,299.65946,43322.678,-0.11536999094240064,0.0,0.0,0.0,0.0,-0.017607091835277755,-6.329065923480174,-2.8550818215746374,-3.9848645996755168,0.0019523481258817582,-0.005908565409455004,0.39746114205886063
11538,0.0,299.5114,43377.187000000005,-0.11538000061709819,0.0,0.0,0.0,0.0,-0.0176086194531635,-6.326542322781114,-2.8597804649383574,-3.9992590332461364,-0.005401705994706875,0.004658573881890446,0.43187660727040256
11539,0.0,299.48766,43435.187999999995,-0.11539001029179552,0.0,0.0,0.0,0.0,-0.017610147071049215,-6.334071682949204,-2.844630146793137,-4.024510644288276,0.003206269645284177,-0.014796998848600086,0.41061724215226664
11540,0.0,300.0978,43379.633,-0.11539998693126297,0.0,0.0,0.0,0.0,-0.017611669647291744,-6.306537118106754,-2.8494856412723375,-4.030302685834906,0.006916650568395264,0.012951096293423687,0.4318014849079886
11541,0.0,300.27661,43207.065,-0.11540999660596041,0.0,0.0,0.0,0.0,-0.01761319726517746,-6.3080114983272635,-2.8235292134606373,-4.002328066474026,0.003202114711924117,0.00984096320967745,0.4112056567503386
11542,0.0,300.77949,43206.005,-0.11542000628065796,0.0,0.0,0.0,0.0,-0.017614724883063204,-6.290607002684574,-2.850838228830827,-3.9921015358647463,0.005873799177323844,-0.0007308622823204913,0.42668340666537363
11543,0.0,300.49182,43215.182,-0.1154300159553554,0.0,0.0,0.0,0.0,-0.01761625250094892,-6.319645635975464,-2.8425884478416372,-3.9741022624133566,-0.005852311689078194,-0.012009543770499688,0.3987504521486056
11544,0.0,300.17577,43373.217000000004,-0.11543999259482274,0.0,0.0,0.0,0.0,-0.01761777507719145,-6.334609110802244,-2.8393250732445674,-4.010440856049696,0.014113334688127687,-0.005947129505610984,0.4343945844314076
11545,0.0,299.57257000000004,43510.060999999994,-0.11545000226952029,0.0,0.0,0.0,0.0,-0.017619302695077194,-6.333993865341524,-2.8817424582058373,-4.010235774229456,0.007462566518847974,0.003265729795602437,0.4054251155923436
11546,0.0,299.74467000000004,43435.475999999995,-0.11546001194421762,0.0,0.0,0.0,0.0,-0.01762083031296291,-6.326141683691573,-2.8417202951559575,-4.035438039991726,0.0016300819050765584,0.00017725404108361183,0.42783704256672855
11547,0.0,300.40016,43386.835999999996,-0.11546998858368507,0.0,0.0,0.0,0.0,-0.01762235288920544,-6.325947848947444,-2.8601338865732373,-4.002433039184386,0.002431805407575508,-0.003639701763710596,0.4124925147748416
11548,0.0,300.26589,43473.327000000005,-0.11547999825838262,0.0,0.0,0.0,0.0,-0.017623880507091155,-6.339025361363094,-2.8552862954448175,-4.020494120891875,0.002091646405904428,0.002673129866667378,0.43297920576422055
11549,0.0,300.37466,43505.848,-0.11549000793308017,0.0,0.0,0.0,0.0,-0.0176254081249769,-6.365363277837444,-2.8466606999935373,-4.012667473144446,0.0035881194302698166,0.0034939987298058268,0.43162914119847956
11550,0.0,300.85578,43439.042,-0.1154999845725474,0.0,0.0,0.0,0.0,-0.0176269307012194,-6.330496125996324,-2.8572125852099273,-4.016675282589985,-0.014813911006019186,-0.020246048143629382,0.4151606556006666
11551,0.0,300.93143,43321.03,-0.11550999424724495,0.0,0.0,0.0,0.0,-0.017628458319105145,-6.3294525797183345,-2.833474769817187,-4.005584145670376,-0.0022181877658430877,-0.01124857268039769,0.4214611561799776
11552,0.0,300.69182,43256.725,-0.1155200039219425,0.0,0.0,0.0,0.0,-0.01762998593699089,-6.306918302794373,-2.8410292585877577,-4.0010168195196165,0.0065433232300007235,-0.003768320185029246,0.4153241232392996
11553,0.0,300.1584,43385.585999999996,-0.11553001359664006,0.0,0.0,0.0,0.0,-0.017631513554876632,-6.335648604079834,-2.865354049763427,-3.987132050749296,0.012906058339728788,0.027906494503656575,0.41504198374895457
11554,0.0,300.12073,43517.134000000005,-0.11553999023610728,0.0,0.0,0.0,0.0,-0.017633036131119134,-6.341861955018044,-2.860335422018127,-4.025924736127836,-0.011595159943353188,0.00902221599092339,0.4202111804591146
11555,0.0,300.23387,43429.97,-0.11554999991080483,0.0,0.0,0.0,0.0,-0.01763456374900485,-6.337718066084074,-2.869727946470097,-3.994180421094916,-0.010852434447801889,0.002765981370056107,0.4254833233794346
11556,0.0,300.45407,43341.282,-0.11556000958550239,0.0,0.0,0.0,0.0,-0.017636091366890594,-6.312181529113815,-2.8471763429694272,-4.015309725430217,-0.0036267814063854565,-0.0023167009054905776,0.4229210773215606
11557,0.0,299.79159,43489.195,-0.11556998622496972,0.0,0.0,0.0,0.0,-0.017637613943133124,-6.331890560783943,-2.8572190700105673,-4.030519724006326,0.011635147858549688,-0.009585568962347002,0.4371603417718666
11558,0.0,299.78306000000003,43542.950999999994,-0.11557999589966717,0.0,0.0,0.0,0.0,-0.01763914156101884,-6.339995447008834,-2.858935920980007,-4.037038468524676,-0.009497864972116292,-0.009359256614086712,0.4204410463768006
11559,0.0,299.91251,43509.273,-0.11559000557436472,0.0,0.0,0.0,0.0,-0.017640669178904583,-6.346141822115434,-2.8533521023289268,-4.026238641008817,-0.004919910841057395,0.0015353576115279984,0.44391619694611756
11560,0.0,299.95743999999996,43331.77,-0.11560001524906216,0.0,0.0,0.0,0.0,-0.017642196796790327,-6.325448417973154,-2.8418109810399073,-4.0045166866900255,0.00018109423869760983,0.023826660201258277,0.4102248813160436
11561,0.0,299.61797,43344.462,-0.11560999188852938,0.0,0.0,0.0,0.0,-0.01764371937303283,-6.3229317073747735,-2.8409751510324175,-4.011727177051646,0.008145594358257572,0.027166180543343275,0.4231451778461776
11562,0.0,300.28037,43425.1,-0.11562000156322694,0.0,0.0,0.0,0.0,-0.017645246990918545,-6.319011746712904,-2.8412346443830274,-4.039899785482066,0.010048775536286931,-0.0016393895191701483,0.3962130408506826
11563,0.0,300.46693999999997,43501.752,-0.11563001123792449,0.0,0.0,0.0,0.0,-0.01764677460880429,-6.323830764188504,-2.874900182930557,-4.024715422133486,0.005367148694746335,-0.00990725722529516,0.4153782915896456
11564,0.0,300.22685,43386.346,-0.11563998787739194,0.0,0.0,0.0,0.0,-0.01764829718504682,-6.313437857912803,-2.8466194607144675,-4.028308508313096,0.017113707049491382,-0.015396427475259088,0.4126771998705686
11565,0.0,300.35433,43293.492999999995,-0.11564999755208927,0.0,0.0,0.0,0.0,-0.017649824802932534,-6.312466556366944,-2.863112335242187,-3.984561739220626,0.012199419746488988,-0.005387705816750165,0.41914214080860857
11566,0.0,300.3777,43376.895,-0.11566000722678682,0.0,0.0,0.0,0.0,-0.017651352420818278,-6.321615698144893,-2.8534151264851473,-4.010462134301796,-0.009812196330063382,-2.5479871971667578e-05,0.4303573400704626
11567,0.0,300.07116,43645.782,-0.11566998386625427,0.0,0.0,0.0,0.0,-0.017652874997060808,-6.355192982608714,-2.8650758112859673,-4.046959098928766,-0.016139516727596285,0.011835734901346089,0.4380503907922076
11568,0.0,299.79322,43572.143,-0.11567999354095182,0.0,0.0,0.0,0.0,-0.01765440261494655,-6.312769822121873,-2.8747817339938675,-4.057291716823516,-0.009074267357835461,0.017705676128914185,0.4353599078016776
11569,0.0,299.78487,43317.606,-0.11569000321564915,0.0,0.0,0.0,0.0,-0.01765593023283224,-6.313262970945544,-2.8332667495716573,-4.020940761535956,0.019254605212281582,0.014272628749598787,0.40529382877688663
11570,0.0,300.23592,43418.782999999996,-0.1157000128903467,0.0,0.0,0.0,0.0,-0.017657457850717984,-6.312490367744294,-2.852883879457717,-4.032851516461456,0.026401696515144575,-0.011101035359836888,0.4112883480909996
11571,0.0,299.97733,43633.064000000006,-0.11570998952981415,0.0,0.0,0.0,0.0,-0.017658980426960513,-6.3709462858884445,-2.858116910924177,-4.034298842904296,0.01075330616401869,-0.024831141634892875,0.4037888686683586
11572,0.0,299.68604,43536.955,-0.11571999920451148,0.0,0.0,0.0,0.0,-0.01766050804484623,-6.337654130002764,-2.856654892354887,-4.039838281200996,0.012799408700453287,-0.008985199127670112,0.42142778985418455
11573,0.0,299.5225,43279.001,-0.11573000887920903,0.0,0.0,0.0,0.0,-0.017662035662731973,-6.315323009723854,-2.8525981429295175,-3.987814576016656,0.0003751060786800876,0.0051679825325651645,0.39390209095010964
11574,0.0,299.44954,43329.151,-0.11573998551867648,0.0,0.0,0.0,0.0,-0.017663558238974503,-6.292318280778464,-2.843667457873127,-4.034994033797906,0.002296274391424638,-6.835672025703303e-05,0.4243718994772456
11575,0.0,300.10837999999995,43403.657999999996,-0.11574999519337392,0.0,0.0,0.0,0.0,-0.017665085856860246,-6.327820740432284,-2.8526094913306372,-4.0131979095717965,-0.01947476520725968,-0.009328888191364581,0.4129762910350866
11576,0.0,300.27432999999996,43640.537000000004,-0.11576000486807136,0.0,0.0,0.0,0.0,-0.017666613474745935,-6.340899671398073,-2.8807419750570973,-4.043991796010917,0.013288382933711287,-0.012335812329199888,0.4441589007425706
11577,0.0,299.82114,43589.822,-0.11577001454276903,0.0,0.0,0.0,0.0,-0.017668141092631706,-6.360676590824903,-2.8703694351084073,-4.019171322886327,0.025172794369861376,-0.011781559458249387,0.4319104396912416
11578,0.0,300.15536000000003,43551.113,-0.11577999118223625,0.0,0.0,0.0,0.0,-0.017669663668874208,-6.338046156466453,-2.871277003222977,-4.029127619693936,0.014165137099490185,0.0070166071841352125,0.4358955118045376
11579,0.0,300.3396,43614.162000000004,-0.1157900008569338,0.0,0.0,0.0,0.0,-0.017671191286759952,-6.359563940890094,-2.8508429911062976,-4.047209169053446,0.01146633127263879,-0.005164584193054775,0.4203634618166436
11580,0.0,299.92564,43706.855,-0.11580001053163114,0.0,0.0,0.0,0.0,-0.017672718904645668,-6.342256514606984,-2.8743201985733173,-4.069215947975347,-0.0016602339989023386,0.007828546172817353,0.42522218856366256
11581,0.0,300.17073999999997,43570.439000000006,-0.1158099871710988,0.0,0.0,0.0,0.0,-0.017674241480888225,-6.335292750644714,-2.8644805268522173,-4.044552224641226,-0.0016349921150611586,0.015203991016267087,0.3969296923814106
11582,0.0,300.06746,43423.765,-0.11581999684579614,0.0,0.0,0.0,0.0,-0.01767576909877394,-6.333857076578024,-2.8392367178358473,-4.0266465754990755,0.003258167707456117,-0.017165305797583782,0.41162561851928564
11583,0.0,299.15987,43503.721,-0.11583000652049347,0.0,0.0,0.0,0.0,-0.01767729671665963,-6.355278602242165,-2.859264112687397,-4.009502079832046,-0.010731092682076388,-0.014488253437129287,0.41454786220518863
11584,0.0,299.4072,43706.58,-0.11584001619519124,0.0,0.0,0.0,0.0,-0.0176788243345454,-6.373707797710984,-2.866633784639727,-4.045367485671687,-0.007326919688210674,-0.008721863937980951,0.42468207559785753
11585,0.0,299.40446000000003,43659.553,-0.11584999283465847,0.0,0.0,0.0,0.0,-0.017680346910787903,-6.358967440556224,-2.8729050934836575,-4.039541500246706,-0.016761219631203587,0.014819713889341885,0.4170406094387036
11586,0.0,299.30618,43567.22900000001,-0.11586000250935602,0.0,0.0,0.0,0.0,-0.017681874528673647,-6.326537864480674,-2.884474889750507,-4.032337089385686,-0.037372942643172265,0.011606115203434388,0.4249507895243776
11587,0.0,299.82722,43657.747,-0.11587001218405335,0.0,0.0,0.0,0.0,-0.017683402146559363,-6.361491446555323,-2.868967400945037,-4.040406207882047,-0.007766789693797463,0.015858022677564983,0.44787689026200755
11588,0.0,300.29136,43579.003,-0.11587998882352091,0.0,0.0,0.0,0.0,-0.01768492472280192,-6.361811937561954,-2.8591339100495476,-4.0259830993335965,0.01152651528882849,6.225320157666264e-05,0.43772640407273256
11589,0.0,299.99765,43620.862,-0.11588999849821835,0.0,0.0,0.0,0.0,-0.017686452340687636,-6.367880292410853,-2.876162388580127,-4.015610154084866,0.014477695371087288,-0.003252160958213297,0.4384902325281166
11590,0.0,300.64902,43678.812999999995,-0.1159000081729159,0.0,0.0,0.0,0.0,-0.017687979958573352,-6.375213487359584,-2.8617597476836973,-4.040295155671086,0.00997404266721137,-0.025545198232114773,0.4185249093776926
11591,0.0,299.80307,43595.047999999995,-0.11590998481238324,0.0,0.0,0.0,0.0,-0.01768950253481591,-6.358826598792324,-2.866870277213067,-4.026109147646036,-0.0015200950252716987,-0.004544330034440456,0.42229980302274556
11592,0.0,300.03779,43688.89,-0.11591999448708079,0.0,0.0,0.0,0.0,-0.017691030152701626,-6.354607324050915,-2.8759598398851374,-4.049764585805646,0.006570660920348743,0.009282627954074052,0.3974731794700486
11593,0.0,300.29398,43907.177,-0.11593000416177812,0.0,0.0,0.0,0.0,-0.01769255777058734,-6.387525691974703,-2.8938363074244076,-4.065323446391186,-0.013567227334731088,0.029613991148173372,0.4253951908857366
11594,0.0,299.76856000000004,43707.607,-0.11594001383647567,0.0,0.0,0.0,0.0,-0.017694085388473085,-6.373031351944223,-2.888495364822297,-4.024494533611686,-0.01031186045320139,0.007338736008226853,0.4125820455536776
11595,0.0,299.64785,43523.834,-0.11594999047594312,0.0,0.0,0.0,0.0,-0.017695607964715615,-6.368002085072874,-2.8429248468748374,-4.019231915242306,-0.01313522308834559,-0.005011682219839526,0.4555780773820556
11596,0.0,300.27877,43644.030999999995,-0.11596000015064045,0.0,0.0,0.0,0.0,-0.01769713558260133,-6.376931959529184,-2.8661721478941673,-4.023591423797556,0.004112500472372196,-0.005671321004540805,0.4256374488521456
11597,0.0,299.96802,43780.702000000005,-0.115970009825338,0.0,0.0,0.0,0.0,-0.017698663200487047,-6.379660439398464,-2.8755951711741474,-4.052984795948456,0.002221683782663118,-0.022135487015852478,0.4485647249598916
11598,0.0,300.79598,43703.328,-0.11597998646480545,0.0,0.0,0.0,0.0,-0.017700185776729604,-6.367840167706894,-2.878027478039197,-4.038852895478747,0.005343543615116695,-0.013077074691606787,0.4186890052313876
11599,0.0,300.36253,43695.46599999999,-0.115989996139503,0.0,0.0,0.0,0.0,-0.01770171339461532,-6.374356176449974,-2.8684651328704676,-4.039509177568516,0.012666827964618588,-0.005995607038095345,0.4435695944844106
11600,0.0,299.96482000000003,43748.954000000005,-0.11600000581420034,0.0,0.0,0.0,0.0,-0.017703241012501036,-6.379677056700104,-2.8567775969419973,-4.062134849651496,0.01920638362677248,0.01075841699752309,0.42303472345277654
11601,0.0,299.94591,43744.261,-0.11601001548889789,0.0,0.0,0.0,0.0,-0.01770476863038678,-6.372250440092153,-2.8846278905156075,-4.040284820520067,0.003502079298028317,0.007288299761974183,0.41947221716118455
11602,0.0,300.17253,43654.139,-0.11601999212836533,0.0,0.0,0.0,0.0,-0.01770629120662931,-6.358177814753294,-2.863423808322927,-4.048166487747926,0.011432478586797789,-0.02534322506318158,0.4097727995189266
11603,0.0,298.66128,43598.102999999996,-0.11603000180306289,0.0,0.0,0.0,0.0,-0.017707818824515054,-6.366229404022924,-2.8554498340109573,-4.031055328009186,-0.005840272048739974,-0.017773350089843085,0.41051600833477564
11604,0.0,299.40826,43648.5,-0.11604001147776044,0.0,0.0,0.0,0.0,-0.01770934644240077,-6.355879662201485,-2.877610829598077,-4.034563503830416,0.00019059308348257282,-0.01000038048236071,0.4242390319916326
11605,0.0,300.04613,43702.096,-0.11604998811722778,0.0,0.0,0.0,0.0,-0.017710869018643327,-6.381008568656514,-2.8773699800493073,-4.025967292632036,0.001145219339399349,0.008052188911039173,0.42388646148683656
11606,0.0,300.36056,43778.865,-0.11605999779192522,0.0,0.0,0.0,0.0,-0.017712396636529015,-6.361461555677374,-2.889401717036747,-4.056818529026816,-0.006138498100322594,0.013434972865428588,0.4567666602793595
11607,0.0,299.99435,43787.84099999999,-0.11607000746662255,0.0,0.0,0.0,0.0,-0.01771392425441473,-6.388154312336744,-2.885066526483897,-4.037189645439596,-0.016980925690136883,0.0035645990583485364,0.4371894524472396
11608,0.0,300.1702,43866.934,-0.1160799841060901,0.0,0.0,0.0,0.0,-0.01771544683065729,-6.365134283314844,-2.8905555049256173,-4.0787628917425565,0.0036312068775222165,0.004631396082408206,0.4418398245761956
11609,0.0,300.00356,43951.565,-0.11608999378078744,0.0,0.0,0.0,0.0,-0.017716974448543005,-6.386361467609804,-2.916207147107237,-4.057609674704896,-0.01014982453695969,0.004593732157641066,0.3943779435945726
11610,0.0,300.49311,43874.415,-0.11610000345548499,0.0,0.0,0.0,0.0,-0.01771850206642875,-6.376581071019554,-2.888834600955777,-4.071310842557096,0.006602465219787584,0.0017421495952867781,0.4368269926214676
11611,0.0,300.47198,43559.145,-0.11611001313018243,0.0,0.0,0.0,0.0,-0.017720029684314437,-6.367904002463194,-2.852610605905747,-4.020377698455386,-0.0027239126444542476,-0.0029819533997208873,0.40602592223913864
11612,0.0,300.01122999999995,43588.824,-0.11611998976964999,0.0,0.0,0.0,0.0,-0.017721552260557022,-6.346597075385365,-2.862974127928547,-4.040342778425786,-0.0004616250019913405,0.012189861758295688,0.42377406165324366
11613,0.0,299.80099,43725.871,-0.11612999944434732,0.0,0.0,0.0,0.0,-0.01772307987844271,-6.383338638586474,-2.8487629913010175,-4.059471319113626,-0.006566362713424544,-0.0013052325044664186,0.4154099353902686
11614,0.0,299.65862000000004,43815.21599999999,-0.11614000911904487,0.0,0.0,0.0,0.0,-0.017724607496328454,-6.357187970730603,-2.898064498766697,-4.063479128559166,-0.004509114527214956,-0.00018187982163264083,0.4192638828081236
11615,0.0,299.58744,43723.515999999996,-0.11614998575851232,0.0,0.0,0.0,0.0,-0.017726130072570984,-6.371171531385674,-2.8687731609008678,-4.050912496843936,0.0013404290639150486,0.003409821255223157,0.4223726151749316
11616,0.0,299.48005,43859.649000000005,-0.11615999543320987,0.0,0.0,0.0,0.0,-0.017727657690456727,-6.395274522114454,-2.893608528801927,-4.043355170973086,0.003290620182983927,-0.01263091331482409,0.43175492606589355
11617,0.0,299.4519,43882.295,-0.1161700051079072,0.0,0.0,0.0,0.0,-0.017729185308342443,-6.400151396170765,-2.8955638988449075,-4.043406542753156,-0.004212848303975756,0.0002846976732699727,0.4307589113500946
11618,0.0,299.5174,43877.432,-0.11618001478260453,0.0,0.0,0.0,0.0,-0.01773071292622813,-6.375628919900584,-2.893606603626737,-4.068408286320636,-0.013230557763754387,-0.0003589486102004697,0.43831247806307355
11619,0.0,300.18702,43909.899000000005,-0.1161899914220722,0.0,0.0,0.0,0.0,-0.017732235502470717,-6.388225037193724,-2.894099549800387,-4.065188380152856,-0.0073755528559103925,0.012817345253723487,0.4323322759728736
11620,0.0,300.20569,43758.324,-0.11620000109676953,0.0,0.0,0.0,0.0,-0.017733763120356405,-6.335107731176453,-2.8938128000220873,-4.072517420776175,-0.016475394950244884,0.015389303313805985,0.4127574290134866
11621,0.0,299.9027,43615.83,-0.11621001077146709,0.0,0.0,0.0,0.0,-0.01773529073824215,-6.348006708924484,-2.8870639464060273,-4.023052577394376,-0.003986322666569416,0.004891783220931415,0.4017242803970996
11622,0.0,300.3695,43779.272000000004,-0.11621998741093442,0.0,0.0,0.0,0.0,-0.01773681331448468,-6.390596042427724,-2.8759731134614475,-4.041236363688976,0.0031917774330789067,-0.017040736830289782,0.4229817000750436
11623,0.0,300.05323,43955.925,-0.11622999708563198,0.0,0.0,0.0,0.0,-0.017738340932370422,-6.402710865923364,-2.888699433392437,-4.070093219911926,0.009652469408149561,-0.01091105299258709,0.4300562325382456
11624,0.0,300.17097,43702.742999999995,-0.11624000676032942,0.0,0.0,0.0,0.0,-0.017739868550256138,-6.354390893829554,-2.8820496756361575,-4.048101842391546,0.0016174871050085482,-0.005049211686318395,0.41071431151184656
11625,0.0,300.44597999999996,43684.893,-0.11625001643502686,0.0,0.0,0.0,0.0,-0.017741396168141854,-6.352424985985534,-2.873418000684277,-4.053273572226956,-0.0012656529290602189,0.004515420691862325,0.4314541630387106
11626,0.0,300.26851,43925.051,-0.1162599930744943,0.0,0.0,0.0,0.0,-0.017742918744384384,-6.378762193184814,-2.8938722778029575,-4.079484021838726,-0.015344673699901385,0.024696401663095075,0.42885690918988156
11627,0.0,300.022,44089.265,-0.11627000274919186,0.0,0.0,0.0,0.0,-0.017744446362270128,-6.426332056229594,-2.899801006788077,-4.075902790685286,-0.007774993574557123,0.004333761464908956,0.4521752187762196
11628,0.0,300.12657,43958.931,-0.11628001242388919,0.0,0.0,0.0,0.0,-0.017745973980155844,-6.427611487130863,-2.890807398900477,-4.043998382136566,-0.011331195120051887,0.0014221516361554386,0.42352688942384964
11629,0.0,299.71155,43833.177,-0.11628998906335686,0.0,0.0,0.0,0.0,-0.0177474965563984,-6.3912323634905235,-2.8806150148195675,-4.052343813935196,-0.0016478842027085085,-0.013319994310331087,0.4479661778608196
11630,0.0,299.58367999999996,43824.867,-0.11629999873805419,0.0,0.0,0.0,0.0,-0.017749024174284117,-6.378732302306864,-2.884165240519947,-4.058767515594166,-0.0003194698025167147,-0.0026871565917767075,0.4110660612840616
11631,0.0,299.57417000000004,43960.632000000005,-0.11631000841275152,0.0,0.0,0.0,0.0,-0.017750551792169833,-6.389335761953344,-2.889714304692597,-4.083884263047996,0.005611098788822334,-0.007279023153333654,0.4376340361936166
11632,0.0,300.04546,43971.584,-0.11631998505221919,0.0,0.0,0.0,0.0,-0.01775207436841239,-6.375591632296904,-2.9063317076576074,-4.084340326918006,0.003331761784744287,0.007931388930142141,0.3897179455896666
11633,0.0,300.50669,43819.249,-0.11632999472691652,0.0,0.0,0.0,0.0,-0.01775360198629808,-6.385353486410324,-2.8777510634119174,-4.0568528782052065,0.01071776743001129,-0.006314641092406555,0.44662875865632656
11634,0.0,300.23609,43630.176,-0.11634000440161407,0.0,0.0,0.0,0.0,-0.017755129604183822,-6.371977673165234,-2.863523816107797,-4.026982771882256,-0.004153164833335456,-0.008925382414641662,0.4096557286023726
11635,0.0,300.09713999999997,43943.405999999995,-0.1163500140763114,0.0,0.0,0.0,0.0,-0.01775665722206954,-6.402456742798284,-2.8816510630468173,-4.073590351307066,0.007049811896537263,-0.023363424547040476,0.4688355936779705
11636,0.0,300.29708,44191.179000000004,-0.11635999071577896,0.0,0.0,0.0,0.0,-0.017758179798312096,-6.4201409967935845,-2.915946235206487,-4.096927628935276,0.01116642140203999,-0.009073965307980651,0.4170000693022026
11637,0.0,299.65855,44038.994000000006,-0.1163700003904764,0.0,0.0,0.0,0.0,-0.017759707416197812,-6.395764833837844,-2.9135942790743674,-4.077395510732606,0.01134753276466429,-0.005785622201946454,0.4335533943308886
11638,0.0,300.1814,43922.25,-0.11638001006517396,0.0,0.0,0.0,0.0,-0.017761235034083556,-6.378992302282524,-2.901778567008247,-4.070496493451726,-0.0017983854824618283,0.016424134627685882,0.4193645289405566
11639,0.0,300.34901,44039.651,-0.11638998670464129,0.0,0.0,0.0,0.0,-0.017762757610326085,-6.428898517407884,-2.8911061050299574,-4.066949814126696,-0.010413824824014489,0.004194907697705155,0.4333011457184936
11640,0.0,299.57923,44036.272000000004,-0.11639999637933884,0.0,0.0,0.0,0.0,-0.0177642852282118,-6.406064419779334,-2.902038566983907,-4.077824216849916,-0.006853465305409363,0.012819770974462887,0.42384568830281255
11641,0.0,298.71715,43907.276,-0.11641000605403617,0.0,0.0,0.0,0.0,-0.017765812846097517,-6.401753749878903,-2.8788838770237177,-4.066077811090636,0.0005173772952911636,-0.005140854281012816,0.43159591672770053
11642,0.0,299.5217,43833.175,-0.11642001572873362,0.0,0.0,0.0,0.0,-0.017767340463983233,-6.385532325052973,-2.8683551952346176,-4.070303064007636,0.009719555278720421,-0.007317179821624424,0.4490436173546546
11643,0.0,299.53136,43793.005999999994,-0.11642999236820117,0.0,0.0,0.0,0.0,-0.01776886304022579,-6.392580898048614,-2.853358789779587,-4.066040624811966,0.012801793891188688,-0.024563827006760977,0.42118763944798354
11644,0.0,300.10291,44054.295999999995,-0.1164400020428985,0.0,0.0,0.0,0.0,-0.017770390658111507,-6.411193491785534,-2.898907320199877,-4.081304933593436,0.003010445891207877,-0.006949926816254374,0.4419251301021146
11645,0.0,300.56171,44158.334,-0.11645001171759606,0.0,0.0,0.0,0.0,-0.01777191827599725,-6.446601820505064,-2.9035827601363073,-4.072846321758636,0.007066284303412962,-0.012292323634907888,0.4231429385634566
11646,0.0,300.04897,44038.087,-0.1164599883570635,0.0,0.0,0.0,0.0,-0.01777344085223978,-6.420096109814153,-2.8984467980294273,-4.067935807799006,-0.0015484661293967085,0.014455087734856088,0.4507748666080155
11647,0.0,299.6826,44003.435,-0.11646999803176106,0.0,0.0,0.0,0.0,-0.017774968470125496,-6.410461519913294,-2.9072809203512873,-4.058203135288466,-0.0037772270587082863,-0.00020188064906656881,0.4167890397038756
11648,0.0,300.04205,44217.855,-0.11648000770645839,0.0,0.0,0.0,0.0,-0.017776496088011212,-6.422905953666464,-2.9256587440400375,-4.092559001129126,-0.0026082779085919877,-0.001859795733922548,0.4300770953578046
11649,0.0,300.00673,44037.175,-0.11648998434592583,0.0,0.0,0.0,0.0,-0.017778018664253742,-6.402881699890224,-2.910778051746427,-4.072541840103586,-0.004377240735975026,-0.0024887737732478474,0.4092681097766176
11650,0.0,299.78722999999997,43768.902,-0.11649999402062339,0.0,0.0,0.0,0.0,-0.017779546282139486,-6.376217516883673,-2.8880497374283176,-4.040386044205056,-0.017340530177127084,0.028492033497944772,0.42219132446703966
11651,0.0,299.92076000000003,43755.874,-0.11651000369532094,0.0,0.0,0.0,0.0,-0.01778107390002523,-6.401486049202484,-2.8532211904160074,-4.045985973532726,-0.008808500266581292,0.015426431837220285,0.4196685039705566
11652,0.0,299.52574,43913.89599999999,-0.11652001337001827,0.0,0.0,0.0,0.0,-0.017782601517910945,-6.376118623673914,-2.8938223245730272,-4.078786905769926,-0.024520383908723478,0.03103486467065267,0.4318433726671226
11653,0.0,299.94962999999996,44006.794,-0.1165299900094856,0.0,0.0,0.0,0.0,-0.017784124094153475,-6.388539246049734,-2.906746532248547,-4.081680646730517,0.013988018955509988,-0.01145173033869779,0.4257811378488266
11654,0.0,300.02832,44182.03,-0.11653999968418316,0.0,0.0,0.0,0.0,-0.01778565171203919,-6.403102081786973,-2.9152976538174773,-4.111834057781426,0.01056582348476559,-0.01109205999045109,0.4385359199751256
11655,0.0,300.06431000000003,44218.816,-0.1165500093588806,0.0,0.0,0.0,0.0,-0.017787179329924907,-6.412334006098094,-2.934112694924377,-4.094969219141996,0.029696157625282573,-0.024275642466319376,0.4204051165282546
11656,0.0,300.29305,44180.139,-0.11655998599834794,0.0,0.0,0.0,0.0,-0.017788701906167437,-6.446186590614085,-2.9142954481435677,-4.0691771404965165,0.005781029544543194,-0.02080559929935278,0.4243864700136836
11657,0.0,300.42677000000003,44185.114,-0.11656999567304549,0.0,0.0,0.0,0.0,-0.01779022952405318,-6.442175133468184,-2.908574739403977,-4.080421582156257,0.0033373164217924867,-0.0024230351200099478,0.43612755620993865
11658,0.0,300.36235,44137.917,-0.11658000534774304,0.0,0.0,0.0,0.0,-0.017791757141938924,-6.431407932605544,-2.8891560038874973,-4.096260809044466,-0.030410202063503266,0.01240018512130299,0.4473350446385315
11659,0.0,300.5301,43982.835,-0.11659001502244037,0.0,0.0,0.0,0.0,-0.01779328475982464,-6.403081208834914,-2.8897010311162874,-4.076901247333827,-0.011591429156484988,0.014261658290766087,0.4366241906139526
11660,0.0,299.36192,43915.052,-0.11659999166190782,0.0,0.0,0.0,0.0,-0.01779480733606717,-6.386123556486324,-2.898410928975887,-4.064544763689336,-0.00996485451530457,0.012340746857186887,0.4129701000769756
11661,0.0,299.56345,44084.983,-0.11661000133660537,0.0,0.0,0.0,0.0,-0.017796334953952886,-6.3992837501101345,-2.921129414768027,-4.080321067746336,0.021914896389581877,-0.0007758047067959633,0.4149228052721926
11662,0.0,300.17341,44059.782,-0.11662001101130293,0.0,0.0,0.0,0.0,-0.01779786257183863,-6.430610910076885,-2.9008967354462176,-4.061565707070326,-0.0014217943641701785,-0.005910672260387934,0.42546765853288854
11663,0.0,299.4821,43943.577000000005,-0.11662998765077015,0.0,0.0,0.0,0.0,-0.01779938514808113,-6.388400836086074,-2.9056871792689973,-4.0636621215272255,0.018903628549892883,-0.018863791608961282,0.4190050278050766
11664,0.0,299.34157999999996,44017.825999999994,-0.1166399973254677,0.0,0.0,0.0,0.0,-0.017800912765966875,-6.396707663055894,-2.9010354493849073,-4.082576866443967,-0.003226204023776547,-0.006022775211701635,0.42910865117722663
11665,0.0,300.53631,44174.97,-0.11665000700016526,0.0,0.0,0.0,0.0,-0.01780244038385262,-6.399805371261614,-2.9331694604062872,-4.0951128980061755,0.0076716754002854135,-0.018341944502708984,0.4374120533617086
11666,0.0,300.15079,44176.100999999995,-0.1166599836396327,0.0,0.0,0.0,0.0,-0.01780396296009515,-6.415520272362553,-2.9076454877372675,-4.105265967983207,-0.0036223038541935565,-0.014269067175497288,0.43918509918169457
11667,0.0,300.60037,44354.057,-0.11666999331433003,0.0,0.0,0.0,0.0,-0.017805490577980865,-6.456864017517864,-2.9224007396684972,-4.1032612526603565,-0.0007613139840683403,-0.020672319420949083,0.42999991609768756
11668,0.0,300.48416000000003,44237.895,-0.11668000298902759,0.0,0.0,0.0,0.0,-0.01780701819586658,-6.457037891235023,-2.917382922523277,-4.072794646003536,0.0019281380346174081,-0.00037400063295348865,0.43254331570370164
11669,0.0,299.81841000000003,43987.456,-0.11669001266372514,0.0,0.0,0.0,0.0,-0.017808545813752324,-6.403137950840514,-2.901453719026187,-4.0664965873569665,0.006628616495593514,-0.005643044537975135,0.42118325207505064
11670,0.0,300.4637,44206.038,-0.11669998930319236,0.0,0.0,0.0,0.0,-0.017810068389994826,-6.426744854320335,-2.9086693769633176,-4.102117495947476,-0.0094581791067746,0.023634843851327476,0.4341555587328176
11671,0.0,301.36938,44257.265999999996,-0.11670999897788992,0.0,0.0,0.0,0.0,-0.01781159600788057,-6.421594301412014,-2.9170524003406575,-4.114456956990287,-0.001207687626614489,0.01088302345507079,0.4216446963030916
11672,0.0,300.55719,43921.802,-0.11672000865258736,0.0,0.0,0.0,0.0,-0.017813123625766314,-6.387495497121724,-2.8821822087492373,-4.0814532734080755,-0.011705219169215188,0.03749992010595396,0.4234668644879256
11673,0.0,300.05993,43897.97900000001,-0.1167299852920548,0.0,0.0,0.0,0.0,-0.017814646202008844,-6.402045667232715,-2.895391848977927,-4.0464519672537165,-0.0016354566902320085,0.009587805407967722,0.4175715119610996
11674,0.0,299.74872,44152.990999999995,-0.11673999496675214,0.0,0.0,0.0,0.0,-0.01781617381989456,-6.444291407627044,-2.8886571808632673,-4.088458276649416,-0.002328468082876908,0.0024576276810739676,0.45477049678735354
11675,0.0,300.10533,44296.29,-0.11675000464144991,0.0,0.0,0.0,0.0,-0.017817701437780303,-6.4400637229098034,-2.923211947698557,-4.101690411030326,-0.0025706752854558978,0.0002853482912916837,0.43215566648044357
11676,0.0,300.13388,44335.905999999995,-0.11676001431614724,0.0,0.0,0.0,0.0,-0.01781922905566602,-6.438633520393653,-2.9213720881669767,-4.117002545216517,0.006394876922775214,-0.002111952647183498,0.4491246672301536
11677,0.0,299.61869,44251.926,-0.11676999095561469,0.0,0.0,0.0,0.0,-0.01782075163190855,-6.418571472388685,-2.9234917060511676,-4.109417253642905,-0.007137937094834543,-0.00936131148528951,0.42779280406736253
11678,0.0,299.60605,44249.572,-0.11678000063031202,0.0,0.0,0.0,0.0,-0.017822279249794265,-6.418444410826144,-2.934007114263957,-4.098313248447027,-0.005504499102776765,-0.004627998452172886,0.4349077652095546
11679,0.0,300.11421,44295.973,-0.11679001030500957,0.0,0.0,0.0,0.0,-0.01782380686768001,-6.4680314521700035,-2.9153814496007473,-4.081456819783426,0.0019845129397061782,-0.003643276307413377,0.40478115462378966
11680,0.0,300.64517,44253.16099999999,-0.11679998694447702,0.0,0.0,0.0,0.0,-0.01782532944392254,-6.444433566616074,-2.9140983709991173,-4.093324106279636,0.00035705481536606664,0.01131922255687029,0.42429571320222664
11681,0.0,300.9537,43929.933,-0.11680999661917435,0.0,0.0,0.0,0.0,-0.017826857061808254,-6.407442034615293,-2.899361357569687,-4.046799208062986,0.007464025092366924,-0.02182081206479648,0.4105537113709966
11682,0.0,300.28717,43920.457,-0.11682000629387213,0.0,0.0,0.0,0.0,-0.017828384679693998,-6.387271062224574,-2.881279504235147,-4.082171769053986,-0.003532197650625767,-0.008438864400951072,0.4380304500302396
11683,0.0,299.75752,44248.776,-0.11683001596856946,0.0,0.0,0.0,0.0,-0.017829912297579714,-6.415796079039773,-2.9172868664137974,-4.117440066609697,0.006107044993368415,0.0028759946956885773,0.4239933492398856
11684,0.0,299.78454,44451.99,-0.1168399926080369,0.0,0.0,0.0,0.0,-0.017831434873822244,-6.444949614892003,-2.9307673483942174,-4.136577827873446,0.0046107695527725255,0.023025039543644477,0.4604947721672955
11685,0.0,299.79342,44178.804000000004,-0.11685000228273423,0.0,0.0,0.0,0.0,-0.01783296249170796,-6.439333372237724,-2.9109274048111673,-4.078992595540226,-0.005975414787452525,0.00927770031618773,0.43720877512664663
11686,0.0,299.07369,44156.499,-0.1168600119574319,0.0,0.0,0.0,0.0,-0.01783449010959373,-6.429061549348974,-2.9155148946389176,-4.077896461582046,-0.021956844943721878,0.0017055942674540484,0.44943724475350255
11687,0.0,299.33401000000003,44329.448,-0.11686998859689912,0.0,0.0,0.0,0.0,-0.017836012685836233,-6.4601764334197735,-2.9113320969011074,-4.103536552712526,-0.004101939771879936,0.0038031621069428766,0.43420431632762957
11688,0.0,300.10183,44406.63,-0.11687999827159667,0.0,0.0,0.0,0.0,-0.017837540303721977,-6.454190455804004,-2.923197052922087,-4.121119076397786,0.008761153014583483,-0.0010436711104023192,0.43382674894286655
11689,0.0,300.03283999999996,44245.078,-0.11689000794629423,0.0,0.0,0.0,0.0,-0.017839067921607693,-6.427194737364734,-2.911502322917907,-4.110701852119686,0.008450045919779601,-0.01967751857876988,0.41906072616307355
11690,0.0,300.51306,44109.079000000005,-0.11689998458576167,0.0,0.0,0.0,0.0,-0.01784059049785025,-6.430909818856384,-2.8948355746730274,-4.082313117442936,-0.0025975150647047775,-0.02060594343339828,0.42879193959346956
11691,0.0,301.00352000000004,44133.587,-0.116909994260459,0.0,0.0,0.0,0.0,-0.01784211811573594,-6.452829863569724,-2.8990054028095575,-4.0636731659533165,0.012789930759017886,0.00024726932915108274,0.41948876353531755
11692,0.0,300.25253,44390.055,-0.11692000393515656,0.0,0.0,0.0,0.0,-0.017843645733621682,-6.448653955932594,-2.932870450301777,-4.111943894092266,0.001162996001803769,0.026860588366183675,0.4214176269556816
11693,0.0,300.12933,44518.932,-0.11693001360985411,0.0,0.0,0.0,0.0,-0.017845173351507426,-6.469194663284804,-2.9401519694954072,-4.1232970574877355,-0.0054232583309589254,0.008600471813725481,0.4434889093789476
11694,0.0,299.92154,44209.38,-0.11693999024932134,0.0,0.0,0.0,0.0,-0.017846695927749928,-6.416146866224394,-2.916138752725487,-4.106261992831506,-0.005290294181286385,-0.014077375455328788,0.4271561384995286
11695,0.0,299.42177000000004,44101.055,-0.11694999992401889,0.0,0.0,0.0,0.0,-0.017848223545635672,-6.412891901603154,-2.9071966179429674,-4.085530895785506,-0.0026039523439150875,0.008090052547401022,0.44583973067095556
11696,0.0,300.48677999999995,44403.328,-0.11696000959871644,0.0,0.0,0.0,0.0,-0.017849751163521388,-6.467838124050924,-2.9283150805021974,-4.101349655021696,0.018353755959124682,0.0028722241894164574,0.4327693110060056
11697,0.0,300.25182,44466.837999999996,-0.11696998623818389,0.0,0.0,0.0,0.0,-0.017851273739763945,-6.484500312670353,-2.9202187055781472,-4.112089295481616,-0.005220213042094915,0.01206901547186909,0.4640855987991826
11698,0.0,299.88856,44193.765999999996,-0.11697999591288122,0.0,0.0,0.0,0.0,-0.017852801357649634,-6.448634602855684,-2.9073029078784574,-4.077863936253836,-0.006176653350063224,0.0012926793489775187,0.4115684002861386
11699,0.0,299.96315,44247.329000000005,-0.11699000558757877,0.0,0.0,0.0,0.0,-0.017854328975535377,-6.441969848997924,-2.9158007324921273,-4.0923125787048065,-0.00016927189997583583,0.003285812108609407,0.4481361100350906
11700,0.0,299.92525,44370.018,-0.11700001526227632,0.0,0.0,0.0,0.0,-0.01785585659342112,-6.447008437770194,-2.917958955205127,-4.122410159675206,0.0042270464710020056,-0.00973976212016468,0.4207803939677916
11701,0.0,300.03005,44399.327000000005,-0.11700999190174366,0.0,0.0,0.0,0.0,-0.01785737916966365,-6.451526621291103,-2.9176467728493174,-4.127113463989386,0.006372831741674524,-0.027051234412248975,0.44212433507177457
11702,0.0,300.46858,44408.345,-0.1170200015764411,0.0,0.0,0.0,0.0,-0.017858906787549367,-6.465636128933603,-2.9223521036636972,-4.111039771028036,0.006289114485287274,-0.02804689854351337,0.41721923529883265
11703,0.0,300.26743,44395.168,-0.11703001125113865,0.0,0.0,0.0,0.0,-0.017860434405435083,-6.453814337366884,-2.930367215929727,-4.110841072683426,0.007130870080687084,-0.0009558225091173371,0.44120980592901754
11704,0.0,300.24432,44305.640999999996,-0.11703998789060599,0.0,0.0,0.0,0.0,-0.01786195698167764,-6.440310145334124,-2.9282361483194075,-4.099262157165676,0.01820738083642858,0.006357313816393024,0.4215041078517166
11705,0.0,300.48152000000005,44488.262,-0.11704999756530332,0.0,0.0,0.0,0.0,-0.01786348459956333,-6.450930222282244,-2.942235110375997,-4.130155240789587,-0.03263876561169537,0.01030152327568119,0.4486760406158776
11706,0.0,301.03542999999996,44558.094000000005,-0.11706000724000087,0.0,0.0,0.0,0.0,-0.017865012217449072,-6.4477181181402345,-2.950504751067147,-4.146325192510436,-0.016376682099002685,0.01060536962291849,0.4270439210509536
11707,0.0,300.58873,44281.575999999994,-0.11706998387946832,0.0,0.0,0.0,0.0,-0.017866534793691602,-6.440639958241674,-2.9125824475245072,-4.1072707846310665,-0.020940920876707982,0.018531335131900382,0.4603751782579925
11708,0.0,299.84103999999996,44188.168,-0.11707999355416587,0.0,0.0,0.0,0.0,-0.017868062411577346,-6.441128648764903,-2.916387910925077,-4.074583032430036,0.01025609319419759,0.006416049594214795,0.42263453019328057
11709,0.0,300.13665,44530.347,-0.1170900032288632,0.0,0.0,0.0,0.0,-0.01786959002946306,-6.488873702751974,-2.9288535216053373,-4.118386239553076,-0.010939770526921291,-0.012425292445530887,0.44920614267069453
11710,0.0,300.0767,44591.382000000005,-0.11710001290356076,0.0,0.0,0.0,0.0,-0.017871117647348778,-6.475785956510314,-2.9543332152449873,-4.124547610761156,0.008791532684381721,-0.013180992608612685,0.4241156079969516
11711,0.0,299.91932,44286.945,-0.1171099895430282,0.0,0.0,0.0,0.0,-0.017872640223591307,-6.452936254830224,-2.9098974360845173,-4.0992916427435855,0.009917340887640342,0.0014037003518344387,0.4295423728825316
11712,0.0,299.88639,44237.883,-0.11711999921772576,0.0,0.0,0.0,0.0,-0.01787416784147705,-6.434328929993824,-2.9025060805800473,-4.110377004137626,0.01190793403722159,-0.009309828653008553,0.4128621078813176
11713,0.0,299.48045,44394.203,-0.11713000889242309,0.0,0.0,0.0,0.0,-0.017875695459362767,-6.482701489767823,-2.9133804833032673,-4.098647114354976,-0.015847863832062384,-0.00971644632343859,0.4463478857286066
11714,0.0,299.74568999999997,44547.823,-0.11713998553189064,0.0,0.0,0.0,0.0,-0.017877218035605325,-6.483329907479844,-2.939171346048627,-4.118924579331206,0.0007727003415370862,-0.015950067329899086,0.42664600760418264
11715,0.0,299.89566,44567.429000000004,-0.11714999520658809,0.0,0.0,0.0,0.0,-0.01787874565349104,-6.481673851516404,-2.934269444714847,-4.131442372391616,-0.0033721654364568168,0.01893083532832798,0.44249838647869055
11716,0.0,300.52505,44482.931,-0.11716000488128542,0.0,0.0,0.0,0.0,-0.017880273271376756,-6.458374165466903,-2.943234276299607,-4.120091843446406,0.0002943323138333377,-0.004988869501788086,0.43968213888574853
11717,0.0,300.29261,44355.138,-0.11717001455598297,0.0,0.0,0.0,0.0,-0.017881800889262472,-6.437452374752084,-2.931617769203147,-4.113784361573907,-0.015765830090716287,0.012402040382236088,0.4446552007740516
11718,0.0,300.32371,44573.357,-0.11717999119545042,0.0,0.0,0.0,0.0,-0.017883323465505002,-6.455645280297585,-2.951031033169087,-4.142511217809026,-0.004407182783055076,0.00875862201715869,0.4421882306230806
11719,0.0,300.33191,44693.585999999996,-0.11719000087014786,0.0,0.0,0.0,0.0,-0.017884851083390746,-6.504093935154094,-2.9466039408321674,-4.135036269171306,0.013565004264011688,0.007780852490610353,0.45401057947735557
11720,0.0,300.24371,44397.665,-0.1172000105448453,0.0,0.0,0.0,0.0,-0.017886378701276462,-6.455163074574994,-2.930194963412727,-4.110423512317216,0.015908342704031183,-8.576689921953391e-05,0.4320584046033446
11721,0.0,299.467,44230.58,-0.11720998718431286,0.0,0.0,0.0,0.0,-0.01788790127751902,-6.444265671074503,-2.9107331647669974,-4.089992945250875,0.01016460785591869,-0.012829048292378487,0.4314344350592636
11722,0.0,300.05469,44544.797,-0.11721999685901019,0.0,0.0,0.0,0.0,-0.017889428895404735,-6.463261475999244,-2.949746941317357,-4.127497485777286,0.02444902779693118,-0.015918060785740283,0.4276678703300326
11723,0.0,299.85269,44726.070999999996,-0.11723000653370774,0.0,0.0,0.0,0.0,-0.01789095651329048,-6.485518325045824,-2.9498406669516073,-4.160249680684676,0.00990540571338743,-0.0002018572936517638,0.4259558120335656
11724,0.0,299.51088,44509.022000000004,-0.11724001620840507,0.0,0.0,0.0,0.0,-0.017892484131176167,-6.470916783154764,-2.9397375502045073,-4.118977167011396,0.011660144738516688,-0.027320504613073872,0.4206380120637396
11725,0.0,300.24584,44345.532,-0.11724999284787274,0.0,0.0,0.0,0.0,-0.017894006707418725,-6.475310336913373,-2.9015208975078175,-4.103103084319746,-0.01001516177481951,-0.017237375237446485,0.4548759457252606
11726,0.0,300.29488,44469.433,-0.11726000252257007,0.0,0.0,0.0,0.0,-0.01789553432530444,-6.463842878906624,-2.9356699590030675,-4.118084594998306,0.015315225612245088,-0.014228844186277586,0.43400949873090255
11727,0.0,299.81051,44578.666,-0.1172700121972674,0.0,0.0,0.0,0.0,-0.017897061943190157,-6.496590514188564,-2.936598501394707,-4.117612521776716,0.0036445649588905567,0.020066811293690083,0.45888305602823154
11728,0.0,299.58361,44643.077000000005,-0.11727998883673507,0.0,0.0,0.0,0.0,-0.017898584519432714,-6.482932004165574,-2.944971189621027,-4.142477679230716,-0.003877730322877186,0.004859629755508115,0.4295047610388196
11729,0.0,300.04433,44481.198,-0.1172899985114324,0.0,0.0,0.0,0.0,-0.01790011213731843,-6.462921327940673,-2.9289227265871673,-4.129329441958086,-0.017339712484296384,0.011141862246116189,0.45553284589759163
11730,0.0,299.34337,44334.969000000005,-0.11730000818612996,0.0,0.0,0.0,0.0,-0.017901639755204174,-6.451399762378585,-2.930920754459357,-4.094403014986116,-0.009669206273301362,0.012812484692993788,0.4285016434398196
11731,0.0,299.73434,44676.965,-0.1173099848255974,0.0,0.0,0.0,0.0,-0.017903162331446704,-6.5091627187793435,-2.9417838087814574,-4.129735248623136,0.013821642275839886,0.012005031767804387,0.4541908265376446
11732,0.0,300.33814,44873.072,-0.11731999450029484,0.0,0.0,0.0,0.0,-0.01790468994933242,-6.520716100394574,-2.956344010068437,-4.163233195604126,0.018875406494857583,-0.02039081827816708,0.43490018609880654
11733,0.0,300.07875,44589.879,-0.11733000417499229,0.0,0.0,0.0,0.0,-0.017906217567218136,-6.4964712546517935,-2.924036935929977,-4.133701616139587,0.005080397599221206,-0.024899363764125874,0.4370003901110806
11734,0.0,299.98906,44341.937999999995,-0.11734001384968984,0.0,0.0,0.0,0.0,-0.01790774518510388,-6.432080426696914,-2.937808119364087,-4.108953387747126,0.02428157707215508,-0.02013685220685258,0.4164690654547966
11735,0.0,299.95499,44572.845,-0.11734999048915717,0.0,0.0,0.0,0.0,-0.01790926776134641,-6.465752247395065,-2.9412497246537472,-4.142029924011526,0.0041506359637358764,0.009894678839878771,0.4237213017205366
11736,0.0,299.56144,44673.427,-0.11736000016385473,0.0,0.0,0.0,0.0,-0.017910795379232153,-6.504350692729434,-2.937098438994047,-4.138157180804316,0.007381915255938312,0.007046297235915393,0.4356335359911826
11737,0.0,299.13154,44585.845,-0.11737000983855206,0.0,0.0,0.0,0.0,-0.01791232299711787,-6.4882953395948935,-2.934661065878497,-4.130027165976946,-0.014411798650833788,0.007224179775771033,0.43815920372044664
11738,0.0,299.33985,44402.918,-0.11737998647801973,0.0,0.0,0.0,0.0,-0.017913845573360426,-6.468472621263544,-2.9194999059572075,-4.109405702591767,-0.00016843899826113484,0.011230974552660889,0.4388519425488146
11739,0.0,299.7604,44439.119000000006,-0.11738999615271706,0.0,0.0,0.0,0.0,-0.017915373191246114,-6.465686183488544,-2.938593286866577,-4.104103162168446,-0.017205918888091982,0.015833410832635984,0.4277034759385466
11740,0.0,300.67535,44616.535,-0.11740000582741439,0.0,0.0,0.0,0.0,-0.01791690080913183,-6.462564157280424,-2.9583171119881673,-4.141431194527436,-0.02057481537707618,0.003979980632868506,0.4277275608934236
11741,0.0,300.14531,44770.227999999996,-0.11741001550211194,0.0,0.0,0.0,0.0,-0.017918428427017574,-6.497208799399584,-2.968415871759837,-4.143406728247406,-0.026702178872049873,-0.0025993899826898172,0.44724648657979155
11742,0.0,300.34331000000003,44746.562999999995,-0.11741999214157939,0.0,0.0,0.0,0.0,-0.017919951003260104,-6.502360162907984,-2.9603167610605174,-4.1391610076783865,-0.0002588665743631418,0.0004936810839475295,0.4496583967203286
11743,0.0,300.20734,44572.74,-0.11743000181627694,0.0,0.0,0.0,0.0,-0.017921478621145848,-6.488253796340794,-2.9390921098908076,-4.121654072450586,0.0006594449195596464,0.006580319726926994,0.43506305591988054
11744,0.0,299.76006,44641.349,-0.11744001149097427,0.0,0.0,0.0,0.0,-0.017923006239031564,-6.495339048990053,-2.935681408729197,-4.138834943796206,0.016369787945322286,-0.01956260081867838,0.4380308857277826
11745,0.0,300.45839,44852.76,-0.11744998813044194,0.0,0.0,0.0,0.0,-0.01792452881527412,-6.521790652125623,-2.961310050133547,-4.151018465648626,0.016789309963725883,-0.024622084834510578,0.42550770217684064
11746,0.0,299.78044,44736.763,-0.11745999780513927,0.0,0.0,0.0,0.0,-0.01792605643315981,-6.471956580407384,-2.950732225714597,-4.176169967580886,0.01948293200306568,-0.016289258880374684,0.4262785119254136
11747,0.0,298.77231,44365.689000000006,-0.11747000747983682,0.0,0.0,0.0,0.0,-0.017927584051045553,-6.464228521894684,-2.9195927196663676,-4.102240301859596,0.004127300915257886,-0.011143402386268188,0.43387586117521354
11748,0.0,299.90346,44424.735,-0.11747998411930416,0.0,0.0,0.0,0.0,-0.017929106627288083,-6.461922871292135,-2.9245261330782575,-4.117561251321656,-0.008490177716490303,0.007627591826859703,0.46454359797688355
11749,0.0,299.79905,44663.887,-0.11748999379400171,0.0,0.0,0.0,0.0,-0.017930634245173827,-6.504802196973994,-2.9323779094281677,-4.139526486989457,-0.011730394381199789,-0.006492670553526694,0.45088187595107654
11750,0.0,298.7737,44813.475,-0.11750000346869915,0.0,0.0,0.0,0.0,-0.017932161863059543,-6.510599608746153,-2.9639654746706174,-4.147612324112466,-0.0014741763545898785,0.012550928365180188,0.4605188976521766
11751,0.0,299.4787,44723.257000000005,-0.11751001314339649,0.0,0.0,0.0,0.0,-0.01793368948094526,-6.495036796485224,-2.976047164887987,-4.123669224249466,-0.011975682978657887,0.003190386038041587,0.4191100207804386
11752,0.0,299.76732000000004,44509.31,-0.11751998978286404,0.0,0.0,0.0,0.0,-0.017935212057187816,-6.450509520840724,-2.9433894048899174,-4.135820018123656,-0.0023961838910349378,-0.0029221457046183274,0.4305985746542706
11753,0.0,300.55585,44704.794,-0.11752999945756137,0.0,0.0,0.0,0.0,-0.017936739675073504,-6.484674895662584,-2.974523946012657,-4.129942154293556,-0.004673414753455125,-0.013985280140489685,0.4314468575054896
11754,0.0,300.8809,44927.635,-0.11754000913225893,0.0,0.0,0.0,0.0,-0.017938267292959248,-6.514185602175064,-2.9681914368626874,-4.174502157916286,0.026037298341931272,-0.002383555653713628,0.45179431779862755
11755,0.0,299.95126,44727.575,-0.11754998577172637,0.0,0.0,0.0,0.0,-0.017939789869201778,-6.503379188533554,-2.9485735977015572,-4.144113064892116,0.01989780421676038,0.012241165650608989,0.4274751400285116
11756,0.0,299.86312000000004,44483.385,-0.11755999544642393,0.0,0.0,0.0,0.0,-0.01794131748708752,-6.488239408189373,-2.919162189698877,-4.114436793313296,0.012759440037008686,0.0019080793303377682,0.45045034286598756
11757,0.0,300.42141000000004,44494.652,-0.11757000512112126,0.0,0.0,0.0,0.0,-0.017942845104973237,-6.469101140300573,-2.931990645239947,-4.124171289674016,0.012249785369209688,-0.0039827972654964865,0.4101185812480526
11758,0.0,299.76185,44817.106,-0.11758001479581881,0.0,0.0,0.0,0.0,-0.01794437272285898,-6.504190396563614,-2.9616976182967973,-4.157393126002756,0.009214442909794712,-0.0007603811049662723,0.43857427149141054
11759,0.0,299.53075,44971.231,-0.11758999143528626,0.0,0.0,0.0,0.0,-0.01794589529910151,-6.537503425401353,-2.9693134086984174,-4.163314559587156,0.014372872621742087,0.00990586360110762,0.42981105641154865
11760,0.0,299.50858999999997,44785.808,-0.11760000110998381,0.0,0.0,0.0,0.0,-0.017947422916987227,-6.496895502468663,-2.951076629423587,-4.165795097156966,-0.030784419643435673,-0.0005667021885691515,0.47595433424303557
11761,0.0,299.37865,44526.708,-0.11761001078468114,0.0,0.0,0.0,0.0,-0.017948950534872943,-6.474209744654753,-2.935513107887587,-4.125284547558886,-0.010776030324011388,-0.008096727433759783,0.4386261802940336
11762,0.0,299.96293,44661.585,-0.11761998742414859,0.0,0.0,0.0,0.0,-0.017950473111115473,-6.492876040646974,-2.9386444559966267,-4.144486143578936,-0.01263692188791709,0.006366406114840364,0.4426294706441276
11763,0.0,300.37154,44951.187999999995,-0.11762999709884614,0.0,0.0,0.0,0.0,-0.017952000729001216,-6.517207215298274,-2.9790945145637373,-4.167736990973616,-0.0004927808922936875,0.017038251327794483,0.4070920031993526
11764,0.0,299.87878,44752.828,-0.11764000677354347,0.0,0.0,0.0,0.0,-0.017953528346886932,-6.496022790157534,-2.9471115791322675,-4.1606078645950255,-0.014155897271828286,0.005816494716593334,0.4338907964816876
11765,0.0,300.4662,44486.307,-0.11765001644824102,0.0,0.0,0.0,0.0,-0.017955055964772676,-6.457288670634774,-2.945223590220937,-4.120214244058486,-0.004046304944664207,-0.016348271579448785,0.4350468236532786
11766,0.0,300.40811,44638.140999999996,-0.11765999308770836,0.0,0.0,0.0,0.0,-0.017956578541015206,-6.475811287762814,-2.9402470123547872,-4.152821848176606,0.015122257196950584,0.006231006314577444,0.4427996966609276
11767,0.0,299.83463,44912.111,-0.11767000276240591,0.0,0.0,0.0,0.0,-0.01795810615890092,-6.533547595685944,-2.9518230907722574,-4.1667895008051055,0.025245111042748476,-0.003361848321288597,0.4496299649225226
11768,0.0,299.74726,44945.206,-0.11768001243710335,0.0,0.0,0.0,0.0,-0.017959633776786638,-6.530046309965394,-2.9726372743264573,-4.159536656589307,-0.002171010638537068,-0.0070271111426218735,0.4301992629223616
11769,0.0,299.44858999999997,44766.621,-0.11768998907657069,0.0,0.0,0.0,0.0,-0.017961156353029167,-6.500397801439314,-2.963875498061737,-4.143661459322546,-0.023858747805425077,-0.013524633340277386,0.42005965903916065
11770,0.0,299.76845,44726.511,-0.11769999875126824,0.0,0.0,0.0,0.0,-0.01796268397091491,-6.498202797747684,-2.9699649285127174,-4.127574695434906,-0.02021368290893518,0.004601516046234276,0.4093290466376316
11771,0.0,299.82237000000003,44856.952000000005,-0.1177100084259658,0.0,0.0,0.0,0.0,-0.017964211588800655,-6.509867738198923,-2.9703777266034574,-4.155147763781156,0.008955513838165402,0.007629761701948853,0.42913003075433653
11772,0.0,299.16704,44858.528,-0.11771998506543302,0.0,0.0,0.0,0.0,-0.017965734165043157,-6.512523669361044,-2.9432809871292176,-4.180067738065566,-0.012977538068033288,-0.004172688946862337,0.4514509374722386
11773,0.0,299.66136,44720.953,-0.1177299947401308,0.0,0.0,0.0,0.0,-0.01796726178292893,-6.494107139518474,-2.956495896258427,-4.143449994026676,-0.00996859594129882,0.001068019712955339,0.4395813002357966
11774,0.0,299.94462999999996,44540.707,-0.11774000441482813,0.0,0.0,0.0,0.0,-0.017968789400814617,-6.474366899745264,-2.9174192982018674,-4.147476649924076,0.012445127829488487,0.02320526735218158,0.43099546471844064
11775,0.0,299.95632,44714.86,-0.11775001408952546,0.0,0.0,0.0,0.0,-0.017970317018700332,-6.490455791458114,-2.955972045956727,-4.145773072530946,0.033388793600717365,0.016292469869941584,0.4120353667272246
11776,0.0,300.2628,44957.439000000006,-0.1177599907289929,0.0,0.0,0.0,0.0,-0.017971839594942862,-6.539225038646264,-2.965754773022207,-4.1609591584046965,0.00964401809171548,-0.004996468573563055,0.44917668749028755
11777,0.0,300.3351,44933.888,-0.11777000040369046,0.0,0.0,0.0,0.0,-0.017973367212828606,-6.525893099130504,-2.953412474879117,-4.179474378807006,0.0060977401150500935,-0.025647770552987875,0.44087271788574955
11778,0.0,300.18248,44859.874,-0.11778001007838801,0.0,0.0,0.0,0.0,-0.01797489483071435,-6.516696739897894,-2.9627282962985175,-4.156856407424786,0.004543513253534845,-0.0014524717268477984,0.4522276949988986
11779,0.0,300.11367,44895.63,-0.11778998671785523,0.0,0.0,0.0,0.0,-0.01797641740695685,-6.5425219518216435,-2.950450136886757,-4.154178488735496,-0.013375187056528185,-0.016963484616165585,0.44156864845193255
11780,0.0,299.23919,44981.431,-0.1177999963925529,0.0,0.0,0.0,0.0,-0.017977945024842623,-6.530684150903344,-2.9669434167145172,-4.175604270050056,-0.015253131619616885,0.0039760287548284865,0.43445611910998055
11781,0.0,299.80773,45020.402,-0.11781000606725034,0.0,0.0,0.0,0.0,-0.01797947264272831,-6.529762802587413,-2.992568714393537,-4.162746430256085,-0.02832381979584337,0.0007124248693933602,0.4082757934236836
11782,0.0,299.61246,44895.776,-0.11782001574194789,0.0,0.0,0.0,0.0,-0.017981000260614055,-6.516039951183074,-2.962168576943277,-4.168986328346916,-0.0006146167187679474,0.035452221700611866,0.42062629889258357
11783,0.0,299.80846,44648.333,-0.11782999238141523,0.0,0.0,0.0,0.0,-0.017982522836856585,-6.498549734581924,-2.941487129152177,-4.131941600715886,-0.0070149803097746535,0.012312833843432089,0.4386817975920226
11784,0.0,299.53862999999996,44575.219000000005,-0.11784000205611278,0.0,0.0,0.0,0.0,-0.01798405045474233,-6.493698901053184,-2.931940894660037,-4.1241137370683365,-0.0016881436689318084,-0.005517742382908775,0.4598287628765656
11785,0.0,300.11167,44787.939000000006,-0.11785001173081011,0.0,0.0,0.0,0.0,-0.017985578072628045,-6.5022727194243535,-2.9471635588623974,-4.164978924201416,0.022154887715517182,-0.019002817628682084,0.46643851751889753
11786,0.0,300.39583,44980.929000000004,-0.11785998837027756,0.0,0.0,0.0,0.0,-0.017987100648870574,-6.4994467648954535,-2.9940848405181675,-4.179547535464225,0.016340690442200583,-0.004818498894198816,0.44069399070061055
11787,0.0,300.16486000000003,44939.051,-0.11786999804497511,0.0,0.0,0.0,0.0,-0.017988628266756318,-6.515593107888974,-2.9570276499109074,-4.187728719421646,0.0065080609106206045,-0.01154676306557679,0.44557261767959355
11788,0.0,300.51887999999997,44988.222,-0.11788000771967244,0.0,0.0,0.0,0.0,-0.017990155884642006,-6.542777493496864,-2.9755079131847673,-4.157010624090006,-0.027940328950995772,-0.012813427015586788,0.4493289485828146
11789,0.0,300.95091,45112.422,-0.11788998435914011,0.0,0.0,0.0,0.0,-0.01799167846088459,-6.546421647481514,-2.984307686328237,-4.182320699662916,0.00019707425668721482,0.009132500056982582,0.4503961035881346
11790,0.0,300.07032999999996,45098.583,-0.11789999403383744,0.0,0.0,0.0,0.0,-0.01799320607877028,-6.569059579890704,-2.963600501984597,-4.176183038507176,0.005824571839765484,0.023984299625316077,0.45744338975614757
11791,0.0,299.78976,44977.549000000006,-0.117910003708535,0.0,0.0,0.0,0.0,-0.017994733696656023,-6.529527829889223,-2.982399939039957,-4.160124138997286,0.006288015007603764,0.00928604838243662,0.4267336942678366
11792,0.0,299.59921,44792.475,-0.11792001338323232,0.0,0.0,0.0,0.0,-0.01799626131454174,-6.499806063380914,-2.9369269970771272,-4.179060770116186,-0.025592213036754772,-0.006974701389149433,0.4402518488869746
11793,0.0,300.35101000000003,44819.203,-0.11792999002269977,0.0,0.0,0.0,0.0,-0.01799778389078427,-6.504233459692864,-2.961108919988697,-4.158576095494507,-0.003402191988595207,-0.007109621415490003,0.42537854318659357
11794,0.0,300.28429,44909.801,-0.11793999969739732,0.0,0.0,0.0,0.0,-0.017999311508670013,-6.518077090509124,-2.9701766977836175,-4.163204216651266,0.004985362136566936,0.015932330386898588,0.43898197293414754
11795,0.0,299.43606,44898.067,-0.11795000937209488,0.0,0.0,0.0,0.0,-0.01800083912655573,-6.541976215317784,-2.943013185127787,-4.162901761496416,-0.008406819555938493,-0.003970221109230316,0.4603667074871565
11796,0.0,299.36341,44915.778,-0.1179599860115621,0.0,0.0,0.0,0.0,-0.01800236170279823,-6.534229209028214,-2.971391179353477,-4.147654576641636,-0.018436439193784883,-0.012687169973626188,0.4651669393059025
11797,0.0,300.04692,45033.837,-0.11796999568625965,0.0,0.0,0.0,0.0,-0.018003889320683975,-6.518925180842824,-2.9766047564180176,-4.193632117154267,0.01085827988762879,-0.027199674538648872,0.4628849176956846
11798,0.0,299.93885,45209.455,-0.1179800053609571,0.0,0.0,0.0,0.0,-0.018005416938569718,-6.525802818546594,-3.015240084056027,-4.2015024359810065,0.032895558650788866,-0.002241898122158118,0.4378810057729906
11799,0.0,300.87259,45209.121,-0.11799001503565454,0.0,0.0,0.0,0.0,-0.018006944556455434,-6.548216518708653,-2.992100288872307,-4.202127104667657,0.016393503063912785,-0.014721660663914787,0.45297713530286254
11800,0.0,300.27511,45058.695999999996,-0.11799999167512187,0.0,0.0,0.0,0.0,-0.018008467132697964,-6.548612902147774,-2.9659249990390073,-4.182180567174086,-0.017104240253807083,-0.0012980587950834285,0.4417801441453056
11801,0.0,300.56428999999997,44886.643,-0.11801000134981943,0.0,0.0,0.0,0.0,-0.018009994750583708,-6.533712350152204,-2.9665081244715577,-4.144198177900517,-0.034732721923852766,0.025285170898702077,0.4509163872494826
11802,0.0,300.34402,44858.88,-0.11802001102451698,0.0,0.0,0.0,0.0,-0.018011522368469424,-6.546059917195814,-2.948445320238897,-4.141474055006666,-0.027105428093847472,0.031111077290174267,0.4298077532162226
11803,0.0,299.86847,44899.82,-0.1180299876639842,0.0,0.0,0.0,0.0,-0.018013044944711926,-6.517334682160853,-2.9515947041997173,-4.179494643809006,-0.0018836458174263681,-0.003637822590075137,0.4350145617700946
11804,0.0,299.23364,45009.176,-0.11803999733868176,0.0,0.0,0.0,0.0,-0.01801457256259767,-6.540911694762724,-2.9647775946257675,-4.175976335486776,-0.013816136274796486,-0.030940323370072173,0.4283318024580576
11805,0.0,300.04859,45169.477999999996,-0.11805000701337931,0.0,0.0,0.0,0.0,-0.018016100180483413,-6.5502163704310234,-2.9679440011882674,-4.2122331598400455,0.018070176640387584,-0.026473680841998873,0.4459249450043656
11806,0.0,299.88217000000003,45133.681,-0.11805998365284676,0.0,0.0,0.0,0.0,-0.018017622756725943,-6.541785724298984,-2.994109259845577,-4.183617153165866,0.025485679921240772,-0.005762422928981864,0.44144308649954056
11807,0.0,300.42592,45147.828,-0.11806999332754409,0.0,0.0,0.0,0.0,-0.01801915037461166,-6.565611287150384,-2.979995091252617,-4.178205891006816,0.02018077153243708,0.0032698262644317265,0.46007546901091356
11808,0.0,300.15555,45145.371,-0.11808000300224164,0.0,0.0,0.0,0.0,-0.018020677992497403,-6.564530858568753,-2.9697657235430572,-4.188768820649296,-0.008029263823551642,-0.002341884223475978,0.4611693231563686
11809,0.0,300.69632,45146.937999999995,-0.1180900126769392,0.0,0.0,0.0,0.0,-0.01802220561038312,-6.527826076346273,-3.0145458050875074,-4.181169850199336,-0.014163238268802787,0.008640400352466122,0.4354056053811876
11810,0.0,300.62987999999996,45017.775,-0.11809998931640664,0.0,0.0,0.0,0.0,-0.018023728186625648,-6.5335235816585735,-2.969909402407237,-4.180846623417436,-0.004616527853090826,0.01068620164964599,0.44025522300980763
11811,0.0,299.9547,44955.349,-0.11810999899110397,0.0,0.0,0.0,0.0,-0.018025255804511364,-6.518572873783054,-2.982979720747177,-4.163751067730236,-0.016199503160016487,-0.008930387870135663,0.4329804621943446
11812,0.0,299.85472999999996,44960.21599999999,-0.11812000866580152,0.0,0.0,0.0,0.0,-0.018026783422397108,-6.546480415987314,-2.9545649455428573,-4.165737747201306,-0.015914419164880882,-0.018115175077328582,0.4416435580318256
11813,0.0,300.17886,45026.48,-0.11812998530526886,0.0,0.0,0.0,0.0,-0.018028305998639638,-6.564394677755313,-2.9620711022836574,-4.1604599300804255,-0.002162835838055278,-0.014306960702737088,0.4453578390558966
11814,0.0,299.68163,44976.47900000001,-0.1181399949799663,0.0,0.0,0.0,0.0,-0.018029833616525354,-6.524622483505103,-2.984785028450347,-4.162318940038896,0.011475512331794889,0.015359241196589086,0.4316887000393576
11815,0.0,300.19127000000003,45027.560999999994,-0.11815000465466385,0.0,0.0,0.0,0.0,-0.018031361234411097,-6.530576239767694,-2.9604528405489474,-4.196225226810186,0.003285946161597637,-0.0039797809212737964,0.46048981737430655
11816,0.0,300.10102,45181.856,-0.1181600143293613,0.0,0.0,0.0,0.0,-0.018032888852296813,-6.563228832190253,-2.989551660895777,-4.181375438644626,0.010871719636955188,-0.008528692366041403,0.4311759042962486
11817,0.0,299.36786,45190.130999999994,-0.11816999096882874,0.0,0.0,0.0,0.0,-0.018034411428539343,-6.557071716632594,-2.967321561651837,-4.212278148144486,-0.0035812515197670065,0.0024387549860363776,0.4429164028074456
11818,0.0,299.55284,45227.007000000005,-0.11818000064352607,0.0,0.0,0.0,0.0,-0.01803593904642506,-6.571705175901803,-3.005900045959237,-4.170275790424176,0.006134776027405254,0.007758423186396753,0.43043732603335655
11819,0.0,300.28294,45071.428,-0.11819001031822363,0.0,0.0,0.0,0.0,-0.018037466664310803,-6.541572739127964,-2.987276914421277,-4.171739227543607,-0.005594924986751105,0.0013743200506098284,0.44557366132719656
11820,0.0,299.98863,44997.570999999996,-0.11819998695769107,0.0,0.0,0.0,0.0,-0.018038989240553333,-6.525176933959824,-2.976172199950327,-4.176788759416956,0.0012076328097840787,0.006751014473223254,0.4457433199239406
11821,0.0,300.09721,45153.525,-0.11820999663238863,0.0,0.0,0.0,0.0,-0.018040516858439076,-6.537289123005203,-3.000556772881897,-4.187698321918646,0.004664901527439935,0.022661691097534777,0.4382654024634276
11822,0.0,300.32342,45128.269,-0.11822000630708596,0.0,0.0,0.0,0.0,-0.018042044476324792,-6.5413316869291736,-2.991380476001267,-4.185154861517626,0.004934707737567735,0.012901361925515288,0.44395755781519963
11823,0.0,300.21572000000003,44971.235,-0.11823001598178351,0.0,0.0,0.0,0.0,-0.018043572094210508,-6.532036637136824,-2.972886331201037,-4.165209438599166,-0.013605312366239786,-0.012113308686740487,0.4331977131482856
11824,0.0,300.21201,45000.367999999995,-0.11823999262125096,0.0,0.0,0.0,0.0,-0.018045094670453038,-6.556266689428144,-2.9683292388762874,-4.154392385831606,-0.01931592812158368,-0.03227444343223957,0.4490386828266676
11825,0.0,299.94694,45113.117999999995,-0.11825000229594829,0.0,0.0,0.0,0.0,-0.018046622288338754,-6.5725251992077345,-2.974787087063627,-4.165949009847156,0.0013357816910063887,-0.009319142042627711,0.4264658010738976
11826,0.0,300.09865,45298.426,-0.11826001197064584,0.0,0.0,0.0,0.0,-0.018048149906224498,-6.5710824323903445,-3.0027699137503174,-4.195737853512086,0.002284323309145158,-0.007942399716328822,0.4471369339789796
11827,0.0,299.86007,45375.85400000001,-0.11826998861011329,0.0,0.0,0.0,0.0,-0.018049672482467027,-6.5847183469361035,-3.0001981836715075,-4.208209948992986,-0.015196990471326185,0.00901062076207903,0.44042891434194953
11828,0.0,299.64749,45239.475,-0.11827999828481084,0.0,0.0,0.0,0.0,-0.01805120010035277,-6.583440537234994,-2.972114437274857,-4.196115795799386,-0.0058784718814850045,0.01047552466235379,0.4513561073953795
11829,0.0,299.55397,45166.475,-0.11829000795950817,0.0,0.0,0.0,0.0,-0.018052727718238487,-6.558450648693684,-2.9855323003990972,-4.185497846676476,0.014295912223646685,0.02876832653521277,0.4257919492273936
11830,0.0,299.64092,45221.955,-0.11829998459897573,0.0,0.0,0.0,0.0,-0.018054250294481045,-6.580871238956424,-2.9852859792997872,-4.180187808202416,0.011858634353606089,0.01093470630292149,0.4441546957546556
11831,0.0,299.0405,45230.17,-0.11830999427367306,0.0,0.0,0.0,0.0,-0.018055777912366733,-6.566652502953144,-2.975444686378527,-4.206744991998406,0.0022544251357944378,-0.03068529237290257,0.4618431142078665
11832,0.0,298.68377000000004,44988.787000000004,-0.11832000394837061,0.0,0.0,0.0,0.0,-0.018057305530252477,-6.5434533313135645,-2.972070563545527,-4.159943983129506,-0.009036907104123292,-0.03972813306961146,0.4373896402694966
11833,0.0,298.76408,44896.329000000005,-0.11833001362306805,0.0,0.0,0.0,0.0,-0.018058833148138193,-6.528807105093094,-2.948707853339807,-4.169848097556966,0.0037857169799711764,-0.0048446937397590446,0.45680504219314755
11834,0.0,298.86641000000003,45210.328,-0.11833999026253561,0.0,0.0,0.0,0.0,-0.01806035572438075,-6.564722565487673,-3.0039414335159367,-4.174146912431226,0.004785718328288626,0.005751267146705874,0.4315138839996046
11835,0.0,299.33805,45370.191,-0.11834999993723294,0.0,0.0,0.0,0.0,-0.018061883342266466,-6.582245408742044,-2.9972118316517773,-4.2119480312619055,-0.008686119210228223,0.016342854744414183,0.4593911604233776
11836,0.0,299.76561,45308.127,-0.11836000961193027,0.0,0.0,0.0,0.0,-0.018063410960152182,-6.585914792654184,-2.9988765002410673,-4.187747869848536,-0.005439142444826565,-0.0063388696248227235,0.4361955148941456
11837,0.0,299.84472,45283.174000000006,-0.11836998625139794,0.0,0.0,0.0,0.0,-0.01806493353639474,-6.554251132329223,-3.0145358752365268,-4.196167167579456,0.013073489812752987,0.007403888698931924,0.44063777558506256
11838,0.0,300.37552999999997,45311.785,-0.11837999592609527,0.0,0.0,0.0,0.0,-0.018066461154280428,-6.565315924746234,-3.002790482727347,-4.205544898579967,0.02018547098640088,-0.009094092305317032,0.43891286927732753
11839,0.0,300.39213,45286.469000000005,-0.11839000560079282,0.0,0.0,0.0,0.0,-0.01806798877216617,-6.571787350484914,-2.998326609411797,-4.195841711647335,0.006922817613803903,-0.004526262771907355,0.44713769391655456
11840,0.0,299.85997000000003,45317.809,-0.11840001527549016,0.0,0.0,0.0,0.0,-0.018069516390051887,-6.588041199314044,-2.997185892449217,-4.190255157220986,-0.014407510576410588,-0.004529053769307806,0.4296553097386776
11841,0.0,299.70402,45188.227,-0.11840999191495782,0.0,0.0,0.0,0.0,-0.018071038966294445,-6.578094325732364,-2.9917775687154573,-4.166220966173996,-0.010432821236889291,0.018594674408901484,0.42765076666834456
11842,0.0,300.06593,45058.133,-0.11842000158965515,0.0,0.0,0.0,0.0,-0.01807256658418016,-6.568445752980123,-2.9790766813619767,-4.149024693426856,0.007953245342749202,0.015654347248463787,0.4410716492778826
11843,0.0,299.86298,45248.745,-0.11843001126435271,0.0,0.0,0.0,0.0,-0.018074094202065905,-6.555663805618644,-3.002179796892077,-4.196645016326617,0.004342149554536796,0.008724165636908112,0.45278902542179755
11844,0.0,300.03141,45447.508,-0.11843998790382015,0.0,0.0,0.0,0.0,-0.018075616778308434,-6.595163131616924,-2.9991385267169273,-4.220606050716386,0.025062690560994978,-0.017549700461520584,0.45356791077366754
11845,0.0,300.57691,45403.227999999996,-0.1184499975785176,0.0,0.0,0.0,0.0,-0.01807714439619415,-6.569431645327423,-3.013495875333887,-4.218520072735516,-0.002819311154619347,-0.008703193791638352,0.4416647653564185
11846,0.0,300.4257,45234.109000000004,-0.11846000725321504,0.0,0.0,0.0,0.0,-0.018078672014079866,-6.571255698157444,-2.997945627374197,-4.180838314766617,0.012673815337308186,-0.007448796044688932,0.4448961415153305
11847,0.0,299.82054,45331.258,-0.1184699838926826,0.0,0.0,0.0,0.0,-0.018080194590322424,-6.577350701483974,-3.007341900851537,-4.1948779081522165,-0.018000628166773683,0.01044057665315469,0.45011205918760155
11848,0.0,299.4465,45492.39599999999,-0.11847999356737993,0.0,0.0,0.0,0.0,-0.01808172220820814,-6.599787909048353,-3.014940668651477,-4.213823658522016,-0.012494793296390088,0.012799850477496887,0.4478588138802236
11849,0.0,299.64447,45393.925,-0.11849000324207737,0.0,0.0,0.0,0.0,-0.018083249826093856,-6.568019883963093,-3.009938860857837,-4.220660968871806,-0.013563658667878887,0.017005462554558485,0.4428929967301356
11850,0.0,299.26219,45156.157,-0.11850001291677481,0.0,0.0,0.0,0.0,-0.0180847774439796,-6.558403228589004,-2.987608348528987,-4.180332398991686,0.01159634139296979,0.003151758208454317,0.43937137508007856
11851,0.0,299.98717999999997,45110.982,-0.11850998955624226,0.0,0.0,0.0,0.0,-0.01808630002022213,-6.554349113613894,-2.974491319359437,-4.183771775131126,0.020291399191605178,-0.006379441678701874,0.4524673489125506
11852,0.0,300.31057000000004,45310.282999999996,-0.11851999923093981,0.0,0.0,0.0,0.0,-0.018087827638107845,-6.581974161690273,-3.010972071984807,-4.180248299233386,0.01835063818856698,-0.008921372578695921,0.4274084479069296
11853,0.0,300.31327000000005,45447.054000000004,-0.11853000890563714,0.0,0.0,0.0,0.0,-0.01808935525599356,-6.610503332830884,-3.008409967781947,-4.195856302448775,-0.0029253581127353673,0.017537167571033685,0.4398146213363236
11854,0.0,300.28421000000003,45410.372,-0.11853998554510481,0.0,0.0,0.0,0.0,-0.01809087783223612,-6.579955767491073,-2.9969444349503873,-4.226718988569686,-0.0045950639735725055,0.006884051374252974,0.4527675242546756
11855,0.0,300.92946,45351.507000000005,-0.11854999521980214,0.0,0.0,0.0,0.0,-0.018092405450121835,-6.566651084403004,-2.995959555853187,-4.223115263264026,-0.02186295617620578,0.014088659008442387,0.45076279879932457
11856,0.0,300.41427999999996,45498.687000000005,-0.1185600048944997,0.0,0.0,0.0,0.0,-0.01809393306800758,-6.590179663650094,-3.007820154898737,-4.232464927236767,-0.0024471407451889873,-0.014437939490163686,0.4660222946428196
11857,0.0,301.06042,45625.123,-0.11857001456919702,0.0,0.0,0.0,0.0,-0.018095460685893267,-6.606930714303294,-3.0172851267328573,-4.244682190317516,-0.006132116347217764,0.00013068815690041687,0.4472486346700036
11858,0.0,300.38257999999996,45483.998,-0.11857999120866458,0.0,0.0,0.0,0.0,-0.01809698326213585,-6.594664713892734,-3.0179115179446767,-4.213423526057525,0.0004104725601704875,-0.00894287881206842,0.45626938752778257
11859,0.0,300.12316,45248.007000000005,-0.11859000088336202,0.0,0.0,0.0,0.0,-0.01809851088002154,-6.574799236407165,-2.9837889022770367,-4.195676146580996,-0.004252740973662856,0.002306657874474408,0.44732834705537056
11860,0.0,300.13957,45262.484000000004,-0.11860001055805935,0.0,0.0,0.0,0.0,-0.018100038497907256,-6.566016080565334,-2.986011871671427,-4.206636776887726,0.001959002037963448,0.022813950163561577,0.4482620266250176
11861,0.0,299.89945,45250.957,-0.11860998719752691,0.0,0.0,0.0,0.0,-0.018101561074149813,-6.563536758895644,-2.981898076265427,-4.209726277767635,0.01775767713729628,0.04395432729595436,0.4360121774210516
11862,0.0,299.89181,45303.310999999994,-0.11861999687222435,0.0,0.0,0.0,0.0,-0.01810308869203553,-6.589351129043323,-2.981306338207027,-4.200417954398976,0.0070475535647143836,0.013882908443136385,0.4461183947134576
11863,0.0,300.16362000000004,45455.795999999995,-0.1186300065469218,0.0,0.0,0.0,0.0,-0.018104616309921273,-6.589888658221374,-3.0070290092206573,-4.220509184006826,-0.00929724287086643,-0.0060965804503106446,0.4349259631813506
11864,0.0,300.01731,45509.863,-0.11864001622161924,0.0,0.0,0.0,0.0,-0.01810614392780696,-6.607224455507285,-3.004560630652047,-4.222076985886556,0.005594224628281985,-0.04019924370360646,0.4388709612531916
11865,0.0,300.99983,45499.257000000005,-0.1186499928610868,0.0,0.0,0.0,0.0,-0.018107666504049547,-6.583412368882214,-3.024677191512397,-4.222548349833076,0.007820713344244312,-0.0024974384801529875,0.4266175150113706
11866,0.0,300.52294,45497.011,-0.11866000253578413,0.0,0.0,0.0,0.0,-0.018109194121935235,-6.587074254743614,-3.013453825454737,-4.229427406086986,0.008288267166413283,-0.005332392291141145,0.45435032223588556
11867,0.0,300.02662000000004,45597.916,-0.11867001221048168,0.0,0.0,0.0,0.0,-0.01811072173982098,-6.608397393823044,-3.012652243300627,-4.239578246913796,-0.006307993563800494,0.01053947492916519,0.47726616888250356
11868,0.0,300.43806,45418.545999999995,-0.11867998884994913,0.0,0.0,0.0,0.0,-0.018112244316063508,-6.584284675893303,-3.0080529997717176,-4.213766308566356,-0.011170605111702888,0.01066807764510729,0.45685441787052056
11869,0.0,299.74787000000003,45161.252,-0.11868999852464668,0.0,0.0,0.0,0.0,-0.018113771933949252,-6.545969332636873,-2.9857876394242973,-4.196136060801385,-0.0019224779182337982,0.00843154508752871,0.4519274081992626
11870,0.0,299.58204,45228.325999999994,-0.11870000819934401,0.0,0.0,0.0,0.0,-0.018115299551834968,-6.573743125827934,-2.9857898685745172,-4.188748656972306,0.003274908524283307,-0.01033383075511969,0.4531902825938986
11871,0.0,299.88625,45454.386,-0.11870998483881168,0.0,0.0,0.0,0.0,-0.018116822128077525,-6.5865764449694835,-3.005969858891127,-4.224452145445966,0.0014816383336263188,-0.016156292096251884,0.45206531153787255
11872,0.0,299.39623,45445.698,-0.11871999451350901,0.0,0.0,0.0,0.0,-0.01811834974596324,-6.577506944649394,-3.000380366039487,-4.236470102232047,0.016015143317571586,-0.012040787337333188,0.4387657250978056
11873,0.0,300.54457,45447.492,-0.11873000418820634,0.0,0.0,0.0,0.0,-0.01811987736384893,-6.5915994296902145,-2.997116586142377,-4.226186728292156,0.012794489371217788,0.01872142996991128,0.44457158737579955
11874,0.0,300.20851,45461.315,-0.11874001386290389,0.0,0.0,0.0,0.0,-0.018121404981734673,-6.583456951886614,-3.003613039158527,-4.232034701244307,0.025842497970455975,0.01070765012776279,0.44341640120179154
11875,0.0,300.30433999999997,45546.471,-0.11874999050237134,0.0,0.0,0.0,0.0,-0.018122927557977203,-6.603445843234364,-3.0127342152337175,-4.228809830151036,0.003300741234257797,0.017065169329951085,0.4516057114250136
11876,0.0,301.12577000000005,45754.155999999995,-0.11876000017706889,0.0,0.0,0.0,0.0,-0.018124455175862947,-6.631505778253664,-3.0357182738770674,-4.240896991918945,0.002085780093125468,0.003208440229648397,0.44449335433557857
11877,0.0,300.45849,45655.27099999999,-0.11877000985176622,0.0,0.0,0.0,0.0,-0.018125982793748663,-6.597732531220504,-3.020136817814297,-4.260193124173326,-0.003144733244186007,-0.01016187613364909,0.4682381104915036
11878,0.0,300.26082,45323.431,-0.11877998649123378,0.0,0.0,0.0,0.0,-0.01812750536999122,-6.582844340876153,-2.994506149909747,-4.199840908467026,-0.017397283328478185,-0.01934812313026108,0.4672205236810756
11879,0.0,299.87084,45344.468,-0.11878999616593111,0.0,0.0,0.0,0.0,-0.018129032987876936,-6.584777014116894,-2.981017257953497,-4.217791849888646,-0.02174963732477208,-0.015089771385494487,0.4769509873063975
11880,0.0,299.66309,45647.489,-0.11880000584062866,0.0,0.0,0.0,0.0,-0.018130560605762652,-6.610113231542384,-3.0259752662155073,-4.239608340441766,-0.03132766760505007,0.008099475469355992,0.44856186759460953
11881,0.0,300.20152,45632.825,-0.1188100155153261,0.0,0.0,0.0,0.0,-0.018132088223648368,-6.603028282868154,-3.028446583209407,-4.239764482282176,-0.01900573477571998,0.020055377779561682,0.4543762715709465
11882,0.0,299.66967,45379.074,-0.11881999215479366,0.0,0.0,0.0,0.0,-0.018133610799890926,-6.582719305813814,-2.988358356253007,-4.223027617130376,-0.00026264459895100373,0.008021550963790442,0.44431435357291255
11883,0.0,299.48876,45547.371,-0.118830001829491,0.0,0.0,0.0,0.0,-0.01813513841777664,-6.5945378549802145,-3.017614635665377,-4.233110975500526,0.011809790632535589,-0.00031430559099704673,0.4513283950051446
11884,0.0,299.93057999999996,45720.356,-0.11884001150418833,0.0,0.0,0.0,0.0,-0.018136666035662358,-6.6281911332015335,-3.022063715529467,-4.247591535329645,0.022706309565688275,-0.009452276722292081,0.45300183834030056
11885,0.0,300.2921,45654.09099999999,-0.118849988143656,0.0,0.0,0.0,0.0,-0.018138188611904915,-6.631649659767864,-3.016629047293107,-4.229424974286746,0.016097263185176184,2.8543758902299673e-05,0.4454482513623196
11886,0.0,300.72148,45543.335999999996,-0.11885999781835332,0.0,0.0,0.0,0.0,-0.01813971622979063,-6.601889389755753,-3.0199095458168674,-4.222238193977466,-0.004334910591847366,-0.008054918606808572,0.4577736890237456
11887,0.0,300.0602,45446.990999999995,-0.11887000749305088,0.0,0.0,0.0,0.0,-0.018141243847676347,-6.607259209985714,-2.9993846451662174,-4.208106496157776,-0.008019313302269602,-0.007301137134116132,0.4502858518447536
11888,0.0,299.63101,45553.242999999995,-0.11887998413251832,0.0,0.0,0.0,0.0,-0.018142766423918877,-6.604783941316423,-3.0094765148372074,-4.232787951368646,-0.0038168387541426562,0.00042887949453461054,0.4566468231900326
11889,0.0,300.23163999999997,45641.08900000001,-0.11888999380721588,0.0,0.0,0.0,0.0,-0.01814429404180462,-6.605453902282544,-3.026856084527437,-4.241441512522686,0.007630638771235413,-9.6352628002514e-06,0.4535053020499885
11890,0.0,299.72187,45473.762,-0.11890000348191321,0.0,0.0,0.0,0.0,-0.018145821659690337,-6.5953973950400435,-2.993740436809177,-4.2337503363136255,0.028434160705233177,-0.006890707008859833,0.4806798186019045
11891,0.0,300.28522999999996,45431.773,-0.11891001315661076,0.0,0.0,0.0,0.0,-0.01814734927757608,-6.589640918571924,-3.0089292584581973,-4.211554383598056,0.0016413853178921184,-0.01988301887130118,0.4411177420249316
11892,0.0,300.20547,45703.90900000001,-0.1189199897960781,0.0,0.0,0.0,0.0,-0.01814887185381861,-6.626829629042164,-3.027449747761027,-4.238567732589066,0.0026875296704635277,-0.003379222926053337,0.4449074696514486
11893,0.0,300.22143,45852.929000000004,-0.11892999947077565,0.0,0.0,0.0,0.0,-0.018150399471704354,-6.628121522919664,-3.041036418351927,-4.268987425766255,-0.01027272974758949,0.013856075553988186,0.4429998743506836
11894,0.0,300.68298,45743.502,-0.11894000914547309,0.0,0.0,0.0,0.0,-0.018151927089590042,-6.618146480985203,-3.030663371778187,-4.256072641316666,-0.018018474540784982,0.014244734987595885,0.45638670162436057
11895,0.0,299.55778,45555.434,-0.11894998578494043,0.0,0.0,0.0,0.0,-0.01815344966583257,-6.607958757854753,-2.995254637758617,-4.244501021199636,-0.014883388552126085,-0.007808475208211503,0.44478420777678357
11896,0.0,299.82636,45649.929000000004,-0.11895999545963798,0.0,0.0,0.0,0.0,-0.018154977283718315,-6.632836479609994,-3.0226255627099174,-4.220976393627936,0.0087428599999281,-0.02198033005453968,0.4534209185816606
11897,0.0,299.74335,45684.268,-0.11897000513433531,0.0,0.0,0.0,0.0,-0.01815650490160403,-6.636658762962224,-3.0182992887579467,-4.231918785432867,0.02037373589473118,-0.011574094473774188,0.4455523526775936
11898,0.0,299.75394,45681.117999999995,-0.11898001480903286,0.0,0.0,0.0,0.0,-0.018158032519489775,-6.616420308114844,-3.041835467380787,-4.227663540312906,0.014072376079335385,-0.005390389105664985,0.4382548342648846
11899,0.0,300.41764,45598.154,-0.11898999144850031,0.0,0.0,0.0,0.0,-0.018159555095732305,-6.589059819639574,-3.038581516009647,-4.233059097095405,0.013531607540715687,0.00933219148801559,0.44241452990041463
11900,0.0,300.16989,45496.369000000006,-0.11900000112319786,0.0,0.0,0.0,0.0,-0.01816108271361805,-6.582745650316414,-3.013529819212237,-4.233484763462416,-0.00872991025835006,0.00966060448922743,0.4436140761638006
11901,0.0,299.54542999999995,45565.097,-0.1190100107978952,0.0,0.0,0.0,0.0,-0.018162610331503737,-6.595524861902623,-3.023830519728837,-4.231296244571426,-0.0018476626719251084,0.014426990309583089,0.4465922917852275
11902,0.0,300.94689,45799.878,-0.11901998743736264,0.0,0.0,0.0,0.0,-0.018164132907746267,-6.6290107512074234,-3.0473306266481175,-4.245677809865776,-0.019988958222256582,0.0022730295222055477,0.45716592134876355
11903,0.0,300.70085,45710.455,-0.11902999711206019,0.0,0.0,0.0,0.0,-0.01816566052563201,-6.618733558093144,-3.0381280865898974,-4.237975285255596,-0.0028934142887577573,-0.02004619874690578,0.43660890066994357
11904,0.0,300.3866,45616.746,-0.11904000678675775,0.0,0.0,0.0,0.0,-0.018167188143517754,-6.614206052671314,-3.035301017485887,-4.2168446636951655,-0.024506344315337877,-0.017357629785814684,0.42836066995340655
11905,0.0,300.41634,45784.297999999995,-0.11905001646145508,0.0,0.0,0.0,0.0,-0.01816871576140347,-6.635519160574753,-3.038832903359457,-4.2429311928197055,0.0009617824462055371,-0.0025855595241248575,0.4312289378064826
11906,0.0,299.58734,45806.567,-0.11905999310092252,0.0,0.0,0.0,0.0,-0.018170238337646,-6.627019512110903,-3.038004470077697,-4.259028798483416,0.0023164686685676577,0.021534860727575277,0.4512717543245546
11907,0.0,300.27547999999996,45635.544,-0.11907000277562008,0.0,0.0,0.0,0.0,-0.018171765955531743,-6.622628795452574,-3.0196017204364867,-4.229835441902257,0.004783365764206446,0.015109217681413685,0.4418555198202446
11908,0.0,299.96436,45534.89599999999,-0.11908001245031741,0.0,0.0,0.0,0.0,-0.01817329357341743,-6.618849777879614,-3.009226140737497,-4.213395459029757,0.009118749543850512,0.0013786598007881287,0.43815219202975453
11909,0.0,299.45329,45664.64,-0.11908998908978485,0.0,0.0,0.0,0.0,-0.01817481614965996,-6.619144532333704,-3.021362850435297,-4.240402931170186,-7.426724620410654e-05,-0.008389368349466192,0.4344055376649886
11910,0.0,299.88997,45757.084,-0.1190999987644823,0.0,0.0,0.0,0.0,-0.018176343767545705,-6.635534359326253,-3.0332848524369074,-4.240191769849345,-0.0017622796323734583,-0.0021022188600978483,0.4404479533113285
11911,0.0,300.1724,45760.981,-0.11911000843917985,0.0,0.0,0.0,0.0,-0.01817787138543145,-6.6148768242375136,-3.038412100592927,-4.256906647473976,-0.012656107778560589,-0.023465939112657878,0.45000454321949057
11912,0.0,300.11882,45738.004,-0.11911998507864707,0.0,0.0,0.0,0.0,-0.01817939396167395,-6.621531850894314,-3.024488423018767,-4.257190965452036,-0.023138025035795276,0.0018199716612672184,0.4498383702030906
11913,0.0,300.32617999999997,45736.015999999996,-0.11912999475334463,0.0,0.0,0.0,0.0,-0.018180921579559695,-6.629915684871734,-3.023928906313547,-4.248762345820196,-0.006707284118782403,-0.0008330525471108853,0.4698243636555546
11914,0.0,299.41447,45780.962999999996,-0.11914000442804218,0.0,0.0,0.0,0.0,-0.01818244919744544,-6.620414843984073,-3.0484526998088572,-4.247401956235936,0.002184817589699708,0.015309728730452585,0.4410942954176176
11915,0.0,300.43372999999997,45998.009000000005,-0.11915001410273973,0.0,0.0,0.0,0.0,-0.018183976815331154,-6.662893935876434,-3.0550602050359674,-4.264292126127867,0.0059193053538899535,-0.013965919970828987,0.44808829476287154
11916,0.0,300.22478,45865.566,-0.11915999074220696,0.0,0.0,0.0,0.0,-0.018185499391573656,-6.6430530803682935,-3.059728248246667,-4.239205674852026,0.0026639665393880275,-0.026468116072449678,0.42464376461157655
11917,0.0,300.18866,45558.815,-0.11917000041690451,0.0,0.0,0.0,0.0,-0.0181870270094594,-6.621150767531703,-3.014492406807237,-4.213099184700516,0.00975597067671434,-0.014939081843872586,0.43751154438902756
11918,0.0,300.65915,45630.342000000004,-0.11918001009160206,0.0,0.0,0.0,0.0,-0.018188554627345144,-6.6240900034217844,-3.0173100526853176,-4.229084420928136,-0.013564718527483486,0.006507222142187824,0.43715483982382364
11919,0.0,300.30762999999996,45848.3,-0.11918998673106951,0.0,0.0,0.0,0.0,-0.018190077203587673,-6.666836492015534,-3.029818523844807,-4.240083352088646,-0.008202871258585362,0.012957160595272186,0.4540842224946236
11920,0.0,299.91517000000005,45846.915,-0.11919999640576684,0.0,0.0,0.0,0.0,-0.01819160482147339,-6.640608614502044,-3.050557524241587,-4.245151325113817,-0.029006320745200972,0.017178120371598483,0.4381544211799746
11921,0.0,300.34955,45751.210999999996,-0.11921000608046439,0.0,0.0,0.0,0.0,-0.018193132439359133,-6.6417154889112835,-3.0244200286370173,-4.241090320038026,-0.008196073566314481,0.011595480130384788,0.4568743181024845
11922,0.0,299.97699,45880.486,-0.11922001575516195,0.0,0.0,0.0,0.0,-0.01819466005724485,-6.630999457178694,-3.048662239929537,-4.266860512481347,-0.017657470755406683,0.02108880270230278,0.4614744431589815
11923,0.0,299.75257999999997,45910.593,-0.11922999239462917,0.0,0.0,0.0,0.0,-0.01819618263348735,-6.648873796892754,-3.041114033309587,-4.2656861556154455,0.001987760406276678,-0.0036331375242627567,0.46288466438315956
11924,0.0,299.88176,45866.295999999995,-0.11924000206932672,0.0,0.0,0.0,0.0,-0.018197710251373095,-6.655763694922734,-3.0290039720894173,-4.257440934251705,0.003514391603968447,-0.009364838912862642,0.4663190857296106
11925,0.0,300.41406,45867.525,-0.11925001174402428,0.0,0.0,0.0,0.0,-0.01819923786925884,-6.656132720609153,-3.037563199659147,-4.248886367632436,0.016184775569812983,-0.015989931628583382,0.4599173006703035
11926,0.0,300.1257,45786.03,-0.11925998838349161,0.0,0.0,0.0,0.0,-0.01820076044550137,-6.624393066526694,-3.041716410494037,-4.251700568460175,0.0021498502274236984,0.012171636428746989,0.44968398128535353
11927,0.0,300.48433,45836.015,-0.11926999805818905,0.0,0.0,0.0,0.0,-0.018202288063387084,-6.638995722992864,-3.0490658174443674,-4.244942494268206,0.0006285013152857504,0.0015102086427209885,0.4339998120599466
11928,0.0,299.88001,45897.16,-0.11928000773288672,0.0,0.0,0.0,0.0,-0.018203815681272856,-6.647693259201244,-3.031869747347247,-4.272027682691306,0.003041815506353817,5.419815408444135e-05,0.43351612699221054
11929,0.0,299.35679,45730.013,-0.11928998437235394,0.0,0.0,0.0,0.0,-0.018205338257515358,-6.647222705854803,-3.0212391325980867,-4.232320235122486,0.005681707729990895,0.0037045173461073967,0.4461042193445586
11930,0.0,299.51878,45615.522000000004,-0.1192999940470515,0.0,0.0,0.0,0.0,-0.018206865875401074,-6.6464369304022535,-3.0108495700477174,-4.208693269290686,-0.0036789233578564664,0.015343764814561687,0.4558991358087416
11931,0.0,299.54065,45902.947,-0.11931000372174883,0.0,0.0,0.0,0.0,-0.01820839349328679,-6.665010817985353,-3.039742497974227,-4.2485963754538165,-0.01880206846586968,0.005391443291069025,0.46815314947061853
11932,0.0,299.37199,46078.953,-0.11932001339644638,0.0,0.0,0.0,0.0,-0.018209921111172533,-6.6623506311728145,-3.066949479059347,-4.277550807661396,-0.03677438845134957,0.007023943722809275,0.4588808167455105
11933,0.0,300.14672,45916.723,-0.11932999003591382,0.0,0.0,0.0,0.0,-0.018211443687415063,-6.654605347408414,-3.036661508395157,-4.266270294298096,-0.002153589018967688,0.005499432244326704,0.46489804299436455
11934,0.0,299.93762999999996,45830.049000000006,-0.11933999971061116,0.0,0.0,0.0,0.0,-0.01821297130530078,-6.616528219250494,-3.046771109942897,-4.267891190483066,-0.01265935524513109,0.010844611143779789,0.4574810725273666
11935,0.0,300.0376,45950.208,-0.11935000938530893,0.0,0.0,0.0,0.0,-0.01821449892318655,-6.6550472257770235,-3.050597750270557,-4.262071081908665,0.004634152527980246,-0.012558675675444789,0.4679698221300255
11936,0.0,300.25595,46001.318,-0.11935998602477615,0.0,0.0,0.0,0.0,-0.018216021499429053,-6.661179820682263,-3.0558418261631073,-4.266230473569166,-0.002811723329920487,-0.020039843642278583,0.45512796129013255
11937,0.0,299.76637,45889.323,-0.11936999569947371,0.0,0.0,0.0,0.0,-0.01821754911731477,-6.654123648310874,-3.0431050697560873,-4.251979414887695,0.013651134575512088,-0.001909460390224068,0.4521417308604146
11938,0.0,300.38822000000005,45824.762,-0.11938000537417104,0.0,0.0,0.0,0.0,-0.018219076735200485,-6.621972513362803,-3.0507845935889972,-4.2568261954160365,0.00992174720835021,0.007654906516430453,0.44655329178887854
11939,0.0,300.14767,45707.049000000006,-0.11939001504886881,0.0,0.0,0.0,0.0,-0.018220604353086256,-6.628249091107254,-3.029075203571447,-4.236477296307756,-0.007206054757982233,0.028899477575156374,0.4347204152660646
11940,0.0,299.66573,45858.025,-0.11939999168833604,0.0,0.0,0.0,0.0,-0.018222126929328758,-6.639806627047894,-3.0409582967692175,-4.2589294999736165,-0.02473619300777218,0.014855194868093587,0.4450971196726656
11941,0.0,299.5051,46096.845,-0.11941000136303359,0.0,0.0,0.0,0.0,-0.0182236545472145,-6.695133223583203,-3.0422049996922573,-4.274951719829886,-0.007591194768692592,-0.002162019361124698,0.46071706910673454
11942,0.0,299.34644,46084.960999999996,-0.11942001103773103,0.0,0.0,0.0,0.0,-0.018225182165100245,-6.671459242946764,-3.061617959683167,-4.275600301218896,-0.0023908936109378275,-0.0025485567450479678,0.4690972148537906
11943,0.0,299.08695,45987.617,-0.11942998767719848,0.0,0.0,0.0,0.0,-0.018226704741342775,-6.640081623125034,-3.0571120364884674,-4.281893597589996,0.011886058980812688,-0.012257756607746388,0.4531165787816246
11944,0.0,299.12638,46037.004,-0.11943999735189581,0.0,0.0,0.0,0.0,-0.018228232359228463,-6.6583107016991026,-3.0464157631328272,-4.289373105853167,-0.004415439150169916,0.0029120224241942372,0.4586220022724676
11945,0.0,299.4963,46058.606,-0.11945000702659336,0.0,0.0,0.0,0.0,-0.018229759977114207,-6.657365643330834,-3.054900922120247,-4.288399473832076,0.00014202044734382686,0.014935343964253688,0.45855450968330663
11946,0.0,299.7243,45903.117999999995,-0.11945998366606081,0.0,0.0,0.0,0.0,-0.018231282553356737,-6.6511381068912225,-3.0274813611641473,-4.274782304413166,0.013064117249327985,0.014944185584626285,0.46731941689083556
11947,0.0,300.3151,45917.872,-0.11946999334075814,0.0,0.0,0.0,0.0,-0.018232810171242453,-6.662046757467823,-3.0476153499262173,-4.248224310017096,0.00833462285186323,0.001083954388002969,0.45006235927019655
11948,0.0,300.5553,45858.05,-0.1194800030154557,0.0,0.0,0.0,0.0,-0.018234337789128197,-6.658653889507973,-3.0312274481088575,-4.249820786874656,0.002963511234650787,-0.02116028141735718,0.4580750296034856
11949,0.0,300.47042000000005,45865.149000000005,-0.11949001269015325,0.0,0.0,0.0,0.0,-0.018235865407013913,-6.638644429183194,-3.046254656366927,-4.256960957679336,0.0014705162925786586,-0.020414107831715583,0.43975736257317255
11950,0.0,300.4991,46050.901,-0.11949998932962069,0.0,0.0,0.0,0.0,-0.01823738798325647,-6.646371575770803,-3.068971520958907,-4.282981017597316,-0.0013324689711294488,-0.008296642894389902,0.4470719643825676
11951,0.0,300.15711,46127.974,-0.11950999900431802,0.0,0.0,0.0,0.0,-0.018238915601142158,-6.672947200718615,-3.0555198152813268,-4.293285264489266,0.002417820934995348,0.015441283043935985,0.4426592804620696
11952,0.0,300.15452999999997,45975.523,-0.11952000867901558,0.0,0.0,0.0,0.0,-0.018240443219027902,-6.651707249472394,-3.046757937691597,-4.276945796026686,-0.015994615883795683,0.017424534689917684,0.4570901707712876
11953,0.0,299.68755,45994.981,-0.11952998531848302,0.0,0.0,0.0,0.0,-0.01824196579527043,-6.6806664439554435,-3.0424618585926075,-4.258197325451356,-0.01029227635526859,0.011618840611440289,0.47315864549462255
11954,0.0,299.78688,46139.638,-0.11953999499318058,0.0,0.0,0.0,0.0,-0.018243493413156175,-6.6662926806868645,-3.068219689384707,-4.290785373842546,0.0006588024480687393,-0.007190688313590683,0.45582059879349063
11955,0.0,299.21688,46066.962999999996,-0.11955000466787791,0.0,0.0,0.0,0.0,-0.01824502103104189,-6.666727972929823,-3.0576492616914868,-4.278829123987555,0.0004857515001224405,-0.014937975374763384,0.4566266088505375
11956,0.0,300.20957000000004,45931.504,-0.11956001434257546,0.0,0.0,0.0,0.0,-0.018246548648927607,-6.629993907779453,-3.055456791125107,-4.276579506115536,0.012259558166424187,-0.018552498886739086,0.4536649902657485
11957,0.0,299.99644,45891.127,-0.1195699909820428,0.0,0.0,0.0,0.0,-0.018248071225170165,-6.644545597765593,-3.0385640881079268,-4.266647020685276,-0.0040989546357603265,-0.007434639218266763,0.45345278529730554
11958,0.0,300.16456,46034.078,-0.11958000065674024,0.0,0.0,0.0,0.0,-0.018249598843055853,-6.655271964649204,-3.061546424226107,-4.276391852197016,0.003160376305854857,0.000962869501442821,0.46015683299394355
11959,0.0,299.65257,46104.022000000004,-0.11959001033143779,0.0,0.0,0.0,0.0,-0.018251126460941597,-6.679203513461064,-3.069688699379687,-4.265579359054906,-0.00908876078594085,0.005555382901598604,0.45505925280085163
11960,0.0,300.64501,46149.371,-0.11959998697090513,0.0,0.0,0.0,0.0,-0.018252649037184127,-6.6672716829334835,-3.0692566495370475,-4.291728101735586,0.011056948847985889,0.004792479036930856,0.46051369967916356
11961,0.0,300.05677000000003,46118.219000000005,-0.11960999664560268,0.0,0.0,0.0,0.0,-0.01825417665506987,-6.670266546254054,-3.0550780382377267,-4.293442419579775,-0.0035719695409009464,-0.002015269943841658,0.45470922555380655
11962,0.0,300.06461,46076.928,-0.11962000632030001,0.0,0.0,0.0,0.0,-0.018255704272955586,-6.649943890323364,-3.056739464426697,-4.299552115032756,0.0100407594107708,-0.006205412326326514,0.46221362937193355
11963,0.0,299.807,46166.599,-0.11963001599499756,0.0,0.0,0.0,0.0,-0.018257231890841302,-6.681798750942193,-3.059827546756467,-4.2918671196493055,-0.003423610879809087,-0.0023582060613868178,0.4554395255633816
11964,0.0,300.35757,46136.025,-0.11963999263446501,0.0,0.0,0.0,0.0,-0.01825875446708386,-6.698512513991714,-3.042724695668547,-4.2829621711454555,-0.009313006914597221,0.0037733181424725063,0.4689317004499556
11965,0.0,299.99636,46076.473,-0.11965000230916256,0.0,0.0,0.0,0.0,-0.018260282084969576,-6.697373316904284,-3.0495213746893266,-4.259202570875566,-0.015340400824229683,0.002976890796921247,0.4703846099008466
11966,0.0,299.89485,46101.53599999999,-0.11966001198385989,0.0,0.0,0.0,0.0,-0.01826180970285529,-6.675425306488184,-3.053417523973847,-4.284873160834056,0.0003175494503971907,-0.006777186115356193,0.4438819085627336
11967,0.0,299.54197,46157.044,-0.11966998862332756,0.0,0.0,0.0,0.0,-0.01826333227909785,-6.673650598938034,-3.0612610929979467,-4.295677244000337,0.014261667410016986,0.005861299014815175,0.4421673678035216
11968,0.0,300.21574,46065.742999999995,-0.11967999829802489,0.0,0.0,0.0,0.0,-0.018264859896983565,-6.656734591168553,-3.0508597767464174,-4.295241343807317,0.015734972572170887,-0.016817804583038085,0.44211906617125457
11969,0.0,300.32555,46025.687000000005,-0.11969000797272222,0.0,0.0,0.0,0.0,-0.01826638751486928,-6.660758105990644,-3.0553969080441967,-4.2745045725607556,0.004515771580371956,0.005512496483166045,0.4570881138735846
11970,0.0,299.67167,46076.28599999999,-0.11969998461218989,0.0,0.0,0.0,0.0,-0.01826791009111184,-6.684242507533374,-3.0597947174532267,-4.262002991501946,0.0007899126540333092,0.0025405495361327177,0.45903509420573657
11971,0.0,300.0862,46213.175,-0.11970999428688722,0.0,0.0,0.0,0.0,-0.018269437708997555,-6.700798102242285,-3.058345060535157,-4.288507992917786,-0.005706482404210964,0.01919979952762268,0.45938162573993657
11972,0.0,300.0817,46273.03599999999,-0.11972000396158478,0.0,0.0,0.0,0.0,-0.01827096532688327,-6.690678368193543,-3.072996960956187,-4.302172177141337,-0.0095292008460339,0.007368976457461353,0.4559405574728295
11973,0.0,299.65015,46151.65,-0.1197300136362821,0.0,0.0,0.0,0.0,-0.018272492944768987,-6.678665173682934,-3.044217618365887,-4.306066299925655,0.000942779771445119,-0.001204960970595389,0.47115190367157256
11974,0.0,299.59084,46168.59099999999,-0.11973999027574966,0.0,0.0,0.0,0.0,-0.018274015521011544,-6.670085073161144,-3.063871326580557,-4.3001425358660255,0.0025324769725860174,-0.01020752406390419,0.4623843518812826
11975,0.0,299.18383,46244.727999999996,-0.1197499999504471,0.0,0.0,0.0,0.0,-0.01827554313889726,-6.705147275646514,-3.063640508207777,-4.288454797287536,0.003465697438612707,-0.02190228446558718,0.4579731574384316
11976,0.0,299.60773,46208.949,-0.11976000962514455,0.0,0.0,0.0,0.0,-0.018277070756783004,-6.712362224308573,-3.055408459095337,-4.278596076464556,-0.002820638106950307,-0.01144166369895429,0.45528407273303956
11977,0.0,300.23261,46125.995,-0.119769986264612,0.0,0.0,0.0,0.0,-0.018278593333025533,-6.674726062594174,-3.0596146629104575,-4.286809988400205,-0.017475337023431483,0.003853124557448786,0.44628388885229053
11978,0.0,299.83525,45969.84099999999,-0.11977999593930955,0.0,0.0,0.0,0.0,-0.018280120950911277,-6.648789291834413,-3.043231624693577,-4.281662880542226,0.0031469061590254574,0.01041677946130609,0.44630836897470655
11979,0.0,299.73224,46053.303,-0.11979000561400688,0.0,0.0,0.0,0.0,-0.018281648568796965,-6.651126555840084,-3.060015301999997,-4.287912404509005,-0.0025575834862138374,0.016763801392458384,0.44720457855565554
11980,0.0,300.30501,46301.21400000001,-0.11980001528870432,0.0,0.0,0.0,0.0,-0.01828317618668268,-6.691204650295483,-3.069415527152727,-4.313792635913186,0.005167576928550135,8.568713313191162e-05,0.47212338760245054
11981,0.0,300.08243,46302.492,-0.11980999192817188,0.0,0.0,0.0,0.0,-0.01828469876292524,-6.704352178293043,-3.088381846499557,-4.282067572632166,-0.0029242431323253273,0.006578968051293594,0.4765772500070125
11982,0.0,300.18581,46286.264,-0.11982000160286921,0.0,0.0,0.0,0.0,-0.018286226380810955,-6.705238670805534,-3.091702469727277,-4.272927246130086,0.009219015606171001,0.009699429193309132,0.47575992194634853
11983,0.0,299.91038,46408.77099999999,-0.11983001127756676,0.0,0.0,0.0,0.0,-0.0182877539986967,-6.707176410296774,-3.0900167255359072,-4.309914319830425,0.015045478170623086,0.015192053916838985,0.46689106541106057
11984,0.0,299.77993,46380.895,-0.11983998791703421,0.0,0.0,0.0,0.0,-0.01828927657493923,-6.702692069329204,-3.078609657235117,-4.317332222487516,-0.003149385379370137,0.0074095509431407434,0.4492723281672266
11985,0.0,299.43827999999996,46237.619000000006,-0.11984999759173176,0.0,0.0,0.0,0.0,-0.018290804192824972,-6.703863386444803,-3.060397803912747,-4.290820432296005,-0.01099847823771529,0.012115064649163789,0.44797029165622554
11986,0.0,299.34916,46144.185999999994,-0.11986000726642909,0.0,0.0,0.0,0.0,-0.01829233181071066,-6.687326435537734,-3.0525845310666373,-4.286769458396206,0.0016579303747999883,-0.00971241328406556,0.44337359138506655
11987,0.0,299.17247000000003,46156.519,-0.11986998390589665,0.0,0.0,0.0,0.0,-0.018293854386953218,-6.719046027268214,-3.055436019498057,-4.255947200954286,-0.012826015634829187,-0.0009114902131895801,0.43393667644621564
11988,0.0,299.80926,46182.375,-0.11987999358059409,0.0,0.0,0.0,0.0,-0.018295382004838934,-6.701761804412394,-3.0440230743466867,-4.292503947337155,-0.011471038832603388,-0.021108939021540082,0.46477477098719855
11989,0.0,300.41528999999997,46181.597,-0.11989000325529153,0.0,0.0,0.0,0.0,-0.018296909622724677,-6.696352872728573,-3.050151008301467,-4.2915483511678465,-0.0029275480501764974,-0.0005600759686126945,0.4425286522591776
11990,0.0,300.13501,46216.435999999994,-0.11990001292998897,0.0,0.0,0.0,0.0,-0.018298437240610393,-6.675728065618063,-3.059966260695157,-4.312948193279846,0.023691237298893077,0.001112510308946219,0.47091391148808454
11991,0.0,300.21611,46237.332,-0.11990998956945653,0.0,0.0,0.0,0.0,-0.01829995981685295,-6.684065796715934,-3.0844547930869872,-4.286473792017026,0.012367879668364688,0.0018307173812277383,0.4503845930669985
11992,0.0,300.0948,46440.84099999999,-0.11991999924415386,0.0,0.0,0.0,0.0,-0.018301487434738667,-6.724962191952094,-3.0790865940571868,-4.312807047540916,0.005443360301017835,-0.003960204118741715,0.4937529537771225
11993,0.0,299.85478,46558.974,-0.1199300089188513,0.0,0.0,0.0,0.0,-0.018303015052624355,-6.751333241704715,-3.098130123061637,-4.303302153652855,-0.01154977545812409,0.01131785568248539,0.4837094060034015
11994,0.0,300.15121,46364.639,-0.11993998555831886,0.0,0.0,0.0,0.0,-0.018304537628866913,-6.703776854886264,-3.095829538709587,-4.294086137368306,0.0024299466002670575,0.00888147849045868,0.46864825386698156
11995,0.0,299.48765,46150.74,-0.1199499952330162,0.0,0.0,0.0,0.0,-0.01830606524675263,-6.681303778268345,-3.066396143179737,-4.280972451924087,-0.01114882023455289,-0.005774367222485676,0.4575224941914545
11996,0.0,299.66154,46303.4,-0.11996000490771375,0.0,0.0,0.0,0.0,-0.018307592864638372,-6.702104181621184,-3.067791895192487,-4.305181225963306,-0.008869256465102462,-0.03167371683220247,0.45022473259872153
11997,0.0,300.21495,46420.614,-0.11997001458241108,0.0,0.0,0.0,0.0,-0.01830912048252409,-6.721451685655634,-3.0798149182290673,-4.309441030708716,-0.0070314481570249035,-0.01176320139293759,0.4477461202041016
11998,0.0,299.52324,46196.497,-0.11997999122187875,0.0,0.0,0.0,0.0,-0.018310643058766646,-6.715170142985694,-3.0535639386132973,-4.273847479870906,0.0007516729093668403,0.005641481903670914,0.45369993726169755
11999,0.0,298.67987999999997,46088.632000000005,-0.11999000089657608,0.0,0.0,0.0,0.0,-0.018312170676652362,-6.694425671038374,-3.052450579403417,-4.262916841767137,-0.0010548920446597392,0.016791087204401287,0.44910693535340357
12000,0.0,299.53051,46269.32,-0.12000001057127363,0.0,0.0,0.0,0.0,-0.018313698294538078,-6.7170458715708135,-3.046238849665367,-4.3014332138434055,-0.014311469665682086,-0.006276427783435194,0.4577665050805366
